x	y	stress_yy
 1.000000000000000e+00	 0.000000000000000e+00	 3.109754628865765e+01
 9.997942209309062e-01	 2.028585204427908e-02	 3.106398901572083e+01
 9.991701818187483e-01	 4.073018247306789e-02	 3.096966557179496e+01
 9.981180433968323e-01	 6.132186759777695e-02	 3.081390178942110e+01
 9.966282799005903e-01	 8.204920293574097e-02	 3.059626038789231e+01
 9.946917154369740e-01	 1.028999088485992e-01	 3.031654807849128e+01
 9.922995607885995e-01	 1.238611386139841e-01	 2.997482228538507e+01
 9.894434504817674e-01	 1.449194890231616e-01	 2.957139772619382e+01
 9.861154799348201e-01	 1.660610135851266e-01	 2.910685315068384e+01
 9.823082424914590e-01	 1.872712384039294e-01	 2.858203858604008e+01
 9.780148661327976e-01	 2.085351807807159e-01	 2.799808347976579e+01
 1.028571428571429e+00	 0.000000000000000e+00	 2.899135437180002e+01
 1.028359770100360e+00	 2.086544781697277e-02	 2.896063295369363e+01
 1.027717901299284e+00	 4.189390197229841e-02	 2.887862394306810e+01
 1.026635701779599e+00	 6.307392095771343e-02	 2.874479065192895e+01
 1.025103373612036e+00	 8.439346587676214e-02	 2.855874096966597e+01
 1.023111478735173e+00	 1.058399062442735e-01	 2.832022758207496e+01
 1.020650976811131e+00	 1.274000282886694e-01	 2.802914799887982e+01
 1.017713263352675e+00	 1.490600458523949e-01	 2.768554475384706e+01
 1.014290207932958e+00	 1.708056139732731e-01	 2.728960621077726e+01
 1.010374192276929e+00	 1.926218452154702e-01	 2.684166847239362e+01
 1.005958148022306e+00	 2.144933288030222e-01	 2.634221894379802e+01
 1.057142857142857e+00	 0.000000000000000e+00	 2.719152048767976e+01
 1.056925319269815e+00	 2.144504358966646e-02	 2.716258948501230e+01
 1.056265620779820e+00	 4.305762147152892e-02	 2.709072360140121e+01
 1.055153360162366e+00	 6.482597431764993e-02	 2.697547479541952e+01
 1.053578467323482e+00	 8.673772881778334e-02	 2.681645461609288e+01
 1.051531242033373e+00	 1.087799036399477e-01	 2.661332785919184e+01
 1.049002392833662e+00	 1.309389179633547e-01	 2.636580615449735e+01
 1.045983076223583e+00	 1.532006026816280e-01	 2.607364196749635e+01
 1.042464935931095e+00	 1.755502143614196e-01	 2.573662358517845e+01
 1.038440142062399e+00	 1.979724520270111e-01	 2.535457173547055e+01
 1.033901429911815e+00	 2.204514768253282e-01	 2.492733855901999e+01
 1.085714285714286e+00	 0.000000000000000e+00	 2.565352851915156e+01
 1.085490868439270e+00	 2.202463936236015e-02	 2.562517812210867e+01
 1.084813340260355e+00	 4.422134097075943e-02	 2.556127548625835e+01
 1.083671018545132e+00	 6.657802767758639e-02	 2.546141726048500e+01
 1.082053561034926e+00	 8.908199175880449e-02	 2.532518187768781e+01
 1.079951005331572e+00	 1.117199010356220e-01	 2.515211690182464e+01
 1.077353808856194e+00	 1.344778076380400e-01	 2.494172634818779e+01
 1.074252889094490e+00	 1.573411595108612e-01	 2.469345857952970e+01
 1.070639663929233e+00	 1.802948147495661e-01	 2.440669548647593e+01
 1.066506091847870e+00	 2.033230588385519e-01	 2.408074375939410e+01
 1.061844711801323e+00	 2.264096248476344e-01	 2.371482914539198e+01
 1.114285714285714e+00	 0.000000000000000e+00	 2.433712317296027e+01
 1.114056417608724e+00	 2.260423513505383e-02	 2.430807422292764e+01
 1.113361059740891e+00	 4.538506046998995e-02	 2.425004325401252e+01
 1.112188676927899e+00	 6.833008103752287e-02	 2.416261006454734e+01
 1.110528654746372e+00	 9.142625469982567e-02	 2.404525999778820e+01
 1.108370768629771e+00	 1.146598984312963e-01	 2.389741621959109e+01
 1.105705224878725e+00	 1.380166973127251e-01	 2.371836853949430e+01
 1.102522701965398e+00	 1.614817163400943e-01	 2.350725116729269e+01
 1.098814391927371e+00	 1.850394151377126e-01	 2.326303687889775e+01
 1.094572041633340e+00	 2.086736656500927e-01	 2.298452277459419e+01
 1.089787993690832e+00	 2.323677728699406e-01	 2.267031958323879e+01
 1.142857142857143e+00	 0.000000000000000e+00	 2.319608095588711e+01
 1.142621966778179e+00	 2.318383090774753e-02	 2.316556562406194e+01
 1.141908779221427e+00	 4.654877996922045e-02	 2.311221726876762e+01
 1.140706335310665e+00	 7.008213439745939e-02	 2.303553354895949e+01
 1.139003748457817e+00	 9.377051764084685e-02	 2.293484011099310e+01
 1.136790531927970e+00	 1.175998958269705e-01	 2.280927343509271e+01
 1.134056640901257e+00	 1.415555869874104e-01	 2.265776483269882e+01
 1.130792514836306e+00	 1.656222731693275e-01	 2.247902616553958e+01
 1.126989119925508e+00	 1.897840155258590e-01	 2.227153802991812e+01
 1.122637991418810e+00	 2.140242724616336e-01	 2.203354133891797e+01
 1.117731275580340e+00	 2.383259208922468e-01	 2.176303343487725e+01
 1.171428571428571e+00	 0.000000000000000e+00	 2.219347013245410e+01
 1.171187515947633e+00	 2.376342668044121e-02	 2.216098886416114e+01
 1.170456498701963e+00	 4.771249946845097e-02	 2.211129790666730e+01
 1.169223993693432e+00	 7.183418775739585e-02	 2.204376288837037e+01
 1.167478842169263e+00	 9.611478058186798e-02	 2.195751177090431e+01
 1.165210295226169e+00	 1.205398932226448e-01	 2.185141431187159e+01
 1.162408056923788e+00	 1.450944766620957e-01	 2.172406222513518e+01
 1.159062327707213e+00	 1.697628299985608e-01	 2.157375059868774e+01
 1.155163847923646e+00	 1.945286159140056e-01	 2.139846133745231e+01
 1.150703941204280e+00	 2.193748792731744e-01	 2.119584962838029e+01
 1.145674557469849e+00	 2.442840689145530e-01	 2.096323467098750e+01
 1.200000000000000e+00	 0.000000000000000e+00	 2.130278665952245e+01
 1.199753065117088e+00	 2.434302245313490e-02	 2.126803921960443e+01
 1.199004218182498e+00	 4.887621896768148e-02	 2.122124290244452e+01
 1.197741652076199e+00	 7.358624111733233e-02	 2.116158180879158e+01
 1.195953935880709e+00	 9.845904352288920e-02	 2.108794661603477e+01
 1.193630058524368e+00	 1.234798906183190e-01	 2.099891141145652e+01
 1.190759472946319e+00	 1.486333663367810e-01	 2.089271055766736e+01
 1.187332140578121e+00	 1.739033868277939e-01	 2.076721611145615e+01
 1.183338575921784e+00	 1.992732163021520e-01	 2.061991656414549e+01
 1.178769890989750e+00	 2.247254860847153e-01	 2.044789794847549e+01
 1.173617839359357e+00	 2.502422169368591e-01	 2.024782865628875e+01
 1.228571428571429e+00	 0.000000000000000e+00	 2.050014051301223e+01
 1.228318614286542e+00	 2.492261822582858e-02	 2.046308440086562e+01
 1.227551937663034e+00	 5.003993846691199e-02	 2.041872045838700e+01
 1.226259310458965e+00	 7.533829447726882e-02	 2.036600169359716e+01
 1.224429029592154e+00	 1.008033064639103e-01	 2.030354296097295e+01
 1.222049821822568e+00	 1.264198880139933e-01	 2.022959598104110e+01
 1.219110888968850e+00	 1.521722560114663e-01	 2.014202348637163e+01
 1.215601953449029e+00	 1.780439436570271e-01	 2.003827294489354e+01
 1.211513303919922e+00	 2.040178166902984e-01	 1.991535060316068e+01
 1.206835840775221e+00	 2.300760928962561e-01	 1.976979692281954e+01
 1.201561121248866e+00	 2.562003649591653e-01	 1.959766484439004e+01
 1.257142857142857e+00	 0.000000000000000e+00	 1.976395864028201e+01
 1.256884163455996e+00	 2.550221399852227e-02	 1.972486396442034e+01
 1.256099657143569e+00	 5.120365796614251e-02	 1.968280558909578e+01
 1.254776968841732e+00	 7.709034783720532e-02	 1.963645535242280e+01
 1.252904123303599e+00	 1.031475694049315e-01	 1.958411454432134e+01
 1.250469585120767e+00	 1.293598854096676e-01	 1.952368800099529e+01
 1.247462304991382e+00	 1.557111456861515e-01	 1.945265614897633e+01
 1.243871766319936e+00	 1.821845004862603e-01	 1.936804534391163e+01
 1.239688031918060e+00	 2.087624170784450e-01	 1.926639719169563e+01
 1.234901790560692e+00	 2.354266997077970e-01	 1.914373793131016e+01
 1.229504403138374e+00	 2.621585129814716e-01	 1.899554939018018e+01
 1.285714285714286e+00	 0.000000000000000e+00	 1.907472751885797e+01
 1.285449712625451e+00	 2.608180977121596e-02	 1.903422876013528e+01
 1.284647376624105e+00	 5.236737746537301e-02	 1.899471678066507e+01
 1.283294627224498e+00	 7.884240119714178e-02	 1.895453122963657e+01
 1.281379217015045e+00	 1.054918323459527e-01	 1.891162264221165e+01
 1.278889348418966e+00	 1.322998828053418e-01	 1.886352658149220e+01
 1.275813721013913e+00	 1.592500353608367e-01	 1.880733424913785e+01
 1.272141579190844e+00	 1.863250573154936e-01	 1.873965976439434e+01
 1.267862759916197e+00	 2.135070174665914e-01	 1.865660471085484e+01
 1.262967740346161e+00	 2.407773065193378e-01	 1.855372101136076e+01
 1.257447685027883e+00	 2.681166610037777e-01	 1.842597370333654e+01
 9.780148661327976e-01	 2.085351807807159e-01	 2.799808347976579e+01
 9.732290496522831e-01	 2.298373705751832e-01	 2.735883032470097e+01
 9.679450980693772e-01	 2.511618743429501e-01	 2.666762511860004e+01
 9.621579570512621e-01	 2.724923222458603e-01	 2.592531404361742e+01
 9.558632461069742e-01	 2.938119377115879e-01	 2.513309288628132e+01
 9.490572903155012e-01	 3.151035697972945e-01	 2.429253616622555e+01
 9.417371503486140e-01	 3.363497281896808e-01	 2.340562980193712e+01
 9.339006505507231e-01	 3.575326207508009e-01	 2.247480745156488e+01
 9.255464048419428e-01	 3.786341934957203e-01	 2.150452919691867e+01
 9.166738402169075e-01	 3.996361728647543e-01	 2.051311790556243e+01
 9.072832176207859e-01	 4.205201101299123e-01	 1.950845282979978e+01
 1.005958148022306e+00	 2.144933288030222e-01	 2.634221894379802e+01
 1.001035593928063e+00	 2.364041525916170e-01	 2.579477439948340e+01
 9.956006722999308e-01	 2.583379278956058e-01	 2.520236518161664e+01
 9.896481843955840e-01	 2.802778171671706e-01	 2.456503426689662e+01
 9.831736245671735e-01	 3.022065645033477e-01	 2.388307075960984e+01
 9.761732128959442e-01	 3.241065289343600e-01	 2.315704062996203e+01
 9.686439260728601e-01	 3.459597204236718e-01	 2.238782251625644e+01
 9.605835262807435e-01	 3.677478384865381e-01	 2.157664885933256e+01
 9.519905878374268e-01	 3.894523133098838e-01	 2.073327002832865e+01
 9.428645213659619e-01	 4.110543492323186e-01	 1.987284975306505e+01
 9.332055952670942e-01	 4.325349704193385e-01	 1.899857035941453e+01
 1.033901429911815e+00	 2.204514768253282e-01	 2.492733855901999e+01
 1.028842138203842e+00	 2.429709346080507e-01	 2.445833079066981e+01
 1.023256246530484e+00	 2.655139814482615e-01	 2.395050849915384e+01
 1.017138411739906e+00	 2.880633120884810e-01	 2.340317450044875e+01
 1.010484003027373e+00	 3.106011912951072e-01	 2.281578133629937e+01
 1.003289135476387e+00	 3.331094880714255e-01	 2.218796317245133e+01
 9.955507017971059e-01	 3.555697126576624e-01	 2.151957429955237e+01
 9.872664020107644e-01	 3.779630562222754e-01	 2.081196453881146e+01
 9.784347708329111e-01	 4.002704331240473e-01	 2.008134705291994e+01
 9.690552025150163e-01	 4.224725255998830e-01	 1.933409128378716e+01
 9.591279729134022e-01	 4.445498307087645e-01	 1.857222001468480e+01
 1.061844711801323e+00	 2.264096248476344e-01	 2.371482914539198e+01
 1.056648682479622e+00	 2.495377166244845e-01	 2.331245280550147e+01
 1.050911820761038e+00	 2.726900350009172e-01	 2.287673611027611e+01
 1.044628639084227e+00	 2.958488070097912e-01	 2.240630161309597e+01
 1.037794381487572e+00	 3.189958180868669e-01	 2.189983117504882e+01
 1.030405058056830e+00	 3.421124472084912e-01	 2.135609847997229e+01
 1.022457477521352e+00	 3.651797048916534e-01	 2.077400971254931e+01
 1.013949277740785e+00	 3.881782739580125e-01	 2.015912945523988e+01
 1.004878953828395e+00	 4.110885529382106e-01	 1.952610830559459e+01
 9.952458836640706e-01	 4.338907019674474e-01	 1.887647512659005e+01
 9.850503505597105e-01	 4.565646909981905e-01	 1.821140632049553e+01
 1.089787993690832e+00	 2.323677728699406e-01	 2.267031958323879e+01
 1.084455226755401e+00	 2.561044986409184e-01	 2.232421792175845e+01
 1.078567394991592e+00	 2.798660885535729e-01	 2.194972025622906e+01
 1.072118866428549e+00	 3.036343019311015e-01	 2.154482652464817e+01
 1.065104759947771e+00	 3.273904448786265e-01	 2.110751050358643e+01
 1.057520980637273e+00	 3.511154063455567e-01	 2.063575229395235e+01
 1.049364253245598e+00	 3.747896971256442e-01	 2.012794349160303e+01
 1.040632153470806e+00	 3.983934916937497e-01	 1.959621306695418e+01
 1.031323136823879e+00	 4.219066727523740e-01	 1.904740900812101e+01
 1.021436564813125e+00	 4.453088783350120e-01	 1.848187458472900e+01
 1.010972728206019e+00	 4.685795512876166e-01	 1.790009911486174e+01
 1.117731275580340e+00	 2.383259208922468e-01	 2.176303343487725e+01
 1.112261771031181e+00	 2.626712806573522e-01	 2.146432333359668e+01
 1.106222969222145e+00	 2.870421421062286e-01	 2.114163912176271e+01
 1.099609093772871e+00	 3.114197968524120e-01	 2.079253730014466e+01
 1.092415138407971e+00	 3.357850716703862e-01	 2.041434648220399e+01
 1.084636903217716e+00	 3.601183654826223e-01	 2.000431660886939e+01
 1.076271028969845e+00	 3.843996893596353e-01	 1.956300552427472e+01
 1.067315029200826e+00	 4.086087094294868e-01	 1.910350905337077e+01
 1.057767319819363e+00	 4.327247925665375e-01	 1.862724843785967e+01
 1.047627245962180e+00	 4.567270547025765e-01	 1.813406675665959e+01
 1.036895105852327e+00	 4.805944115770427e-01	 1.762392416704718e+01
 1.145674557469849e+00	 2.442840689145530e-01	 2.096323467098750e+01
 1.140068315306960e+00	 2.692380626737860e-01	 2.070548828070412e+01
 1.133878543452699e+00	 2.942181956588844e-01	 2.042751012714060e+01
 1.127099321117193e+00	 3.192052917737224e-01	 2.012631550534523e+01
 1.119725516868170e+00	 3.441796984621459e-01	 1.979882458398098e+01
 1.111752825798158e+00	 3.691213246196877e-01	 1.944190570531997e+01
 1.103177804694090e+00	 3.940096815936261e-01	 1.906063326279944e+01
 1.093997904930847e+00	 4.188239271652241e-01	 1.866335059741145e+01
 1.084211502814847e+00	 4.435429123807009e-01	 1.824945507439528e+01
 1.073817927111234e+00	 4.681452310701406e-01	 1.781843967483081e+01
 1.062817483498635e+00	 4.926092718664686e-01	 1.736989338134911e+01
 1.173617839359357e+00	 2.502422169368591e-01	 2.024782865628875e+01
 1.167874859582740e+00	 2.758048446902198e-01	 2.002533016034211e+01
 1.161534117683253e+00	 3.013942492115401e-01	 1.978620966390827e+01
 1.154589548461514e+00	 3.269907866950325e-01	 1.952694923007984e+01
 1.147035895328369e+00	 3.525743252539056e-01	 1.924385748431568e+01
 1.138868748378601e+00	 3.781242837567534e-01	 1.893382463230605e+01
 1.130084580418337e+00	 4.036196738276170e-01	 1.860495457848253e+01
 1.120680780660868e+00	 4.290391449009612e-01	 1.826023256218200e+01
 1.110655685810331e+00	 4.543610321948645e-01	 1.789941197775921e+01
 1.100008608260289e+00	 4.795634074377050e-01	 1.752173612613361e+01
 1.088739861144943e+00	 5.046241321558949e-01	 1.712616798893826e+01
 1.201561121248866e+00	 2.562003649591653e-01	 1.959766484439004e+01
 1.195681403858519e+00	 2.823716267066536e-01	 1.940551376253243e+01
 1.189189691913806e+00	 3.085703027641958e-01	 1.920027000037226e+01
 1.182079775805836e+00	 3.347762816163428e-01	 1.897796651554534e+01
 1.174346273788568e+00	 3.609689520456651e-01	 1.873439013479694e+01
 1.165984670959044e+00	 3.871272428938190e-01	 1.846774472069748e+01
 1.156991356142583e+00	 4.132296660616079e-01	 1.818446443671646e+01
 1.147363656390888e+00	 4.392543626366984e-01	 1.788453700261930e+01
 1.137099868805815e+00	 4.651791520090278e-01	 1.756752186358060e+01
 1.126199289409343e+00	 4.909815838052694e-01	 1.723328044445984e+01
 1.114662238791251e+00	 5.166389924453209e-01	 1.688194103997031e+01
 1.229504403138374e+00	 2.621585129814716e-01	 1.899554939018018e+01
 1.223487948134298e+00	 2.889384087230874e-01	 1.882952039616571e+01
 1.216845266144360e+00	 3.157463563168516e-01	 1.865391117811632e+01
 1.209570003150158e+00	 3.425617765376530e-01	 1.846439989597079e+01
 1.201656652248767e+00	 3.693635788374249e-01	 1.825635187592206e+01
 1.193100593539487e+00	 3.961302020308846e-01	 1.802923546951919e+01
 1.183898131866829e+00	 4.228396582955988e-01	 1.778557731958961e+01
 1.174046532120909e+00	 4.494695803724356e-01	 1.752448944071295e+01
 1.163544051801299e+00	 4.759972718231914e-01	 1.724544136133473e+01
 1.152389970558398e+00	 5.023997601728341e-01	 1.694824152553525e+01
 1.140584616437559e+00	 5.286538527347470e-01	 1.663299978083441e+01
 1.257447685027883e+00	 2.681166610037777e-01	 1.842597370333654e+01
 1.251294492410078e+00	 2.955051907395213e-01	 1.828237761576563e+01
 1.244500840374913e+00	 3.229224098695072e-01	 1.813274695118294e+01
 1.237060230494479e+00	 3.503472714589634e-01	 1.797251125472410e+01
 1.228967030708967e+00	 3.777582056291845e-01	 1.779688255282110e+01
 1.220216516119931e+00	 4.051331611679501e-01	 1.760460677192761e+01
 1.210804907591075e+00	 4.324496505295896e-01	 1.739514764173051e+01
 1.200729407850930e+00	 4.596847981081725e-01	 1.716757345630149e+01
 1.189988234796783e+00	 4.868153916373547e-01	 1.692136359416175e+01
 1.178580651707452e+00	 5.138179365403983e-01	 1.665638329919225e+01
 1.166506994083867e+00	 5.406687130241730e-01	 1.637284382133534e+01
 9.072832176207859e-01	 4.205201101299123e-01	 1.950845282979978e+01
 8.973756499953728e-01	 4.412674277525846e-01	 1.849412321037494e+01
 8.869531173021131e-01	 4.618594674877455e-01	 1.747281610421487e+01
 8.760184783453765e-01	 4.822775400093309e-01	 1.644773940967451e+01
 8.645754792381196e-01	 5.025029758122590e-01	 1.542223217432429e+01
 8.526287583731883e-01	 5.225171771291306e-01	 1.439976655839395e+01
 8.401838477866392e-01	 5.423016705842215e-01	 1.338395221927756e+01
 8.272471708245099e-01	 5.618381602942648e-01	 1.237854331571915e+01
 8.138260360510750e-01	 5.811085811149189e-01	 1.138744821176044e+01
 7.999286273645809e-01	 6.000951517239724e-01	 1.041474182549072e+01
 7.855639903154131e-01	 6.187804272274013e-01	 9.464680420585339e+00
 9.332055952670942e-01	 4.325349704193385e-01	 1.899857035941453e+01
 9.230149542809547e-01	 4.538750685455156e-01	 1.811215838733888e+01
 9.122946349393163e-01	 4.750554522731095e-01	 1.721515971249413e+01
 9.010475777266727e-01	 4.960568982953117e-01	 1.631067972857834e+01
 8.892776357877803e-01	 5.168602036926095e-01	 1.540200451860164e+01
 8.769895800409936e-01	 5.374462393328200e-01	 1.449260109335802e+01
 8.641891005805432e-01	 5.577960040294849e-01	 1.358612021647155e+01
 8.508828042766385e-01	 5.778906791598153e-01	 1.268640210987944e+01
 8.370782085096774e-01	 5.977116834324883e-01	 1.179748519912036e+01
 8.227837310035689e-01	 6.172407274875146e-01	 1.092361790253649e+01
 8.080086757529967e-01	 6.364598680053274e-01	 1.006927329758437e+01
 9.591279729134022e-01	 4.445498307087645e-01	 1.857222001468480e+01
 9.486542585665370e-01	 4.664827093384467e-01	 1.779630375869467e+01
 9.376361525765199e-01	 4.882514370584740e-01	 1.700730451822465e+01
 9.260766771079691e-01	 5.098362565812925e-01	 1.620816216254594e+01
 9.139797923374409e-01	 5.312174315729596e-01	 1.540203014649312e+01
 9.013504017087990e-01	 5.523753015365095e-01	 1.459227386116993e+01
 8.881943533744472e-01	 5.732903374747486e-01	 1.378247195699137e+01
 8.745184377287676e-01	 5.939431980253657e-01	 1.297642104726929e+01
 8.603303809682793e-01	 6.143147857500572e-01	 1.217814404580661e+01
 8.456388346425571e-01	 6.343863032510567e-01	 1.139190221140624e+01
 8.304533611905794e-01	 6.541393087832529e-01	 1.062221077173507e+01
 9.850503505597105e-01	 4.565646909981905e-01	 1.821140632049553e+01
 9.742935628521188e-01	 4.790903501313776e-01	 1.753088329522582e+01
 9.629776702137227e-01	 5.014474218438378e-01	 1.683571259349882e+01
 9.511057764892654e-01	 5.236156148672735e-01	 1.612861716529535e+01
 9.386819488871013e-01	 5.455746594533100e-01	 1.541255012877303e+01
 9.257112233766044e-01	 5.673043637401988e-01	 1.469069094197562e+01
 9.121996061683513e-01	 5.887846709200121e-01	 1.396644515900246e+01
 8.981540711808965e-01	 6.099957168909159e-01	 1.324344831529116e+01
 8.835825534268815e-01	 6.309178880676264e-01	 1.252557430713190e+01
 8.684939382815448e-01	 6.515318790145986e-01	 1.181694841930488e+01
 8.528980466281628e-01	 6.718187495611787e-01	 1.112196491859649e+01
 1.010972728206019e+00	 4.685795512876166e-01	 1.790009911486174e+01
 9.999328671377007e-01	 4.916979909243085e-01	 1.730191752389602e+01
 9.883191878509262e-01	 5.146434066292022e-01	 1.668829471253098e+01
 9.761348758705620e-01	 5.373949731532545e-01	 1.606169676342584e+01
 9.633841054367615e-01	 5.599318873336598e-01	 1.542482040562973e+01
 9.500720450444099e-01	 5.822334259438885e-01	 1.478058657948431e+01
 9.362048589622554e-01	 6.042790043652754e-01	 1.413213843190709e+01
 9.217897046330257e-01	 6.260482357564667e-01	 1.348284444846240e+01
 9.068347258854838e-01	 6.475209903851954e-01	 1.283630721952073e+01
 8.913490419205328e-01	 6.686774547781404e-01	 1.219637809018282e+01
 8.753427320657462e-01	 6.894981903391044e-01	 1.156717766529613e+01
 1.036895105852327e+00	 4.805944115770427e-01	 1.762392416704718e+01
 1.025572171423283e+00	 5.043056317172396e-01	 1.709684106669346e+01
 1.013660705488129e+00	 5.278393914145664e-01	 1.655415255423873e+01
 1.001163975251859e+00	 5.511743314392353e-01	 1.599803929016936e+01
 9.880862619864227e-01	 5.742891152140105e-01	 1.543089705199698e+01
 9.744328667122151e-01	 5.971624881475777e-01	 1.485532711911210e+01
 9.602101117561594e-01	 6.197733378105389e-01	 1.427413217643912e+01
 9.454253380851542e-01	 6.421007546220170e-01	 1.369031863380986e+01
 9.300868983440858e-01	 6.641240927027647e-01	 1.310710601424806e+01
 9.142041455595211e-01	 6.858230305416828e-01	 1.252794377422509e+01
 8.977874175033295e-01	 7.071776311170301e-01	 1.195653559137652e+01
 1.062817483498635e+00	 4.926092718664686e-01	 1.736989338134911e+01
 1.051211475708865e+00	 5.169132725101705e-01	 1.690425543161411e+01
 1.039002223125333e+00	 5.410353761999305e-01	 1.642335217262417e+01
 1.026193074633155e+00	 5.649536897252163e-01	 1.592906173790185e+01
 1.012788418536082e+00	 5.886463430943606e-01	 1.542344583252876e+01
 9.987936883800207e-01	 6.120915503512673e-01	 1.490873620975350e+01
 9.842153645500629e-01	 6.352676712558022e-01	 1.438732800725989e+01
 9.690609715372834e-01	 6.581532734875678e-01	 1.386178106297975e+01
 9.533390708026881e-01	 6.807271950203340e-01	 1.333483004663987e+01
 9.370592491985090e-01	 7.029686063052250e-01	 1.280940390408900e+01
 9.202321029409126e-01	 7.248570718949560e-01	 1.228865472712826e+01
 1.088739861144943e+00	 5.046241321558949e-01	 1.712616798893826e+01
 1.076850779994447e+00	 5.295209133031015e-01	 1.671371118042676e+01
 1.064343740762536e+00	 5.542313609852948e-01	 1.628672352365573e+01
 1.051222174014451e+00	 5.787330480111971e-01	 1.584677512628855e+01
 1.037490575085744e+00	 6.030035709747108e-01	 1.539557199794359e+01
 1.023154510047826e+00	 6.270206125549569e-01	 1.493493772524271e+01
 1.008220617343967e+00	 6.507620047010657e-01	 1.446680361097171e+01
 9.926966049894120e-01	 6.742057923531178e-01	 1.399320865660984e+01
 9.765912432612903e-01	 6.973302973379029e-01	 1.351631043815888e+01
 9.599143528374970e-01	 7.201141820687669e-01	 1.303840753009939e+01
 9.426767883784958e-01	 7.425365126728818e-01	 1.256201797298475e+01
 1.114662238791251e+00	 5.166389924453209e-01	 1.688194103997031e+01
 1.102490084280029e+00	 5.421285540960326e-01	 1.651551469095315e+01
 1.089685258399739e+00	 5.674273457706588e-01	 1.613568180689391e+01
 1.076251273395748e+00	 5.925124062971779e-01	 1.574361913933202e+01
 1.062192731635404e+00	 6.173607988550611e-01	 1.534066702763132e+01
 1.047515331715631e+00	 6.419496747586461e-01	 1.492821352090423e+01
 1.032225870137871e+00	 6.662563381463295e-01	 1.450768052680594e+01
 1.016332238441541e+00	 6.902583112186683e-01	 1.408052198408527e+01
 9.998434157198922e-01	 7.139333996554720e-01	 1.364823535718515e+01
 9.827694564764852e-01	 7.372597578323090e-01	 1.321238729271010e+01
 9.651214738160793e-01	 7.602159534508075e-01	 1.277862840524261e+01
 1.140584616437559e+00	 5.286538527347470e-01	 1.663299978083441e+01
 1.128129388565611e+00	 5.547361948889636e-01	 1.630286898224005e+01
 1.115026776036942e+00	 5.806233305560230e-01	 1.596220217070728e+01
 1.101280372777044e+00	 6.062917645831586e-01	 1.561231296581563e+01
 1.086894888185065e+00	 6.317180267354117e-01	 1.525226962252644e+01
 1.071876153383437e+00	 6.568787369623355e-01	 1.488287366506495e+01
 1.056231122931775e+00	 6.817506715915925e-01	 1.450500279410598e+01
 1.039967871893670e+00	 7.063108300842187e-01	 1.411947159759258e+01
 1.023095588178494e+00	 7.305365019730412e-01	 1.372704340506256e+01
 1.005624560115473e+00	 7.544053335958509e-01	 1.332935653398002e+01
 9.875661592536626e-01	 7.778953942287332e-01	 1.293451634252292e+01
 1.166506994083867e+00	 5.406687130241730e-01	 1.637284382133534e+01
 1.153768692851193e+00	 5.673438356818945e-01	 1.607432426860669e+01
 1.140368293674145e+00	 5.938193153413872e-01	 1.576534658188155e+01
 1.126309472158341e+00	 6.200711228691397e-01	 1.544787707262012e+01
 1.111597044734725e+00	 6.460752546157617e-01	 1.512394110194999e+01
 1.096236975051242e+00	 6.718077991660251e-01	 1.479313720497773e+01
 1.080236375725679e+00	 6.972450050368562e-01	 1.445362477621499e+01
 1.063603505345799e+00	 7.223633489497692e-01	 1.410553231602728e+01
 1.046347760637097e+00	 7.471396042906102e-01	 1.374879952471117e+01
 1.028479663754461e+00	 7.715509093593932e-01	 1.338492408455610e+01
 1.010010844691245e+00	 7.955748350066589e-01	 1.302118057361059e+01
 7.855639903154131e-01	 6.187804272274013e-01	 9.464680420585339e+00
 7.707420146512741e-01	 6.371473509725164e-01	 8.542501601063805e+00
 7.554734131438946e-01	 6.551793052536952e-01	 7.651580915376423e+00
 7.397696967816780e-01	 6.728601606006588e-01	 6.793420364456378e+00
 7.236431464421306e-01	 6.901743233468870e-01	 5.971745515419430e+00
 7.071067811865475e-01	 7.071067811865477e-01	 5.189193596330737e+00
 6.901743233468870e-01	 7.236431464421306e-01	 4.446122511307641e+00
 6.728601606006588e-01	 7.397696967816780e-01	 3.742698459302511e+00
 6.551793052536952e-01	 7.554734131438944e-01	 3.089687394730045e+00
 6.371473509725165e-01	 7.707420146512741e-01	 2.500589837887921e+00
 6.187804272274013e-01	 7.855639903154132e-01	 1.974946855707982e+00
 8.080086757529967e-01	 6.364598680053274e-01	 1.006927329758437e+01
 7.927632150698820e-01	 6.553515610003028e-01	 9.237067226899812e+00
 7.770583678051489e-01	 6.738987139752293e-01	 8.427105578907453e+00
 7.609059738325830e-01	 6.920847366178203e-01	 7.640160166495648e+00
 7.443186649119058e-01	 7.098935897282267e-01	 6.876892073045346e+00
 7.273098320775914e-01	 7.273098320775918e-01	 6.139233994962789e+00
 7.098935897282267e-01	 7.443186649119059e-01	 5.430680344276388e+00
 6.920847366178202e-01	 7.609059738325828e-01	 4.767930009978174e+00
 6.738987139752294e-01	 7.770583678051488e-01	 4.158864429324420e+00
 6.553515610003028e-01	 7.927632150698819e-01	 3.603011487523174e+00
 6.364598680053274e-01	 8.080086757529966e-01	 3.099291028096623e+00
 8.304533611905794e-01	 6.541393087832529e-01	 1.062221077173507e+01
 8.147844154884900e-01	 6.735557710280891e-01	 9.868671629832049e+00
 7.986433224664026e-01	 6.926181226967635e-01	 9.127924622116478e+00
 7.820422508834882e-01	 7.113093126349823e-01	 8.400135552091482e+00
 7.649941833816808e-01	 7.296128561095664e-01	 7.685377622859854e+00
 7.475128829686359e-01	 7.475128829686362e-01	 6.985550105432944e+00
 7.296128561095662e-01	 7.649941833816810e-01	 6.320920919520283e+00
 7.113093126349822e-01	 7.820422508834881e-01	 5.700556403070944e+00
 6.926181226967635e-01	 7.986433224664027e-01	 5.124649441209299e+00
 6.735557710280892e-01	 8.147844154884900e-01	 4.592353263878446e+00
 6.541393087832529e-01	 8.304533611905796e-01	 4.102177240128283e+00
 8.528980466281628e-01	 6.718187495611787e-01	 1.112196491859649e+01
 8.368056159070977e-01	 6.917599810558747e-01	 1.043694356577361e+01
 8.202282771276569e-01	 7.113375314182976e-01	 9.754969408957445e+00
 8.031785279343934e-01	 7.305338886521439e-01	 9.075703919186809e+00
 7.856697018514561e-01	 7.493321224909057e-01	 8.401378614304381e+00
 7.677159338596801e-01	 7.677159338596804e-01	 7.751311141719784e+00
 7.493321224909057e-01	 7.856697018514561e-01	 7.131288357609239e+00
 7.305338886521436e-01	 8.031785279343933e-01	 6.543633949241518e+00
 7.113375314182977e-01	 8.202282771276568e-01	 5.991827660984503e+00
 6.917599810558751e-01	 8.368056159070978e-01	 5.475265447449924e+00
 6.718187495611785e-01	 8.528980466281632e-01	 4.992192138347039e+00
 8.753427320657462e-01	 6.894981903391044e-01	 1.156717766529613e+01
 8.588268163257055e-01	 7.099641910836608e-01	 1.094158648437291e+01
 8.418132317889109e-01	 7.300569401398317e-01	 1.030914237111099e+01
 8.243148049852982e-01	 7.497584646693052e-01	 9.671581080154306e+00
 8.063452203212315e-01	 7.690513888722454e-01	 9.047112976854260e+00
 7.879189847507245e-01	 7.879189847507246e-01	 8.441898438539390e+00
 7.690513888722452e-01	 8.063452203212312e-01	 7.858365705636558e+00
 7.497584646693054e-01	 8.243148049852984e-01	 7.298375124276919e+00
 7.300569401398317e-01	 8.418132317889112e-01	 6.763676148989036e+00
 7.099641910836614e-01	 8.588268163257056e-01	 6.256749184498331e+00
 6.894981903391044e-01	 8.753427320657463e-01	 5.776132264602432e+00
 8.977874175033295e-01	 7.071776311170301e-01	 1.195653559137652e+01
 8.808480167443136e-01	 7.281684011114476e-01	 1.138226559379488e+01
 8.633981864501651e-01	 7.487763488613660e-01	 1.079284368491275e+01
 8.454510820362034e-01	 7.689830406864672e-01	 1.020438317118283e+01
 8.270207387910065e-01	 7.887706552535854e-01	 9.624140364216482e+00
 8.081220356417685e-01	 8.081220356417687e-01	 9.055343226464901e+00
 7.887706552535851e-01	 8.270207387910066e-01	 8.500703978107701e+00
 7.689830406864673e-01	 8.454510820362037e-01	 7.962349528716656e+00
 7.487763488613661e-01	 8.633981864501650e-01	 7.441760105598155e+00
 7.281684011114476e-01	 8.808480167443133e-01	 6.940245461851343e+00
 7.071776311170301e-01	 8.977874175033297e-01	 6.459115844623527e+00
 9.202321029409126e-01	 7.248570718949560e-01	 1.228865472712826e+01
 9.028692171629215e-01	 7.463726111392335e-01	 1.175912153886402e+01
 8.849831411114191e-01	 7.674957575829000e-01	 1.121754383650317e+01
 8.665873590871085e-01	 7.882076167036288e-01	 1.067263854832273e+01
 8.476962572607818e-01	 8.084899216349248e-01	 1.012849575080216e+01
 8.283250865328130e-01	 8.283250865328131e-01	 9.588778131923945e+00
 8.084899216349245e-01	 8.476962572607813e-01	 9.056631501140780e+00
 7.882076167036288e-01	 8.665873590871085e-01	 8.534600529260306e+00
 7.674957575829000e-01	 8.849831411114193e-01	 8.024552854466414e+00
 7.463726111392338e-01	 9.028692171629212e-01	 7.527614637617197e+00
 7.248570718949559e-01	 9.202321029409126e-01	 7.044677855545705e+00
 9.426767883784958e-01	 7.425365126728818e-01	 1.256201797298475e+01
 9.248904175815289e-01	 7.645768211670196e-01	 1.207882943947204e+01
 9.065680957726732e-01	 7.862151663044344e-01	 1.158010181272707e+01
 8.877236361380136e-01	 8.074321927207904e-01	 1.107077926183340e+01
 8.683717757305567e-01	 8.282091880162644e-01	 1.055550664930708e+01
 8.485281374238569e-01	 8.485281374238571e-01	 1.003852178856248e+01
 8.282091880162643e-01	 8.683717757305566e-01	 9.523548860196124e+00
 8.074321927207903e-01	 8.877236361380136e-01	 9.013696574181159e+00
 7.862151663044344e-01	 9.065680957726734e-01	 8.511364765088064e+00
 7.645768211670200e-01	 9.248904175815288e-01	 8.018163072910292e+00
 7.425365126728817e-01	 9.426767883784960e-01	 7.534845188700388e+00
 9.651214738160793e-01	 7.602159534508075e-01	 1.277862840524261e+01
 9.469116180001368e-01	 7.827810311948061e-01	 1.233752884107230e+01
 9.281530504339277e-01	 8.049345750259680e-01	 1.187368977591062e+01
 9.088599131889189e-01	 8.266567687379524e-01	 1.139269295788629e+01
 8.890472942003320e-01	 8.479284543976042e-01	 1.089986729982428e+01
 8.687311883149011e-01	 8.687311883149013e-01	 1.040016243844456e+01
 8.479284543976041e-01	 8.890472942003320e-01	 9.898022188994311e+00
 8.266567687379525e-01	 9.088599131889187e-01	 9.397262066219691e+00
 8.049345750259683e-01	 9.281530504339273e-01	 8.900955187325577e+00
 7.827810311948059e-01	 9.469116180001366e-01	 8.411330861697211e+00
 7.602159534508073e-01	 9.651214738160793e-01	 7.929690000010103e+00
 9.875661592536626e-01	 7.778953942287332e-01	 1.293451634252292e+01
 9.689328184187451e-01	 8.009852412225922e-01	 1.252742861725729e+01
 9.497380050951819e-01	 8.236539837475025e-01	 1.209107494046398e+01
 9.299961902398238e-01	 8.458813447551137e-01	 1.163179020285671e+01
 9.097228126701072e-01	 8.676477207789436e-01	 1.115571358738961e+01
 8.889342392059454e-01	 8.889342392059457e-01	 1.066864068379555e+01
 8.676477207789437e-01	 9.097228126701074e-01	 1.017587394035741e+01
 8.458813447551139e-01	 9.299961902398238e-01	 9.682076283228838e+00
 8.236539837475026e-01	 9.497380050951818e-01	 9.191132931412088e+00
 8.009852412225922e-01	 9.689328184187446e-01	 8.706026454048109e+00
 7.778953942287332e-01	 9.875661592536628e-01	 8.228729948689622e+00
 1.010010844691245e+00	 7.955748350066589e-01	 1.302118057361059e+01
 9.909540188373526e-01	 8.191894512503781e-01	 1.264045181826436e+01
 9.713229597564360e-01	 8.423733924690366e-01	 1.222468260699576e+01
 9.511324672907290e-01	 8.651059207722755e-01	 1.178107366692939e+01
 9.303983311398822e-01	 8.873669871602833e-01	 1.131669857464916e+01
 9.091372900969898e-01	 9.091372900969898e-01	 1.083833152142665e+01
 8.873669871602834e-01	 9.303983311398824e-01	 1.035227153067504e+01
 8.651059207722757e-01	 9.511324672907288e-01	 9.864168698784461e+00
 8.423733924690366e-01	 9.713229597564357e-01	 9.378858290562901e+00
 8.191894512503786e-01	 9.909540188373526e-01	 8.900208574915386e+00
 7.955748350066589e-01	 1.010010844691245e+00	 8.430988125967298e+00
 6.187804272274013e-01	 7.855639903154132e-01	 1.974946855707983e+00
 6.000951517239723e-01	 7.999286273645809e-01	 1.508493900802604e+00
 5.811085811149190e-01	 8.138260360510750e-01	 1.096127931630268e+00
 5.618381602942650e-01	 8.272471708245098e-01	 7.351902838654821e-01
 5.423016705842216e-01	 8.401838477866392e-01	 4.224271666077594e-01
 5.225171771291308e-01	 8.526287583731881e-01	 1.540722111192303e-01
 5.025029758122596e-01	 8.645754792381194e-01	-7.406898430654907e-02
 4.822775400093313e-01	 8.760184783453757e-01	-2.665340514596878e-01
 4.618594674877461e-01	 8.869531173021130e-01	-4.281204275817709e-01
 4.412674277525853e-01	 8.973756499953723e-01	-5.638048070911312e-01
 4.205201101299122e-01	 9.072832176207859e-01	-6.786667995474491e-01
 6.364598680053274e-01	 8.080086757529966e-01	 3.099291028096625e+00
 6.172407274875145e-01	 8.227837310035689e-01	 2.641699411737544e+00
 5.977116834324883e-01	 8.370782085096774e-01	 2.224710727369852e+00
 5.778906791598154e-01	 8.508828042766385e-01	 1.847128584628358e+00
 5.577960040294849e-01	 8.641891005805428e-01	 1.507264843320584e+00
 5.374462393328202e-01	 8.769895800409936e-01	 1.203016086197067e+00
 5.168602036926098e-01	 8.892776357877799e-01	 9.319413473982777e-01
 4.960568982953121e-01	 9.010475777266722e-01	 6.913392959674303e-01
 4.750554522731104e-01	 9.122946349393164e-01	 4.783231974914807e-01
 4.538750685455162e-01	 9.230149542809544e-01	 2.898921393071840e-01
 4.325349704193384e-01	 9.332055952670941e-01	 1.229971986247491e-01
 6.541393087832529e-01	 8.304533611905796e-01	 4.102177240128283e+00
 6.343863032510566e-01	 8.456388346425571e-01	 3.647216147390024e+00
 6.143147857500572e-01	 8.603303809682791e-01	 3.222054354238623e+00
 5.939431980253660e-01	 8.745184377287676e-01	 2.826646770320699e+00
 5.732903374747486e-01	 8.881943533744473e-01	 2.460540312565811e+00
 5.523753015365097e-01	 9.013504017087988e-01	 2.122947808286952e+00
 5.312174315729600e-01	 9.139797923374408e-01	 1.812822444091972e+00
 5.098362565812931e-01	 9.260766771079689e-01	 1.528930847984890e+00
 4.882514370584744e-01	 9.376361525765192e-01	 1.269923040532642e+00
 4.664827093384473e-01	 9.486542585665370e-01	 1.034397681360187e+00
 4.445498307087644e-01	 9.591279729134023e-01	 8.209612612891326e-01
 6.718187495611785e-01	 8.528980466281632e-01	 4.992192138347036e+00
 6.515318790145984e-01	 8.684939382815449e-01	 4.535460956759788e+00
 6.309178880676264e-01	 8.835825534268815e-01	 4.100145421577888e+00
 6.099957168909161e-01	 8.981540711808966e-01	 3.687056084406473e+00
 5.887846709200121e-01	 9.121996061683512e-01	 3.296660511538679e+00
 5.673043637401992e-01	 9.257112233766046e-01	 2.929158138181001e+00
 5.455746594533103e-01	 9.386819488871013e-01	 2.584554979005788e+00
 5.236156148672739e-01	 9.511057764892652e-01	 2.262736119610386e+00
 5.014474218438384e-01	 9.629776702137225e-01	 1.963534090080785e+00
 4.790903501313784e-01	 9.742935628521188e-01	 1.686791444413536e+00
 4.565646909981905e-01	 9.850503505597106e-01	 1.432416128545045e+00
 6.894981903391044e-01	 8.753427320657463e-01	 5.776132264602431e+00
 6.686774547781402e-01	 8.913490419205329e-01	 5.314936706333173e+00
 6.475209903851956e-01	 9.068347258854839e-01	 4.868964443235448e+00
 6.260482357564667e-01	 9.217897046330256e-01	 4.439598579443762e+00
 6.042790043652755e-01	 9.362048589622552e-01	 4.027926268719295e+00
 5.822334259438888e-01	 9.500720450444098e-01	 3.634818074403829e+00
 5.599318873336605e-01	 9.633841054367617e-01	 3.261006506169970e+00
 5.373949731532549e-01	 9.761348758705615e-01	 2.907161443034117e+00
 5.146434066292027e-01	 9.883191878509258e-01	 2.573960360514413e+00
 4.916979909243092e-01	 9.999328671377006e-01	 2.262151539038017e+00
 4.685795512876164e-01	 1.010972728206019e+00	 1.972608729850382e+00
 7.071776311170301e-01	 8.977874175033297e-01	 6.459115844623526e+00
 6.858230305416827e-01	 9.142041455595213e-01	 5.992365033116705e+00
 6.641240927027646e-01	 9.300868983440858e-01	 5.536635802991025e+00
 6.421007546220172e-01	 9.454253380851541e-01	 5.093610818308568e+00
 6.197733378105390e-01	 9.602101117561591e-01	 4.664706553266962e+00
 5.971624881475780e-01	 9.744328667122149e-01	 4.251160764246003e+00
 5.742891152140109e-01	 9.880862619864224e-01	 3.854118458318591e+00
 5.511743314392357e-01	 1.001163975251858e+00	 3.474713798565843e+00
 5.278393914145669e-01	 1.013660705488129e+00	 3.114145630765024e+00
 5.043056317172403e-01	 1.025572171423283e+00	 2.773744616823314e+00
 4.805944115770427e-01	 1.036895105852327e+00	 2.455030305231380e+00
 7.248570718949559e-01	 9.202321029409126e-01	 7.044677855545700e+00
 7.029686063052247e-01	 9.370592491985090e-01	 6.572799429346351e+00
 6.807271950203336e-01	 9.533390708026878e-01	 6.109555648256518e+00
 6.581532734875677e-01	 9.690609715372830e-01	 5.656663602419054e+00
 6.352676712558023e-01	 9.842153645500629e-01	 5.215587308703344e+00
 6.120915503512676e-01	 9.987936883800206e-01	 4.787636969753100e+00
 5.886463430943610e-01	 1.012788418536082e+00	 4.374066037248290e+00
 5.649536897252169e-01	 1.026193074633155e+00	 3.976163194665862e+00
 5.410353761999313e-01	 1.039002223125332e+00	 3.595336659279555e+00
 5.169132725101713e-01	 1.051211475708865e+00	 3.233188550849310e+00
 4.926092718664687e-01	 1.062817483498635e+00	 2.891577471153947e+00
 7.425365126728817e-01	 9.426767883784960e-01	 7.534845188700388e+00
 7.201141820687668e-01	 9.599143528374969e-01	 7.059721936928355e+00
 6.973302973379027e-01	 9.765912432612901e-01	 6.592501390670678e+00
 6.742057923531178e-01	 9.926966049894118e-01	 6.134681722461830e+00
 6.507620047010662e-01	 1.008220617343967e+00	 5.687499106834875e+00
 6.270206125549570e-01	 1.023154510047826e+00	 5.252048496177896e+00
 6.030035709747114e-01	 1.037490575085743e+00	 4.829395514553167e+00
 5.787330480111975e-01	 1.051222174014451e+00	 4.420682172213539e+00
 5.542313609852954e-01	 1.064343740762536e+00	 4.027223462524438e+00
 5.295209133031021e-01	 1.076850779994447e+00	 3.650592303388440e+00
 5.046241321558947e-01	 1.088739861144943e+00	 3.292690740279230e+00
 7.602159534508073e-01	 9.651214738160793e-01	 7.929690000010104e+00
 7.372597578323089e-01	 9.827694564764853e-01	 7.455126119792668e+00
 7.139333996554720e-01	 9.998434157198921e-01	 6.988725807815946e+00
 6.902583112186684e-01	 1.016332238441541e+00	 6.532046983770499e+00
 6.662563381463297e-01	 1.032225870137871e+00	 6.085827069782574e+00
 6.419496747586465e-01	 1.047515331715631e+00	 5.650663170401044e+00
 6.173607988550615e-01	 1.062192731635404e+00	 5.227142620118123e+00
 5.925124062971786e-01	 1.076251273395748e+00	 4.815966156974415e+00
 5.674273457706593e-01	 1.089685258399739e+00	 4.418060390873672e+00
 5.421285540960333e-01	 1.102490084280029e+00	 4.034676694544945e+00
 5.166389924453207e-01	 1.114662238791251e+00	 3.667108488714515e+00
 7.778953942287332e-01	 9.875661592536628e-01	 8.228729948689626e+00
 7.544053335958509e-01	 1.005624560115473e+00	 7.759541320172538e+00
 7.305365019730412e-01	 1.023095588178494e+00	 7.300038195877768e+00
 7.063108300842191e-01	 1.039967871893670e+00	 6.851687167207026e+00
 6.817506715915931e-01	 1.056231122931775e+00	 6.414505881102572e+00
 6.568787369623359e-01	 1.071876153383436e+00	 5.988314304553041e+00
 6.317180267354119e-01	 1.086894888185064e+00	 5.572935027135443e+00
 6.062917645831594e-01	 1.101280372777044e+00	 5.168337707143241e+00
 5.806233305560238e-01	 1.115026776036942e+00	 4.774156090652315e+00
 5.547361948889643e-01	 1.128129388565611e+00	 4.382533017491439e+00
 5.286538527347469e-01	 1.140584616437560e+00	 3.996804589416976e+00
 7.955748350066589e-01	 1.010010844691245e+00	 8.430988125967298e+00
 7.715509093593931e-01	 1.028479663754461e+00	 7.972593783629051e+00
 7.471396042906104e-01	 1.046347760637096e+00	 7.526908523220696e+00
 7.223633489497694e-01	 1.063603505345799e+00	 7.095153113357172e+00
 6.972450050368566e-01	 1.080236375725679e+00	 6.676102205471841e+00
 6.718077991660254e-01	 1.096236975051242e+00	 6.268487058250235e+00
 6.460752546157623e-01	 1.111597044734725e+00	 5.871069679431143e+00
 6.200711228691403e-01	 1.126309472158341e+00	 5.472199666010800e+00
 5.938193153413879e-01	 1.140368293674145e+00	 5.067041615943867e+00
 5.673438356818953e-01	 1.153768692851193e+00	 4.662807855113396e+00
 5.406687130241729e-01	 1.166506994083868e+00	 4.266844431162390e+00
 4.205201101299122e-01	 9.072832176207859e-01	-6.786667995474496e-01
 3.996361728647542e-01	 9.166738402169073e-01	-7.744835596334728e-01
 3.786341934957204e-01	 9.255464048419428e-01	-8.503924748750309e-01
 3.575326207508011e-01	 9.339006505507231e-01	-9.068476211518013e-01
 3.363497281896810e-01	 9.417371503486138e-01	-9.428531084503391e-01
 3.151035697972948e-01	 9.490572903155010e-01	-9.607286252964928e-01
 2.938119377115883e-01	 9.558632461069742e-01	-9.632288532731446e-01
 2.724923222458608e-01	 9.621579570512618e-01	-9.531717328934093e-01
 2.511618743429507e-01	 9.679450980693770e-01	-9.333957625557536e-01
 2.298373705751838e-01	 9.732290496522829e-01	-9.067268003161271e-01
 2.085351807807160e-01	 9.780148661327976e-01	-8.759536516084738e-01
 4.325349704193384e-01	 9.332055952670941e-01	 1.229971986247491e-01
 4.110543492323185e-01	 9.428645213659619e-01	-2.235963717195499e-02
 3.894523133098838e-01	 9.519905878374266e-01	-1.450418999352792e-01
 3.677478384865382e-01	 9.605835262807435e-01	-2.463324994483909e-01
 3.459597204236718e-01	 9.686439260728600e-01	-3.252684238062771e-01
 3.241065289343604e-01	 9.761732128959445e-01	-3.829801506590975e-01
 3.022065645033480e-01	 9.831736245671736e-01	-4.225481348920295e-01
 2.802778171671710e-01	 9.896481843955834e-01	-4.470864572693012e-01
 2.583379278956063e-01	 9.956006722999304e-01	-4.596966855651412e-01
 2.364041525916176e-01	 1.001035593928062e+00	-4.634333742209353e-01
 2.144933288030222e-01	 1.005958148022306e+00	-4.612802587925731e-01
 4.445498307087644e-01	 9.591279729134023e-01	 8.209612612891315e-01
 4.224725255998830e-01	 9.690552025150165e-01	 6.307727658500630e-01
 4.002704331240473e-01	 9.784347708329110e-01	 4.649039286228929e-01
 3.779630562222755e-01	 9.872664020107648e-01	 3.219246902385065e-01
 3.555697126576627e-01	 9.955507017971060e-01	 2.014116741131300e-01
 3.331094880714259e-01	 1.003289135476387e+00	 1.041847136963363e-01
 3.106011912951077e-01	 1.010484003027373e+00	 2.719104363038882e-02
 2.880633120884814e-01	 1.017138411739905e+00	-3.289357236385770e-02
 2.655139814482621e-01	 1.023256246530484e+00	-7.933615679403250e-02
 2.429709346080515e-01	 1.028842138203842e+00	-1.153120524766944e-01
 2.204514768253283e-01	 1.033901429911815e+00	-1.438833286736982e-01
 4.565646909981905e-01	 9.850503505597106e-01	 1.432416128545045e+00
 4.338907019674473e-01	 9.952458836640710e-01	 1.202187935619002e+00
 4.110885529382107e-01	 1.004878953828395e+00	 9.968398394923947e-01
 3.881782739580126e-01	 1.013949277740785e+00	 8.148759376501866e-01
 3.651797048916536e-01	 1.022457477521352e+00	 6.550593173934223e-01
 3.421124472084915e-01	 1.030405058056830e+00	 5.187494045229020e-01
 3.189958180868672e-01	 1.037794381487572e+00	 4.040703441260587e-01
 2.958488070097918e-01	 1.044628639084227e+00	 3.075669721559211e-01
 2.726900350009179e-01	 1.050911820761038e+00	 2.258995839661098e-01
 2.495377166244853e-01	 1.056648682479622e+00	 1.558769288910740e-01
 2.264096248476345e-01	 1.061844711801323e+00	 9.447385045031398e-02
 4.685795512876164e-01	 1.010972728206019e+00	 1.972608729850382e+00
 4.453088783350119e-01	 1.021436564813126e+00	 1.707272765894730e+00
 4.219066727523740e-01	 1.031323136823879e+00	 1.466321175646755e+00
 3.983934916937497e-01	 1.040632153470806e+00	 1.248233263309370e+00
 3.747896971256444e-01	 1.049364253245598e+00	 1.051683965537149e+00
 3.511154063455570e-01	 1.057520980637273e+00	 8.769825020254798e-01
 3.273904448786270e-01	 1.065104759947771e+00	 7.245017392920872e-01
 3.036343019311021e-01	 1.072118866428549e+00	 5.908196217676074e-01
 2.798660885535736e-01	 1.078567394991591e+00	 4.726124996067047e-01
 2.561044986409191e-01	 1.084455226755401e+00	 3.667760311954367e-01
 2.323677728699406e-01	 1.089787993690831e+00	 2.704369740230872e-01
 4.805944115770427e-01	 1.036895105852327e+00	 2.455030305231381e+00
 4.567270547025762e-01	 1.047627245962180e+00	 2.159712854231108e+00
 4.327247925665375e-01	 1.057767319819363e+00	 1.887248655073738e+00
 4.086087094294870e-01	 1.067315029200826e+00	 1.636124443766601e+00
 3.843996893596354e-01	 1.076271028969845e+00	 1.405090243743024e+00
 3.601183654826227e-01	 1.084636903217716e+00	 1.193596394006057e+00
 3.357850716703866e-01	 1.092415138407971e+00	 1.003391483390436e+00
 3.114197968524124e-01	 1.099609093772871e+00	 8.319224876552482e-01
 2.870421421062293e-01	 1.106222969222145e+00	 6.759672372283156e-01
 2.626712806573530e-01	 1.112261771031181e+00	 5.326369158788782e-01
 2.383259208922469e-01	 1.117731275580340e+00	 4.003338296340822e-01
 4.926092718664687e-01	 1.062817483498635e+00	 2.891577471153946e+00
 4.681452310701406e-01	 1.073817927111234e+00	 2.571651864575815e+00
 4.435429123807009e-01	 1.084211502814847e+00	 2.272026692897233e+00
 4.188239271652240e-01	 1.093997904930847e+00	 1.991219889177175e+00
 3.940096815936263e-01	 1.103177804694091e+00	 1.728092804980546e+00
 3.691213246196883e-01	 1.111752825798159e+00	 1.481879285770318e+00
 3.441796984621464e-01	 1.119725516868170e+00	 1.254628270275247e+00
 3.192052917737228e-01	 1.127099321117193e+00	 1.047050006756014e+00
 2.942181956588851e-01	 1.133878543452699e+00	 8.572453903323396e-01
 2.692380626737867e-01	 1.140068315306960e+00	 6.832285584856637e-01
 2.442840689145530e-01	 1.145674557469849e+00	 5.229919802840257e-01
 5.046241321558947e-01	 1.088739861144943e+00	 3.292690740279231e+00
 4.795634074377051e-01	 1.100008608260289e+00	 2.953828611854724e+00
 4.543610321948644e-01	 1.110655685810331e+00	 2.631699607990290e+00
 4.290391449009613e-01	 1.120680780660868e+00	 2.323761729850550e+00
 4.036196738276172e-01	 1.130084580418337e+00	 2.029805870163684e+00
 3.781242837567537e-01	 1.138868748378601e+00	 1.752035647346466e+00
 3.525743252539060e-01	 1.147035895328369e+00	 1.493321132001857e+00
 3.269907866950330e-01	 1.154589548461515e+00	 1.256395816077514e+00
 3.013942492115407e-01	 1.161534117683252e+00	 1.039413088955552e+00
 2.758048446902205e-01	 1.167874859582740e+00	 8.402971695793555e-01
 2.502422169368592e-01	 1.173617839359357e+00	 6.570425303170246e-01
 5.166389924453207e-01	 1.114662238791251e+00	 3.667108488714517e+00
 4.909815838052694e-01	 1.126199289409344e+00	 3.310197139288929e+00
 4.651791520090278e-01	 1.137099868805815e+00	 2.963126800564390e+00
 4.392543626366985e-01	 1.147363656390888e+00	 2.628717745662462e+00
 4.132296660616082e-01	 1.156991356142583e+00	 2.309485373114382e+00
 3.871272428938192e-01	 1.165984670959044e+00	 2.007612999015261e+00
 3.609689520456657e-01	 1.174346273788568e+00	 1.725205097360053e+00
 3.347762816163433e-01	 1.182079775805836e+00	 1.465594988371133e+00
 3.085703027641965e-01	 1.189189691913806e+00	 1.227621159221380e+00
 2.823716267066544e-01	 1.195681403858519e+00	 1.009166953544423e+00
 2.562003649591653e-01	 1.201561121248866e+00	 8.082973252251513e-01
 5.286538527347469e-01	 1.140584616437560e+00	 3.996804589416976e+00
 5.023997601728339e-01	 1.152389970558398e+00	 3.620857872850452e+00
 4.759972718231912e-01	 1.163544051801300e+00	 3.255566623811529e+00
 4.494695803724356e-01	 1.174046532120909e+00	 2.903800273660071e+00
 4.228396582955991e-01	 1.183898131866829e+00	 2.568069990804289e+00
 3.961302020308849e-01	 1.193100593539487e+00	 2.250502521689452e+00
 3.693635788374253e-01	 1.201656652248767e+00	 1.952842381201848e+00
 3.425617765376536e-01	 1.209570003150158e+00	 1.677929757629063e+00
 3.157463563168522e-01	 1.216845266144360e+00	 1.425796191245569e+00
 2.889384087230882e-01	 1.223487948134298e+00	 1.194333987624306e+00
 2.621585129814715e-01	 1.229504403138374e+00	 9.817501431297007e-01
 5.406687130241729e-01	 1.166506994083868e+00	 4.266844431162390e+00
 5.138179365403981e-01	 1.178580651707452e+00	 3.882010546301808e+00
 4.868153916373546e-01	 1.189988234796783e+00	 3.508405987147225e+00
 4.596847981081729e-01	 1.200729407850930e+00	 3.148933012812112e+00
 4.324496505295898e-01	 1.210804907591075e+00	 2.806068767655989e+00
 4.051331611679504e-01	 1.220216516119930e+00	 2.481840618852077e+00
 3.777582056291850e-01	 1.228967030708966e+00	 2.177831681040153e+00
 3.503472714589639e-01	 1.237060230494480e+00	 1.895892204893667e+00
 3.229224098695080e-01	 1.244500840374913e+00	 1.637104255262988e+00
 2.955051907395220e-01	 1.251294492410078e+00	 1.399554164609672e+00
 2.681166610037777e-01	 1.257447685027882e+00	 1.181666610219201e+00
 2.085351807807160e-01	 9.780148661327976e-01	-8.759536516084725e-01
 1.872712384039293e-01	 9.823082424914590e-01	-8.442525759650299e-01
 1.660610135851267e-01	 9.861154799348201e-01	-8.134922186799374e-01
 1.449194890231617e-01	 9.894434504817674e-01	-7.844233094658017e-01
 1.238611386139843e-01	 9.922995607885994e-01	-7.577556409340422e-01
 1.028999088485995e-01	 9.946917154369739e-01	-7.341722952225096e-01
 8.204920293574133e-02	 9.966282799005903e-01	-7.143448556352219e-01
 6.132186759777736e-02	 9.981180433968323e-01	-6.989484614128347e-01
 4.073018247306839e-02	 9.991701818187483e-01	-6.886756965908605e-01
 2.028585204427963e-02	 9.997942209309062e-01	-6.842484592763451e-01
 0.000000000000000e+00	 1.000000000000000e+00	-6.864271274918226e-01
 2.144933288030222e-01	 1.005958148022306e+00	-4.612802587925731e-01
 1.926218452154701e-01	 1.010374192276929e+00	-4.561564996711645e-01
 1.708056139732732e-01	 1.014290207932958e+00	-4.494232111899903e-01
 1.490600458523949e-01	 1.017713263352675e+00	-4.416094941083113e-01
 1.274000282886696e-01	 1.020650976811131e+00	-4.331879405180947e-01
 1.058399062442737e-01	 1.023111478735173e+00	-4.245975549300649e-01
 8.439346587676248e-02	 1.025103373612036e+00	-4.162676101101663e-01
 6.307392095771386e-02	 1.026635701779599e+00	-4.086410221812331e-01
 4.189390197229892e-02	 1.027717901299284e+00	-4.021959950987561e-01
 2.086544781697334e-02	 1.028359770100360e+00	-3.974648769644293e-01
 0.000000000000000e+00	 1.028571428571429e+00	-3.950493801015416e-01
 2.204514768253283e-01	 1.033901429911815e+00	-1.438833286736974e-01
 1.979724520270109e-01	 1.038440142062399e+00	-1.675347092009818e-01
 1.755502143614196e-01	 1.042464935931095e+00	-1.870561524845424e-01
 1.532006026816281e-01	 1.045983076223583e+00	-2.028001547486546e-01
 1.309389179633549e-01	 1.049002392833662e+00	-2.150432593008182e-01
 1.087799036399481e-01	 1.051531242033373e+00	-2.240187281172972e-01
 8.673772881778372e-02	 1.053578467323482e+00	-2.299501237625408e-01
 6.482597431765035e-02	 1.055153360162366e+00	-2.330840704546371e-01
 4.305762147152944e-02	 1.056265620779820e+00	-2.337206660549005e-01
 2.144504358966704e-02	 1.056925319269815e+00	-2.322402513823598e-01
 0.000000000000000e+00	 1.057142857142857e+00	-2.291254980348305e-01
 2.264096248476345e-01	 1.061844711801323e+00	 9.447385045031398e-02
 2.033230588385518e-01	 1.066506091847870e+00	 3.979242857813725e-02
 1.802948147495661e-01	 1.070639663929233e+00	-8.336629537182727e-03
 1.573411595108613e-01	 1.074252889094490e+00	-5.011747120278542e-02
 1.344778076380402e-01	 1.077353808856194e+00	-8.565429254527324e-02
 1.117199010356223e-01	 1.079951005331572e+00	-1.149950923133818e-01
 8.908199175880489e-02	 1.082053561034927e+00	-1.381763332210251e-01
 6.657802767758683e-02	 1.083671018545132e+00	-1.552664164368198e-01
 4.422134097075996e-02	 1.084813340260355e+00	-1.664061204096807e-01
 2.202463936236075e-02	 1.085490868439270e+00	-1.718444380787609e-01
 0.000000000000000e+00	 1.085714285714286e+00	-1.719685530480404e-01
 2.323677728699406e-01	 1.089787993690831e+00	 2.704369740230881e-01
 2.086736656500926e-01	 1.094572041633340e+00	 1.824154128480147e-01
 1.850394151377125e-01	 1.098814391927371e+00	 1.032010427779038e-01
 1.614817163400945e-01	 1.102522701965398e+00	 3.272653308294782e-02
 1.380166973127254e-01	 1.105705224878725e+00	-2.894618233780655e-02
 1.146598984312966e-01	 1.108370768629771e+00	-8.168236524466144e-02
 9.142625469982607e-02	 1.110528654746372e+00	-1.253318555533562e-01
 6.833008103752335e-02	 1.112188676927899e+00	-1.597222749774083e-01
 4.538506046999050e-02	 1.113361059740891e+00	-1.847333486669278e-01
 2.260423513505445e-02	 1.114056417608724e+00	-2.006430814644293e-01
 0.000000000000000e+00	 1.114285714285714e+00	-2.078778123687064e-01
 2.383259208922469e-01	 1.117731275580340e+00	 4.003338296340822e-01
 2.140242724616335e-01	 1.122637991418810e+00	 2.794066935808788e-01
 1.897840155258590e-01	 1.126989119925509e+00	 1.710719053591259e-01
 1.656222731693277e-01	 1.130792514836306e+00	 7.522025802871068e-02
 1.415555869874106e-01	 1.134056640901256e+00	-8.258246454329488e-03
 1.175998958269708e-01	 1.136790531927970e+00	-7.949289838338913e-02
 9.377051764084723e-02	 1.139003748457818e+00	-1.386560254372222e-01
 7.008213439745985e-02	 1.140706335310666e+00	-1.859894357779202e-01
 4.654877996922101e-02	 1.141908779221427e+00	-2.218312548806263e-01
 2.318383090774815e-02	 1.142621966778179e+00	-2.466411435216389e-01
 0.000000000000000e+00	 1.142857142857143e+00	-2.610222097601249e-01
 2.442840689145530e-01	 1.145674557469849e+00	 5.229919802840253e-01
 2.193748792731743e-01	 1.150703941204280e+00	 3.769734945269305e-01
 1.945286159140056e-01	 1.155163847923647e+00	 2.466323931331869e-01
 1.697628299985609e-01	 1.159062327707214e+00	 1.315546324645207e-01
 1.450944766620959e-01	 1.162408056923788e+00	 3.137491541507664e-02
 1.205398932226451e-01	 1.165210295226170e+00	-5.425257059102950e-02
 9.611478058186841e-02	 1.167478842169263e+00	-1.256891742236030e-01
 7.183418775739633e-02	 1.169223993693432e+00	-1.833495366391422e-01
 4.771249946845156e-02	 1.170456498701963e+00	-2.277393544471731e-01
 2.376342668044186e-02	 1.171187515947633e+00	-2.594907706914262e-01
 0.000000000000000e+00	 1.171428571428571e+00	-2.793934041611528e-01
 2.502422169368592e-01	 1.173617839359357e+00	 6.570425303170255e-01
 2.247254860847151e-01	 1.178769890989751e+00	 4.905863859635371e-01
 1.992732163021520e-01	 1.183338575921784e+00	 3.425959682926374e-01
 1.739033868277941e-01	 1.187332140578121e+00	 2.123373417256436e-01
 1.486333663367811e-01	 1.190759472946319e+00	 9.918375901824383e-02
 1.234798906183194e-01	 1.193630058524368e+00	 2.573563859524786e-03
 9.845904352288960e-02	 1.195953935880708e+00	-7.803819686372471e-02
 7.358624111733283e-02	 1.197741652076199e+00	-1.432308885753051e-01
 4.887621896768207e-02	 1.199004218182498e+00	-1.936689227389201e-01
 2.434302245313557e-02	 1.199753065117087e+00	-2.301491171554639e-01
 0.000000000000000e+00	 1.200000000000000e+00	-2.536424522245657e-01
 2.562003649591653e-01	 1.201561121248866e+00	 8.082973252251509e-01
 2.300760928962560e-01	 1.206835840775221e+00	 6.264701339900238e-01
 2.040178166902985e-01	 1.211513303919922e+00	 4.655218753804651e-01
 1.780439436570273e-01	 1.215601953449029e+00	 3.243990914446084e-01
 1.521722560114665e-01	 1.219110888968851e+00	 2.022237722134383e-01
 1.264198880139936e-01	 1.222049821822568e+00	 9.823601781169922e-02
 1.008033064639108e-01	 1.224429029592154e+00	 1.172986935473630e-02
 7.533829447726932e-02	 1.226259310458966e+00	-5.801352002903570e-02
 5.003993846691259e-02	 1.227551937663033e+00	-1.117916234100298e-01
 2.492261822582926e-02	 1.228318614286542e+00	-1.505419311694784e-01
 0.000000000000000e+00	 1.228571428571429e+00	-1.753962815373851e-01
 2.621585129814715e-01	 1.229504403138374e+00	 9.817501431297007e-01
 2.354266997077968e-01	 1.234901790560691e+00	 7.900358668649032e-01
 2.087624170784450e-01	 1.239688031918060e+00	 6.211565838761663e-01
 1.821845004862604e-01	 1.243871766319936e+00	 4.737556226050472e-01
 1.557111456861517e-01	 1.247462304991382e+00	 3.467308093385335e-01
 1.293598854096679e-01	 1.250469585120767e+00	 2.391591347322506e-01
 1.031475694049319e-01	 1.252904123303600e+00	 1.502140475318776e-01
 7.709034783720584e-02	 1.254776968841732e+00	 7.908023119835095e-02
 5.120365796614313e-02	 1.256099657143569e+00	 2.487022155730956e-02
 2.550221399852298e-02	 1.256884163455996e+00	-1.345335721373320e-02
 0.000000000000000e+00	 1.257142857142857e+00	-3.714679619646621e-02
 2.681166610037777e-01	 1.257447685027882e+00	 1.181666610219200e+00
 2.407773065193377e-01	 1.262967740346161e+00	 9.859726182154078e-01
 2.135070174665915e-01	 1.267862759916197e+00	 8.145265134844024e-01
 1.863250573154937e-01	 1.272141579190844e+00	 6.657012555751940e-01
 1.592500353608370e-01	 1.275813721013914e+00	 5.382151744033532e-01
 1.322998828053421e-01	 1.278889348418966e+00	 4.310355157768591e-01
 1.054918323459531e-01	 1.281379217015045e+00	 3.432740808489703e-01
 7.884240119714231e-02	 1.283294627224499e+00	 2.740805820479246e-01
 5.236737746537364e-02	 1.284647376624105e+00	 2.225387534351602e-01
 2.608180977121668e-02	 1.285449712625451e+00	 1.875695750672843e-01
 0.000000000000000e+00	 1.285714285714286e+00	 1.678452316925014e-01
 1.285714285714286e+00	 0.000000000000000e+00	 1.907472751885797e+01
 1.285449712625451e+00	 2.608180977121596e-02	 1.903422876013528e+01
 1.284647376624105e+00	 5.236737746537301e-02	 1.899471678066507e+01
 1.283294627224498e+00	 7.884240119714178e-02	 1.895453122963657e+01
 1.281379217015045e+00	 1.054918323459527e-01	 1.891162264221165e+01
 1.278889348418966e+00	 1.322998828053418e-01	 1.886352658149220e+01
 1.275813721013913e+00	 1.592500353608367e-01	 1.880733424913785e+01
 1.272141579190844e+00	 1.863250573154936e-01	 1.873965976439434e+01
 1.267862759916197e+00	 2.135070174665914e-01	 1.865660471085484e+01
 1.262967740346161e+00	 2.407773065193378e-01	 1.855372101136076e+01
 1.257447685027883e+00	 2.681166610037777e-01	 1.842597370333654e+01
 1.314285714285714e+00	 0.000000000000000e+00	 1.843977420907643e+01
 1.314015261794905e+00	 2.666140554390965e-02	 1.839840343314064e+01
 1.313195096104641e+00	 5.353109696460352e-02	 1.836149699886970e+01
 1.311812285607265e+00	 8.059445455707828e-02	 1.832701588544190e+01
 1.309854310726490e+00	 1.078360952869738e-01	 1.829253528024623e+01
 1.307309111717166e+00	 1.352398802010161e-01	 1.825522011900051e+01
 1.304165137036445e+00	 1.627889250355220e-01	 1.821179524176413e+01
 1.300411392061751e+00	 1.904656141447268e-01	 1.815851017044164e+01
 1.296037487914335e+00	 2.182516178547379e-01	 1.809109897714677e+01
 1.291033690131631e+00	 2.461279133308786e-01	 1.800473625226560e+01
 1.285390966917391e+00	 2.740748090260838e-01	 1.789399078437509e+01
 1.342857142857143e+00	 0.000000000000000e+00	 1.787197384781195e+01
 1.342580810964360e+00	 2.724100131660334e-02	 1.782986539002355e+01
 1.341742815585176e+00	 5.469481646383405e-02	 1.779522959194235e+01
 1.340329943990032e+00	 8.234650791701477e-02	 1.776560625274479e+01
 1.338329404437936e+00	 1.101803582279950e-01	 1.773818248883823e+01
 1.335728875015365e+00	 1.381798775966904e-01	 1.770977139805121e+01
 1.332516553058977e+00	 1.663278147102073e-01	 1.767678304609830e+01
 1.328681204932659e+00	 1.946061709739599e-01	 1.763518752875337e+01
 1.324212215912472e+00	 2.229962182428843e-01	 1.758047039889824e+01
 1.319099639917102e+00	 2.514785201424196e-01	 1.750758137545639e+01
 1.313334248806900e+00	 2.800329570483900e-01	 1.741087795812484e+01
 1.371428571428571e+00	 0.000000000000000e+00	 1.736225366824973e+01
 1.371146360133814e+00	 2.782059708929703e-02	 1.731956544740529e+01
 1.370290535065712e+00	 5.585853596306455e-02	 1.728697799770723e+01
 1.368847602372799e+00	 8.409856127695127e-02	 1.726156503421518e+01
 1.366804498149381e+00	 1.125246211690162e-01	 1.724011206037628e+01
 1.364148638313565e+00	 1.411198749923646e-01	 1.721909998110126e+01
 1.360867969081508e+00	 1.698667043848926e-01	 1.719467826480076e+01
 1.356951017803567e+00	 1.987467278031931e-01	 1.716262709257858e+01
 1.352386943910610e+00	 2.277408186310308e-01	 1.711830854887771e+01
 1.347165589702572e+00	 2.568291269539603e-01	 1.705660763493307e+01
 1.341277530696408e+00	 2.859911050706962e-01	 1.697186471007647e+01
 1.400000000000000e+00	 0.000000000000000e+00	 1.690241187733496e+01
 1.399711909303269e+00	 2.840019286199071e-02	 1.685940710136636e+01
 1.398838254546248e+00	 5.702225546229507e-02	 1.682880891109171e+01
 1.397365260755565e+00	 8.585061463688774e-02	 1.680717725868239e+01
 1.395279591860827e+00	 1.148688841100374e-01	 1.679088153680230e+01
 1.392568401611764e+00	 1.440598723880389e-01	 1.677609107822511e+01
 1.389219385104039e+00	 1.734055940595778e-01	 1.675875190974622e+01
 1.385220830674475e+00	 2.028872846324263e-01	 1.673454881479880e+01
 1.380561671908748e+00	 2.324854190191773e-01	 1.669885246474318e+01
 1.375231539488042e+00	 2.621797337655011e-01	 1.664665221681430e+01
 1.369220812585917e+00	 2.919492530930023e-01	 1.657247613149700e+01
 1.428571428571429e+00	 0.000000000000000e+00	 1.648503055839662e+01
 1.428277458472723e+00	 2.897978863468440e-02	 1.644215375356483e+01
 1.427385974026783e+00	 5.818597496152556e-02	 1.641369485466033e+01
 1.425882919138332e+00	 8.760266799682420e-02	 1.639564921817923e+01
 1.423754685572272e+00	 1.172131470510585e-01	 1.638395453763537e+01
 1.420988164909963e+00	 1.469998697837132e-01	 1.637449029427596e+01
 1.417570801126570e+00	 1.769444837342631e-01	 1.636305960153329e+01
 1.413490643545382e+00	 2.070278414616595e-01	 1.634535203939594e+01
 1.408736399906886e+00	 2.372300194073239e-01	 1.631688687972552e+01
 1.403297489273512e+00	 2.675303405770419e-01	 1.627293706520679e+01
 1.397164094475425e+00	 2.979074011153085e-01	 1.620843540596590e+01
 1.457142857142857e+00	 0.000000000000000e+00	 1.610339882052178e+01
 1.456843007642177e+00	 2.955938440737808e-02	 1.606134681404950e+01
 1.455933693507319e+00	 5.934969446075609e-02	 1.603542805884103e+01
 1.454400577521098e+00	 8.935472135676070e-02	 1.602101894953218e+01
 1.452229779283718e+00	 1.195574099920797e-01	 1.601360866870129e+01
 1.449407928208162e+00	 1.499398671793874e-01	 1.600880979434979e+01
 1.445922217149102e+00	 1.804833734089483e-01	 1.600234682717307e+01
 1.441760456416290e+00	 2.111683982908927e-01	 1.599002069483539e+01
 1.436911127905023e+00	 2.419746197954703e-01	 1.596764820516963e+01
 1.431363439058983e+00	 2.728809473885828e-01	 1.593097651921622e+01
 1.425107376364934e+00	 3.038655491376147e-01	 1.587557397961838e+01
 1.485714285714286e+00	 0.000000000000000e+00	 1.575144645774646e+01
 1.485408556811632e+00	 3.013898018007177e-02	 1.571124964776915e+01
 1.484481412987855e+00	 6.051341395998659e-02	 1.568856363967928e+01
 1.482918235903866e+00	 9.110677471669719e-02	 1.567808370547034e+01
 1.480704872995163e+00	 1.219016729331009e-01	 1.567485345262698e+01
 1.477827691506361e+00	 1.528798645750616e-01	 1.567424435047305e+01
 1.474273633171634e+00	 1.840222630836336e-01	 1.567196376735530e+01
 1.470030269287198e+00	 2.153089551201259e-01	 1.566403757564448e+01
 1.465085855903161e+00	 2.467192201836168e-01	 1.564673895218304e+01
 1.459429388844453e+00	 2.782315542001237e-01	 1.561649257498410e+01
 1.453050658254442e+00	 3.098236971599209e-01	 1.556974838075042e+01
 1.514285714285714e+00	 0.000000000000000e+00	 1.542446794247942e+01
 1.513974105981086e+00	 3.071857595276546e-02	 1.538810789105281e+01
 1.513029132468390e+00	 6.167713345921712e-02	 1.537035385755703e+01
 1.511435894286631e+00	 9.285882807663368e-02	 1.536503951373445e+01
 1.509179966706609e+00	 1.242459358741221e-01	 1.536655361742649e+01
 1.506247454804561e+00	 1.558198619707359e-01	 1.536991168833410e+01
 1.502625049194165e+00	 1.875611527583189e-01	 1.537080358078154e+01
 1.498300082158105e+00	 2.194495119493590e-01	 1.536560922372586e+01
 1.493260583901299e+00	 2.514638205717633e-01	 1.535137357867874e+01
 1.487495338629924e+00	 2.835821610116646e-01	 1.532573069540966e+01
 1.480993940143951e+00	 3.157818451822270e-01	 1.528676281056820e+01
 1.542857142857143e+00	 0.000000000000000e+00	 1.512032574897269e+01
 1.542539655150541e+00	 3.129817172545915e-02	 1.508913356973361e+01
 1.541576851948926e+00	 6.284085295844763e-02	 1.507770586926404e+01
 1.539953552669398e+00	 9.461088143657015e-02	 1.507898679621866e+01
 1.537655060418054e+00	 1.265901988151432e-01	 1.508668517857510e+01
 1.534667218102759e+00	 1.587598593664102e-01	 1.509537295770152e+01
 1.530976465216697e+00	 1.911000424330041e-01	 1.510056157387563e+01
 1.526569895029012e+00	 2.235900687785922e-01	 1.509874802672452e+01
 1.521435311899437e+00	 2.562084209599098e-01	 1.508742088523217e+01
 1.515561288415394e+00	 2.889327678232054e-01	 1.506501510804007e+01
 1.508937222033459e+00	 3.217399932045333e-01	 1.503080323140848e+01
 1.571428571428572e+00	 0.000000000000000e+00	 1.483768741194010e+01
 1.571105204319995e+00	 3.187776749815283e-02	 1.481145893070749e+01
 1.570124571429462e+00	 6.400457245767811e-02	 1.480641616096311e+01
 1.568471211052164e+00	 9.636293479650661e-02	 1.481458688863684e+01
 1.566130154129499e+00	 1.289344617561644e-01	 1.482897518742517e+01
 1.563086981400959e+00	 1.616998567620844e-01	 1.484368875504270e+01
 1.559327881239227e+00	 1.946389321076893e-01	 1.485404697784717e+01
 1.554839707899920e+00	 2.277306256078254e-01	 1.485666090510512e+01
 1.549610039897574e+00	 2.609530213480562e-01	 1.484947460874738e+01
 1.543627238200864e+00	 2.942833746347462e-01	 1.483175571697355e+01
 1.536880503922968e+00	 3.276981412268393e-01	 1.480402132487167e+01
 1.257447685027883e+00	 2.681166610037777e-01	 1.842597370333654e+01
 1.251294492410078e+00	 2.955051907395213e-01	 1.828237761576563e+01
 1.244500840374913e+00	 3.229224098695072e-01	 1.813274695118294e+01
 1.237060230494479e+00	 3.503472714589634e-01	 1.797251125472410e+01
 1.228967030708967e+00	 3.777582056291845e-01	 1.779688255282110e+01
 1.220216516119931e+00	 4.051331611679501e-01	 1.760460677192761e+01
 1.210804907591075e+00	 4.324496505295896e-01	 1.739514764173051e+01
 1.200729407850930e+00	 4.596847981081725e-01	 1.716757345630149e+01
 1.189988234796783e+00	 4.868153916373547e-01	 1.692136359416175e+01
 1.178580651707452e+00	 5.138179365403983e-01	 1.665638329919225e+01
 1.166506994083867e+00	 5.406687130241730e-01	 1.637284382133534e+01
 1.285390966917391e+00	 2.740748090260838e-01	 1.789399078437509e+01
 1.279101036685858e+00	 3.020719727559551e-01	 1.776943428957140e+01
 1.272156414605467e+00	 3.300984634221630e-01	 1.764265607477001e+01
 1.264550457838802e+00	 3.581327663802737e-01	 1.750896127840604e+01
 1.256277409169166e+00	 3.861528324209440e-01	 1.736319940122717e+01
 1.247332438700373e+00	 4.141361203050156e-01	 1.720138189142250e+01
 1.237711683315321e+00	 4.420596427635805e-01	 1.702199373679662e+01
 1.227412283580951e+00	 4.699000158439097e-01	 1.682412097430850e+01
 1.216432417792268e+00	 4.976335114515182e-01	 1.660730929720506e+01
 1.204771332856507e+00	 5.252361129079629e-01	 1.637153837324467e+01
 1.192429371730176e+00	 5.526835733135990e-01	 1.611717987633413e+01
 1.313334248806900e+00	 2.800329570483900e-01	 1.741087795812484e+01
 1.306907580961637e+00	 3.086387547723888e-01	 1.730265270170739e+01
 1.299811988836020e+00	 3.372745169748186e-01	 1.719639321280125e+01
 1.292040685183123e+00	 3.659182613015839e-01	 1.708742433731428e+01
 1.283587787629365e+00	 3.945474592127037e-01	 1.696881352378301e+01
 1.274448361280816e+00	 4.231390794420812e-01	 1.683410251956139e+01
 1.264618459039567e+00	 4.516696349975713e-01	 1.668183373434660e+01
 1.254095159310971e+00	 4.801152335796472e-01	 1.651113382860819e+01
 1.242876600787752e+00	 5.084516312656816e-01	 1.632163004501370e+01
 1.230962014005561e+00	 5.366542892755271e-01	 1.611342453407088e+01
 1.218351749376484e+00	 5.646984336030253e-01	 1.588705071195529e+01
 1.341277530696408e+00	 2.859911050706962e-01	 1.697186471007647e+01
 1.334714125237417e+00	 3.152055367888227e-01	 1.687812263415342e+01
 1.327467563066575e+00	 3.444505705274745e-01	 1.679075983994663e+01
 1.319530912527445e+00	 3.737037562228942e-01	 1.670521010461361e+01
 1.310898166089564e+00	 4.029420860044635e-01	 1.661043084893032e+01
 1.301564283861259e+00	 4.321420385791467e-01	 1.649978951235211e+01
 1.291525234763813e+00	 4.612796272315622e-01	 1.637193090024675e+01
 1.280778035040992e+00	 4.903304513153843e-01	 1.622604166727050e+01
 1.269320783783236e+00	 5.192697510798451e-01	 1.606184280725719e+01
 1.257152695154616e+00	 5.480724656430915e-01	 1.587956463727071e+01
 1.244274127022792e+00	 5.767132938924513e-01	 1.567990209265549e+01
 1.369220812585917e+00	 2.919492530930023e-01	 1.657247613149700e+01
 1.362520669513196e+00	 3.217723188052565e-01	 1.649202596309505e+01
 1.355123137297128e+00	 3.516266240801301e-01	 1.642244646745478e+01
 1.347021139871766e+00	 3.814892511442046e-01	 1.635848186791808e+01
 1.338208544549764e+00	 4.113367127962232e-01	 1.628442447051718e+01
 1.328680206441702e+00	 4.411449977162123e-01	 1.619506109409553e+01
 1.318432010488060e+00	 4.708896194655532e-01	 1.608908748759001e+01
 1.307460910771012e+00	 5.005456690511214e-01	 1.596576542483109e+01
 1.295764966778720e+00	 5.300878708940087e-01	 1.582491804599856e+01
 1.283343376303670e+00	 5.594906420106559e-01	 1.566690634721027e+01
 1.270196504669100e+00	 5.887281541818774e-01	 1.549258421520823e+01
 1.397164094475425e+00	 2.979074011153085e-01	 1.620843540596590e+01
 1.390327213788976e+00	 3.283391008216903e-01	 1.614054269807791e+01
 1.382778711527682e+00	 3.588026776327859e-01	 1.608794097589398e+01
 1.374511367216089e+00	 3.892747460655148e-01	 1.604297447554873e+01
 1.365518923009963e+00	 4.197313395879828e-01	 1.598683416692989e+01
 1.355796129022145e+00	 4.501479568532779e-01	 1.591614248580566e+01
 1.345338786212305e+00	 4.804996116995440e-01	 1.582966359931388e+01
 1.334143786501033e+00	 5.107608867868585e-01	 1.572674449932945e+01
 1.322209149774204e+00	 5.409059907081718e-01	 1.560731424598470e+01
 1.309534057452725e+00	 5.709088183782206e-01	 1.547186302202757e+01
 1.296118882315409e+00	 6.007430144713034e-01	 1.532139791725914e+01
 1.425107376364934e+00	 3.038655491376147e-01	 1.587557397961838e+01
 1.418133758064756e+00	 3.349058828381242e-01	 1.581976353471231e+01
 1.410434285758236e+00	 3.659787311854416e-01	 1.578344239073860e+01
 1.402001594560411e+00	 3.970602409868250e-01	 1.575422762189701e+01
 1.392829301470162e+00	 4.281259663797425e-01	 1.571336952597106e+01
 1.382912051602587e+00	 4.591509159903434e-01	 1.565887837507654e+01
 1.372245561936552e+00	 4.901096039335349e-01	 1.558959823157488e+01
 1.360826662231054e+00	 5.209761045225958e-01	 1.550496555311492e+01
 1.348653332769688e+00	 5.517241105223353e-01	 1.540501361510355e+01
 1.335724738601780e+00	 5.823269947457849e-01	 1.529035541786124e+01
 1.322041259961717e+00	 6.127578747607293e-01	 1.516214145566402e+01
 1.453050658254442e+00	 3.098236971599209e-01	 1.556974838075042e+01
 1.445940302340535e+00	 3.414726648545579e-01	 1.552560804410441e+01
 1.438089859988789e+00	 3.731547847380973e-01	 1.550466184761333e+01
 1.429491821904732e+00	 4.048457359081356e-01	 1.548750862664216e+01
 1.420139679930362e+00	 4.365205931715022e-01	 1.545941619009480e+01
 1.410027974183030e+00	 4.681538751274090e-01	 1.541874784489363e+01
 1.399152337660798e+00	 4.997195961675258e-01	 1.536443220431610e+01
 1.387509537961074e+00	 5.311913222583328e-01	 1.529599271883598e+01
 1.375097515765172e+00	 5.625422303364989e-01	 1.521355879748536e+01
 1.361915419750834e+00	 5.937451711133493e-01	 1.511785410202290e+01
 1.347963637608025e+00	 6.247727350501554e-01	 1.501015777790774e+01
 1.480993940143951e+00	 3.157818451822270e-01	 1.528676281056820e+01
 1.473746846616314e+00	 3.480394468709917e-01	 1.525374775454045e+01
 1.465745434219343e+00	 3.803308382907530e-01	 1.524572661433708e+01
 1.456982049249054e+00	 4.126312308294457e-01	 1.523781272069355e+01
 1.447450058390561e+00	 4.449152199632617e-01	 1.522004480987658e+01
 1.437143896763474e+00	 4.771568342644747e-01	 1.519088143662330e+01
 1.426059113385044e+00	 5.093295884015167e-01	 1.514933272977592e+01
 1.414192413691095e+00	 5.414065399940701e-01	 1.509499902502301e+01
 1.401541698760656e+00	 5.733603501506622e-01	 1.502809046550289e+01
 1.388106100899889e+00	 6.051633474809137e-01	 1.494942248147849e+01
 1.373886015254334e+00	 6.367875953395817e-01	 1.486038222148033e+01
 1.508937222033459e+00	 3.217399932045333e-01	 1.503080323140848e+01
 1.501553390892094e+00	 3.546062288874255e-01	 1.500453655006711e+01
 1.493401008449897e+00	 3.875068918434086e-01	 1.500294888963677e+01
 1.484472276593376e+00	 4.204167257507562e-01	 1.499999000645034e+01
 1.474760436850761e+00	 4.533098467550214e-01	 1.499002235464999e+01
 1.464259819343916e+00	 4.861597934015402e-01	 1.497008007052785e+01
 1.452965889109290e+00	 5.189395806355077e-01	 1.493911940661221e+01
 1.440875289421116e+00	 5.516217577298073e-01	 1.489679888316851e+01
 1.427985881756140e+00	 5.841784699648257e-01	 1.484338567673879e+01
 1.414296782048943e+00	 6.165815238484779e-01	 1.477976036687683e+01
 1.399808392900642e+00	 6.488024556290075e-01	 1.470739058573407e+01
 1.536880503922968e+00	 3.276981412268393e-01	 1.480402132487167e+01
 1.529359935167874e+00	 3.611730109038593e-01	 1.478486926358818e+01
 1.521056582680450e+00	 3.946829453960644e-01	 1.478512940353848e+01
 1.511962503937698e+00	 4.282022206720664e-01	 1.478062297370706e+01
 1.502070815310960e+00	 4.617044735467811e-01	 1.476966846045467e+01
 1.491375741924359e+00	 4.951627525386058e-01	 1.475218809537756e+01
 1.479872664833537e+00	 5.285495728694984e-01	 1.472829145820005e+01
 1.467558165151136e+00	 5.618369754655442e-01	 1.469588150120572e+01
 1.454430064751624e+00	 5.949965897789891e-01	 1.465389689856102e+01
 1.440487463197997e+00	 6.279997002160422e-01	 1.460324800396443e+01
 1.425730770546950e+00	 6.608173159184336e-01	 1.454544752881556e+01
 1.166506994083867e+00	 5.406687130241730e-01	 1.637284382133534e+01
 1.153768692851193e+00	 5.673438356818945e-01	 1.607432426860669e+01
 1.140368293674145e+00	 5.938193153413872e-01	 1.576534658188155e+01
 1.126309472158341e+00	 6.200711228691397e-01	 1.544787707262012e+01
 1.111597044734725e+00	 6.460752546157617e-01	 1.512394110194999e+01
 1.096236975051242e+00	 6.718077991660251e-01	 1.479313720497773e+01
 1.080236375725679e+00	 6.972450050368562e-01	 1.445362477621499e+01
 1.063603505345799e+00	 7.223633489497692e-01	 1.410553231602728e+01
 1.046347760637097e+00	 7.471396042906102e-01	 1.374879952471117e+01
 1.028479663754461e+00	 7.715509093593932e-01	 1.338492408455610e+01
 1.010010844691245e+00	 7.955748350066589e-01	 1.302118057361059e+01
 1.192429371730176e+00	 5.526835733135990e-01	 1.611717987633413e+01
 1.179407997136775e+00	 5.799514764748255e-01	 1.584803684389757e+01
 1.165709811311349e+00	 6.070153001267513e-01	 1.556858171149343e+01
 1.151338571539637e+00	 6.338504811551205e-01	 1.528054416589287e+01
 1.136299201284386e+00	 6.604324824961119e-01	 1.498568023510319e+01
 1.120597796719048e+00	 6.867368613697143e-01	 1.468563460038014e+01
 1.104241628519583e+00	 7.127393384821199e-01	 1.438127398194975e+01
 1.087239138797927e+00	 7.384158678153194e-01	 1.406866855394204e+01
 1.069599933095699e+00	 7.637427066081791e-01	 1.374417410253982e+01
 1.051334767393449e+00	 7.886964851229350e-01	 1.340924552239354e+01
 1.032455530128829e+00	 8.132542757845850e-01	 1.307171936490726e+01
 1.218351749376484e+00	 5.646984336030253e-01	 1.588705071195529e+01
 1.205047301422357e+00	 5.925591172677563e-01	 1.564633379200059e+01
 1.191051328948552e+00	 6.202112849121156e-01	 1.539553810970393e+01
 1.176367670920933e+00	 6.476298394411015e-01	 1.513622366948604e+01
 1.161001357834047e+00	 6.747897103764620e-01	 1.486995144670062e+01
 1.144958618386853e+00	 7.016659235734040e-01	 1.459813449167101e+01
 1.128246881313487e+00	 7.282336719273835e-01	 1.432187104039895e+01
 1.110874772250056e+00	 7.544683866808700e-01	 1.404020756068568e+01
 1.092852105554301e+00	 7.803458089257483e-01	 1.374406183438957e+01
 1.074189871032437e+00	 8.058420608864776e-01	 1.343561552000533e+01
 1.054900215566412e+00	 8.309337165625105e-01	 1.312246712430667e+01
 1.244274127022792e+00	 5.767132938924513e-01	 1.567990209265549e+01
 1.230686605707940e+00	 6.051667580606874e-01	 1.546656735394520e+01
 1.216392846585755e+00	 6.334072696974795e-01	 1.524352308997103e+01
 1.201396770302230e+00	 6.614091977270824e-01	 1.501222398524051e+01
 1.185703514383707e+00	 6.891469382568125e-01	 1.477410842576081e+01
 1.169319440054658e+00	 7.165949857770934e-01	 1.453043783942833e+01
 1.152252134107391e+00	 7.437280053726465e-01	 1.428200555701695e+01
 1.134510405702185e+00	 7.705209055464203e-01	 1.401997887575249e+01
 1.116104278012903e+00	 7.969489112433175e-01	 1.374388575833662e+01
 1.097044974671425e+00	 8.229876366500192e-01	 1.345953343609860e+01
 1.077344901003995e+00	 8.486131573404362e-01	 1.316927669499428e+01
 1.270196504669100e+00	 5.887281541818774e-01	 1.549258421520823e+01
 1.256325909993522e+00	 6.177743988536184e-01	 1.530547586257705e+01
 1.241734364222959e+00	 6.466032544828437e-01	 1.510920772302131e+01
 1.226425869683527e+00	 6.751885560130634e-01	 1.490519057487192e+01
 1.210405670933367e+00	 7.035041661371626e-01	 1.469481059340382e+01
 1.193680261722464e+00	 7.315240479807829e-01	 1.447925646097150e+01
 1.176257386901295e+00	 7.592223388179099e-01	 1.425439337781556e+01
 1.158146039154314e+00	 7.865734244119710e-01	 1.400791606728839e+01
 1.139356450471505e+00	 8.135520135608866e-01	 1.374608180254127e+01
 1.119900078310413e+00	 8.401332124135613e-01	 1.347696178496094e+01
 1.099789586441579e+00	 8.662925981183619e-01	 1.320761698971998e+01
 1.296118882315409e+00	 6.007430144713034e-01	 1.532139791725914e+01
 1.281965214279104e+00	 6.303820396465496e-01	 1.515923476396355e+01
 1.267075881860162e+00	 6.597992392682082e-01	 1.498868266523117e+01
 1.251454969064823e+00	 6.889679142990441e-01	 1.481116653870269e+01
 1.235107827483028e+00	 7.178613940175129e-01	 1.462808832685769e+01
 1.218041083390269e+00	 7.464531101844722e-01	 1.444007072167758e+01
 1.200262639695199e+00	 7.747166722631736e-01	 1.423071965536102e+01
 1.181781672606443e+00	 8.026259432775215e-01	 1.399746372445792e+01
 1.162608622930107e+00	 8.301551158784557e-01	 1.374803079237607e+01
 1.142755181949402e+00	 8.572787881771035e-01	 1.349065705726926e+01
 1.122234271879162e+00	 8.839720388962882e-01	 1.323394408192278e+01
 1.322041259961717e+00	 6.127578747607293e-01	 1.516214145566402e+01
 1.307604518564686e+00	 6.429896804394806e-01	 1.502350799462771e+01
 1.292417399497365e+00	 6.729952240535720e-01	 1.487751410047652e+01
 1.276484068446120e+00	 7.027472725850249e-01	 1.472565303892346e+01
 1.259809984032689e+00	 7.322186218978632e-01	 1.456940773445537e+01
 1.242401905058075e+00	 7.613821723881616e-01	 1.440192307961940e+01
 1.224267892489103e+00	 7.902110057084369e-01	 1.420419440680161e+01
 1.205417306058572e+00	 8.186784621430718e-01	 1.398202253834358e+01
 1.185860795388709e+00	 8.467582181960248e-01	 1.374332706699259e+01
 1.165610285588389e+00	 8.744243639406453e-01	 1.349657376162301e+01
 1.144678957316745e+00	 9.016514796742137e-01	 1.325062421411292e+01
 1.347963637608025e+00	 6.247727350501554e-01	 1.501015777790774e+01
 1.333243822850268e+00	 6.555973212324114e-01	 1.489349966670978e+01
 1.317758917134568e+00	 6.861912088389363e-01	 1.477079978017656e+01
 1.301513167827416e+00	 7.165266308710058e-01	 1.464366958831274e+01
 1.284512140582349e+00	 7.465758497782135e-01	 1.451301322744611e+01
 1.266762726725880e+00	 7.763112345918510e-01	 1.435653063004436e+01
 1.248273145283007e+00	 8.057053391537005e-01	 1.416804979042928e+01
 1.229052939510701e+00	 8.347309810086223e-01	 1.395500843978120e+01
 1.209112967847312e+00	 8.633613205135942e-01	 1.372556815786322e+01
 1.188465389227378e+00	 8.915699397041876e-01	 1.348848553631614e+01
 1.167123642754329e+00	 9.193309204521392e-01	 1.325295412481632e+01
 1.373886015254334e+00	 6.367875953395817e-01	 1.486038222148033e+01
 1.358883127135851e+00	 6.682049620253425e-01	 1.476400602038780e+01
 1.343100434771772e+00	 6.993871936243004e-01	 1.466322514856213e+01
 1.326542267208713e+00	 7.303059891569867e-01	 1.455981422218491e+01
 1.309214297132010e+00	 7.609330776585638e-01	 1.444652326369771e+01
 1.291123548393686e+00	 7.912402967955409e-01	 1.429701858469782e+01
 1.272278398076911e+00	 8.211996725989640e-01	 1.411559412030986e+01
 1.252688572962829e+00	 8.507834998741727e-01	 1.390991003264381e+01
 1.232365140305914e+00	 8.799644228311632e-01	 1.368841548032554e+01
 1.211320492866365e+00	 9.087155154677298e-01	 1.346021568533014e+01
 1.189568328191911e+00	 9.370103612300650e-01	 1.323490592371407e+01
 1.399808392900642e+00	 6.488024556290075e-01	 1.470739058573407e+01
 1.384522431421433e+00	 6.808126028182733e-01	 1.462946760891173e+01
 1.368441952408975e+00	 7.125831784096647e-01	 1.454911954212138e+01
 1.351571366590010e+00	 7.440853474429676e-01	 1.446806058827985e+01
 1.333916453681671e+00	 7.752903055389142e-01	 1.436154960613159e+01
 1.315484370061491e+00	 8.061693589992301e-01	 1.421663667538171e+01
 1.296283650870815e+00	 8.366940060442275e-01	 1.404026516100193e+01
 1.276324206414958e+00	 8.668360187397232e-01	 1.384034507577404e+01
 1.255617312764516e+00	 8.965675251487322e-01	 1.362565383233790e+01
 1.234175596505354e+00	 9.258610912312716e-01	 1.340569949743371e+01
 1.212013013629495e+00	 9.546898020079907e-01	 1.319054664056359e+01
 1.425730770546950e+00	 6.608173159184336e-01	 1.454544752881556e+01
 1.410161735707014e+00	 6.934202436112044e-01	 1.448402168664602e+01
 1.393783470046178e+00	 7.257791631950288e-01	 1.442251245378210e+01
 1.376600465971306e+00	 7.578647057289489e-01	 1.435607351158479e+01
 1.358618610231331e+00	 7.896475334192641e-01	 1.425131303124239e+01
 1.339845191729296e+00	 8.210984212029195e-01	 1.410880868325620e+01
 1.320288903664719e+00	 8.521883394894910e-01	 1.393568279398881e+01
 1.299959839867087e+00	 8.828885376052733e-01	 1.374011613464527e+01
 1.278869485223118e+00	 9.131706274663014e-01	 1.353124985225548e+01
 1.257030700144342e+00	 9.430066669948137e-01	 1.331904530637243e+01
 1.234457699067078e+00	 9.723692427859164e-01	 1.311410166238672e+01
 1.010010844691245e+00	 7.955748350066589e-01	 1.302118057361059e+01
 9.909540188373526e-01	 8.191894512503781e-01	 1.264045181826436e+01
 9.713229597564360e-01	 8.423733924690366e-01	 1.222468260699576e+01
 9.511324672907290e-01	 8.651059207722755e-01	 1.178107366692939e+01
 9.303983311398822e-01	 8.873669871602833e-01	 1.131669857464916e+01
 9.091372900969898e-01	 9.091372900969898e-01	 1.083833152142665e+01
 8.873669871602834e-01	 9.303983311398824e-01	 1.035227153067504e+01
 8.651059207722757e-01	 9.511324672907288e-01	 9.864168698784461e+00
 8.423733924690366e-01	 9.713229597564357e-01	 9.378858290562901e+00
 8.191894512503786e-01	 9.909540188373526e-01	 8.900208574915386e+00
 7.955748350066589e-01	 1.010010844691245e+00	 8.430988125967298e+00
 1.032455530128829e+00	 8.132542757845850e-01	 1.307171936490726e+01
 1.012975219255961e+00	 8.373936612781645e-01	 1.271315591364464e+01
 9.929079144176902e-01	 8.610928011905706e-01	 1.231490521793317e+01
 9.722687443416338e-01	 8.843304967894369e-01	 1.188503417832287e+01
 9.510738496096575e-01	 9.070862535416229e-01	 1.143155344530545e+01
 9.293403409880340e-01	 9.293403409880341e-01	 1.096221866480752e+01
 9.070862535416228e-01	 9.510738496096575e-01	 1.048432600914011e+01
 8.843304967894372e-01	 9.722687443416339e-01	 1.000450838380759e+01
 8.610928011905709e-01	 9.929079144176899e-01	 9.528539032254148e+00
 8.373936612781646e-01	 1.012975219255960e+00	 9.061149357362012e+00
 8.132542757845850e-01	 1.032455530128829e+00	 8.605867628957764e+00
 1.054900215566412e+00	 8.309337165625105e-01	 1.312246712430667e+01
 1.034996419674568e+00	 8.555978713059506e-01	 1.278527768222971e+01
 1.014492869078944e+00	 8.798122099121048e-01	 1.240511954188864e+01
 9.934050213925393e-01	 9.035550728065990e-01	 1.199082315377878e+01
 9.717493680794327e-01	 9.268055199229628e-01	 1.155122758121095e+01
 9.495433918790784e-01	 9.495433918790783e-01	 1.109495373462148e+01
 9.268055199229627e-01	 9.717493680794324e-01	 1.063016948146904e+01
 9.035550728065993e-01	 9.934050213925389e-01	 1.016435391749070e+01
 8.798122099121051e-01	 1.014492869078944e+00	 9.704068497912591e+00
 8.555978713059509e-01	 1.034996419674568e+00	 9.254742872839447e+00
 8.309337165625105e-01	 1.054900215566412e+00	 8.820483135663659e+00
 1.077344901003995e+00	 8.486131573404362e-01	 1.316927669499428e+01
 1.057017620093176e+00	 8.738020813337368e-01	 1.285295570838505e+01
 1.036077823740198e+00	 8.985316186336390e-01	 1.249161700869556e+01
 1.014541298443444e+00	 9.227796488237606e-01	 1.209476346308783e+01
 9.924248865492077e-01	 9.465247863043020e-01	 1.167196739717674e+01
 9.697464427701225e-01	 9.697464427701227e-01	 1.123261406778090e+01
 9.465247863043025e-01	 9.924248865492078e-01	 1.078563431246713e+01
 9.227796488237603e-01	 1.014541298443444e+00	 1.033923464063975e+01
 8.985316186336394e-01	 1.036077823740198e+00	 9.900633535586490e+00
 8.738020813337375e-01	 1.057017620093176e+00	 9.475812938873073e+00
 8.486131573404363e-01	 1.077344901003995e+00	 9.069293771178774e+00
 1.099789586441579e+00	 8.662925981183619e-01	 1.320761698971998e+01
 1.079038820511784e+00	 8.920062913615227e-01	 1.291191729341843e+01
 1.057662778401452e+00	 9.172510273551729e-01	 1.257025471820924e+01
 1.035677575494350e+00	 9.420042248409223e-01	 1.219272456908968e+01
 1.013100405018983e+00	 9.662440526856418e-01	 1.178955056331392e+01
 9.899494936611666e-01	 9.899494936611667e-01	 1.137079652218699e+01
 9.662440526856417e-01	 1.013100405018983e+00	 1.094606420326520e+01
 9.420042248409223e-01	 1.035677575494349e+00	 1.052418660816015e+01
 9.172510273551733e-01	 1.057662778401452e+00	 1.011292670954039e+01
 8.920062913615231e-01	 1.079038820511784e+00	 9.718691807668577e+00
 8.662925981183622e-01	 1.099789586441579e+00	 9.346273632146215e+00
 1.122234271879162e+00	 8.839720388962882e-01	 1.323394408192278e+01
 1.101060020930392e+00	 9.102105013893091e-01	 1.295758673951036e+01
 1.079247733062707e+00	 9.359704360767072e-01	 1.263656464553172e+01
 1.056813852545254e+00	 9.612288008580838e-01	 1.228023118711849e+01
 1.033775923488758e+00	 9.859633190669812e-01	 1.189939274197220e+01
 1.010152544552211e+00	 1.010152544552211e+00	 1.150472101474137e+01
 9.859633190669813e-01	 1.033775923488758e+00	 1.110641336343141e+01
 9.612288008580839e-01	 1.056813852545254e+00	 1.071384634593755e+01
 9.359704360767076e-01	 1.079247733062706e+00	 1.033523371736307e+01
 9.102105013893094e-01	 1.101060020930392e+00	 9.977300449706661e+00
 8.839720388962879e-01	 1.122234271879162e+00	 9.637556519911822e+00
 1.144678957316745e+00	 9.016514796742137e-01	 1.325062421411292e+01
 1.123081221349000e+00	 9.284147114170953e-01	 1.298657503234186e+01
 1.100832687723960e+00	 9.546898447982414e-01	 1.268585971156547e+01
 1.077950129596160e+00	 9.804533768752455e-01	 1.235256872206091e+01
 1.054451441958533e+00	 1.005682585448321e+00	 1.199665112397485e+01
 1.030355595443255e+00	 1.030355595443255e+00	 1.162933098098541e+01
 1.005682585448321e+00	 1.054451441958533e+00	 1.126134281848391e+01
 9.804533768752459e-01	 1.077950129596159e+00	 1.090254203871938e+01
 9.546898447982416e-01	 1.100832687723960e+00	 1.056151860552161e+01
 9.284147114170960e-01	 1.123081221349000e+00	 1.023692647962265e+01
 9.016514796742136e-01	 1.144678957316745e+00	 9.891929344954491e+00
 1.167123642754329e+00	 9.193309204521392e-01	 1.325295412481632e+01
 1.145102421767608e+00	 9.466189214448815e-01	 1.300059796677613e+01
 1.122417642385215e+00	 9.734092535197758e-01	 1.271448006694783e+01
 1.099086406647065e+00	 9.996779528924071e-01	 1.240488591680752e+01
 1.075126960428308e+00	 1.025401851829660e+00	 1.207632519501363e+01
 1.050558646334299e+00	 1.050558646334299e+00	 1.173939117076490e+01
 1.025401851829661e+00	 1.075126960428308e+00	 1.140531423842469e+01
 9.996779528924074e-01	 1.099086406647064e+00	 1.108438249482290e+01
 9.734092535197759e-01	 1.122417642385215e+00	 1.077848671150140e+01
 9.466189214448819e-01	 1.145102421767607e+00	 1.045027531378251e+01
 9.193309204521394e-01	 1.167123642754328e+00	 1.009749611443038e+01
 1.189568328191911e+00	 9.370103612300650e-01	 1.323490592371407e+01
 1.167123622186216e+00	 9.648231314726676e-01	 1.299472879048456e+01
 1.144002597046469e+00	 9.921286622413098e-01	 1.272340872817063e+01
 1.120222683697970e+00	 1.018902528909569e+00	 1.243296555087192e+01
 1.095802478898083e+00	 1.045121118211001e+00	 1.213335509803198e+01
 1.070761697225344e+00	 1.070761697225344e+00	 1.182958313176460e+01
 1.045121118211000e+00	 1.095802478898083e+00	 1.153268161470589e+01
 1.018902528909569e+00	 1.120222683697969e+00	 1.124909791352926e+01
 9.921286622413101e-01	 1.144002597046469e+00	 1.094304039857385e+01
 9.648231314726682e-01	 1.167123622186215e+00	 1.060845617246867e+01
 9.370103612300651e-01	 1.189568328191912e+00	 1.025075673967538e+01
 1.212013013629495e+00	 9.546898020079907e-01	 1.319054664056359e+01
 1.189144822604823e+00	 9.830273415004539e-01	 1.296310304169241e+01
 1.165587551707723e+00	 1.010848070962844e+00	 1.270773521435887e+01
 1.141358960748875e+00	 1.038127104926731e+00	 1.243694302945177e+01
 1.116477997367859e+00	 1.064840384592340e+00	 1.216292201521093e+01
 1.090964748116388e+00	 1.090964748116388e+00	 1.189459868063419e+01
 1.064840384592340e+00	 1.116477997367859e+00	 1.163643317828504e+01
 1.038127104926731e+00	 1.141358960748875e+00	 1.135823939084614e+01
 1.010848070962844e+00	 1.165587551707723e+00	 1.104735301504280e+01
 9.830273415004540e-01	 1.189144822604823e+00	 1.070908783922307e+01
 9.546898020079909e-01	 1.212013013629495e+00	 1.034877880622738e+01
 1.234457699067078e+00	 9.723692427859164e-01	 1.311410166238672e+01
 1.211166023023431e+00	 1.001231551528240e+00	 1.289999726439720e+01
 1.187172506368977e+00	 1.029567479684378e+00	 1.266168565762886e+01
 1.162495237799780e+00	 1.057351680943892e+00	 1.241213339067764e+01
 1.137153515837634e+00	 1.084559650973679e+00	 1.216398731235817e+01
 1.111167799007432e+00	 1.111167799007432e+00	 1.192923150197383e+01
 1.084559650973680e+00	 1.137153515837634e+00	 1.168466797989327e+01
 1.057351680943892e+00	 1.162495237799779e+00	 1.140321879980989e+01
 1.029567479684378e+00	 1.187172506368977e+00	 1.109003664378172e+01
 1.001231551528240e+00	 1.211166023023430e+00	 1.075028906577592e+01
 9.723692427859166e-01	 1.234457699067078e+00	 1.038914920815372e+01
 7.955748350066589e-01	 1.010010844691245e+00	 8.430988125967298e+00
 7.715509093593931e-01	 1.028479663754461e+00	 7.972593783629051e+00
 7.471396042906104e-01	 1.046347760637096e+00	 7.526908523220696e+00
 7.223633489497694e-01	 1.063603505345799e+00	 7.095153113357172e+00
 6.972450050368566e-01	 1.080236375725679e+00	 6.676102205471841e+00
 6.718077991660254e-01	 1.096236975051242e+00	 6.268487058250235e+00
 6.460752546157623e-01	 1.111597044734725e+00	 5.871069679431143e+00
 6.200711228691403e-01	 1.126309472158341e+00	 5.472199666010800e+00
 5.938193153413879e-01	 1.140368293674145e+00	 5.067041615943867e+00
 5.673438356818953e-01	 1.153768692851193e+00	 4.662807855113396e+00
 5.406687130241729e-01	 1.166506994083868e+00	 4.266844431162390e+00
 8.132542757845850e-01	 1.032455530128829e+00	 8.605867628957764e+00
 7.886964851229352e-01	 1.051334767393449e+00	 8.164896724559245e+00
 7.637427066081791e-01	 1.069599933095698e+00	 7.740065116549132e+00
 7.384158678153198e-01	 1.087239138797927e+00	 7.332220124385397e+00
 7.127393384821199e-01	 1.104241628519583e+00	 6.939231669383425e+00
 6.867368613697147e-01	 1.120597796719047e+00	 6.552978130453539e+00
 6.604324824961124e-01	 1.136299201284386e+00	 6.153104002307951e+00
 6.338504811551212e-01	 1.151338571539637e+00	 5.742929896357181e+00
 6.070153001267520e-01	 1.165709811311348e+00	 5.329053167928539e+00
 5.799514764748263e-01	 1.179407997136775e+00	 4.918395608603115e+00
 5.526835733135990e-01	 1.192429371730176e+00	 4.517961433612570e+00
 8.309337165625105e-01	 1.054900215566412e+00	 8.820483135663659e+00
 8.058420608864774e-01	 1.074189871032437e+00	 8.403920877372236e+00
 7.803458089257486e-01	 1.092852105554301e+00	 8.006556518229170e+00
 7.544683866808702e-01	 1.110874772250056e+00	 7.628416130990303e+00
 7.282336719273838e-01	 1.128246881313487e+00	 7.250407586819382e+00
 7.016659235734044e-01	 1.144958618386853e+00	 6.854015380568393e+00
 6.747897103764627e-01	 1.161001357834047e+00	 6.443668573615486e+00
 6.476298394411024e-01	 1.176367670920933e+00	 6.025157868040836e+00
 6.202112849121162e-01	 1.191051328948552e+00	 5.604865442081981e+00
 5.925591172677570e-01	 1.205047301422357e+00	 5.189461509559714e+00
 5.646984336030251e-01	 1.218351749376485e+00	 4.785635637850836e+00
 8.486131573404363e-01	 1.077344901003995e+00	 9.069293771178774e+00
 8.229876366500193e-01	 1.097044974671425e+00	 8.683823460648515e+00
 7.969489112433175e-01	 1.116104278012903e+00	 8.318836766313023e+00
 7.705209055464205e-01	 1.134510405702185e+00	 7.945124870685452e+00
 7.437280053726468e-01	 1.152252134107390e+00	 7.554645275831719e+00
 7.165949857770938e-01	 1.169319440054658e+00	 7.149746684154133e+00
 6.891469382568129e-01	 1.185703514383706e+00	 6.732558620788186e+00
 6.614091977270831e-01	 1.201396770302230e+00	 6.308698557531555e+00
 6.334072696974803e-01	 1.216392846585755e+00	 5.884391598381724e+00
 6.051667580606884e-01	 1.230686605707940e+00	 5.466103671172621e+00
 5.767132938924512e-01	 1.244274127022792e+00	 5.060242519451857e+00
 8.662925981183622e-01	 1.099789586441579e+00	 9.346273632146213e+00
 8.401332124135612e-01	 1.119900078310413e+00	 8.993564704692659e+00
 8.135520135608867e-01	 1.139356450471505e+00	 8.626272105899966e+00
 7.865734244119713e-01	 1.158146039154314e+00	 8.240733787934087e+00
 7.592223388179105e-01	 1.176257386901294e+00	 7.840965693119109e+00
 7.315240479807834e-01	 1.193680261722464e+00	 7.430573178455446e+00
 7.035041661371630e-01	 1.210405670933367e+00	 7.010068957424828e+00
 6.751885560130639e-01	 1.226425869683526e+00	 6.583806624647236e+00
 6.466032544828446e-01	 1.241734364222958e+00	 6.157924537829190e+00
 6.177743988536193e-01	 1.256325909993522e+00	 5.738741293346971e+00
 5.887281541818771e-01	 1.270196504669100e+00	 5.332422408822165e+00
 8.839720388962879e-01	 1.122234271879162e+00	 9.637556519911826e+00
 8.572787881771036e-01	 1.142755181949402e+00	 9.279791275198097e+00
 8.301551158784561e-01	 1.162608622930107e+00	 8.901888224596362e+00
 8.026259432775212e-01	 1.181781672606442e+00	 8.507931501215833e+00
 7.747166722631739e-01	 1.200262639695199e+00	 8.101899937464728e+00
 7.464531101844727e-01	 1.218041083390269e+00	 7.687640914272560e+00
 7.178613940175136e-01	 1.235107827483028e+00	 7.267045849203196e+00
 6.889679142990449e-01	 1.251454969064823e+00	 6.841220429856904e+00
 6.597992392682089e-01	 1.267075881860162e+00	 6.416173703911145e+00
 6.303820396465506e-01	 1.281965214279104e+00	 5.998144923453106e+00
 6.007430144713033e-01	 1.296118882315409e+00	 5.593104920214255e+00
 9.016514796742136e-01	 1.144678957316745e+00	 9.891929344954491e+00
 8.744243639406457e-01	 1.165610285588389e+00	 9.524975764294814e+00
 8.467582181960251e-01	 1.185860795388710e+00	 9.139697803503765e+00
 8.186784621430719e-01	 1.205417306058572e+00	 8.740173452255666e+00
 7.902110057084374e-01	 1.224267892489103e+00	 8.330379408203827e+00
 7.613821723881624e-01	 1.242401905058074e+00	 7.914165504830532e+00
 7.322186218978638e-01	 1.259809984032688e+00	 7.494939676519313e+00
 7.027472725850260e-01	 1.276484068446120e+00	 7.072207022356793e+00
 6.729952240535729e-01	 1.292417399497364e+00	 6.650302981743534e+00
 6.429896804394817e-01	 1.307604518564686e+00	 6.235467895877239e+00
 6.127578747607293e-01	 1.322041259961717e+00	 5.833534596370543e+00
 9.193309204521394e-01	 1.167123642754328e+00	 1.009749611443038e+01
 8.915699397041879e-01	 1.188465389227378e+00	 9.724403516484312e+00
 8.633613205135944e-01	 1.209112967847311e+00	 9.334415062488430e+00
 8.347309810086225e-01	 1.229052939510701e+00	 8.931631591408971e+00
 8.057053391537011e-01	 1.248273145283007e+00	 8.520063351101470e+00
 7.763112345918517e-01	 1.266762726725879e+00	 8.103605485605820e+00
 7.465758497782142e-01	 1.284512140582349e+00	 7.686009200838440e+00
 7.165266308710065e-01	 1.301513167827416e+00	 7.268607968239627e+00
 6.861912088389374e-01	 1.317758917134568e+00	 6.851969547133816e+00
 6.555973212324125e-01	 1.333243822850268e+00	 6.442278791691091e+00
 6.247727350501553e-01	 1.347963637608025e+00	 6.045297605154545e+00
 9.370103612300651e-01	 1.189568328191912e+00	 1.025075673967538e+01
 9.087155154677299e-01	 1.211320492866366e+00	 9.873995821306814e+00
 8.799644228311632e-01	 1.232365140305914e+00	 9.481408360867038e+00
 8.507834998741729e-01	 1.252688572962829e+00	 9.077147375486527e+00
 8.211996725989645e-01	 1.272278398076911e+00	 8.665292680147314e+00
 7.912402967955411e-01	 1.291123548393685e+00	 8.249828046563305e+00
 7.609330776585644e-01	 1.309214297132010e+00	 7.834612924723748e+00
 7.303059891569877e-01	 1.326542267208713e+00	 7.422885907800771e+00
 6.993871936243014e-01	 1.343100434771771e+00	 7.013363540098817e+00
 6.682049620253434e-01	 1.358883127135850e+00	 6.610594783704723e+00
 6.367875953395815e-01	 1.373886015254333e+00	 6.220349349227440e+00
 9.546898020079909e-01	 1.212013013629495e+00	 1.034877880622738e+01
 9.258610912312718e-01	 1.234175596505354e+00	 9.970262042925377e+00
 8.965675251487324e-01	 1.255617312764516e+00	 9.576652541651871e+00
 8.668360187397233e-01	 1.276324206414958e+00	 9.172184752903078e+00
 8.366940060442279e-01	 1.296283650870814e+00	 8.761043997160186e+00
 8.061693589992306e-01	 1.315484370061490e+00	 8.347346051187527e+00
 7.752903055389149e-01	 1.333916453681670e+00	 7.935110030177723e+00
 7.440853474429685e-01	 1.351571366590008e+00	 7.528223273430557e+00
 7.125831784096657e-01	 1.368441952408974e+00	 7.127248455967006e+00
 6.808126028182745e-01	 1.384522431421432e+00	 6.732915752133025e+00
 6.488024556290075e-01	 1.399808392900642e+00	 6.351042870411981e+00
 9.723692427859166e-01	 1.234457699067078e+00	 1.038914920815372e+01
 9.430066669948137e-01	 1.257030700144342e+00	 1.001025128384058e+01
 9.131706274663020e-01	 1.278869485223118e+00	 9.616681051993446e+00
 8.828885376052737e-01	 1.299959839867087e+00	 9.212783137762450e+00
 8.521883394894914e-01	 1.320288903664719e+00	 8.802883784025358e+00
 8.210984212029200e-01	 1.339845191729296e+00	 8.391273777502519e+00
 7.896475334192650e-01	 1.358618610231331e+00	 7.982183245058925e+00
 7.578647057289493e-01	 1.376600465971305e+00	 7.579746691285269e+00
 7.257791631950294e-01	 1.393783470046177e+00	 7.187002162733650e+00
 6.934202436112054e-01	 1.410161735707013e+00	 6.802259072796737e+00
 6.608173159184336e-01	 1.425730770546949e+00	 6.430157947602927e+00
 5.406687130241729e-01	 1.166506994083868e+00	 4.266844431162390e+00
 5.138179365403981e-01	 1.178580651707452e+00	 3.882010546301808e+00
 4.868153916373546e-01	 1.189988234796783e+00	 3.508405987147225e+00
 4.596847981081729e-01	 1.200729407850930e+00	 3.148933012812112e+00
 4.324496505295898e-01	 1.210804907591075e+00	 2.806068767655989e+00
 4.051331611679504e-01	 1.220216516119930e+00	 2.481840618852077e+00
 3.777582056291850e-01	 1.228967030708966e+00	 2.177831681040153e+00
 3.503472714589639e-01	 1.237060230494480e+00	 1.895892204893667e+00
 3.229224098695080e-01	 1.244500840374913e+00	 1.637104255262988e+00
 2.955051907395220e-01	 1.251294492410078e+00	 1.399554164609672e+00
 2.681166610037777e-01	 1.257447685027882e+00	 1.181666610219201e+00
 5.526835733135990e-01	 1.192429371730176e+00	 4.517961433612569e+00
 5.252361129079628e-01	 1.204771332856507e+00	 4.129617907572856e+00
 4.976335114515182e-01	 1.216432417792268e+00	 3.752807031502866e+00
 4.699000158439100e-01	 1.227412283580951e+00	 3.390481845015008e+00
 4.420596427635807e-01	 1.237711683315321e+00	 3.045089243003561e+00
 4.141361203050161e-01	 1.247332438700373e+00	 2.718547025678346e+00
 3.861528324209446e-01	 1.256277409169166e+00	 2.412256415729918e+00
 3.581327663802744e-01	 1.264550457838802e+00	 2.127357768056808e+00
 3.300984634221636e-01	 1.272156414605467e+00	 1.865162452337746e+00
 3.020719727559558e-01	 1.279101036685858e+00	 1.624295001586887e+00
 2.740748090260839e-01	 1.285390966917391e+00	 1.403523388271689e+00
 5.646984336030251e-01	 1.218351749376485e+00	 4.785635637850836e+00
 5.366542892755268e-01	 1.230962014005561e+00	 4.394417552785269e+00
 5.084516312656817e-01	 1.242876600787752e+00	 4.014775351729058e+00
 4.801152335796472e-01	 1.254095159310971e+00	 3.649762815957438e+00
 4.516696349975716e-01	 1.264618459039567e+00	 3.301831348906238e+00
 4.231390794420816e-01	 1.274448361280816e+00	 2.972808742369911e+00
 3.945474592127044e-01	 1.283587787629366e+00	 2.663919430202464e+00
 3.659182613015845e-01	 1.292040685183123e+00	 2.375862342099776e+00
 3.372745169748194e-01	 1.299811988836020e+00	 2.109538108961404e+00
 3.086387547723896e-01	 1.306907580961637e+00	 1.864269495808010e+00
 2.800329570483900e-01	 1.313334248806900e+00	 1.639341187620978e+00
 5.767132938924512e-01	 1.244274127022792e+00	 5.060242519451857e+00
 5.480724656430914e-01	 1.257152695154617e+00	 4.667175937779371e+00
 5.192697510798452e-01	 1.269320783783236e+00	 4.285597214600330e+00
 4.903304513153843e-01	 1.280778035040992e+00	 3.918702939529204e+00
 4.612796272315625e-01	 1.291525234763813e+00	 3.568972779675237e+00
 4.321420385791473e-01	 1.301564283861258e+00	 3.238150109596473e+00
 4.029420860044639e-01	 1.310898166089564e+00	 2.927270963050210e+00
 3.737037562228948e-01	 1.319530912527445e+00	 2.636735780305070e+00
 3.444505705274752e-01	 1.327467563066574e+00	 2.366703161012304e+00
 3.152055367888235e-01	 1.334714125237417e+00	 2.116993133079529e+00
 2.859911050706962e-01	 1.341277530696408e+00	 1.887589740063955e+00
 5.887281541818771e-01	 1.270196504669100e+00	 5.332422408822164e+00
 5.594906420106559e-01	 1.283343376303671e+00	 4.938869979792297e+00
 5.300878708940086e-01	 1.295764966778720e+00	 4.556716229722690e+00
 5.005456690511216e-01	 1.307460910771012e+00	 4.189335573367776e+00
 4.708896194655534e-01	 1.318432010488059e+00	 3.839249317226978e+00
 4.411449977162127e-01	 1.328680206441702e+00	 3.508108447835090e+00
 4.113367127962236e-01	 1.338208544549764e+00	 3.196732468377631e+00
 3.814892511442052e-01	 1.347021139871767e+00	 2.905197867863784e+00
 3.516266240801309e-01	 1.355123137297128e+00	 2.633006634340039e+00
 3.217723188052574e-01	 1.362520669513196e+00	 2.379855098839616e+00
 2.919492530930024e-01	 1.369220812585917e+00	 2.146598576687007e+00
 6.007430144713033e-01	 1.296118882315409e+00	 5.593104920214255e+00
 5.709088183782204e-01	 1.309534057452725e+00	 5.200706539532189e+00
 5.409059907081719e-01	 1.322209149774203e+00	 4.819748912030686e+00
 5.107608867868586e-01	 1.334143786501033e+00	 4.453813059057777e+00
 4.804996116995444e-01	 1.345338786212306e+00	 4.105465506520839e+00
 4.501479568532784e-01	 1.355796129022145e+00	 3.776243676585562e+00
 4.197313395879833e-01	 1.365518923009963e+00	 3.466706029633590e+00
 3.892747460655155e-01	 1.374511367216088e+00	 3.176539546321349e+00
 3.588026776327866e-01	 1.382778711527682e+00	 2.904678180011501e+00
 3.283391008216912e-01	 1.390327213788976e+00	 2.650126544655845e+00
 2.979074011153086e-01	 1.397164094475425e+00	 2.414569938948721e+00
 6.127578747607293e-01	 1.322041259961717e+00	 5.833534596370546e+00
 5.823269947457848e-01	 1.335724738601779e+00	 5.444143095297942e+00
 5.517241105223354e-01	 1.348653332769688e+00	 5.066501339179631e+00
 5.209761045225959e-01	 1.360826662231054e+00	 4.704420292686557e+00
 4.901096039335351e-01	 1.372245561936552e+00	 4.360506035764632e+00
 4.591509159903440e-01	 1.382912051602588e+00	 4.036148358190461e+00
 4.281259663797431e-01	 1.392829301470162e+00	 3.731583869878152e+00
 3.970602409868257e-01	 1.402001594560410e+00	 3.446025107792404e+00
 3.659787311854424e-01	 1.410434285758235e+00	 3.177830932200577e+00
 3.349058828381251e-01	 1.418133758064755e+00	 2.924967745085557e+00
 3.038655491376148e-01	 1.425107376364934e+00	 2.689590126469852e+00
 6.247727350501553e-01	 1.347963637608025e+00	 6.045297605154546e+00
 5.937451711133493e-01	 1.361915419750834e+00	 5.660909448679309e+00
 5.625422303364989e-01	 1.375097515765172e+00	 5.288986756443705e+00
 5.311913222583332e-01	 1.387509537961074e+00	 4.933589100513956e+00
 4.997195961675262e-01	 1.399152337660798e+00	 4.597347726517220e+00
 4.681538751274094e-01	 1.410027974183030e+00	 4.281458109103787e+00
 4.365205931715027e-01	 1.420139679930362e+00	 3.985757945503490e+00
 4.048457359081362e-01	 1.429491821904732e+00	 3.708880834202783e+00
 3.731547847380981e-01	 1.438089859988789e+00	 3.448473853921106e+00
 3.414726648545588e-01	 1.445940302340535e+00	 3.201434294275076e+00
 3.098236971599210e-01	 1.453050658254442e+00	 2.969639491972809e+00
 6.367875953395815e-01	 1.373886015254333e+00	 6.220349349227440e+00
 6.051633474809137e-01	 1.388106100899889e+00	 5.843030325589313e+00
 5.733603501506622e-01	 1.401541698760656e+00	 5.479444003978161e+00
 5.414065399940703e-01	 1.414192413691095e+00	 5.133913313423148e+00
 5.093295884015170e-01	 1.426059113385044e+00	 4.809072053133612e+00
 4.771568342644750e-01	 1.437143896763473e+00	 4.505862330074878e+00
 4.449152199632623e-01	 1.447450058390561e+00	 4.223629612386160e+00
 4.126312308294465e-01	 1.456982049249054e+00	 3.960304276260236e+00
 3.803308382907539e-01	 1.465745434219342e+00	 3.712656232693805e+00
 3.480394468709926e-01	 1.473746846616314e+00	 3.476482469123516e+00
 3.157818451822272e-01	 1.480993940143951e+00	 3.252601262050177e+00
 6.488024556290075e-01	 1.399808392900642e+00	 6.351042870411981e+00
 6.165815238484781e-01	 1.414296782048943e+00	 5.982848756568274e+00
 5.841784699648257e-01	 1.427985881756140e+00	 5.630356659842164e+00
 5.516217577298076e-01	 1.440875289421117e+00	 5.298164449567317e+00
 5.189395806355079e-01	 1.452965889109290e+00	 4.988878122936167e+00
 4.861597934015406e-01	 1.464259819343916e+00	 4.703115213908964e+00
 4.533098467550219e-01	 1.474760436850760e+00	 4.439619355081314e+00
 4.204167257507567e-01	 1.484472276593376e+00	 4.194704926940373e+00
 3.875068918434096e-01	 1.493401008449896e+00	 3.954447048439309e+00
 3.546062288874265e-01	 1.501553390892094e+00	 3.714464802415020e+00
 3.217399932045333e-01	 1.508937222033459e+00	 3.479162943204592e+00
 6.608173159184336e-01	 1.425730770546949e+00	 6.430157947602925e+00
 6.279997002160423e-01	 1.440487463197997e+00	 6.073050137178964e+00
 5.949965897789892e-01	 1.454430064751625e+00	 5.734472807685536e+00
 5.618369754655446e-01	 1.467558165151136e+00	 5.419307927806551e+00
 5.285495728694987e-01	 1.479872664833535e+00	 5.130096058472446e+00
 4.951627525386061e-01	 1.491375741924359e+00	 4.858724526352207e+00
 4.617044735467816e-01	 1.502070815310959e+00	 4.591644773073370e+00
 4.282022206720671e-01	 1.511962503937697e+00	 4.329578052418888e+00
 3.946829453960654e-01	 1.521056582680450e+00	 4.073250246240827e+00
 3.611730109038603e-01	 1.529359935167873e+00	 3.823170832142977e+00
 3.276981412268395e-01	 1.536880503922968e+00	 3.583380616870741e+00
 2.681166610037777e-01	 1.257447685027882e+00	 1.181666610219200e+00
 2.407773065193377e-01	 1.262967740346161e+00	 9.859726182154078e-01
 2.135070174665915e-01	 1.267862759916197e+00	 8.145265134844024e-01
 1.863250573154937e-01	 1.272141579190844e+00	 6.657012555751940e-01
 1.592500353608370e-01	 1.275813721013914e+00	 5.382151744033532e-01
 1.322998828053421e-01	 1.278889348418966e+00	 4.310355157768591e-01
 1.054918323459531e-01	 1.281379217015045e+00	 3.432740808489703e-01
 7.884240119714231e-02	 1.283294627224499e+00	 2.740805820479246e-01
 5.236737746537364e-02	 1.284647376624105e+00	 2.225387534351602e-01
 2.608180977121668e-02	 1.285449712625451e+00	 1.875695750672843e-01
 0.000000000000000e+00	 1.285714285714286e+00	 1.678452316925014e-01
 2.740748090260839e-01	 1.285390966917391e+00	 1.403523388271689e+00
 2.461279133308785e-01	 1.291033690131631e+00	 1.205948625776122e+00
 2.182516178547379e-01	 1.296037487914335e+00	 1.033660795191920e+00
 1.904656141447269e-01	 1.300411392061751e+00	 8.847910588204144e-01
 1.627889250355223e-01	 1.304165137036444e+00	 7.579179582250248e-01
 1.352398802010164e-01	 1.307309111717166e+00	 6.519466049603626e-01
 1.078360952869743e-01	 1.309854310726490e+00	 5.659794436687784e-01
 8.059445455707881e-02	 1.311812285607265e+00	 4.991850647247844e-01
 5.353109696460417e-02	 1.313195096104641e+00	 4.506708611151589e-01
 2.666140554391038e-02	 1.314015261794905e+00	 4.193645364083467e-01
 0.000000000000000e+00	 1.314285714285714e+00	 4.039086149754769e-01
 2.800329570483900e-01	 1.313334248806900e+00	 1.639341187620980e+00
 2.514785201424194e-01	 1.319099639917102e+00	 1.438454116815086e+00
 2.229962182428843e-01	 1.324212215912472e+00	 1.263647454442687e+00
 1.946061709739600e-01	 1.328681204932659e+00	 1.112838202320056e+00
 1.663278147102075e-01	 1.332516553058977e+00	 9.845033192528021e-01
 1.381798775966907e-01	 1.335728875015365e+00	 8.775311797728478e-01
 1.101803582279955e-01	 1.338329404437936e+00	 7.910640998089691e-01
 8.234650791701530e-02	 1.340329943990032e+00	 7.243393546508592e-01
 5.469481646383469e-02	 1.341742815585176e+00	 6.765353224793662e-01
 2.724100131660408e-02	 1.342580810964360e+00	 6.466284766705530e-01
 0.000000000000000e+00	 1.342857142857143e+00	 6.332659645792524e-01
 2.859911050706962e-01	 1.341277530696408e+00	 1.887589740063955e+00
 2.568291269539602e-01	 1.347165589702572e+00	 1.682787185694216e+00
 2.277408186310309e-01	 1.352386943910611e+00	 1.504461567845486e+00
 1.987467278031933e-01	 1.356951017803567e+00	 1.350365775171625e+00
 1.698667043848928e-01	 1.360867969081508e+00	 1.218937099606931e+00
 1.411198749923649e-01	 1.364148638313564e+00	 1.109117131471764e+00
 1.125246211690167e-01	 1.366804498149381e+00	 1.020162243677887e+00
 8.409856127695180e-02	 1.368847602372798e+00	 9.514531402469761e-01
 5.585853596306523e-02	 1.370290535065712e+00	 9.023110298921455e-01
 2.782059708929779e-02	 1.371146360133815e+00	 8.718269391663229e-01
 0.000000000000000e+00	 1.371428571428571e+00	 8.587095498133346e-01
 2.919492530930024e-01	 1.369220812585917e+00	 2.146598576687006e+00
 2.621797337655010e-01	 1.375231539488042e+00	 1.938086196528082e+00
 2.324854190191773e-01	 1.380561671908748e+00	 1.755897582656563e+00
 2.028872846324264e-01	 1.385220830674474e+00	 1.597694542243576e+00
 1.734055940595781e-01	 1.389219385104039e+00	 1.461960959765339e+00
 1.440598723880393e-01	 1.392568401611764e+00	 1.347786820452724e+00
 1.148688841100379e-01	 1.395279591860827e+00	 1.254642384722130e+00
 8.585061463688828e-02	 1.397365260755565e+00	 1.182152148865653e+00
 5.702225546229574e-02	 1.398838254546248e+00	 1.129877176487119e+00
 2.840019286199150e-02	 1.399711909303269e+00	 1.097113187589013e+00
 0.000000000000000e+00	 1.400000000000000e+00	 1.082710502149946e+00
 2.979074011153086e-01	 1.397164094475425e+00	 2.414569938948722e+00
 2.675303405770418e-01	 1.403297489273512e+00	 2.203346884510296e+00
 2.372300194073238e-01	 1.408736399906886e+00	 2.017589862763012e+00
 2.070278414616596e-01	 1.413490643545382e+00	 1.854966277762366e+00
 1.769444837342633e-01	 1.417570801126571e+00	 1.714117933361041e+00
 1.469998697837135e-01	 1.420988164909963e+00	 1.594404377743464e+00
 1.172131470510590e-01	 1.423754685572272e+00	 1.495636013344621e+00
 8.760266799682481e-02	 1.425882919138332e+00	 1.417807886634414e+00
 5.818597496152628e-02	 1.427385974026783e+00	 1.360843869984836e+00
 2.897978863468520e-02	 1.428277458472723e+00	 1.324359582465486e+00
 0.000000000000000e+00	 1.428571428571429e+00	 1.307450929008010e+00
 3.038655491376148e-01	 1.425107376364934e+00	 2.689590126469852e+00
 2.728809473885828e-01	 1.431363439058983e+00	 2.477437465555369e+00
 2.419746197954703e-01	 1.436911127905024e+00	 2.289030877843083e+00
 2.111683982908928e-01	 1.441760456416290e+00	 2.122164433771686e+00
 1.804833734089486e-01	 1.445922217149102e+00	 1.975775058887915e+00
 1.499398671793878e-01	 1.449407928208162e+00	 1.849639869261836e+00
 1.195574099920802e-01	 1.452229779283718e+00	 1.744062952725565e+00
 8.935472135676129e-02	 1.454400577521098e+00	 1.659563918117665e+00
 5.934969446075680e-02	 1.455933693507319e+00	 1.596579164552470e+00
 2.955938440737890e-02	 1.456843007642177e+00	 1.555185271782046e+00
 0.000000000000000e+00	 1.457142857142857e+00	 1.534852249444420e+00
 3.098236971599210e-01	 1.453050658254442e+00	 2.969639491972810e+00
 2.782315542001236e-01	 1.459429388844454e+00	 2.759112022364600e+00
 2.467192201836167e-01	 1.465085855903161e+00	 2.569587352968484e+00
 2.153089551201260e-01	 1.470030269287197e+00	 2.399132502230554e+00
 1.840222630836339e-01	 1.474273633171634e+00	 2.247143481808545e+00
 1.528798645750621e-01	 1.477827691506362e+00	 2.113990745155792e+00
 1.219016729331014e-01	 1.480704872995163e+00	 2.000653842675136e+00
 9.110677471669779e-02	 1.482918235903865e+00	 1.908307566887802e+00
 6.051341395998733e-02	 1.484481412987855e+00	 1.838058427154615e+00
 3.013898018007261e-02	 1.485408556811632e+00	 1.790750834857811e+00
 0.000000000000000e+00	 1.485714285714286e+00	 1.766390117969308e+00
 3.157818451822272e-01	 1.480993940143951e+00	 3.252601262050174e+00
 2.835821610116643e-01	 1.487495338629923e+00	 3.044535966482822e+00
 2.514638205717633e-01	 1.493260583901299e+00	 2.849945018216162e+00
 2.194495119493592e-01	 1.498300082158105e+00	 2.670238415814815e+00
 1.875611527583191e-01	 1.502625049194165e+00	 2.507475176409370e+00
 1.558198619707363e-01	 1.506247454804561e+00	 2.363904547572843e+00
 1.242459358741226e-01	 1.509179966706608e+00	 2.241640600166968e+00
 9.285882807663427e-02	 1.511435894286632e+00	 2.142426752884571e+00
 6.167713345921785e-02	 1.513029132468390e+00	 2.067465982104319e+00
 3.071857595276631e-02	 1.513974105981087e+00	 2.017294616990341e+00
 0.000000000000000e+00	 1.514285714285714e+00	 1.991680329455900e+00
 3.217399932045333e-01	 1.508937222033459e+00	 3.479162943204592e+00
 2.889327678232052e-01	 1.515561288415393e+00	 3.258879838629668e+00
 2.562084209599098e-01	 1.521435311899437e+00	 3.055068290375701e+00
 2.235900687785924e-01	 1.526569895029013e+00	 2.869351013088658e+00
 1.911000424330044e-01	 1.530976465216697e+00	 2.703661401691959e+00
 1.587598593664106e-01	 1.534667218102760e+00	 2.559869109878604e+00
 1.265901988151437e-01	 1.537655060418054e+00	 2.439529126557348e+00
 9.461088143657079e-02	 1.539953552669399e+00	 2.343724375527088e+00
 6.284085295844839e-02	 1.541576851948926e+00	 2.272973651186841e+00
 3.129817172546001e-02	 1.542539655150541e+00	 2.227179327476232e+00
 0.000000000000000e+00	 1.542857142857143e+00	 2.205592523410081e+00
 3.276981412268395e-01	 1.536880503922968e+00	 3.583380616870741e+00
 2.942833746347461e-01	 1.543627238200864e+00	 3.363590393514102e+00
 2.609530213480562e-01	 1.549610039897574e+00	 3.163776032598319e+00
 2.277306256078256e-01	 1.554839707899920e+00	 2.985521992637552e+00
 1.946389321076897e-01	 1.559327881239228e+00	 2.830342511895763e+00
 1.616998567620849e-01	 1.563086981400959e+00	 2.699389832251353e+00
 1.289344617561649e-01	 1.566130154129499e+00	 2.593294118296748e+00
 9.636293479650727e-02	 1.568471211052165e+00	 2.512100265810770e+00
 6.400457245767889e-02	 1.570124571429461e+00	 2.455269028008938e+00
 3.187776749815371e-02	 1.571105204319995e+00	 2.421713050710550e+00
 0.000000000000000e+00	 1.571428571428572e+00	 2.409842255269065e+00
 1.571428571428572e+00	 0.000000000000000e+00	 1.483768741194010e+01
 1.571105204319995e+00	 3.187776749815283e-02	 1.481145893070749e+01
 1.570124571429462e+00	 6.400457245767811e-02	 1.480641616096311e+01
 1.568471211052164e+00	 9.636293479650661e-02	 1.481458688863684e+01
 1.566130154129499e+00	 1.289344617561644e-01	 1.482897518742517e+01
 1.563086981400959e+00	 1.616998567620844e-01	 1.484368875504270e+01
 1.559327881239227e+00	 1.946389321076893e-01	 1.485404697784717e+01
 1.554839707899920e+00	 2.277306256078254e-01	 1.485666090510512e+01
 1.549610039897574e+00	 2.609530213480562e-01	 1.484947460874738e+01
 1.543627238200864e+00	 2.942833746347462e-01	 1.483175571697355e+01
 1.536880503922968e+00	 3.276981412268393e-01	 1.480402132487167e+01
 1.600000000000000e+00	 0.000000000000000e+00	 1.457996814007651e+01
 1.599670753489449e+00	 3.245736327084651e-02	 1.455582481700344e+01
 1.598672290909997e+00	 6.516829195690862e-02	 1.455449114570303e+01
 1.596988869434931e+00	 9.811498815644311e-02	 1.456721464255228e+01
 1.594605247840944e+00	 1.312787246971855e-01	 1.458641025425864e+01
 1.591506744699158e+00	 1.646398541577587e-01	 1.460581671827599e+01
 1.587679297261759e+00	 1.981778217823746e-01	 1.462063727779546e+01
 1.583109520770828e+00	 2.318711824370586e-01	 1.462765542031413e+01
 1.577784767895712e+00	 2.656976217362026e-01	 1.462531431814888e+01
 1.571693187986334e+00	 2.996339814462870e-01	 1.461374665595238e+01
 1.564823785812477e+00	 3.336562892491455e-01	 1.459473962810115e+01
 1.628571428571428e+00	 0.000000000000000e+00	 1.434805393956744e+01
 1.628236302658904e+00	 3.303695904354020e-02	 1.432275857926710e+01
 1.627220010390533e+00	 6.633201145613914e-02	 1.432173354649355e+01
 1.625506527817698e+00	 9.986704151637960e-02	 1.433573494699674e+01
 1.623080341552390e+00	 1.336229876382067e-01	 1.435683505808893e+01
 1.619926507997358e+00	 1.675798515534330e-01	 1.437860588689992e+01
 1.616030713284291e+00	 2.017167114570599e-01	 1.439629169044172e+01
 1.611379333641735e+00	 2.360117392662917e-01	 1.440696066933007e+01
 1.605959495893850e+00	 2.704422221243490e-01	 1.440962374111693e+01
 1.599759137771804e+00	 3.049845882578279e-01	 1.440530596585021e+01
 1.592767067701985e+00	 3.396144372714517e-01	 1.439705393964784e+01
 1.657142857142857e+00	 0.000000000000000e+00	 1.413764447911866e+01
 1.656801851828359e+00	 3.361655481623391e-02	 1.410958478677232e+01
 1.655767729871069e+00	 6.749573095536966e-02	 1.410688060025252e+01
 1.654024186200465e+00	 1.016190948763161e-01	 1.412007185787004e+01
 1.651555435263836e+00	 1.359672505792279e-01	 1.414111761288208e+01
 1.648346271295557e+00	 1.705198489491072e-01	 1.416360504480577e+01
 1.644382129306822e+00	 2.052556011317451e-01	 1.418295312603122e+01
 1.639649146512643e+00	 2.401522960955250e-01	 1.419660075922016e+01
 1.634134223891987e+00	 2.751868225124955e-01	 1.420416654732925e+01
 1.627825087557274e+00	 3.103351950693686e-01	 1.420756464769693e+01
 1.620710349591493e+00	 3.455725852937577e-01	 1.421105850936567e+01
 1.685714285714286e+00	 0.000000000000000e+00	 1.394505332771412e+01
 1.685367400997813e+00	 3.419615058892759e-02	 1.391392261400207e+01
 1.684315449351604e+00	 6.865945045460013e-02	 1.390869410944371e+01
 1.682541844583231e+00	 1.033711482362526e-01	 1.391995401411957e+01
 1.680030528975281e+00	 1.383115135202491e-01	 1.393976096333245e+01
 1.676766034593756e+00	 1.734598463447815e-01	 1.396187881563780e+01
 1.672733545329353e+00	 2.087944908064304e-01	 1.398201098748900e+01
 1.667918959383551e+00	 2.442928529247582e-01	 1.399802582063041e+01
 1.662308951890125e+00	 2.799314229006420e-01	 1.401015943190726e+01
 1.655891037342745e+00	 3.156858018809096e-01	 1.402117936770210e+01
 1.648653631481001e+00	 3.515307333160639e-01	 1.403648929340703e+01
 1.714285714285714e+00	 0.000000000000000e+00	 1.376715679625925e+01
 1.713932950167268e+00	 3.477574636162128e-02	 1.373365282891379e+01
 1.712863168832140e+00	 6.982316995383067e-02	 1.372594463772865e+01
 1.711059502965999e+00	 1.051232015961890e-01	 1.373491501339145e+01
 1.708505622686726e+00	 1.406557764612702e-01	 1.375291861797407e+01
 1.705185797891956e+00	 1.763998437404557e-01	 1.377403692893555e+01
 1.701084961351884e+00	 2.123333804811157e-01	 1.379434293696620e+01
 1.696188772254458e+00	 2.484334097539913e-01	 1.381216482821335e+01
 1.690483679888263e+00	 2.846760232887885e-01	 1.382833442440052e+01
 1.683956987128215e+00	 3.210364086924504e-01	 1.384640256674278e+01
 1.676596913370510e+00	 3.574888813383701e-01	 1.387280005067209e+01
 1.742857142857143e+00	 0.000000000000000e+00	 1.360134781119411e+01
 1.742498499336722e+00	 3.535534213431497e-02	 1.356688808277721e+01
 1.741410888312676e+00	 7.098688945306118e-02	 1.355739747807915e+01
 1.739577161348765e+00	 1.068752549561255e-01	 1.356429423991800e+01
 1.736980716398172e+00	 1.430000394022914e-01	 1.358040933028033e+01
 1.733605561190154e+00	 1.793398411361300e-01	 1.360026195251927e+01
 1.729436377374416e+00	 2.158722701558009e-01	 1.362035447529870e+01
 1.724458585125366e+00	 2.525739665832246e-01	 1.363947581429316e+01
 1.718658407886400e+00	 2.894206236769349e-01	 1.365899840951058e+01
 1.712022936913685e+00	 3.263870155039912e-01	 1.368314984202064e+01
 1.704540195260019e+00	 3.634470293606764e-01	 1.371923601672010e+01
 1.771428571428571e+00	 0.000000000000000e+00	 1.344549425195016e+01
 1.771064048506176e+00	 3.593493790700865e-02	 1.341194612882577e+01
 1.769958607793211e+00	 7.215060895229171e-02	 1.340180019323438e+01
 1.768094819731531e+00	 1.086273083160620e-01	 1.340723809358245e+01
 1.765455810109617e+00	 1.453443023433126e-01	 1.342173130136607e+01
 1.762025324488354e+00	 1.822798385318043e-01	 1.344033566428528e+01
 1.757787793396948e+00	 2.194111598304862e-01	 1.346001658130811e+01
 1.752728397996274e+00	 2.567145234124577e-01	 1.347999377008027e+01
 1.746833135884538e+00	 2.941652240650815e-01	 1.350209017435771e+01
 1.740088886699156e+00	 3.317376223155321e-01	 1.353106490886936e+01
 1.732483477149527e+00	 3.694051773829825e-01	 1.357490542865523e+01
 1.800000000000000e+00	 0.000000000000000e+00	 1.329790125626850e+01
 1.799629597675631e+00	 3.651453367970233e-02	 1.326732564429849e+01
 1.798506327273747e+00	 7.331432845152221e-02	 1.325787155379732e+01
 1.796612478114298e+00	 1.103793616759985e-01	 1.326270157558591e+01
 1.793930903821063e+00	 1.476885652843338e-01	 1.327607586855816e+01
 1.790445087786553e+00	 1.852198359274785e-01	 1.329366421458737e+01
 1.786139209419479e+00	 2.229500495051714e-01	 1.331290162651742e+01
 1.780998210867182e+00	 2.608550802416910e-01	 1.333337649137411e+01
 1.775007863882676e+00	 2.989098244532279e-01	 1.335723525711854e+01
 1.768154836484626e+00	 3.370882291270729e-01	 1.338958241158466e+01
 1.760426759039036e+00	 3.753633254052887e-01	 1.343878902814593e+01
 1.828571428571428e+00	 0.000000000000000e+00	 1.315727705939434e+01
 1.828195146845085e+00	 3.709412945239601e-02	 1.313168437112608e+01
 1.827054046754283e+00	 7.447804795075272e-02	 1.312429172110374e+01
 1.825130136497065e+00	 1.121314150359350e-01	 1.312945019171254e+01
 1.822405997532508e+00	 1.500328282253549e-01	 1.314234073606856e+01
 1.818864851084752e+00	 1.881598333231528e-01	 1.315930221148410e+01
 1.814490625442010e+00	 2.264889391798567e-01	 1.317821775390828e+01
 1.809268023738089e+00	 2.649956370709240e-01	 1.319894859357569e+01
 1.803182591880814e+00	 3.036544248413745e-01	 1.322379883751066e+01
 1.796220786270096e+00	 3.424388359386137e-01	 1.325798881853986e+01
 1.788370040928544e+00	 3.813214734275948e-01	 1.331002620497108e+01
 1.857142857142857e+00	 0.000000000000000e+00	 1.302423515390334e+01
 1.856760696014540e+00	 3.767372522508971e-02	 1.300505882911397e+01
 1.855601766234818e+00	 7.564176744998323e-02	 1.300036190762065e+01
 1.853647794879831e+00	 1.138834683958714e-01	 1.300620123670239e+01
 1.850881091243953e+00	 1.523770911663761e-01	 1.301914279708075e+01
 1.847284614382951e+00	 1.910998307188271e-01	 1.303597584485129e+01
 1.842842041464542e+00	 2.300278288545420e-01	 1.305484188613095e+01
 1.837537836608997e+00	 2.691361939001574e-01	 1.307574389316157e+01
 1.831357319878951e+00	 3.083990252295209e-01	 1.310093688000103e+01
 1.824286736055566e+00	 3.477894427501546e-01	 1.313548160789486e+01
 1.816313322818052e+00	 3.872796214499009e-01	 1.318803076790344e+01
 1.536880503922968e+00	 3.276981412268393e-01	 1.480402132487167e+01
 1.529359935167874e+00	 3.611730109038593e-01	 1.478486926358818e+01
 1.521056582680450e+00	 3.946829453960644e-01	 1.478512940353848e+01
 1.511962503937698e+00	 4.282022206720664e-01	 1.478062297370706e+01
 1.502070815310960e+00	 4.617044735467811e-01	 1.476966846045467e+01
 1.491375741924359e+00	 4.951627525386058e-01	 1.475218809537756e+01
 1.479872664833537e+00	 5.285495728694984e-01	 1.472829145820005e+01
 1.467558165151136e+00	 5.618369754655442e-01	 1.469588150120572e+01
 1.454430064751624e+00	 5.949965897789891e-01	 1.465389689856102e+01
 1.440487463197997e+00	 6.279997002160422e-01	 1.460324800396443e+01
 1.425730770546950e+00	 6.608173159184336e-01	 1.454544752881556e+01
 1.564823785812477e+00	 3.336562892491455e-01	 1.459473962810115e+01
 1.557166479443653e+00	 3.677397929202930e-01	 1.458480297111056e+01
 1.548712156911004e+00	 4.018589989487202e-01	 1.458667216723668e+01
 1.539452731282019e+00	 4.359877155933767e-01	 1.458140231563092e+01
 1.529381193771159e+00	 4.700991003385406e-01	 1.456921139392442e+01
 1.518491664504802e+00	 5.041657116756713e-01	 1.455067094513032e+01
 1.506779440557783e+00	 5.381595651034893e-01	 1.452655749790299e+01
 1.494241040881157e+00	 5.720521932012818e-01	 1.449780862911910e+01
 1.480874247747109e+00	 6.058147095931526e-01	 1.446547510177420e+01
 1.466678144347052e+00	 6.394178765836069e-01	 1.442816037268150e+01
 1.451653148193258e+00	 6.728321762078597e-01	 1.438522143195840e+01
 1.592767067701985e+00	 3.396144372714517e-01	 1.439705393964784e+01
 1.584973023719432e+00	 3.743065749367268e-01	 1.439827875580939e+01
 1.576367731141557e+00	 4.090350525013758e-01	 1.440284514345503e+01
 1.566942958626341e+00	 4.437732105146869e-01	 1.439897376118241e+01
 1.556691572231358e+00	 4.784937271303003e-01	 1.438759168388558e+01
 1.545607587085245e+00	 5.131686708127368e-01	 1.436987164857626e+01
 1.533686216282028e+00	 5.477695573374801e-01	 1.434718029267269e+01
 1.520923916611177e+00	 5.822674109370187e-01	 1.432102648132771e+01
 1.507318430742593e+00	 6.166328294073160e-01	 1.429301139489324e+01
 1.492868825496107e+00	 6.508360529511712e-01	 1.426478179749349e+01
 1.477575525839566e+00	 6.848470364972857e-01	 1.423782191226071e+01
 1.620710349591493e+00	 3.455725852937577e-01	 1.421105850936567e+01
 1.612779567995212e+00	 3.808733569531607e-01	 1.422342377373246e+01
 1.604023305372111e+00	 4.162111060540314e-01	 1.423213144841640e+01
 1.594433185970662e+00	 4.515587054359971e-01	 1.423119863311366e+01
 1.584001950691558e+00	 4.868883539220600e-01	 1.422210844096963e+01
 1.572723509665688e+00	 5.221716299498023e-01	 1.420659266152706e+01
 1.560592992006275e+00	 5.573795495714710e-01	 1.418657159730291e+01
 1.547606792341198e+00	 5.924826286727558e-01	 1.416409495803676e+01
 1.533762613738077e+00	 6.274509492214793e-01	 1.414128575390937e+01
 1.519059506645161e+00	 6.622542293187357e-01	 1.412028883311249e+01
 1.503497903485874e+00	 6.968618967867121e-01	 1.410322531434557e+01
 1.648653631481001e+00	 3.515307333160639e-01	 1.403648929340703e+01
 1.640586112270991e+00	 3.874401389695944e-01	 1.405922122367782e+01
 1.631678879602664e+00	 4.233871596066873e-01	 1.407300639927596e+01
 1.621923413314985e+00	 4.593442003573074e-01	 1.407598764920151e+01
 1.611312329151757e+00	 4.952829807138196e-01	 1.407016280936980e+01
 1.599839432246132e+00	 5.311745890868680e-01	 1.405778628404801e+01
 1.587499767730520e+00	 5.669895418054618e-01	 1.404130057403714e+01
 1.574289668071219e+00	 6.026978464084932e-01	 1.402326997446725e+01
 1.560206796733561e+00	 6.382690690356430e-01	 1.400631867396082e+01
 1.545250187794215e+00	 6.736724056863000e-01	 1.399307513974594e+01
 1.529420281132182e+00	 7.088767570761381e-01	 1.398612421382141e+01
 1.676596913370510e+00	 3.574888813383701e-01	 1.387280005067209e+01
 1.668392656546771e+00	 3.940069209860283e-01	 1.390471346789466e+01
 1.659334453833218e+00	 4.305632131593430e-01	 1.392395751428473e+01
 1.649413640659307e+00	 4.671296952786178e-01	 1.393131837626131e+01
 1.638622707611956e+00	 5.036776075055793e-01	 1.392927342844490e+01
 1.626955354826573e+00	 5.401775482239334e-01	 1.392056870806310e+01
 1.614406543454767e+00	 5.765995340394527e-01	 1.390814214461122e+01
 1.600972543801239e+00	 6.129130641442302e-01	 1.389505023158939e+01
 1.586650979729045e+00	 6.490871888498064e-01	 1.388440068532508e+01
 1.571440868943270e+00	 6.850905820538642e-01	 1.387929323157547e+01
 1.555342658778490e+00	 7.208916173655640e-01	 1.388277012933644e+01
 1.704540195260019e+00	 3.634470293606764e-01	 1.371923601672010e+01
 1.696199200822550e+00	 4.005737030024620e-01	 1.375891769698443e+01
 1.686990028063772e+00	 4.377392667119988e-01	 1.378350287135443e+01
 1.676903868003628e+00	 4.749151901999281e-01	 1.379525137196666e+01
 1.665933086072156e+00	 5.120722342973392e-01	 1.379709086738970e+01
 1.654071277407016e+00	 5.491805073609989e-01	 1.379223327672910e+01
 1.641313319179013e+00	 5.862095262734437e-01	 1.378408962534477e+01
 1.627655419531260e+00	 6.231282818799674e-01	 1.377618979380393e+01
 1.613095162724529e+00	 6.599053086639696e-01	 1.377211004378237e+01
 1.597631550092324e+00	 6.965087584214290e-01	 1.377541073684251e+01
 1.581265036424799e+00	 7.329064776549902e-01	 1.378958605130562e+01
 1.732483477149527e+00	 3.694051773829825e-01	 1.357490542865523e+01
 1.724005745098330e+00	 4.071404850188959e-01	 1.362084520431264e+01
 1.714645602294324e+00	 4.449153202646544e-01	 1.365020801036500e+01
 1.704394095347950e+00	 4.827006851212383e-01	 1.366594516262631e+01
 1.693243464532354e+00	 5.204668610890986e-01	 1.367141114891561e+01
 1.681187199987459e+00	 5.581834664980645e-01	 1.367026304457224e+01
 1.668220094903259e+00	 5.958195185074345e-01	 1.366636683143703e+01
 1.654338295261281e+00	 6.333434996157044e-01	 1.366371025909390e+01
 1.639539345720013e+00	 6.707234284781332e-01	 1.366632549899689e+01
 1.623822231241379e+00	 7.079269347889933e-01	 1.367822430406929e+01
 1.607187414071106e+00	 7.449213379444162e-01	 1.370296688033718e+01
 1.760426759039036e+00	 3.753633254052887e-01	 1.343878902814593e+01
 1.751812289374109e+00	 4.137072670353297e-01	 1.348951907342325e+01
 1.742301176524879e+00	 4.520913738173100e-01	 1.352270154102149e+01
 1.731884322692272e+00	 4.904861800425487e-01	 1.354167018625585e+01
 1.720553842992553e+00	 5.288614878808582e-01	 1.355018846316336e+01
 1.708303122567902e+00	 5.671864256351301e-01	 1.355234271608066e+01
 1.695126870627505e+00	 6.054295107414254e-01	 1.355243970944419e+01
 1.681021170991301e+00	 6.435587173514418e-01	 1.355491256692777e+01
 1.665983528715497e+00	 6.815415482922963e-01	 1.356423876854632e+01
 1.650012912390433e+00	 7.193451111565575e-01	 1.358487323878635e+01
 1.633109791717415e+00	 7.569361982338421e-01	 1.361571303777518e+01
 1.788370040928544e+00	 3.813214734275948e-01	 1.331002620497108e+01
 1.779618833649889e+00	 4.202740490517635e-01	 1.336399045203293e+01
 1.769956750755433e+00	 4.592674273699657e-01	 1.339968959784045e+01
 1.759374550036593e+00	 4.982716749638589e-01	 1.342082181411555e+01
 1.747864221452753e+00	 5.372561146726178e-01	 1.343154716041537e+01
 1.735419045148346e+00	 5.761893847721956e-01	 1.343637003073407e+01
 1.722033646351751e+00	 6.150395029754163e-01	 1.344002754954296e+01
 1.707704046721322e+00	 6.537739350871788e-01	 1.344738848353463e+01
 1.692427711710981e+00	 6.923596681064600e-01	 1.346336674979433e+01
 1.676203593539488e+00	 7.307632875241220e-01	 1.349285290024143e+01
 1.659032169363723e+00	 7.689510585232683e-01	 1.352477757607732e+01
 1.816313322818052e+00	 3.872796214499009e-01	 1.318803076790344e+01
 1.807425377925668e+00	 4.268408310681974e-01	 1.324335356481984e+01
 1.797612324985986e+00	 4.664434809226216e-01	 1.327996926642175e+01
 1.786864777380915e+00	 5.060571698851692e-01	 1.330193254995619e+01
 1.775174599912952e+00	 5.456507414643775e-01	 1.331379310027589e+01
 1.762534967728788e+00	 5.851923439092611e-01	 1.332046665408497e+01
 1.748940422075997e+00	 6.246494952094070e-01	 1.332711382283484e+01
 1.734386922451343e+00	 6.639891528229162e-01	 1.333903179929655e+01
 1.718871894706465e+00	 7.031777879206232e-01	 1.336156349783832e+01
 1.702394274688542e+00	 7.421814638916864e-01	 1.339998984350259e+01
 1.684954547010031e+00	 7.809659188126942e-01	 1.342900133776119e+01
 1.425730770546950e+00	 6.608173159184336e-01	 1.454544752881556e+01
 1.410161735707014e+00	 6.934202436112044e-01	 1.448402168664602e+01
 1.393783470046178e+00	 7.257791631950288e-01	 1.442251245378210e+01
 1.376600465971306e+00	 7.578647057289489e-01	 1.435607351158479e+01
 1.358618610231331e+00	 7.896475334192641e-01	 1.425131303124239e+01
 1.339845191729296e+00	 8.210984212029195e-01	 1.410880868325620e+01
 1.320288903664719e+00	 8.521883394894910e-01	 1.393568279398881e+01
 1.299959839867087e+00	 8.828885376052733e-01	 1.374011613464527e+01
 1.278869485223118e+00	 9.131706274663014e-01	 1.353124985225548e+01
 1.257030700144342e+00	 9.430066669948137e-01	 1.331904530637243e+01
 1.234457699067078e+00	 9.723692427859164e-01	 1.311410166238672e+01
 1.451653148193258e+00	 6.728321762078597e-01	 1.438522143195840e+01
 1.435801039992596e+00	 7.060278844041354e-01	 1.434069277324998e+01
 1.419124987683381e+00	 7.389751479803930e-01	 1.429873406267208e+01
 1.401629565352602e+00	 7.716440640149291e-01	 1.423843667910376e+01
 1.383320766780991e+00	 8.040047612996143e-01	 1.413528514617433e+01
 1.364206013397102e+00	 8.360274834066089e-01	 1.399525312224753e+01
 1.344294156458623e+00	 8.676826729347542e-01	 1.382560381790105e+01
 1.323595473319216e+00	 8.989410564708240e-01	 1.363476307602361e+01
 1.302121657681720e+00	 9.297737297838703e-01	 1.343222373967365e+01
 1.279885803783330e+00	 9.601522427583558e-01	 1.322840284754805e+01
 1.256902384504661e+00	 9.900486835638421e-01	 1.303445122371219e+01
 1.477575525839566e+00	 6.848470364972857e-01	 1.423782191226071e+01
 1.461440344278178e+00	 7.186355251970662e-01	 1.421294632647250e+01
 1.444466505320584e+00	 7.521711327657570e-01	 1.419030146879723e+01
 1.426658664733898e+00	 7.854234223009103e-01	 1.413295558303564e+01
 1.408022923330652e+00	 8.183619891799647e-01	 1.403360091789860e+01
 1.388566835064907e+00	 8.509565456102983e-01	 1.389824029483836e+01
 1.368299409252527e+00	 8.831770063800179e-01	 1.373419595573592e+01
 1.347231106771345e+00	 9.149935753363744e-01	 1.355006826366554e+01
 1.325373830140322e+00	 9.463768321014395e-01	 1.335564415909177e+01
 1.302740907422318e+00	 9.772978185218979e-01	 1.316175287072763e+01
 1.279347069942245e+00	 1.007728124341768e+00	 1.298006811451885e+01
 1.503497903485874e+00	 6.968618967867121e-01	 1.410322531434557e+01
 1.487079648563760e+00	 7.312431659899972e-01	 1.409555263012532e+01
 1.469808022957787e+00	 7.653671175511212e-01	 1.408628597058161e+01
 1.451687764115195e+00	 7.992027805868910e-01	 1.403406842990119e+01
 1.432725079880313e+00	 8.327192170603152e-01	 1.394082345303602e+01
 1.412927656732713e+00	 8.658856078139878e-01	 1.381240767714231e+01
 1.392304662046431e+00	 8.986713398252812e-01	 1.365611415092076e+01
 1.370866740223474e+00	 9.310460942019244e-01	 1.348064247518982e+01
 1.348626002598925e+00	 9.629799344190086e-01	 1.329601316231375e+01
 1.325596011061305e+00	 9.944433942854398e-01	 1.311342314136500e+01
 1.301791755379827e+00	 1.025407565119694e+00	 1.294504125606005e+01
 1.529420281132182e+00	 7.088767570761381e-01	 1.398612421382141e+01
 1.512718952849343e+00	 7.438508067829283e-01	 1.399194264148387e+01
 1.495149540594991e+00	 7.785631023364852e-01	 1.398287980892674e+01
 1.476716863496492e+00	 8.129821388728722e-01	 1.393647810999872e+01
 1.457427236429973e+00	 8.470764449406653e-01	 1.385182034720474e+01
 1.437288478400518e+00	 8.808146700176774e-01	 1.373273454994469e+01
 1.416309914840335e+00	 9.141656732705449e-01	 1.358638920223684e+01
 1.394502373675603e+00	 9.470986130674751e-01	 1.342150243773013e+01
 1.371878175057527e+00	 9.795830367365778e-01	 1.324826429192917e+01
 1.348451114700294e+00	 1.011588970048982e+00	 1.307819341220406e+01
 1.324236440817411e+00	 1.043087005897619e+00	 1.292392662843154e+01
 1.555342658778490e+00	 7.208916173655640e-01	 1.388277012933644e+01
 1.538358257134925e+00	 7.564584475758594e-01	 1.389694587881635e+01
 1.520491058232195e+00	 7.917590871218495e-01	 1.388475311212720e+01
 1.501745962877788e+00	 8.267614971588529e-01	 1.383885260079212e+01
 1.482129392979634e+00	 8.614336728210155e-01	 1.376181562319889e+01
 1.461649300068323e+00	 8.957437322213666e-01	 1.365459227593445e+01
 1.440315167634239e+00	 9.296600067158083e-01	 1.352047927535659e+01
 1.418138007127731e+00	 9.631511319330257e-01	 1.336812321130382e+01
 1.395130347516129e+00	 9.961861390541469e-01	 1.320781547015029e+01
 1.371306218339282e+00	 1.028734545812524e+00	 1.305134845112406e+01
 1.346681126254994e+00	 1.060766446675545e+00	 1.291180007480668e+01
 1.581265036424799e+00	 7.329064776549902e-01	 1.378958605130562e+01
 1.563997561420507e+00	 7.690660883687902e-01	 1.380529326661489e+01
 1.545832575869398e+00	 8.049550719072137e-01	 1.379032363971907e+01
 1.526775062259084e+00	 8.405408554448336e-01	 1.374500649805034e+01
 1.506831549529294e+00	 8.757909007013659e-01	 1.367176151402963e+01
 1.486010121736129e+00	 9.106727944250558e-01	 1.357394066764453e+01
 1.464320420428142e+00	 9.451543401610714e-01	 1.345432102328806e+01
 1.441773640579860e+00	 9.792036507985761e-01	 1.331649022671291e+01
 1.418382519974731e+00	 1.012789241371716e+00	 1.317062159921745e+01
 1.394161321978270e+00	 1.045880121576066e+00	 1.302873084779669e+01
 1.369125811692577e+00	 1.078445887453471e+00	 1.290430996067366e+01
 1.607187414071106e+00	 7.449213379444162e-01	 1.370296688033718e+01
 1.589636865706089e+00	 7.816737291617213e-01	 1.371451374376276e+01
 1.571174093506601e+00	 8.181510566925778e-01	 1.369737310934855e+01
 1.551804161640381e+00	 8.543202137308148e-01	 1.365312338030843e+01
 1.531533706078954e+00	 8.901481285817159e-01	 1.358398927010644e+01
 1.510370943403934e+00	 9.256018566287454e-01	 1.349308389156787e+01
 1.488325673222047e+00	 9.606486736063353e-01	 1.338468747762090e+01
 1.465409274031990e+00	 9.952561696641262e-01	 1.326315101698187e+01
 1.441634692433333e+00	 1.029392343689285e+00	 1.313322690593686e+01
 1.417016425617258e+00	 1.063025697339608e+00	 1.300679362412699e+01
 1.391570497130161e+00	 1.096125328231397e+00	 1.289772970444531e+01
 1.633109791717415e+00	 7.569361982338421e-01	 1.361571303777518e+01
 1.615276169991670e+00	 7.942813699546521e-01	 1.362269908665641e+01
 1.596515611143803e+00	 8.313470414779418e-01	 1.360424114881227e+01
 1.576833261021677e+00	 8.680995720167956e-01	 1.356175259254357e+01
 1.556235862628615e+00	 9.045053564620661e-01	 1.349722288963671e+01
 1.534731765071739e+00	 9.405309188324349e-01	 1.341347448053302e+01
 1.512330926015951e+00	 9.761430070515984e-01	 1.331446172392082e+01
 1.489044907484118e+00	 1.011308688529677e+00	 1.320560852154215e+01
 1.464886864891935e+00	 1.045995446006854e+00	 1.309281705878158e+01
 1.439871529256246e+00	 1.080171273103150e+00	 1.298265267028048e+01
 1.414015182567744e+00	 1.113804769009322e+00	 1.288892526246848e+01
 1.659032169363723e+00	 7.689510585232683e-01	 1.352477757607732e+01
 1.640915474277253e+00	 8.068890107475833e-01	 1.352846831399442e+01
 1.621857128781007e+00	 8.445430262633060e-01	 1.350978776482990e+01
 1.601862360402974e+00	 8.818789303027764e-01	 1.346995975452742e+01
 1.580938019178276e+00	 9.188625843424164e-01	 1.341070171516153e+01
 1.559092586739545e+00	 9.554599810361244e-01	 1.333449609875216e+01
 1.536336178809854e+00	 9.916373404968621e-01	 1.324490986917477e+01
 1.512680540936247e+00	 1.027361207395227e+00	 1.314695878668030e+01
 1.488139037350537e+00	 1.062598548324423e+00	 1.304751086612215e+01
 1.462726632895234e+00	 1.097316848866692e+00	 1.295413902537263e+01
 1.436459868005327e+00	 1.131484209787248e+00	 1.287167957828940e+01
 1.684954547010031e+00	 7.809659188126942e-01	 1.342900133776119e+01
 1.666554778562834e+00	 8.194966515405141e-01	 1.343093183424272e+01
 1.647198646418210e+00	 8.577390110486701e-01	 1.341335553750456e+01
 1.626891459784270e+00	 8.956582885887574e-01	 1.337728707981704e+01
 1.605640175727936e+00	 9.332198122227667e-01	 1.332413898365315e+01
 1.583453408407350e+00	 9.703890432398139e-01	 1.325600724422402e+01
 1.560341431603758e+00	 1.007131673942125e+00	 1.317601155979079e+01
 1.536316174388375e+00	 1.043413726260777e+00	 1.308868709869758e+01
 1.511391209809140e+00	 1.079201650641992e+00	 1.300042211336223e+01
 1.485581736534222e+00	 1.114462424630234e+00	 1.291985720326537e+01
 1.458904553442910e+00	 1.149163650565174e+00	 1.284443580151623e+01
 1.234457699067078e+00	 9.723692427859164e-01	 1.311410166238672e+01
 1.211166023023431e+00	 1.001231551528240e+00	 1.289999726439720e+01
 1.187172506368977e+00	 1.029567479684378e+00	 1.266168565762886e+01
 1.162495237799780e+00	 1.057351680943892e+00	 1.241213339067764e+01
 1.137153515837634e+00	 1.084559650973679e+00	 1.216398731235817e+01
 1.111167799007432e+00	 1.111167799007432e+00	 1.192923150197383e+01
 1.084559650973680e+00	 1.137153515837634e+00	 1.168466797989327e+01
 1.057351680943892e+00	 1.162495237799779e+00	 1.140321879980989e+01
 1.029567479684378e+00	 1.187172506368977e+00	 1.109003664378172e+01
 1.001231551528240e+00	 1.211166023023430e+00	 1.075028906577592e+01
 9.723692427859166e-01	 1.234457699067078e+00	 1.038914920815372e+01
 1.256902384504661e+00	 9.900486835638421e-01	 1.303445122371219e+01
 1.233187223442039e+00	 1.019435761556026e+00	 1.283456829975654e+01
 1.208757461030231e+00	 1.048286888405912e+00	 1.261426480388707e+01
 1.183631514850685e+00	 1.076576256961054e+00	 1.238704007193322e+01
 1.157829034307409e+00	 1.104278917355019e+00	 1.216606835310345e+01
 1.131370849898476e+00	 1.131370849898476e+00	 1.194745903519815e+01
 1.104278917355019e+00	 1.157829034307409e+00	 1.169834378435236e+01
 1.076576256961054e+00	 1.183631514850685e+00	 1.141552711609287e+01
 1.048286888405913e+00	 1.208757461030231e+00	 1.110183792698166e+01
 1.019435761556026e+00	 1.233187223442038e+00	 1.076233075842565e+01
 9.900486835638427e-01	 1.256902384504661e+00	 1.040204739156747e+01
 1.279347069942245e+00	 1.007728124341768e+00	 1.298006811451885e+01
 1.255208423860647e+00	 1.037639971583812e+00	 1.279535907420753e+01
 1.230342415691486e+00	 1.067006297127446e+00	 1.259373682445741e+01
 1.204767791901590e+00	 1.095800832978215e+00	 1.238937369846473e+01
 1.178504552777184e+00	 1.123998183736359e+00	 1.219034561521914e+01
 1.151573900789521e+00	 1.151573900789521e+00	 1.196544932070665e+01
 1.123998183736359e+00	 1.178504552777184e+00	 1.171019186559146e+01
 1.095800832978216e+00	 1.204767791901590e+00	 1.142650189971723e+01
 1.067006297127447e+00	 1.230342415691485e+00	 1.111361448668098e+01
 1.037639971583813e+00	 1.255208423860646e+00	 1.077590225812048e+01
 1.007728124341768e+00	 1.279347069942244e+00	 1.041841391392449e+01
 1.301791755379827e+00	 1.025407565119694e+00	 1.294504125606005e+01
 1.277229624279255e+00	 1.055844181611598e+00	 1.277619345652916e+01
 1.251927370352739e+00	 1.085725705848980e+00	 1.259367066744231e+01
 1.225904068952495e+00	 1.115025408995377e+00	 1.241200325342128e+01
 1.199180071246960e+00	 1.143717450117699e+00	 1.221261941698781e+01
 1.171776951680565e+00	 1.171776951680565e+00	 1.198144832767884e+01
 1.143717450117699e+00	 1.199180071246959e+00	 1.172152296369156e+01
 1.115025408995377e+00	 1.225904068952495e+00	 1.143562276736622e+01
 1.085725705848981e+00	 1.251927370352739e+00	 1.112474372472596e+01
 1.055844181611599e+00	 1.277229624279255e+00	 1.079034958626745e+01
 1.025407565119694e+00	 1.301791755379827e+00	 1.043758150995807e+01
 1.324236440817411e+00	 1.043087005897619e+00	 1.292392662843154e+01
 1.299250824697862e+00	 1.074048391639385e+00	 1.277136936304705e+01
 1.273512325013994e+00	 1.104445114570515e+00	 1.260810596786443e+01
 1.247040346003400e+00	 1.134249985012539e+00	 1.243535403350075e+01
 1.219855589716735e+00	 1.163436716499038e+00	 1.222987834599078e+01
 1.191980002571609e+00	 1.191980002571609e+00	 1.199406934823844e+01
 1.163436716499038e+00	 1.219855589716734e+00	 1.173109055759255e+01
 1.134249985012539e+00	 1.247040346003400e+00	 1.144383692016378e+01
 1.104445114570515e+00	 1.273512325013993e+00	 1.113491263423296e+01
 1.074048391639385e+00	 1.299250824697862e+00	 1.080531657518297e+01
 1.043087005897619e+00	 1.324236440817411e+00	 1.045917022157909e+01
 1.346681126254994e+00	 1.060766446675545e+00	 1.291180007480668e+01
 1.321272025116470e+00	 1.092252601667171e+00	 1.277571118303126e+01
 1.295097279675248e+00	 1.123164523292049e+00	 1.262832980317949e+01
 1.268176623054306e+00	 1.153474561029701e+00	 1.245114173047059e+01
 1.240531108186510e+00	 1.183155982880377e+00	 1.224120835426175e+01
 1.212183053462653e+00	 1.212183053462653e+00	 1.200228082469013e+01
 1.183155982880377e+00	 1.240531108186510e+00	 1.173776394166032e+01
 1.153474561029701e+00	 1.268176623054305e+00	 1.145078365706336e+01
 1.123164523292049e+00	 1.295097279675247e+00	 1.114425828799465e+01
 1.092252601667172e+00	 1.321272025116470e+00	 1.082069336825136e+01
 1.060766446675545e+00	 1.346681126254994e+00	 1.048303923255372e+01
 1.369125811692577e+00	 1.078445887453471e+00	 1.290430996067366e+01
 1.343293225535078e+00	 1.110456811694957e+00	 1.278462212329470e+01
 1.316682234336502e+00	 1.141883932013583e+00	 1.263998888718223e+01
 1.289312900105210e+00	 1.172699137046862e+00	 1.245895146471005e+01
 1.261206626656284e+00	 1.202875249261717e+00	 1.224604798052605e+01
 1.232386104353697e+00	 1.232386104353697e+00	 1.200539406676314e+01
 1.202875249261717e+00	 1.261206626656284e+00	 1.174074330526232e+01
 1.172699137046863e+00	 1.289312900105210e+00	 1.145556470549918e+01
 1.141883932013583e+00	 1.316682234336502e+00	 1.115312419239210e+01
 1.110456811694958e+00	 1.343293225535078e+00	 1.083656443598833e+01
 1.078445887453471e+00	 1.369125811692577e+00	 1.050923809110635e+01
 1.391570497130161e+00	 1.096125328231397e+00	 1.289772970444531e+01
 1.365314425953686e+00	 1.128661021722743e+00	 1.278926180727422e+01
 1.338267188997756e+00	 1.160603340735117e+00	 1.264208710157681e+01
 1.310449177156116e+00	 1.191923713064024e+00	 1.245871372167247e+01
 1.281882145126060e+00	 1.222594515643056e+00	 1.224417469041409e+01
 1.252589155244741e+00	 1.252589155244741e+00	 1.200305087128093e+01
 1.222594515643057e+00	 1.281882145126060e+00	 1.173954887833739e+01
 1.191923713064024e+00	 1.310449177156115e+00	 1.145758936832336e+01
 1.160603340735117e+00	 1.338267188997756e+00	 1.116089965701069e+01
 1.128661021722744e+00	 1.365314425953686e+00	 1.085310441822877e+01
 1.096125328231397e+00	 1.391570497130161e+00	 1.053795738955266e+01
 1.414015182567744e+00	 1.113804769009322e+00	 1.288892526246848e+01
 1.387335626372294e+00	 1.146865231750529e+00	 1.278319406319664e+01
 1.359852143659010e+00	 1.179322749456651e+00	 1.263506259532333e+01
 1.331585454207020e+00	 1.211148289081186e+00	 1.245068965865126e+01
 1.302557663595835e+00	 1.242313782024396e+00	 1.223569116604167e+01
 1.272792206135785e+00	 1.272792206135785e+00	 1.199521105509760e+01
 1.242313782024396e+00	 1.302557663595835e+00	 1.173400993703874e+01
 1.211148289081186e+00	 1.331585454207020e+00	 1.145656519876317e+01
 1.179322749456652e+00	 1.359852143659010e+00	 1.116717576620168e+01
 1.146865231750530e+00	 1.387335626372293e+00	 1.087006452912572e+01
 1.113804769009322e+00	 1.414015182567743e+00	 1.056947153041928e+01
 1.436459868005327e+00	 1.131484209787248e+00	 1.287167957828940e+01
 1.409356826790902e+00	 1.165069441778316e+00	 1.276736788995127e+01
 1.381437098320264e+00	 1.198042158178185e+00	 1.261967250437141e+01
 1.352721731257925e+00	 1.230372865098347e+00	 1.243545638166211e+01
 1.323233182065610e+00	 1.262033048405736e+00	 1.222101155049505e+01
 1.292995257026830e+00	 1.292995257026829e+00	 1.198213991078823e+01
 1.262033048405736e+00	 1.323233182065610e+00	 1.172425368475364e+01
 1.230372865098347e+00	 1.352721731257925e+00	 1.145248848993766e+01
 1.198042158178185e+00	 1.381437098320264e+00	 1.117182144076623e+01
 1.165069441778316e+00	 1.409356826790901e+00	 1.088718645037554e+01
 1.131484209787248e+00	 1.436459868005327e+00	 1.060357901437677e+01
 1.458904553442910e+00	 1.149163650565174e+00	 1.284443580151623e+01
 1.431378027209510e+00	 1.183273651806102e+00	 1.274304465523295e+01
 1.403022052981518e+00	 1.216761566899719e+00	 1.259697750255555e+01
 1.373858008308831e+00	 1.249597441115509e+00	 1.241389219566026e+01
 1.343908700535385e+00	 1.281752314787075e+00	 1.220084765207702e+01
 1.313198307917874e+00	 1.313198307917874e+00	 1.196439559341166e+01
 1.281752314787076e+00	 1.343908700535385e+00	 1.171069402192176e+01
 1.249597441115509e+00	 1.373858008308830e+00	 1.144563459890433e+01
 1.216761566899720e+00	 1.403022052981518e+00	 1.117497545694691e+01
 1.183273651806102e+00	 1.431378027209509e+00	 1.090447071376150e+01
 1.149163650565174e+00	 1.458904553442910e+00	 1.063998807222853e+01
 9.723692427859166e-01	 1.234457699067078e+00	 1.038914920815372e+01
 9.430066669948137e-01	 1.257030700144342e+00	 1.001025128384058e+01
 9.131706274663020e-01	 1.278869485223118e+00	 9.616681051993446e+00
 8.828885376052737e-01	 1.299959839867087e+00	 9.212783137762450e+00
 8.521883394894914e-01	 1.320288903664719e+00	 8.802883784025358e+00
 8.210984212029200e-01	 1.339845191729296e+00	 8.391273777502519e+00
 7.896475334192650e-01	 1.358618610231331e+00	 7.982183245058925e+00
 7.578647057289493e-01	 1.376600465971305e+00	 7.579746691285269e+00
 7.257791631950294e-01	 1.393783470046177e+00	 7.187002162733650e+00
 6.934202436112054e-01	 1.410161735707013e+00	 6.802259072796737e+00
 6.608173159184336e-01	 1.425730770546949e+00	 6.430157947602927e+00
 9.900486835638427e-01	 1.256902384504661e+00	 1.040204739156747e+01
 9.601522427583559e-01	 1.279885803783329e+00	 1.002455146153167e+01
 9.297737297838710e-01	 1.302121657681720e+00	 9.633027175745340e+00
 8.989410564708243e-01	 1.323595473319216e+00	 9.231954419401596e+00
 8.676826729347545e-01	 1.344294156458622e+00	 8.825828503370884e+00
 8.360274834066095e-01	 1.364206013397101e+00	 8.419147647892178e+00
 8.040047612996151e-01	 1.383320766780991e+00	 8.016390766371513e+00
 7.716440640149302e-01	 1.401629565352601e+00	 7.621983529858604e+00
 7.389751479803940e-01	 1.419124987683381e+00	 7.240237412018079e+00
 7.060278844041362e-01	 1.435801039992595e+00	 6.870560975618505e+00
 6.728321762078597e-01	 1.451653148193258e+00	 6.514486523290517e+00
 1.007728124341768e+00	 1.279347069942244e+00	 1.041841391392449e+01
 9.772978185218983e-01	 1.302740907422318e+00	 1.004485094768546e+01
 9.463768321014395e-01	 1.325373830140322e+00	 9.658627562671352e+00
 9.149935753363745e-01	 1.347231106771345e+00	 9.264380611927514e+00
 8.831770063800186e-01	 1.368299409252527e+00	 8.866795743950801e+00
 8.509565456102989e-01	 1.388566835064907e+00	 8.470600975327583e+00
 8.183619891799657e-01	 1.408022923330652e+00	 8.080548862419171e+00
 7.854234223009110e-01	 1.426658664733898e+00	 7.701384800783628e+00
 7.521711327657579e-01	 1.444466505320584e+00	 7.337799720350427e+00
 7.186355251970674e-01	 1.461440344278178e+00	 6.992347288424394e+00
 6.848470364972855e-01	 1.477575525839566e+00	 6.663343016188523e+00
 1.025407565119694e+00	 1.301791755379827e+00	 1.043758150995807e+01
 9.944433942854402e-01	 1.325596011061305e+00	 1.007046095580514e+01
 9.629799344190090e-01	 1.348626002598924e+00	 9.692740964964054e+00
 9.310460942019250e-01	 1.370866740223473e+00	 9.309236158412602e+00
 8.986713398252818e-01	 1.392304662046431e+00	 8.924843033087958e+00
 8.658856078139885e-01	 1.412927656732712e+00	 8.544541345049533e+00
 8.327192170603158e-01	 1.432725079880312e+00	 8.173382249943732e+00
 7.992027805868920e-01	 1.451687764115194e+00	 7.816460210434421e+00
 7.653671175511221e-01	 1.469808022957787e+00	 7.478866517789200e+00
 7.312431659899983e-01	 1.487079648563759e+00	 7.163428940134839e+00
 6.968618967867117e-01	 1.503497903485874e+00	 6.843424632146737e+00
 1.043087005897619e+00	 1.324236440817411e+00	 1.045917022157909e+01
 1.011588970048982e+00	 1.348451114700293e+00	 1.010097197512416e+01
 9.795830367365781e-01	 1.371878175057526e+00	 9.734900733552534e+00
 9.470986130674756e-01	 1.394502373675602e+00	 9.365968142426164e+00
 9.141656732705451e-01	 1.416309914840334e+00	 8.999300641744385e+00
 8.808146700176780e-01	 1.437288478400518e+00	 8.640150586854539e+00
 8.470764449406663e-01	 1.457427236429973e+00	 8.293892134244633e+00
 8.129821388728729e-01	 1.476716863496491e+00	 7.965998309583519e+00
 7.785631023364863e-01	 1.495149540594990e+00	 7.652234475646911e+00
 7.438508067829296e-01	 1.512718952849342e+00	 7.332118168131489e+00
 7.088767570761378e-01	 1.529420281132182e+00	 7.002457084032214e+00
 1.060766446675545e+00	 1.346681126254994e+00	 1.048303923255372e+01
 1.028734545812525e+00	 1.371306218339282e+00	 1.013620912514481e+01
 9.961861390541471e-01	 1.395130347516128e+00	 9.784873731948728e+00
 9.631511319330259e-01	 1.418138007127731e+00	 9.434258777072937e+00
 9.296600067158088e-01	 1.440315167634239e+00	 9.089737640457434e+00
 8.957437322213674e-01	 1.461649300068322e+00	 8.756854365288159e+00
 8.614336728210165e-01	 1.482129392979633e+00	 8.441311109699647e+00
 8.267614971588539e-01	 1.501745962877788e+00	 8.129754114989476e+00
 7.917590871218506e-01	 1.520491058232193e+00	 7.808420140904137e+00
 7.564584475758603e-01	 1.538358257134924e+00	 7.479283486082949e+00
 7.208916173655641e-01	 1.555342658778490e+00	 7.142851062636300e+00
 1.078445887453471e+00	 1.369125811692577e+00	 1.050923809110636e+01
 1.045880121576066e+00	 1.394161321978270e+00	 1.017618677292299e+01
 1.012789241371716e+00	 1.418382519974730e+00	 9.842618402114393e+00
 9.792036507985763e-01	 1.441773640579860e+00	 9.513986949248228e+00
 9.451543401610721e-01	 1.464320420428142e+00	 9.195926927026852e+00
 9.106727944250566e-01	 1.486010121736127e+00	 8.893495202204049e+00
 8.757909007013664e-01	 1.506831549529294e+00	 8.588079316044858e+00
 8.405408554448347e-01	 1.526775062259084e+00	 8.270915989686726e+00
 8.049550719072146e-01	 1.545832575869397e+00	 7.943886334153855e+00
 7.690660883687915e-01	 1.563997561420506e+00	 7.608993489944995e+00
 7.329064776549901e-01	 1.581265036424798e+00	 7.268113111406834e+00
 1.096125328231397e+00	 1.391570497130161e+00	 1.053795738955266e+01
 1.063025697339608e+00	 1.417016425617258e+00	 1.022106249633679e+01
 1.029392343689286e+00	 1.441634692433333e+00	 9.908242078088119e+00
 9.952561696641264e-01	 1.465409274031989e+00	 9.605188925777924e+00
 9.606486736063357e-01	 1.488325673222047e+00	 9.316185438114822e+00
 9.256018566287461e-01	 1.510370943403933e+00	 9.020783005210449e+00
 8.901481285817168e-01	 1.531533706078954e+00	 8.712198619505964e+00
 8.543202137308156e-01	 1.551804161640380e+00	 8.392072108820244e+00
 8.181510566925789e-01	 1.571174093506600e+00	 8.062252963279102e+00
 7.816737291617226e-01	 1.589636865706088e+00	 7.724784880863242e+00
 7.449213379444161e-01	 1.607187414071106e+00	 7.381866713148463e+00
 1.113804769009322e+00	 1.414015182567743e+00	 1.056947153041928e+01
 1.080171273103151e+00	 1.439871529256246e+00	 1.027109046600726e+01
 1.045995446006855e+00	 1.464886864891935e+00	 9.981957630954392e+00
 1.011308688529677e+00	 1.489044907484117e+00	 9.706253265519663e+00
 9.761430070515994e-01	 1.512330926015950e+00	 9.423414558037333e+00
 9.405309188324357e-01	 1.534731765071738e+00	 9.126675014377540e+00
 9.045053564620671e-01	 1.556235862628615e+00	 8.817289429083631e+00
 8.680995720167967e-01	 1.576833261021676e+00	 8.496794285506276e+00
 8.313470414779431e-01	 1.596515611143803e+00	 8.167017635284761e+00
 7.942813699546534e-01	 1.615276169991670e+00	 7.830059981840218e+00
 7.569361982338421e-01	 1.633109791717415e+00	 7.488248664607438e+00
 1.131484209787248e+00	 1.436459868005327e+00	 1.060357901437677e+01
 1.097316848866692e+00	 1.462726632895234e+00	 1.032657430945650e+01
 1.062598548324424e+00	 1.488139037350537e+00	 1.006283022999582e+01
 1.027361207395227e+00	 1.512680540936246e+00	 9.793616752453296e+00
 9.916373404968624e-01	 1.536336178809854e+00	 9.510675257106799e+00
 9.554599810361250e-01	 1.559092586739544e+00	 9.214745556739640e+00
 9.188625843424173e-01	 1.580938019178275e+00	 8.906895916566988e+00
 8.818789303027773e-01	 1.601862360402973e+00	 8.588566358736969e+00
 8.445430262633072e-01	 1.621857128781006e+00	 8.261577731499157e+00
 8.068890107475843e-01	 1.640915474277252e+00	 7.928108301276287e+00
 7.689510585232683e-01	 1.659032169363723e+00	 7.590640708901667e+00
 1.149163650565174e+00	 1.458904553442910e+00	 1.063998807222853e+01
 1.114462424630235e+00	 1.485581736534222e+00	 1.038739692365111e+01
 1.079201650641993e+00	 1.511391209809139e+00	 1.013124140591591e+01
 1.043413726260778e+00	 1.536316174388375e+00	 9.862563971450108e+00
 1.007131673942126e+00	 1.560341431603757e+00	 9.581505719458487e+00
 9.703890432398140e-01	 1.583453408407349e+00	 9.288525889276729e+00
 9.332198122227675e-01	 1.605640175727936e+00	 8.984507987142386e+00
 8.956582885887580e-01	 1.626891459784269e+00	 8.670805895295260e+00
 8.577390110486709e-01	 1.647198646418210e+00	 8.349251704585479e+00
 8.194966515405154e-01	 1.666554778562834e+00	 8.022127301453237e+00
 7.809659188126941e-01	 1.684954547010030e+00	 7.692102930018811e+00
 6.608173159184336e-01	 1.425730770546949e+00	 6.430157947602925e+00
 6.279997002160423e-01	 1.440487463197997e+00	 6.073050137178964e+00
 5.949965897789892e-01	 1.454430064751625e+00	 5.734472807685536e+00
 5.618369754655446e-01	 1.467558165151136e+00	 5.419307927806551e+00
 5.285495728694987e-01	 1.479872664833535e+00	 5.130096058472446e+00
 4.951627525386061e-01	 1.491375741924359e+00	 4.858724526352207e+00
 4.617044735467816e-01	 1.502070815310959e+00	 4.591644773073370e+00
 4.282022206720671e-01	 1.511962503937697e+00	 4.329578052418888e+00
 3.946829453960654e-01	 1.521056582680450e+00	 4.073250246240827e+00
 3.611730109038603e-01	 1.529359935167873e+00	 3.823170832142977e+00
 3.276981412268395e-01	 1.536880503922968e+00	 3.583380616870741e+00
 6.728321762078597e-01	 1.451653148193258e+00	 6.514486523290521e+00
 6.394178765836072e-01	 1.466678144347052e+00	 6.175751531909400e+00
 6.058147095931523e-01	 1.480874247747109e+00	 5.859471958622471e+00
 5.720521932012819e-01	 1.494241040881157e+00	 5.557726288013580e+00
 5.381595651034897e-01	 1.506779440557782e+00	 5.258590787264628e+00
 5.041657116756718e-01	 1.518491664504802e+00	 4.964775976057076e+00
 4.700991003385412e-01	 1.529381193771159e+00	 4.678558478564911e+00
 4.359877155933775e-01	 1.539452731282019e+00	 4.401893232126866e+00
 4.018589989487210e-01	 1.548712156911004e+00	 4.136494746767613e+00
 3.677397929202940e-01	 1.557166479443652e+00	 3.883861521274100e+00
 3.336562892491456e-01	 1.564823785812477e+00	 3.647584422969114e+00
 6.848470364972855e-01	 1.477575525839566e+00	 6.663343016188523e+00
 6.508360529511711e-01	 1.492868825496106e+00	 6.346498252360228e+00
 6.166328294073161e-01	 1.507318430742593e+00	 6.026017709997353e+00
 5.822674109370189e-01	 1.520923916611177e+00	 5.705819441708343e+00
 5.477695573374805e-01	 1.533686216282029e+00	 5.389910763470704e+00
 5.131686708127374e-01	 1.545607587085245e+00	 5.081689215432513e+00
 4.784937271303010e-01	 1.556691572231358e+00	 4.784137373659219e+00
 4.437732105146878e-01	 1.566942958626341e+00	 4.499939295963044e+00
 4.090350525013767e-01	 1.576367731141557e+00	 4.231529364231705e+00
 3.743065749367278e-01	 1.584973023719432e+00	 3.981086615869209e+00
 3.396144372714517e-01	 1.592767067701985e+00	 3.751844286582470e+00
 6.968618967867117e-01	 1.503497903485874e+00	 6.843424632146737e+00
 6.622542293187357e-01	 1.519059506645160e+00	 6.513297835585569e+00
 6.274509492214796e-01	 1.533762613738076e+00	 6.179873509982960e+00
 5.924826286727560e-01	 1.547606792341198e+00	 5.848238872347704e+00
 5.573795495714713e-01	 1.560592992006274e+00	 5.522674501702740e+00
 5.221716299498027e-01	 1.572723509665688e+00	 5.206937308115270e+00
 4.868883539220606e-01	 1.584001950691557e+00	 4.904443504547177e+00
 4.515587054359978e-01	 1.594433185970662e+00	 4.618360828202442e+00
 4.162111060540325e-01	 1.604023305372111e+00	 4.351622720356831e+00
 3.808733569531618e-01	 1.612779567995212e+00	 4.106879789974944e+00
 3.455725852937579e-01	 1.620710349591493e+00	 3.887093558514375e+00
 7.088767570761378e-01	 1.529420281132182e+00	 7.002457084032217e+00
 6.736724056862999e-01	 1.545250187794215e+00	 6.663221488998233e+00
 6.382690690356431e-01	 1.560206796733561e+00	 6.322570529883293e+00
 6.026978464084933e-01	 1.574289668071219e+00	 5.985454085480987e+00
 5.669895418054623e-01	 1.587499767730521e+00	 5.656129326560650e+00
 5.311745890868685e-01	 1.599839432246131e+00	 5.338447860548897e+00
 4.952829807138202e-01	 1.611312329151757e+00	 5.036027125773693e+00
 4.593442003573084e-01	 1.621923413314985e+00	 4.752316999814674e+00
 4.233871596066883e-01	 1.631678879602664e+00	 4.490576473932283e+00
 3.874401389695958e-01	 1.640586112270991e+00	 4.253778179991288e+00
 3.515307333160641e-01	 1.648653631481001e+00	 4.044733729821377e+00
 7.208916173655641e-01	 1.555342658778490e+00	 7.142851062636304e+00
 6.850905820538643e-01	 1.571440868943270e+00	 6.798980148730069e+00
 6.490871888498063e-01	 1.586650979729045e+00	 6.455950412578116e+00
 6.129130641442302e-01	 1.600972543801239e+00	 6.118271072362369e+00
 5.765995340394532e-01	 1.614406543454766e+00	 5.789907938163362e+00
 5.401775482239338e-01	 1.626955354826573e+00	 5.474576569705117e+00
 5.036776075055800e-01	 1.638622707611955e+00	 5.175901980863949e+00
 4.671296952786185e-01	 1.649413640659306e+00	 4.897457742922128e+00
 4.305632131593439e-01	 1.659334453833217e+00	 4.642701695225663e+00
 3.940069209860294e-01	 1.668392656546771e+00	 4.414828758596217e+00
 3.574888813383703e-01	 1.676596913370510e+00	 4.216632966306632e+00
 7.329064776549901e-01	 1.581265036424798e+00	 7.268113111406834e+00
 6.965087584214289e-01	 1.597631550092324e+00	 6.923465620661144e+00
 6.599053086639696e-01	 1.613095162724528e+00	 6.582098584817770e+00
 6.231282818799675e-01	 1.627655419531260e+00	 6.247798420613306e+00
 5.862095262734440e-01	 1.641313319179012e+00	 5.923998601807886e+00
 5.491805073609998e-01	 1.654071277407016e+00	 5.614080439790749e+00
 5.120722342973398e-01	 1.665933086072155e+00	 5.321520606984068e+00
 4.749151901999289e-01	 1.676903868003628e+00	 5.049900327095894e+00
 4.377392667119996e-01	 1.686990028063771e+00	 4.802796029256909e+00
 4.005737030024632e-01	 1.696199200822550e+00	 4.583574938422537e+00
 3.634470293606765e-01	 1.704540195260019e+00	 4.395126180375749e+00
 7.449213379444161e-01	 1.607187414071106e+00	 7.381866713148454e+00
 7.079269347889934e-01	 1.623822231241379e+00	 7.039703871410985e+00
 6.707234284781333e-01	 1.639539345720013e+00	 6.703304138700085e+00
 6.333434996157047e-01	 1.654338295261281e+00	 6.375412610333917e+00
 5.958195185074350e-01	 1.668220094903259e+00	 6.058714761309171e+00
 5.581834664980649e-01	 1.681187199987459e+00	 5.756090705310766e+00
 5.204668610890993e-01	 1.693243464532354e+00	 5.470749660924080e+00
 4.827006851212393e-01	 1.704394095347950e+00	 5.206206292119814e+00
 4.449153202646554e-01	 1.714645602294325e+00	 4.966121558869461e+00
 4.071404850188969e-01	 1.724005745098329e+00	 4.754034816521769e+00
 3.694051773829827e-01	 1.732483477149527e+00	 4.573016466683459e+00
 7.569361982338421e-01	 1.633109791717415e+00	 7.488248664607434e+00
 7.193451111565575e-01	 1.650012912390433e+00	 7.150807333458645e+00
 6.815415482922965e-01	 1.665983528715497e+00	 6.822018827653355e+00
 6.435587173514420e-01	 1.681021170991301e+00	 6.502722586169870e+00
 6.054295107414258e-01	 1.695126870627505e+00	 6.194664140056183e+00
 5.671864256351306e-01	 1.708303122567902e+00	 5.900085493116913e+00
 5.288614878808588e-01	 1.720553842992553e+00	 5.621845264033024e+00
 4.904861800425496e-01	 1.731884322692271e+00	 5.363358697616196e+00
 4.520913738173111e-01	 1.742301176524878e+00	 5.128383289842711e+00
 4.137072670353308e-01	 1.751812289374109e+00	 4.920680342786997e+00
 3.753633254052888e-01	 1.760426759039036e+00	 4.743585791228091e+00
 7.689510585232683e-01	 1.659032169363723e+00	 7.590640708901667e+00
 7.307632875241218e-01	 1.676203593539488e+00	 7.259926332221250e+00
 6.923596681064600e-01	 1.692427711710981e+00	 6.940815273778745e+00
 6.537739350871791e-01	 1.707704046721323e+00	 6.631533684527662e+00
 6.150395029754169e-01	 1.722033646351751e+00	 6.332717385816062e+00
 5.761893847721964e-01	 1.735419045148345e+00	 6.045862251988707e+00
 5.372561146726186e-01	 1.747864221452752e+00	 5.773428364034005e+00
 4.982716749638598e-01	 1.759374550036593e+00	 5.518739654875009e+00
 4.592674273699667e-01	 1.769956750755432e+00	 5.285708190010709e+00
 4.202740490517646e-01	 1.779618833649889e+00	 5.078417311279518e+00
 3.813214734275950e-01	 1.788370040928544e+00	 4.900601239789679e+00
 7.809659188126941e-01	 1.684954547010030e+00	 7.692102930018811e+00
 7.421814638916864e-01	 1.702394274688542e+00	 7.370204291338778e+00
 7.031777879206234e-01	 1.718871894706465e+00	 7.062344471479324e+00
 6.639891528229163e-01	 1.734386922451342e+00	 6.763810985381832e+00
 6.246494952094075e-01	 1.748940422075997e+00	 6.473976308419478e+00
 5.851923439092616e-01	 1.762534967728787e+00	 6.193509974782030e+00
 5.456507414643783e-01	 1.775174599912952e+00	 5.924460111900940e+00
 5.060571698851701e-01	 1.786864777380915e+00	 5.670108110497426e+00
 4.664434809226226e-01	 1.797612324985986e+00	 5.434624722723591e+00
 4.268408310681985e-01	 1.807425377925668e+00	 5.222566085835623e+00
 3.872796214499010e-01	 1.816313322818052e+00	 5.038251912113365e+00
 3.276981412268395e-01	 1.536880503922968e+00	 3.583380616870741e+00
 2.942833746347461e-01	 1.543627238200864e+00	 3.363590393514102e+00
 2.609530213480562e-01	 1.549610039897574e+00	 3.163776032598319e+00
 2.277306256078256e-01	 1.554839707899920e+00	 2.985521992637552e+00
 1.946389321076897e-01	 1.559327881239228e+00	 2.830342511895763e+00
 1.616998567620849e-01	 1.563086981400959e+00	 2.699389832251353e+00
 1.289344617561649e-01	 1.566130154129499e+00	 2.593294118296748e+00
 9.636293479650727e-02	 1.568471211052165e+00	 2.512100265810770e+00
 6.400457245767889e-02	 1.570124571429461e+00	 2.455269028008938e+00
 3.187776749815371e-02	 1.571105204319995e+00	 2.421713050710550e+00
 0.000000000000000e+00	 1.571428571428572e+00	 2.409842255269065e+00
 3.336562892491456e-01	 1.564823785812477e+00	 3.647584422969107e+00
 2.996339814462869e-01	 1.571693187986334e+00	 3.435307360568856e+00
 2.656976217362027e-01	 1.577784767895712e+00	 3.245313869850841e+00
 2.318711824370587e-01	 1.583109520770827e+00	 3.079355710002023e+00
 1.981778217823749e-01	 1.587679297261759e+00	 2.938670876417934e+00
 1.646398541577592e-01	 1.591506744699158e+00	 2.823788535699501e+00
 1.312787246971861e-01	 1.594605247840944e+00	 2.734474322670490e+00
 9.811498815644380e-02	 1.596988869434932e+00	 2.669775844350843e+00
 6.516829195690943e-02	 1.598672290909997e+00	 2.628130970752697e+00
 3.245736327084742e-02	 1.599670753489450e+00	 2.607505255313020e+00
 0.000000000000000e+00	 1.600000000000000e+00	 2.605529344053908e+00
 3.396144372714517e-01	 1.592767067701985e+00	 3.751844286582470e+00
 3.049845882578278e-01	 1.599759137771804e+00	 3.547811188480150e+00
 2.704422221243491e-01	 1.605959495893849e+00	 3.365749830596200e+00
 2.360117392662920e-01	 1.611379333641735e+00	 3.208185488720530e+00
 2.017167114570602e-01	 1.616030713284290e+00	 3.076620948697986e+00
 1.675798515534334e-01	 1.619926507997357e+00	 2.971450432878881e+00
 1.336229876382073e-01	 1.623080341552390e+00	 2.892023214144543e+00
 9.986704151638026e-02	 1.625506527817698e+00	 2.836810871226324e+00
 6.633201145613993e-02	 1.627220010390532e+00	 2.803635429912223e+00
 3.303695904354112e-02	 1.628236302658904e+00	 2.789920061683865e+00
 0.000000000000000e+00	 1.628571428571428e+00	 2.792929265573969e+00
 3.455725852937579e-01	 1.620710349591493e+00	 3.887093558514372e+00
 3.103351950693686e-01	 1.627825087557274e+00	 3.691618868148143e+00
 2.751868225124955e-01	 1.634134223891987e+00	 3.515768773024699e+00
 2.401522960955252e-01	 1.639649146512643e+00	 3.363349045562045e+00
 2.052556011317455e-01	 1.644382129306822e+00	 3.236562631506773e+00
 1.705198489491077e-01	 1.648346271295557e+00	 3.136046905259269e+00
 1.359672505792285e-01	 1.651555435263836e+00	 3.061070575995437e+00
 1.016190948763168e-01	 1.654024186200465e+00	 3.009837722027207e+00
 6.749573095537047e-02	 1.655767729871068e+00	 2.979850337965859e+00
 3.361655481623483e-02	 1.656801851828359e+00	 2.968285939522005e+00
 0.000000000000000e+00	 1.657142857142857e+00	 2.972352838221332e+00
 3.515307333160641e-01	 1.648653631481001e+00	 4.044733729821377e+00
 3.156858018809094e-01	 1.655891037342745e+00	 3.857646170769988e+00
 2.799314229006420e-01	 1.662308951890125e+00	 3.686392599895144e+00
 2.442928529247583e-01	 1.667918959383551e+00	 3.536466045838725e+00
 2.087944908064307e-01	 1.672733545329354e+00	 3.411097957157263e+00
 1.734598463447820e-01	 1.676766034593756e+00	 3.311435273858486e+00
 1.383115135202497e-01	 1.680030528975281e+00	 3.236887728708843e+00
 1.033711482362532e-01	 1.682541844583231e+00	 3.185585749443999e+00
 6.865945045460101e-02	 1.684315449351604e+00	 3.154893921928831e+00
 3.419615058892853e-02	 1.685367400997813e+00	 3.141930943003244e+00
 0.000000000000000e+00	 1.685714285714286e+00	 3.144053953705661e+00
 3.574888813383703e-01	 1.676596913370510e+00	 4.216632966306635e+00
 3.210364086924503e-01	 1.683956987128215e+00	 4.037198953062696e+00
 2.846760232887885e-01	 1.690483679888263e+00	 3.868967110710280e+00
 2.484334097539916e-01	 1.696188772254458e+00	 3.719422899565356e+00
 2.123333804811160e-01	 1.701084961351885e+00	 3.593045836829949e+00
 1.763998437404562e-01	 1.705185797891955e+00	 3.491645118061534e+00
 1.406557764612709e-01	 1.708505622686726e+00	 3.414876640312396e+00
 1.051232015961898e-01	 1.711059502965999e+00	 3.360874014767993e+00
 6.982316995383155e-02	 1.712863168832140e+00	 3.326931498447968e+00
 3.477574636162224e-02	 1.713932950167268e+00	 3.310183632773614e+00
 0.000000000000000e+00	 1.714285714285714e+00	 3.308234320944868e+00
 3.634470293606765e-01	 1.704540195260019e+00	 4.395126180375745e+00
 3.263870155039911e-01	 1.712022936913685e+00	 4.221966259860936e+00
 2.894206236769349e-01	 1.718658407886400e+00	 4.055150742756636e+00
 2.525739665832247e-01	 1.724458585125366e+00	 3.904359394624572e+00
 2.158722701558013e-01	 1.729436377374416e+00	 3.775428476784596e+00
 1.793398411361305e-01	 1.733605561190154e+00	 3.670865997852806e+00
 1.430000394022920e-01	 1.736980716398172e+00	 3.590560107926153e+00
 1.068752549561262e-01	 1.739577161348765e+00	 3.532604713955909e+00
 7.098688945306206e-02	 1.741410888312675e+00	 3.494172566169659e+00
 3.535534213431594e-02	 1.742498499336722e+00	 3.472373900588840e+00
 0.000000000000000e+00	 1.742857142857143e+00	 3.465047743342790e+00
 3.694051773829827e-01	 1.732483477149527e+00	 4.573016466683459e+00
 3.317376223155319e-01	 1.740088886699156e+00	 4.404015021159871e+00
 2.941652240650815e-01	 1.746833135884538e+00	 4.236904987750047e+00
 2.567145234124579e-01	 1.752728397996274e+00	 4.083656959532220e+00
 2.194111598304865e-01	 1.757787793396948e+00	 3.951459273258841e+00
 1.822798385318047e-01	 1.762025324488353e+00	 3.843436421010598e+00
 1.453443023433132e-01	 1.765455810109617e+00	 3.759572889585685e+00
 1.086273083160628e-01	 1.768094819731531e+00	 3.697757219842699e+00
 7.215060895229258e-02	 1.769958607793211e+00	 3.654868161821942e+00
 3.593493790700964e-02	 1.771064048506176e+00	 3.627833707591442e+00
 0.000000000000000e+00	 1.771428571428571e+00	 3.614603982137261e+00
 3.753633254052888e-01	 1.760426759039036e+00	 4.743585791228091e+00
 3.370882291270727e-01	 1.768154836484625e+00	 4.575786166443143e+00
 2.989098244532281e-01	 1.775007863882676e+00	 4.406486297907263e+00
 2.608550802416911e-01	 1.780998210867181e+00	 4.249928374736330e+00
 2.229500495051718e-01	 1.786139209419479e+00	 4.114532021757753e+00
 1.852198359274791e-01	 1.790445087786553e+00	 4.003833916935897e+00
 1.476885652843344e-01	 1.793930903821062e+00	 3.917653680754648e+00
 1.103793616759992e-01	 1.796612478114297e+00	 3.853382672037749e+00
 7.331432845152311e-02	 1.798506327273747e+00	 3.807308450705443e+00
 3.651453367970334e-02	 1.799629597675631e+00	 3.775897745821715e+00
 0.000000000000000e+00	 1.800000000000000e+00	 3.756972251810137e+00
 3.813214734275950e-01	 1.788370040928544e+00	 4.900601239789683e+00
 3.424388359386135e-01	 1.796220786270096e+00	 4.730092001279949e+00
 3.036544248413745e-01	 1.803182591880814e+00	 4.556439318539951e+00
 2.649956370709243e-01	 1.809268023738089e+00	 4.396008774018244e+00
 2.264889391798570e-01	 1.814490625442011e+00	 4.258211296971123e+00
 1.881598333231533e-01	 1.818864851084752e+00	 4.146666096076287e+00
 1.500328282253556e-01	 1.822405997532508e+00	 4.060637843135654e+00
 1.121314150359358e-01	 1.825130136497065e+00	 3.996599054607012e+00
 7.447804795075363e-02	 1.827054046754282e+00	 3.949820525957638e+00
 3.709412945239705e-02	 1.828195146845085e+00	 3.915904031359330e+00
 0.000000000000000e+00	 1.828571428571428e+00	 3.892184387802476e+00
 3.872796214499010e-01	 1.816313322818052e+00	 5.038251912113370e+00
 3.477894427501544e-01	 1.824286736055566e+00	 4.860114710254679e+00
 3.083990252295210e-01	 1.831357319878951e+00	 4.679591304312324e+00
 2.691361939001575e-01	 1.837537836608996e+00	 4.514947797058555e+00
 2.300278288545423e-01	 1.842842041464542e+00	 4.376223877251586e+00
 1.910998307188276e-01	 1.847284614382952e+00	 4.266662588804697e+00
 1.523770911663767e-01	 1.850881091243953e+00	 4.184450804765530e+00
 1.138834683958722e-01	 1.853647794879831e+00	 4.123875222149589e+00
 7.564176744998416e-02	 1.855601766234818e+00	 4.077342706165992e+00
 3.767372522509075e-02	 1.856760696014540e+00	 4.040838460503137e+00
 0.000000000000000e+00	 1.857142857142857e+00	 4.012376330508352e+00
 1.857142857142857e+00	 0.000000000000000e+00	 1.302423515390334e+01
 1.856760696014540e+00	 3.767372522508971e-02	 1.300505882911397e+01
 1.855601766234818e+00	 7.564176744998323e-02	 1.300036190762065e+01
 1.853647794879831e+00	 1.138834683958714e-01	 1.300620123670239e+01
 1.850881091243953e+00	 1.523770911663761e-01	 1.301914279708075e+01
 1.847284614382951e+00	 1.910998307188271e-01	 1.303597584485129e+01
 1.842842041464542e+00	 2.300278288545420e-01	 1.305484188613095e+01
 1.837537836608997e+00	 2.691361939001574e-01	 1.307574389316157e+01
 1.831357319878951e+00	 3.083990252295209e-01	 1.310093688000103e+01
 1.824286736055566e+00	 3.477894427501546e-01	 1.313548160789486e+01
 1.816313322818052e+00	 3.872796214499009e-01	 1.318803076790344e+01
 1.885714285714285e+00	 0.000000000000000e+00	 1.290854026063545e+01
 1.885326245183994e+00	 3.825332099778339e-02	 1.289611928776874e+01
 1.884149485715353e+00	 7.680548694921376e-02	 1.289254330501520e+01
 1.882165453262598e+00	 1.156355217558080e-01	 1.289583466747035e+01
 1.879356184955398e+00	 1.547213541073972e-01	 1.290430714230600e+01
 1.875704377681150e+00	 1.940398281145014e-01	 1.291675048683341e+01
 1.871193457487073e+00	 2.335667185292272e-01	 1.293268466533707e+01
 1.865807649479904e+00	 2.732767507293904e-01	 1.295270052007033e+01
 1.859532047877089e+00	 3.131436256176673e-01	 1.297890577709811e+01
 1.852352685841036e+00	 3.531400495616953e-01	 1.301549704097366e+01
 1.844256604707561e+00	 3.932377694722071e-01	 1.307002432901858e+01
 1.914285714285714e+00	 0.000000000000000e+00	 1.279297611043855e+01
 1.913891794353449e+00	 3.883291677047709e-02	 1.278941755085114e+01
 1.912697205195890e+00	 7.796920644844427e-02	 1.278941352729879e+01
 1.910683111645364e+00	 1.173875751157444e-01	 1.279273618054935e+01
 1.907831278666845e+00	 1.570656170484185e-01	 1.279920902912544e+01
 1.904124140979349e+00	 1.969798255101756e-01	 1.280884769979128e+01
 1.899544873509604e+00	 2.371056082039125e-01	 1.282206802776880e+01
 1.894077462350812e+00	 2.774173075586236e-01	 1.283997976277454e+01
 1.887706775875226e+00	 3.178882260058138e-01	 1.286478655791568e+01
 1.880418635626507e+00	 3.584906563732362e-01	 1.290031506706702e+01
 1.872199886597069e+00	 3.991959174945133e-01	 1.295518455753828e+01
 1.942857142857143e+00	 0.000000000000000e+00	 1.267865498849684e+01
 1.942457343522904e+00	 3.941251254317078e-02	 1.268503454778489e+01
 1.941244924676426e+00	 7.913292594767476e-02	 1.269011704570773e+01
 1.939200770028130e+00	 1.191396284756809e-01	 1.269522586456988e+01
 1.936306372378290e+00	 1.594098799894396e-01	 1.270151204787973e+01
 1.932543904277549e+00	 1.999198229058499e-01	 1.271004967361208e+01
 1.927896289532137e+00	 2.406444978785978e-01	 1.272199548678761e+01
 1.922347275221719e+00	 2.815578643878568e-01	 1.273883248236502e+01
 1.915881503873364e+00	 3.226328263939604e-01	 1.276271998201555e+01
 1.908484585411977e+00	 3.638412631847770e-01	 1.279697531043325e+01
 1.900143168486578e+00	 4.051540655168195e-01	 1.285100549322213e+01
 1.971428571428571e+00	 0.000000000000000e+00	 1.256625750443431e+01
 1.971022892692357e+00	 3.999210831586446e-02	 1.258279117016589e+01
 1.969792644156961e+00	 8.029664544690525e-02	 1.259368653588355e+01
 1.967718428410898e+00	 1.208916818356174e-01	 1.260163672624732e+01
 1.964781466089735e+00	 1.617541429304608e-01	 1.260895789399868e+01
 1.960963667575749e+00	 2.028598203015241e-01	 1.261763748702155e+01
 1.956247705554667e+00	 2.441833875532830e-01	 1.262944273073193e+01
 1.950617088092627e+00	 2.856984212170900e-01	 1.264611050544280e+01
 1.944056231871502e+00	 3.273774267821067e-01	 1.266964310105111e+01
 1.936550535197447e+00	 3.691918699963179e-01	 1.270273734793985e+01
 1.928086450376087e+00	 4.111122135391256e-01	 1.275565396134766e+01
 2.000000000000000e+00	 0.000000000000000e+00	 1.245606342628344e+01
 1.999588441861812e+00	 4.057170408855814e-02	 1.248227198334217e+01
 1.998340363637496e+00	 8.146036494613579e-02	 1.249905950191442e+01
 1.996236086793664e+00	 1.226437351955539e-01	 1.251032432602495e+01
 1.993256559801180e+00	 1.640984058714819e-01	 1.251940530179905e+01
 1.989383430873948e+00	 2.057998176971984e-01	 1.252908094848269e+01
 1.984599121577199e+00	 2.477222772279682e-01	 1.254162377030153e+01
 1.978886900963535e+00	 2.898389780463232e-01	 1.255893241055608e+01
 1.972230959869640e+00	 3.321220271702533e-01	 1.258276814330630e+01
 1.964616484982917e+00	 3.745424768078587e-01	 1.261518043565455e+01
 1.956029732265595e+00	 4.170703615614320e-01	 1.266691417203111e+01
 2.028571428571428e+00	 0.000000000000000e+00	 1.234797990876622e+01
 2.028153991031266e+00	 4.115129986125184e-02	 1.238284690782937e+01
 2.026888083118032e+00	 8.262408444536630e-02	 1.240509339079254e+01
 2.024753745176430e+00	 1.243957885554903e-01	 1.241967536590460e+01
 2.021731653512626e+00	 1.664426688125031e-01	 1.243083221252088e+01
 2.017803194172147e+00	 2.087398150928726e-01	 1.244203452360203e+01
 2.012950537599731e+00	 2.512611669026535e-01	 1.245598088229177e+01
 2.007156713834442e+00	 2.939795348755564e-01	 1.247466782799257e+01
 2.000405687867778e+00	 3.368666275583997e-01	 1.249956159642259e+01
 1.992682434768388e+00	 3.798930836193997e-01	 1.253214801464636e+01
 1.983973014155104e+00	 4.230285095837381e-01	 1.258272892876300e+01
 2.057142857142856e+00	 0.000000000000000e+00	 1.224156736921850e+01
 2.056719540200720e+00	 4.173089563394552e-02	 1.228369106793756e+01
 2.055435802598567e+00	 8.378780394459680e-02	 1.231057934405182e+01
 2.053271403559197e+00	 1.261478419154268e-01	 1.232811533133462e+01
 2.050206747224071e+00	 1.687869317535242e-01	 1.234133735680619e+01
 2.046222957470346e+00	 2.116798124885469e-01	 1.235433297757755e+01
 2.041301953622262e+00	 2.548000565773388e-01	 1.237017450601914e+01
 2.035426526705350e+00	 2.981200917047895e-01	 1.239092186394628e+01
 2.028580415865915e+00	 3.416112279465462e-01	 1.241772351736200e+01
 2.020748384553858e+00	 3.852436904309405e-01	 1.245150444196066e+01
 2.011916296044612e+00	 4.289866576060441e-01	 1.250119610486161e+01
 2.085714285714285e+00	 0.000000000000000e+00	 1.213606323672606e+01
 2.085285089370176e+00	 4.231049140663921e-02	 1.218380298335749e+01
 2.083983522079102e+00	 8.495152344382730e-02	 1.221425471726816e+01
 2.081789061941964e+00	 1.278998952753633e-01	 1.223411527786274e+01
 2.078681840935517e+00	 1.711311946945454e-01	 1.224914130776945e+01
 2.074642720768545e+00	 2.146198098842211e-01	 1.226398676001307e+01
 2.069653369644792e+00	 2.583389462520240e-01	 1.228207309697500e+01
 2.063696339576258e+00	 3.022606485340228e-01	 1.230551963713108e+01
 2.056755143864052e+00	 3.463558283346926e-01	 1.233516704781519e+01
 2.048814334339328e+00	 3.905942972424812e-01	 1.237125131018858e+01
 2.039859577934121e+00	 4.349448056283504e-01	 1.242056531524122e+01
 2.114285714285714e+00	 0.000000000000000e+00	 1.203040377565499e+01
 2.113850638539629e+00	 4.289008717933288e-02	 1.208202126045231e+01
 2.112531241559638e+00	 8.611524294305779e-02	 1.211481448397480e+01
 2.110306720324731e+00	 1.296519486352998e-01	 1.213619784345414e+01
 2.107156934646963e+00	 1.734754576355667e-01	 1.215258705473837e+01
 2.103062484066745e+00	 2.175598072798954e-01	 1.216917715647028e+01
 2.098004785667324e+00	 2.618778359267092e-01	 1.218974294175338e+01
 2.091966152447165e+00	 3.064012053632559e-01	 1.221649091720534e+01
 2.084929871862190e+00	 3.511004287228391e-01	 1.224999811562197e+01
 2.076880284124798e+00	 3.959449040540221e-01	 1.228952893620351e+01
 2.067802859823629e+00	 4.409029536506565e-01	 1.233923476501920e+01
 2.142857142857142e+00	 0.000000000000000e+00	 1.192324416329968e+01
 2.142416187709084e+00	 4.346968295202659e-02	 1.197703992328280e+01
 2.141078961040175e+00	 8.727896244228835e-02	 1.201092162811490e+01
 2.138824378707497e+00	 1.314040019952363e-01	 1.203294255874595e+01
 2.135632028358408e+00	 1.758197205765877e-01	 1.205014014240347e+01
 2.131482247364945e+00	 2.204998046755697e-01	 1.206825122852850e+01
 2.126356201689855e+00	 2.654167256013946e-01	 1.209143793786720e+01
 2.120235965318073e+00	 3.105417621924892e-01	 1.212205485550467e+01
 2.113104599860328e+00	 3.558450291109857e-01	 1.216049530484172e+01
 2.104946233910269e+00	 4.012955108655630e-01	 1.220461334700179e+01
 2.095746141713138e+00	 4.468611016729627e-01	 1.225574825845712e+01
 1.816313322818052e+00	 3.872796214499009e-01	 1.318803076790344e+01
 1.807425377925668e+00	 4.268408310681974e-01	 1.324335356481984e+01
 1.797612324985986e+00	 4.664434809226216e-01	 1.327996926642175e+01
 1.786864777380915e+00	 5.060571698851692e-01	 1.330193254995619e+01
 1.775174599912952e+00	 5.456507414643775e-01	 1.331379310027589e+01
 1.762534967728788e+00	 5.851923439092611e-01	 1.332046665408497e+01
 1.748940422075997e+00	 6.246494952094070e-01	 1.332711382283484e+01
 1.734386922451343e+00	 6.639891528229162e-01	 1.333903179929655e+01
 1.718871894706465e+00	 7.031777879206232e-01	 1.336156349783832e+01
 1.702394274688542e+00	 7.421814638916864e-01	 1.339998984350259e+01
 1.684954547010031e+00	 7.809659188126942e-01	 1.342900133776119e+01
 1.844256604707561e+00	 3.932377694722071e-01	 1.307002432901858e+01
 1.835231922201447e+00	 4.334076130846310e-01	 1.312744073117559e+01
 1.825267899216540e+00	 4.736195344752771e-01	 1.316537059731299e+01
 1.814355004725237e+00	 5.138426648064794e-01	 1.318829556964745e+01
 1.802484978373151e+00	 5.540453682561371e-01	 1.320122220313343e+01
 1.789650890309231e+00	 5.941953030463267e-01	 1.320954014337495e+01
 1.775847197800243e+00	 6.342594874433979e-01	 1.321889015358957e+01
 1.761069798181364e+00	 6.742043705586531e-01	 1.323504768840342e+01
 1.745316077701949e+00	 7.139959077347869e-01	 1.326382708123171e+01
 1.728584955837597e+00	 7.535996402592510e-01	 1.330816005637709e+01
 1.710876924656339e+00	 7.929807791021202e-01	 1.333343803582218e+01
 1.872199886597069e+00	 3.991959174945133e-01	 1.295518455753828e+01
 1.863038466477227e+00	 4.399743951010647e-01	 1.301530416971784e+01
 1.852923473447093e+00	 4.807955880279328e-01	 1.305659595152612e+01
 1.841845232069558e+00	 5.216281597277898e-01	 1.308244176464475e+01
 1.829795356833350e+00	 5.624399950478967e-01	 1.309767600843917e+01
 1.816766812889673e+00	 6.031982621833923e-01	 1.310828612730619e+01
 1.802753973524489e+00	 6.438694796773887e-01	 1.312050931432460e+01
 1.787752673911384e+00	 6.844195882943906e-01	 1.314070241972078e+01
 1.771760260697433e+00	 7.248140275489503e-01	 1.317523991628673e+01
 1.754775636986651e+00	 7.650178166268150e-01	 1.322093271739035e+01
 1.736799302302647e+00	 8.049956393915465e-01	 1.324303632900928e+01
 1.900143168486578e+00	 4.051540655168195e-01	 1.285100549322213e+01
 1.890845010753007e+00	 4.465411771174988e-01	 1.291129077402998e+01
 1.880579047677646e+00	 4.879716415805886e-01	 1.295390327202237e+01
 1.869335459413880e+00	 5.294136546491001e-01	 1.298243169535337e+01
 1.857105735293550e+00	 5.708346218396564e-01	 1.300110856835193e+01
 1.843882735470116e+00	 6.122012213204578e-01	 1.301490486861077e+01
 1.829660749248735e+00	 6.534794719113797e-01	 1.303034498046499e+01
 1.814435549641405e+00	 6.946348060301277e-01	 1.305448410612415e+01
 1.798204443692917e+00	 7.356321473631139e-01	 1.309434144926874e+01
 1.780966318135705e+00	 7.764359929943795e-01	 1.313769796486422e+01
 1.762721679948956e+00	 8.170104996809723e-01	 1.315716634138811e+01
 1.928086450376087e+00	 4.111122135391256e-01	 1.275565396134766e+01
 1.918651555028786e+00	 4.531079591339325e-01	 1.281503160768148e+01
 1.908234621908200e+00	 4.951476951332444e-01	 1.285785831239507e+01
 1.896825686758202e+00	 5.371991495704103e-01	 1.288783734128111e+01
 1.884416113753749e+00	 5.792292486314163e-01	 1.290930238872058e+01
 1.870998658050559e+00	 6.212041804575231e-01	 1.292719829144334e+01
 1.856567524972981e+00	 6.630894641453705e-01	 1.294703613887491e+01
 1.841118425371425e+00	 7.048500237658649e-01	 1.297524717980748e+01
 1.824648626688401e+00	 7.464502671772770e-01	 1.301964655386385e+01
 1.807156999284760e+00	 7.878541693619440e-01	 1.305826096101724e+01
 1.788644057595264e+00	 8.290253599703984e-01	 1.307560828767596e+01
 1.956029732265595e+00	 4.170703615614320e-01	 1.266691417203111e+01
 1.946458099304566e+00	 4.596747411503664e-01	 1.272465531156194e+01
 1.935890196138754e+00	 5.023237486859001e-01	 1.276692771608074e+01
 1.924315914102524e+00	 5.449846444917207e-01	 1.279755300114098e+01
 1.911726492213948e+00	 5.876238754231758e-01	 1.282096784369954e+01
 1.898114580631002e+00	 6.302071395945888e-01	 1.284222136907802e+01
 1.883474300697228e+00	 6.726994563793613e-01	 1.286694497080543e+01
 1.867801301101446e+00	 7.150652415016017e-01	 1.290128707875932e+01
 1.851092809683885e+00	 7.572683869914406e-01	 1.294849161540830e+01
 1.833347680433815e+00	 7.992723457295086e-01	 1.298280732443430e+01
 1.814566435241572e+00	 8.410402202598247e-01	 1.299851458344409e+01
 1.983973014155104e+00	 4.230285095837381e-01	 1.258272892876300e+01
 1.974264643580345e+00	 4.662415231668000e-01	 1.263845296341581e+01
 1.963545770369308e+00	 5.094998022385556e-01	 1.267974526562179e+01
 1.951806141446846e+00	 5.527701394130310e-01	 1.271053853278845e+01
 1.939036870674148e+00	 5.960185022149356e-01	 1.273536374638354e+01
 1.925230503211445e+00	 6.392100987316545e-01	 1.275936601460020e+01
 1.910381076421474e+00	 6.823094486133527e-01	 1.278829069107989e+01
 1.894484176831466e+00	 7.252804592373390e-01	 1.282843132673721e+01
 1.877536992679370e+00	 7.680865068056041e-01	 1.287821210225801e+01
 1.859538361582869e+00	 8.106905220970729e-01	 1.291159465249488e+01
 1.840488812887880e+00	 8.530550805492505e-01	 1.292637210571251e+01
 2.011916296044612e+00	 4.289866576060441e-01	 1.250119610486161e+01
 2.002071187856125e+00	 4.728083051832339e-01	 1.255487495611309e+01
 1.991201344599861e+00	 5.166758557912113e-01	 1.259510894538288e+01
 1.979296368791167e+00	 5.605556343343412e-01	 1.262592334299726e+01
 1.966347249134347e+00	 6.044131290066952e-01	 1.265192412246559e+01
 1.952346425791888e+00	 6.482130578687202e-01	 1.267833423589239e+01
 1.937287852145720e+00	 6.919194408473432e-01	 1.271099779979033e+01
 1.921167052561487e+00	 7.354956769730759e-01	 1.275634270993991e+01
 1.903981175674854e+00	 7.789046266197673e-01	 1.280649259923357e+01
 1.885729042731923e+00	 8.221086984646371e-01	 1.284093340357023e+01
 1.866411190534188e+00	 8.650699408386766e-01	 1.285891926603929e+01
 2.039859577934121e+00	 4.349448056283504e-01	 1.242056531524122e+01
 2.029877732131904e+00	 4.793750871996676e-01	 1.247252800366920e+01
 2.018856918830415e+00	 5.238519093438672e-01	 1.251197807526534e+01
 2.006786596135489e+00	 5.683411292556516e-01	 1.254300342601077e+01
 1.993657627594546e+00	 6.128077557984547e-01	 1.257025491613215e+01
 1.979462348372331e+00	 6.572160170057857e-01	 1.259900525633659e+01
 1.964194627869966e+00	 7.015294330813341e-01	 1.263517321343840e+01
 1.947849928291508e+00	 7.457108947088135e-01	 1.268509166977037e+01
 1.930425358670337e+00	 7.897227464339306e-01	 1.273429366015520e+01
 1.911919723880978e+00	 8.335268748322017e-01	 1.277019039803381e+01
 1.892333568180496e+00	 8.770848011281027e-01	 1.279216982826544e+01
 2.067802859823629e+00	 4.409029536506565e-01	 1.233923476501920e+01
 2.057684276407683e+00	 4.859418692161014e-01	 1.239017226293056e+01
 2.046512493060968e+00	 5.310279628965228e-01	 1.242947050870421e+01
 2.034276823479811e+00	 5.761266241769619e-01	 1.246123842572257e+01
 2.020968006054745e+00	 6.212023825902144e-01	 1.249013069057314e+01
 2.006578270952774e+00	 6.662189761428513e-01	 1.252143161589950e+01
 1.991101403594211e+00	 7.111394253153248e-01	 1.256110151893321e+01
 1.974532804021529e+00	 7.559261124445505e-01	 1.261400263456500e+01
 1.956869541665821e+00	 8.005408662480942e-01	 1.266269513696703e+01
 1.938110405030032e+00	 8.449450511997658e-01	 1.270044114345098e+01
 1.918255945826804e+00	 8.890996614175286e-01	 1.272651040344068e+01
 2.095746141713138e+00	 4.468611016729627e-01	 1.225574825845712e+01
 2.085490820683464e+00	 4.925086512325353e-01	 1.230671856012951e+01
 2.074168067291523e+00	 5.382040164491788e-01	 1.234685988894810e+01
 2.061767050824133e+00	 5.839121190982721e-01	 1.238024871928011e+01
 2.048278384514945e+00	 6.295970093819743e-01	 1.241149132360960e+01
 2.033694193533217e+00	 6.752219352799169e-01	 1.244583525237786e+01
 2.018008179318458e+00	 7.207494175493158e-01	 1.248924020490229e+01
 2.001215679751549e+00	 7.661413301802877e-01	 1.254395705312588e+01
 1.983313724661306e+00	 8.113589860622575e-01	 1.259288958517186e+01
 1.964301086179087e+00	 8.563632275673305e-01	 1.263288041146174e+01
 1.944178323473112e+00	 9.011145217069549e-01	 1.266308692811165e+01
 1.684954547010031e+00	 7.809659188126942e-01	 1.342900133776119e+01
 1.666554778562834e+00	 8.194966515405141e-01	 1.343093183424272e+01
 1.647198646418210e+00	 8.577390110486701e-01	 1.341335553750456e+01
 1.626891459784270e+00	 8.956582885887574e-01	 1.337728707981704e+01
 1.605640175727936e+00	 9.332198122227667e-01	 1.332413898365315e+01
 1.583453408407350e+00	 9.703890432398139e-01	 1.325600724422402e+01
 1.560341431603758e+00	 1.007131673942125e+00	 1.317601155979079e+01
 1.536316174388375e+00	 1.043413726260777e+00	 1.308868709869758e+01
 1.511391209809140e+00	 1.079201650641992e+00	 1.300042211336223e+01
 1.485581736534222e+00	 1.114462424630234e+00	 1.291985720326537e+01
 1.458904553442910e+00	 1.149163650565174e+00	 1.284443580151623e+01
 1.710876924656339e+00	 7.929807791021202e-01	 1.333343803582218e+01
 1.692194082848417e+00	 8.321042923334452e-01	 1.333463089865635e+01
 1.672540164055414e+00	 8.709349958340341e-01	 1.331882797638877e+01
 1.651920559165566e+00	 9.094376468747380e-01	 1.328684447806639e+01
 1.630342332277597e+00	 9.475770401031166e-01	 1.323978946103189e+01
 1.607814230075156e+00	 9.853181054435034e-01	 1.317936492172950e+01
 1.584346684397662e+00	 1.022626007387389e+00	 1.310822666568525e+01
 1.559951807840504e+00	 1.059466245126328e+00	 1.303040407655407e+01
 1.534643382267742e+00	 1.095804752959561e+00	 1.295177306118776e+01
 1.508436840173210e+00	 1.131608000393776e+00	 1.287826250585752e+01
 1.481349238880494e+00	 1.166843091343100e+00	 1.280613913322644e+01
 1.736799302302647e+00	 8.049956393915465e-01	 1.324303632900928e+01
 1.717833387133998e+00	 8.447119331263760e-01	 1.324380012111996e+01
 1.697881681692617e+00	 8.841309806193985e-01	 1.322963483888791e+01
 1.676949658546863e+00	 9.232170051607189e-01	 1.320119445916107e+01
 1.655044488827258e+00	 9.619342679834672e-01	 1.315931902245581e+01
 1.632175051742960e+00	 1.000247167647193e+00	 1.310534628213661e+01
 1.608351937191567e+00	 1.038120340832652e+00	 1.304149281480533e+01
 1.583587441292634e+00	 1.075518763991878e+00	 1.297130200537373e+01
 1.557895554726343e+00	 1.112407855277130e+00	 1.290014768126811e+01
 1.531291943812198e+00	 1.148753576157318e+00	 1.282958540300322e+01
 1.503793924318076e+00	 1.184522532121025e+00	 1.275801559616714e+01
 1.762721679948956e+00	 8.170104996809723e-01	 1.315716634138811e+01
 1.743472691419581e+00	 8.573195739193069e-01	 1.315776631856295e+01
 1.723223199329820e+00	 8.973269654047624e-01	 1.314510417034877e+01
 1.701978757928159e+00	 9.369963634466996e-01	 1.311971515595998e+01
 1.679746645376918e+00	 9.762914958638172e-01	 1.308220757942172e+01
 1.656535873410766e+00	 1.015176229850882e+00	 1.303358586225546e+01
 1.632357189985471e+00	 1.053614674277916e+00	 1.297565135242982e+01
 1.607223074744762e+00	 1.091571282857429e+00	 1.291147864549302e+01
 1.581147727184945e+00	 1.129010957594700e+00	 1.284517410841825e+01
 1.554147047451186e+00	 1.165899151920860e+00	 1.277607953977225e+01
 1.526238609755660e+00	 1.202201972898951e+00	 1.270462742687949e+01
 1.788644057595264e+00	 8.290253599703984e-01	 1.307560828767596e+01
 1.769111995705163e+00	 8.699272147122380e-01	 1.307626253047222e+01
 1.748564716967023e+00	 9.105229501901265e-01	 1.306496464041854e+01
 1.727007857309456e+00	 9.507757217326808e-01	 1.304217876379594e+01
 1.704448801926579e+00	 9.906487237441677e-01	 1.300832228633498e+01
 1.680896695078571e+00	 1.030105292054571e+00	 1.296409899591614e+01
 1.656362442779375e+00	 1.069109007723179e+00	 1.291091889363506e+01
 1.630858708196891e+00	 1.107623801722979e+00	 1.285140286701062e+01
 1.604399899643548e+00	 1.145614059912269e+00	 1.278787210867943e+01
 1.577002151090173e+00	 1.183044727684402e+00	 1.271992469534444e+01
 1.548683295193243e+00	 1.219881413676877e+00	 1.264835281745374e+01
 1.814566435241572e+00	 8.410402202598247e-01	 1.299851458344409e+01
 1.794751299990746e+00	 8.825348555051691e-01	 1.299938692171633e+01
 1.773906234604226e+00	 9.237189349754911e-01	 1.298930163339629e+01
 1.752036956690752e+00	 9.645550800186615e-01	 1.296870523280028e+01
 1.729150958476240e+00	 1.005005951624518e+00	 1.293786926560563e+01
 1.705257516746376e+00	 1.045034354258261e+00	 1.289723201543201e+01
 1.680367695573279e+00	 1.084603341168443e+00	 1.284783645363602e+01
 1.654494341649020e+00	 1.123676320588529e+00	 1.279177124149768e+01
 1.627652072102150e+00	 1.162217162229838e+00	 1.273019734257083e+01
 1.599857254729162e+00	 1.200190303447945e+00	 1.266324111196904e+01
 1.571127980630826e+00	 1.237560854454802e+00	 1.259150258033223e+01
 1.840488812887880e+00	 8.530550805492505e-01	 1.292637210571251e+01
 1.820390604276327e+00	 8.951424962981001e-01	 1.292756191474677e+01
 1.799247752241430e+00	 9.369149197608553e-01	 1.291851362647525e+01
 1.777066056072049e+00	 9.783344383046424e-01	 1.289971628669783e+01
 1.753853115025900e+00	 1.019363179504868e+00	 1.287134567849188e+01
 1.729618338414182e+00	 1.059963416461951e+00	 1.283361279950523e+01
 1.704372948367183e+00	 1.100097674613706e+00	 1.278721890748824e+01
 1.678129975101148e+00	 1.139728839454080e+00	 1.273376926848434e+01
 1.650904244560752e+00	 1.178820264547407e+00	 1.267406368198982e+01
 1.622712358368149e+00	 1.217335879211486e+00	 1.260810400472937e+01
 1.593572666068410e+00	 1.255240295232728e+00	 1.253633576697569e+01
 1.866411190534188e+00	 8.650699408386766e-01	 1.285891926603929e+01
 1.846029908561909e+00	 9.077501370910309e-01	 1.286149352887667e+01
 1.824589269878633e+00	 9.501109045462192e-01	 1.285326882788549e+01
 1.802095155453345e+00	 9.921137965906230e-01	 1.283588973633194e+01
 1.778555271575561e+00	 1.033720407385218e+00	 1.280949210807733e+01
 1.753979160081988e+00	 1.074892478665640e+00	 1.277410163389186e+01
 1.728378201161086e+00	 1.115592008058969e+00	 1.273011440635961e+01
 1.701765608553277e+00	 1.155781358319630e+00	 1.267913431307625e+01
 1.674156417019354e+00	 1.195423366864976e+00	 1.262135697056997e+01
 1.645567462007138e+00	 1.234481454975028e+00	 1.255655823453526e+01
 1.616017351505993e+00	 1.272919736010654e+00	 1.248507530181746e+01
 1.892333568180496e+00	 8.770848011281027e-01	 1.279216982826544e+01
 1.871669212847491e+00	 9.203577778839620e-01	 1.280012317967545e+01
 1.849930787515836e+00	 9.633068893315833e-01	 1.279446205001604e+01
 1.827124254834642e+00	 1.005893154876604e+00	 1.277811405965794e+01
 1.803257428125221e+00	 1.048077635265569e+00	 1.275324522445037e+01
 1.778339981749793e+00	 1.089821540869329e+00	 1.271974235483673e+01
 1.752383453954990e+00	 1.131086341504233e+00	 1.267798563514902e+01
 1.725401242005407e+00	 1.171833877185181e+00	 1.262960072628923e+01
 1.697408589477956e+00	 1.212026469182545e+00	 1.257394898444012e+01
 1.668422565646126e+00	 1.251627030738570e+00	 1.251063312869056e+01
 1.638462036943576e+00	 1.290599176788579e+00	 1.243992369976830e+01
 1.918255945826804e+00	 8.890996614175286e-01	 1.272651040344068e+01
 1.897308517133073e+00	 9.329654186768926e-01	 1.273994860921590e+01
 1.875272305153039e+00	 9.765028741169474e-01	 1.274033060025394e+01
 1.852153354215938e+00	 1.019672513162585e+00	 1.272744275748717e+01
 1.827959584674881e+00	 1.062434863145919e+00	 1.270369070539172e+01
 1.802700803417598e+00	 1.104750603073018e+00	 1.267171374852882e+01
 1.776388706748894e+00	 1.146580674949497e+00	 1.263247176809409e+01
 1.749036875457535e+00	 1.187886396050731e+00	 1.258690019045714e+01
 1.720660761936559e+00	 1.228629571500114e+00	 1.253371157442823e+01
 1.691277669285113e+00	 1.268772606502113e+00	 1.247235743507639e+01
 1.660906722381159e+00	 1.308278617566505e+00	 1.240307885936910e+01
 1.944178323473112e+00	 9.011145217069549e-01	 1.266308692811165e+01
 1.922947821418656e+00	 9.455730594698242e-01	 1.268188455116601e+01
 1.900613822790243e+00	 9.896988589023119e-01	 1.268820373207569e+01
 1.877182453597235e+00	 1.033451871448566e+00	 1.268175216743608e+01
 1.852661741224541e+00	 1.076792091026269e+00	 1.266201308718413e+01
 1.827061625085403e+00	 1.119679665276708e+00	 1.263137414625136e+01
 1.800393959542798e+00	 1.162075008394760e+00	 1.259519023486706e+01
 1.772672508909664e+00	 1.203938914916281e+00	 1.255277528679057e+01
 1.743912934395161e+00	 1.245232673817684e+00	 1.250253097277465e+01
 1.714132772924102e+00	 1.285918182265655e+00	 1.244377439747917e+01
 1.683351407818742e+00	 1.325958058344431e+00	 1.237674992453023e+01
 1.458904553442910e+00	 1.149163650565174e+00	 1.284443580151623e+01
 1.431378027209510e+00	 1.183273651806102e+00	 1.274304465523295e+01
 1.403022052981518e+00	 1.216761566899719e+00	 1.259697750255555e+01
 1.373858008308831e+00	 1.249597441115509e+00	 1.241389219566026e+01
 1.343908700535385e+00	 1.281752314787075e+00	 1.220084765207702e+01
 1.313198307917874e+00	 1.313198307917874e+00	 1.196439559341166e+01
 1.281752314787076e+00	 1.343908700535385e+00	 1.171069402192176e+01
 1.249597441115509e+00	 1.373858008308830e+00	 1.144563459890433e+01
 1.216761566899720e+00	 1.403022052981518e+00	 1.117497545694691e+01
 1.183273651806102e+00	 1.431378027209509e+00	 1.090447071376150e+01
 1.149163650565174e+00	 1.458904553442910e+00	 1.063998807222853e+01
 1.481349238880494e+00	 1.166843091343100e+00	 1.280613913322644e+01
 1.453399227628117e+00	 1.201477861833888e+00	 1.270880097019278e+01
 1.424607007642773e+00	 1.235480975621253e+00	 1.256544693875249e+01
 1.394994285359735e+00	 1.268822017132671e+00	 1.238457430128568e+01
 1.364584219005160e+00	 1.301471581168415e+00	 1.217404762127265e+01
 1.333401358808918e+00	 1.333401358808918e+00	 1.194120305152022e+01
 1.301471581168415e+00	 1.364584219005160e+00	 1.169297668688239e+01
 1.268822017132671e+00	 1.394994285359735e+00	 1.143604825896590e+01
 1.235480975621254e+00	 1.424607007642772e+00	 1.117699074720769e+01
 1.201477861833888e+00	 1.453399227628116e+00	 1.092241618333020e+01
 1.166843091343100e+00	 1.481349238880493e+00	 1.067910804978380e+01
 1.503793924318076e+00	 1.184522532121025e+00	 1.275801559616714e+01
 1.475420428046725e+00	 1.219682071861674e+00	 1.266338553178833e+01
 1.446191962304026e+00	 1.254200384342787e+00	 1.252387465967102e+01
 1.416130562410641e+00	 1.288046593149833e+00	 1.234651384734393e+01
 1.385259737474936e+00	 1.321190847549754e+00	 1.213996316204709e+01
 1.353604409699963e+00	 1.353604409699962e+00	 1.191232380768822e+01
 1.321190847549755e+00	 1.385259737474936e+00	 1.167128382428643e+01
 1.288046593149832e+00	 1.416130562410640e+00	 1.142428077893504e+01
 1.254200384342788e+00	 1.446191962304026e+00	 1.117867097135613e+01
 1.219682071861674e+00	 1.475420428046725e+00	 1.094189434260742e+01
 1.184522532121025e+00	 1.503793924318076e+00	 1.071188442868149e+01
 1.526238609755660e+00	 1.202201972898951e+00	 1.270462742687949e+01
 1.497441628465333e+00	 1.237886281889460e+00	 1.260979114118451e+01
 1.467776916965281e+00	 1.272919793064321e+00	 1.247421347203810e+01
 1.437266839461546e+00	 1.307271169166994e+00	 1.230163674579630e+01
 1.405935255944711e+00	 1.340910113931095e+00	 1.210045088059785e+01
 1.373807460591006e+00	 1.373807460591006e+00	 1.187950420572612e+01
 1.340910113931095e+00	 1.405935255944711e+00	 1.164721175718663e+01
 1.307271169166994e+00	 1.437266839461545e+00	 1.141173982099338e+01
 1.272919793064322e+00	 1.467776916965280e+00	 1.118119771302266e+01
 1.237886281889461e+00	 1.497441628465332e+00	 1.095965668491386e+01
 1.202201972898951e+00	 1.526238609755660e+00	 1.073106924659480e+01
 1.548683295193243e+00	 1.219881413676877e+00	 1.264835281745374e+01
 1.519462828883940e+00	 1.256090491917246e+00	 1.255314585035770e+01
 1.489361871626534e+00	 1.291639201785856e+00	 1.241888501239249e+01
 1.458403116512451e+00	 1.326495745184156e+00	 1.225209740162632e+01
 1.426610774414486e+00	 1.360629380312434e+00	 1.205759012549810e+01
 1.394010511482051e+00	 1.394010511482051e+00	 1.184471007448407e+01
 1.360629380312434e+00	 1.426610774414486e+00	 1.162257504207287e+01
 1.326495745184156e+00	 1.458403116512450e+00	 1.140005151898907e+01
 1.291639201785856e+00	 1.489361871626534e+00	 1.118514808674646e+01
 1.256090491917247e+00	 1.519462828883940e+00	 1.096728569430748e+01
 1.219881413676877e+00	 1.548683295193242e+00	 1.074072074069719e+01
 1.571127980630826e+00	 1.237560854454802e+00	 1.259150258033223e+01
 1.541484029302548e+00	 1.274294701945033e+00	 1.249608801319539e+01
 1.510946826287789e+00	 1.310358610507389e+00	 1.236286157383714e+01
 1.479539393563356e+00	 1.345720321201317e+00	 1.220026482973671e+01
 1.447286292884261e+00	 1.380348646693773e+00	 1.201367043235283e+01
 1.414213562373095e+00	 1.414213562373095e+00	 1.181011546159800e+01
 1.380348646693774e+00	 1.447286292884261e+00	 1.159939645168855e+01
 1.345720321201318e+00	 1.479539393563356e+00	 1.139105166860575e+01
 1.310358610507390e+00	 1.510946826287789e+00	 1.118402700956373e+01
 1.274294701945033e+00	 1.541484029302548e+00	 1.096862831237313e+01
 1.237560854454802e+00	 1.571127980630826e+00	 1.074515731241506e+01
 1.593572666068410e+00	 1.255240295232728e+00	 1.253633576697569e+01
 1.563505229721156e+00	 1.292498911972819e+00	 1.244104866635095e+01
 1.532531780949042e+00	 1.329078019228924e+00	 1.230939139435771e+01
 1.500675670614261e+00	 1.364944897218479e+00	 1.214992653563574e+01
 1.467961811354036e+00	 1.400067913075113e+00	 1.197117883019320e+01
 1.434416613264139e+00	 1.434416613264139e+00	 1.177809119612871e+01
 1.400067913075113e+00	 1.467961811354036e+00	 1.157989676293329e+01
 1.364944897218479e+00	 1.500675670614261e+00	 1.138339347422924e+01
 1.329078019228924e+00	 1.532531780949043e+00	 1.117999128752709e+01
 1.292498911972819e+00	 1.563505229721156e+00	 1.096839904716088e+01
 1.255240295232728e+00	 1.593572666068409e+00	 1.074893069124459e+01
 1.616017351505993e+00	 1.272919736010654e+00	 1.248507530181746e+01
 1.585526430139764e+00	 1.310703122000605e+00	 1.239041527345601e+01
 1.554116735610297e+00	 1.347797427950457e+00	 1.226098409930423e+01
 1.521811947665166e+00	 1.384169473235640e+00	 1.210542045717896e+01
 1.488637329823811e+00	 1.419787179456453e+00	 1.193293436229034e+01
 1.454619664155183e+00	 1.454619664155183e+00	 1.175119329672846e+01
 1.419787179456453e+00	 1.488637329823811e+00	 1.156616352674598e+01
 1.384169473235640e+00	 1.521811947665165e+00	 1.137629477251652e+01
 1.347797427950459e+00	 1.554116735610297e+00	 1.117808880896789e+01
 1.310703122000605e+00	 1.585526430139763e+00	 1.097151233845620e+01
 1.272919736010654e+00	 1.616017351505992e+00	 1.075679925972905e+01
 1.638462036943576e+00	 1.290599176788579e+00	 1.243992369976830e+01
 1.607547630558372e+00	 1.328907332028391e+00	 1.234654824862066e+01
 1.575701690271551e+00	 1.366516836671992e+00	 1.222011538565332e+01
 1.542948224716071e+00	 1.403394049252801e+00	 1.206930962089712e+01
 1.509312848293586e+00	 1.439506445837792e+00	 1.190345481689105e+01
 1.474822715046227e+00	 1.474822715046227e+00	 1.173215124014858e+01
 1.439506445837792e+00	 1.509312848293586e+00	 1.155774071278450e+01
 1.403394049252802e+00	 1.542948224716071e+00	 1.137504023914070e+01
 1.366516836671993e+00	 1.575701690271551e+00	 1.118353474165396e+01
 1.328907332028392e+00	 1.607547630558371e+00	 1.098305484908130e+01
 1.290599176788580e+00	 1.638462036943576e+00	 1.077370119842429e+01
 1.660906722381159e+00	 1.308278617566505e+00	 1.240307885936910e+01
 1.629568830976979e+00	 1.347111542056177e+00	 1.231179749771036e+01
 1.597286644932805e+00	 1.385236245393526e+00	 1.218924411492028e+01
 1.564084501766976e+00	 1.422618625269964e+00	 1.204412073627554e+01
 1.529988366763361e+00	 1.459225712219132e+00	 1.188584202091200e+01
 1.495025765937271e+00	 1.495025765937271e+00	 1.172383939849721e+01
 1.459225712219132e+00	 1.529988366763361e+00	 1.155882915531774e+01
 1.422618625269964e+00	 1.564084501766976e+00	 1.138508936627957e+01
 1.385236245393527e+00	 1.597286644932805e+00	 1.120168289824348e+01
 1.347111542056177e+00	 1.629568830976979e+00	 1.100825759182714e+01
 1.308278617566505e+00	 1.660906722381159e+00	 1.080472746788062e+01
 1.683351407818742e+00	 1.325958058344431e+00	 1.237674992453023e+01
 1.651590031395588e+00	 1.365315752083963e+00	 1.228851897574022e+01
 1.618871599594059e+00	 1.403955654115061e+00	 1.217082937820564e+01
 1.585220778817881e+00	 1.441843201287125e+00	 1.203237422508906e+01
 1.550663885233137e+00	 1.478944978600472e+00	 1.188263872017932e+01
 1.515228816828316e+00	 1.515228816828316e+00	 1.173021636028444e+01
 1.478944978600471e+00	 1.550663885233136e+00	 1.157508320147325e+01
 1.441843201287126e+00	 1.585220778817881e+00	 1.141200825521081e+01
 1.403955654115061e+00	 1.618871599594059e+00	 1.123799695466379e+01
 1.365315752083964e+00	 1.651590031395587e+00	 1.105246790735712e+01
 1.325958058344431e+00	 1.683351407818742e+00	 1.085509464285306e+01
 1.149163650565174e+00	 1.458904553442910e+00	 1.063998807222853e+01
 1.114462424630235e+00	 1.485581736534222e+00	 1.038739692365111e+01
 1.079201650641993e+00	 1.511391209809139e+00	 1.013124140591591e+01
 1.043413726260778e+00	 1.536316174388375e+00	 9.862563971450108e+00
 1.007131673942126e+00	 1.560341431603757e+00	 9.581505719458487e+00
 9.703890432398140e-01	 1.583453408407349e+00	 9.288525889276729e+00
 9.332198122227675e-01	 1.605640175727936e+00	 8.984507987142386e+00
 8.956582885887580e-01	 1.626891459784269e+00	 8.670805895295260e+00
 8.577390110486709e-01	 1.647198646418210e+00	 8.349251704585479e+00
 8.194966515405154e-01	 1.666554778562834e+00	 8.022127301453237e+00
 7.809659188126941e-01	 1.684954547010030e+00	 7.692102930018811e+00
 1.166843091343100e+00	 1.481349238880493e+00	 1.067910804978380e+01
 1.131608000393776e+00	 1.508436840173210e+00	 1.043773379218687e+01
 1.095804752959561e+00	 1.534643382267741e+00	 1.018245520199224e+01
 1.059466245126328e+00	 1.559951807840504e+00	 9.915448837290890e+00
 1.022626007387390e+00	 1.584346684397662e+00	 9.637292024283934e+00
 9.853181054435040e-01	 1.607814230075155e+00	 9.348178646964371e+00
 9.475770401031175e-01	 1.630342332277596e+00	 9.048832782924496e+00
 9.094376468747389e-01	 1.651920559165565e+00	 8.740557272623272e+00
 8.709349958340354e-01	 1.672540164055413e+00	 8.425239637772204e+00
 8.321042923334460e-01	 1.692194082848416e+00	 8.105317683692828e+00
 7.929807791021202e-01	 1.710876924656339e+00	 7.783708425045666e+00
 1.184522532121025e+00	 1.503793924318076e+00	 1.071188442868148e+01
 1.148753576157318e+00	 1.531291943812198e+00	 1.047188370497767e+01
 1.112407855277131e+00	 1.557895554726343e+00	 1.021940782209572e+01
 1.075518763991878e+00	 1.583587441292633e+00	 9.954441123996380e+00
 1.038120340832653e+00	 1.608351937191566e+00	 9.679161356231118e+00
 1.000247167647193e+00	 1.632175051742960e+00	 9.393536809940464e+00
 9.619342679834677e-01	 1.655044488827257e+00	 9.098179829054612e+00
 9.232170051607200e-01	 1.676949658546862e+00	 8.794400935739748e+00
 8.841309806193999e-01	 1.697881681692616e+00	 8.484211907799278e+00
 8.447119331263772e-01	 1.717833387133998e+00	 8.170284152388110e+00
 8.049956393915463e-01	 1.736799302302647e+00	 7.855866477626078e+00
 1.202201972898951e+00	 1.526238609755660e+00	 1.073106924659480e+01
 1.165899151920861e+00	 1.554147047451185e+00	 1.049341591539514e+01
 1.129010957594700e+00	 1.581147727184945e+00	 1.024477636124266e+01
 1.091571282857429e+00	 1.607223074744762e+00	 9.982813620515151e+00
 1.053614674277916e+00	 1.632357189985469e+00	 9.710295319455255e+00
 1.015176229850883e+00	 1.656535873410765e+00	 9.427657425160159e+00
 9.762914958638180e-01	 1.679746645376917e+00	 9.135449284737064e+00
 9.369963634467007e-01	 1.701978757928158e+00	 8.835049834621874e+00
 8.973269654047635e-01	 1.723223199329819e+00	 8.528666841662107e+00
 8.573195739193084e-01	 1.743472691419580e+00	 8.219286715098466e+00
 8.170104996809722e-01	 1.762721679948956e+00	 7.910579499624733e+00
 1.219881413676877e+00	 1.548683295193242e+00	 1.074072074069719e+01
 1.183044727684402e+00	 1.577002151090173e+00	 1.050619147468593e+01
 1.145614059912269e+00	 1.604399899643548e+00	 1.026168234816888e+01
 1.107623801722980e+00	 1.630858708196891e+00	 1.000391504419072e+01
 1.069109007723180e+00	 1.656362442779374e+00	 9.733948058647247e+00
 1.030105292054572e+00	 1.680896695078571e+00	 9.453664631041310e+00
 9.906487237441687e-01	 1.704448801926578e+00	 9.163601114079684e+00
 9.507757217326815e-01	 1.727007857309455e+00	 8.865267867779949e+00
 9.105229501901277e-01	 1.748564716967022e+00	 8.561143596080001e+00
 8.699272147122395e-01	 1.769111995705162e+00	 8.254615169886026e+00
 8.290253599703982e-01	 1.788644057595264e+00	 7.949868104766377e+00
 1.237560854454802e+00	 1.571127980630826e+00	 1.074515731241506e+01
 1.200190303447945e+00	 1.599857254729162e+00	 1.051433792523503e+01
 1.162217162229838e+00	 1.627652072102150e+00	 1.027404262669006e+01
 1.123676320588530e+00	 1.654494341649020e+00	 1.002089990169604e+01
 1.084603341168443e+00	 1.680367695573278e+00	 9.753464374671745e+00
 1.045034354258262e+00	 1.705257516746376e+00	 9.474767289895334e+00
 1.005005951624519e+00	 1.729150958476239e+00	 9.185672128672044e+00
 9.645550800186625e-01	 1.752036956690751e+00	 8.887886229352363e+00
 9.237189349754921e-01	 1.773906234604226e+00	 8.584237705674880e+00
 8.825348555051702e-01	 1.794751299990745e+00	 8.278603754439139e+00
 8.410402202598245e-01	 1.814566435241572e+00	 7.975784762834970e+00
 1.255240295232728e+00	 1.593572666068409e+00	 1.074893069124459e+01
 1.217335879211486e+00	 1.622712358368150e+00	 1.052222377709787e+01
 1.178820264547407e+00	 1.650904244560752e+00	 1.028602384728012e+01
 1.139728839454080e+00	 1.678129975101148e+00	 1.003692156614943e+01
 1.100097674613706e+00	 1.704372948367181e+00	 9.772297637618561e+00
 1.059963416461951e+00	 1.729618338414181e+00	 9.494276424893437e+00
 1.019363179504869e+00	 1.753853115025898e+00	 9.204792843754092e+00
 9.783344383046436e-01	 1.777066056072047e+00	 8.905819581193306e+00
 9.369149197608564e-01	 1.799247752241429e+00	 8.600616470300709e+00
 8.951424962981014e-01	 1.820390604276326e+00	 8.293645651642104e+00
 8.530550805492504e-01	 1.840488812887880e+00	 7.990427331125683e+00
 1.272919736010654e+00	 1.616017351505992e+00	 1.075679925972904e+01
 1.234481454975028e+00	 1.645567462007137e+00	 1.053443278887196e+01
 1.195423366864976e+00	 1.674156417019354e+00	 1.030201781345680e+01
 1.155781358319631e+00	 1.701765608553277e+00	 1.005613325589315e+01
 1.115592008058970e+00	 1.728378201161086e+00	 9.793999693033065e+00
 1.074892478665640e+00	 1.753979160081987e+00	 9.515622480571887e+00
 1.033720407385219e+00	 1.778555271575559e+00	 9.224204166096058e+00
 9.921137965906243e-01	 1.802095155453344e+00	 8.922082066968102e+00
 9.501109045462205e-01	 1.824589269878631e+00	 8.613034197161255e+00
 9.077501370910320e-01	 1.846029908561908e+00	 8.302207365550656e+00
 8.650699408386764e-01	 1.866411190534188e+00	 8.001555326349209e+00
 1.290599176788580e+00	 1.638462036943576e+00	 1.077370119842429e+01
 1.251627030738571e+00	 1.668422565646126e+00	 1.055573807167000e+01
 1.212026469182545e+00	 1.697408589477956e+00	 1.032661665450016e+01
 1.171833877185181e+00	 1.725401242005405e+00	 1.008292575909030e+01
 1.131086341504234e+00	 1.752383453954989e+00	 9.821956109042635e+00
 1.089821540869330e+00	 1.778339981749792e+00	 9.542372423796024e+00
 1.048077635265570e+00	 1.803257428125220e+00	 9.247273929728859e+00
 1.005893154876605e+00	 1.827124254834640e+00	 8.939803183407161e+00
 9.633068893315844e-01	 1.849930787515835e+00	 8.624347311641174e+00
 9.203577778839633e-01	 1.871669212847490e+00	 8.317887582728851e+00
 8.770848011281027e-01	 1.892333568180496e+00	 8.038697715320955e+00
 1.308278617566505e+00	 1.660906722381159e+00	 1.080472746788062e+01
 1.268772606502113e+00	 1.691277669285114e+00	 1.059107603292849e+01
 1.228629571500114e+00	 1.720660761936557e+00	 1.036458784093239e+01
 1.187886396050732e+00	 1.749036875457534e+00	 1.012187844888478e+01
 1.146580674949497e+00	 1.776388706748893e+00	 9.860327960275967e+00
 1.104750603073019e+00	 1.802700803417597e+00	 9.578246700276493e+00
 1.062434863145920e+00	 1.827959584674880e+00	 9.277513293915939e+00
 1.019672513162586e+00	 1.852153354215937e+00	 8.962246247118980e+00
 9.765028741169487e-01	 1.875272305153038e+00	 8.653641125268166e+00
 9.329654186768942e-01	 1.897308517133072e+00	 8.369141402010090e+00
 8.890996614175283e-01	 1.918255945826804e+00	 8.109379762284490e+00
 1.325958058344431e+00	 1.683351407818742e+00	 1.085509464285306e+01
 1.285918182265655e+00	 1.714132772924102e+00	 1.064552017500010e+01
 1.245232673817684e+00	 1.743912934395161e+00	 1.042084905743407e+01
 1.203938914916282e+00	 1.772672508909664e+00	 1.017773532398034e+01
 1.162075008394761e+00	 1.800393959542798e+00	 9.913662401655564e+00
 1.119679665276708e+00	 1.827061625085403e+00	 9.627092153148830e+00
 1.076792091026270e+00	 1.852661741224542e+00	 9.318613036722262e+00
 1.033451871448567e+00	 1.877182453597233e+00	 9.012190550647636e+00
 9.896988589023129e-01	 1.900613822790241e+00	 8.726245836832277e+00
 9.455730594698253e-01	 1.922947821418655e+00	 8.461127737592324e+00
 9.011145217069547e-01	 1.944178323473113e+00	 8.217705750660677e+00
 7.809659188126941e-01	 1.684954547010030e+00	 7.692102930018811e+00
 7.421814638916864e-01	 1.702394274688542e+00	 7.370204291338778e+00
 7.031777879206234e-01	 1.718871894706465e+00	 7.062344471479324e+00
 6.639891528229163e-01	 1.734386922451342e+00	 6.763810985381832e+00
 6.246494952094075e-01	 1.748940422075997e+00	 6.473976308419478e+00
 5.851923439092616e-01	 1.762534967728787e+00	 6.193509974782030e+00
 5.456507414643783e-01	 1.775174599912952e+00	 5.924460111900940e+00
 5.060571698851701e-01	 1.786864777380915e+00	 5.670108110497426e+00
 4.664434809226226e-01	 1.797612324985986e+00	 5.434624722723591e+00
 4.268408310681985e-01	 1.807425377925668e+00	 5.222566085835623e+00
 3.872796214499010e-01	 1.816313322818052e+00	 5.038251912113365e+00
 7.929807791021202e-01	 1.710876924656339e+00	 7.783708425045661e+00
 7.535996402592509e-01	 1.728584955837597e+00	 7.471115366706000e+00
 7.139959077347868e-01	 1.745316077701949e+00	 7.173741010455673e+00
 6.742043705586535e-01	 1.761069798181364e+00	 6.885129818765810e+00
 6.342594874433983e-01	 1.775847197800243e+00	 6.603355236499799e+00
 5.941953030463273e-01	 1.789650890309231e+00	 6.328592738762488e+00
 5.540453682561378e-01	 1.802484978373150e+00	 6.062883468642111e+00
 5.138426648064802e-01	 1.814355004725236e+00	 5.809935739211920e+00
 4.736195344752782e-01	 1.825267899216539e+00	 5.574702519933957e+00
 4.334076130846322e-01	 1.835231922201447e+00	 5.362778076757310e+00
 3.932377694722073e-01	 1.844256604707561e+00	 5.179661085101421e+00
 8.049956393915463e-01	 1.736799302302647e+00	 7.855866477626074e+00
 7.650178166268147e-01	 1.754775636986651e+00	 7.551143590956936e+00
 7.248140275489505e-01	 1.771760260697433e+00	 7.261727721025735e+00
 6.844195882943905e-01	 1.787752673911383e+00	 6.981035564484862e+00
 6.438694796773891e-01	 1.802753973524489e+00	 6.706205672622562e+00
 6.031982621833930e-01	 1.816766812889673e+00	 6.437640065290974e+00
 5.624399950478975e-01	 1.829795356833350e+00	 6.178172540446861e+00
 5.216281597277905e-01	 1.841845232069558e+00	 5.932805314780481e+00
 4.807955880279339e-01	 1.852923473447093e+00	 5.708175554106512e+00
 4.399743951010660e-01	 1.863038466477227e+00	 5.508278785403590e+00
 3.991959174945133e-01	 1.872199886597069e+00	 5.332902627842995e+00
 8.170104996809722e-01	 1.762721679948956e+00	 7.910579499624736e+00
 7.764359929943794e-01	 1.780966318135705e+00	 7.612091854138141e+00
 7.356321473631139e-01	 1.798204443692917e+00	 7.328351480374813e+00
 6.946348060301278e-01	 1.814435549641405e+00	 7.053583004843015e+00
 6.534794719113801e-01	 1.829660749248735e+00	 6.784516863907839e+00
 6.122012213204583e-01	 1.843882735470116e+00	 6.522493833244914e+00
 5.708346218396571e-01	 1.857105735293549e+00	 6.272051914666221e+00
 5.294136546491008e-01	 1.869335459413880e+00	 6.038845536968692e+00
 4.879716415805898e-01	 1.880579047677646e+00	 5.824424337159556e+00
 4.465411771174998e-01	 1.890845010753007e+00	 5.629556604383634e+00
 4.051540655168196e-01	 1.900143168486578e+00	 5.454377508755441e+00
 8.290253599703982e-01	 1.788644057595264e+00	 7.949868104766377e+00
 7.878541693619440e-01	 1.807156999284760e+00	 7.655765309738277e+00
 7.464502671772771e-01	 1.824648626688401e+00	 7.375627871054430e+00
 7.048500237658651e-01	 1.841118425371426e+00	 7.104844986957907e+00
 6.630894641453708e-01	 1.856567524972981e+00	 6.840699255504376e+00
 6.212041804575238e-01	 1.870998658050559e+00	 6.589202129411539e+00
 5.792292486314171e-01	 1.884416113753749e+00	 6.351651638522271e+00
 5.371991495704114e-01	 1.896825686758202e+00	 6.128463084886282e+00
 4.951476951332455e-01	 1.908234621908200e+00	 5.920507873306124e+00
 4.531079591339337e-01	 1.918651555028786e+00	 5.728500643074189e+00
 4.111122135391257e-01	 1.928086450376086e+00	 5.552551630432074e+00
 8.410402202598245e-01	 1.814566435241572e+00	 7.975784762834967e+00
 7.992723457295082e-01	 1.833347680433815e+00	 7.683984242802634e+00
 7.572683869914405e-01	 1.851092809683885e+00	 7.405561205028185e+00
 7.150652415016019e-01	 1.867801301101446e+00	 7.141776666228399e+00
 6.726994563793619e-01	 1.883474300697227e+00	 6.892078151029045e+00
 6.302071395945893e-01	 1.898114580631002e+00	 6.653597089125391e+00
 5.876238754231765e-01	 1.911726492213948e+00	 6.425859274217347e+00
 5.449846444917217e-01	 1.924315914102524e+00	 6.209545207974275e+00
 5.023237486859011e-01	 1.935890196138754e+00	 6.005700288936827e+00
 4.596747411503675e-01	 1.946458099304565e+00	 5.815155543012371e+00
 4.170703615614319e-01	 1.956029732265595e+00	 5.638130464311994e+00
 8.530550805492504e-01	 1.840488812887880e+00	 7.990427331125679e+00
 8.106905220970726e-01	 1.859538361582869e+00	 7.700031779578513e+00
 7.680865068056042e-01	 1.877536992679370e+00	 7.434598960597086e+00
 7.252804592373393e-01	 1.894484176831467e+00	 7.187900451974692e+00
 6.823094486133527e-01	 1.910381076421473e+00	 6.951396370985875e+00
 6.392100987316551e-01	 1.925230503211445e+00	 6.722634662739821e+00
 5.960185022149362e-01	 1.939036870674147e+00	 6.501791759764140e+00
 5.527701394130317e-01	 1.951806141446845e+00	 6.290039266198333e+00
 5.094998022385568e-01	 1.963545770369307e+00	 6.088770245756805e+00
 4.662415231668013e-01	 1.974264643580345e+00	 5.899059039162889e+00
 4.230285095837382e-01	 1.983973014155104e+00	 5.721321864268432e+00
 8.650699408386764e-01	 1.866411190534188e+00	 8.001555326349209e+00
 8.221086984646370e-01	 1.885729042731923e+00	 7.730005718678131e+00
 7.789046266197674e-01	 1.903981175674853e+00	 7.482567089435388e+00
 7.354956769730764e-01	 1.921167052561487e+00	 7.249997918766146e+00
 6.919194408473436e-01	 1.937287852145720e+00	 7.023880813285015e+00
 6.482130578687204e-01	 1.952346425791887e+00	 6.802229741157466e+00
 6.044131290066957e-01	 1.966347249134347e+00	 6.586126303742323e+00
 5.605556343343421e-01	 1.979296368791167e+00	 6.377426061300354e+00
 5.166758557912126e-01	 1.991201344599861e+00	 6.178004851677439e+00
 4.728083051832351e-01	 2.002071187856125e+00	 5.989263928070976e+00
 4.289866576060443e-01	 2.011916296044612e+00	 5.811856456091746e+00
 8.770848011281027e-01	 1.892333568180496e+00	 8.038697715320955e+00
 8.335268748322014e-01	 1.911919723880978e+00	 7.786207823684529e+00
 7.897227464339309e-01	 1.930425358670337e+00	 7.553675076533631e+00
 7.457108947088137e-01	 1.947849928291507e+00	 7.332467328614245e+00
 7.015294330813344e-01	 1.964194627869966e+00	 7.114443745573785e+00
 6.572160170057858e-01	 1.979462348372330e+00	 6.897928431114006e+00
 6.128077557984555e-01	 1.993657627594546e+00	 6.685129119091728e+00
 5.683411292556524e-01	 2.006786596135489e+00	 6.478745522216117e+00
 5.238519093438684e-01	 2.018856918830415e+00	 6.281232832480404e+00
 4.793750871996690e-01	 2.029877732131903e+00	 6.094359184176493e+00
 4.349448056283504e-01	 2.039859577934120e+00	 5.919007074100347e+00
 8.890996614175283e-01	 1.918255945826804e+00	 8.109379762284490e+00
 8.449450511997657e-01	 1.938110405030032e+00	 7.872742533101798e+00
 8.005408662480944e-01	 1.956869541665821e+00	 7.652037831381650e+00
 7.559261124445507e-01	 1.974532804021528e+00	 7.439560482369047e+00
 7.111394253153254e-01	 1.991101403594212e+00	 7.227719248725673e+00
 6.662189761428516e-01	 2.006578270952773e+00	 7.014940089841078e+00
 6.212023825902151e-01	 2.020968006054745e+00	 6.804683702909402e+00
 5.761266241769628e-01	 2.034276823479810e+00	 6.600621828646494e+00
 5.310279628965239e-01	 2.046512493060967e+00	 6.405847034185813e+00
 4.859418692161027e-01	 2.057684276407683e+00	 6.222490304869101e+00
 4.409029536506566e-01	 2.067802859823629e+00	 6.051607335015256e+00
 9.011145217069547e-01	 1.944178323473113e+00	 8.217705750660677e+00
 8.563632275673303e-01	 1.964301086179087e+00	 7.993639904565182e+00
 8.113589860622579e-01	 1.983313724661306e+00	 7.781691388960114e+00
 7.661413301802880e-01	 2.001215679751549e+00	 7.575392372096942e+00
 7.207494175493161e-01	 2.018008179318457e+00	 7.368099426566512e+00
 6.752219352799173e-01	 2.033694193533216e+00	 7.158169041568730e+00
 6.295970093819748e-01	 2.048278384514944e+00	 6.950318704624781e+00
 5.839121190982732e-01	 2.061767050824133e+00	 6.749288025220757e+00
 5.382040164491798e-01	 2.074168067291521e+00	 6.558826318588828e+00
 4.925086512325366e-01	 2.085490820683463e+00	 6.381378956268191e+00
 4.468611016729628e-01	 2.095746141713137e+00	 6.218069429622652e+00
 3.872796214499010e-01	 1.816313322818052e+00	 5.038251912113370e+00
 3.477894427501544e-01	 1.824286736055566e+00	 4.860114710254679e+00
 3.083990252295210e-01	 1.831357319878951e+00	 4.679591304312324e+00
 2.691361939001575e-01	 1.837537836608996e+00	 4.514947797058555e+00
 2.300278288545423e-01	 1.842842041464542e+00	 4.376223877251586e+00
 1.910998307188276e-01	 1.847284614382952e+00	 4.266662588804697e+00
 1.523770911663767e-01	 1.850881091243953e+00	 4.184450804765530e+00
 1.138834683958722e-01	 1.853647794879831e+00	 4.123875222149589e+00
 7.564176744998416e-02	 1.855601766234818e+00	 4.077342706165992e+00
 3.767372522509075e-02	 1.856760696014540e+00	 4.040838460503137e+00
 0.000000000000000e+00	 1.857142857142857e+00	 4.012376330508352e+00
 3.932377694722073e-01	 1.844256604707561e+00	 5.179661085101421e+00
 3.531400495616951e-01	 1.852352685841036e+00	 5.005972821220421e+00
 3.131436256176675e-01	 1.859532047877090e+00	 4.831201485714911e+00
 2.732767507293907e-01	 1.865807649479904e+00	 4.668031418868518e+00
 2.335667185292276e-01	 1.871193457487073e+00	 4.524316528562896e+00
 1.940398281145018e-01	 1.875704377681150e+00	 4.402653739104960e+00
 1.547213541073979e-01	 1.879356184955398e+00	 4.302303434472091e+00
 1.156355217558087e-01	 1.882165453262598e+00	 4.220798437175480e+00
 7.680548694921469e-02	 1.884149485715353e+00	 4.155294755233527e+00
 3.825332099778446e-02	 1.885326245183994e+00	 4.103714548176988e+00
 0.000000000000000e+00	 1.885714285714285e+00	 4.065727356212400e+00
 3.991959174945133e-01	 1.872199886597069e+00	 5.332902627843001e+00
 3.584906563732361e-01	 1.880418635626507e+00	 5.158980237498622e+00
 3.178882260058137e-01	 1.887706775875226e+00	 4.979268696365297e+00
 2.774173075586238e-01	 1.894077462350811e+00	 4.809196344679207e+00
 2.371056082039128e-01	 1.899544873509604e+00	 4.656637244876348e+00
 1.969798255101762e-01	 1.904124140979349e+00	 4.524634214748686e+00
 1.570656170484191e-01	 1.907831278666844e+00	 4.413230909804094e+00
 1.173875751157452e-01	 1.910683111645364e+00	 4.320978014313046e+00
 7.796920644844520e-02	 1.912697205195889e+00	 4.246174481757153e+00
 3.883291677047817e-02	 1.913891794353449e+00	 4.187901189442755e+00
 0.000000000000000e+00	 1.914285714285714e+00	 4.146899034866605e+00
 4.051540655168196e-01	 1.900143168486578e+00	 5.454377508755441e+00
 3.638412631847768e-01	 1.908484585411977e+00	 5.277797308906601e+00
 3.226328263939603e-01	 1.915881503873364e+00	 5.096306094400085e+00
 2.815578643878570e-01	 1.922347275221719e+00	 4.924967097343901e+00
 2.406444978785981e-01	 1.927896289532136e+00	 4.770913252154283e+00
 1.999198229058504e-01	 1.932543904277549e+00	 4.636958602976176e+00
 1.594098799894403e-01	 1.936306372378290e+00	 4.523325684124111e+00
 1.191396284756817e-01	 1.939200770028131e+00	 4.429031970054240e+00
 7.913292594767572e-02	 1.941244924676425e+00	 4.353004740369961e+00
 3.941251254317186e-02	 1.942457343522903e+00	 4.294989252938533e+00
 0.000000000000000e+00	 1.942857142857143e+00	 4.256308759276318e+00
 4.111122135391257e-01	 1.928086450376086e+00	 5.552551630432081e+00
 3.691918699963177e-01	 1.936550535197447e+00	 5.373973113135528e+00
 3.273774267821067e-01	 1.944056231871501e+00	 5.193475823815332e+00
 2.856984212170903e-01	 1.950617088092627e+00	 5.025676738775577e+00
 2.441833875532834e-01	 1.956247705554667e+00	 4.876299440819778e+00
 2.028598203015246e-01	 1.960963667575748e+00	 4.747353615699840e+00
 1.617541429304615e-01	 1.964781466089735e+00	 4.638739174535386e+00
 1.208916818356182e-01	 1.967718428410898e+00	 4.549493842033754e+00
 8.029664544690622e-02	 1.969792644156961e+00	 4.478762703224358e+00
 3.999210831586556e-02	 1.971022892692358e+00	 4.426562784196546e+00
 0.000000000000000e+00	 1.971428571428571e+00	 4.394408263682379e+00
 4.170703615614319e-01	 1.956029732265595e+00	 5.638130464311994e+00
 3.745424768078585e-01	 1.964616484982917e+00	 5.458605438991311e+00
 3.321220271702533e-01	 1.972230959869640e+00	 5.281588901202566e+00
 2.898389780463234e-01	 1.978886900963535e+00	 5.121381893450781e+00
 2.477222772279686e-01	 1.984599121577199e+00	 4.981736376974427e+00
 2.057998176971989e-01	 1.989383430873948e+00	 4.863383444631753e+00
 1.640984058714826e-01	 1.993256559801180e+00	 4.765504265573425e+00
 1.226437351955547e-01	 1.996236086793664e+00	 4.686817430641904e+00
 8.146036494613679e-02	 1.998340363637496e+00	 4.626382075302010e+00
 4.057170408855927e-02	 1.999588441861812e+00	 4.584198733276431e+00
 0.000000000000000e+00	 2.000000000000000e+00	 4.561681170801155e+00
 4.230285095837382e-01	 1.983973014155104e+00	 5.721321864268432e+00
 3.798930836193994e-01	 1.992682434768387e+00	 5.542323190414113e+00
 3.368666275583997e-01	 2.000405687867777e+00	 5.371112108356881e+00
 2.939795348755567e-01	 2.007156713834442e+00	 5.221871236232091e+00
 2.512611669026539e-01	 2.012950537599730e+00	 5.095959060818197e+00
 2.087398150928732e-01	 2.017803194172147e+00	 4.992457737071097e+00
 1.664426688125039e-01	 2.021731653512627e+00	 4.909541722495549e+00
 1.243957885554912e-01	 2.024753745176431e+00	 4.845381142587631e+00
 8.262408444536729e-02	 2.026888083118032e+00	 4.798755130389644e+00
 4.115129986125298e-02	 2.028153991031267e+00	 4.769466709024645e+00
 0.000000000000000e+00	 2.028571428571428e+00	 4.758640746157345e+00
 4.289866576060443e-01	 2.011916296044612e+00	 5.811856456091737e+00
 3.852436904309402e-01	 2.020748384553858e+00	 5.635317607271796e+00
 3.416112279465462e-01	 2.028580415865915e+00	 5.472173782408263e+00
 2.981200917047898e-01	 2.035426526705350e+00	 5.336672952824330e+00
 2.548000565773392e-01	 2.041301953622262e+00	 5.227504782070589e+00
 2.116798124885474e-01	 2.046222957470346e+00	 5.141838829725947e+00
 1.687869317535250e-01	 2.050206747224071e+00	 5.076666047883620e+00
 1.261478419154277e-01	 2.053271403559197e+00	 5.029491975108716e+00
 8.378780394459784e-02	 2.055435802598568e+00	 4.998734585157564e+00
 4.173089563394667e-02	 2.056719540200721e+00	 4.983928757367616e+00
 0.000000000000000e+00	 2.057142857142856e+00	 4.985827839555762e+00
 4.349448056283504e-01	 2.039859577934120e+00	 5.919007074100343e+00
 3.905942972424811e-01	 2.048814334339328e+00	 5.747343761266927e+00
 3.463558283346926e-01	 2.056755143864053e+00	 5.594568609192797e+00
 3.022606485340230e-01	 2.063696339576257e+00	 5.475061271377803e+00
 2.583389462520244e-01	 2.069653369644793e+00	 5.384720158982079e+00
 2.146198098842217e-01	 2.074642720768545e+00	 5.318648311714661e+00
 1.711311946945462e-01	 2.078681840935517e+00	 5.272590834942508e+00
 1.278998952753642e-01	 2.081789061941964e+00	 5.243389175291668e+00
 8.495152344382838e-02	 2.083983522079103e+00	 5.229135326865716e+00
 4.231049140664037e-02	 2.085285089370175e+00	 5.229139161338326e+00
 0.000000000000000e+00	 2.085714285714285e+00	 5.243808995746862e+00
 4.409029536506566e-01	 2.067802859823629e+00	 6.051607335015264e+00
 3.959449040540218e-01	 2.076880284124798e+00	 5.887736685138405e+00
 3.511004287228393e-01	 2.084929871862190e+00	 5.747761514153185e+00
 3.064012053632561e-01	 2.091966152447165e+00	 5.646062153105182e+00
 2.618778359267097e-01	 2.098004785667324e+00	 5.575767438162948e+00
 2.175598072798959e-01	 2.103062484066744e+00	 5.529872980205349e+00
 1.734754576355673e-01	 2.107156934646962e+00	 5.502933665103907e+00
 1.296519486353007e-01	 2.110306720324730e+00	 5.491247605230035e+00
 8.611524294305886e-02	 2.112531241559638e+00	 5.492736008541738e+00
 4.289008717933407e-02	 2.113850638539629e+00	 5.506644260776713e+00
 0.000000000000000e+00	 2.114285714285714e+00	 5.533174718281819e+00
 4.468611016729628e-01	 2.095746141713137e+00	 6.218069429622645e+00
 4.012955108655628e-01	 2.104946233910269e+00	 6.065427359607322e+00
 3.558450291109858e-01	 2.113104599860328e+00	 5.940890734997401e+00
 3.105417621924895e-01	 2.120235965318073e+00	 5.858458220400776e+00
 2.654167256013950e-01	 2.126356201689856e+00	 5.808630124220568e+00
 2.204998046755703e-01	 2.131482247364944e+00	 5.782370245378202e+00
 1.758197205765885e-01	 2.135632028358408e+00	 5.773220592465444e+00
 1.314040019952372e-01	 2.138824378707497e+00	 5.777180840478634e+00
 8.727896244228942e-02	 2.141078961040174e+00	 5.792280524001904e+00
 4.346968295202780e-02	 2.142416187709084e+00	 5.817982289868993e+00
 0.000000000000000e+00	 2.142857142857142e+00	 5.854537872259071e+00
 2.142857142857142e+00	 0.000000000000000e+00	 1.192324416329968e+01
 2.142416187709084e+00	 4.346968295202659e-02	 1.197703992328279e+01
 2.141078961040175e+00	 8.727896244228835e-02	 1.201092162811490e+01
 2.138824378707497e+00	 1.314040019952363e-01	 1.203294255874595e+01
 2.135632028358408e+00	 1.758197205765877e-01	 1.205014014240347e+01
 2.131482247364945e+00	 2.204998046755697e-01	 1.206825122852850e+01
 2.126356201689855e+00	 2.654167256013946e-01	 1.209143793786720e+01
 2.120235965318073e+00	 3.105417621924892e-01	 1.212205485550467e+01
 2.113104599860328e+00	 3.558450291109857e-01	 1.216049530484172e+01
 2.104946233910269e+00	 4.012955108655630e-01	 1.220461334700179e+01
 2.095746141713138e+00	 4.468611016729627e-01	 1.225574825845712e+01
 2.171428571428571e+00	 0.000000000000000e+00	 1.183798940148429e+01
 2.170981736878538e+00	 4.404927872472028e-02	 1.189168920669375e+01
 2.169626680520711e+00	 8.844268194151883e-02	 1.192440637127733e+01
 2.167342037090264e+00	 1.331560553551728e-01	 1.194483146445252e+01
 2.164107122069853e+00	 1.781639835176089e-01	 1.196066772178817e+01
 2.159902010663143e+00	 2.234398020712439e-01	 1.197827963563462e+01
 2.154707617712387e+00	 2.689556152760799e-01	 1.200233852269158e+01
 2.148505778188981e+00	 3.146823190217224e-01	 1.203549753835537e+01
 2.141279327858466e+00	 3.605896294991322e-01	 1.207813637313006e+01
 2.133012183695739e+00	 4.066461176771037e-01	 1.212617371597394e+01
 2.123689423602646e+00	 4.528192496952688e-01	 1.217837278448647e+01
 2.200000000000000e+00	 0.000000000000000e+00	 1.179765244235087e+01
 2.199547286047994e+00	 4.462887449741396e-02	 1.184861987553127e+01
 2.198174400001245e+00	 8.960640144074937e-02	 1.187708617286695e+01
 2.195859695473031e+00	 1.349081087151093e-01	 1.189245163704470e+01
 2.192582215781299e+00	 1.805082464586301e-01	 1.190320813542141e+01
 2.188321773961343e+00	 2.263797994669182e-01	 1.191651632658056e+01
 2.183059033734918e+00	 2.724945049507650e-01	 1.193776436981132e+01
 2.176775591059888e+00	 3.188228758509555e-01	 1.197014231469315e+01
 2.169454055856603e+00	 3.653342298872785e-01	 1.201427499637941e+01
 2.161078133481209e+00	 4.119967244886447e-01	 1.206357317756602e+01
 2.151632705492154e+00	 4.587773977175749e-01	 1.211485264264032e+01
 2.228571428571428e+00	 0.000000000000000e+00	 1.179841645771539e+01
 2.228112835217449e+00	 4.520847027010766e-02	 1.184485418595730e+01
 2.226722119481781e+00	 9.077012093997987e-02	 1.186692451424425e+01
 2.224377353855797e+00	 1.366601620750457e-01	 1.187449999557246e+01
 2.221057309492744e+00	 1.828525093996513e-01	 1.187666306141208e+01
 2.216741537259541e+00	 2.293197968625924e-01	 1.188181415795924e+01
 2.211410449757450e+00	 2.760333946254503e-01	 1.189643042764714e+01
 2.205045403930796e+00	 3.229634326801887e-01	 1.192450995785884e+01
 2.197628783854741e+00	 3.700788302754250e-01	 1.196721784791091e+01
 2.189144083266679e+00	 4.173473313001854e-01	 1.201484929463948e+01
 2.179575987381664e+00	 4.647355457398811e-01	 1.206319601869446e+01
 2.257142857142857e+00	 0.000000000000000e+00	 1.179741460909985e+01
 2.256678384386902e+00	 4.578806604280133e-02	 1.184100238139301e+01
 2.255269838962317e+00	 9.193384043921035e-02	 1.185952668290107e+01
 2.252895012238564e+00	 1.384122154349822e-01	 1.186309439856387e+01
 2.249532403204189e+00	 1.851967723406724e-01	 1.186105913909695e+01
 2.245161300557741e+00	 2.322597942582667e-01	 1.186165254190693e+01
 2.239761865779982e+00	 2.795722843001356e-01	 1.187155673043368e+01
 2.233315216801703e+00	 3.271039895094218e-01	 1.189540879614878e+01
 2.225803511852879e+00	 3.748234306635715e-01	 1.193512589641515e+01
 2.217210033052150e+00	 4.226979381117262e-01	 1.197819673257471e+01
 2.207519269271171e+00	 4.706936937621872e-01	 1.202159446129118e+01
 2.285714285714285e+00	 0.000000000000000e+00	 1.177737269048987e+01
 2.285243933556357e+00	 4.636766181549502e-02	 1.181989102691291e+01
 2.283817558442852e+00	 9.309755993844088e-02	 1.183678039228514e+01
 2.281412670621330e+00	 1.401642687949187e-01	 1.183829207941806e+01
 2.278007496915635e+00	 1.875410352816936e-01	 1.183400306619099e+01
 2.273581063855940e+00	 2.351997916539410e-01	 1.183246186642569e+01
 2.268113281802512e+00	 2.831111739748208e-01	 1.184077474615993e+01
 2.261585029672611e+00	 3.312445463386550e-01	 1.186412222285671e+01
 2.253978239851016e+00	 3.795680310517179e-01	 1.190471107718935e+01
 2.245275982837620e+00	 4.280485449232670e-01	 1.194680145849879e+01
 2.235462551160680e+00	 4.766518417844934e-01	 1.198701168929632e+01
 2.314285714285713e+00	 0.000000000000000e+00	 1.173994669436898e+01
 2.313809482725810e+00	 4.694725758818870e-02	 1.178277434656190e+01
 2.312365277923388e+00	 9.426127943767136e-02	 1.179958621207931e+01
 2.309930329004096e+00	 1.419163221548551e-01	 1.180068288769497e+01
 2.306482590627080e+00	 1.898852982227147e-01	 1.179577640996446e+01
 2.302000827154139e+00	 2.381397890496152e-01	 1.179365355094247e+01
 2.296464697825044e+00	 2.866500636495060e-01	 1.180177884993068e+01
 2.289854842543518e+00	 3.353851031678882e-01	 1.182582628795398e+01
 2.282152967849155e+00	 3.843126314398644e-01	 1.186792960457010e+01
 2.273341932623089e+00	 4.333991517348078e-01	 1.190978149216246e+01
 2.263405833050187e+00	 4.826099898067994e-01	 1.194893219590009e+01
 2.342857142857142e+00	 0.000000000000000e+00	 1.168662364848587e+01
 2.342375031895264e+00	 4.752685336088239e-02	 1.173078184597122e+01
 2.340912997403923e+00	 9.542499893690190e-02	 1.174876274881220e+01
 2.338447987386863e+00	 1.436683755147916e-01	 1.175081558294543e+01
 2.334957684338525e+00	 1.922295611637359e-01	 1.174669312111267e+01
 2.330420590452338e+00	 2.410797864452894e-01	 1.174533545731130e+01
 2.324816113847574e+00	 2.901889533241913e-01	 1.175449306925655e+01
 2.318124655414425e+00	 3.395256599971213e-01	 1.178027699826253e+01
 2.310327695847291e+00	 3.890572318280109e-01	 1.182436292034679e+01
 2.301407882408560e+00	 4.387497585463487e-01	 1.186647552237410e+01
 2.291349114939696e+00	 4.885681378291057e-01	 1.190519180881672e+01
 2.371428571428570e+00	 0.000000000000000e+00	 1.161873179445294e+01
 2.370940581064719e+00	 4.810644913357608e-02	 1.166492645643562e+01
 2.369460716884459e+00	 9.658871843613238e-02	 1.168505294741268e+01
 2.366965645769629e+00	 1.454204288747281e-01	 1.168920248333115e+01
 2.363432778049970e+00	 1.945738241047571e-01	 1.168706782304705e+01
 2.358840353750537e+00	 2.440197838409636e-01	 1.168765069998460e+01
 2.353167529870106e+00	 2.937278429988765e-01	 1.169890829359671e+01
 2.346394468285334e+00	 3.436662168263546e-01	 1.172732542392208e+01
 2.338502423845429e+00	 3.938018322161573e-01	 1.177374165654850e+01
 2.329473832194031e+00	 4.441003653578894e-01	 1.181662931041472e+01
 2.319292396829205e+00	 4.945262858514119e-01	 1.185556316674256e+01
 2.399999999999999e+00	 0.000000000000000e+00	 1.153745003930198e+01
 2.399506130234173e+00	 4.868604490626976e-02	 1.158611209898415e+01
 2.398008436364995e+00	 9.775243793536288e-02	 1.160912994923812e+01
 2.395483304152396e+00	 1.471724822346645e-01	 1.161632379637069e+01
 2.391907871761416e+00	 1.969180870457782e-01	 1.161721879039751e+01
 2.387260117048736e+00	 2.469597812366380e-01	 1.162077944259476e+01
 2.381518945892637e+00	 2.972667326735618e-01	 1.163508305368953e+01
 2.374664281156241e+00	 3.478067736555878e-01	 1.166691761862280e+01
 2.366677151843568e+00	 3.985464326043038e-01	 1.171593971547660e+01
 2.357539781979499e+00	 4.494509721694303e-01	 1.176013917114254e+01
 2.347235678718713e+00	 5.004844338737180e-01	 1.179997149612494e+01
 2.428571428571428e+00	 0.000000000000000e+00	 1.144381673987123e+01
 2.428071679403629e+00	 4.926564067896345e-02	 1.149514071621077e+01
 2.426556155845532e+00	 9.891615743459344e-02	 1.152160254310230e+01
 2.424000962535164e+00	 1.489245355946011e-01	 1.153263165798857e+01
 2.420382965472862e+00	 1.992623499867995e-01	 1.153747074096327e+01
 2.415679880346936e+00	 2.498997786323122e-01	 1.154494060277525e+01
 2.409870361915170e+00	 3.008056223482472e-01	 1.156314429339520e+01
 2.402934094027150e+00	 3.519473304848211e-01	 1.159909460597397e+01
 2.394851879841706e+00	 4.032910329924504e-01	 1.165096847875010e+01
 2.385605731764971e+00	 4.548015789809714e-01	 1.169704451292773e+01
 2.375178960608223e+00	 5.064425818960244e-01	 1.173848555731898e+01
 2.095746141713138e+00	 4.468611016729627e-01	 1.225574825845712e+01
 2.085490820683464e+00	 4.925086512325353e-01	 1.230671856012951e+01
 2.074168067291523e+00	 5.382040164491788e-01	 1.234685988894810e+01
 2.061767050824133e+00	 5.839121190982721e-01	 1.238024871928011e+01
 2.048278384514945e+00	 6.295970093819743e-01	 1.241149132360960e+01
 2.033694193533217e+00	 6.752219352799169e-01	 1.244583525237786e+01
 2.018008179318458e+00	 7.207494175493158e-01	 1.248924020490229e+01
 2.001215679751549e+00	 7.661413301802877e-01	 1.254395705312588e+01
 1.983313724661306e+00	 8.113589860622575e-01	 1.259288958517186e+01
 1.964301086179087e+00	 8.563632275673305e-01	 1.263288041146174e+01
 1.944178323473112e+00	 9.011145217069549e-01	 1.266308692811164e+01
 2.123689423602646e+00	 4.528192496952688e-01	 1.217837278448647e+01
 2.113297364959243e+00	 4.990754332489691e-01	 1.222927453236590e+01
 2.101823641522075e+00	 5.453800700018343e-01	 1.227022967134501e+01
 2.089257278168455e+00	 5.916976140195827e-01	 1.230518714321416e+01
 2.075588762975144e+00	 6.379916361737337e-01	 1.233861607937632e+01
 2.060810116113660e+00	 6.842248944169822e-01	 1.237564807625050e+01
 2.044914955042704e+00	 7.303594097833068e-01	 1.242217546626435e+01
 2.027898555481570e+00	 7.763565479160250e-01	 1.247711619184093e+01
 2.009757907656790e+00	 8.221771058764212e-01	 1.252608324959916e+01
 1.990491767328142e+00	 8.677814039348950e-01	 1.256774807871841e+01
 1.970100701119422e+00	 9.131293819963811e-01	 1.260116746166635e+01
 2.151632705492154e+00	 4.587773977175749e-01	 1.211485264264032e+01
 2.141103909235022e+00	 5.056422152654029e-01	 1.216420056842643e+01
 2.129479215752629e+00	 5.525561235544899e-01	 1.220473457334544e+01
 2.116747505512776e+00	 5.994831089408927e-01	 1.224014061108572e+01
 2.102899141435344e+00	 6.463862629654935e-01	 1.227462654805990e+01
 2.087926038694102e+00	 6.932278535540476e-01	 1.231309902720668e+01
 2.071821730766950e+00	 7.399694020172976e-01	 1.236129259065130e+01
 2.054581431211591e+00	 7.865717656517620e-01	 1.241442745065303e+01
 2.036202090652274e+00	 8.329952256905846e-01	 1.246237135209753e+01
 2.016682448477196e+00	 8.791995803024593e-01	 1.250432748820858e+01
 1.996023078765728e+00	 9.251442422858069e-01	 1.253927004305742e+01
 2.179575987381664e+00	 4.647355457398811e-01	 1.206319601869446e+01
 2.168910453510802e+00	 5.122089972818368e-01	 1.210955629898121e+01
 2.157134789983183e+00	 5.597321771071457e-01	 1.214854312080125e+01
 2.144237732857098e+00	 6.072686038622028e-01	 1.218343350263551e+01
 2.130209519895542e+00	 6.547808897572530e-01	 1.221804007662553e+01
 2.115041961274545e+00	 7.022308126911132e-01	 1.225692655376251e+01
 2.098728506491196e+00	 7.495793942512884e-01	 1.230524327783055e+01
 2.081264306941611e+00	 7.967869833874990e-01	 1.235543850504852e+01
 2.062646273647758e+00	 8.438133455047480e-01	 1.240150668354132e+01
 2.042873129626251e+00	 8.906177566700237e-01	 1.244260418562438e+01
 2.021945456412037e+00	 9.371591025752330e-01	 1.247763937476229e+01
 2.207519269271171e+00	 4.706936937621872e-01	 1.202159446129118e+01
 2.196716997786580e+00	 5.187757792982703e-01	 1.206360698869056e+01
 2.184790364213736e+00	 5.669082306598013e-01	 1.210004794959902e+01
 2.171727960201419e+00	 6.150540987835131e-01	 1.213362860169694e+01
 2.157519898355741e+00	 6.631755165490125e-01	 1.216762220064020e+01
 2.142157883854988e+00	 7.112337718281788e-01	 1.220612230815453e+01
 2.125635282215443e+00	 7.591893864852792e-01	 1.225300783349456e+01
 2.107947182671632e+00	 8.070022011232362e-01	 1.229988692350162e+01
 2.089090456643242e+00	 8.546314653189113e-01	 1.234342697874964e+01
 2.069063810775305e+00	 9.020359330375878e-01	 1.238274116451988e+01
 2.047867834058345e+00	 9.491739628646592e-01	 1.241668770267657e+01
 2.235462551160680e+00	 4.766518417844934e-01	 1.198701168929632e+01
 2.224523542062360e+00	 5.253425613147042e-01	 1.202478092480514e+01
 2.212445938444290e+00	 5.740842842124572e-01	 1.205785835733972e+01
 2.199218187545741e+00	 6.228395937048236e-01	 1.208951868866280e+01
 2.184830276815941e+00	 6.715701433407724e-01	 1.212237731312939e+01
 2.169273806435431e+00	 7.202367309652444e-01	 1.215992092447044e+01
 2.152542057939688e+00	 7.687993787192702e-01	 1.220433001909024e+01
 2.134630058401652e+00	 8.172174188589734e-01	 1.224769065482904e+01
 2.115534639638726e+00	 8.654495851330748e-01	 1.228824525697582e+01
 2.095254491924359e+00	 9.134541094051523e-01	 1.232506917038582e+01
 2.073790211704653e+00	 9.611888231540852e-01	 1.235698519456616e+01
 2.263405833050187e+00	 4.826099898067994e-01	 1.194893219590009e+01
 2.252330086338139e+00	 5.319093433311379e-01	 1.198581266115783e+01
 2.240101512674843e+00	 5.812603377651127e-01	 1.201890595005485e+01
 2.226708414890063e+00	 6.306250886261340e-01	 1.205000821430740e+01
 2.212140655276140e+00	 6.799647701325319e-01	 1.208153977570233e+01
 2.196389729015874e+00	 7.292396901023099e-01	 1.211779024677731e+01
 2.179448833663935e+00	 7.784093709532610e-01	 1.215913057776056e+01
 2.161312934131673e+00	 8.274326365947107e-01	 1.219893895279977e+01
 2.141978822634209e+00	 8.762677049472382e-01	 1.223624057948981e+01
 2.121445173073414e+00	 9.248722857727166e-01	 1.227007739273465e+01
 2.099712589350961e+00	 9.732036834435108e-01	 1.229925066878196e+01
 2.291349114939696e+00	 4.885681378291057e-01	 1.190519180881672e+01
 2.280136630613919e+00	 5.384761253475718e-01	 1.194179395425815e+01
 2.267757086905398e+00	 5.884363913177684e-01	 1.197593087149021e+01
 2.254198642234384e+00	 6.384105835474438e-01	 1.200916377744273e+01
 2.239451033736339e+00	 6.883593969242916e-01	 1.204301712966054e+01
 2.223505651596317e+00	 7.382426492393754e-01	 1.207941342935134e+01
 2.206355609388180e+00	 7.880193631872517e-01	 1.211749596971880e+01
 2.187995809861694e+00	 8.376478543304475e-01	 1.215388370067335e+01
 2.168423005629693e+00	 8.870858247614017e-01	 1.218784918864880e+01
 2.147635854222468e+00	 9.362904621402809e-01	 1.221840451207376e+01
 2.125634966997269e+00	 9.852185437329370e-01	 1.224434264333640e+01
 2.319292396829205e+00	 4.945262858514119e-01	 1.185556316674256e+01
 2.307943174889699e+00	 5.450429073640056e-01	 1.189253391457832e+01
 2.295412661135950e+00	 5.956124448704241e-01	 1.192820833670911e+01
 2.281688869578706e+00	 6.461960784687542e-01	 1.196393695819324e+01
 2.266761412196537e+00	 6.967540237160510e-01	 1.200090796708128e+01
 2.250621574176759e+00	 7.472456083764408e-01	 1.204049951324905e+01
 2.233262385112426e+00	 7.976293554212428e-01	 1.207903932362339e+01
 2.214678685591714e+00	 8.478630720661846e-01	 1.211293110193772e+01
 2.194867188625178e+00	 8.979039445755649e-01	 1.214365599628195e+01
 2.173826535371522e+00	 9.477086385078451e-01	 1.217083007183584e+01
 2.151557344643577e+00	 9.972334040223630e-01	 1.219325067832332e+01
 2.347235678718713e+00	 5.004844338737180e-01	 1.179997149612494e+01
 2.335749719165478e+00	 5.516096893804392e-01	 1.183799202862863e+01
 2.323068235366505e+00	 6.027884984230798e-01	 1.187573690135876e+01
 2.309179096923028e+00	 6.539815733900647e-01	 1.191437900502192e+01
 2.294071790656737e+00	 7.051486505078106e-01	 1.195480075075352e+01
 2.277737496757201e+00	 7.562485675135066e-01	 1.199766735355239e+01
 2.260169160836673e+00	 8.072393476552334e-01	 1.203858229863280e+01
 2.241361561321734e+00	 8.580782898019219e-01	 1.207471989921766e+01
 2.221311371620661e+00	 9.087220643897284e-01	 1.210438639227960e+01
 2.200017216520577e+00	 9.591268148754097e-01	 1.212826614818710e+01
 2.177479722289885e+00	 1.009248264311789e+00	 1.214708698723606e+01
 2.375178960608223e+00	 5.064425818960244e-01	 1.173848555731898e+01
 2.363556263441258e+00	 5.581764713968733e-01	 1.177826757442630e+01
 2.350723809597059e+00	 6.099645519757358e-01	 1.181864800941171e+01
 2.336669324267350e+00	 6.617670683113752e-01	 1.186066461019674e+01
 2.321382169116937e+00	 7.135432772995706e-01	 1.190493382222168e+01
 2.304853419337646e+00	 7.652515266505722e-01	 1.195132844899690e+01
 2.287075936560920e+00	 8.168493398892247e-01	 1.199528038595811e+01
 2.268044437051756e+00	 8.682935075376593e-01	 1.203461389828259e+01
 2.247755554616146e+00	 9.195401842038921e-01	 1.206744617661242e+01
 2.226207897669632e+00	 9.705449912429747e-01	 1.209166594299190e+01
 2.203402099936194e+00	 1.021263124601215e+00	 1.210707829503906e+01
 1.944178323473112e+00	 9.011145217069549e-01	 1.266308692811164e+01
 1.922947821418656e+00	 9.455730594698242e-01	 1.268188455116601e+01
 1.900613822790243e+00	 9.896988589023119e-01	 1.268820373207569e+01
 1.877182453597235e+00	 1.033451871448566e+00	 1.268175216743608e+01
 1.852661741224541e+00	 1.076792091026269e+00	 1.266201308718413e+01
 1.827061625085403e+00	 1.119679665276708e+00	 1.263137414625136e+01
 1.800393959542798e+00	 1.162075008394760e+00	 1.259519023486706e+01
 1.772672508909664e+00	 1.203938914916281e+00	 1.255277528679056e+01
 1.743912934395161e+00	 1.245232673817684e+00	 1.250253097277465e+01
 1.714132772924102e+00	 1.285918182265655e+00	 1.244377439747917e+01
 1.683351407818742e+00	 1.325958058344431e+00	 1.237674992453024e+01
 1.970100701119422e+00	 9.131293819963811e-01	 1.260116746166635e+01
 1.948587125704237e+00	 9.581807002627551e-01	 1.262425918622363e+01
 1.925955340427445e+00	 1.002894843687676e+00	 1.263550900608804e+01
 1.902211552978531e+00	 1.047231229734547e+00	 1.263454291716145e+01
 1.877363897774202e+00	 1.091149318906619e+00	 1.262079520294299e+01
 1.851422446753209e+00	 1.134608727480398e+00	 1.259429913873245e+01
 1.824399212336702e+00	 1.177569341840023e+00	 1.256067036154299e+01
 1.796308142361793e+00	 1.219991433781832e+00	 1.252096395115927e+01
 1.767165106853763e+00	 1.261835776135253e+00	 1.247327994587104e+01
 1.736987876563089e+00	 1.303063758029197e+00	 1.241677751560407e+01
 1.705796093256326e+00	 1.343637499122357e+00	 1.235169355946513e+01
 1.996023078765728e+00	 9.251442422858069e-01	 1.253927004305742e+01
 1.974226429989819e+00	 9.707883410556860e-01	 1.256486328968576e+01
 1.951296858064649e+00	 1.016090828473040e+00	 1.257932870078211e+01
 1.927240652359828e+00	 1.061010588020528e+00	 1.258219925997645e+01
 1.902066054323863e+00	 1.105506546786970e+00	 1.257284806242505e+01
 1.875783268421015e+00	 1.149537789684087e+00	 1.255286746265314e+01
 1.848404465130606e+00	 1.193063675285287e+00	 1.252330502810229e+01
 1.819943775813922e+00	 1.236043952647383e+00	 1.248507393524680e+01
 1.790417279312365e+00	 1.278438878452821e+00	 1.243867388839929e+01
 1.759842980202078e+00	 1.320209333792739e+00	 1.238304391833186e+01
 1.728240778693908e+00	 1.361316939900282e+00	 1.231836107799544e+01
 2.021945456412037e+00	 9.371591025752330e-01	 1.247763937476229e+01
 1.999865734275402e+00	 9.833959818486171e-01	 1.250419817053472e+01
 1.976638375701852e+00	 1.029286813258404e+00	 1.252039036566508e+01
 1.952269751741124e+00	 1.074789946306508e+00	 1.252564534735948e+01
 1.926768210873524e+00	 1.119863774667320e+00	 1.251942543960654e+01
 1.900144090088819e+00	 1.164466851887776e+00	 1.250556859137223e+01
 1.872409717924510e+00	 1.208558008730551e+00	 1.248259792290816e+01
 1.843579409266050e+00	 1.252096471512932e+00	 1.244672026284861e+01
 1.813669451770967e+00	 1.295041980770391e+00	 1.240043982730598e+01
 1.782698083841066e+00	 1.337354909556281e+00	 1.234437491116545e+01
 1.750685464131492e+00	 1.378996380678208e+00	 1.227858848075982e+01
 2.047867834058345e+00	 9.491739628646592e-01	 1.241668770267657e+01
 2.025505038560983e+00	 9.960036226415476e-01	 1.244292193445878e+01
 2.001979893339055e+00	 1.042482798043768e+00	 1.245956828753309e+01
 1.977298851122420e+00	 1.088569304592489e+00	 1.246594279759257e+01
 1.951470367423183e+00	 1.134221002547670e+00	 1.246251268827229e+01
 1.924504911756624e+00	 1.179395914091466e+00	 1.245407701955011e+01
 1.896414970718414e+00	 1.224052342175814e+00	 1.243693856877653e+01
 1.867215042718179e+00	 1.268148990378483e+00	 1.240654953741905e+01
 1.836921624229569e+00	 1.311645083087959e+00	 1.236039242654993e+01
 1.805553187480054e+00	 1.354500485319823e+00	 1.230266668672108e+01
 1.773130149569075e+00	 1.396675821456134e+00	 1.223431248002018e+01
 2.073790211704653e+00	 9.611888231540852e-01	 1.235698519456616e+01
 2.051144342846565e+00	 1.008611263434478e+00	 1.238183995957280e+01
 2.027321410976258e+00	 1.055678782829132e+00	 1.239787400153704e+01
 2.002327950503717e+00	 1.102348662878470e+00	 1.240428118529790e+01
 1.976172523972844e+00	 1.148578230428020e+00	 1.240380116461921e+01
 1.948865733424430e+00	 1.194324976295155e+00	 1.240019824963445e+01
 1.920420223512318e+00	 1.239546675621077e+00	 1.238824179491557e+01
 1.890850676170308e+00	 1.284201509244033e+00	 1.236289826221573e+01
 1.860173796688170e+00	 1.328248185405529e+00	 1.232015728131748e+01
 1.828408291119042e+00	 1.371646061083365e+00	 1.225992466687444e+01
 1.795574835006658e+00	 1.414355262234060e+00	 1.218758503097672e+01
 2.099712589350961e+00	 9.732036834435108e-01	 1.229925066878196e+01
 2.076783647132147e+00	 1.021218904227410e+00	 1.232189568279696e+01
 2.052662928613461e+00	 1.068874767614497e+00	 1.233644707804096e+01
 2.027357049885013e+00	 1.116128021164451e+00	 1.234204750622542e+01
 2.000874680522505e+00	 1.162935458308371e+00	 1.234504009252549e+01
 1.973226555092236e+00	 1.209254038498845e+00	 1.234584481337863e+01
 1.944425476306221e+00	 1.255041009066341e+00	 1.233857883816182e+01
 1.914486309622437e+00	 1.300254028109584e+00	 1.231768222108166e+01
 1.883425969146773e+00	 1.344851287723097e+00	 1.227855274731752e+01
 1.851263394758029e+00	 1.388791636846907e+00	 1.221827800241451e+01
 1.818019520444242e+00	 1.432034703011985e+00	 1.214058802005934e+01
 2.125634966997269e+00	 9.852185437329370e-01	 1.224434264333640e+01
 2.102422951417729e+00	 1.033826545020341e+00	 1.226416167037384e+01
 2.078004446250664e+00	 1.082070752399861e+00	 1.227654616173031e+01
 2.052386149266310e+00	 1.129907379450432e+00	 1.228161062327082e+01
 2.025576837072166e+00	 1.177292686188721e+00	 1.228807350560687e+01
 1.997587376760041e+00	 1.224183100702534e+00	 1.229301337867645e+01
 1.968430729100125e+00	 1.270535342511604e+00	 1.229009781157841e+01
 1.938121943074565e+00	 1.316306546975134e+00	 1.227320118489106e+01
 1.906678141605375e+00	 1.361454390040666e+00	 1.223707085587844e+01
 1.874118498397017e+00	 1.405937212610449e+00	 1.217809947438723e+01
 1.840464205881825e+00	 1.449714143789911e+00	 1.209564809679421e+01
 2.151557344643577e+00	 9.972334040223630e-01	 1.219325067832332e+01
 2.128062255703311e+00	 1.046434185813272e+00	 1.220983094856080e+01
 2.103345963887867e+00	 1.095266737185224e+00	 1.221954024169565e+01
 2.077415248647606e+00	 1.143686737736413e+00	 1.222496683411572e+01
 2.050278993621825e+00	 1.191649914069071e+00	 1.223481795406177e+01
 2.021948198427845e+00	 1.239112162906223e+00	 1.224376202306978e+01
 1.992435981894029e+00	 1.286029675956867e+00	 1.224500060872371e+01
 1.961757576526694e+00	 1.332359065840684e+00	 1.223180472058764e+01
 1.929930314063977e+00	 1.378057492358236e+00	 1.219821283598965e+01
 1.896973602036006e+00	 1.423082788373991e+00	 1.213984619046361e+01
 1.862908891319408e+00	 1.467393584567837e+00	 1.205482702352281e+01
 2.177479722289885e+00	 1.009248264311789e+00	 1.214708698723606e+01
 2.153701559988894e+00	 1.059041826606202e+00	 1.216020857281576e+01
 2.128687481525071e+00	 1.108462721970589e+00	 1.216690013324411e+01
 2.102444348028901e+00	 1.157466096022393e+00	 1.217395574524362e+01
 2.074981150171486e+00	 1.206007141949421e+00	 1.218724038045240e+01
 2.046309020095651e+00	 1.254041225109913e+00	 1.220018766003947e+01
 2.016441234687933e+00	 1.301524009402131e+00	 1.220551994793591e+01
 1.985393209978823e+00	 1.348411584706235e+00	 1.219586892892413e+01
 1.953182486522579e+00	 1.394660594675805e+00	 1.216450597817845e+01
 1.919828705674994e+00	 1.440228364137533e+00	 1.210620178774862e+01
 1.885353576756992e+00	 1.485073025345762e+00	 1.201835223537478e+01
 2.203402099936194e+00	 1.021263124601215e+00	 1.210707829503906e+01
 2.179340864274476e+00	 1.071649467399134e+00	 1.211670341583647e+01
 2.154028999162274e+00	 1.121658706755953e+00	 1.212065676091017e+01
 2.127473447410199e+00	 1.171245454308375e+00	 1.213046076670880e+01
 2.099683306721147e+00	 1.220364369829772e+00	 1.214733615050896e+01
 2.070669841763458e+00	 1.268970287313603e+00	 1.216440360549758e+01
 2.040446487481838e+00	 1.317018342847394e+00	 1.217389654510253e+01
 2.009028843430952e+00	 1.364464103571786e+00	 1.216777330198285e+01
 1.976434658981182e+00	 1.411263696993375e+00	 1.213848026174862e+01
 1.942683809313982e+00	 1.457373939901075e+00	 1.207985717037132e+01
 1.907798262194575e+00	 1.502752466123689e+00	 1.199358994013690e+01
 1.683351407818742e+00	 1.325958058344431e+00	 1.237674992453024e+01
 1.651590031395588e+00	 1.365315752083963e+00	 1.228851897574022e+01
 1.618871599594059e+00	 1.403955654115061e+00	 1.217082937820564e+01
 1.585220778817881e+00	 1.441843201287125e+00	 1.203237422508906e+01
 1.550663885233137e+00	 1.478944978600472e+00	 1.188263872017932e+01
 1.515228816828316e+00	 1.515228816828316e+00	 1.173021636028444e+01
 1.478944978600471e+00	 1.550663885233136e+00	 1.157508320147325e+01
 1.441843201287126e+00	 1.585220778817881e+00	 1.141200825521081e+01
 1.403955654115061e+00	 1.618871599594059e+00	 1.123799695466379e+01
 1.365315752083964e+00	 1.651590031395587e+00	 1.105246790735712e+01
 1.325958058344431e+00	 1.683351407818742e+00	 1.085509464285306e+01
 1.705796093256326e+00	 1.343637499122357e+00	 1.235169355946513e+01
 1.673611231814195e+00	 1.383519962111749e+00	 1.226612436648521e+01
 1.640456554255313e+00	 1.422675062836594e+00	 1.215272997973844e+01
 1.606357055868786e+00	 1.461067777304287e+00	 1.202020197347260e+01
 1.571339403702912e+00	 1.498664244981811e+00	 1.187856856609108e+01
 1.535431867719360e+00	 1.535431867719360e+00	 1.173617234180512e+01
 1.498664244981811e+00	 1.571339403702912e+00	 1.159047439694922e+01
 1.461067777304287e+00	 1.606357055868786e+00	 1.143734426683918e+01
 1.422675062836595e+00	 1.640456554255313e+00	 1.127206783226213e+01
 1.383519962111750e+00	 1.673611231814194e+00	 1.109342619288643e+01
 1.343637499122357e+00	 1.705796093256326e+00	 1.090084501725789e+01
 1.728240778693908e+00	 1.361316939900282e+00	 1.231836107799544e+01
 1.695632432232803e+00	 1.401724172139536e+00	 1.223362907700640e+01
 1.662041508916568e+00	 1.441394471558129e+00	 1.212234112137963e+01
 1.627493332919691e+00	 1.480292353321449e+00	 1.199322673444352e+01
 1.592014922172687e+00	 1.518383511363151e+00	 1.185951434723379e+01
 1.555634918610405e+00	 1.555634918610405e+00	 1.172600860409876e+01
 1.518383511363151e+00	 1.592014922172686e+00	 1.158831749961442e+01
 1.480292353321448e+00	 1.627493332919691e+00	 1.144218643400842e+01
 1.441394471558129e+00	 1.662041508916567e+00	 1.128307785623775e+01
 1.401724172139536e+00	 1.695632432232802e+00	 1.110852793249942e+01
 1.361316939900282e+00	 1.728240778693908e+00	 1.091775094716059e+01
 1.750685464131492e+00	 1.378996380678208e+00	 1.227858848075982e+01
 1.717653632651410e+00	 1.419928382167321e+00	 1.219287859315011e+01
 1.683626463577822e+00	 1.460113880279663e+00	 1.208150662319797e+01
 1.648629609970596e+00	 1.499516929338610e+00	 1.195493980603519e+01
 1.612690440642462e+00	 1.538102777744490e+00	 1.182961565382355e+01
 1.575837969501448e+00	 1.575837969501448e+00	 1.170390751122932e+01
 1.538102777744490e+00	 1.612690440642462e+00	 1.157286629030230e+01
 1.499516929338610e+00	 1.648629609970596e+00	 1.143166187110698e+01
 1.460113880279663e+00	 1.683626463577821e+00	 1.127598213292337e+01
 1.419928382167323e+00	 1.717653632651410e+00	 1.110271617434279e+01
 1.378996380678208e+00	 1.750685464131491e+00	 1.091074999130646e+01
 1.773130149569075e+00	 1.396675821456134e+00	 1.223431248002018e+01
 1.739674833070018e+00	 1.438132592195108e+00	 1.214582261575628e+01
 1.705211418239076e+00	 1.478833289001197e+00	 1.203217492380660e+01
 1.669765887021501e+00	 1.518741505355772e+00	 1.191067314542152e+01
 1.633365959112237e+00	 1.557822044125829e+00	 1.179294868329567e+01
 1.596041020392492e+00	 1.596041020392492e+00	 1.167399473379336e+01
 1.557822044125829e+00	 1.633365959112237e+00	 1.154831187932607e+01
 1.518741505355772e+00	 1.669765887021501e+00	 1.141049014829495e+01
 1.478833289001197e+00	 1.705211418239075e+00	 1.125576291552367e+01
 1.438132592195108e+00	 1.739674833070018e+00	 1.108096653193446e+01
 1.396675821456134e+00	 1.773130149569075e+00	 1.088482032395400e+01
 1.795574835006658e+00	 1.414355262234060e+00	 1.218758503097672e+01
 1.761696033488626e+00	 1.456336802222894e+00	 1.209452969154344e+01
 1.726796372900330e+00	 1.497552697722731e+00	 1.197852142625695e+01
 1.690902164072406e+00	 1.537966081372933e+00	 1.186440366946708e+01
 1.654041477582012e+00	 1.577541310507169e+00	 1.175351593917148e+01
 1.616244071283536e+00	 1.616244071283537e+00	 1.164032651649228e+01
 1.577541310507169e+00	 1.654041477582012e+00	 1.151878139504941e+01
 1.537966081372934e+00	 1.690902164072406e+00	 1.138288172314846e+01
 1.497552697722731e+00	 1.726796372900330e+00	 1.122728700074084e+01
 1.456336802222894e+00	 1.761696033488626e+00	 1.104825674901534e+01
 1.414355262234060e+00	 1.795574835006658e+00	 1.084495145278941e+01
 1.818019520444242e+00	 1.432034703011985e+00	 1.214058802005934e+01
 1.783717233907234e+00	 1.474541012250680e+00	 1.204120200042730e+01
 1.748381327561583e+00	 1.516272106444264e+00	 1.192722057265005e+01
 1.712038441123311e+00	 1.557190657390095e+00	 1.182001210266105e+01
 1.674716996051787e+00	 1.597260576888509e+00	 1.171523300739983e+01
 1.636447122174581e+00	 1.636447122174581e+00	 1.160687706810024e+01
 1.597260576888509e+00	 1.674716996051786e+00	 1.148832607202183e+01
 1.557190657390096e+00	 1.712038441123311e+00	 1.135297723353278e+01
 1.516272106444266e+00	 1.748381327561584e+00	 1.119489972082382e+01
 1.474541012250681e+00	 1.783717233907234e+00	 1.100953631619653e+01
 1.432034703011986e+00	 1.818019520444242e+00	 1.079611496772439e+01
 1.840464205881825e+00	 1.449714143789911e+00	 1.209564809679421e+01
 1.805738434325841e+00	 1.492745222278465e+00	 1.198951749076329e+01
 1.769966282222837e+00	 1.534991515165799e+00	 1.188209180598414e+01
 1.733174718174217e+00	 1.576415233407257e+00	 1.178127521326082e+01
 1.695392514521562e+00	 1.616979843269848e+00	 1.168191545627943e+01
 1.656650173065625e+00	 1.656650173065625e+00	 1.157752606337968e+01
 1.616979843269849e+00	 1.695392514521562e+00	 1.146090943732535e+01
 1.576415233407257e+00	 1.733174718174216e+00	 1.132483754729621e+01
 1.534991515165800e+00	 1.769966282222837e+00	 1.116276536354589e+01
 1.492745222278467e+00	 1.805738434325841e+00	 1.096955054848206e+01
 1.449714143789911e+00	 1.840464205881824e+00	 1.074323531794059e+01
 1.862908891319408e+00	 1.467393584567837e+00	 1.205482702352281e+01
 1.827759634744450e+00	 1.510949432306252e+00	 1.194754062353369e+01
 1.791551236884092e+00	 1.553710923887333e+00	 1.184678299954775e+01
 1.754310995225121e+00	 1.595639809424418e+00	 1.175185232542981e+01
 1.716068032991338e+00	 1.636699109651188e+00	 1.165726584954016e+01
 1.676853223956669e+00	 1.676853223956669e+00	 1.155604624750293e+01
 1.636699109651188e+00	 1.716068032991338e+00	 1.144039558684995e+01
 1.595639809424418e+00	 1.754310995225121e+00	 1.130243278023931e+01
 1.553710923887334e+00	 1.791551236884092e+00	 1.113496772278218e+01
 1.510949432306253e+00	 1.827759634744449e+00	 1.093228353085411e+01
 1.467393584567837e+00	 1.862908891319407e+00	 1.069434778675465e+01
 1.885353576756992e+00	 1.485073025345762e+00	 1.201835223537478e+01
 1.849780835163057e+00	 1.529153642334038e+00	 1.191928388660893e+01
 1.813136191545346e+00	 1.572430332608867e+00	 1.182480818081327e+01
 1.775447272276026e+00	 1.614864385441580e+00	 1.173527194286583e+01
 1.736743551461112e+00	 1.656418376032527e+00	 1.164486086315328e+01
 1.697056274847713e+00	 1.697056274847714e+00	 1.154609113443779e+01
 1.656418376032528e+00	 1.736743551461112e+00	 1.143053754400373e+01
 1.614864385441580e+00	 1.775447272276026e+00	 1.128963138347191e+01
 1.572430332608868e+00	 1.813136191545345e+00	 1.111549930746341e+01
 1.529153642334039e+00	 1.849780835163057e+00	 1.090181233215075e+01
 1.485073025345762e+00	 1.885353576756991e+00	 1.067332470926284e+01
 1.907798262194575e+00	 1.502752466123689e+00	 1.199358994013690e+01
 1.871802035581666e+00	 1.547357852361825e+00	 1.190693822948040e+01
 1.834721146206600e+00	 1.591149741330402e+00	 1.181953386638599e+01
 1.796583549326933e+00	 1.634088961458742e+00	 1.173491847473825e+01
 1.757419069930888e+00	 1.676137642413868e+00	 1.164813849732767e+01
 1.717259325738758e+00	 1.717259325738758e+00	 1.155118279155892e+01
 1.676137642413868e+00	 1.757419069930888e+00	 1.143496569406867e+01
 1.634088961458742e+00	 1.796583549326932e+00	 1.129018929444369e+01
 1.591149741330402e+00	 1.834721146206600e+00	 1.110825126538418e+01
 1.547357852361826e+00	 1.871802035581665e+00	 1.089159653479931e+01
 1.502752466123689e+00	 1.907798262194575e+00	 1.068596154970227e+01
 1.325958058344431e+00	 1.683351407818742e+00	 1.085509464285306e+01
 1.285918182265655e+00	 1.714132772924102e+00	 1.064552017500011e+01
 1.245232673817684e+00	 1.743912934395161e+00	 1.042084905743407e+01
 1.203938914916282e+00	 1.772672508909664e+00	 1.017773532398034e+01
 1.162075008394761e+00	 1.800393959542798e+00	 9.913662401655568e+00
 1.119679665276708e+00	 1.827061625085403e+00	 9.627092153148830e+00
 1.076792091026270e+00	 1.852661741224542e+00	 9.318613036722265e+00
 1.033451871448567e+00	 1.877182453597233e+00	 9.012190550647640e+00
 9.896988589023129e-01	 1.900613822790241e+00	 8.726245836832280e+00
 9.455730594698253e-01	 1.922947821418655e+00	 8.461127737592328e+00
 9.011145217069547e-01	 1.944178323473113e+00	 8.217705750660681e+00
 1.343637499122357e+00	 1.705796093256326e+00	 1.090084501725789e+01
 1.303063758029197e+00	 1.736987876563090e+00	 1.069360640241933e+01
 1.261835776135252e+00	 1.767165106853762e+00	 1.046862092590685e+01
 1.219991433781832e+00	 1.796308142361793e+00	 1.022257914191180e+01
 1.177569341840024e+00	 1.824399212336702e+00	 9.953067745044503e+00
 1.134608727480398e+00	 1.851422446753208e+00	 9.658741459508025e+00
 1.091149318906620e+00	 1.877363897774202e+00	 9.359644114899222e+00
 1.047231229734548e+00	 1.902211552978530e+00	 9.077227494224033e+00
 1.002894843687677e+00	 1.925955340427444e+00	 8.811448670756004e+00
 9.581807002627563e-01	 1.948587125704237e+00	 8.562925886598592e+00
 9.131293819963809e-01	 1.970100701119421e+00	 8.332787155239576e+00
 1.361316939900282e+00	 1.728240778693908e+00	 1.091775094716059e+01
 1.320209333792739e+00	 1.759842980202078e+00	 1.070968073632420e+01
 1.278438878452822e+00	 1.790417279312365e+00	 1.048101510096908e+01
 1.236043952647383e+00	 1.819943775813921e+00	 1.022846570446152e+01
 1.193063675285287e+00	 1.848404465130606e+00	 9.949708651433234e+00
 1.149537789684088e+00	 1.875783268421014e+00	 9.661183765343281e+00
 1.105506546786971e+00	 1.902066054323862e+00	 9.387754221869603e+00
 1.061010588020529e+00	 1.927240652359827e+00	 9.126846292934667e+00
 1.016090828473041e+00	 1.951296858064648e+00	 8.878565945522890e+00
 9.707883410556876e-01	 1.974226429989819e+00	 8.643823675901835e+00
 9.251442422858068e-01	 1.996023078765729e+00	 8.424021280566905e+00
 1.378996380678208e+00	 1.750685464131491e+00	 1.091074999130645e+01
 1.337354909556281e+00	 1.782698083841065e+00	 1.069867402648729e+01
 1.295041980770391e+00	 1.813669451770967e+00	 1.046294711623445e+01
 1.252096471512933e+00	 1.843579409266050e+00	 1.020028124625438e+01
 1.208558008730551e+00	 1.872409717924510e+00	 9.921314771853453e+00
 1.164466851887777e+00	 1.900144090088819e+00	 9.658009018072946e+00
 1.119863774667320e+00	 1.926768210873522e+00	 9.407388236545854e+00
 1.074789946306510e+00	 1.952269751741123e+00	 9.165488203739688e+00
 1.029286813258405e+00	 1.976638375701850e+00	 8.932027390614600e+00
 9.833959818486182e-01	 1.999865734275401e+00	 8.708241300114501e+00
 9.371591025752327e-01	 2.021945456412037e+00	 8.495822007541735e+00
 1.396675821456134e+00	 1.773130149569075e+00	 1.088482032395400e+01
 1.354500485319823e+00	 1.805553187480053e+00	 1.066556823116307e+01
 1.311645083087960e+00	 1.836921624229569e+00	 1.041939625867821e+01
 1.268148990378484e+00	 1.867215042718179e+00	 1.015006307537180e+01
 1.224052342175814e+00	 1.896414970718414e+00	 9.894481947695303e+00
 1.179395914091466e+00	 1.924504911756624e+00	 9.653866569861060e+00
 1.134221002547671e+00	 1.951470367423183e+00	 9.423030595771674e+00
 1.088569304592490e+00	 1.977298851122419e+00	 9.197538986142053e+00
 1.042482798043769e+00	 2.001979893339054e+00	 8.976196345435323e+00
 9.960036226415492e-01	 2.025505038560982e+00	 8.760522880185597e+00
 9.491739628646588e-01	 2.047867834058345e+00	 8.552518770336174e+00
 1.414355262234060e+00	 1.795574835006658e+00	 1.084495145278941e+01
 1.371646061083365e+00	 1.828408291119041e+00	 1.061536841323676e+01
 1.328248185405529e+00	 1.860173796688170e+00	 1.035739594772424e+01
 1.284201509244034e+00	 1.890850676170308e+00	 1.010685803083583e+01
 1.239546675621077e+00	 1.920420223512317e+00	 9.874030910310211e+00
 1.194324976295156e+00	 1.948865733424429e+00	 9.653284689878461e+00
 1.148578230428021e+00	 1.976172523972844e+00	 9.439250705647121e+00
 1.102348662878471e+00	 2.002327950503716e+00	 9.227334869467846e+00
 1.055678782829134e+00	 2.027321410976258e+00	 9.015375398046189e+00
 1.008611263434480e+00	 2.051144342846564e+00	 8.804941803466196e+00
 9.611888231540846e-01	 2.073790211704652e+00	 8.598361632272475e+00
 1.432034703011986e+00	 1.818019520444242e+00	 1.079611496772439e+01
 1.388791636846907e+00	 1.851263394758029e+00	 1.055307474618466e+01
 1.344851287723098e+00	 1.883425969146772e+00	 1.030465089638488e+01
 1.300254028109584e+00	 1.914486309622436e+00	 1.007695770451221e+01
 1.255041009066341e+00	 1.944425476306221e+00	 9.864288673896940e+00
 1.209254038498845e+00	 1.973226555092235e+00	 9.660673806368500e+00
 1.162935458308371e+00	 2.000874680522504e+00	 9.460521884626893e+00
 1.116128021164452e+00	 2.027357049885012e+00	 9.259169598056950e+00
 1.068874767614498e+00	 2.052662928613461e+00	 9.053811895472377e+00
 1.021218904227411e+00	 2.076783647132146e+00	 8.845705916559613e+00
 9.732036834435106e-01	 2.099712589350961e+00	 8.637526195848304e+00
 1.449714143789911e+00	 1.840464205881824e+00	 1.074323531794059e+01
 1.405937212610448e+00	 1.874118498397017e+00	 1.049733340955131e+01
 1.361454390040667e+00	 1.906678141605375e+00	 1.027167421113629e+01
 1.316306546975134e+00	 1.938121943074565e+00	 1.006444289622856e+01
 1.270535342511605e+00	 1.968430729100125e+00	 9.869448838910454e+00
 1.224183100702534e+00	 1.997587376760040e+00	 9.680324019389648e+00
 1.177292686188722e+00	 2.025576837072165e+00	 9.491209320220275e+00
 1.129907379450433e+00	 2.052386149266308e+00	 9.297349412248419e+00
 1.082070752399862e+00	 2.078004446250663e+00	 9.095703336548224e+00
 1.033826545020342e+00	 2.102422951417728e+00	 8.886962583524030e+00
 9.852185437329369e-01	 2.125634966997269e+00	 8.674118361070622e+00
 1.467393584567837e+00	 1.862908891319407e+00	 1.069434778675465e+01
 1.423082788373991e+00	 1.896973602036006e+00	 1.046734995924688e+01
 1.378057492358236e+00	 1.929930314063976e+00	 1.026225740398138e+01
 1.332359065840685e+00	 1.961757576526694e+00	 1.007324312134117e+01
 1.286029675956868e+00	 1.992435981894028e+00	 9.893568240522644e+00
 1.239112162906224e+00	 2.021948198427845e+00	 9.716402554214673e+00
 1.191649914069072e+00	 2.050278993621825e+00	 9.535568295197875e+00
 1.143686737736414e+00	 2.077415248647605e+00	 9.346183992401745e+00
 1.095266737185226e+00	 2.103345963887866e+00	 9.145202657204447e+00
 1.046434185813273e+00	 2.128062255703310e+00	 8.932803620782762e+00
 9.972334040223629e-01	 2.151557344643577e+00	 8.712178944889221e+00
 1.485073025345762e+00	 1.885353576756991e+00	 1.067332470926284e+01
 1.440228364137533e+00	 1.919828705674994e+00	 1.046659703829374e+01
 1.394660594675805e+00	 1.953182486522578e+00	 1.028002083773528e+01
 1.348411584706235e+00	 1.985393209978823e+00	 1.010713240407910e+01
 1.301524009402131e+00	 2.016441234687933e+00	 9.940563557798370e+00
 1.254041225109914e+00	 2.046309020095651e+00	 9.772951160330942e+00
 1.206007141949422e+00	 2.074981150171485e+00	 9.597742344491232e+00
 1.157466096022394e+00	 2.102444348028901e+00	 9.409890718387281e+00
 1.108462721970590e+00	 2.128687481525070e+00	 9.206423417163403e+00
 1.059041826606204e+00	 2.153701559988892e+00	 8.987270119016735e+00
 1.009248264311789e+00	 2.177479722289885e+00	 8.755688173306648e+00
 1.502752466123689e+00	 1.907798262194575e+00	 1.068596154970227e+01
 1.457373939901076e+00	 1.942683809313982e+00	 1.049834494599038e+01
 1.411263696993375e+00	 1.976434658981182e+00	 1.032840867643580e+01
 1.364464103571786e+00	 2.009028843430952e+00	 1.016972504891863e+01
 1.317018342847395e+00	 2.040446487481837e+00	 1.001420788682241e+01
 1.268970287313603e+00	 2.070669841763457e+00	 9.853883460522137e+00
 1.220364369829773e+00	 2.099683306721147e+00	 9.681761348494671e+00
 1.171245454308376e+00	 2.127473447410198e+00	 9.492586540332674e+00
 1.121658706755955e+00	 2.154028999162274e+00	 9.283451314440857e+00
 1.071649467399135e+00	 2.179340864274475e+00	 9.054357161347095e+00
 1.021263124601215e+00	 2.203402099936194e+00	 8.808570056648684e+00
 9.011145217069547e-01	 1.944178323473113e+00	 8.217705750660677e+00
 8.563632275673303e-01	 1.964301086179087e+00	 7.993639904565182e+00
 8.113589860622579e-01	 1.983313724661306e+00	 7.781691388960114e+00
 7.661413301802880e-01	 2.001215679751549e+00	 7.575392372096942e+00
 7.207494175493161e-01	 2.018008179318457e+00	 7.368099426566515e+00
 6.752219352799173e-01	 2.033694193533216e+00	 7.158169041568726e+00
 6.295970093819748e-01	 2.048278384514944e+00	 6.950318704624785e+00
 5.839121190982732e-01	 2.061767050824133e+00	 6.749288025220758e+00
 5.382040164491798e-01	 2.074168067291521e+00	 6.558826318588828e+00
 4.925086512325366e-01	 2.085490820683463e+00	 6.381378956268191e+00
 4.468611016729628e-01	 2.095746141713137e+00	 6.218069429622652e+00
 9.131293819963809e-01	 1.970100701119421e+00	 8.332787155239579e+00
 8.677814039348948e-01	 1.990491767328141e+00	 8.118183674163191e+00
 8.221771058764213e-01	 2.009757907656790e+00	 7.912137936080173e+00
 7.763565479160249e-01	 2.027898555481570e+00	 7.709567335950616e+00
 7.303594097833073e-01	 2.044914955042704e+00	 7.505057002152640e+00
 6.842248944169829e-01	 2.060810116113659e+00	 7.296755992513747e+00
 6.379916361737344e-01	 2.075588762975143e+00	 7.090331956879476e+00
 5.916976140195833e-01	 2.089257278168454e+00	 6.891504066902058e+00
 5.453800700018354e-01	 2.101823641522075e+00	 6.704508672461039e+00
 4.990754332489705e-01	 2.113297364959243e+00	 6.531865004680229e+00
 4.528192496952689e-01	 2.123689423602646e+00	 6.374465942661139e+00
 9.251442422858068e-01	 1.996023078765729e+00	 8.424021280566905e+00
 8.791995803024591e-01	 2.016682448477195e+00	 8.215991368851974e+00
 8.329952256905847e-01	 2.036202090652274e+00	 8.013202983854836e+00
 7.865717656517621e-01	 2.054581431211590e+00	 7.811952742017036e+00
 7.399694020172979e-01	 2.071821730766950e+00	 7.608143819177927e+00
 6.932278535540485e-01	 2.087926038694102e+00	 7.399723519723993e+00
 6.463862629654943e-01	 2.102899141435343e+00	 7.192696806130519e+00
 5.994831089408937e-01	 2.116747505512776e+00	 6.993498218190846e+00
 5.525561235544914e-01	 2.129479215752629e+00	 6.806500149043624e+00
 5.056422152654042e-01	 2.141103909235021e+00	 6.633870454951541e+00
 4.587773977175751e-01	 2.151632705492154e+00	 6.475786888628461e+00
 9.371591025752327e-01	 2.021945456412037e+00	 8.495822007541738e+00
 8.906177566700235e-01	 2.042873129626251e+00	 8.291468528482556e+00
 8.438133455047482e-01	 2.062646273647758e+00	 8.089275488308450e+00
 7.967869833874992e-01	 2.081264306941611e+00	 7.886911335860988e+00
 7.495793942512887e-01	 2.098728506491196e+00	 7.681608075749547e+00
 7.022308126911140e-01	 2.115041961274545e+00	 7.471427682376524e+00
 6.547808897572538e-01	 2.130209519895542e+00	 7.262005966782559e+00
 6.072686038622038e-01	 2.144237732857098e+00	 7.060201598505060e+00
 5.597321771071467e-01	 2.157134789983182e+00	 6.870144337286378e+00
 5.122089972818381e-01	 2.168910453510800e+00	 6.693190737766280e+00
 4.647355457398813e-01	 2.179575987381663e+00	 6.528278229085011e+00
 9.491739628646588e-01	 2.047867834058345e+00	 8.552518770336178e+00
 9.020359330375876e-01	 2.069063810775305e+00	 8.348929533543773e+00
 8.546314653189112e-01	 2.089090456643241e+00	 8.144648511716170e+00
 8.070022011232364e-01	 2.107947182671632e+00	 7.938707205911623e+00
 7.591893864852798e-01	 2.125635282215442e+00	 7.729646372902138e+00
 7.112337718281795e-01	 2.142157883854988e+00	 7.516034655285210e+00
 6.631755165490131e-01	 2.157519898355741e+00	 7.302607137567573e+00
 6.150540987835141e-01	 2.171727960201419e+00	 7.096262184652859e+00
 5.669082306598027e-01	 2.184790364213736e+00	 6.900479690654738e+00
 5.187757792982718e-01	 2.196716997786580e+00	 6.715309047878574e+00
 4.706936937621874e-01	 2.207519269271171e+00	 6.537879907798978e+00
 9.611888231540846e-01	 2.073790211704652e+00	 8.598361632272475e+00
 9.134541094051520e-01	 2.095254491924359e+00	 8.392602437139754e+00
 8.654495851330747e-01	 2.115534639638726e+00	 8.183523815447494e+00
 8.172174188589733e-01	 2.134630058401652e+00	 7.971510143386491e+00
 7.687993787192707e-01	 2.152542057939688e+00	 7.756388592801277e+00
 7.202367309652451e-01	 2.169273806435430e+00	 7.537551805661882e+00
 6.715701433407731e-01	 2.184830276815940e+00	 7.318629197139441e+00
 6.228395937048247e-01	 2.199218187545741e+00	 7.106066632188472e+00
 5.740842842124584e-01	 2.212445938444290e+00	 6.902257476550482e+00
 5.253425613147057e-01	 2.224523542062359e+00	 6.705622002545322e+00
 4.766518417844936e-01	 2.235462551160679e+00	 6.518140988573299e+00
 9.732036834435106e-01	 2.099712589350961e+00	 8.637526195848304e+00
 9.248722857727163e-01	 2.121445173073413e+00	 8.426633613938540e+00
 8.762677049472380e-01	 2.141978822634209e+00	 8.210016255399371e+00
 8.274326365947109e-01	 2.161312934131673e+00	 7.989399793237940e+00
 7.784093709532615e-01	 2.179448833663934e+00	 7.765873226556224e+00
 7.292396901023106e-01	 2.196389729015872e+00	 7.539858546237564e+00
 6.799647701325329e-01	 2.212140655276140e+00	 7.314008172921503e+00
 6.306250886261345e-01	 2.226708414890062e+00	 7.094463610017266e+00
 5.812603377651141e-01	 2.240101512674844e+00	 6.891577481488277e+00
 5.319093433311394e-01	 2.252330086338140e+00	 6.704075211923618e+00
 4.826099898067998e-01	 2.263405833050188e+00	 6.525974232132446e+00
 9.852185437329369e-01	 2.125634966997269e+00	 8.674118361070622e+00
 9.362904621402809e-01	 2.147635854222468e+00	 8.455092241714800e+00
 8.870858247614017e-01	 2.168423005629693e+00	 8.228157996867264e+00
 8.376478543304477e-01	 2.187995809861693e+00	 7.996369613960887e+00
 7.880193631872521e-01	 2.206355609388180e+00	 7.762051034688437e+00
 7.382426492393761e-01	 2.223505651596316e+00	 7.526794149721308e+00
 6.883593969242923e-01	 2.239451033736338e+00	 7.302744880402258e+00
 6.384105835474452e-01	 2.254198642234385e+00	 7.098820690816527e+00
 5.884363913177697e-01	 2.267757086905396e+00	 6.912608686307697e+00
 5.384761253475733e-01	 2.280136630613919e+00	 6.739341053819340e+00
 4.885681378291058e-01	 2.291349114939696e+00	 6.573197449057666e+00
 9.972334040223629e-01	 2.151557344643577e+00	 8.712178944889223e+00
 9.477086385078451e-01	 2.173826535371522e+00	 8.481974629606512e+00
 8.979039445755653e-01	 2.194867188625178e+00	 8.241902564086461e+00
 8.478630720661852e-01	 2.214678685591713e+00	 7.996330662380438e+00
 7.976293554212434e-01	 2.233262385112426e+00	 7.753066548629874e+00
 7.472456083764418e-01	 2.250621574176759e+00	 7.529949857561561e+00
 6.967540237160518e-01	 2.266761412196538e+00	 7.326201768018876e+00
 6.461960784687555e-01	 2.281688869578705e+00	 7.140977679228731e+00
 5.956124448704254e-01	 2.295412661135950e+00	 6.971750938765557e+00
 5.450429073640072e-01	 2.307943174889698e+00	 6.813855054572677e+00
 4.945262858514121e-01	 2.319292396829205e+00	 6.661762617034304e+00
 1.009248264311789e+00	 2.177479722289885e+00	 8.755688173306648e+00
 9.591268148754095e-01	 2.200017216520576e+00	 8.511208405858607e+00
 9.087220643897285e-01	 2.221311371620661e+00	 8.255128738218392e+00
 8.580782898019225e-01	 2.241361561321735e+00	 8.006085269521625e+00
 8.072393476552342e-01	 2.260169160836672e+00	 7.780494203585564e+00
 7.562485675135073e-01	 2.277737496757202e+00	 7.576430938363144e+00
 7.051486505078117e-01	 2.294071790656737e+00	 7.391558942928075e+00
 6.539815733900656e-01	 2.309179096923027e+00	 7.224266606695261e+00
 6.027884984230814e-01	 2.323068235366504e+00	 7.071929570588912e+00
 5.516096893804407e-01	 2.335749719165477e+00	 6.930089774898661e+00
 5.004844338737182e-01	 2.347235678718713e+00	 6.793661943827841e+00
 1.021263124601215e+00	 2.203402099936194e+00	 8.808570056648684e+00
 9.705449912429743e-01	 2.226207897669632e+00	 8.547218526522567e+00
 9.195401842038921e-01	 2.247755554616147e+00	 8.294799685743513e+00
 8.682935075376598e-01	 2.268044437051755e+00	 8.064891274374245e+00
 8.168493398892255e-01	 2.287075936560920e+00	 7.857095739813191e+00
 7.652515266505732e-01	 2.304853419337646e+00	 7.670160619553609e+00
 7.135432772995717e-01	 2.321382169116937e+00	 7.502475285020894e+00
 6.617670683113762e-01	 2.336669324267351e+00	 7.352025955944513e+00
 6.099645519757371e-01	 2.350723809597058e+00	 7.216094084630354e+00
 5.581764713968750e-01	 2.363556263441258e+00	 7.090552545646392e+00
 5.064425818960245e-01	 2.375178960608223e+00	 6.970926731148258e+00
 4.468611016729628e-01	 2.095746141713137e+00	 6.218069429622652e+00
 4.012955108655628e-01	 2.104946233910269e+00	 6.065427359607329e+00
 3.558450291109858e-01	 2.113104599860328e+00	 5.940890734997409e+00
 3.105417621924895e-01	 2.120235965318073e+00	 5.858458220400768e+00
 2.654167256013950e-01	 2.126356201689856e+00	 5.808630124220560e+00
 2.204998046755703e-01	 2.131482247364944e+00	 5.782370245378210e+00
 1.758197205765885e-01	 2.135632028358408e+00	 5.773220592465444e+00
 1.314040019952372e-01	 2.138824378707497e+00	 5.777180840478642e+00
 8.727896244228942e-02	 2.141078961040174e+00	 5.792280524001904e+00
 4.346968295202780e-02	 2.142416187709084e+00	 5.817982289869001e+00
 0.000000000000000e+00	 2.142857142857142e+00	 5.854537872259071e+00
 4.528192496952689e-01	 2.123689423602646e+00	 6.374465942661143e+00
 4.066461176771036e-01	 2.133012183695739e+00	 6.230279565302791e+00
 3.605896294991322e-01	 2.141279327858466e+00	 6.116308693433695e+00
 3.146823190217227e-01	 2.148505778188980e+00	 6.045818830195023e+00
 2.689556152760803e-01	 2.154707617712387e+00	 6.007209035783101e+00
 2.234398020712446e-01	 2.159902010663143e+00	 5.989909830965090e+00
 1.781639835176097e-01	 2.164107122069853e+00	 5.987049236963880e+00
 1.331560553551737e-01	 2.167342037090264e+00	 5.994988923981181e+00
 8.844268194151990e-02	 2.169626680520711e+00	 6.012551035931203e+00
 4.404927872472150e-02	 2.170981736878538e+00	 6.040088021273426e+00
 0.000000000000000e+00	 2.171428571428571e+00	 6.078529123705398e+00
 4.587773977175751e-01	 2.151632705492154e+00	 6.475786888628461e+00
 4.119967244886444e-01	 2.161078133481209e+00	 6.330969570795970e+00
 3.653342298872785e-01	 2.169454055856603e+00	 6.215178582516216e+00
 3.188228758509557e-01	 2.176775591059888e+00	 6.140607522194051e+00
 2.724945049507655e-01	 2.183059033734919e+00	 6.094395478919730e+00
 2.263797994669188e-01	 2.188321773961342e+00	 6.065349716930896e+00
 1.805082464586309e-01	 2.192582215781298e+00	 6.047193827897438e+00
 1.349081087151101e-01	 2.195859695473030e+00	 6.037717051869420e+00
 8.960640144075042e-02	 2.198174400001246e+00	 6.037613624919757e+00
 4.462887449741520e-02	 2.199547286047994e+00	 6.049179525395834e+00
 0.000000000000000e+00	 2.200000000000000e+00	 6.075013133819454e+00
 4.647355457398813e-01	 2.179575987381663e+00	 6.528278229085014e+00
 4.173473313001853e-01	 2.189144083266679e+00	 6.374131987343311e+00
 3.700788302754250e-01	 2.197628783854741e+00	 6.244420118804660e+00
 3.229634326801890e-01	 2.205045403930795e+00	 6.149644586254073e+00
 2.760333946254507e-01	 2.211410449757450e+00	 6.076452783211071e+00
 2.293197968625930e-01	 2.216741537259541e+00	 6.014044912577846e+00
 1.828525093996520e-01	 2.221057309492744e+00	 5.957862225843675e+00
 1.366601620750466e-01	 2.224377353855797e+00	 5.909004721400149e+00
 9.077012093998098e-02	 2.226722119481781e+00	 5.872553987286476e+00
 4.520847027010889e-02	 2.228112835217448e+00	 5.852194802480751e+00
 0.000000000000000e+00	 2.228571428571428e+00	 5.851606234686258e+00
 4.706936937621874e-01	 2.207519269271171e+00	 6.537879907798978e+00
 4.226979381117259e-01	 2.217210033052149e+00	 6.366113843895650e+00
 3.748234306635715e-01	 2.225803511852880e+00	 6.211543029632980e+00
 3.271039895094220e-01	 2.233315216801703e+00	 6.089213789888094e+00
 2.795722843001360e-01	 2.239761865779981e+00	 5.988643903060219e+00
 2.322597942582673e-01	 2.245161300557740e+00	 5.900548798596150e+00
 1.851967723406732e-01	 2.249532403204189e+00	 5.821305256659169e+00
 1.384122154349831e-01	 2.252895012238564e+00	 5.751216893028932e+00
 9.193384043921150e-02	 2.255269838962317e+00	 5.693025363863153e+00
 4.578806604280258e-02	 2.256678384386901e+00	 5.650622968420295e+00
 0.000000000000000e+00	 2.257142857142857e+00	 5.627943726656933e+00
 4.766518417844936e-01	 2.235462551160679e+00	 6.518140988573299e+00
 4.280485449232668e-01	 2.245275982837620e+00	 6.341024688764278e+00
 3.795680310517179e-01	 2.253978239851016e+00	 6.184339212765555e+00
 3.312445463386553e-01	 2.261585029672611e+00	 6.056277841579849e+00
 2.831111739748212e-01	 2.268113281802512e+00	 5.946436424896699e+00
 2.351997916539416e-01	 2.273581063855939e+00	 5.846564186017238e+00
 1.875410352816944e-01	 2.278007496915635e+00	 5.753936778664182e+00
 1.401642687949196e-01	 2.281412670621330e+00	 5.669558961596984e+00
 9.309755993844200e-02	 2.283817558442852e+00	 5.596687036805138e+00
 4.636766181549629e-02	 2.285243933556357e+00	 5.539559846701069e+00
 0.000000000000000e+00	 2.285714285714285e+00	 5.502312621784039e+00
 4.826099898067998e-01	 2.263405833050188e+00	 6.525974232132446e+00
 4.333991517348075e-01	 2.273341932623089e+00	 6.356028252723867e+00
 3.843126314398645e-01	 2.282152967849154e+00	 6.203367084405119e+00
 3.353851031678884e-01	 2.289854842543518e+00	 6.074845332251011e+00
 2.866500636495065e-01	 2.296464697825043e+00	 5.961311630221790e+00
 2.381397890496158e-01	 2.302000827154138e+00	 5.855574566260768e+00
 1.898852982227156e-01	 2.306482590627080e+00	 5.755833880125417e+00
 1.419163221548561e-01	 2.309930329004097e+00	 5.663786671622645e+00
 9.426127943767251e-02	 2.312365277923388e+00	 5.583168133719679e+00
 4.694725758819000e-02	 2.313809482725810e+00	 5.518507995616559e+00
 0.000000000000000e+00	 2.314285714285713e+00	 5.474073967529502e+00
 4.885681378291058e-01	 2.291349114939696e+00	 6.573197449057666e+00
 4.387497585463485e-01	 2.301407882408560e+00	 6.413890427854879e+00
 3.890572318280110e-01	 2.310327695847291e+00	 6.269550372574078e+00
 3.395256599971216e-01	 2.318124655414425e+00	 6.145478432276193e+00
 2.901889533241917e-01	 2.324816113847575e+00	 6.033551641486512e+00
 2.410797864452901e-01	 2.330420590452338e+00	 5.927645277182034e+00
 1.922295611637367e-01	 2.334957684338524e+00	 5.826895041930316e+00
 1.436683755147926e-01	 2.338447987386862e+00	 5.733666736787802e+00
 9.542499893690308e-02	 2.340912997403924e+00	 5.652122908239555e+00
 4.752685336088370e-02	 2.342375031895264e+00	 5.587012323404793e+00
 0.000000000000000e+00	 2.342857142857142e+00	 5.542650340565832e+00
 4.945262858514121e-01	 2.319292396829205e+00	 6.661762617034308e+00
 4.441003653578893e-01	 2.329473832194030e+00	 6.516067028967402e+00
 3.938018322161574e-01	 2.338502423845429e+00	 6.383847380598448e+00
 3.436662168263547e-01	 2.346394468285333e+00	 6.268749344811440e+00
 2.937278429988771e-01	 2.353167529870106e+00	 6.163438448513059e+00
 2.440197838409643e-01	 2.358840353750537e+00	 6.062838874393834e+00
 1.945738241047579e-01	 2.363432778049970e+00	 5.967019753023976e+00
 1.454204288747291e-01	 2.366965645769630e+00	 5.878975983891955e+00
 9.658871843613356e-02	 2.369460716884459e+00	 5.803228996591458e+00
 4.810644913357740e-02	 2.370940581064719e+00	 5.744657402056641e+00
 0.000000000000000e+00	 2.371428571428570e+00	 5.707522140196725e+00
 5.004844338737182e-01	 2.347235678718713e+00	 6.793661943827837e+00
 4.494509721694301e-01	 2.357539781979500e+00	 6.664052841680528e+00
 3.985464326043038e-01	 2.366677151843566e+00	 6.547251336426825e+00
 3.478067736555880e-01	 2.374664281156241e+00	 6.445242806063018e+00
 2.972667326735622e-01	 2.381518945892637e+00	 6.351255540561842e+00
 2.469597812366386e-01	 2.387260117048736e+00	 6.261215941173330e+00
 1.969180870457791e-01	 2.391907871761415e+00	 6.176108520468991e+00
 1.471724822346656e-01	 2.395483304152396e+00	 6.099500561376041e+00
 9.775243793536409e-02	 2.398008436364994e+00	 6.036185799034461e+00
 4.868604490627110e-02	 2.399506130234174e+00	 5.991064972787506e+00
 0.000000000000000e+00	 2.399999999999999e+00	 5.968224146534268e+00
 5.064425818960245e-01	 2.375178960608223e+00	 6.970926731148258e+00
 4.548015789809712e-01	 2.385605731764971e+00	 6.859381320108490e+00
 4.032910329924504e-01	 2.394851879841705e+00	 6.760790619302938e+00
 3.519473304848214e-01	 2.402934094027149e+00	 6.675558486229927e+00
 3.008056223482477e-01	 2.409870361915170e+00	 6.597289469031446e+00
 2.498997786323129e-01	 2.415679880346936e+00	 6.522835865498774e+00
 1.992623499868004e-01	 2.420382965472862e+00	 6.454062889553105e+00
 1.489245355946021e-01	 2.424000962535164e+00	 6.395035207097584e+00
 9.891615743459464e-02	 2.426556155845531e+00	 6.350712975885378e+00
 4.926564067896484e-02	 2.428071679403629e+00	 6.325891627391416e+00
 0.000000000000000e+00	 2.428571428571428e+00	 6.324342321627402e+00
 2.428571428571428e+00	 0.000000000000000e+00	 1.144381673987123e+01
 2.428071679403629e+00	 4.926564067896345e-02	 1.149514071621077e+01
 2.426556155845532e+00	 9.891615743459344e-02	 1.152160254310230e+01
 2.424000962535164e+00	 1.489245355946011e-01	 1.153263165798857e+01
 2.420382965472862e+00	 1.992623499867995e-01	 1.153747074096327e+01
 2.415679880346936e+00	 2.498997786323122e-01	 1.154494060277525e+01
 2.409870361915170e+00	 3.008056223482472e-01	 1.156314429339520e+01
 2.402934094027150e+00	 3.519473304848211e-01	 1.159909460597397e+01
 2.394851879841706e+00	 4.032910329924504e-01	 1.165096847875010e+01
 2.385605731764971e+00	 4.548015789809714e-01	 1.169704451292773e+01
 2.375178960608223e+00	 5.064425818960244e-01	 1.173848555731898e+01
 2.457142857142857e+00	 0.000000000000000e+00	 1.135827358624156e+01
 2.456637228573083e+00	 4.984523645165714e-02	 1.141101749464281e+01
 2.455103875326067e+00	 1.000798769338240e-01	 1.143994430680238e+01
 2.452518620917930e+00	 1.506765889545376e-01	 1.145401025490522e+01
 2.448858059184308e+00	 2.016066129278206e-01	 1.146209507417119e+01
 2.444099643645136e+00	 2.528397760279866e-01	 1.147280059486788e+01
 2.438221777937701e+00	 3.043445120229323e-01	 1.149418902134084e+01
 2.431203906898057e+00	 3.560878873140543e-01	 1.153344370893228e+01
 2.423026607839843e+00	 4.080356333805968e-01	 1.158705775107364e+01
 2.413671681550441e+00	 4.601521857925120e-01	 1.163435127114298e+01
 2.403122242497731e+00	 5.124007299183304e-01	 1.167701138801652e+01
 2.485714285714286e+00	 0.000000000000000e+00	 1.129907004790100e+01
 2.485202777742537e+00	 5.042483222435083e-02	 1.135096920302479e+01
 2.483651594806603e+00	 1.012435964330545e-01	 1.138022870401219e+01
 2.481036279300697e+00	 1.524286423144741e-01	 1.139528433766955e+01
 2.477333152895753e+00	 2.039508758688418e-01	 1.140460473263291e+01
 2.472519406943335e+00	 2.557797734236608e-01	 1.141652665414228e+01
 2.466573193960233e+00	 3.078834016976176e-01	 1.143903072717444e+01
 2.459473719768965e+00	 3.602284441432874e-01	 1.147943896274535e+01
 2.451201335837980e+00	 4.127802337687432e-01	 1.153245640066516e+01
 2.441737631335911e+00	 4.655027926040529e-01	 1.157914317084554e+01
 2.431065524387239e+00	 5.183588779406366e-01	 1.162154061524141e+01
 2.514285714285713e+00	 0.000000000000000e+00	 1.126387419789145e+01
 2.513768326911992e+00	 5.100442799704452e-02	 1.131308210335150e+01
 2.512199314287137e+00	 1.024073159322850e-01	 1.134095103054543e+01
 2.509553937683463e+00	 1.541806956744105e-01	 1.135533861077376e+01
 2.505808246607198e+00	 2.062951388098629e-01	 1.136424326817617e+01
 2.500939170241534e+00	 2.587197708193350e-01	 1.137567940431672e+01
 2.494924609982764e+00	 3.114222913723029e-01	 1.139749404999316e+01
 2.487743532639872e+00	 3.643690009725205e-01	 1.143710484813133e+01
 2.479376063836118e+00	 4.175248341568897e-01	 1.148739935062568e+01
 2.469803581121382e+00	 4.708533994155937e-01	 1.153177203554150e+01
 2.459008806276748e+00	 5.243170259629428e-01	 1.157246165751862e+01
 2.542857142857143e+00	 0.000000000000000e+00	 1.125037766621570e+01
 2.542333876081446e+00	 5.158402376973820e-02	 1.129547408150162e+01
 2.540747033767674e+00	 1.035710354315155e-01	 1.132064820272573e+01
 2.538071596066229e+00	 1.559327490343470e-01	 1.133311102470253e+01
 2.534283340318644e+00	 2.086394017508841e-01	 1.134032040104872e+01
 2.529358933539733e+00	 2.616597682150092e-01	 1.134989949911643e+01
 2.523276026005294e+00	 3.149611810469881e-01	 1.136949808203098e+01
 2.516013345510779e+00	 3.685095578017536e-01	 1.140657489300650e+01
 2.507550791834257e+00	 4.222694345450362e-01	 1.145224391285126e+01
 2.497869530906851e+00	 4.762040062271344e-01	 1.149270779002986e+01
 2.486952088166255e+00	 5.302751739852488e-01	 1.153027477008881e+01
 2.571428571428570e+00	 0.000000000000000e+00	 1.125629433111715e+01
 2.570899425250901e+00	 5.216361954243189e-02	 1.129629348340000e+01
 2.569294753248209e+00	 1.047347549307460e-01	 1.131789774608259e+01
 2.566589254448997e+00	 1.576848023942835e-01	 1.132759191468213e+01
 2.562758434030088e+00	 2.109836646919052e-01	 1.133221129547850e+01
 2.557778696837932e+00	 2.645997656106835e-01	 1.133890701010402e+01
 2.551627442027826e+00	 3.185000707216734e-01	 1.135505583249094e+01
 2.544283158381687e+00	 3.726501146309867e-01	 1.138806325921131e+01
 2.535725519832394e+00	 4.270140349331827e-01	 1.142746411478585e+01
 2.525935480692322e+00	 4.815546130386753e-01	 1.146253152575583e+01
 2.514895370055765e+00	 5.362333220075551e-01	 1.149558371581108e+01
 2.600000000000000e+00	 0.000000000000000e+00	 1.127801508275743e+01
 2.599464974420355e+00	 5.274321531512558e-02	 1.131257605222577e+01
 2.597842472728745e+00	 1.058984744299765e-01	 1.133065839652059e+01
 2.595106912831763e+00	 1.594368557542200e-01	 1.133767416910954e+01
 2.591233527741534e+00	 2.133279276329264e-01	 1.133935590513179e+01
 2.586198460136131e+00	 2.675397630063578e-01	 1.134250088761776e+01
 2.579978858050358e+00	 3.220389603963586e-01	 1.135427377111940e+01
 2.572552971252596e+00	 3.767906714602201e-01	 1.138179866329858e+01
 2.563900247830531e+00	 4.317586353213290e-01	 1.141364513041370e+01
 2.554001430477792e+00	 4.869052198502162e-01	 1.144192868872504e+01
 2.542838651945273e+00	 5.421914700298612e-01	 1.146908758128644e+01
 2.628571428571428e+00	 0.000000000000000e+00	 1.128692951040329e+01
 2.628030523589810e+00	 5.332281108781927e-02	 1.131668549652246e+01
 2.626390192209280e+00	 1.070621939292070e-01	 1.133311327087236e+01
 2.623624571214529e+00	 1.611889091141565e-01	 1.134077628365490e+01
 2.619708621452979e+00	 2.156721905739476e-01	 1.134456623944079e+01
 2.614618223434331e+00	 2.704797604020320e-01	 1.134974716743734e+01
 2.608330274072889e+00	 3.255778500710439e-01	 1.136198601228907e+01
 2.600822784123502e+00	 3.809312282894531e-01	 1.138685292340988e+01
 2.592074975828670e+00	 4.365032357094757e-01	 1.141147780755978e+01
 2.582067380263262e+00	 4.922558266617571e-01	 1.143168238065383e+01
 2.570781933834781e+00	 5.481496180521673e-01	 1.145157272715346e+01
 2.657142857142857e+00	 0.000000000000000e+00	 1.127434485807246e+01
 2.656596072759265e+00	 5.390240686051296e-02	 1.129933027083885e+01
 2.654937911689816e+00	 1.082259134284375e-01	 1.131416845187885e+01
 2.652142229597296e+00	 1.629409624740930e-01	 1.132260703876504e+01
 2.648183715164425e+00	 2.180164535149688e-01	 1.132876669005926e+01
 2.643037986732530e+00	 2.734197577977063e-01	 1.133719648880580e+01
 2.636681690095421e+00	 3.291167397457291e-01	 1.135291805046489e+01
 2.629092596994409e+00	 3.850717851186863e-01	 1.138054769597753e+01
 2.620249703826806e+00	 4.412478360976219e-01	 1.140680798215615e+01
 2.610133330048733e+00	 4.976064334732979e-01	 1.142708329731896e+01
 2.598725215724290e+00	 5.541077660744735e-01	 1.144328334236724e+01
 2.685714285714285e+00	 0.000000000000000e+00	 1.124301119112605e+01
 2.685161621928719e+00	 5.448200263320664e-02	 1.126300657402229e+01
 2.683485631170352e+00	 1.093896329276680e-01	 1.127607953237206e+01
 2.680659887980062e+00	 1.646930158340294e-01	 1.128519464987774e+01
 2.676658808875871e+00	 2.203607164559900e-01	 1.129372771732456e+01
 2.671457750030730e+00	 2.763597551933805e-01	 1.130553233301504e+01
 2.665033106117952e+00	 3.326556294204144e-01	 1.132499767882464e+01
 2.657362409865318e+00	 3.892123419479195e-01	 1.135574354524817e+01
 2.648424431824945e+00	 4.459924364857684e-01	 1.138454646605856e+01
 2.638199279834202e+00	 5.029570402848387e-01	 1.140802733997456e+01
 2.626668497613799e+00	 5.600659140967796e-01	 1.142774142279555e+01
 2.714285714285714e+00	 0.000000000000000e+00	 1.119569545074740e+01
 2.713727171098174e+00	 5.506159840590033e-02	 1.121020637764552e+01
 2.712033350650888e+00	 1.105533524268985e-01	 1.122108010836874e+01
 2.709177546362830e+00	 1.664450691939660e-01	 1.123053097236958e+01
 2.705133902587317e+00	 2.227049793970111e-01	 1.124121530593634e+01
 2.699877513328929e+00	 2.792997525890549e-01	 1.125630910076524e+01
 2.693384522140484e+00	 3.361945190950997e-01	 1.127957960658430e+01
 2.685632222736225e+00	 3.933528987771528e-01	 1.131364043126372e+01
 2.676599159823083e+00	 4.507370368739151e-01	 1.134569387685935e+01
 2.666265229619674e+00	 5.083076470963797e-01	 1.137330967903591e+01
 2.654611779503308e+00	 5.660240621190858e-01	 1.139770751327372e+01
 2.375178960608223e+00	 5.064425818960244e-01	 1.173848555731898e+01
 2.363556263441258e+00	 5.581764713968733e-01	 1.177826757442630e+01
 2.350723809597059e+00	 6.099645519757358e-01	 1.181864800941171e+01
 2.336669324267350e+00	 6.617670683113752e-01	 1.186066461019674e+01
 2.321382169116937e+00	 7.135432772995706e-01	 1.190493382222168e+01
 2.304853419337646e+00	 7.652515266505722e-01	 1.195132844899690e+01
 2.287075936560920e+00	 8.168493398892247e-01	 1.199528038595812e+01
 2.268044437051756e+00	 8.682935075376593e-01	 1.203461389828259e+01
 2.247755554616146e+00	 9.195401842038921e-01	 1.206744617661242e+01
 2.226207897669632e+00	 9.705449912429747e-01	 1.209166594299190e+01
 2.203402099936194e+00	 1.021263124601215e+00	 1.210707829503906e+01
 2.403122242497731e+00	 5.124007299183304e-01	 1.167701138801652e+01
 2.391362807717037e+00	 5.647432534133070e-01	 1.171830484381608e+01
 2.378379383827612e+00	 6.171406055283913e-01	 1.176105243065500e+01
 2.364159551611673e+00	 6.695525632326854e-01	 1.180618597725421e+01
 2.348692547577136e+00	 7.219379040913301e-01	 1.185408081255646e+01
 2.331969341918089e+00	 7.742544857876379e-01	 1.190377296152899e+01
 2.313982712285166e+00	 8.264593321232155e-01	 1.195086479210905e+01
 2.294727312781776e+00	 8.785087252733965e-01	 1.199352153986096e+01
 2.274199737611630e+00	 9.303583040180556e-01	 1.202966513764613e+01
 2.252398578818687e+00	 9.819631676105389e-01	 1.205690179277436e+01
 2.229324477582502e+00	 1.033277984890641e+00	 1.207286285319585e+01
 2.431065524387239e+00	 5.183588779406366e-01	 1.162154061524141e+01
 2.419169351992817e+00	 5.713100354297409e-01	 1.166310961224942e+01
 2.406034958058165e+00	 6.243166590810469e-01	 1.170708670066059e+01
 2.391649778955994e+00	 6.773380581539955e-01	 1.175431544739865e+01
 2.376002926037335e+00	 7.303325308830899e-01	 1.180494172192392e+01
 2.359085264498531e+00	 7.832574449247033e-01	 1.185712448661013e+01
 2.340889488009411e+00	 8.360693243572062e-01	 1.190684250996308e+01
 2.321410188511797e+00	 8.887239430091333e-01	 1.195236101165885e+01
 2.300643920607115e+00	 9.411764238322189e-01	 1.199137035270634e+01
 2.278589259967740e+00	 9.933813439781035e-01	 1.202115220530848e+01
 2.255246855228811e+00	 1.045292845180067e+00	 1.203892226972387e+01
 2.459008806276748e+00	 5.243170259629428e-01	 1.157246165751862e+01
 2.446975896268595e+00	 5.778768174461747e-01	 1.161305549668167e+01
 2.433690532288720e+00	 6.314927126337029e-01	 1.165708968414299e+01
 2.419140006300315e+00	 6.851235530753058e-01	 1.170535009404095e+01
 2.403313304497535e+00	 7.387271576748494e-01	 1.175777771968719e+01
 2.386201187078973e+00	 7.922604040617688e-01	 1.181162039026888e+01
 2.367796263733657e+00	 8.456793165911973e-01	 1.186339055056284e+01
 2.348093064241818e+00	 8.989391607448708e-01	 1.191127631916051e+01
 2.327088103602598e+00	 9.519945436463819e-01	 1.195270508957537e+01
 2.304779941116795e+00	 1.004799520345668e+00	 1.198459638797401e+01
 2.281169232875119e+00	 1.057307705469494e+00	 1.200370559475292e+01
 2.486952088166255e+00	 5.302751739852488e-01	 1.153027477008881e+01
 2.474782440544376e+00	 5.844435994626085e-01	 1.156861949320060e+01
 2.461346106519273e+00	 6.386687661863586e-01	 1.161149271350140e+01
 2.446630233644637e+00	 6.929090479966163e-01	 1.165966670985777e+01
 2.430623682957735e+00	 7.471217844666090e-01	 1.171288378504100e+01
 2.413317109659417e+00	 8.012633631988345e-01	 1.176753117181475e+01
 2.394703039457903e+00	 8.552893088251879e-01	 1.182071283483072e+01
 2.374775939971839e+00	 9.091543784806081e-01	 1.187043163950143e+01
 2.353532286598083e+00	 9.628126634605455e-01	 1.191382571890987e+01
 2.330970622265850e+00	 1.016217696713232e+00	 1.194741942670105e+01
 2.307091610521427e+00	 1.069322565758920e+00	 1.196746709623465e+01
 2.514895370055765e+00	 5.362333220075551e-01	 1.149558371581108e+01
 2.502588984820157e+00	 5.910103814790422e-01	 1.153037218149922e+01
 2.489001680749827e+00	 6.458448197390141e-01	 1.157080832156979e+01
 2.474120460988958e+00	 7.006945429179264e-01	 1.161770908274750e+01
 2.457934061417933e+00	 7.555164112583687e-01	 1.167056541850259e+01
 2.440433032239860e+00	 8.102663223358998e-01	 1.172515231744689e+01
 2.421609815182149e+00	 8.648993010591790e-01	 1.177903142064923e+01
 2.401458815701859e+00	 9.193695962163450e-01	 1.183000198207111e+01
 2.379976469593567e+00	 9.736307832747094e-01	 1.187489187777097e+01
 2.357161303414904e+00	 1.027635873080797e+00	 1.190980203087785e+01
 2.333013988167735e+00	 1.081337426048345e+00	 1.193044911542289e+01
 2.542838651945273e+00	 5.421914700298612e-01	 1.146908758128644e+01
 2.530395529095935e+00	 5.975771634954761e-01	 1.149896809851089e+01
 2.516657254980380e+00	 6.530208732916698e-01	 1.153561916538450e+01
 2.501610688333280e+00	 7.084800378392366e-01	 1.157997548231444e+01
 2.485244439878132e+00	 7.639110380501284e-01	 1.163123286113388e+01
 2.467548954820302e+00	 8.192692814729652e-01	 1.168479639537079e+01
 2.448516590906396e+00	 8.745092932931698e-01	 1.173857798242865e+01
 2.428141691431879e+00	 9.295848139520821e-01	 1.179016410926171e+01
 2.406420652589050e+00	 9.844489030888726e-01	 1.183605689741483e+01
 2.383351984563958e+00	 1.039054049448361e+00	 1.187191054287557e+01
 2.358936365814043e+00	 1.093352286337772e+00	 1.189287174125048e+01
 2.570781933834781e+00	 5.481496180521673e-01	 1.145157272715346e+01
 2.558202073371715e+00	 6.041439455119099e-01	 1.147513626833640e+01
 2.544312829210934e+00	 6.601969268443255e-01	 1.150656712643572e+01
 2.529100915677602e+00	 7.162655327605469e-01	 1.154700634086319e+01
 2.512554818338331e+00	 7.723056648418878e-01	 1.159531656672380e+01
 2.494664877400745e+00	 8.282722406100308e-01	 1.164678537404765e+01
 2.475423366630642e+00	 8.841192855271606e-01	 1.169958552395141e+01
 2.454824567161900e+00	 9.398000316878192e-01	 1.175108769756952e+01
 2.432864835584534e+00	 9.952670229030359e-01	 1.179745847523660e+01
 2.409542665713013e+00	 1.050472225815925e+00	 1.183388719205573e+01
 2.384858743460351e+00	 1.105367146627197e+00	 1.185492272586085e+01
 2.598725215724290e+00	 5.541077660744735e-01	 1.144328334236724e+01
 2.586008617647494e+00	 6.107107275283433e-01	 1.145967087669826e+01
 2.571968403441488e+00	 6.673729803969812e-01	 1.148434257411911e+01
 2.556591143021924e+00	 7.240510276818571e-01	 1.151937211426263e+01
 2.539865196798531e+00	 7.807002916336476e-01	 1.156325706134425e+01
 2.521780799981189e+00	 8.372751997470966e-01	 1.161144314678140e+01
 2.502330142354888e+00	 8.937292777611515e-01	 1.166228030693429e+01
 2.481507442891920e+00	 9.500152494235563e-01	 1.171292672095738e+01
 2.459309018580019e+00	 1.006085142717199e+00	 1.175920957249082e+01
 2.435733346862068e+00	 1.061890402183489e+00	 1.179584057485893e+01
 2.410781121106659e+00	 1.117382006916624e+00	 1.181690214194256e+01
 2.626668497613799e+00	 5.600659140967796e-01	 1.142774142279555e+01
 2.613815161923273e+00	 6.172775095447772e-01	 1.144673671955675e+01
 2.599623977672040e+00	 6.745490339496368e-01	 1.146903269982331e+01
 2.584081370366246e+00	 7.318365226031676e-01	 1.149766130928486e+01
 2.567175575258729e+00	 7.890949184254070e-01	 1.153549828572902e+01
 2.548896722561631e+00	 8.462781588841621e-01	 1.157908824727769e+01
 2.529236918079133e+00	 9.033392699951424e-01	 1.162687397924479e+01
 2.508190318621942e+00	 9.602304671592936e-01	 1.167581103992738e+01
 2.485753201575503e+00	 1.016903262531363e+00	 1.172138952097508e+01
 2.461924028011122e+00	 1.073308578551054e+00	 1.175783634413851e+01
 2.436703498752967e+00	 1.129396867206049e+00	 1.177969578276511e+01
 2.654611779503308e+00	 5.660240621190858e-01	 1.139770751327372e+01
 2.641621706199055e+00	 6.238442915612115e-01	 1.142131910338153e+01
 2.627279551902596e+00	 6.817250875022930e-01	 1.144755344918926e+01
 2.611571597710568e+00	 7.396220175244780e-01	 1.147843875168320e+01
 2.594485953718930e+00	 7.974895452171672e-01	 1.151244776359212e+01
 2.576012645142075e+00	 8.552811180212279e-01	 1.155002674210357e+01
 2.556143693803381e+00	 9.129492622291332e-01	 1.159355588805990e+01
 2.534873194351963e+00	 9.704456848950310e-01	 1.163983818114585e+01
 2.512197384570988e+00	 1.027721382345526e+00	 1.168403532327951e+01
 2.488114709160178e+00	 1.084726754918619e+00	 1.171988809232145e+01
 2.462625876399276e+00	 1.141411727495476e+00	 1.174330431481114e+01
 2.203402099936194e+00	 1.021263124601215e+00	 1.210707829503906e+01
 2.179340864274476e+00	 1.071649467399134e+00	 1.211670341583647e+01
 2.154028999162274e+00	 1.121658706755953e+00	 1.212065676091017e+01
 2.127473447410199e+00	 1.171245454308375e+00	 1.213046076670880e+01
 2.099683306721147e+00	 1.220364369829772e+00	 1.214733615050896e+01
 2.070669841763458e+00	 1.268970287313603e+00	 1.216440360549758e+01
 2.040446487481838e+00	 1.317018342847394e+00	 1.217389654510253e+01
 2.009028843430952e+00	 1.364464103571786e+00	 1.216777330198285e+01
 1.976434658981182e+00	 1.411263696993375e+00	 1.213848026174862e+01
 1.942683809313982e+00	 1.457373939901075e+00	 1.207985717037132e+01
 1.907798262194575e+00	 1.502752466123689e+00	 1.199358994013690e+01
 2.229324477582502e+00	 1.033277984890641e+00	 1.207286285319585e+01
 2.204980168560058e+00	 1.084257108192065e+00	 1.207849676923052e+01
 2.179370516799478e+00	 1.134854691541317e+00	 1.208017915959070e+01
 2.152502546791496e+00	 1.185024812594356e+00	 1.209196666957957e+01
 2.124385463270808e+00	 1.234721597710122e+00	 1.211151074658867e+01
 2.095030663431263e+00	 1.283899349517292e+00	 1.213168554946628e+01
 2.064451740275742e+00	 1.332512676292658e+00	 1.214425059945603e+01
 2.032664476883081e+00	 1.380516622437336e+00	 1.214048215739150e+01
 1.999686831439784e+00	 1.427866799310944e+00	 1.211196933434658e+01
 1.965538912952970e+00	 1.474519515664618e+00	 1.205156624590547e+01
 1.930242947632158e+00	 1.520431906901615e+00	 1.197286764041512e+01
 2.255246855228811e+00	 1.045292845180067e+00	 1.203892226972387e+01
 2.230619472845640e+00	 1.096864748984996e+00	 1.204399034127134e+01
 2.204712034436680e+00	 1.148050676326681e+00	 1.204347064760797e+01
 2.177531646172791e+00	 1.198804170880336e+00	 1.205541114495220e+01
 2.149087619820468e+00	 1.249078825590472e+00	 1.207560742580286e+01
 2.119391485099067e+00	 1.298828411720981e+00	 1.209674887148637e+01
 2.088456993069645e+00	 1.348007009737922e+00	 1.211016038653987e+01
 2.056300110335210e+00	 1.396569141302886e+00	 1.210645202086166e+01
 2.022939003898386e+00	 1.444469901628513e+00	 1.207634806104479e+01
 1.988394016591958e+00	 1.491665091428160e+00	 1.201292771232847e+01
 1.952687633069741e+00	 1.538111347679540e+00	 1.194563217307968e+01
 2.281169232875119e+00	 1.057307705469494e+00	 1.200370559475292e+01
 2.256258777131222e+00	 1.109472389777927e+00	 1.200909726998781e+01
 2.230053552073884e+00	 1.161246661112045e+00	 1.201129309808397e+01
 2.202560745554088e+00	 1.212583529166317e+00	 1.202188723481352e+01
 2.173789776370129e+00	 1.263436053470822e+00	 1.204078366536868e+01
 2.143752306766873e+00	 1.313757473924671e+00	 1.206085161378006e+01
 2.112462245863549e+00	 1.363501343183185e+00	 1.207302367210700e+01
 2.079935743787339e+00	 1.412621660168437e+00	 1.206726072078551e+01
 2.046191176356988e+00	 1.461073003946082e+00	 1.203341393251660e+01
 2.011249120230947e+00	 1.508810667191701e+00	 1.197112315967463e+01
 1.975132318507324e+00	 1.555790788457466e+00	 1.191398407842254e+01
 2.307091610521427e+00	 1.069322565758920e+00	 1.196746709623465e+01
 2.281898081416804e+00	 1.122080030570858e+00	 1.197324592183987e+01
 2.255395069711087e+00	 1.174442645897410e+00	 1.198007484330038e+01
 2.227589844935384e+00	 1.226362887452298e+00	 1.199235428203078e+01
 2.198491932919789e+00	 1.277793281351172e+00	 1.200817443090953e+01
 2.168113128434679e+00	 1.328686536128361e+00	 1.202521433279794e+01
 2.136467498657454e+00	 1.378995676628448e+00	 1.203418885908908e+01
 2.103571377239468e+00	 1.428674179033987e+00	 1.202442821661199e+01
 2.069443348815590e+00	 1.477676106263650e+00	 1.198490162950599e+01
 2.034104223869934e+00	 1.525956242955243e+00	 1.192840440350248e+01
 1.997577003944907e+00	 1.573470229235391e+00	 1.187972965055035e+01
 2.333013988167735e+00	 1.081337426048345e+00	 1.193044911542289e+01
 2.307537385702386e+00	 1.134687671363789e+00	 1.193763606420173e+01
 2.280736587348291e+00	 1.187638630682774e+00	 1.194874044953216e+01
 2.252618944316681e+00	 1.240142245738279e+00	 1.196396113857175e+01
 2.223194089469450e+00	 1.292150509231523e+00	 1.197886507980068e+01
 2.192473950102484e+00	 1.343615598332050e+00	 1.199099628960389e+01
 2.160472751451358e+00	 1.394490010073712e+00	 1.199493083824307e+01
 2.127207010691596e+00	 1.444726697899538e+00	 1.197939224264909e+01
 2.092695521274192e+00	 1.494279208581219e+00	 1.193423168913304e+01
 2.056959327508922e+00	 1.543101818718785e+00	 1.188615353754203e+01
 2.020021689382490e+00	 1.591149670013317e+00	 1.184438296153940e+01
 2.358936365814043e+00	 1.093352286337772e+00	 1.189287174125048e+01
 2.333176689987968e+00	 1.147295312156720e+00	 1.190251540441746e+01
 2.306078104985493e+00	 1.200834615468138e+00	 1.191755937556448e+01
 2.277648043697978e+00	 1.253921604024260e+00	 1.193537061823234e+01
 2.247896246019110e+00	 1.306507737111873e+00	 1.195115200340825e+01
 2.216834771770289e+00	 1.358544660535739e+00	 1.195927185270557e+01
 2.184478004245261e+00	 1.409984343518975e+00	 1.195642703751318e+01
 2.150842644143725e+00	 1.460779216765088e+00	 1.193348413587736e+01
 2.115947693732795e+00	 1.510882310898789e+00	 1.188666958324733e+01
 2.079814431147910e+00	 1.560247394482327e+00	 1.184546717965569e+01
 2.042466374820074e+00	 1.608829110791243e+00	 1.180916802136158e+01
 2.384858743460351e+00	 1.105367146627197e+00	 1.185492272586085e+01
 2.358815994273551e+00	 1.159902952949650e+00	 1.186802778106389e+01
 2.331419622622696e+00	 1.214030600253502e+00	 1.188670192762692e+01
 2.302677143079274e+00	 1.267700962310241e+00	 1.190680230778060e+01
 2.272598402568771e+00	 1.320864964992223e+00	 1.192318378011716e+01
 2.241195593438095e+00	 1.373473722739428e+00	 1.192972430217877e+01
 2.208483257039165e+00	 1.425478676964239e+00	 1.191973365498811e+01
 2.174478277595854e+00	 1.476831735630639e+00	 1.188790483377382e+01
 2.139199866191396e+00	 1.527485413216358e+00	 1.184309929388308e+01
 2.102669534786898e+00	 1.577392970245870e+00	 1.180715860836877e+01
 2.064911060257657e+00	 1.626508551569169e+00	 1.177502106325115e+01
 2.410781121106659e+00	 1.117382006916624e+00	 1.181690214194256e+01
 2.384455298559133e+00	 1.172510593742582e+00	 1.183422172594983e+01
 2.356761140259901e+00	 1.227226585038866e+00	 1.185623561606915e+01
 2.327706242460570e+00	 1.281480320596222e+00	 1.187836526051106e+01
 2.297300559118432e+00	 1.335222192872574e+00	 1.189513383989510e+01
 2.265556415105900e+00	 1.388402784943118e+00	 1.190004527843740e+01
 2.232488509833069e+00	 1.440973010409502e+00	 1.188545208784145e+01
 2.198113911047983e+00	 1.492884254496188e+00	 1.184484588466574e+01
 2.162452038649999e+00	 1.544088515533926e+00	 1.180396704769849e+01
 2.125524638425885e+00	 1.594538546009412e+00	 1.177176002957523e+01
 2.087355745695240e+00	 1.644187992347095e+00	 1.174259294507045e+01
 2.436703498752967e+00	 1.129396867206049e+00	 1.177969578276511e+01
 2.410094602844715e+00	 1.185118234535512e+00	 1.180104707923768e+01
 2.382102657897103e+00	 1.240422569824230e+00	 1.182612170671503e+01
 2.352735341841866e+00	 1.295259678882202e+00	 1.185005448653211e+01
 2.322002715668091e+00	 1.349579420752923e+00	 1.186705362263251e+01
 2.289917236773705e+00	 1.403331847146807e+00	 1.187026711563503e+01
 2.256493762626973e+00	 1.456467343854766e+00	 1.185163591088257e+01
 2.221749544500112e+00	 1.508936773361739e+00	 1.180800049029738e+01
 2.185704211108601e+00	 1.560691617851496e+00	 1.176944484699344e+01
 2.148379742064873e+00	 1.611684121772953e+00	 1.173952496372423e+01
 2.109800431132824e+00	 1.661867433125020e+00	 1.171225165803643e+01
 2.462625876399276e+00	 1.141411727495476e+00	 1.174330431481114e+01
 2.435733907130297e+00	 1.197725875328443e+00	 1.176835179095648e+01
 2.407444175534307e+00	 1.253618554609595e+00	 1.179621195255080e+01
 2.377764441223164e+00	 1.309039037168184e+00	 1.182174761616785e+01
 2.346704872217754e+00	 1.363936648633275e+00	 1.183886917459554e+01
 2.314278058441511e+00	 1.418260909350497e+00	 1.184038742436346e+01
 2.280499015420878e+00	 1.471961677300029e+00	 1.181785082154639e+01
 2.245385177952242e+00	 1.524989292227290e+00	 1.177610801211560e+01
 2.208956383567203e+00	 1.577294720169065e+00	 1.173943283542873e+01
 2.171234845703863e+00	 1.628829697536496e+00	 1.171043074461040e+01
 2.132245116570407e+00	 1.679546873902946e+00	 1.168408493489701e+01
 1.907798262194575e+00	 1.502752466123689e+00	 1.199358994013690e+01
 1.871802035581666e+00	 1.547357852361825e+00	 1.190693822948040e+01
 1.834721146206600e+00	 1.591149741330402e+00	 1.181953386638599e+01
 1.796583549326933e+00	 1.634088961458742e+00	 1.173491847473825e+01
 1.757419069930888e+00	 1.676137642413868e+00	 1.164813849732767e+01
 1.717259325738758e+00	 1.717259325738758e+00	 1.155118279155892e+01
 1.676137642413868e+00	 1.757419069930888e+00	 1.143496569406867e+01
 1.634088961458742e+00	 1.796583549326932e+00	 1.129018929444369e+01
 1.591149741330402e+00	 1.834721146206600e+00	 1.110825126538418e+01
 1.547357852361826e+00	 1.871802035581665e+00	 1.089159653479931e+01
 1.502752466123689e+00	 1.907798262194575e+00	 1.068596154970226e+01
 1.930242947632158e+00	 1.520431906901615e+00	 1.197286764041512e+01
 1.893823236000273e+00	 1.565562062389611e+00	 1.189779898815166e+01
 1.856306100867855e+00	 1.609869150051936e+00	 1.181890465966378e+01
 1.817719826377838e+00	 1.653313537475904e+00	 1.173784541621189e+01
 1.778094588400663e+00	 1.695856908795208e+00	 1.165328902143722e+01
 1.737462376629803e+00	 1.737462376629803e+00	 1.155669883381223e+01
 1.695856908795208e+00	 1.778094588400663e+00	 1.143826639318402e+01
 1.653313537475904e+00	 1.817719826377837e+00	 1.128789134172477e+01
 1.609869150051936e+00	 1.856306100867855e+00	 1.109659076451864e+01
 1.565562062389612e+00	 1.893823236000273e+00	 1.089608663048259e+01
 1.520431906901615e+00	 1.930242947632157e+00	 1.071138292608495e+01
 1.952687633069741e+00	 1.538111347679540e+00	 1.194563217307968e+01
 1.915844436418882e+00	 1.583766272417398e+00	 1.188034069130904e+01
 1.877891055529110e+00	 1.628588558773470e+00	 1.180901428345745e+01
 1.838856103428742e+00	 1.672538113493065e+00	 1.173079802545784e+01
 1.798770106870438e+00	 1.715576175176547e+00	 1.164622217497294e+01
 1.757665427520846e+00	 1.757665427520846e+00	 1.154775362045394e+01
 1.715576175176547e+00	 1.798770106870438e+00	 1.142477043445899e+01
 1.672538113493065e+00	 1.838856103428742e+00	 1.126626577055925e+01
 1.628588558773471e+00	 1.877891055529109e+00	 1.107609390603147e+01
 1.583766272417398e+00	 1.915844436418880e+00	 1.089539898997209e+01
 1.538111347679540e+00	 1.952687633069741e+00	 1.072859974689413e+01
 1.975132318507324e+00	 1.555790788457466e+00	 1.191398407842254e+01
 1.937865636837489e+00	 1.601970482445183e+00	 1.185682775692295e+01
 1.899476010190363e+00	 1.647307967495004e+00	 1.179158598948523e+01
 1.859992380479647e+00	 1.691762689510227e+00	 1.171632334423831e+01
 1.819445625340214e+00	 1.735295441557886e+00	 1.162971520168885e+01
 1.777868478411891e+00	 1.777868478411890e+00	 1.152724643594475e+01
 1.735295441557887e+00	 1.819445625340213e+00	 1.139751219245773e+01
 1.691762689510228e+00	 1.859992380479647e+00	 1.122971770325202e+01
 1.647307967495005e+00	 1.899476010190363e+00	 1.105477676801088e+01
 1.601970482445184e+00	 1.937865636837488e+00	 1.089119992647422e+01
 1.555790788457466e+00	 1.975132318507324e+00	 1.073945279268010e+01
 1.997577003944907e+00	 1.573470229235391e+00	 1.187972965055035e+01
 1.959886837256097e+00	 1.620174692472970e+00	 1.182922623765995e+01
 1.921060964851617e+00	 1.666027376216538e+00	 1.176876128353299e+01
 1.881128657530553e+00	 1.710987265527389e+00	 1.169558211066857e+01
 1.840121143809989e+00	 1.755014707939227e+00	 1.160636391308953e+01
 1.798071529302934e+00	 1.798071529302934e+00	 1.149790399504214e+01
 1.755014707939227e+00	 1.840121143809989e+00	 1.135936494520146e+01
 1.710987265527389e+00	 1.881128657530552e+00	 1.119287677733833e+01
 1.666027376216539e+00	 1.921060964851617e+00	 1.103395388144708e+01
 1.620174692472971e+00	 1.959886837256096e+00	 1.088497624353617e+01
 1.573470229235392e+00	 1.997577003944908e+00	 1.074561354683421e+01
 2.020021689382490e+00	 1.591149670013317e+00	 1.184438296153940e+01
 1.981908037674705e+00	 1.638378902500756e+00	 1.179920598378988e+01
 1.942645919512872e+00	 1.684746784938073e+00	 1.174238261877210e+01
 1.902264934581458e+00	 1.730211841544550e+00	 1.167029397364437e+01
 1.860796662279763e+00	 1.774733974320565e+00	 1.157845945846144e+01
 1.818274580193979e+00	 1.818274580193979e+00	 1.146226817593309e+01
 1.774733974320566e+00	 1.860796662279763e+00	 1.131425335508527e+01
 1.730211841544550e+00	 1.902264934581457e+00	 1.115994737529511e+01
 1.684746784938073e+00	 1.942645919512871e+00	 1.101474351818949e+01
 1.638378902500757e+00	 1.981908037674704e+00	 1.087802688380909e+01
 1.591149670013317e+00	 2.020021689382490e+00	 1.074857592548840e+01
 2.042466374820074e+00	 1.608829110791243e+00	 1.180916802136158e+01
 2.003929238093312e+00	 1.656583112528542e+00	 1.176814292622401e+01
 1.964230874174125e+00	 1.703466193659607e+00	 1.171399574500452e+01
 1.923401211632362e+00	 1.749436417561712e+00	 1.164219265199417e+01
 1.881472180749539e+00	 1.794453240701905e+00	 1.154721477952882e+01
 1.838477631085023e+00	 1.838477631085023e+00	 1.142268383161683e+01
 1.794453240701906e+00	 1.881472180749538e+00	 1.127378215258409e+01
 1.749436417561712e+00	 1.923401211632362e+00	 1.113167303557741e+01
 1.703466193659607e+00	 1.964230874174125e+00	 1.099805934530680e+01
 1.656583112528543e+00	 2.003929238093312e+00	 1.087145464139494e+01
 1.608829110791243e+00	 2.042466374820073e+00	 1.074964807052653e+01
 2.064911060257657e+00	 1.626508551569169e+00	 1.177502106325115e+01
 2.025950438511920e+00	 1.674787322556328e+00	 1.173712147054525e+01
 1.985815828835380e+00	 1.722185602381140e+00	 1.168485215645879e+01
 1.944537488683267e+00	 1.768660993578874e+00	 1.161271592909060e+01
 1.902147699219314e+00	 1.814172507083245e+00	 1.151409733402845e+01
 1.858680681976067e+00	 1.858680681976068e+00	 1.138180088502020e+01
 1.814172507083245e+00	 1.902147699219314e+00	 1.124053075091859e+01
 1.768660993578874e+00	 1.944537488683267e+00	 1.110857795012097e+01
 1.722185602381141e+00	 1.985815828835379e+00	 1.098460213966889e+01
 1.674787322556329e+00	 2.025950438511920e+00	 1.086615793293918e+01
 1.626508551569169e+00	 2.064911060257657e+00	 1.074994420090598e+01
 2.087355745695240e+00	 1.644187992347095e+00	 1.174259294507045e+01
 2.047971638930528e+00	 1.692991532584115e+00	 1.170693699367510e+01
 2.007400783496633e+00	 1.740905011102675e+00	 1.165591163071972e+01
 1.965673765734173e+00	 1.787885569596036e+00	 1.158300818411026e+01
 1.922823217689089e+00	 1.833891773464584e+00	 1.148045649323954e+01
 1.878883732867111e+00	 1.878883732867111e+00	 1.134736632001175e+01
 1.833891773464585e+00	 1.922823217689089e+00	 1.121463802788362e+01
 1.787885569596036e+00	 1.965673765734172e+00	 1.109095870247764e+01
 1.740905011102675e+00	 2.007400783496633e+00	 1.097485155821691e+01
 1.692991532584115e+00	 2.047971638930527e+00	 1.086282262304761e+01
 1.644187992347095e+00	 2.087355745695240e+00	 1.075037651790061e+01
 2.109800431132824e+00	 1.661867433125020e+00	 1.171225165803643e+01
 2.069992839349136e+00	 1.711195742611900e+00	 1.167809843553459e+01
 2.028985738157888e+00	 1.759624419824209e+00	 1.162784485200496e+01
 1.986810042785077e+00	 1.807110145613197e+00	 1.155392299863222e+01
 1.943498736158864e+00	 1.853611039845924e+00	 1.144737689420640e+01
 1.899086783758156e+00	 1.899086783758155e+00	 1.132089359543576e+01
 1.853611039845924e+00	 1.943498736158864e+00	 1.119600086005180e+01
 1.807110145613197e+00	 1.986810042785077e+00	 1.107887605976778e+01
 1.759624419824210e+00	 2.028985738157886e+00	 1.096905795977529e+01
 1.711195742611901e+00	 2.069992839349135e+00	 1.086191389998177e+01
 1.661867433125020e+00	 2.109800431132823e+00	 1.075164716024905e+01
 2.132245116570407e+00	 1.679546873902946e+00	 1.168408493489701e+01
 2.092014039767744e+00	 1.729399952639687e+00	 1.165083097869982e+01
 2.050570692819142e+00	 1.778343828545743e+00	 1.160103611257331e+01
 2.007946319835983e+00	 1.826334721630359e+00	 1.152602583302328e+01
 1.964174254628640e+00	 1.873330306227264e+00	 1.141918535434680e+01
 1.919289834649200e+00	 1.919289834649200e+00	 1.130148907836812e+01
 1.873330306227264e+00	 1.964174254628640e+00	 1.118392057560211e+01
 1.826334721630359e+00	 2.007946319835983e+00	 1.107214681448466e+01
 1.778343828545744e+00	 2.050570692819142e+00	 1.096723427460721e+01
 1.729399952639688e+00	 2.092014039767744e+00	 1.086366819792831e+01
 1.679546873902947e+00	 2.132245116570407e+00	 1.075424020553199e+01
 1.502752466123689e+00	 1.907798262194575e+00	 1.068596154970226e+01
 1.457373939901076e+00	 1.942683809313982e+00	 1.049834494599038e+01
 1.411263696993375e+00	 1.976434658981182e+00	 1.032840867643580e+01
 1.364464103571786e+00	 2.009028843430952e+00	 1.016972504891863e+01
 1.317018342847395e+00	 2.040446487481837e+00	 1.001420788682241e+01
 1.268970287313603e+00	 2.070669841763457e+00	 9.853883460522137e+00
 1.220364369829773e+00	 2.099683306721147e+00	 9.681761348494668e+00
 1.171245454308376e+00	 2.127473447410198e+00	 9.492586540332674e+00
 1.121658706755955e+00	 2.154028999162274e+00	 9.283451314440857e+00
 1.071649467399135e+00	 2.179340864274475e+00	 9.054357161347095e+00
 1.021263124601215e+00	 2.203402099936194e+00	 8.808570056648682e+00
 1.520431906901615e+00	 1.930242947632157e+00	 1.071138292608495e+01
 1.474519515664617e+00	 1.965538912952970e+00	 1.054125736587108e+01
 1.427866799310944e+00	 1.999686831439784e+00	 1.038487015300826e+01
 1.380516622437337e+00	 2.032664476883081e+00	 1.023719350458189e+01
 1.332512676292658e+00	 2.064451740275742e+00	 1.008936651536106e+01
 1.283899349517293e+00	 2.095030663431263e+00	 9.932761568507452e+00
 1.234721597710123e+00	 2.124385463270807e+00	 9.759924852654192e+00
 1.185024812594357e+00	 2.152502546791494e+00	 9.565387728819847e+00
 1.134854691541319e+00	 2.179370516799477e+00	 9.346325932022468e+00
 1.084257108192066e+00	 2.204980168560057e+00	 9.103058252326360e+00
 1.033277984890641e+00	 2.229324477582502e+00	 8.840804023421953e+00
 1.538111347679540e+00	 1.952687633069741e+00	 1.072859974689413e+01
 1.491665091428160e+00	 1.988394016591958e+00	 1.057336963601479e+01
 1.444469901628513e+00	 2.022939003898386e+00	 1.042641865302375e+01
 1.396569141302887e+00	 2.056300110335210e+00	 1.028529689506347e+01
 1.348007009737922e+00	 2.088456993069645e+00	 1.014052765251849e+01
 1.298828411720982e+00	 2.119391485099067e+00	 9.982818293566243e+00
 1.249078825590473e+00	 2.149087619820468e+00	 9.804260202529706e+00
 1.198804170880337e+00	 2.177531646172790e+00	 9.599202604144171e+00
 1.148050676326683e+00	 2.204712034436680e+00	 9.364961503776478e+00
 1.096864748984998e+00	 2.230619472845639e+00	 9.104714998537332e+00
 1.045292845180067e+00	 2.255246855228811e+00	 8.853145814994729e+00
 1.555790788457466e+00	 1.975132318507324e+00	 1.073945279268010e+01
 1.508810667191702e+00	 2.011249120230946e+00	 1.059610533122452e+01
 1.461073003946082e+00	 2.046191176356988e+00	 1.045557784580340e+01
 1.412621660168437e+00	 2.079935743787339e+00	 1.031678969973683e+01
 1.363501343183185e+00	 2.112462245863548e+00	 1.017068453294820e+01
 1.313757473924672e+00	 2.143752306766872e+00	 1.000728292891918e+01
 1.263436053470824e+00	 2.173789776370128e+00	 9.818220375195386e+00
 1.212583529166319e+00	 2.202560745554087e+00	 9.597686942958777e+00
 1.161246661112047e+00	 2.230053552073884e+00	 9.345139032363818e+00
 1.109472389777928e+00	 2.256258777131221e+00	 9.094750860950235e+00
 1.057307705469494e+00	 2.281169232875119e+00	 8.861128747593087e+00
 1.573470229235392e+00	 1.997577003944908e+00	 1.074561354683421e+01
 1.525956242955244e+00	 2.034104223869934e+00	 1.061126567424611e+01
 1.477676106263651e+00	 2.069443348815590e+00	 1.047469118730219e+01
 1.428674179033988e+00	 2.103571377239467e+00	 1.033426553699290e+01
 1.378995676628449e+00	 2.136467498657453e+00	 1.018268754719191e+01
 1.328686536128361e+00	 2.168113128434678e+00	 1.000925836033125e+01
 1.277793281351174e+00	 2.198491932919789e+00	 9.805146591732250e+00
 1.226362887452300e+00	 2.227589844935385e+00	 9.565241192661540e+00
 1.174442645897411e+00	 2.255395069711087e+00	 9.319253208587796e+00
 1.122080030570860e+00	 2.281898081416804e+00	 9.085866761637989e+00
 1.069322565758920e+00	 2.307091610521427e+00	 8.867704603560423e+00
 1.591149670013317e+00	 2.020021689382490e+00	 1.074857592548840e+01
 1.543101818718786e+00	 2.056959327508921e+00	 1.062056499478142e+01
 1.494279208581220e+00	 2.092695521274193e+00	 1.048564483982089e+01
 1.444726697899539e+00	 2.127207010691597e+00	 1.034015196290369e+01
 1.394490010073713e+00	 2.160472751451357e+00	 1.017923985401527e+01
 1.343615598332051e+00	 2.192473950102483e+00	 9.991717511498729e+00
 1.292150509231524e+00	 2.223194089469449e+00	 9.768290363850165e+00
 1.240142245738281e+00	 2.252618944316680e+00	 9.529303590819373e+00
 1.187638630682776e+00	 2.280736587348289e+00	 9.299033749856033e+00
 1.134687671363791e+00	 2.307537385702386e+00	 9.080421739582262e+00
 1.081337426048345e+00	 2.333013988167735e+00	 8.875617965650484e+00
 1.608829110791243e+00	 2.042466374820073e+00	 1.074964807052653e+01
 1.560247394482328e+00	 2.079814431147910e+00	 1.062554336096337e+01
 1.510882310898789e+00	 2.115947693732794e+00	 1.048970894980444e+01
 1.460779216765089e+00	 2.150842644143725e+00	 1.033670531494933e+01
 1.409984343518976e+00	 2.184478004245261e+00	 1.016289302479630e+01
 1.358544660535740e+00	 2.216834771770289e+00	 9.957499805684705e+00
 1.306507737111874e+00	 2.247896246019110e+00	 9.727497434131022e+00
 1.253921604024261e+00	 2.277648043697976e+00	 9.502494415607654e+00
 1.200834615468140e+00	 2.306078104985493e+00	 9.286055039384426e+00
 1.147295312156721e+00	 2.333176689987968e+00	 9.080498162835175e+00
 1.093352286337772e+00	 2.358936365814043e+00	 8.887402076958095e+00
 1.626508551569169e+00	 2.064911060257657e+00	 1.074994420090598e+01
 1.577392970245870e+00	 2.102669534786898e+00	 1.062755857050361e+01
 1.527485413216358e+00	 2.139199866191396e+00	 1.048849721880698e+01
 1.476831735630639e+00	 2.174478277595854e+00	 1.032600559737892e+01
 1.425478676964239e+00	 2.208483257039164e+00	 1.013604271752851e+01
 1.373473722739430e+00	 2.241195593438094e+00	 9.917197241908436e+00
 1.320864964992225e+00	 2.272598402568770e+00	 9.698263692072521e+00
 1.267700962310242e+00	 2.302677143079273e+00	 9.485628083773172e+00
 1.214030600253504e+00	 2.331419622622696e+00	 9.281624290468713e+00
 1.159902952949652e+00	 2.358815994273549e+00	 9.087911931555308e+00
 1.105367146627198e+00	 2.384858743460351e+00	 8.905374618392102e+00
 1.644187992347095e+00	 2.087355745695240e+00	 1.075037651790061e+01
 1.594538546009412e+00	 2.125524638425885e+00	 1.062777819395768e+01
 1.544088515533927e+00	 2.162452038649998e+00	 1.048346805721634e+01
 1.492884254496189e+00	 2.198113911047982e+00	 1.030977829450661e+01
 1.440973010409503e+00	 2.232488509833069e+00	 1.010283056087272e+01
 1.388402784943119e+00	 2.265556415105899e+00	 9.889298434659882e+00
 1.335222192872575e+00	 2.297300559118431e+00	 9.680675216496986e+00
 1.281480320596223e+00	 2.327706242460569e+00	 9.479260178589010e+00
 1.227226585038868e+00	 2.356761140259899e+00	 9.286788789781957e+00
 1.172510593742583e+00	 2.384455298559132e+00	 9.104219263902177e+00
 1.117382006916623e+00	 2.410781121106659e+00	 8.931636407748680e+00
 1.661867433125020e+00	 2.109800431132823e+00	 1.075164716024904e+01
 1.611684121772954e+00	 2.148379742064873e+00	 1.062717166622620e+01
 1.560691617851496e+00	 2.185704211108600e+00	 1.047589434898422e+01
 1.508936773361740e+00	 2.221749544500111e+00	 1.028920138072963e+01
 1.456467343854766e+00	 2.256493762626973e+00	 1.007979175739486e+01
 1.403331847146808e+00	 2.289917236773704e+00	 9.873861249097198e+00
 1.349579420752925e+00	 2.322002715668091e+00	 9.674569840846448e+00
 1.295259678882204e+00	 2.352735341841866e+00	 9.483695228983711e+00
 1.240422569824232e+00	 2.382102657897102e+00	 9.302343106236105e+00
 1.185118234535514e+00	 2.410094602844713e+00	 9.130723379050556e+00
 1.129396867206049e+00	 2.436703498752967e+00	 8.968054548259534e+00
 1.679546873902947e+00	 2.132245116570407e+00	 1.075424020553199e+01
 1.628829697536496e+00	 2.171234845703863e+00	 1.062650242273827e+01
 1.577294720169066e+00	 2.208956383567203e+00	 1.046685580316627e+01
 1.524989292227291e+00	 2.245385177952241e+00	 1.027277185840700e+01
 1.471961677300030e+00	 2.280499015420878e+00	 1.006926587159166e+01
 1.418260909350498e+00	 2.314278058441511e+00	 9.870048238957530e+00
 1.363936648633276e+00	 2.346704872217752e+00	 9.679545543489475e+00
 1.309039037168185e+00	 2.377764441223163e+00	 9.498994472556976e+00
 1.253618554609596e+00	 2.407444175534306e+00	 9.328836267945606e+00
 1.197725875328446e+00	 2.435733907130296e+00	 9.168481131776094e+00
 1.141411727495476e+00	 2.462625876399276e+00	 9.016212443377496e+00
 1.021263124601215e+00	 2.203402099936194e+00	 8.808570056648680e+00
 9.705449912429743e-01	 2.226207897669632e+00	 8.547218526522567e+00
 9.195401842038921e-01	 2.247755554616147e+00	 8.294799685743513e+00
 8.682935075376598e-01	 2.268044437051755e+00	 8.064891274374244e+00
 8.168493398892255e-01	 2.287075936560920e+00	 7.857095739813193e+00
 7.652515266505732e-01	 2.304853419337646e+00	 7.670160619553609e+00
 7.135432772995717e-01	 2.321382169116937e+00	 7.502475285020900e+00
 6.617670683113762e-01	 2.336669324267351e+00	 7.352025955944513e+00
 6.099645519757371e-01	 2.350723809597058e+00	 7.216094084630354e+00
 5.581764713968750e-01	 2.363556263441258e+00	 7.090552545646392e+00
 5.064425818960245e-01	 2.375178960608223e+00	 6.970926731148258e+00
 1.033277984890641e+00	 2.229324477582502e+00	 8.840804023421947e+00
 9.819631676105387e-01	 2.252398578818686e+00	 8.588191169257758e+00
 9.303583040180559e-01	 2.274199737611630e+00	 8.354772560317773e+00
 8.785087252733969e-01	 2.294727312781776e+00	 8.142024157708954e+00
 8.264593321232162e-01	 2.313982712285166e+00	 7.949943027980449e+00
 7.742544857876387e-01	 2.331969341918089e+00	 7.777821413112351e+00
 7.219379040913312e-01	 2.348692547577135e+00	 7.624782796072675e+00
 6.695525632326865e-01	 2.364159551611672e+00	 7.488763624112232e+00
 6.171406055283928e-01	 2.378379383827611e+00	 7.366861794395115e+00
 5.647432534133087e-01	 2.391362807717037e+00	 7.255309681587108e+00
 5.124007299183307e-01	 2.403122242497731e+00	 7.150324445364832e+00
 1.045292845180067e+00	 2.255246855228811e+00	 8.853145814994733e+00
 9.933813439781034e-01	 2.278589259967740e+00	 8.619051432123989e+00
 9.411764238322193e-01	 2.300643920607115e+00	 8.402417983939049e+00
 8.887239430091339e-01	 2.321410188511797e+00	 8.204703210688708e+00
 8.360693243572068e-01	 2.340889488009411e+00	 8.026016746380119e+00
 7.832574449247039e-01	 2.359085264498531e+00	 7.865929679486333e+00
 7.303325308830909e-01	 2.376002926037335e+00	 7.724095818582884e+00
 6.773380581539968e-01	 2.391649778955993e+00	 7.598672815372263e+00
 6.243166590810484e-01	 2.406034958058165e+00	 7.486419767661374e+00
 5.713100354297425e-01	 2.419169351992817e+00	 7.383868956224418e+00
 5.183588779406368e-01	 2.431065524387239e+00	 7.287928875864143e+00
 1.057307705469494e+00	 2.281169232875119e+00	 8.861128747593087e+00
 1.004799520345668e+00	 2.304779941116795e+00	 8.643214078334045e+00
 9.519945436463825e-01	 2.327088103602598e+00	 8.441316771520491e+00
 8.989391607448712e-01	 2.348093064241818e+00	 8.256582759369513e+00
 8.456793165911977e-01	 2.367796263733656e+00	 8.088955011029515e+00
 7.922604040617698e-01	 2.386201187078974e+00	 7.938022008041351e+00
 7.387271576748503e-01	 2.403313304497534e+00	 7.803704602237603e+00
 6.851235530753071e-01	 2.419140006300315e+00	 7.684628597228821e+00
 6.314927126337044e-01	 2.433690532288719e+00	 7.577119456300226e+00
 5.778768174461765e-01	 2.446975896268596e+00	 7.477974595820484e+00
 5.243170259629431e-01	 2.459008806276747e+00	 7.384822660292709e+00
 1.069322565758920e+00	 2.307091610521427e+00	 8.867704603560423e+00
 1.016217696713232e+00	 2.330970622265850e+00	 8.663911737828595e+00
 9.628126634605461e-01	 2.353532286598083e+00	 8.474889874960406e+00
 9.091543784806084e-01	 2.374775939971839e+00	 8.301180242134595e+00
 8.552893088251883e-01	 2.394703039457902e+00	 8.142282233345995e+00
 8.012633631988352e-01	 2.413317109659417e+00	 7.997544231311780e+00
 7.471217844666104e-01	 2.430623682957735e+00	 7.866880701632377e+00
 6.929090479966175e-01	 2.446630233644637e+00	 7.749509802409914e+00
 6.386687661863598e-01	 2.461346106519272e+00	 7.641349533473458e+00
 5.844435994626103e-01	 2.474782440544375e+00	 7.539433541798177e+00
 5.302751739852491e-01	 2.486952088166256e+00	 7.442169263600761e+00
 1.081337426048345e+00	 2.333013988167735e+00	 8.875617965650484e+00
 1.027635873080797e+00	 2.357161303414904e+00	 8.684191842631725e+00
 9.736307832747096e-01	 2.379976469593567e+00	 8.506396089862816e+00
 9.193695962163455e-01	 2.401458815701858e+00	 8.341874487344587e+00
 8.648993010591796e-01	 2.421609815182149e+00	 8.189407784040572e+00
 8.102663223359007e-01	 2.440433032239860e+00	 8.047850307479685e+00
 7.555164112583698e-01	 2.457934061417932e+00	 7.916877995080162e+00
 7.006945429179275e-01	 2.474120460988958e+00	 7.796191902519052e+00
 6.458448197390156e-01	 2.489001680749826e+00	 7.681529984757514e+00
 5.910103814790437e-01	 2.502588984820155e+00	 7.570110452271789e+00
 5.362333220075552e-01	 2.514895370055764e+00	 7.461208616560635e+00
 1.093352286337772e+00	 2.358936365814043e+00	 8.887402076958097e+00
 1.039054049448361e+00	 2.383351984563958e+00	 8.706913455552300e+00
 9.844489030888728e-01	 2.406420652589050e+00	 8.538929649136723e+00
 9.295848139520826e-01	 2.428141691431879e+00	 8.381903881148787e+00
 8.745092932931704e-01	 2.448516590906396e+00	 8.233624558995359e+00
 8.192692814729661e-01	 2.467548954820302e+00	 8.092201123973831e+00
 7.639110380501294e-01	 2.485244439878132e+00	 7.956845480923125e+00
 7.084800378392380e-01	 2.501610688333280e+00	 7.827539858071367e+00
 6.530208732916712e-01	 2.516657254980380e+00	 7.700106209305821e+00
 5.975771634954776e-01	 2.530395529095934e+00	 7.571922749636473e+00
 5.421914700298615e-01	 2.542838651945273e+00	 7.443252837513631e+00
 1.105367146627198e+00	 2.384858743460351e+00	 8.905374618392102e+00
 1.050472225815925e+00	 2.409542665713013e+00	 8.734744000345314e+00
 9.952670229030361e-01	 2.432864835584534e+00	 8.575417712080419e+00
 9.398000316878197e-01	 2.454824567161900e+00	 8.424364433815569e+00
 8.841192855271611e-01	 2.475423366630641e+00	 8.278107454582489e+00
 8.282722406100319e-01	 2.494664877400744e+00	 8.133763228189871e+00
 7.723056648418891e-01	 2.512554818338331e+00	 7.989858631634609e+00
 7.162655327605483e-01	 2.529100915677603e+00	 7.846400946711897e+00
 6.601969268443273e-01	 2.544312829210933e+00	 7.699543130283139e+00
 6.041439455119116e-01	 2.558202073371714e+00	 7.546835710710000e+00
 5.481496180521677e-01	 2.570781933834781e+00	 7.389682031012037e+00
 1.117382006916623e+00	 2.410781121106659e+00	 8.931636407748680e+00
 1.061890402183489e+00	 2.435733346862067e+00	 8.770155900751082e+00
 1.006085142717200e+00	 2.459309018580019e+00	 8.618617756818750e+00
 9.500152494235570e-01	 2.481507442891921e+00	 8.472207752219791e+00
 8.937292777611522e-01	 2.502330142354886e+00	 8.325911759240785e+00
 8.372751997470973e-01	 2.521780799981188e+00	 8.175607490817201e+00
 7.807002916336487e-01	 2.539865196798530e+00	 8.018919987736487e+00
 7.240510276818586e-01	 2.556591143021924e+00	 7.855597571257471e+00
 6.673729803969828e-01	 2.571968403441486e+00	 7.682319313875381e+00
 6.107107275283453e-01	 2.586008617647494e+00	 7.496857596225718e+00
 5.541077660744738e-01	 2.598725215724290e+00	 7.305263385053669e+00
 1.129396867206049e+00	 2.436703498752967e+00	 8.968054548259536e+00
 1.073308578551054e+00	 2.461924028011122e+00	 8.815423135196966e+00
 1.016903262531363e+00	 2.485753201575502e+00	 8.671114883289400e+00
 9.602304671592939e-01	 2.508190318621941e+00	 8.528238925475565e+00
 9.033392699951430e-01	 2.529236918079133e+00	 8.379971467546380e+00
 8.462781588841627e-01	 2.548896722561631e+00	 8.220707706791323e+00
 7.890949184254084e-01	 2.567175575258728e+00	 8.046957917861405e+00
 7.318365226031689e-01	 2.584081370366246e+00	 7.857920049064472e+00
 6.745490339496385e-01	 2.599623977672040e+00	 7.654305254071526e+00
 6.172775095447791e-01	 2.613815161923274e+00	 7.459203451195631e+00
 5.600659140967800e-01	 2.626668497613799e+00	 7.283079713133223e+00
 1.141411727495476e+00	 2.462625876399276e+00	 9.016212443377496e+00
 1.084726754918618e+00	 2.488114709160178e+00	 8.872617713377485e+00
 1.027721382345526e+00	 2.512197384570987e+00	 8.735319033369763e+00
 9.704456848950315e-01	 2.534873194351962e+00	 8.595114330114196e+00
 9.129492622291342e-01	 2.556143693803381e+00	 8.443097522488312e+00
 8.552811180212289e-01	 2.576012645142075e+00	 8.271939138467411e+00
 7.974895452171681e-01	 2.594485953718930e+00	 8.076998608796746e+00
 7.396220175244794e-01	 2.611571597710567e+00	 7.876881397694509e+00
 6.817250875022945e-01	 2.627279551902595e+00	 7.688814977914417e+00
 6.238442915612132e-01	 2.641621706199054e+00	 7.515647143342257e+00
 5.660240621190862e-01	 2.654611779503308e+00	 7.362890844800333e+00
 5.064425818960245e-01	 2.375178960608223e+00	 6.970926731148254e+00
 4.548015789809712e-01	 2.385605731764971e+00	 6.859381320108490e+00
 4.032910329924504e-01	 2.394851879841705e+00	 6.760790619302938e+00
 3.519473304848214e-01	 2.402934094027149e+00	 6.675558486229927e+00
 3.008056223482477e-01	 2.409870361915170e+00	 6.597289469031446e+00
 2.498997786323129e-01	 2.415679880346936e+00	 6.522835865498774e+00
 1.992623499868004e-01	 2.420382965472862e+00	 6.454062889553105e+00
 1.489245355946021e-01	 2.424000962535164e+00	 6.395035207097584e+00
 9.891615743459464e-02	 2.426556155845531e+00	 6.350712975885378e+00
 4.926564067896484e-02	 2.428071679403629e+00	 6.325891627391416e+00
 0.000000000000000e+00	 2.428571428571428e+00	 6.324342321627402e+00
 5.124007299183307e-01	 2.403122242497731e+00	 7.150324445364827e+00
 4.601521857925119e-01	 2.413671681550442e+00	 7.054719896489390e+00
 4.080356333805969e-01	 2.423026607839843e+00	 6.972302225364555e+00
 3.560878873140546e-01	 2.431203906898057e+00	 6.902126053411461e+00
 3.043445120229329e-01	 2.438221777937701e+00	 6.838132605297268e+00
 2.528397760279873e-01	 2.444099643645136e+00	 6.778088622876533e+00
 2.016066129278215e-01	 2.448858059184308e+00	 6.724783725383051e+00
 1.506765889545386e-01	 2.452518620917930e+00	 6.682784798087456e+00
 1.000798769338252e-01	 2.455103875326067e+00	 6.657193666491199e+00
 4.984523645165852e-02	 2.456637228573083e+00	 6.652655279137202e+00
 0.000000000000000e+00	 2.457142857142857e+00	 6.672569095855295e+00
 5.183588779406368e-01	 2.431065524387239e+00	 7.287928875864143e+00
 4.655027926040529e-01	 2.441737631335912e+00	 7.201938437127090e+00
 4.127802337687433e-01	 2.451201335837981e+00	 7.128785411065763e+00
 3.602284441432878e-01	 2.459473719768964e+00	 7.066547489657268e+00
 3.078834016976181e-01	 2.466573193960232e+00	 7.009621734533425e+00
 2.557797734236615e-01	 2.472519406943335e+00	 6.956744126569192e+00
 2.039508758688427e-01	 2.477333152895753e+00	 6.911745497198985e+00
 1.524286423144751e-01	 2.481036279300697e+00	 6.879774223260583e+00
 1.012435964330557e-01	 2.483651594806602e+00	 6.866124696237093e+00
 5.042483222435223e-02	 2.485202777742537e+00	 6.875322962299303e+00
 0.000000000000000e+00	 2.485714285714286e+00	 6.910417720880982e+00
 5.243170259629431e-01	 2.459008806276747e+00	 7.384822660292711e+00
 4.708533994155935e-01	 2.469803581121381e+00	 7.301473186547495e+00
 4.175248341568898e-01	 2.479376063836118e+00	 7.230109407176503e+00
 3.643690009725208e-01	 2.487743532639872e+00	 7.168253383569791e+00
 3.114222913723034e-01	 2.494924609982764e+00	 7.110957921981506e+00
 2.587197708193358e-01	 2.500939170241534e+00	 7.057963773127976e+00
 2.062951388098639e-01	 2.505808246607198e+00	 7.014233683248241e+00
 1.541806956744116e-01	 2.509553937683463e+00	 6.985548786594646e+00
 1.024073159322862e-01	 2.512199314287138e+00	 6.977417767150182e+00
 5.100442799704594e-02	 2.513768326911992e+00	 6.994249717108678e+00
 0.000000000000000e+00	 2.514285714285713e+00	 7.038734082833491e+00
 5.302751739852491e-01	 2.486952088166256e+00	 7.442169263600760e+00
 4.762040062271344e-01	 2.497869530906851e+00	 7.353851057452230e+00
 4.222694345450362e-01	 2.507550791834256e+00	 7.276235310987559e+00
 3.685095578017540e-01	 2.516013345510779e+00	 7.206753183879133e+00
 3.149611810469886e-01	 2.523276026005294e+00	 7.141400550258522e+00
 2.616597682150100e-01	 2.529358933539733e+00	 7.080950987723535e+00
 2.086394017508851e-01	 2.534283340318643e+00	 7.031562803445763e+00
 1.559327490343480e-01	 2.538071596066230e+00	 6.999672149716346e+00
 1.035710354315167e-01	 2.540747033767673e+00	 6.990993537573528e+00
 5.158402376973963e-02	 2.542333876081446e+00	 7.009790403748145e+00
 0.000000000000000e+00	 2.542857142857143e+00	 7.058354023353849e+00
 5.362333220075552e-01	 2.514895370055764e+00	 7.461208616560633e+00
 4.815546130386752e-01	 2.525935480692322e+00	 7.359685761189382e+00
 4.270140349331827e-01	 2.535725519832393e+00	 7.267212674230713e+00
 3.726501146309872e-01	 2.544283158381687e+00	 7.181640185376104e+00
 3.185000707216738e-01	 2.551627442027826e+00	 7.100265855142647e+00
 2.645997656106843e-01	 2.557778696837933e+00	 7.024949628264295e+00
 2.109836646919062e-01	 2.562758434030089e+00	 6.963074932306474e+00
 1.576848023942846e-01	 2.566589254448997e+00	 6.921725154333620e+00
 1.047347549307473e-01	 2.569294753248210e+00	 6.906780914867961e+00
 5.216361954243333e-02	 2.570899425250900e+00	 6.922299586522445e+00
 0.000000000000000e+00	 2.571428571428570e+00	 6.970103897622637e+00
 5.421914700298615e-01	 2.542838651945273e+00	 7.443252837513631e+00
 4.869052198502160e-01	 2.554001430477792e+00	 7.319674052533940e+00
 4.317586353213292e-01	 2.563900247830531e+00	 7.203176224444382e+00
 3.767906714602204e-01	 2.572552971252595e+00	 7.092605570200519e+00
 3.220389603963593e-01	 2.579978858050358e+00	 6.986925600716031e+00
 2.675397630063585e-01	 2.586198460136131e+00	 6.889242517437460e+00
 2.133279276329274e-01	 2.591233527741534e+00	 6.808138319975786e+00
 1.594368557542211e-01	 2.595106912831763e+00	 6.752097377737647e+00
 1.058984744299778e-01	 2.597842472728745e+00	 6.728192406539324e+00
 5.274321531512704e-02	 2.599464974420355e+00	 6.738088470754717e+00
 0.000000000000000e+00	 2.600000000000000e+00	 6.781689818886247e+00
 5.481496180521677e-01	 2.570781933834781e+00	 7.389682031012037e+00
 4.922558266617569e-01	 2.582067380263262e+00	 7.234592080083114e+00
 4.365032357094757e-01	 2.592074975828668e+00	 7.084342709631271e+00
 3.809312282894535e-01	 2.600822784123502e+00	 6.946969728589432e+00
 3.255778500710445e-01	 2.608330274072888e+00	 6.829806120789575e+00
 2.704797604020328e-01	 2.614618223434330e+00	 6.731809875331207e+00
 2.156721905739485e-01	 2.619708621452980e+00	 6.657000540134517e+00
 1.611889091141575e-01	 2.623624571214530e+00	 6.608570956664732e+00
 1.070621939292083e-01	 2.626390192209280e+00	 6.588570104524556e+00
 5.332281108782073e-02	 2.628030523589810e+00	 6.597746773131639e+00
 0.000000000000000e+00	 2.628571428571428e+00	 6.635418705425322e+00
 5.541077660744738e-01	 2.598725215724290e+00	 7.305263385053669e+00
 4.976064334732977e-01	 2.610133330048733e+00	 7.135143508404738e+00
 4.412478360976221e-01	 2.620249703826806e+00	 6.991184640053683e+00
 3.850717851186867e-01	 2.629092596994409e+00	 6.870300104207541e+00
 3.291167397457297e-01	 2.636681690095422e+00	 6.768311186748678e+00
 2.734197577977071e-01	 2.643037986732530e+00	 6.683047172617281e+00
 2.180164535149697e-01	 2.648183715164425e+00	 6.617697101416196e+00
 1.629409624740941e-01	 2.652142229597296e+00	 6.574709124898240e+00
 1.082259134284388e-01	 2.654937911689816e+00	 6.555423354142132e+00
 5.390240686051444e-02	 2.656596072759264e+00	 6.559957147660199e+00
 0.000000000000000e+00	 2.657142857142857e+00	 6.587110830976465e+00
 5.600659140967800e-01	 2.626668497613799e+00	 7.283079713133225e+00
 5.029570402848386e-01	 2.638199279834203e+00	 7.132912921697555e+00
 4.459924364857685e-01	 2.648424431824944e+00	 7.008361562122603e+00
 3.892123419479199e-01	 2.657362409865316e+00	 6.905353152876540e+00
 3.326556294204149e-01	 2.665033106117952e+00	 6.818963631078954e+00
 2.763597551933813e-01	 2.671457750030729e+00	 6.746004565935143e+00
 2.203607164559909e-01	 2.676658808875871e+00	 6.688835143089905e+00
 1.646930158340305e-01	 2.680659887980063e+00	 6.649182724436127e+00
 1.093896329276693e-01	 2.683485631170351e+00	 6.627709542758140e+00
 5.448200263320815e-02	 2.685161621928719e+00	 6.623943203897433e+00
 0.000000000000000e+00	 2.685714285714285e+00	 6.636222093778874e+00
 5.660240621190862e-01	 2.654611779503308e+00	 7.362890844800333e+00
 5.083076470963794e-01	 2.666265229619673e+00	 7.236097052120874e+00
 4.507370368739153e-01	 2.676599159823083e+00	 7.133389142871624e+00
 3.933528987771532e-01	 2.685632222736225e+00	 7.049785287312601e+00
 3.361945190951003e-01	 2.693384522140484e+00	 6.979639877999258e+00
 2.792997525890556e-01	 2.699877513328929e+00	 6.918813501985174e+00
 2.227049793970122e-01	 2.705133902587317e+00	 6.868824681953132e+00
 1.664450691939671e-01	 2.709177546362830e+00	 6.830687954002771e+00
 1.105533524268999e-01	 2.712033350650888e+00	 6.804403121954215e+00
 5.506159840590186e-02	 2.713727171098174e+00	 6.788934863460811e+00
 0.000000000000000e+00	 2.714285714285714e+00	 6.782201196364428e+00
 2.714285714285714e+00	 0.000000000000000e+00	 1.119569545074740e+01
 2.713727171098174e+00	 5.506159840590033e-02	 1.121020637764552e+01
 2.712033350650888e+00	 1.105533524268985e-01	 1.122108010836874e+01
 2.709177546362830e+00	 1.664450691939660e-01	 1.123053097236958e+01
 2.705133902587317e+00	 2.227049793970111e-01	 1.124121530593634e+01
 2.699877513328929e+00	 2.792997525890549e-01	 1.125630910076524e+01
 2.693384522140484e+00	 3.361945190950997e-01	 1.127957960658430e+01
 2.685632222736225e+00	 3.933528987771528e-01	 1.131364043126372e+01
 2.676599159823083e+00	 4.507370368739151e-01	 1.134569387685934e+01
 2.666265229619674e+00	 5.083076470963797e-01	 1.137330967903591e+01
 2.654611779503308e+00	 5.660240621190858e-01	 1.139770751327372e+01
 2.742857142857143e+00	 0.000000000000000e+00	 1.114651548153602e+01
 2.742292720267628e+00	 5.564119417859402e-02	 1.115536335011694e+01
 2.740581070131424e+00	 1.117170719261290e-01	 1.116356787374691e+01
 2.737695204745597e+00	 1.681971225539025e-01	 1.117267861149508e+01
 2.733608996298762e+00	 2.250492423380324e-01	 1.118470795041862e+01
 2.728297276627128e+00	 2.822397499847291e-01	 1.120221921392100e+01
 2.721735938163017e+00	 3.397334087697851e-01	 1.122841182300657e+01
 2.713902035607133e+00	 3.974934556063860e-01	 1.126495633024634e+01
 2.704773887821221e+00	 4.554816372620616e-01	 1.129980887509684e+01
 2.694331179405145e+00	 5.136582539079205e-01	 1.133126815422428e+01
 2.682555061392816e+00	 5.719822101413922e-01	 1.136026651944971e+01
 2.771428571428571e+00	 0.000000000000000e+00	 1.110648925742050e+01
 2.770858269437083e+00	 5.622078995128773e-02	 1.111030025506152e+01
 2.769128789611960e+00	 1.128807914253596e-01	 1.111579218441117e+01
 2.766212863128364e+00	 1.699491759138389e-01	 1.112398635119436e+01
 2.762084090010207e+00	 2.273935052790535e-01	 1.113637515822222e+01
 2.756717039925328e+00	 2.851797473804033e-01	 1.115501965410158e+01
 2.750087354185548e+00	 3.432722984444704e-01	 1.118264756813503e+01
 2.742171848478041e+00	 4.016340124356192e-01	 1.122011680734405e+01
 2.732948615819359e+00	 4.602262376502081e-01	 1.125642276785246e+01
 2.722397129190615e+00	 5.190088607194615e-01	 1.129044022185410e+01
 2.710498343282326e+00	 5.779403581636985e-01	 1.132289069820568e+01
 2.800000000000000e+00	 0.000000000000000e+00	 1.107389976018746e+01
 2.799423818606537e+00	 5.680038572398140e-02	 1.107370384327729e+01
 2.797676509092495e+00	 1.140445109245901e-01	 1.107682710365178e+01
 2.794730521511131e+00	 1.717012292737754e-01	 1.108389685321963e+01
 2.790559183721653e+00	 2.297377682200747e-01	 1.109600637072787e+01
 2.785136803223527e+00	 2.881197447760777e-01	 1.111482086910947e+01
 2.778438770208078e+00	 3.468111881191556e-01	 1.114268773916534e+01
 2.770441661348949e+00	 4.057745692648524e-01	 1.117980138232659e+01
 2.761123343817497e+00	 4.649708380383547e-01	 1.121640281187907e+01
 2.750463078976085e+00	 5.243594675310022e-01	 1.125182059353521e+01
 2.738441625171833e+00	 5.838985061860045e-01	 1.128663831256254e+01
 2.828571428571428e+00	 0.000000000000000e+00	 1.104722665381958e+01
 2.827989367775992e+00	 5.737998149667509e-02	 1.104440695261825e+01
 2.826224228573031e+00	 1.152082304238206e-01	 1.104584751377032e+01
 2.823248179893897e+00	 1.734532826337119e-01	 1.105191381845509e+01
 2.819034277433098e+00	 2.320820311610958e-01	 1.106341788779960e+01
 2.813556566521726e+00	 2.910597421717519e-01	 1.108173164294056e+01
 2.806790186230609e+00	 3.503500777938408e-01	 1.110890871157501e+01
 2.798711474219856e+00	 4.099151260940857e-01	 1.114464224950600e+01
 2.789298071815634e+00	 4.697154384265010e-01	 1.118055134484646e+01
 2.778529028761556e+00	 5.297100743425430e-01	 1.121632593746484e+01
 2.766384907061342e+00	 5.898566542083106e-01	 1.125248089638489e+01
 2.857142857142856e+00	 0.000000000000000e+00	 1.102513645038574e+01
 2.856554916945445e+00	 5.795957726936877e-02	 1.102138027586445e+01
 2.854771948053566e+00	 1.163719499230511e-01	 1.102212246149213e+01
 2.851765838276663e+00	 1.752053359936484e-01	 1.102759687760284e+01
 2.847509371144544e+00	 2.344262941021169e-01	 1.103844926294661e+01
 2.841976329819925e+00	 2.939997395674261e-01	 1.105585694541423e+01
 2.835141602253141e+00	 3.538889674685261e-01	 1.108166158335197e+01
 2.826981287090764e+00	 4.140556829233188e-01	 1.111522405259123e+01
 2.817472799813771e+00	 4.744600388146474e-01	 1.114960657594683e+01
 2.806594978547024e+00	 5.350606811540838e-01	 1.118479657043811e+01
 2.794328188950851e+00	 5.958148022306169e-01	 1.122130572473977e+01
 2.885714285714285e+00	 0.000000000000000e+00	 1.100647326013577e+01
 2.885120466114901e+00	 5.853917304206247e-02	 1.100372462007684e+01
 2.883319667534102e+00	 1.175356694222816e-01	 1.100500890848667e+01
 2.880283496659430e+00	 1.769573893535848e-01	 1.101055680736467e+01
 2.875984464855989e+00	 2.367705570431382e-01	 1.102095995154229e+01
 2.870396093118125e+00	 2.969397369631004e-01	 1.103729596998999e+01
 2.863493018275672e+00	 3.574278571432113e-01	 1.106127155048543e+01
 2.855251099961671e+00	 4.181962397525519e-01	 1.109208374218529e+01
 2.845647527811908e+00	 4.792046392027939e-01	 1.112424341916447e+01
 2.834660928332495e+00	 5.404112879656247e-01	 1.115799816149905e+01
 2.822271470840358e+00	 6.017729502529229e-01	 1.119391827411386e+01
 2.914285714285714e+00	 0.000000000000000e+00	 1.099025008570729e+01
 2.913686015284354e+00	 5.911876881475616e-02	 1.099066362370732e+01
 2.911867387014638e+00	 1.186993889215121e-01	 1.099394585919436e+01
 2.908801155042197e+00	 1.787094427135213e-01	 1.100045104978153e+01
 2.904459558567435e+00	 2.391148199841593e-01	 1.101082619473383e+01
 2.898815856416323e+00	 2.998797343587747e-01	 1.102614034685637e+01
 2.891844434298204e+00	 3.609667468178965e-01	 1.104803740471089e+01
 2.883520912832579e+00	 4.223367965817852e-01	 1.107571051025322e+01
 2.873822255810046e+00	 4.839492395909404e-01	 1.110507436628142e+01
 2.862726878117965e+00	 5.457618947771655e-01	 1.113662344643311e+01
 2.850214752729867e+00	 6.077310982752291e-01	 1.117104467318520e+01
 2.942857142857143e+00	 0.000000000000000e+00	 1.097564062346607e+01
 2.942251564453809e+00	 5.969836458744984e-02	 1.098153690035475e+01
 2.940415106495173e+00	 1.198631084207426e-01	 1.098844884031767e+01
 2.937318813424963e+00	 1.804614960734578e-01	 1.099697951412795e+01
 2.932934652278880e+00	 2.414590829251806e-01	 1.100793812302443e+01
 2.927235619714523e+00	 3.028197317544490e-01	 1.102247251937997e+01
 2.920195850320735e+00	 3.645056364925818e-01	 1.104223114520073e+01
 2.911790725703486e+00	 4.264773534110183e-01	 1.106654579632986e+01
 2.901996983808184e+00	 4.886938399790868e-01	 1.109265039691870e+01
 2.890792827903435e+00	 5.511125015887063e-01	 1.112129395236422e+01
 2.878158034619375e+00	 6.136892462975353e-01	 1.115333414479126e+01
 2.971428571428571e+00	 0.000000000000000e+00	 1.096337769339820e+01
 2.970817113623264e+00	 6.027796036014353e-02	 1.097696714372420e+01
 2.968962825975709e+00	 1.210268279199732e-01	 1.098876413743670e+01
 2.965836471807729e+00	 1.822135494333943e-01	 1.100002526687619e+01
 2.961409745990325e+00	 2.438033458662017e-01	 1.101219706474266e+01
 2.955655383012723e+00	 3.057597291501233e-01	 1.102636427291954e+01
 2.948547266343266e+00	 3.680445261672671e-01	 1.104409769653104e+01
 2.940060538574394e+00	 4.306179102402515e-01	 1.106498336063880e+01
 2.930171711806321e+00	 4.934384403672332e-01	 1.108746192312041e+01
 2.918858777688905e+00	 5.564631084002470e-01	 1.111256173177671e+01
 2.906101316508884e+00	 6.196473943198414e-01	 1.114136143968609e+01
 3.000000000000000e+00	 0.000000000000000e+00	 1.097473545741297e+01
 2.999382662792719e+00	 6.085755613283723e-02	 1.099750880385350e+01
 2.997510545456246e+00	 1.221905474192037e-01	 1.101391077478964e+01
 2.994354130190497e+00	 1.839656027933309e-01	 1.102584307912408e+01
 2.989884839701771e+00	 2.461476088072229e-01	 1.103536619553043e+01
 2.984075146310922e+00	 3.086997265457976e-01	 1.104477045350085e+01
 2.976898682365798e+00	 3.715834158419524e-01	 1.105667748780862e+01
 2.968330351445302e+00	 4.347584670694848e-01	 1.107176096421929e+01
 2.958346439804460e+00	 4.981830407553798e-01	 1.108993976617768e+01
 2.946924727474377e+00	 5.618137152117881e-01	 1.111091110533332e+01
 2.934044598398394e+00	 6.256055423421477e-01	 1.113562926263367e+01
 2.654611779503308e+00	 5.660240621190858e-01	 1.139770751327372e+01
 2.641621706199055e+00	 6.238442915612115e-01	 1.142131910338153e+01
 2.627279551902596e+00	 6.817250875022930e-01	 1.144755344918926e+01
 2.611571597710568e+00	 7.396220175244780e-01	 1.147843875168320e+01
 2.594485953718930e+00	 7.974895452171672e-01	 1.151244776359212e+01
 2.576012645142075e+00	 8.552811180212279e-01	 1.155002674210357e+01
 2.556143693803381e+00	 9.129492622291332e-01	 1.159355588805990e+01
 2.534873194351963e+00	 9.704456848950310e-01	 1.163983818114585e+01
 2.512197384570988e+00	 1.027721382345526e+00	 1.168403532327951e+01
 2.488114709160178e+00	 1.084726754918619e+00	 1.171988809232145e+01
 2.462625876399276e+00	 1.141411727495476e+00	 1.174330431481114e+01
 2.682555061392816e+00	 5.719822101413922e-01	 1.136026651944971e+01
 2.669428250474834e+00	 6.304110735776456e-01	 1.138862047106372e+01
 2.654935126133149e+00	 6.889011410549487e-01	 1.141909026890958e+01
 2.639061825054890e+00	 7.474075124457886e-01	 1.145344387969241e+01
 2.621796332179130e+00	 8.058841720089269e-01	 1.148928274513073e+01
 2.603128567722518e+00	 8.642840771582933e-01	 1.152561988817920e+01
 2.583050469527627e+00	 9.225592544631243e-01	 1.156373462982852e+01
 2.561556070081984e+00	 9.806609026307685e-01	 1.160575927500909e+01
 2.538641567566472e+00	 1.038539502159690e+00	 1.164739385082348e+01
 2.514305390309232e+00	 1.096144931286183e+00	 1.168189926317522e+01
 2.488548254045585e+00	 1.153426587784902e+00	 1.170725781122084e+01
 2.710498343282326e+00	 5.779403581636985e-01	 1.132289069820568e+01
 2.697234794750612e+00	 6.369778555940788e-01	 1.135502577341120e+01
 2.682590700363703e+00	 6.960771946076044e-01	 1.138896726946681e+01
 2.666552052399212e+00	 7.551930073670986e-01	 1.142612295878005e+01
 2.649106710639329e+00	 8.142787988006867e-01	 1.146347658138863e+01
 2.630244490302961e+00	 8.732870362953591e-01	 1.150055915152846e+01
 2.609957245251874e+00	 9.321692466971154e-01	 1.153796117090910e+01
 2.588238945812004e+00	 9.908761203665053e-01	 1.157527314035458e+01
 2.565085750561956e+00	 1.049357621973854e+00	 1.161262141458568e+01
 2.540496071458286e+00	 1.107563107653748e+00	 1.164461750275825e+01
 2.514470631691892e+00	 1.165441448074328e+00	 1.167181786109934e+01
 2.738441625171833e+00	 5.838985061860045e-01	 1.128663831256254e+01
 2.725041339026393e+00	 6.435446376105129e-01	 1.132161582416258e+01
 2.710246274594256e+00	 7.032532481602601e-01	 1.135827079019819e+01
 2.694042279743534e+00	 7.629785022884090e-01	 1.139755863515212e+01
 2.676417089099529e+00	 8.226734255924463e-01	 1.143609708420850e+01
 2.657360412883404e+00	 8.822899954324245e-01	 1.147381391294845e+01
 2.636864020976119e+00	 9.417792389311062e-01	 1.151114867154703e+01
 2.614921821542024e+00	 1.001091338102242e+00	 1.154751418848142e+01
 2.591529933557439e+00	 1.060175741788017e+00	 1.158098604765071e+01
 2.566686752607341e+00	 1.118981284021312e+00	 1.160933461164887e+01
 2.540393009338200e+00	 1.177456308363754e+00	 1.163775914216207e+01
 2.766384907061342e+00	 5.898566542083106e-01	 1.125248089638489e+01
 2.752847883302172e+00	 6.501114196269466e-01	 1.128937932188614e+01
 2.737901848824808e+00	 7.104293017129155e-01	 1.132799175499379e+01
 2.721532507087855e+00	 7.707639972097191e-01	 1.136874241415986e+01
 2.703727467559728e+00	 8.310680523842057e-01	 1.140811560590426e+01
 2.684476335463847e+00	 8.912929545694900e-01	 1.144631084679821e+01
 2.663770796700364e+00	 9.513892311650968e-01	 1.148361764438394e+01
 2.641604697272045e+00	 1.011306555837980e+00	 1.151935481931528e+01
 2.617974116552923e+00	 1.070993861602180e+00	 1.155155086141466e+01
 2.592877433756394e+00	 1.130399460388876e+00	 1.157742952288121e+01
 2.566315386984509e+00	 1.189471168653180e+00	 1.160570201003248e+01
 2.794328188950851e+00	 5.958148022306169e-01	 1.122130572473977e+01
 2.780654427577952e+00	 6.566782016433803e-01	 1.125921602074462e+01
 2.765557423055363e+00	 7.176053552655712e-01	 1.129902951297102e+01
 2.749022734432178e+00	 7.785494921310295e-01	 1.134057609537607e+01
 2.731037846019925e+00	 8.394626791759654e-01	 1.138040995436663e+01
 2.711592258044289e+00	 9.002959137065554e-01	 1.141888042955576e+01
 2.690677572424611e+00	 9.609992233990876e-01	 1.145612743134756e+01
 2.668287573002066e+00	 1.021521773573717e+00	 1.149137535660224e+01
 2.644418299548408e+00	 1.081811981416344e+00	 1.152260813984286e+01
 2.619068114905449e+00	 1.141817636756440e+00	 1.154813782994480e+01
 2.592237764630817e+00	 1.201486028942606e+00	 1.157611258344294e+01
 2.822271470840358e+00	 6.017729502529229e-01	 1.119391827411386e+01
 2.808460971853731e+00	 6.632449836598143e-01	 1.123193987563895e+01
 2.793212997285917e+00	 7.247814088182271e-01	 1.127219564124833e+01
 2.776512961776499e+00	 7.863349870523395e-01	 1.131387430984513e+01
 2.758348224480125e+00	 8.478573059677250e-01	 1.135376725533515e+01
 2.738708180624732e+00	 9.092988728436209e-01	 1.139226007761621e+01
 2.717584348148857e+00	 9.706092156330784e-01	 1.142934296652322e+01
 2.694970448732088e+00	 1.031736991309454e+00	 1.146414514646520e+01
 2.670862482543892e+00	 1.092630101230507e+00	 1.149460498259092e+01
 2.645258796054504e+00	 1.153235813124005e+00	 1.152032077594441e+01
 2.618160142277125e+00	 1.213500889232032e+00	 1.154855375234069e+01
 2.850214752729867e+00	 6.077310982752291e-01	 1.117104467318520e+01
 2.836267516129510e+00	 6.698117656762479e-01	 1.120828216348997e+01
 2.820868571516470e+00	 7.319574623708829e-01	 1.124821771241935e+01
 2.804003189120820e+00	 7.941204819736500e-01	 1.128936701358533e+01
 2.785658602940325e+00	 8.562519327594844e-01	 1.132888676546214e+01
 2.765824103205174e+00	 9.183018319806864e-01	 1.136709723339641e+01
 2.744491123873103e+00	 9.802192078670693e-01	 1.140383808615436e+01
 2.721653324462107e+00	 1.041952209045191e+00	 1.143814218409748e+01
 2.697306665539376e+00	 1.103448221044670e+00	 1.146790115406778e+01
 2.671449477203558e+00	 1.164653989491569e+00	 1.149401323181693e+01
 2.644082519923434e+00	 1.225515749521458e+00	 1.152220752755746e+01
 2.878158034619375e+00	 6.136892462975353e-01	 1.115333414479126e+01
 2.864074060405289e+00	 6.763785476926818e-01	 1.118889458227930e+01
 2.848524145747024e+00	 7.391335159235384e-01	 1.122774302912619e+01
 2.831493416465142e+00	 8.019059768949603e-01	 1.126770194031661e+01
 2.812968981400524e+00	 8.646465595512440e-01	 1.130638263951314e+01
 2.792940025785617e+00	 9.273047911177520e-01	 1.134395240325966e+01
 2.771397899597349e+00	 9.898292001010602e-01	 1.138009879089602e+01
 2.748336200192127e+00	 1.052167426780928e+00	 1.141375655147209e+01
 2.723750848534860e+00	 1.114266340858834e+00	 1.144277980425773e+01
 2.697640158352612e+00	 1.176072165859133e+00	 1.146917419119561e+01
 2.670004897569741e+00	 1.237530609810884e+00	 1.149686293497303e+01
 2.906101316508884e+00	 6.196473943198414e-01	 1.114136143968609e+01
 2.891880604681069e+00	 6.829453297091156e-01	 1.117435232934653e+01
 2.876179719977578e+00	 7.463095694761943e-01	 1.121132299227982e+01
 2.858983643809463e+00	 8.096914718162703e-01	 1.124944701615818e+01
 2.840279359860723e+00	 8.730411863430038e-01	 1.128678665479052e+01
 2.820055948366060e+00	 9.363077502548176e-01	 1.132330215050317e+01
 2.798304675321595e+00	 9.994391923350512e-01	 1.135852646353499e+01
 2.775019075922148e+00	 1.062382644516665e+00	 1.139129381345342e+01
 2.750195031530344e+00	 1.125084460672997e+00	 1.141956413245031e+01
 2.723830839501667e+00	 1.187490342226698e+00	 1.144569504576499e+01
 2.695927275216050e+00	 1.249545470100310e+00	 1.147225185832676e+01
 2.934044598398394e+00	 6.256055423421477e-01	 1.113562926263367e+01
 2.919687148956849e+00	 6.895121117255495e-01	 1.116515716032566e+01
 2.903835294208131e+00	 7.534856230288500e-01	 1.119941924013860e+01
 2.886473871153786e+00	 8.174769667375810e-01	 1.123509273883147e+01
 2.867589738320923e+00	 8.814358131347636e-01	 1.127055089563233e+01
 2.847171870946504e+00	 9.453107093918833e-01	 1.130554204640400e+01
 2.825211451045842e+00	 1.009049184569042e+00	 1.133944104514518e+01
 2.801701951652170e+00	 1.072597862252403e+00	 1.137097837508505e+01
 2.776639214525829e+00	 1.135902580487161e+00	 1.139829019662722e+01
 2.750021520650722e+00	 1.198908518594262e+00	 1.142340783419173e+01
 2.721849652862358e+00	 1.261560330389737e+00	 1.144805758451719e+01
 2.462625876399276e+00	 1.141411727495476e+00	 1.174330431481114e+01
 2.435733907130297e+00	 1.197725875328443e+00	 1.176835179095648e+01
 2.407444175534307e+00	 1.253618554609595e+00	 1.179621195255080e+01
 2.377764441223164e+00	 1.309039037168184e+00	 1.182174761616785e+01
 2.346704872217754e+00	 1.363936648633275e+00	 1.183886917459554e+01
 2.314278058441511e+00	 1.418260909350497e+00	 1.184038742436346e+01
 2.280499015420878e+00	 1.471961677300029e+00	 1.181785082154639e+01
 2.245385177952242e+00	 1.524989292227290e+00	 1.177610801211560e+01
 2.208956383567203e+00	 1.577294720169065e+00	 1.173943283542873e+01
 2.171234845703863e+00	 1.628829697536496e+00	 1.171043074461040e+01
 2.132245116570407e+00	 1.679546873902946e+00	 1.168408493489701e+01
 2.488548254045585e+00	 1.153426587784902e+00	 1.170725781122084e+01
 2.461373211415880e+00	 1.210333516121375e+00	 1.173556674973702e+01
 2.432785693171510e+00	 1.266814539394959e+00	 1.176595921955333e+01
 2.402793540604462e+00	 1.322818395454165e+00	 1.179301938837185e+01
 2.371407028767414e+00	 1.378293876513624e+00	 1.181035580984166e+01
 2.338638880109316e+00	 1.433189971554186e+00	 1.181043978832157e+01
 2.304504268214782e+00	 1.487456010745293e+00	 1.178465350544741e+01
 2.269020811404370e+00	 1.541041811092840e+00	 1.174767770075569e+01
 2.232208556025806e+00	 1.593897822486635e+00	 1.171412444870459e+01
 2.194089949342851e+00	 1.645975273300038e+00	 1.168505401051164e+01
 2.154689802007991e+00	 1.697226314680872e+00	 1.165882942633969e+01
 2.514470631691892e+00	 1.165441448074328e+00	 1.167181786109934e+01
 2.487012515701461e+00	 1.222941156914306e+00	 1.170275137746221e+01
 2.458127210808714e+00	 1.280010524180323e+00	 1.173534270777917e+01
 2.427822639985756e+00	 1.336597753740145e+00	 1.176387023641564e+01
 2.396109185317074e+00	 1.392651104393975e+00	 1.178161624788027e+01
 2.362999701777122e+00	 1.448119033757876e+00	 1.178069006136402e+01
 2.328509521008686e+00	 1.502950344190557e+00	 1.175451953197672e+01
 2.292656444856500e+00	 1.557094329958391e+00	 1.172253385735175e+01
 2.255460728484408e+00	 1.610500924804204e+00	 1.169216197741390e+01
 2.216945052981839e+00	 1.663120849063580e+00	 1.166377041895027e+01
 2.177134487445574e+00	 1.714905755458797e+00	 1.163695593957734e+01
 2.540393009338200e+00	 1.177456308363754e+00	 1.163775914216207e+01
 2.512651819987043e+00	 1.235548797707237e+00	 1.167050109079823e+01
 2.483468728445917e+00	 1.293206508965687e+00	 1.170480100068884e+01
 2.452851739367053e+00	 1.350377112026126e+00	 1.173460587381945e+01
 2.420811341866735e+00	 1.407008332274325e+00	 1.175284906105808e+01
 2.387360523444928e+00	 1.463048095961565e+00	 1.175125735349278e+01
 2.352514773802589e+00	 1.518444677635819e+00	 1.172735590396226e+01
 2.316292078308627e+00	 1.573146848823941e+00	 1.169985886367428e+01
 2.278712900943010e+00	 1.627104027121773e+00	 1.167232333244686e+01
 2.239800156620827e+00	 1.680266424827122e+00	 1.164539965405284e+01
 2.199579172883157e+00	 1.732585196236723e+00	 1.161774095332754e+01
 2.566315386984509e+00	 1.189471168653180e+00	 1.160570201003248e+01
 2.538291124272625e+00	 1.248156438500167e+00	 1.163925497159035e+01
 2.508810246083120e+00	 1.306402493751051e+00	 1.167461393991883e+01
 2.477880838748350e+00	 1.364156470312107e+00	 1.170537051119143e+01
 2.445513498416395e+00	 1.421365560154675e+00	 1.172408826029529e+01
 2.411721345112733e+00	 1.477977158165255e+00	 1.172209292941616e+01
 2.376520026596495e+00	 1.533939011081083e+00	 1.170228173624415e+01
 2.339927711760756e+00	 1.589199367689492e+00	 1.167868294007928e+01
 2.301965073401613e+00	 1.643707129439342e+00	 1.165355472430424e+01
 2.262655260259814e+00	 1.697412000590664e+00	 1.162787237543748e+01
 2.222023858320740e+00	 1.750264637014649e+00	 1.160019145409220e+01
 2.592237764630817e+00	 1.201486028942606e+00	 1.157611258344294e+01
 2.563930428558207e+00	 1.260764079293099e+00	 1.160929548035580e+01
 2.534151763720324e+00	 1.319598478536415e+00	 1.164490196724304e+01
 2.502909938129647e+00	 1.377935828598088e+00	 1.167614582882518e+01
 2.470215654966056e+00	 1.435722788035026e+00	 1.169520190274488e+01
 2.436082166780538e+00	 1.492906220368944e+00	 1.169342683587600e+01
 2.400525279390398e+00	 1.549433344526347e+00	 1.167827454057993e+01
 2.363563345212886e+00	 1.605251886555042e+00	 1.165790288721016e+01
 2.325217245860215e+00	 1.660310231756911e+00	 1.163467402623273e+01
 2.285510363898803e+00	 1.714557576354206e+00	 1.160988982501681e+01
 2.244468543758323e+00	 1.767944077792575e+00	 1.158254950374332e+01
 2.618160142277125e+00	 1.213500889232032e+00	 1.154855375234069e+01
 2.589569732843790e+00	 1.273371720086030e+00	 1.158074816103375e+01
 2.559493281357526e+00	 1.332794463321779e+00	 1.161562547037663e+01
 2.527939037510942e+00	 1.391715186884068e+00	 1.164674996466356e+01
 2.494917811515717e+00	 1.450080015915376e+00	 1.166589072522708e+01
 2.460442988448344e+00	 1.507835282572634e+00	 1.166556436901654e+01
 2.424530532184301e+00	 1.564927677971610e+00	 1.165418870350055e+01
 2.387198978665014e+00	 1.621304405420592e+00	 1.163630087753194e+01
 2.348469418318816e+00	 1.676913334074480e+00	 1.161438979041495e+01
 2.308365467537790e+00	 1.731703152117748e+00	 1.159008485098675e+01
 2.266913229195907e+00	 1.785623518570501e+00	 1.156285526159871e+01
 2.644082519923434e+00	 1.225515749521458e+00	 1.152220752755746e+01
 2.615209037129371e+00	 1.285979360878960e+00	 1.155336969587238e+01
 2.584834798994730e+00	 1.345990448107144e+00	 1.158658413235861e+01
 2.552968136892239e+00	 1.405494545170050e+00	 1.161683651657445e+01
 2.519619968065377e+00	 1.464437243795726e+00	 1.163568680166986e+01
 2.484803810116149e+00	 1.522764344776323e+00	 1.163736517642507e+01
 2.448535784978205e+00	 1.580422011416873e+00	 1.162877400426288e+01
 2.410834612117143e+00	 1.637356924286143e+00	 1.161256329327786e+01
 2.371721590777419e+00	 1.693516436392049e+00	 1.159132031568876e+01
 2.331220571176778e+00	 1.748848727881290e+00	 1.156700217952336e+01
 2.289357914633489e+00	 1.803302959348426e+00	 1.153957538321206e+01
 2.670004897569741e+00	 1.237530609810884e+00	 1.149686293497303e+01
 2.640848341414954e+00	 1.298587001671891e+00	 1.152654169686765e+01
 2.610176316631933e+00	 1.359186432892508e+00	 1.155745738764725e+01
 2.577997236273535e+00	 1.419273903456030e+00	 1.158589355796558e+01
 2.544322124615038e+00	 1.478794471676076e+00	 1.160395222292416e+01
 2.509164631783954e+00	 1.537693406980012e+00	 1.160754201739233e+01
 2.472541037772109e+00	 1.595916344862137e+00	 1.160069417017414e+01
 2.434470245569272e+00	 1.653409443151693e+00	 1.158529960765414e+01
 2.394973763236020e+00	 1.710119538709618e+00	 1.156401276329376e+01
 2.354075674815766e+00	 1.765994303644832e+00	 1.153911767067808e+01
 2.311802600071073e+00	 1.820982400126352e+00	 1.151110642329126e+01
 2.695927275216050e+00	 1.249545470100310e+00	 1.147225185832676e+01
 2.666487645700536e+00	 1.311194642464822e+00	 1.149982143781121e+01
 2.635517834269136e+00	 1.372382417677872e+00	 1.152782537477176e+01
 2.603026335654832e+00	 1.433053261742011e+00	 1.155329782235858e+01
 2.569024281164698e+00	 1.493151699556426e+00	 1.157002556762545e+01
 2.533525453451759e+00	 1.552622469183702e+00	 1.157472746396462e+01
 2.496546290566013e+00	 1.611410678307400e+00	 1.156854546677213e+01
 2.458105879021400e+00	 1.669461962017243e+00	 1.155306130639129e+01
 2.418225935694622e+00	 1.726722641027187e+00	 1.153096231741235e+01
 2.376930778454755e+00	 1.783139879408374e+00	 1.150485762244857e+01
 2.334247285508656e+00	 1.838661840904278e+00	 1.147579414607536e+01
 2.721849652862358e+00	 1.261560330389737e+00	 1.144805758451719e+01
 2.692126949986118e+00	 1.323802283257754e+00	 1.147273122372762e+01
 2.660859351906340e+00	 1.385578402463236e+00	 1.149705585530576e+01
 2.628055435036129e+00	 1.446832620027993e+00	 1.151871435716922e+01
 2.593726437714359e+00	 1.507508927436777e+00	 1.153300103028100e+01
 2.557886275119566e+00	 1.567551531387392e+00	 1.153749209829977e+01
 2.520551543359918e+00	 1.626905011752664e+00	 1.153087532053805e+01
 2.481741512473530e+00	 1.685514480882794e+00	 1.151436084695210e+01
 2.441478108153225e+00	 1.743325743344757e+00	 1.149063138751908e+01
 2.399785882093743e+00	 1.800285455171917e+00	 1.146261811981342e+01
 2.356691970946240e+00	 1.856341281682204e+00	 1.143193225098621e+01
 2.132245116570407e+00	 1.679546873902946e+00	 1.168408493489701e+01
 2.092014039767744e+00	 1.729399952639687e+00	 1.165083097869982e+01
 2.050570692819142e+00	 1.778343828545743e+00	 1.160103611257331e+01
 2.007946319835983e+00	 1.826334721630359e+00	 1.152602583302328e+01
 1.964174254628640e+00	 1.873330306227264e+00	 1.141918535434680e+01
 1.919289834649200e+00	 1.919289834649200e+00	 1.130148907836812e+01
 1.873330306227264e+00	 1.964174254628640e+00	 1.118392057560211e+01
 1.826334721630359e+00	 2.007946319835983e+00	 1.107214681448466e+01
 1.778343828545744e+00	 2.050570692819142e+00	 1.096723427460721e+01
 1.729399952639688e+00	 2.092014039767744e+00	 1.086366819792831e+01
 1.679546873902947e+00	 2.132245116570407e+00	 1.075424020553199e+01
 2.154689802007991e+00	 1.697226314680872e+00	 1.165882942633969e+01
 2.114035240186353e+00	 1.747604162667473e+00	 1.162597747130104e+01
 2.072155647480396e+00	 1.797063237267278e+00	 1.157638157795347e+01
 2.029082596886888e+00	 1.845559297647520e+00	 1.150022549538105e+01
 1.984849773098415e+00	 1.893049572608604e+00	 1.139805163483650e+01
 1.939492885540243e+00	 1.939492885540244e+00	 1.128817428510346e+01
 1.893049572608605e+00	 1.984849773098415e+00	 1.117715476970655e+01
 1.845559297647521e+00	 2.029082596886888e+00	 1.106996207535260e+01
 1.797063237267279e+00	 2.072155647480396e+00	 1.096852961847828e+01
 1.747604162667474e+00	 2.114035240186352e+00	 1.086726535787223e+01
 1.697226314680872e+00	 2.154689802007990e+00	 1.075745803821149e+01
 2.177134487445574e+00	 1.714905755458797e+00	 1.163695593957734e+01
 2.136056440604960e+00	 1.765808372695259e+00	 1.160406016024019e+01
 2.093740602141650e+00	 1.815782645988811e+00	 1.155441479785140e+01
 2.050218873937793e+00	 1.864783873664682e+00	 1.147785236443206e+01
 2.005525291568190e+00	 1.912768838989943e+00	 1.138276416600699e+01
 1.959695936431289e+00	 1.959695936431288e+00	 1.127961485824889e+01
 1.912768838989943e+00	 2.005525291568190e+00	 1.117423512385237e+01
 1.864783873664682e+00	 2.050218873937792e+00	 1.107104235763544e+01
 1.815782645988812e+00	 2.093740602141650e+00	 1.097173716939951e+01
 1.765808372695260e+00	 2.136056440604960e+00	 1.087156373764798e+01
 1.714905755458798e+00	 2.177134487445574e+00	 1.076032421208454e+01
 2.199579172883157e+00	 1.732585196236723e+00	 1.161774095332754e+01
 2.158077641023568e+00	 1.784012582723046e+00	 1.158440810662460e+01
 2.115325556802905e+00	 1.834502054710346e+00	 1.153455879550333e+01
 2.071355150988698e+00	 1.884008449681843e+00	 1.146035720405227e+01
 2.026200810037965e+00	 1.932488105371283e+00	 1.137145249105229e+01
 1.979898987322333e+00	 1.979898987322333e+00	 1.127405703705004e+01
 1.932488105371283e+00	 2.026200810037965e+00	 1.117353237653543e+01
 1.884008449681844e+00	 2.071355150988698e+00	 1.107381186102970e+01
 1.834502054710346e+00	 2.115325556802904e+00	 1.097596035037735e+01
 1.784012582723046e+00	 2.158077641023567e+00	 1.087595393117961e+01
 1.732585196236724e+00	 2.199579172883157e+00	 1.076255575790429e+01
 2.222023858320740e+00	 1.750264637014649e+00	 1.160019145409220e+01
 2.180098841442176e+00	 1.802216792750831e+00	 1.156608058561089e+01
 2.136910511464158e+00	 1.853221463431880e+00	 1.151597082263526e+01
 2.092491428039604e+00	 1.903233025699006e+00	 1.144582446529706e+01
 2.046876328507740e+00	 1.952207371752622e+00	 1.136208927232322e+01
 2.000102038213377e+00	 2.000102038213377e+00	 1.126958185301644e+01
 1.952207371752622e+00	 2.046876328507740e+00	 1.117324062245211e+01
 1.903233025699006e+00	 2.092491428039603e+00	 1.107657399345263e+01
 1.853221463431880e+00	 2.136910511464159e+00	 1.098003838189498e+01
 1.802216792750832e+00	 2.180098841442175e+00	 1.087957037544828e+01
 1.750264637014649e+00	 2.222023858320740e+00	 1.076362268743916e+01
 2.244468543758323e+00	 1.767944077792575e+00	 1.158254950374332e+01
 2.202120041860784e+00	 1.820421002778618e+00	 1.154786999499698e+01
 2.158495466125413e+00	 1.871940872153414e+00	 1.149823528939969e+01
 2.113627705090509e+00	 1.922457601716167e+00	 1.143199091399196e+01
 2.067551846977515e+00	 1.971926638133962e+00	 1.135251473115931e+01
 2.020305089104421e+00	 2.020305089104421e+00	 1.126412909243431e+01
 1.971926638133962e+00	 2.067551846977515e+00	 1.117140068588672e+01
 1.922457601716168e+00	 2.113627705090508e+00	 1.107747880468012e+01
 1.871940872153415e+00	 2.158495466125412e+00	 1.098235392628700e+01
 1.820421002778618e+00	 2.202120041860783e+00	 1.088128323461306e+01
 1.767944077792575e+00	 2.244468543758323e+00	 1.076328884452976e+01
 2.266913229195907e+00	 1.785623518570501e+00	 1.156285526159871e+01
 2.224141242279391e+00	 1.838625212806403e+00	 1.152830237215450e+01
 2.180080420786667e+00	 1.890660280874948e+00	 1.147974838411769e+01
 2.134763982141413e+00	 1.941682177733329e+00	 1.141649096242884e+01
 2.088227365447291e+00	 1.991645904515302e+00	 1.134046115029052e+01
 2.040508139995465e+00	 2.040508139995465e+00	 1.125552131911997e+01
 1.991645904515302e+00	 2.088227365447290e+00	 1.116592355117853e+01
 1.941682177733329e+00	 2.134763982141413e+00	 1.107453099173755e+01
 1.890660280874948e+00	 2.180080420786666e+00	 1.098094916417788e+01
 1.838625212806404e+00	 2.224141242279391e+00	 1.087968582542785e+01
 1.785623518570500e+00	 2.266913229195906e+00	 1.075968121788745e+01
 2.289357914633489e+00	 1.803302959348426e+00	 1.153957538321206e+01
 2.246162442697999e+00	 1.856829422834190e+00	 1.150531985351935e+01
 2.201665375447921e+00	 1.909379689596482e+00	 1.145795947307612e+01
 2.155900259192318e+00	 1.960906753750490e+00	 1.139688159191814e+01
 2.108902883917065e+00	 2.011365170896641e+00	 1.132357743451528e+01
 2.060711190886510e+00	 2.060711190886510e+00	 1.124148795327977e+01
 2.011365170896641e+00	 2.108902883917066e+00	 1.115461384635129e+01
 1.960906753750491e+00	 2.155900259192318e+00	 1.106561268188667e+01
 1.909379689596483e+00	 2.201665375447920e+00	 1.097379474509243e+01
 1.856829422834191e+00	 2.246162442697998e+00	 1.087210209906557e+01
 1.803302959348426e+00	 2.289357914633489e+00	 1.074957142011850e+01
 2.311802600071073e+00	 1.820982400126352e+00	 1.151110642329126e+01
 2.268183643116607e+00	 1.875033632861977e+00	 1.147679759538417e+01
 2.223250330109175e+00	 1.928099098318017e+00	 1.143026716718901e+01
 2.177036536243223e+00	 1.980131329767652e+00	 1.137066733090021e+01
 2.129578402386841e+00	 2.031084437277981e+00	 1.129945372569397e+01
 2.080914241777554e+00	 2.080914241777554e+00	 1.121968940266367e+01
 2.031084437277981e+00	 2.129578402386841e+00	 1.113519337629197e+01
 1.980131329767653e+00	 2.177036536243223e+00	 1.104850626175502e+01
 1.928099098318016e+00	 2.223250330109174e+00	 1.095873877674672e+01
 1.875033632861977e+00	 2.268183643116606e+00	 1.085474794057073e+01
 1.820982400126352e+00	 2.311802600071073e+00	 1.072974436794742e+01
 2.334247285508656e+00	 1.838661840904278e+00	 1.147579414607536e+01
 2.290204843535215e+00	 1.893237842889762e+00	 1.144051391874686e+01
 2.244835284770429e+00	 1.946818507039550e+00	 1.139393616991061e+01
 2.198172813294129e+00	 1.999355905784813e+00	 1.133532528487661e+01
 2.150253920856616e+00	 2.050803703659320e+00	 1.126564606840207e+01
 2.101117292668598e+00	 2.101117292668598e+00	 1.118774124249256e+01
 2.050803703659321e+00	 2.150253920856616e+00	 1.110532470214399e+01
 1.999355905784814e+00	 2.198172813294129e+00	 1.102091724950233e+01
 1.946818507039551e+00	 2.244835284770428e+00	 1.093180908370658e+01
 1.893237842889763e+00	 2.290204843535214e+00	 1.082429559241880e+01
 1.838661840904277e+00	 2.334247285508656e+00	 1.069702182290331e+01
 2.356691970946240e+00	 1.856341281682204e+00	 1.143193225098621e+01
 2.312226043953823e+00	 1.911442052917549e+00	 1.139431488159993e+01
 2.266420239431684e+00	 1.965537915761085e+00	 1.134657358892209e+01
 2.219309090345035e+00	 2.018580481801976e+00	 1.128833021470618e+01
 2.170929439326391e+00	 2.070522970040661e+00	 1.121970112286592e+01
 2.121320343559642e+00	 2.121320343559643e+00	 1.114323844090756e+01
 2.070522970040661e+00	 2.170929439326391e+00	 1.106263476383370e+01
 2.018580481801976e+00	 2.219309090345034e+00	 1.098049720715471e+01
 1.965537915761085e+00	 2.266420239431683e+00	 1.088880236459658e+01
 1.911442052917550e+00	 2.312226043953823e+00	 1.077766022813938e+01
 1.856341281682204e+00	 2.356691970946240e+00	 1.064828307090448e+01
 1.679546873902947e+00	 2.132245116570407e+00	 1.075424020553199e+01
 1.628829697536496e+00	 2.171234845703863e+00	 1.062650242273827e+01
 1.577294720169066e+00	 2.208956383567203e+00	 1.046685580316627e+01
 1.524989292227291e+00	 2.245385177952241e+00	 1.027277185840700e+01
 1.471961677300030e+00	 2.280499015420878e+00	 1.006926587159166e+01
 1.418260909350498e+00	 2.314278058441511e+00	 9.870048238957530e+00
 1.363936648633276e+00	 2.346704872217752e+00	 9.679545543489475e+00
 1.309039037168185e+00	 2.377764441223163e+00	 9.498994472556976e+00
 1.253618554609596e+00	 2.407444175534306e+00	 9.328836267945606e+00
 1.197725875328446e+00	 2.435733907130296e+00	 9.168481131776094e+00
 1.141411727495476e+00	 2.462625876399276e+00	 9.016212443377496e+00
 1.697226314680872e+00	 2.154689802007990e+00	 1.075745803821149e+01
 1.645975273300038e+00	 2.194089949342851e+00	 1.062529968883537e+01
 1.593897822486635e+00	 2.232208556025805e+00	 1.045710759327515e+01
 1.541041811092841e+00	 2.269020811404370e+00	 1.026621731096166e+01
 1.487456010745294e+00	 2.304504268214781e+00	 1.006844876759589e+01
 1.433189971554187e+00	 2.338638880109315e+00	 9.875158037623676e+00
 1.378293876513626e+00	 2.371407028767413e+00	 9.692765708643016e+00
 1.322818395454166e+00	 2.402793540604461e+00	 9.521910169516095e+00
 1.266814539394961e+00	 2.432785693171510e+00	 9.362256497394634e+00
 1.210333516121377e+00	 2.461373211415879e+00	 9.212284238162098e+00
 1.153426587784902e+00	 2.488548254045584e+00	 9.069191333358550e+00
 1.714905755458798e+00	 2.177134487445574e+00	 1.076032421208454e+01
 1.663120849063580e+00	 2.216945052981839e+00	 1.062284388245416e+01
 1.610500924804205e+00	 2.255460728484408e+00	 1.045275824649403e+01
 1.557094329958391e+00	 2.292656444856498e+00	 1.026623009736637e+01
 1.502950344190557e+00	 2.328509521008685e+00	 1.007381838475019e+01
 1.448119033757876e+00	 2.362999701777121e+00	 9.886018467664831e+00
 1.392651104393976e+00	 2.396109185317073e+00	 9.710799357999433e+00
 1.336597753740147e+00	 2.427822639985757e+00	 9.548458634834217e+00
 1.280010524180325e+00	 2.458127210808713e+00	 9.397699626769136e+00
 1.222941156914307e+00	 2.487012515701461e+00	 9.255863885704120e+00
 1.165441448074328e+00	 2.514470631691891e+00	 9.118835249545349e+00
 1.732585196236724e+00	 2.199579172883157e+00	 1.076255575790429e+01
 1.680266424827122e+00	 2.239800156620826e+00	 1.062071816209984e+01
 1.627104027121773e+00	 2.278712900943009e+00	 1.045304746830528e+01
 1.573146848823942e+00	 2.316292078308627e+00	 1.027043491463415e+01
 1.518444677635821e+00	 2.352514773802589e+00	 1.008310991271409e+01
 1.463048095961566e+00	 2.387360523444927e+00	 9.900771454265261e+00
 1.407008332274326e+00	 2.420811341866734e+00	 9.732035356380752e+00
 1.350377112026128e+00	 2.452851739367053e+00	 9.577278794623126e+00
 1.293206508965689e+00	 2.483468728445916e+00	 9.434059520483622e+00
 1.235548797707238e+00	 2.512651819987043e+00	 9.298374245947866e+00
 1.177456308363754e+00	 2.540393009338200e+00	 9.164563188132872e+00
 1.750264637014649e+00	 2.222023858320740e+00	 1.076362268743916e+01
 1.697412000590664e+00	 2.262655260259814e+00	 1.062084711298352e+01
 1.643707129439342e+00	 2.301965073401611e+00	 1.045527977825489e+01
 1.589199367689492e+00	 2.339927711760756e+00	 1.027632160013074e+01
 1.533939011081084e+00	 2.376520026596492e+00	 1.009399245080344e+01
 1.477977158165256e+00	 2.411721345112732e+00	 9.917374620972581e+00
 1.421365560154677e+00	 2.445513498416395e+00	 9.754678075886694e+00
 1.364156470312109e+00	 2.477880838748349e+00	 9.606827050088572e+00
 1.306402493751053e+00	 2.508810246083119e+00	 9.470051775896764e+00
 1.248156438500169e+00	 2.538291124272624e+00	 9.338797851138425e+00
 1.189471168653180e+00	 2.566315386984509e+00	 9.205631528674612e+00
 1.767944077792575e+00	 2.244468543758323e+00	 1.076328884452976e+01
 1.714557576354206e+00	 2.285510363898802e+00	 1.062041840713030e+01
 1.660310231756911e+00	 2.325217245860214e+00	 1.045666365048577e+01
 1.605251886555042e+00	 2.363563345212885e+00	 1.028126459860813e+01
 1.549433344526347e+00	 2.400525279390397e+00	 1.010400128555032e+01
 1.492906220368945e+00	 2.436082166780538e+00	 9.933506421993327e+00
 1.435722788035027e+00	 2.470215654966056e+00	 9.776754689898215e+00
 1.377935828598089e+00	 2.502909938129645e+00	 9.635383483124006e+00
 1.319598478536417e+00	 2.534151763720322e+00	 9.504218830033240e+00
 1.260764079293100e+00	 2.563930428558206e+00	 9.375949603961356e+00
 1.201486028942606e+00	 2.592237764630817e+00	 9.241136960299317e+00
 1.785623518570500e+00	 2.266913229195906e+00	 1.075968121788745e+01
 1.731703152117748e+00	 2.308365467537790e+00	 1.061640382969688e+01
 1.676913334074481e+00	 2.348469418318816e+00	 1.045433241912747e+01
 1.621304405420592e+00	 2.387198978665014e+00	 1.028254246544329e+01
 1.564927677971611e+00	 2.424530532184301e+00	 1.011055590472796e+01
 1.507835282572634e+00	 2.460442988448342e+00	 9.946524243908259e+00
 1.450080015915377e+00	 2.494917811515716e+00	 9.796122530970626e+00
 1.391715186884070e+00	 2.527939037510941e+00	 9.661058140225769e+00
 1.332794463321781e+00	 2.559493281357525e+00	 9.534935161181799e+00
 1.273371720086031e+00	 2.589569732843788e+00	 9.408480900540233e+00
 1.213500889232032e+00	 2.618160142277125e+00	 9.269758604067892e+00
 1.803302959348426e+00	 2.289357914633489e+00	 1.074957142011850e+01
 1.748848727881291e+00	 2.331220571176778e+00	 1.060574326290369e+01
 1.693516436392049e+00	 2.371721590777418e+00	 1.044536521450359e+01
 1.637356924286143e+00	 2.410834612117142e+00	 1.027735740359680e+01
 1.580422011416874e+00	 2.448535784978205e+00	 1.011097805100860e+01
 1.522764344776324e+00	 2.484803810116148e+00	 9.953868496533556e+00
 1.464437243795727e+00	 2.519619968065375e+00	 9.810476508232110e+00
 1.405494545170051e+00	 2.552968136892237e+00	 9.681797389354399e+00
 1.345990448107145e+00	 2.584834798994728e+00	 9.560412578858504e+00
 1.285979360878962e+00	 2.615209037129370e+00	 9.432398445891213e+00
 1.225515749521458e+00	 2.644082519923433e+00	 9.287893044697540e+00
 1.820982400126352e+00	 2.311802600071073e+00	 1.072974436794742e+01
 1.765994303644832e+00	 2.354075674815766e+00	 1.058536694701041e+01
 1.710119538709618e+00	 2.394973763236020e+00	 1.042680792806243e+01
 1.653409443151693e+00	 2.434470245569272e+00	 1.026285483200033e+01
 1.595916344862138e+00	 2.472541037772109e+00	 1.010250981256142e+01
 1.537693406980013e+00	 2.509164631783953e+00	 9.952887569880447e+00
 1.478794471676077e+00	 2.544322124615036e+00	 9.817356580243340e+00
 1.419273903456032e+00	 2.577997236273534e+00	 9.695390344785000e+00
 1.359186432892509e+00	 2.610176316631931e+00	 9.576187390402367e+00
 1.298587001671894e+00	 2.640848341414952e+00	 9.440719369807521e+00
 1.237530609810884e+00	 2.670004897569741e+00	 9.291158642340573e+00
 1.838661840904277e+00	 2.334247285508656e+00	 1.069702182290331e+01
 1.783139879408374e+00	 2.376930778454754e+00	 1.055221776837655e+01
 1.726722641027187e+00	 2.418225935694622e+00	 1.039569420409761e+01
 1.669461962017244e+00	 2.458105879021401e+00	 1.023614298325728e+01
 1.611410678307401e+00	 2.496546290566013e+00	 1.008233174810395e+01
 1.552622469183702e+00	 2.533525453451758e+00	 9.940845196873243e+00
 1.493151699556427e+00	 2.569024281164697e+00	 9.814083376797866e+00
 1.433053261742013e+00	 2.603026335654830e+00	 9.698357277386492e+00
 1.372382417677874e+00	 2.635517834269134e+00	 9.571894986286372e+00
 1.311194642464824e+00	 2.666487645700534e+00	 9.429310692085238e+00
 1.249545470100310e+00	 2.695927275216049e+00	 9.275292274619495e+00
 1.856341281682204e+00	 2.356691970946240e+00	 1.064828307090448e+01
 1.800285455171917e+00	 2.399785882093743e+00	 1.050327357280187e+01
 1.743325743344757e+00	 2.441478108153224e+00	 1.034906645647250e+01
 1.685514480882795e+00	 2.481741512473529e+00	 1.019431252870231e+01
 1.626905011752665e+00	 2.520551543359917e+00	 1.004758104411001e+01
 1.567551531387392e+00	 2.557886275119564e+00	 9.914937085410129e+00
 1.507508927436778e+00	 2.593726437714358e+00	 9.797777275641515e+00
 1.446832620027994e+00	 2.628055435036127e+00	 9.678324332816864e+00
 1.385578402463238e+00	 2.660859351906338e+00	 9.543301953326900e+00
 1.323802283257756e+00	 2.692126949986117e+00	 9.394212031647472e+00
 1.261560330389736e+00	 2.721849652862358e+00	 9.236152270651502e+00
 1.141411727495476e+00	 2.462625876399276e+00	 9.016212443377496e+00
 1.084726754918618e+00	 2.488114709160178e+00	 8.872617713377485e+00
 1.027721382345526e+00	 2.512197384570987e+00	 8.735319033369763e+00
 9.704456848950315e-01	 2.534873194351962e+00	 8.595114330114196e+00
 9.129492622291342e-01	 2.556143693803381e+00	 8.443097522488312e+00
 8.552811180212289e-01	 2.576012645142075e+00	 8.271939138467411e+00
 7.974895452171681e-01	 2.594485953718930e+00	 8.076998608796746e+00
 7.396220175244794e-01	 2.611571597710567e+00	 7.876881397694509e+00
 6.817250875022945e-01	 2.627279551902595e+00	 7.688814977914417e+00
 6.238442915612132e-01	 2.641621706199054e+00	 7.515647143342258e+00
 5.660240621190862e-01	 2.654611779503308e+00	 7.362890844800333e+00
 1.153426587784902e+00	 2.488548254045584e+00	 9.069191333358550e+00
 1.096144931286183e+00	 2.514305390309233e+00	 8.932538266066983e+00
 1.038539502159690e+00	 2.538641567566471e+00	 8.799049996305255e+00
 9.806609026307689e-01	 2.561556070081984e+00	 8.657110316919747e+00
 9.225592544631251e-01	 2.583050469527627e+00	 8.495526057482152e+00
 8.642840771582943e-01	 2.603128567722517e+00	 8.309321459266981e+00
 8.058841720089280e-01	 2.621796332179129e+00	 8.119654330663590e+00
 7.474075124457900e-01	 2.639061825054889e+00	 7.938016562354986e+00
 6.889011410549505e-01	 2.654935126133148e+00	 7.770866985239484e+00
 6.304110735776471e-01	 2.669428250474834e+00	 7.620036895929084e+00
 5.719822101413925e-01	 2.682555061392816e+00	 7.490221394581653e+00
 1.165441448074328e+00	 2.514470631691891e+00	 9.118835249545349e+00
 1.107563107653747e+00	 2.540496071458286e+00	 8.984616277766165e+00
 1.049357621973854e+00	 2.565085750561955e+00	 8.848685514498641e+00
 9.908761203665057e-01	 2.588238945812004e+00	 8.697033867503592e+00
 9.321692466971155e-01	 2.609957245251872e+00	 8.524701977043263e+00
 8.732870362953596e-01	 2.630244490302960e+00	 8.346934561466455e+00
 8.142787988006878e-01	 2.649106710639328e+00	 8.171075448722402e+00
 7.551930073671002e-01	 2.666552052399212e+00	 8.004955045888883e+00
 6.960771946076059e-01	 2.682590700363701e+00	 7.854917172302031e+00
 6.369778555940807e-01	 2.697234794750612e+00	 7.722007448095191e+00
 5.779403581636985e-01	 2.710498343282325e+00	 7.610014244543541e+00
 1.177456308363754e+00	 2.540393009338200e+00	 9.164563188132872e+00
 1.118981284021312e+00	 2.566686752607340e+00	 9.028623477326157e+00
 1.060175741788017e+00	 2.591529933557439e+00	 8.884258887148823e+00
 1.001091338102243e+00	 2.614921821542024e+00	 8.725109946046404e+00
 9.417792389311068e-01	 2.636864020976118e+00	 8.559030048444225e+00
 8.822899954324254e-01	 2.657360412883403e+00	 8.390845782640902e+00
 8.226734255924473e-01	 2.676417089099528e+00	 8.226627866928059e+00
 7.629785022884102e-01	 2.694042279743534e+00	 8.073271557466441e+00
 7.032532481602618e-01	 2.710246274594255e+00	 7.936811527155637e+00
 6.435446376105147e-01	 2.725041339026391e+00	 7.817705686167468e+00
 5.838985061860047e-01	 2.738441625171833e+00	 7.718758692720961e+00
 1.189471168653180e+00	 2.566315386984509e+00	 9.205631528674612e+00
 1.130399460388876e+00	 2.592877433756394e+00	 9.064178595160136e+00
 1.070993861602181e+00	 2.617974116552923e+00	 8.913457175708510e+00
 1.011306555837980e+00	 2.641604697272045e+00	 8.756792321584255e+00
 9.513892311650975e-01	 2.663770796700365e+00	 8.596423687843476e+00
 8.912929545694911e-01	 2.684476335463847e+00	 8.436345756482282e+00
 8.310680523842069e-01	 2.703727467559726e+00	 8.281756196408256e+00
 7.707639972097206e-01	 2.721532507087855e+00	 8.138612918390365e+00
 7.104293017129174e-01	 2.737901848824809e+00	 8.012465891664720e+00
 6.501114196269484e-01	 2.752847883302171e+00	 7.903343481861753e+00
 5.898566542083108e-01	 2.766384907061342e+00	 7.813003412685890e+00
 1.201486028942606e+00	 2.592237764630817e+00	 9.241136960299317e+00
 1.141817636756440e+00	 2.619068114905449e+00	 9.094361362677930e+00
 1.081811981416344e+00	 2.644418299548408e+00	 8.942256330378788e+00
 1.021521773573717e+00	 2.668287573002066e+00	 8.787696192678968e+00
 9.609992233990885e-01	 2.690677572424611e+00	 8.632152967924975e+00
 9.002959137065562e-01	 2.711592258044288e+00	 8.478806256440656e+00
 8.394626791759665e-01	 2.731037846019926e+00	 8.331981151143669e+00
 7.785494921310309e-01	 2.749022734432178e+00	 8.196696425448163e+00
 7.176053552655731e-01	 2.765557423055362e+00	 8.077862439307280e+00
 6.566782016433822e-01	 2.780654427577951e+00	 7.975194396653881e+00
 5.958148022306170e-01	 2.794328188950851e+00	 7.889353471217102e+00
 1.213500889232032e+00	 2.618160142277125e+00	 9.269758604067892e+00
 1.153235813124005e+00	 2.645258796054503e+00	 9.119309033692721e+00
 1.092630101230507e+00	 2.670862482543891e+00	 8.965966031355112e+00
 1.031736991309454e+00	 2.694970448732085e+00	 8.813123758165284e+00
 9.706092156330792e-01	 2.717584348148857e+00	 8.661571458874120e+00
 9.092988728436222e-01	 2.738708180624732e+00	 8.513677904556056e+00
 8.478573059677262e-01	 2.758348224480125e+00	 8.372897131484290e+00
 7.863349870523410e-01	 2.776512961776498e+00	 8.243307389525253e+00
 7.247814088182286e-01	 2.793212997285916e+00	 8.129046327485778e+00
 6.632449836598160e-01	 2.808460971853730e+00	 8.029590548011502e+00
 6.017729502529230e-01	 2.822271470840358e+00	 7.944467491221618e+00
 1.225515749521458e+00	 2.644082519923433e+00	 9.287893044697540e+00
 1.164653989491569e+00	 2.671449477203558e+00	 9.134407502531705e+00
 1.103448221044670e+00	 2.697306665539375e+00	 8.979970985480712e+00
 1.041952209045192e+00	 2.721653324462106e+00	 8.828463198247386e+00
 9.802192078670700e-01	 2.744491123873102e+00	 8.680114315294455e+00
 9.183018319806876e-01	 2.765824103205174e+00	 8.536488055864057e+00
 8.562519327594856e-01	 2.785658602940323e+00	 8.400169982609984e+00
 7.941204819736513e-01	 2.804003189120820e+00	 8.274296844816439e+00
 7.319574623708843e-01	 2.820868571516470e+00	 8.162122512369573e+00
 6.698117656762498e-01	 2.836267516129509e+00	 8.062919626378815e+00
 6.077310982752294e-01	 2.850214752729867e+00	 7.975054949939715e+00
 1.237530609810884e+00	 2.670004897569741e+00	 9.291158642340573e+00
 1.176072165859133e+00	 2.697640158352613e+00	 9.135147678077056e+00
 1.114266340858834e+00	 2.723750848534859e+00	 8.979746958490553e+00
 1.052167426780929e+00	 2.748336200192127e+00	 8.829187194342559e+00
 9.898292001010611e-01	 2.771397899597349e+00	 8.683296523900900e+00
 9.273047911177531e-01	 2.792940025785617e+00	 8.542838846441370e+00
 8.646465595512454e-01	 2.812968981400523e+00	 8.409534916047084e+00
 8.019059768949615e-01	 2.831493416465141e+00	 8.285579417042790e+00
 7.391335159235402e-01	 2.848524145747023e+00	 8.173252715223075e+00
 6.763785476926836e-01	 2.864074060405289e+00	 8.071622052668342e+00
 6.136892462975356e-01	 2.878158034619375e+00	 7.977873603240041e+00
 1.249545470100310e+00	 2.695927275216049e+00	 9.275292274619495e+00
 1.187490342226698e+00	 2.723830839501667e+00	 9.117127521627108e+00
 1.125084460672997e+00	 2.750195031530343e+00	 8.960880886555495e+00
 1.062382644516666e+00	 2.775019075922148e+00	 8.810851593018040e+00
 9.994391923350520e-01	 2.798304675321594e+00	 8.666711301168949e+00
 9.363077502548185e-01	 2.820055948366059e+00	 8.528405394078899e+00
 8.730411863430050e-01	 2.840279359860722e+00	 8.396794583264928e+00
 8.096914718162718e-01	 2.858983643809463e+00	 8.273131339970634e+00
 7.463095694761959e-01	 2.876179719977577e+00	 8.158669366855092e+00
 6.829453297091173e-01	 2.891880604681068e+00	 8.052188266803048e+00
 6.196473943198417e-01	 2.906101316508884e+00	 7.949727027517147e+00
 1.261560330389736e+00	 2.721849652862358e+00	 9.236152270651502e+00
 1.198908518594263e+00	 2.750021520650722e+00	 9.076054199524423e+00
 1.135902580487161e+00	 2.776639214525829e+00	 8.918998043178775e+00
 1.072597862252403e+00	 2.801701951652169e+00	 8.769094204415641e+00
 1.009049184569043e+00	 2.825211451045841e+00	 8.626028630941981e+00
 9.453107093918843e-01	 2.847171870946503e+00	 8.488934141405727e+00
 8.814358131347648e-01	 2.867589738320922e+00	 8.357817291214559e+00
 8.174769667375824e-01	 2.886473871153786e+00	 8.232988610346514e+00
 7.534856230288519e-01	 2.903835294208132e+00	 8.114668240363528e+00
 6.895121117255513e-01	 2.919687148956848e+00	 8.001156138571815e+00
 6.256055423421479e-01	 2.934044598398393e+00	 7.887462271351843e+00
 5.660240621190862e-01	 2.654611779503308e+00	 7.362890844800333e+00
 5.083076470963794e-01	 2.666265229619673e+00	 7.236097052120876e+00
 4.507370368739153e-01	 2.676599159823083e+00	 7.133389142871624e+00
 3.933528987771532e-01	 2.685632222736225e+00	 7.049785287312601e+00
 3.361945190951003e-01	 2.693384522140484e+00	 6.979639877999258e+00
 2.792997525890556e-01	 2.699877513328929e+00	 6.918813501985174e+00
 2.227049793970122e-01	 2.705133902587317e+00	 6.868824681953130e+00
 1.664450691939671e-01	 2.709177546362830e+00	 6.830687954002773e+00
 1.105533524268999e-01	 2.712033350650888e+00	 6.804403121954217e+00
 5.506159840590186e-02	 2.713727171098174e+00	 6.788934863460809e+00
 0.000000000000000e+00	 2.714285714285714e+00	 6.782201196364428e+00
 5.719822101413925e-01	 2.682555061392816e+00	 7.490221394581651e+00
 5.136582539079202e-01	 2.694331179405143e+00	 7.385564710075166e+00
 4.554816372620616e-01	 2.704773887821220e+00	 7.302915237530373e+00
 3.974934556063864e-01	 2.713902035607134e+00	 7.236640394832278e+00
 3.397334087697856e-01	 2.721735938163016e+00	 7.180582883396845e+00
 2.822397499847299e-01	 2.728297276627128e+00	 7.129881189009172e+00
 2.250492423380334e-01	 2.733608996298762e+00	 7.085356583199823e+00
 1.681971225539036e-01	 2.737695204745596e+00	 7.047459115315652e+00
 1.117170719261305e-01	 2.740581070131425e+00	 7.015672189144768e+00
 5.564119417859555e-02	 2.742292720267628e+00	 6.988544899080651e+00
 0.000000000000000e+00	 2.742857142857143e+00	 6.963726737785152e+00
 5.779403581636985e-01	 2.710498343282325e+00	 7.610014244543541e+00
 5.190088607194612e-01	 2.722397129190615e+00	 7.521817512475216e+00
 4.602262376502082e-01	 2.732948615819359e+00	 7.453431322295154e+00
 4.016340124356196e-01	 2.742171848478042e+00	 7.399005586103771e+00
 3.432722984444708e-01	 2.750087354185547e+00	 7.352258221467626e+00
 2.851797473804041e-01	 2.756717039925328e+00	 7.307992384646814e+00
 2.273935052790546e-01	 2.762084090010207e+00	 7.266622630829875e+00
 1.699491759138400e-01	 2.766212863128363e+00	 7.228316280362922e+00
 1.128807914253609e-01	 2.769128789611960e+00	 7.192310270625560e+00
 5.622078995128927e-02	 2.770858269437083e+00	 7.156999606827529e+00
 0.000000000000000e+00	 2.771428571428571e+00	 7.120021322136589e+00
 5.838985061860047e-01	 2.738441625171833e+00	 7.718758692720961e+00
 5.243594675310019e-01	 2.750463078976084e+00	 7.641735301676248e+00
 4.649708380383547e-01	 2.761123343817496e+00	 7.582252812372639e+00
 4.057745692648528e-01	 2.770441661348949e+00	 7.534658420391928e+00
 3.468111881191561e-01	 2.778438770208079e+00	 7.492921505880186e+00
 2.881197447760784e-01	 2.785136803223527e+00	 7.451878773839096e+00
 2.297377682200757e-01	 2.790559183721653e+00	 7.411806362597972e+00
 1.717012292737766e-01	 2.794730521511130e+00	 7.372843949162821e+00
 1.140445109245915e-01	 2.797676509092495e+00	 7.334226092121721e+00
 5.680038572398297e-02	 2.799423818606537e+00	 7.294430520315691e+00
 0.000000000000000e+00	 2.800000000000000e+00	 7.251314657100530e+00
 5.898566542083108e-01	 2.766384907061342e+00	 7.813003412685890e+00
 5.297100743425428e-01	 2.778529028761555e+00	 7.742250342090008e+00
 4.697154384265010e-01	 2.789298071815633e+00	 7.686739014133112e+00
 4.099151260940860e-01	 2.798711474219856e+00	 7.641410611606263e+00
 3.503500777938414e-01	 2.806790186230610e+00	 7.600850535777175e+00
 2.910597421717528e-01	 2.813556566521726e+00	 7.560282421836993e+00
 2.320820311610969e-01	 2.819034277433098e+00	 7.520090660061646e+00
 1.734532826337131e-01	 2.823248179893897e+00	 7.480615643178709e+00
 1.152082304238220e-01	 2.826224228573031e+00	 7.441307737071035e+00
 5.737998149667667e-02	 2.827989367775992e+00	 7.400939477884315e+00
 0.000000000000000e+00	 2.828571428571428e+00	 7.357798280359072e+00
 5.958148022306170e-01	 2.794328188950851e+00	 7.889353471217102e+00
 5.350606811540835e-01	 2.806594978547024e+00	 7.820344754723158e+00
 4.744600388146475e-01	 2.817472799813771e+00	 7.764291077789646e+00
 4.140556829233191e-01	 2.826981287090764e+00	 7.717106567402199e+00
 3.538889674685267e-01	 2.835141602253140e+00	 7.674344613242623e+00
 2.939997395674270e-01	 2.841976329819925e+00	 7.631955641963902e+00
 2.344262941021180e-01	 2.847509371144544e+00	 7.590658167779954e+00
 1.752053359936495e-01	 2.851765838276664e+00	 7.551194839907029e+00
 1.163719499230525e-01	 2.854771948053567e+00	 7.513424024339673e+00
 5.795957726937037e-02	 2.856554916945446e+00	 7.476600336160095e+00
 0.000000000000000e+00	 2.857142857142856e+00	 7.439627468095017e+00
 6.017729502529230e-01	 2.822271470840358e+00	 7.944467491221618e+00
 5.404112879656244e-01	 2.834660928332494e+00	 7.873048075160041e+00
 4.792046392027940e-01	 2.845647527811909e+00	 7.812350046406733e+00
 4.181962397525523e-01	 2.855251099961671e+00	 7.759621993898989e+00
 3.574278571432118e-01	 2.863493018275672e+00	 7.711723893755415e+00
 2.969397369631013e-01	 2.870396093118124e+00	 7.665660863467675e+00
 2.367705570431392e-01	 2.875984464855989e+00	 7.622691681057121e+00
 1.769573893535861e-01	 2.880283496659430e+00	 7.584135847388906e+00
 1.175356694222830e-01	 2.883319667534102e+00	 7.550425801691399e+00
 5.853917304206406e-02	 2.885120466114900e+00	 7.521460581132088e+00
 0.000000000000000e+00	 2.885714285714285e+00	 7.496923030115255e+00
 6.077310982752294e-01	 2.850214752729867e+00	 7.975054949939715e+00
 5.457618947771653e-01	 2.862726878117965e+00	 7.897434926518931e+00
 4.839492395909404e-01	 2.873822255810046e+00	 7.828394994629265e+00
 4.223367965817855e-01	 2.883520912832579e+00	 7.766862561510286e+00
 3.609667468178971e-01	 2.891844434298203e+00	 7.711328767364409e+00
 2.998797343587755e-01	 2.898815856416324e+00	 7.660170499456738e+00
 2.391148199841604e-01	 2.904459558567435e+00	 7.615374504389507e+00
 1.787094427135225e-01	 2.908801155042195e+00	 7.578984622767628e+00
 1.186993889215136e-01	 2.911867387014638e+00	 7.552147160791603e+00
 5.911876881475776e-02	 2.913686015284354e+00	 7.535542843772500e+00
 0.000000000000000e+00	 2.914285714285714e+00	 7.529772999379226e+00
 6.136892462975356e-01	 2.878158034619375e+00	 7.977873603240041e+00
 5.511125015887062e-01	 2.890792827903435e+00	 7.890622799568007e+00
 4.886938399790869e-01	 2.901996983808184e+00	 7.809941251032886e+00
 4.264773534110187e-01	 2.911790725703486e+00	 7.736762627735335e+00
 3.645056364925823e-01	 2.920195850320735e+00	 7.671519268497550e+00
 3.028197317544497e-01	 2.927235619714522e+00	 7.614266814914453e+00
 2.414590829251815e-01	 2.932934652278879e+00	 7.567890782607245e+00
 1.804614960734590e-01	 2.937318813424963e+00	 7.535279538695622e+00
 1.198631084207441e-01	 2.940415106495173e+00	 7.518406579079596e+00
 5.969836458745147e-02	 2.942251564453808e+00	 7.518846326690316e+00
 0.000000000000000e+00	 2.942857142857143e+00	 7.538234223107885e+00
 6.196473943198417e-01	 2.906101316508884e+00	 7.949727027517147e+00
 5.564631084002469e-01	 2.918858777688906e+00	 7.849769932787914e+00
 4.934384403672333e-01	 2.930171711806321e+00	 7.754538698468586e+00
 4.306179102402518e-01	 2.940060538574393e+00	 7.667284013075657e+00
 3.680445261672676e-01	 2.948547266343266e+00	 7.590674512477770e+00
 3.057597291501240e-01	 2.955655383012722e+00	 7.526741794786135e+00
 2.438033458662027e-01	 2.961409745990324e+00	 7.479425806548048e+00
 1.822135494333955e-01	 2.965836471807729e+00	 7.451782146251425e+00
 1.210268279199746e-01	 2.968962825975708e+00	 7.445508245441998e+00
 6.027796036014518e-02	 2.970817113623264e+00	 7.465142560534730e+00
 0.000000000000000e+00	 2.971428571428571e+00	 7.514934663238359e+00
 6.256055423421479e-01	 2.934044598398393e+00	 7.887462271351843e+00
 5.618137152117879e-01	 2.946924727474376e+00	 7.772073285718403e+00
 4.981830407553799e-01	 2.958346439804460e+00	 7.659770147200947e+00
 4.347584670694851e-01	 2.968330351445302e+00	 7.554280300799702e+00
 3.715834158419529e-01	 2.976898682365798e+00	 7.451854617640450e+00
 3.086997265457984e-01	 2.984075146310921e+00	 7.359015246255851e+00
 2.461476088072240e-01	 2.989884839701771e+00	 7.284935912051435e+00
 1.839656027933320e-01	 2.994354130190497e+00	 7.238616623852206e+00
 1.221905474192052e-01	 2.997510545456245e+00	 7.227897580730748e+00
 6.085755613283890e-02	 2.999382662792718e+00	 7.259777947629956e+00
 0.000000000000000e+00	 3.000000000000000e+00	 7.340672552422196e+00
