x	y	stress_xx
 1.0000000000e+00	 0.0000000000e+00	 5.3240303238e-01
 9.9979422093e-01	 2.0285852044e-02	 5.4958845973e-01
 9.9917018182e-01	 4.0730182473e-02	 5.8819849265e-01
 9.9811804340e-01	 6.1321867598e-02	 6.4827777501e-01
 9.9662827990e-01	 8.2049202936e-02	 7.2984915230e-01
 9.9469171544e-01	 1.0289990885e-01	 8.3289552268e-01
 9.9229956079e-01	 1.2386113861e-01	 9.5733968880e-01
 9.8944345048e-01	 1.4491948902e-01	 1.1030228731e+00
 9.8611547993e-01	 1.6606101359e-01	 1.2696827029e+00
 9.8230824249e-01	 1.8727123840e-01	 1.4569316030e+00
 9.7801486613e-01	 2.0853518078e-01	 1.6642366512e+00
 1.0285714286e+00	 0.0000000000e+00	 8.9984630278e-01
 1.0283597701e+00	 2.0865447817e-02	 9.1360877589e-01
 1.0277179013e+00	 4.1893901972e-02	 9.4433382078e-01
 1.0266357018e+00	 6.3073920958e-02	 9.9209525559e-01
 1.0251033736e+00	 8.4393465877e-02	 1.0569507282e+00
 1.0231114787e+00	 1.0583990624e-01	 1.1389184541e+00
 1.0206509768e+00	 1.2740002829e-01	 1.2379513535e+00
 1.0177132634e+00	 1.4906004585e-01	 1.3539093821e+00
 1.0142902079e+00	 1.7080561397e-01	 1.4865310261e+00
 1.0103741923e+00	 1.9262184522e-01	 1.6354050918e+00
 1.0059581480e+00	 2.1449332880e-01	 1.7999440634e+00
 1.0571428571e+00	 0.0000000000e+00	 1.3172235912e+00
 1.0569253193e+00	 2.1445043590e-02	 1.3270090429e+00
 1.0562656208e+00	 4.3057621472e-02	 1.3495536669e+00
 1.0551533602e+00	 6.4825974318e-02	 1.3849390882e+00
 1.0535784673e+00	 8.6737728818e-02	 1.4332391029e+00
 1.0515312420e+00	 1.0877990364e-01	 1.4944907210e+00
 1.0490023928e+00	 1.3093891796e-01	 1.5686619023e+00
 1.0459830762e+00	 1.5320060268e-01	 1.6556169320e+00
 1.0424649359e+00	 1.7555021436e-01	 1.7550805889e+00
 1.0384401421e+00	 1.9797245203e-01	 1.8666024563e+00
 1.0339014299e+00	 2.2045147683e-01	 1.9895228981e+00
 1.0857142857e+00	 0.0000000000e+00	 1.7654565617e+00
 1.0854908684e+00	 2.2024639362e-02	 1.7705299127e+00
 1.0848133403e+00	 4.4221340971e-02	 1.7843950361e+00
 1.0836710185e+00	 6.6578027678e-02	 1.8071307110e+00
 1.0820535610e+00	 8.9081991759e-02	 1.8388195069e+00
 1.0799510053e+00	 1.1171990104e-01	 1.8795124049e+00
 1.0773538089e+00	 1.3447780764e-01	 1.9291892860e+00
 1.0742528891e+00	 1.5734115951e-01	 1.9877164022e+00
 1.0706396639e+00	 1.8029481475e-01	 2.0548021916e+00
 1.0665060918e+00	 2.0332305884e-01	 2.1299530358e+00
 1.0618447118e+00	 2.2640962485e-01	 2.2124307631e+00
 1.1142857143e+00	 0.0000000000e+00	 2.2270828329e+00
 1.1140564176e+00	 2.2604235135e-02	 2.2266081156e+00
 1.1133610597e+00	 4.5385060470e-02	 2.2312181222e+00
 1.1121886769e+00	 6.8330081038e-02	 2.2409365819e+00
 1.1105286547e+00	 9.1426254700e-02	 2.2557938683e+00
 1.1083707686e+00	 1.1465989843e-01	 2.2759037094e+00
 1.1057052249e+00	 1.3801669731e-01	 2.3012924040e+00
 1.1025227020e+00	 1.6148171634e-01	 2.3318380809e+00
 1.0988143919e+00	 1.8503941514e-01	 2.3672423699e+00
 1.0945720416e+00	 2.0867366565e-01	 2.4069763176e+00
 1.0897879937e+00	 2.3236777287e-01	 2.4502281080e+00
 1.1428571429e+00	 0.0000000000e+00	 2.6619113913e+00
 1.1426219668e+00	 2.3183830908e-02	 2.6561945045e+00
 1.1419087792e+00	 4.6548779969e-02	 2.6528022407e+00
 1.1407063353e+00	 7.0082134397e-02	 2.6516345134e+00
 1.1390037485e+00	 9.3770517641e-02	 2.6525755527e+00
 1.1367905319e+00	 1.1759989583e-01	 2.6554631053e+00
 1.1340566409e+00	 1.4155558699e-01	 2.6600560103e+00
 1.1307925148e+00	 1.6562227317e-01	 2.6660006712e+00
 1.1269891199e+00	 1.8978401553e-01	 2.6727970700e+00
 1.1226379914e+00	 2.1402427246e-01	 2.6797651022e+00
 1.1177312756e+00	 2.3832592089e-01	 2.6860121418e+00
 1.1714285714e+00	 0.0000000000e+00	 3.0406671285e+00
 1.1711875159e+00	 2.3763426680e-02	 3.0304180435e+00
 1.1704564987e+00	 4.7712499468e-02	 3.0202814194e+00
 1.1692239937e+00	 7.1834187757e-02	 3.0100083039e+00
 1.1674788422e+00	 9.6114780582e-02	 2.9993186755e+00
 1.1652102952e+00	 1.2053989322e-01	 2.9878681882e+00
 1.1624080569e+00	 1.4509447666e-01	 2.9752129952e+00
 1.1590623277e+00	 1.6976283000e-01	 2.9607731816e+00
 1.1551638479e+00	 1.9452861591e-01	 2.9437954846e+00
 1.1507039412e+00	 2.1937487927e-01	 2.9233161244e+00
 1.1456745575e+00	 2.4428406891e-01	 2.8981247266e+00
 1.2000000000e+00	 0.0000000000e+00	 3.3519911691e+00
 1.1997530651e+00	 2.4343022453e-02	 3.3380190760e+00
 1.1990042182e+00	 4.8876218968e-02	 3.3224942473e+00
 1.1977416521e+00	 7.3586241117e-02	 3.3049969812e+00
 1.1959539359e+00	 9.8459043523e-02	 3.2850616355e+00
 1.1936300585e+00	 1.2347989062e-01	 3.2621410717e+00
 1.1907594729e+00	 1.4863336634e-01	 3.2355688112e+00
 1.1873321406e+00	 1.7390338683e-01	 3.2045194413e+00
 1.1833385759e+00	 1.9927321630e-01	 3.1679679674e+00
 1.1787698910e+00	 2.2472548608e-01	 3.1246489784e+00
 1.1736178394e+00	 2.5024221694e-01	 3.0730166741e+00
 1.2285714286e+00	 0.0000000000e+00	 3.5856449313e+00
 1.2283186143e+00	 2.4922618226e-02	 3.5688859775e+00
 1.2275519377e+00	 5.0039938467e-02	 3.5494508233e+00
 1.2262593105e+00	 7.5338294477e-02	 3.5267298933e+00
 1.2244290296e+00	 1.0080330646e-01	 3.5000538394e+00
 1.2220498218e+00	 1.2641988801e-01	 3.4686558539e+00
 1.2191108890e+00	 1.5217225601e-01	 3.4316312540e+00
 1.2156019534e+00	 1.7804394366e-01	 3.3878948665e+00
 1.2115133039e+00	 2.0401781669e-01	 3.3361369184e+00
 1.2068358408e+00	 2.3007609290e-01	 3.2747783389e+00
 1.2015611212e+00	 2.5620036496e-01	 3.2019265837e+00
 1.2571428571e+00	 0.0000000000e+00	 3.7323828210e+00
 1.2568841635e+00	 2.5502213999e-02	 3.7139260710e+00
 1.2560996571e+00	 5.1203657966e-02	 3.6922016735e+00
 1.2547769688e+00	 7.7090347837e-02	 3.6663934360e+00
 1.2529041233e+00	 1.0314756940e-01	 3.6356131780e+00
 1.2504695851e+00	 1.2935988541e-01	 3.5988611112e+00
 1.2474623050e+00	 1.5571114569e-01	 3.5549829613e+00
 1.2438717663e+00	 1.8218450049e-01	 3.5026243333e+00
 1.2396880319e+00	 2.0876241708e-01	 3.4401830314e+00
 1.2349017906e+00	 2.3542669971e-01	 3.3657602646e+00
 1.2295044031e+00	 2.6215851298e-01	 3.2771119066e+00
 1.2857142857e+00	 0.0000000000e+00	 3.7838419001e+00
 1.2854497126e+00	 2.6081809771e-02	 3.7649537348e+00
 1.2846473766e+00	 5.2367377465e-02	 3.7427240734e+00
 1.2832946272e+00	 7.8842401197e-02	 3.7161153797e+00
 1.2813792170e+00	 1.0549183235e-01	 3.6840081729e+00
 1.2788893484e+00	 1.3229988281e-01	 3.6451597062e+00
 1.2758137210e+00	 1.5925003536e-01	 3.5981587498e+00
 1.2721415792e+00	 1.8632505732e-01	 3.5413769449e+00
 1.2678627599e+00	 2.1350701747e-01	 3.4729174282e+00
 1.2629677403e+00	 2.4077730652e-01	 3.3905616739e+00
 1.2574476850e+00	 2.6811666100e-01	 3.2917157772e+00
 9.7801486613e-01	 2.0853518078e-01	 1.6642366512e+00
 9.7322904965e-01	 2.2983737058e-01	 1.8913876813e+00
 9.6794509807e-01	 2.5116187434e-01	 2.1360893629e+00
 9.6215795705e-01	 2.7249232225e-01	 2.3944281048e+00
 9.5586324611e-01	 2.9381193771e-01	 2.6623299878e+00
 9.4905729032e-01	 3.1510356980e-01	 2.9355891189e+00
 9.4173715035e-01	 3.3634972819e-01	 3.2099051357e+00
 9.3390065055e-01	 3.5753262075e-01	 3.4809305307e+00
 9.2554640484e-01	 3.7863419350e-01	 3.7449965167e+00
 9.1667384022e-01	 3.9963617286e-01	 4.0045846011e+00
 9.0728321762e-01	 4.2052011013e-01	 4.2580656802e+00
 1.0059581480e+00	 2.1449332880e-01	 1.7999440634e+00
 1.0010355939e+00	 2.3640415259e-01	 1.9803846379e+00
 9.9560067230e-01	 2.5833792790e-01	 2.1750525110e+00
 9.8964818440e-01	 2.8027781717e-01	 2.3801884253e+00
 9.8317362457e-01	 3.0220656450e-01	 2.5918354338e+00
 9.7617321290e-01	 3.2410652893e-01	 2.8058638622e+00
 9.6864392607e-01	 3.4595972042e-01	 3.0180069185e+00
 9.6058352628e-01	 3.6774783849e-01	 3.2239078497e+00
 9.5199058784e-01	 3.8945231331e-01	 3.4227656111e+00
 9.4286452137e-01	 4.1105434923e-01	 3.6165657396e+00
 9.3320559527e-01	 4.3253497042e-01	 3.8022771378e+00
 1.0339014299e+00	 2.2045147683e-01	 1.9895228981e+00
 1.0288421382e+00	 2.4297093461e-01	 2.1245745796e+00
 1.0232562465e+00	 2.6551398145e-01	 2.2708006532e+00
 1.0171384117e+00	 2.8806331209e-01	 2.4246440549e+00
 1.0104840030e+00	 3.1060119130e-01	 2.5823068286e+00
 1.0032891355e+00	 3.3310948807e-01	 2.7397705879e+00
 9.9555070180e-01	 3.5556971266e-01	 2.8928293140e+00
 9.8726640201e-01	 3.7796305622e-01	 3.0376691578e+00
 9.7843477083e-01	 4.0027043312e-01	 3.1770018840e+00
 9.6905520252e-01	 4.2247252560e-01	 3.3097386888e+00
 9.5912797291e-01	 4.4454983071e-01	 3.4328844192e+00
 1.0618447118e+00	 2.2640962485e-01	 2.2124307631e+00
 1.0566486825e+00	 2.4953771662e-01	 2.3035092223e+00
 1.0509118208e+00	 2.7269003500e-01	 2.4030365336e+00
 1.0446286391e+00	 2.9584880701e-01	 2.5077078669e+00
 1.0377943815e+00	 3.1899581809e-01	 2.6139271658e+00
 1.0304050581e+00	 3.4211244721e-01	 2.7178218605e+00
 1.0224574775e+00	 3.6517970489e-01	 2.8152718161e+00
 1.0139492777e+00	 3.8817827396e-01	 2.9048068526e+00
 1.0048789538e+00	 4.1108855294e-01	 2.9892454163e+00
 9.9524588366e-01	 4.3389070197e-01	 3.0659477566e+00
 9.8505035056e-01	 4.5656469100e-01	 3.1320414710e+00
 1.0897879937e+00	 2.3236777287e-01	 2.4502281080e+00
 1.0844552268e+00	 2.5610449864e-01	 2.4988557226e+00
 1.0785673950e+00	 2.7986608855e-01	 2.5535928350e+00
 1.0721188664e+00	 3.0363430193e-01	 2.6114397506e+00
 1.0651047599e+00	 3.2739044488e-01	 2.6690467166e+00
 1.0575209806e+00	 3.5111540635e-01	 2.7227214827e+00
 1.0493642532e+00	 3.7478969713e-01	 2.7686098032e+00
 1.0406321535e+00	 3.9839349169e-01	 2.8086934999e+00
 1.0313231368e+00	 4.2190667275e-01	 2.8430834442e+00
 1.0214365648e+00	 4.4530887834e-01	 2.8690675163e+00
 1.0109727282e+00	 4.6857955129e-01	 2.8839153986e+00
 1.1177312756e+00	 2.3832592089e-01	 2.6860121418e+00
 1.1122617710e+00	 2.6267128066e-01	 2.6941399299e+00
 1.1062229692e+00	 2.8704214211e-01	 2.7061835397e+00
 1.0996090938e+00	 3.1141979685e-01	 2.7198002325e+00
 1.0924151384e+00	 3.3578507167e-01	 2.7319393916e+00
 1.0846369032e+00	 3.6011836548e-01	 2.7391240634e+00
 1.0762710290e+00	 3.8439968936e-01	 2.7389347683e+00
 1.0673150292e+00	 4.0860870943e-01	 2.7344424816e+00
 1.0577673198e+00	 4.3272479257e-01	 2.7238925316e+00
 1.0476272460e+00	 4.5672705470e-01	 2.7047452605e+00
 1.0368951059e+00	 4.8059441158e-01	 2.6744292034e+00
 1.1456745575e+00	 2.4428406891e-01	 2.8981247266e+00
 1.1400683153e+00	 2.6923806267e-01	 2.8712241506e+00
 1.1338785435e+00	 2.9421819566e-01	 2.8453865208e+00
 1.1270993211e+00	 3.1920529177e-01	 2.8186610849e+00
 1.1197255169e+00	 3.4417969846e-01	 2.7888359745e+00
 1.1117528258e+00	 3.6912132462e-01	 2.7534328630e+00
 1.1031778047e+00	 3.9400968159e-01	 2.7129321913e+00
 1.0939979049e+00	 4.1882392717e-01	 2.6687497943e+00
 1.0842115028e+00	 4.4354291238e-01	 2.6186159071e+00
 1.0738179271e+00	 4.6814523107e-01	 2.5601783256e+00
 1.0628174835e+00	 4.9260927187e-01	 2.4910390953e+00
 1.1736178394e+00	 2.5024221694e-01	 3.0730166741e+00
 1.1678748596e+00	 2.7580484469e-01	 3.0164682526e+00
 1.1615341177e+00	 3.0139424921e-01	 2.9585967348e+00
 1.1545895485e+00	 3.2699078670e-01	 2.8977019699e+00
 1.1470358953e+00	 3.5257432525e-01	 2.8317811646e+00
 1.1388687484e+00	 3.7812428376e-01	 2.7588256260e+00
 1.1300845804e+00	 4.0361967383e-01	 2.6815536360e+00
 1.1206807807e+00	 4.2903914490e-01	 2.6006817485e+00
 1.1106556858e+00	 4.5436103219e-01	 2.5155701046e+00
 1.1000086083e+00	 4.7956340744e-01	 2.4239204745e+00
 1.0887398611e+00	 5.0462413216e-01	 2.3225406173e+00
 1.2015611212e+00	 2.5620036496e-01	 3.2019265837e+00
 1.1956814039e+00	 2.8237162671e-01	 3.1213645925e+00
 1.1891896919e+00	 3.0857030276e-01	 3.0375291252e+00
 1.1820797758e+00	 3.3477628162e-01	 2.9490057148e+00
 1.1743462738e+00	 3.6096895205e-01	 2.8540332964e+00
 1.1659846710e+00	 3.8712724289e-01	 2.7516232916e+00
 1.1569913561e+00	 4.1322966606e-01	 2.6442296012e+00
 1.1473636564e+00	 4.3925436264e-01	 2.5316021014e+00
 1.1370998688e+00	 4.6517915201e-01	 2.4133359450e+00
 1.1261992894e+00	 4.9098158381e-01	 2.2891966134e+00
 1.1146622388e+00	 5.1663899245e-01	 2.1591142173e+00
 1.2295044031e+00	 2.6215851298e-01	 3.2771119066e+00
 1.2234879481e+00	 2.8893840872e-01	 3.1783971972e+00
 1.2168452661e+00	 3.1574635632e-01	 3.0749167518e+00
 1.2095700032e+00	 3.4256177654e-01	 2.9655810325e+00
 1.2016566522e+00	 3.6936357884e-01	 2.8489076387e+00
 1.1931005935e+00	 3.9613020203e-01	 2.7248768335e+00
 1.1838981319e+00	 4.2283965830e-01	 2.5945800464e+00
 1.1740465321e+00	 4.4946958037e-01	 2.4576487265e+00
 1.1635440518e+00	 4.7599727182e-01	 2.3139166848e+00
 1.1523899706e+00	 5.0239976017e-01	 2.1634255240e+00
 1.1405846164e+00	 5.2865385273e-01	 2.0064165710e+00
 1.2574476850e+00	 2.6811666100e-01	 3.2917157772e+00
 1.2512944924e+00	 2.9550519074e-01	 3.1809059252e+00
 1.2445008404e+00	 3.2292240987e-01	 3.0643151904e+00
 1.2370602305e+00	 3.5034727146e-01	 2.9412230626e+00
 1.2289670307e+00	 3.7775820563e-01	 2.8105331822e+00
 1.2202165161e+00	 4.0513316117e-01	 2.6722446590e+00
 1.2108049076e+00	 4.3244965053e-01	 2.5263311356e+00
 1.2007294079e+00	 4.5968479811e-01	 2.3726194239e+00
 1.1899882348e+00	 4.8681539164e-01	 2.2111851541e+00
 1.1785806517e+00	 5.1381793654e-01	 2.0423553127e+00
 1.1665069941e+00	 5.4066871302e-01	 1.8666979343e+00
 9.0728321762e-01	 4.2052011013e-01	 4.2580656802e+00
 8.9737565000e-01	 4.4126742775e-01	 4.5038787495e+00
 8.8695311730e-01	 4.6185946749e-01	 4.7391617769e+00
 8.7601847835e-01	 4.8227754001e-01	 4.9589347301e+00
 8.6457547924e-01	 5.0250297581e-01	 5.1583922814e+00
 8.5262875837e-01	 5.2251717713e-01	 5.3329625912e+00
 8.4018384779e-01	 5.4230167058e-01	 5.4783668595e+00
 8.2724717082e-01	 5.6183816029e-01	 5.5906789907e+00
 8.1382603605e-01	 5.8110858111e-01	 5.6663846697e+00
 7.9992862736e-01	 6.0009515172e-01	 5.7024391123e+00
 7.8556399032e-01	 6.1878042723e-01	 5.6963227193e+00
 9.3320559527e-01	 4.3253497042e-01	 3.8022771378e+00
 9.2301495428e-01	 4.5387506855e-01	 3.9786761595e+00
 9.1229463494e-01	 4.7505545227e-01	 4.1441714084e+00
 9.0104757773e-01	 4.9605689830e-01	 4.2952504240e+00
 8.8927763579e-01	 5.1686020369e-01	 4.4285712870e+00
 8.7698958004e-01	 5.3744623933e-01	 4.5410120206e+00
 8.6418910058e-01	 5.5779600403e-01	 4.6297207560e+00
 8.5088280428e-01	 5.7789067916e-01	 4.6921661019e+00
 8.3707820851e-01	 5.9771168343e-01	 4.7261871122e+00
 8.2278373100e-01	 6.1724072749e-01	 4.7300422037e+00
 8.0800867575e-01	 6.3645986801e-01	 4.7024563405e+00
 9.5912797291e-01	 4.4454983071e-01	 3.4328844192e+00
 9.4865425857e-01	 4.6648270934e-01	 3.5455477329e+00
 9.3763615258e-01	 4.8825143706e-01	 3.6472194848e+00
 9.2607667711e-01	 5.0983625658e-01	 3.7356017596e+00
 9.1397979234e-01	 5.3121743157e-01	 3.8085592256e+00
 9.0135040171e-01	 5.5237530154e-01	 3.8641607151e+00
 8.8819435337e-01	 5.7329033747e-01	 3.9007216385e+00
 8.7451843773e-01	 5.9394319803e-01	 3.9168467584e+00
 8.6033038097e-01	 6.1431478575e-01	 3.9114728046e+00
 8.4563883464e-01	 6.3438630325e-01	 3.8839103600e+00
 8.3045336119e-01	 6.5413930878e-01	 3.8338844074e+00
 9.8505035056e-01	 4.5656469100e-01	 3.1320414710e+00
 9.7429356285e-01	 4.7909035013e-01	 3.1869499570e+00
 9.6297767021e-01	 5.0144742184e-01	 3.2310596246e+00
 9.5110577649e-01	 5.2361561487e-01	 3.2630518521e+00
 9.3868194889e-01	 5.4557465945e-01	 3.2817589045e+00
 9.2571122338e-01	 5.6730436374e-01	 3.2861991467e+00
 9.1219960617e-01	 5.8878467092e-01	 3.2756132320e+00
 8.9815407118e-01	 6.0999571689e-01	 3.2495008762e+00
 8.8358255343e-01	 6.3091788807e-01	 3.2076577706e+00
 8.6849393828e-01	 6.5153187901e-01	 3.1502121379e+00
 8.5289804663e-01	 6.7181874956e-01	 3.0776603804e+00
 1.0109727282e+00	 4.6857955129e-01	 2.8839153986e+00
 9.9993286714e-01	 4.9169799092e-01	 2.8873365794e+00
 9.8831918785e-01	 5.1464340663e-01	 2.8804279859e+00
 9.7613487587e-01	 5.3739497315e-01	 2.8626311264e+00
 9.6338410544e-01	 5.5993188733e-01	 2.8335229950e+00
 9.5007204504e-01	 5.8223342594e-01	 2.7928462676e+00
 9.3620485896e-01	 6.0427900437e-01	 2.7405406888e+00
 9.2178970463e-01	 6.2604823576e-01	 2.6767753362e+00
 9.0683472589e-01	 6.4752099039e-01	 2.6019813861e+00
 8.9134904192e-01	 6.6867745478e-01	 2.5168849451e+00
 8.7534273207e-01	 6.8949819034e-01	 2.4225394512e+00
 1.0368951059e+00	 4.8059441158e-01	 2.6744292034e+00
 1.0255721714e+00	 5.0430563172e-01	 2.6329014923e+00
 1.0136607055e+00	 5.2783939141e-01	 2.5817862055e+00
 1.0011639753e+00	 5.5117433144e-01	 2.5210804712e+00
 9.8808626199e-01	 5.7428911521e-01	 2.4508978159e+00
 9.7443286671e-01	 5.9716248815e-01	 2.3714945929e+00
 9.6021011176e-01	 6.1977333781e-01	 2.2832978911e+00
 9.4542533809e-01	 6.4210075462e-01	 2.1869346811e+00
 9.3008689834e-01	 6.6412409270e-01	 2.0832618908e+00
 9.1420414556e-01	 6.8582303054e-01	 1.9733970298e+00
 8.9778741750e-01	 7.0717763112e-01	 1.8587489112e+00
 1.0628174835e+00	 4.9260927187e-01	 2.4910390953e+00
 1.0512114757e+00	 5.1691327251e-01	 2.4113559182e+00
 1.0390022231e+00	 5.4103537620e-01	 2.3230983850e+00
 1.0261930746e+00	 5.6495368973e-01	 2.2266281690e+00
 1.0127884185e+00	 5.8864634309e-01	 2.1224005706e+00
 9.9879368838e-01	 6.1209155035e-01	 2.0109883282e+00
 9.8421536455e-01	 6.3526767126e-01	 1.8931072719e+00
 9.6906097154e-01	 6.5815327349e-01	 1.7696436469e+00
 9.5333907080e-01	 6.8072719502e-01	 1.6416828629e+00
 9.3705924920e-01	 7.0296860631e-01	 1.5105393404e+00
 9.2023210294e-01	 7.2485707189e-01	 1.3777870401e+00
 1.0887398611e+00	 5.0462413216e-01	 2.3225406173e+00
 1.0768507800e+00	 5.2952091330e-01	 2.2117341808e+00
 1.0643437408e+00	 5.5423136099e-01	 2.0936364480e+00
 1.0512221740e+00	 5.7873304801e-01	 1.9687949716e+00
 1.0374905751e+00	 6.0300357097e-01	 1.8378244625e+00
 1.0231545100e+00	 6.2702061255e-01	 1.7014290358e+00
 1.0082206173e+00	 6.5076200470e-01	 1.5604267334e+00
 9.9269660499e-01	 6.7420579235e-01	 1.4157762239e+00
 9.7659124326e-01	 6.9733029734e-01	 1.2686054973e+00
 9.5991435284e-01	 7.2011418207e-01	 1.1202422760e+00
 9.4267678838e-01	 7.4253651267e-01	 9.7226472558e-01
 1.1146622388e+00	 5.1663899245e-01	 2.1591142173e+00
 1.1024900843e+00	 5.4212855410e-01	 2.0242234066e+00
 1.0896852584e+00	 5.6742734577e-01	 1.8838092525e+00
 1.0762512734e+00	 5.9251240630e-01	 1.7382227409e+00
 1.0621927316e+00	 6.1736079886e-01	 1.5880671496e+00
 1.0475153317e+00	 6.4194967476e-01	 1.4340043556e+00
 1.0322258701e+00	 6.6625633815e-01	 1.2767792523e+00
 1.0163322384e+00	 6.9025831122e-01	 1.1172469279e+00
 9.9984341572e-01	 7.1393339966e-01	 9.5640248574e-01
 9.8276945648e-01	 7.3725975783e-01	 7.9541327643e-01
 9.6512147382e-01	 7.6021595345e-01	 6.3733290504e-01
 1.1405846164e+00	 5.2865385273e-01	 2.0064165710e+00
 1.1281293886e+00	 5.5473619489e-01	 1.8455836889e+00
 1.1150267760e+00	 5.8062333056e-01	 1.6853289163e+00
 1.1012803728e+00	 6.0629176458e-01	 1.5265229044e+00
 1.0868948882e+00	 6.3171802674e-01	 1.3649788257e+00
 1.0718761534e+00	 6.5687873696e-01	 1.2008361138e+00
 1.0562311229e+00	 6.8175067159e-01	 1.0346015629e+00
 1.0399678719e+00	 7.0631083008e-01	 8.6686074909e-01
 1.0230955882e+00	 7.3053650197e-01	 6.9831006332e-01
 1.0056245601e+00	 7.5440533360e-01	 5.3016648866e-01
 9.8756615925e-01	 7.7789539423e-01	 3.6644814122e-01
 1.1665069941e+00	 5.4066871302e-01	 1.8666979343e+00
 1.1537686929e+00	 5.6734383568e-01	 1.6870152002e+00
 1.1403682937e+00	 5.9381931534e-01	 1.5075609721e+00
 1.1263094722e+00	 6.2007112287e-01	 1.3313066328e+00
 1.1115970447e+00	 6.4607525462e-01	 1.1612324099e+00
 1.0962369751e+00	 6.7180779917e-01	 9.9484480264e-01
 1.0802363757e+00	 6.9724500504e-01	 8.2710894990e-01
 1.0636035053e+00	 7.2236334895e-01	 6.5817887177e-01
 1.0463477606e+00	 7.4713960429e-01	 4.8828374503e-01
 1.0284796638e+00	 7.7155090936e-01	 3.1837685910e-01
 1.0100108447e+00	 7.9557483501e-01	 1.5192765741e-01
 7.8556399032e-01	 6.1878042723e-01	 5.6963227193e+00
 7.7074201465e-01	 6.3714735097e-01	 5.6432099583e+00
 7.5547341314e-01	 6.5517930525e-01	 5.5384325128e+00
 7.3976969678e-01	 6.7286016060e-01	 5.3804816059e+00
 7.2364314644e-01	 6.9017432335e-01	 5.1739511769e+00
 7.0710678119e-01	 7.0710678119e-01	 4.9222101206e+00
 6.9017432335e-01	 7.2364314644e-01	 4.6242568645e+00
 6.7286016060e-01	 7.3976969678e-01	 4.2794091023e+00
 6.5517930525e-01	 7.5547341314e-01	 3.8919543209e+00
 6.3714735097e-01	 7.7074201465e-01	 3.4678070005e+00
 6.1878042723e-01	 7.8556399032e-01	 3.0073811922e+00
 8.0800867575e-01	 6.3645986801e-01	 4.7024563405e+00
 7.9276321507e-01	 6.5535156100e-01	 4.6380852343e+00
 7.7705836781e-01	 6.7389871398e-01	 4.5308702083e+00
 7.6090597383e-01	 6.9208473662e-01	 4.3791409233e+00
 7.4431866491e-01	 7.0989358973e-01	 4.1816616010e+00
 7.2730983208e-01	 7.2730983208e-01	 3.9408523245e+00
 7.0989358973e-01	 7.4431866491e-01	 3.6629119062e+00
 6.9208473662e-01	 7.6090597383e-01	 3.3543184851e+00
 6.7389871398e-01	 7.7705836781e-01	 3.0179431185e+00
 6.5535156100e-01	 7.9276321507e-01	 2.6534831890e+00
 6.3645986801e-01	 8.0800867575e-01	 2.2608058444e+00
 8.3045336119e-01	 6.5413930878e-01	 3.8338844074e+00
 8.1478441549e-01	 6.7355577103e-01	 3.7555603855e+00
 7.9864332247e-01	 6.9261812270e-01	 3.6417155914e+00
 7.8204225088e-01	 7.1130931263e-01	 3.4906026515e+00
 7.6499418338e-01	 7.2961285611e-01	 3.3008804409e+00
 7.4751288297e-01	 7.4751288297e-01	 3.0724529425e+00
 7.2961285611e-01	 7.6499418338e-01	 2.8151403248e+00
 7.1130931263e-01	 7.8204225088e-01	 2.5384437878e+00
 6.9261812270e-01	 7.9864332247e-01	 2.2424158783e+00
 6.7355577103e-01	 8.1478441549e-01	 1.9263957524e+00
 6.5413930878e-01	 8.3045336119e-01	 1.5898274307e+00
 8.5289804663e-01	 6.7181874956e-01	 3.0776603804e+00
 8.3680561591e-01	 6.9175998106e-01	 2.9836996375e+00
 8.2022827713e-01	 7.1133753142e-01	 2.8601474552e+00
 8.0317852793e-01	 7.3053388865e-01	 2.7052363303e+00
 7.8566970185e-01	 7.4933212249e-01	 2.5187148710e+00
 7.6771593386e-01	 7.6771593386e-01	 2.3080716280e+00
 7.4933212249e-01	 7.8566970185e-01	 2.0754365631e+00
 7.3053388865e-01	 8.0317852793e-01	 1.8230497918e+00
 7.1133753142e-01	 8.2022827713e-01	 1.5582035402e+00
 6.9175998106e-01	 8.3680561591e-01	 1.2810347632e+00
 6.7181874956e-01	 8.5289804663e-01	 9.9065692926e-01
 8.7534273207e-01	 6.8949819034e-01	 2.4225394512e+00
 8.5882681633e-01	 7.0996419108e-01	 2.3121897324e+00
 8.4181323179e-01	 7.3005694014e-01	 2.1768778619e+00
 8.2431480499e-01	 7.4975846467e-01	 2.0159316386e+00
 8.0634522032e-01	 7.6905138887e-01	 1.8361070357e+00
 7.8791898475e-01	 7.8791898475e-01	 1.6393955530e+00
 7.6905138887e-01	 8.0634522032e-01	 1.4266300504e+00
 7.4975846467e-01	 8.2431480499e-01	 1.1988375849e+00
 7.3005694014e-01	 8.4181323179e-01	 9.5843386893e-01
 7.0996419108e-01	 8.5882681633e-01	 7.1204383654e-01
 6.8949819034e-01	 8.7534273207e-01	 4.5950935330e-01
 8.9778741750e-01	 7.0717763112e-01	 1.8587489112e+00
 8.8084801674e-01	 7.2816840111e-01	 1.7321205241e+00
 8.6339818645e-01	 7.4877634886e-01	 1.5846402371e+00
 8.4545108204e-01	 7.6898304069e-01	 1.4219828761e+00
 8.2702073879e-01	 7.8877065525e-01	 1.2463817716e+00
 8.0812203564e-01	 8.0812203564e-01	 1.0587646448e+00
 7.8877065525e-01	 8.2702073879e-01	 8.6025984247e-01
 7.6898304069e-01	 8.4545108204e-01	 6.5215799541e-01
 7.4877634886e-01	 8.6339818645e-01	 4.3587229172e-01
 7.2816840111e-01	 8.8084801674e-01	 2.1419388536e-01
 7.0717763112e-01	 8.9778741750e-01	-7.4016828464e-03
 9.2023210294e-01	 7.2485707189e-01	 1.3777870401e+00
 9.0286921716e-01	 7.4637261114e-01	 1.2360571464e+00
 8.8498314111e-01	 7.6749575758e-01	 1.0812575303e+00
 8.6658735909e-01	 7.8820761670e-01	 9.1607244843e-01
 8.4769625726e-01	 8.0848992163e-01	 7.4160646717e-01
 8.2832508653e-01	 8.2832508653e-01	 5.5919329754e-01
 8.0848992163e-01	 8.4769625726e-01	 3.7035039716e-01
 7.8820761670e-01	 8.6658735909e-01	 1.7673034811e-01
 7.6749575758e-01	 8.8498314111e-01	-1.9929020434e-02
 7.4637261114e-01	 9.0286921716e-01	-2.1785376457e-01
 7.2485707189e-01	 9.2023210294e-01	-4.1386468531e-01
 9.4267678838e-01	 7.4253651267e-01	 9.7226472558e-01
 9.2489041758e-01	 7.6457682117e-01	 8.2047568505e-01
 9.0656809577e-01	 7.8621516630e-01	 6.5933613516e-01
 8.8772363614e-01	 8.0743219272e-01	 4.9015767032e-01
 8.6837177573e-01	 8.2820918802e-01	 3.1453399720e-01
 8.4852813742e-01	 8.4852813742e-01	 1.3428940616e-01
 8.2820918802e-01	 8.6837177573e-01	-4.8578481966e-02
 8.0743219272e-01	 8.8772363614e-01	-2.3195948050e-01
 7.8621516630e-01	 9.0656809577e-01	-4.1369277750e-01
 7.6457682117e-01	 9.2489041758e-01	-5.9162768198e-01
 7.4253651267e-01	 9.4267678838e-01	-7.6368085905e-01
 9.6512147382e-01	 7.6021595345e-01	 6.3733290504e-01
 9.4691161800e-01	 7.8278103119e-01	 4.7828997264e-01
 9.2815305043e-01	 8.0493457503e-01	 3.1085537783e-01
 9.0885991319e-01	 8.2665676874e-01	 1.3688162415e-01
 8.8904729420e-01	 8.4792845440e-01	-4.1473949614e-02
 8.6873118831e-01	 8.6873118831e-01	-2.2181364068e-01
 8.4792845440e-01	 8.8904729420e-01	-4.0157036861e-01
 8.2665676874e-01	 9.0885991319e-01	-5.7808256415e-01
 8.0493457503e-01	 9.2815305043e-01	-7.4867020747e-01
 7.8278103119e-01	 9.4691161800e-01	-9.1070922361e-01
 7.6021595345e-01	 9.6512147382e-01	-1.0617015059e+00
 9.8756615925e-01	 7.7789539423e-01	 3.6644814122e-01
 9.6893281842e-01	 8.0098524122e-01	 2.0160706699e-01
 9.4973800510e-01	 8.2365398375e-01	 2.8472912625e-02
 9.2999619024e-01	 8.4588134476e-01	-1.5049795623e-01
 9.0972281267e-01	 8.6764772078e-01	-3.3251126191e-01
 8.8893423921e-01	 8.8893423921e-01	-5.1451407059e-01
 8.6764772078e-01	 9.0972281267e-01	-6.9328151585e-01
 8.4588134476e-01	 9.2999619024e-01	-8.6550792606e-01
 8.2365398375e-01	 9.4973800510e-01	-1.0278991301e+00
 8.0098524122e-01	 9.6893281842e-01	-1.1772626699e+00
 7.7789539423e-01	 9.8756615925e-01	-1.3105927237e+00
 1.0100108447e+00	 7.9557483501e-01	 1.5192765741e-01
 9.9095401884e-01	 8.1918945125e-01	-1.6800649808e-02
 9.7132295976e-01	 8.4237339247e-01	-1.9454008778e-01
 9.5113246729e-01	 8.6510592077e-01	-3.7816834792e-01
 9.3039833114e-01	 8.8736698716e-01	-5.6418142686e-01
 9.0913729010e-01	 9.0913729010e-01	-7.4878963558e-01
 8.8736698716e-01	 9.3039833114e-01	-9.2802220265e-01
 8.6510592077e-01	 9.5113246729e-01	-1.0978369003e+00
 8.4237339247e-01	 9.7132295976e-01	-1.2542309351e+00
 8.1918945125e-01	 9.9095401884e-01	-1.3933492931e+00
 7.9557483501e-01	 1.0100108447e+00	-1.5115868123e+00
 6.1878042723e-01	 7.8556399032e-01	 3.0073811922e+00
 6.0009515172e-01	 7.9992862736e-01	 2.5133994907e+00
 5.8110858111e-01	 8.1382603605e-01	 1.9901568433e+00
 5.6183816029e-01	 8.2724717082e-01	 1.4405508417e+00
 5.4230167058e-01	 8.4018384779e-01	 8.6742200001e-01
 5.2251717713e-01	 8.5262875837e-01	 2.7357180632e-01
 5.0250297581e-01	 8.6457547924e-01	-3.3822118833e-01
 4.8227754001e-01	 8.7601847835e-01	-9.6518773981e-01
 4.6185946749e-01	 8.8695311730e-01	-1.6045571155e+00
 4.4126742775e-01	 8.9737565000e-01	-2.2535493835e+00
 4.2052011013e-01	 9.0728321762e-01	-2.9093709117e+00
 6.3645986801e-01	 8.0800867575e-01	 2.2608058444e+00
 6.1724072749e-01	 8.2278373100e-01	 1.8398845016e+00
 5.9771168343e-01	 8.3707820851e-01	 1.3927963099e+00
 5.7789067916e-01	 8.5088280428e-01	 9.2265967918e-01
 5.5779600403e-01	 8.6418910058e-01	 4.3253101417e-01
 5.3744623933e-01	 8.7698958004e-01	-7.4576852993e-02
 5.1686020369e-01	 8.8927763579e-01	-5.9567861823e-01
 4.9605689830e-01	 9.0104757773e-01	-1.1278033764e+00
 4.7505545227e-01	 9.1229463494e-01	-1.6679847935e+00
 4.5387506855e-01	 9.2301495428e-01	-2.2132548200e+00
 4.3253497042e-01	 9.3320559527e-01	-2.7606410431e+00
 6.5413930878e-01	 8.3045336119e-01	 1.5898274307e+00
 6.3438630325e-01	 8.4563883464e-01	 1.2302770093e+00
 6.1431478575e-01	 8.6033038097e-01	 8.4779169897e-01
 5.9394319803e-01	 8.7451843773e-01	 4.4558502094e-01
 5.7329033747e-01	 8.8819435337e-01	 2.6804172746e-02
 5.5237530154e-01	 9.0135040171e-01	-4.0544980274e-01
 5.3121743157e-01	 9.1397979234e-01	-8.4810477794e-01
 5.0983625658e-01	 9.2607667711e-01	-1.2981038034e+00
 4.8825143706e-01	 9.3763615258e-01	-1.7523952782e+00
 4.6648270934e-01	 9.4865425857e-01	-2.2079272620e+00
 4.4454983071e-01	 9.5912797291e-01	-2.6616459990e+00
 6.7181874956e-01	 8.5289804663e-01	 9.9065692926e-01
 6.5153187901e-01	 8.6849393828e-01	 6.8252382331e-01
 6.3091788807e-01	 8.8358255343e-01	 3.5480615000e-01
 6.0999571689e-01	 8.9815407118e-01	 1.0693940698e-02
 5.8878467092e-01	 9.1219960617e-01	-3.4669240089e-01
 5.6730436374e-01	 9.2571122338e-01	-7.1427884109e-01
 5.4557465945e-01	 9.3868194889e-01	-1.0890180610e+00
 5.2361561487e-01	 9.5110577649e-01	-1.4678740328e+00
 5.0144742184e-01	 9.6297767021e-01	-1.8478112610e+00
 4.7909035013e-01	 9.7429356285e-01	-2.2257889208e+00
 4.5656469100e-01	 9.8505035056e-01	-2.5987599365e+00
 6.8949819034e-01	 8.7534273207e-01	 4.5950935330e-01
 6.6867745478e-01	 8.9134904192e-01	 1.9442432336e-01
 6.4752099039e-01	 9.0683472589e-01	-8.6794984760e-02
 6.2604823576e-01	 9.2178970463e-01	-3.8109464445e-01
 6.0427900437e-01	 9.3620485896e-01	-6.8549219464e-01
 5.8223342594e-01	 9.5007204504e-01	-9.9704894156e-01
 5.5993188733e-01	 9.6338410544e-01	-1.3128466798e+00
 5.3739497315e-01	 9.7613487587e-01	-1.6299695312e+00
 5.1464340663e-01	 9.8831918785e-01	-1.9454913688e+00
 4.9169799092e-01	 9.9993286714e-01	-2.2564690618e+00
 4.6857955129e-01	 1.0109727282e+00	-2.5599415540e+00
 7.0717763112e-01	 8.9778741750e-01	-7.4016828464e-03
 6.8582303054e-01	 9.1420414556e-01	-2.3635422626e-01
 6.6412409270e-01	 9.3008689834e-01	-4.7790854954e-01
 6.4210075462e-01	 9.4542533809e-01	-7.2925445366e-01
 6.1977333781e-01	 9.6021011176e-01	-9.8765307920e-01
 5.9716248815e-01	 9.7443286671e-01	-1.2504034099e+00
 5.7428911521e-01	 9.8808626199e-01	-1.5148141721e+00
 5.5117433144e-01	 1.0011639753e+00	-1.7781819087e+00
 5.2783939141e-01	 1.0136607055e+00	-2.0377757379e+00
 5.0430563172e-01	 1.0255721714e+00	-2.2908290363e+00
 4.8059441158e-01	 1.0368951059e+00	-2.5345380252e+00
 7.2485707189e-01	 9.2023210294e-01	-4.1386468531e-01
 7.0296860631e-01	 9.3705924920e-01	-6.1225966357e-01
 6.8072719502e-01	 9.5333907080e-01	-8.1965926339e-01
 6.5815327349e-01	 9.6906097154e-01	-1.0336005337e+00
 6.3526767126e-01	 9.8421536455e-01	-1.2516892262e+00
 6.1209155035e-01	 9.9879368838e-01	-1.4715591327e+00
 5.8864634309e-01	 1.0127884185e+00	-1.6908379712e+00
 5.6495368973e-01	 1.0261930746e+00	-1.9071206909e+00
 5.4103537620e-01	 1.0390022231e+00	-2.1179507545e+00
 5.1691327251e-01	 1.0512114757e+00	-2.3208096428e+00
 4.9260927187e-01	 1.0628174835e+00	-2.5131145241e+00
 7.4253651267e-01	 9.4267678838e-01	-7.6368085905e-01
 7.2011418207e-01	 9.5991435284e-01	-9.3583649934e-01
 6.9733029734e-01	 9.7659124326e-01	-1.1133664561e+00
 6.7420579235e-01	 9.9269660499e-01	-1.2942414603e+00
 6.5076200470e-01	 1.0082206173e+00	-1.4765089814e+00
 6.2702061255e-01	 1.0231545100e+00	-1.6582302347e+00
 6.0300357097e-01	 1.0374905751e+00	-1.8374388641e+00
 5.7873304801e-01	 1.0512221740e+00	-2.0121084949e+00
 5.5423136099e-01	 1.0643437408e+00	-2.1801297676e+00
 5.2952091330e-01	 1.0768507800e+00	-2.3392970994e+00
 5.0462413216e-01	 1.0887398611e+00	-2.4873050776e+00
 7.6021595345e-01	 9.6512147382e-01	-1.0617015059e+00
 7.3725975783e-01	 9.8276945648e-01	-1.2097063020e+00
 7.1393339966e-01	 9.9984341572e-01	-1.3605116898e+00
 6.9025831122e-01	 1.0163322384e+00	-1.5115344774e+00
 6.6625633815e-01	 1.0322258701e+00	-1.6613577247e+00
 6.4194967476e-01	 1.0475153317e+00	-1.8085587780e+00
 6.1736079886e-01	 1.0621927316e+00	-1.9516595641e+00
 5.9251240630e-01	 1.0762512734e+00	-2.0890874266e+00
 5.6742734577e-01	 1.0896852584e+00	-2.2191471745e+00
 5.4212855410e-01	 1.1024900843e+00	-2.3400045933e+00
 5.1663899245e-01	 1.1146622388e+00	-2.4498376425e+00
 7.7789539423e-01	 9.8756615925e-01	-1.3105927237e+00
 7.5440533360e-01	 1.0056245601e+00	-1.4366219193e+00
 7.3053650197e-01	 1.0230955882e+00	-1.5627071250e+00
 7.0631083008e-01	 1.0399678719e+00	-1.6860431084e+00
 6.8175067159e-01	 1.0562311229e+00	-1.8057649214e+00
 6.5687873696e-01	 1.0718761534e+00	-1.9210513804e+00
 6.3171802674e-01	 1.0868948882e+00	-2.0309909490e+00
 6.0629176458e-01	 1.1012803728e+00	-2.1345349138e+00
 5.8062333056e-01	 1.1150267760e+00	-2.2307266672e+00
 5.5473619489e-01	 1.1281293886e+00	-2.3217533819e+00
 5.2865385273e-01	 1.1405846164e+00	-2.4049896182e+00
 7.9557483501e-01	 1.0100108447e+00	-1.5115868123e+00
 7.7155090936e-01	 1.0284796638e+00	-1.6182066933e+00
 7.4713960429e-01	 1.0463477606e+00	-1.7215842660e+00
 7.2236334895e-01	 1.0636035053e+00	-1.8184968527e+00
 6.9724500504e-01	 1.0802363757e+00	-1.9094947154e+00
 6.7180779917e-01	 1.0962369751e+00	-1.9945208340e+00
 6.4607525462e-01	 1.1115970447e+00	-2.0733097955e+00
 6.2007112287e-01	 1.1263094722e+00	-2.1499050116e+00
 5.9381931534e-01	 1.1403682937e+00	-2.2252311178e+00
 5.6734383568e-01	 1.1537686929e+00	-2.2950720874e+00
 5.4066871302e-01	 1.1665069941e+00	-2.3552690038e+00
 4.2052011013e-01	 9.0728321762e-01	-2.9093709117e+00
 3.9963617286e-01	 9.1667384022e-01	-3.5696497366e+00
 3.7863419350e-01	 9.2554640484e-01	-4.2302069932e+00
 3.5753262075e-01	 9.3390065055e-01	-4.8840438105e+00
 3.3634972819e-01	 9.4173715035e-01	-5.5195317431e+00
 3.1510356980e-01	 9.4905729032e-01	-6.1317758674e+00
 2.9381193771e-01	 9.5586324611e-01	-6.7170922742e+00
 2.7249232225e-01	 9.6215795705e-01	-7.2722765343e+00
 2.5116187434e-01	 9.6794509807e-01	-7.7945889414e+00
 2.2983737058e-01	 9.7322904965e-01	-8.2817401936e+00
 2.0853518078e-01	 9.7801486613e-01	-8.7318774993e+00
 4.3253497042e-01	 9.3320559527e-01	-2.7606410431e+00
 4.1105434923e-01	 9.4286452137e-01	-3.3092950651e+00
 3.8945231331e-01	 9.5199058784e-01	-3.8574248631e+00
 3.6774783849e-01	 9.6058352628e-01	-4.4007468657e+00
 3.4595972042e-01	 9.6864392607e-01	-4.9293121972e+00
 3.2410652893e-01	 9.7617321290e-01	-5.4360912958e+00
 3.0220656450e-01	 9.8317362457e-01	-5.9184527950e+00
 2.8027781717e-01	 9.8964818440e-01	-6.3741832080e+00
 2.5833792790e-01	 9.9560067230e-01	-6.8014670322e+00
 2.3640415259e-01	 1.0010355939e+00	-7.1988686676e+00
 2.1449332880e-01	 1.0059581480e+00	-7.5653160608e+00
 4.4454983071e-01	 9.5912797291e-01	-2.6616459990e+00
 4.2247252560e-01	 9.6905520252e-01	-3.1140308311e+00
 4.0027043312e-01	 9.7843477083e-01	-3.5653274262e+00
 3.7796305622e-01	 9.8726640201e-01	-4.0122733230e+00
 3.5556971266e-01	 9.9555070180e-01	-4.4494843938e+00
 3.3310948807e-01	 1.0032891355e+00	-4.8667988472e+00
 3.1060119130e-01	 1.0104840030e+00	-5.2619070675e+00
 2.8806331209e-01	 1.0171384117e+00	-5.6334849333e+00
 2.6551398145e-01	 1.0232562465e+00	-5.9805412832e+00
 2.4297093461e-01	 1.0288421382e+00	-6.3023965556e+00
 2.2045147683e-01	 1.0339014299e+00	-6.5986645310e+00
 4.5656469100e-01	 9.8505035056e-01	-2.5987599365e+00
 4.3389070197e-01	 9.9524588366e-01	-2.9683615853e+00
 4.1108855294e-01	 1.0048789538e+00	-3.3365655246e+00
 3.8817827396e-01	 1.0139492777e+00	-3.7009270627e+00
 3.6517970489e-01	 1.0224574775e+00	-4.0588616030e+00
 3.4211244721e-01	 1.0304050581e+00	-4.4008812414e+00
 3.1899581809e-01	 1.0377943815e+00	-4.7226695469e+00
 2.9584880701e-01	 1.0446286391e+00	-5.0236990897e+00
 2.7269003500e-01	 1.0509118208e+00	-5.3037109166e+00
 2.4953771662e-01	 1.0566486825e+00	-5.5626904121e+00
 2.2640962485e-01	 1.0618447118e+00	-5.8008477354e+00
 4.6857955129e-01	 1.0109727282e+00	-2.5599415540e+00
 4.4530887834e-01	 1.0214365648e+00	-2.8585573018e+00
 4.2190667275e-01	 1.0313231368e+00	-3.1557354899e+00
 3.9839349169e-01	 1.0406321535e+00	-3.4497252395e+00
 3.7478969713e-01	 1.0493642532e+00	-3.7388709227e+00
 3.5111540635e-01	 1.0575209806e+00	-4.0178613848e+00
 3.2739044488e-01	 1.0651047599e+00	-4.2786260097e+00
 3.0363430193e-01	 1.0721188664e+00	-4.5211429606e+00
 2.7986608855e-01	 1.0785673950e+00	-4.7458004114e+00
 2.5610449864e-01	 1.0844552268e+00	-4.9531634642e+00
 2.3236777287e-01	 1.0897879937e+00	-5.1439539200e+00
 4.8059441158e-01	 1.0368951059e+00	-2.5345380252e+00
 4.5672705470e-01	 1.0476272460e+00	-2.7724359862e+00
 4.3272479257e-01	 1.0577673198e+00	-3.0091406782e+00
 4.0860870943e-01	 1.0673150292e+00	-3.2434760659e+00
 3.8439968936e-01	 1.0762710290e+00	-3.4743096914e+00
 3.6011836548e-01	 1.0846369032e+00	-3.6995289989e+00
 3.3578507167e-01	 1.0924151384e+00	-3.9100375909e+00
 3.1141979685e-01	 1.0996090938e+00	-4.1046160645e+00
 2.8704214211e-01	 1.1062229692e+00	-4.2842211060e+00
 2.6267128066e-01	 1.1122617710e+00	-4.4499060061e+00
 2.3832592089e-01	 1.1177312756e+00	-4.6023960116e+00
 4.9260927187e-01	 1.0628174835e+00	-2.5131145241e+00
 4.6814523107e-01	 1.0738179271e+00	-2.6991751847e+00
 4.4354291238e-01	 1.0842115028e+00	-2.8845851885e+00
 4.1882392717e-01	 1.0939979049e+00	-3.0686283743e+00
 3.9400968159e-01	 1.1031778047e+00	-3.2505802541e+00
 3.6912132462e-01	 1.1117528258e+00	-3.4297089972e+00
 3.4417969846e-01	 1.1197255169e+00	-3.5991432756e+00
 3.1920529177e-01	 1.1270993211e+00	-3.7541202393e+00
 2.9421819566e-01	 1.1338785435e+00	-3.8956387363e+00
 2.6923806267e-01	 1.1400683153e+00	-4.0249450991e+00
 2.4428406891e-01	 1.1456745575e+00	-4.1434751539e+00
 5.0462413216e-01	 1.0887398611e+00	-2.4873050776e+00
 4.7956340744e-01	 1.1000086083e+00	-2.6291475764e+00
 4.5436103219e-01	 1.1106556858e+00	-2.7711944013e+00
 4.2903914490e-01	 1.1206807807e+00	-2.9135502418e+00
 4.0361967383e-01	 1.1300845804e+00	-3.0554560736e+00
 3.7812428376e-01	 1.1388687484e+00	-3.1953143766e+00
 3.5257432525e-01	 1.1470358953e+00	-3.3292766292e+00
 3.2699078670e-01	 1.1545895485e+00	-3.4499213519e+00
 3.0139424921e-01	 1.1615341177e+00	-3.5583629520e+00
 2.7580484469e-01	 1.1678748596e+00	-3.6564066587e+00
 2.5024221694e-01	 1.1736178394e+00	-3.7459638360e+00
 5.1663899245e-01	 1.1146622388e+00	-2.4498376425e+00
 4.9098158381e-01	 1.1261992894e+00	-2.5561117565e+00
 4.6517915201e-01	 1.1370998688e+00	-2.6647262181e+00
 4.3925436264e-01	 1.1473636564e+00	-2.7738037760e+00
 4.1322966606e-01	 1.1569913561e+00	-2.8817780400e+00
 3.8712724289e-01	 1.1659846710e+00	-2.9874223665e+00
 3.6096895205e-01	 1.1743462738e+00	-3.0892125454e+00
 3.3477628162e-01	 1.1820797758e+00	-3.1800231865e+00
 3.0857030276e-01	 1.1891896919e+00	-3.2598233572e+00
 2.8237162671e-01	 1.1956814039e+00	-3.3309028495e+00
 2.5620036496e-01	 1.2015611212e+00	-3.3955691968e+00
 5.2865385273e-01	 1.1405846164e+00	-2.4049896182e+00
 5.0239976017e-01	 1.1523899706e+00	-2.4840629178e+00
 4.7599727182e-01	 1.1635440518e+00	-2.5642926811e+00
 4.4946958037e-01	 1.1740465321e+00	-2.6440743041e+00
 4.2283965830e-01	 1.1838981319e+00	-2.7221359666e+00
 3.9613020203e-01	 1.1931005935e+00	-2.7975666272e+00
 3.6936357884e-01	 1.2016566522e+00	-2.8698211023e+00
 3.4256177654e-01	 1.2095700032e+00	-2.9342542359e+00
 3.1574635632e-01	 1.2168452661e+00	-2.9888870533e+00
 2.8893840872e-01	 1.2234879481e+00	-3.0364167577e+00
 2.6215851298e-01	 1.2295044031e+00	-3.0794638305e+00
 5.4066871302e-01	 1.1665069941e+00	-2.3552690038e+00
 5.1381793654e-01	 1.1785806517e+00	-2.4099258034e+00
 4.8681539164e-01	 1.1899882348e+00	-2.4647407419e+00
 4.5968479811e-01	 1.2007294079e+00	-2.5183134622e+00
 4.3244965053e-01	 1.2108049076e+00	-2.5696080888e+00
 4.0513316117e-01	 1.2202165161e+00	-2.6179801112e+00
 3.7775820563e-01	 1.2289670307e+00	-2.6631846048e+00
 3.5034727146e-01	 1.2370602305e+00	-2.7034513126e+00
 3.2292240987e-01	 1.2445008404e+00	-2.7355198831e+00
 2.9550519074e-01	 1.2512944924e+00	-2.7621199353e+00
 2.6811666100e-01	 1.2574476850e+00	-2.7860967449e+00
 2.0853518078e-01	 9.7801486613e-01	-8.7318774993e+00
 1.8727123840e-01	 9.8230824249e-01	-9.1440716695e+00
 1.6606101359e-01	 9.8611547993e-01	-9.5172934650e+00
 1.4491948902e-01	 9.8944345048e-01	-9.8501430838e+00
 1.2386113861e-01	 9.9229956079e-01	-1.0141592984e+01
 1.0289990885e-01	 9.9469171544e-01	-1.0390979486e+01
 8.2049202936e-02	 9.9662827990e-01	-1.0597993392e+01
 6.1321867598e-02	 9.9811804340e-01	-1.0762669367e+01
 4.0730182473e-02	 9.9917018182e-01	-1.0885373927e+01
 2.0285852044e-02	 9.9979422093e-01	-1.0966791853e+01
 0.0000000000e+00	 1.0000000000e+00	-1.1007910978e+01
 2.1449332880e-01	 1.0059581480e+00	-7.5653160608e+00
 1.9262184522e-01	 1.0103741923e+00	-7.9002121043e+00
 1.7080561397e-01	 1.0142902079e+00	-8.2027025152e+00
 1.4906004585e-01	 1.0177132634e+00	-8.4718134992e+00
 1.2740002829e-01	 1.0206509768e+00	-8.7068617261e+00
 1.0583990624e-01	 1.0231114787e+00	-8.9074499781e+00
 8.4393465877e-02	 1.0251033736e+00	-9.0734623132e+00
 6.3073920958e-02	 1.0266357018e+00	-9.2050583649e+00
 4.1893901972e-02	 1.0277179013e+00	-9.3026664496e+00
 2.0865447817e-02	 1.0283597701e+00	-9.3669752138e+00
 0.0000000000e+00	 1.0285714286e+00	-9.3989236196e+00
 2.2045147683e-01	 1.0339014299e+00	-6.5986645310e+00
 1.9797245203e-01	 1.0384401421e+00	-6.8688882928e+00
 1.7555021436e-01	 1.0424649359e+00	-7.1122506596e+00
 1.5320060268e-01	 1.0459830762e+00	-7.3281960307e+00
 1.3093891796e-01	 1.0490023928e+00	-7.5163823991e+00
 1.0877990364e-01	 1.0515312420e+00	-7.6766812083e+00
 8.6737728818e-02	 1.0535784673e+00	-7.8091772259e+00
 6.4825974318e-02	 1.0551533602e+00	-7.9141678944e+00
 4.3057621472e-02	 1.0562656208e+00	-7.9921616804e+00
 2.1445043590e-02	 1.0569253193e+00	-8.0438750147e+00
 0.0000000000e+00	 1.0571428571e+00	-8.0702275036e+00
 2.2640962485e-01	 1.0618447118e+00	-5.8008477354e+00
 2.0332305884e-01	 1.0665060918e+00	-6.0176978084e+00
 1.8029481475e-01	 1.0706396639e+00	-6.2123411954e+00
 1.5734115951e-01	 1.0742528891e+00	-6.3846290770e+00
 1.3447780764e-01	 1.0773538089e+00	-6.5345534723e+00
 1.1171990104e-01	 1.0799510053e+00	-6.6622515843e+00
 8.9081991759e-02	 1.0820535610e+00	-6.7680106636e+00
 6.6578027678e-02	 1.0836710185e+00	-6.8522726721e+00
 4.4221340971e-02	 1.0848133403e+00	-6.9156381004e+00
 2.2024639362e-02	 1.0854908684e+00	-6.9588683839e+00
 0.0000000000e+00	 1.0857142857e+00	-6.9828864645e+00
 2.3236777287e-01	 1.0897879937e+00	-5.1439539200e+00
 2.0867366565e-01	 1.0945720416e+00	-5.3175110120e+00
 1.8503941514e-01	 1.0988143919e+00	-5.4727498850e+00
 1.6148171634e-01	 1.1025227020e+00	-5.6099133536e+00
 1.3801669731e-01	 1.1057052249e+00	-5.7293156234e+00
 1.1465989843e-01	 1.1083707686e+00	-5.8313515297e+00
 9.1426254700e-02	 1.1105286547e+00	-5.9165067953e+00
 6.8330081038e-02	 1.1121886769e+00	-5.9853415989e+00
 4.5385060470e-02	 1.1133610597e+00	-6.0385099148e+00
 2.2604235135e-02	 1.1140564176e+00	-6.0768957509e+00
 0.0000000000e+00	 1.1142857143e+00	-6.1014955260e+00
 2.3832592089e-01	 1.1177312756e+00	-4.6023960116e+00
 2.1402427246e-01	 1.1226379914e+00	-4.7404396305e+00
 1.8978401553e-01	 1.1269891199e+00	-4.8626708084e+00
 1.6562227317e-01	 1.1307925148e+00	-4.9697868647e+00
 1.4155558699e-01	 1.1340566409e+00	-5.0625541035e+00
 1.1759989583e-01	 1.1367905319e+00	-5.1418011023e+00
 9.3770517641e-02	 1.1390037485e+00	-5.2084160076e+00
 7.0082134397e-02	 1.1407063353e+00	-5.2633464809e+00
 4.6548779969e-02	 1.1419087792e+00	-5.3076010945e+00
 2.3183830908e-02	 1.1426219668e+00	-5.3422511445e+00
 0.0000000000e+00	 1.1428571429e+00	-5.3684320332e+00
 2.4428406891e-01	 1.1456745575e+00	-4.1434751539e+00
 2.1937487927e-01	 1.1507039412e+00	-4.2499131598e+00
 1.9452861591e-01	 1.1551638479e+00	-4.3427239688e+00
 1.6976283000e-01	 1.1590623277e+00	-4.4231289061e+00
 1.4509447666e-01	 1.1624080569e+00	-4.4923457868e+00
 1.2053989322e-01	 1.1652102952e+00	-4.5515884715e+00
 9.6114780582e-02	 1.1674788422e+00	-4.6020707616e+00
 7.1834187757e-02	 1.1692239937e+00	-4.6450130185e+00
 4.7712499468e-02	 1.1704564987e+00	-4.6816500823e+00
 2.3763426680e-02	 1.1711875159e+00	-4.7132392731e+00
 0.0000000000e+00	 1.1714285714e+00	-4.7410674788e+00
 2.5024221694e-01	 1.1736178394e+00	-3.7459638360e+00
 2.2472548608e-01	 1.1787698910e+00	-3.8253902519e+00
 1.9927321630e-01	 1.1833385759e+00	-3.8929135141e+00
 1.7390338683e-01	 1.1873321406e+00	-3.9502504040e+00
 1.4863336634e-01	 1.1907594729e+00	-3.9990438818e+00
 1.2347989062e-01	 1.1936300585e+00	-4.0408700182e+00
 9.8459043523e-02	 1.1959539359e+00	-4.0772495013e+00
 7.3586241117e-02	 1.1977416521e+00	-4.1096618195e+00
 4.8876218968e-02	 1.1990042182e+00	-4.1395604513e+00
 2.4343022453e-02	 1.1997530651e+00	-4.1683876488e+00
 0.0000000000e+00	 1.2000000000e+00	-4.1975876617e+00
 2.5620036496e-01	 1.2015611212e+00	-3.3955691968e+00
 2.3007609290e-01	 1.2068358408e+00	-3.4517566160e+00
 2.0401781669e-01	 1.2115133039e+00	-3.4973921187e+00
 1.7804394366e-01	 1.2156019534e+00	-3.5346510766e+00
 1.5217225601e-01	 1.2191108890e+00	-3.5655666576e+00
 1.2641988801e-01	 1.2220498218e+00	-3.5920454308e+00
 1.0080330646e-01	 1.2244290296e+00	-3.6158876685e+00
 7.5338294477e-02	 1.2262593105e+00	-3.6388101363e+00
 5.0039938467e-02	 1.2275519377e+00	-3.6624694385e+00
 2.4922618226e-02	 1.2283186143e+00	-3.6884842916e+00
 0.0000000000e+00	 1.2285714286e+00	-3.7184554129e+00
 2.6215851298e-01	 1.2295044031e+00	-3.0794638305e+00
 2.3542669971e-01	 1.2349017906e+00	-3.1154536155e+00
 2.0876241708e-01	 1.2396880319e+00	-3.1419521017e+00
 1.8218450049e-01	 1.2438717663e+00	-3.1615473813e+00
 1.5571114569e-01	 1.2474623050e+00	-3.1766186861e+00
 1.2935988541e-01	 1.2504695851e+00	-3.1893621559e+00
 1.0314756940e-01	 1.2529041233e+00	-3.2018212996e+00
 7.7090347837e-02	 1.2547769688e+00	-3.2159195984e+00
 5.1203657966e-02	 1.2560996571e+00	-3.2334930311e+00
 2.5502213999e-02	 1.2568841635e+00	-3.2563206673e+00
 0.0000000000e+00	 1.2571428571e+00	-3.2861518419e+00
 2.6811666100e-01	 1.2574476850e+00	-2.7860967449e+00
 2.4077730652e-01	 1.2629677403e+00	-2.8042832008e+00
 2.1350701747e-01	 1.2678627599e+00	-2.8138249852e+00
 1.8632505732e-01	 1.2721415792e+00	-2.8176673191e+00
 1.5925003536e-01	 1.2758137210e+00	-2.8184814732e+00
 1.3229988281e-01	 1.2788893484e+00	-2.8187023994e+00
 1.0549183235e-01	 1.2813792170e+00	-2.8205709048e+00
 7.8842401197e-02	 1.2832946272e+00	-2.8261774403e+00
 5.2367377465e-02	 1.2846473766e+00	-2.8375049796e+00
 2.6081809771e-02	 1.2854497126e+00	-2.8564688833e+00
 0.0000000000e+00	 1.2857142857e+00	-2.8849520836e+00
 1.2857142857e+00	 0.0000000000e+00	 3.7838419001e+00
 1.2854497126e+00	 2.6081809771e-02	 3.7649537348e+00
 1.2846473766e+00	 5.2367377465e-02	 3.7427240734e+00
 1.2832946272e+00	 7.8842401197e-02	 3.7161153797e+00
 1.2813792170e+00	 1.0549183235e-01	 3.6840081729e+00
 1.2788893484e+00	 1.3229988281e-01	 3.6451597062e+00
 1.2758137210e+00	 1.5925003536e-01	 3.5981587498e+00
 1.2721415792e+00	 1.8632505732e-01	 3.5413769449e+00
 1.2678627599e+00	 2.1350701747e-01	 3.4729174282e+00
 1.2629677403e+00	 2.4077730652e-01	 3.3905616739e+00
 1.2574476850e+00	 2.6811666100e-01	 3.2917157772e+00
 1.3142857143e+00	 0.0000000000e+00	 3.7888472379e+00
 1.3140152618e+00	 2.6661405544e-02	 3.7698636134e+00
 1.3131950961e+00	 5.3531096965e-02	 3.7475736239e+00
 1.3118122856e+00	 8.0594454557e-02	 3.7207328266e+00
 1.3098543107e+00	 1.0783609529e-01	 3.6880126278e+00
 1.3073091117e+00	 1.3523988020e-01	 3.6479575510e+00
 1.3041651370e+00	 1.6278892504e-01	 3.5989378213e+00
 1.3004113921e+00	 1.9046561414e-01	 3.5390976781e+00
 1.2960374879e+00	 2.1825161785e-01	 3.4663000842e+00
 1.2910336901e+00	 2.4612791333e-01	 3.3780687866e+00
 1.2853909669e+00	 2.7407480903e-01	 3.2715289938e+00
 1.3428571429e+00	 0.0000000000e+00	 3.7986016505e+00
 1.3425808110e+00	 2.7241001317e-02	 3.7788334176e+00
 1.3417428156e+00	 5.4694816464e-02	 3.7555512757e+00
 1.3403299440e+00	 8.2346507917e-02	 3.7273448353e+00
 1.3383294044e+00	 1.1018035823e-01	 3.6927304025e+00
 1.3357288750e+00	 1.3817987760e-01	 3.6501071954e+00
 1.3325165531e+00	 1.6632781471e-01	 3.5977078915e+00
 1.3286812049e+00	 1.9460617097e-01	 3.5335438347e+00
 1.3242122159e+00	 2.2299621824e-01	 3.4553455244e+00
 1.3190996399e+00	 2.5147852014e-01	 3.3604993277e+00
 1.3133342488e+00	 2.8003295705e-01	 3.2459817130e+00
 1.3714285714e+00	 0.0000000000e+00	 3.8092168094e+00
 1.3711463601e+00	 2.7820597089e-02	 3.7880538816e+00
 1.3702905351e+00	 5.5858535963e-02	 3.7629842506e+00
 1.3688476024e+00	 8.4098561277e-02	 3.7324703066e+00
 1.3668044981e+00	 1.1252462117e-01	 3.6949255210e+00
 1.3641486383e+00	 1.4111987499e-01	 3.6486700206e+00
 1.3608679691e+00	 1.6986670438e-01	 3.5918792901e+00
 1.3569510178e+00	 1.9874672780e-01	 3.5225262314e+00
 1.3523869439e+00	 2.2774081863e-01	 3.4383171234e+00
 1.3471655897e+00	 2.5682912695e-01	 3.3366223993e+00
 1.3412775307e+00	 2.8599110507e-01	 3.2144035555e+00
 1.4000000000e+00	 0.0000000000e+00	 3.8171776604e+00
 1.3997119093e+00	 2.8400192862e-02	 3.7941221466e+00
 1.3988382545e+00	 5.7022255462e-02	 3.7666264971e+00
 1.3973652608e+00	 8.5850614637e-02	 3.7330623239e+00
 1.3952795919e+00	 1.1486888411e-01	 3.6917908354e+00
 1.3925684016e+00	 1.4405987239e-01	 3.6411182298e+00
 1.3892193851e+00	 1.7340559406e-01	 3.5792427895e+00
 1.3852208307e+00	 2.0288728463e-01	 3.5041937681e+00
 1.3805616719e+00	 2.3248541902e-01	 3.4137625182e+00
 1.3752315395e+00	 2.6217973377e-01	 3.3054267248e+00
 1.3692208126e+00	 2.9194925309e-01	 3.1762690659e+00
 1.4285714286e+00	 0.0000000000e+00	 3.8193050963e+00
 1.4282774585e+00	 2.8979788635e-02	 3.7940022289e+00
 1.4273859740e+00	 5.8185974962e-02	 3.7636174123e+00
 1.4258829191e+00	 8.7602667997e-02	 3.7264655679e+00
 1.4237546856e+00	 1.1721314705e-01	 3.6809045487e+00
 1.4209881649e+00	 1.4699986978e-01	 3.6252908780e+00
 1.4175708011e+00	 1.7694448373e-01	 3.5579255159e+00
 1.4134906435e+00	 2.0702784146e-01	 3.4769895786e+00
 1.4087363999e+00	 2.3723001941e-01	 3.3804703349e+00
 1.4032974893e+00	 2.6753034058e-01	 3.2660782699e+00
 1.3971640945e+00	 2.9790740112e-01	 3.1311565275e+00
 1.4571428571e+00	 0.0000000000e+00	 3.8127230212e+00
 1.4568430076e+00	 2.9559384407e-02	 3.7849901223e+00
 1.4559336935e+00	 5.9349694461e-02	 3.7514453544e+00
 1.4544005775e+00	 8.9354721357e-02	 3.7103785902e+00
 1.4522297793e+00	 1.1955740999e-01	 3.6601915841e+00
 1.4494079282e+00	 1.4993986718e-01	 3.5993546502e+00
 1.4459222171e+00	 1.8048337341e-01	 3.5263514342e+00
 1.4417604564e+00	 2.1116839829e-01	 3.4396115011e+00
 1.4369111279e+00	 2.4197461980e-01	 3.3374309092e+00
 1.4313634391e+00	 2.7288094739e-01	 3.2178814606e+00
 1.4251073764e+00	 3.0386554914e-01	 3.0787099130e+00
 1.4857142857e+00	 0.0000000000e+00	 3.7948297866e+00
 1.4854085568e+00	 3.0138980180e-02	 3.7647202248e+00
 1.4844814130e+00	 6.0513413960e-02	 3.7279609871e+00
 1.4829182359e+00	 9.1106774717e-02	 3.6828367012e+00
 1.4807048730e+00	 1.2190167293e-01	 3.6278891466e+00
 1.4778276915e+00	 1.5287986458e-01	 3.5617687489e+00
 1.4742736332e+00	 1.8402226308e-01	 3.4832057895e+00
 1.4700302693e+00	 2.1530895512e-01	 3.3909762873e+00
 1.4650858559e+00	 2.4671922018e-01	 3.2838004620e+00
 1.4594293888e+00	 2.7823155420e-01	 3.1602435143e+00
 1.4530506583e+00	 3.0982369716e-01	 3.0186035461e+00
 1.5142857143e+00	 0.0000000000e+00	 3.7636012411e+00
 1.5139741060e+00	 3.0718575953e-02	 3.7336688532e+00
 1.5130291325e+00	 6.1677133459e-02	 3.6962342470e+00
 1.5114358943e+00	 9.2858828077e-02	 3.6492284071e+00
 1.5091799667e+00	 1.2424593587e-01	 3.5909000270e+00
 1.5062474548e+00	 1.5581986197e-01	 3.5198521853e+00
 1.5026250492e+00	 1.8756115276e-01	 3.4350665421e+00
 1.4983000822e+00	 2.1944951195e-01	 3.3359054052e+00
 1.4932605839e+00	 2.5146382057e-01	 3.2220805860e+00
 1.4874953386e+00	 2.8358216101e-01	 3.0935767251e+00
 1.4809939401e+00	 3.1578184518e-01	 2.9505091186e+00
 1.5428571429e+00	 0.0000000000e+00	 3.7181169584e+00
 1.5425396552e+00	 3.1298171725e-02	 3.6920650929e+00
 1.5415768519e+00	 6.2840852958e-02	 3.6581596569e+00
 1.5399535527e+00	 9.4610881437e-02	 3.6138960236e+00
 1.5376550604e+00	 1.2659019882e-01	 3.5571363316e+00
 1.5346672181e+00	 1.5875985937e-01	 3.4861809841e+00
 1.5309764652e+00	 1.9110004243e-01	 3.3998307222e+00
 1.5265698950e+00	 2.2359006878e-01	 3.2974284316e+00
 1.5214353119e+00	 2.5620842096e-01	 3.1788681414e+00
 1.5155612884e+00	 2.8893276782e-01	 3.0445571876e+00
 1.5089372220e+00	 3.2173999320e-01	 2.8953163531e+00
 1.5714285714e+00	 0.0000000000e+00	 3.6578058820e+00
 1.5711052043e+00	 3.1877767498e-02	 3.6389363387e+00
 1.5701245714e+00	 6.4004572458e-02	 3.6125063078e+00
 1.5684712111e+00	 9.6362934797e-02	 3.5754759581e+00
 1.5661301541e+00	 1.2893446176e-01	 3.5252139847e+00
 1.5630869814e+00	 1.6169985676e-01	 3.4596089707e+00
 1.5593278812e+00	 1.9463893211e-01	 3.3771750733e+00
 1.5548397079e+00	 2.2773062561e-01	 3.2771398959e+00
 1.5496100399e+00	 2.6095302135e-01	 3.1595004120e+00
 1.5436272382e+00	 2.9428337463e-01	 3.0250310427e+00
 1.5368805039e+00	 3.2769814123e-01	 2.8752265697e+00
 1.2574476850e+00	 2.6811666100e-01	 3.2917157772e+00
 1.2512944924e+00	 2.9550519074e-01	 3.1809059252e+00
 1.2445008404e+00	 3.2292240987e-01	 3.0643151904e+00
 1.2370602305e+00	 3.5034727146e-01	 2.9412230626e+00
 1.2289670307e+00	 3.7775820563e-01	 2.8105331822e+00
 1.2202165161e+00	 4.0513316117e-01	 2.6722446590e+00
 1.2108049076e+00	 4.3244965053e-01	 2.5263311356e+00
 1.2007294079e+00	 4.5968479811e-01	 2.3726194239e+00
 1.1899882348e+00	 4.8681539164e-01	 2.2111851541e+00
 1.1785806517e+00	 5.1381793654e-01	 2.0423553127e+00
 1.1665069941e+00	 5.4066871302e-01	 1.8666979343e+00
 1.2853909669e+00	 2.7407480903e-01	 3.2715289938e+00
 1.2791010367e+00	 3.0207197276e-01	 3.1516106344e+00
 1.2721564146e+00	 3.3009846342e-01	 3.0254075694e+00
 1.2645504578e+00	 3.5813276638e-01	 2.8926266775e+00
 1.2562774092e+00	 3.8615283242e-01	 2.7524488128e+00
 1.2473324387e+00	 4.1413612031e-01	 2.6038754294e+00
 1.2377116833e+00	 4.4205964276e-01	 2.4465970571e+00
 1.2274122836e+00	 4.6990001584e-01	 2.2806282442e+00
 1.2164324178e+00	 4.9763351145e-01	 2.1062792866e+00
 1.2047713329e+00	 5.2523611291e-01	 1.9241587441e+00
 1.1924293717e+00	 5.5268357331e-01	 1.7351610746e+00
 1.3133342488e+00	 2.8003295705e-01	 3.2459817130e+00
 1.3069075810e+00	 3.0863875477e-01	 3.1171680231e+00
 1.2998119888e+00	 3.3727451697e-01	 2.9820626163e+00
 1.2920406852e+00	 3.6591826130e-01	 2.8408729941e+00
 1.2835877876e+00	 3.9454745921e-01	 2.6923821838e+00
 1.2744483613e+00	 4.2313907944e-01	 2.5345550114e+00
 1.2646184590e+00	 4.5166963500e-01	 2.3672206704e+00
 1.2540951593e+00	 4.8011523358e-01	 2.1905642441e+00
 1.2428766008e+00	 5.0845163127e-01	 2.0051138942e+00
 1.2309620140e+00	 5.3665428928e-01	 1.8117437869e+00
 1.2183517494e+00	 5.6469843360e-01	 1.6116599187e+00
 1.3412775307e+00	 2.8599110507e-01	 3.2144035555e+00
 1.3347141252e+00	 3.1520553679e-01	 3.0774664724e+00
 1.3274675631e+00	 3.4445057053e-01	 2.9346720455e+00
 1.3195309125e+00	 3.7370375622e-01	 2.7867771016e+00
 1.3108981661e+00	 4.0294208600e-01	 2.6310096952e+00
 1.3015642839e+00	 4.3214203858e-01	 2.4651877014e+00
 1.2915252348e+00	 4.6127962723e-01	 2.2892757479e+00
 1.2807780350e+00	 4.9033045132e-01	 2.1036089501e+00
 1.2693207838e+00	 5.1926975108e-01	 1.9089141280e+00
 1.2571526952e+00	 5.4807246564e-01	 1.7063136795e+00
 1.2442741270e+00	 5.7671329389e-01	 1.4973099329e+00
 1.3692208126e+00	 2.9194925309e-01	 3.1762690659e+00
 1.3625206695e+00	 3.2177231881e-01	 3.0324602031e+00
 1.3551231373e+00	 3.5162662408e-01	 2.8836155233e+00
 1.3470211399e+00	 3.8148925114e-01	 2.7306900302e+00
 1.3382085445e+00	 4.1133671280e-01	 2.5688807537e+00
 1.3286802064e+00	 4.4114499772e-01	 2.3965199685e+00
 1.3184320105e+00	 4.7088961947e-01	 2.2136512603e+00
 1.3074609108e+00	 5.0054566905e-01	 2.0207356593e+00
 1.2957649668e+00	 5.3008787089e-01	 1.8186767466e+00
 1.2833433763e+00	 5.5949064201e-01	 1.6088261240e+00
 1.2701965047e+00	 5.8872815418e-01	 1.3929667229e+00
 1.3971640945e+00	 2.9790740112e-01	 3.1311565275e+00
 1.3903272138e+00	 3.2833910082e-01	 2.9821290903e+00
 1.3827787115e+00	 3.5880267763e-01	 2.8292208094e+00
 1.3745113672e+00	 3.8927474607e-01	 2.6727832747e+00
 1.3655189230e+00	 4.1973133959e-01	 2.5064134109e+00
 1.3557961290e+00	 4.5014795685e-01	 2.3291389512e+00
 1.3453387862e+00	 4.8049961170e-01	 2.1410521696e+00
 1.3341437865e+00	 5.1076088679e-01	 1.9427119486e+00
 1.3222091498e+00	 5.4090599071e-01	 1.7351737450e+00
 1.3095340575e+00	 5.7090881838e-01	 1.5199974282e+00
 1.2961188823e+00	 6.0074301447e-01	 1.2992300744e+00
 1.4251073764e+00	 3.0386554914e-01	 3.0787099130e+00
 1.4181337581e+00	 3.3490588284e-01	 2.9264411429e+00
 1.4104342858e+00	 3.6597873119e-01	 2.7717261490e+00
 1.4020015946e+00	 3.9706024099e-01	 2.6131537005e+00
 1.3928293015e+00	 4.2812596638e-01	 2.4438915836e+00
 1.3829120516e+00	 4.5915091599e-01	 2.2634722855e+00
 1.3722455619e+00	 4.9010960393e-01	 2.0720013570e+00
 1.3608266622e+00	 5.2097610452e-01	 1.8701031766e+00
 1.3486533328e+00	 5.5172411052e-01	 1.6589568915e+00
 1.3357247386e+00	 5.8232699475e-01	 1.4403075263e+00
 1.3220412600e+00	 6.1275787476e-01	 1.2164488978e+00
 1.4530506583e+00	 3.0982369716e-01	 3.0186035461e+00
 1.4459403023e+00	 3.4147266485e-01	 2.8653172915e+00
 1.4380898600e+00	 3.7315478474e-01	 2.7111937235e+00
 1.4294918219e+00	 4.0484573591e-01	 2.5517883354e+00
 1.4201396799e+00	 4.3652059317e-01	 2.3814636434e+00
 1.4100279742e+00	 4.6815387513e-01	 2.1997890829e+00
 1.3991523377e+00	 4.9971959617e-01	 2.0068425313e+00
 1.3875095380e+00	 5.3119132226e-01	 1.8032768456e+00
 1.3750975158e+00	 5.6254223034e-01	 1.5903630512e+00
 1.3619154198e+00	 5.9374517111e-01	 1.3700057597e+00
 1.3479636376e+00	 6.2477273505e-01	 1.1447269560e+00
 1.4809939401e+00	 3.1578184518e-01	 2.9505091186e+00
 1.4737468466e+00	 3.4803944687e-01	 2.7985981778e+00
 1.4657454342e+00	 3.8033083829e-01	 2.6470148462e+00
 1.4569820492e+00	 4.1263123083e-01	 2.4885615505e+00
 1.4474500584e+00	 4.4491521996e-01	 2.3191421944e+00
 1.4371438968e+00	 4.7715683426e-01	 2.1382019077e+00
 1.4260591134e+00	 5.0932958840e-01	 1.9457439885e+00
 1.4141924137e+00	 5.4140653999e-01	 1.7424077089e+00
 1.4015416988e+00	 5.7336035015e-01	 1.5295201907e+00
 1.3881061009e+00	 6.0516334748e-01	 1.3091173177e+00
 1.3738860153e+00	 6.3678759534e-01	 1.0839292705e+00
 1.5089372220e+00	 3.2173999320e-01	 2.8953163531e+00
 1.5015533909e+00	 3.5460622889e-01	 2.7381582329e+00
 1.4934010084e+00	 3.8750689184e-01	 2.5831751295e+00
 1.4844722766e+00	 4.2041672575e-01	 2.4235231125e+00
 1.4747604369e+00	 4.5330984676e-01	 2.2568048849e+00
 1.4642598193e+00	 4.8615979340e-01	 2.0786696245e+00
 1.4529658891e+00	 5.1893958064e-01	 1.8887031135e+00
 1.4408752894e+00	 5.5162175773e-01	 1.6874835277e+00
 1.4279858818e+00	 5.8417846996e-01	 1.4763539768e+00
 1.4142967820e+00	 6.1658152385e-01	 1.2574502529e+00
 1.3998083929e+00	 6.4880245563e-01	 1.0336891187e+00
 1.5368805039e+00	 3.2769814123e-01	 2.8752265697e+00
 1.5293599352e+00	 3.6117301090e-01	 2.7161591273e+00
 1.5210565827e+00	 3.9468294540e-01	 2.5550776349e+00
 1.5119625039e+00	 4.2820222067e-01	 2.3854523119e+00
 1.5020708153e+00	 4.6170447355e-01	 2.2079916801e+00
 1.4913757419e+00	 4.9516275254e-01	 2.0241642091e+00
 1.4798726648e+00	 5.2854957287e-01	 1.8355515278e+00
 1.4675581652e+00	 5.6183697547e-01	 1.6383113945e+00
 1.4544300648e+00	 5.9499658978e-01	 1.4305948935e+00
 1.4404874632e+00	 6.2799970022e-01	 1.2146029974e+00
 1.4257307705e+00	 6.6081731592e-01	 9.9341554718e-01
 1.1665069941e+00	 5.4066871302e-01	 1.8666979343e+00
 1.1537686929e+00	 5.6734383568e-01	 1.6870152002e+00
 1.1403682937e+00	 5.9381931534e-01	 1.5075609721e+00
 1.1263094722e+00	 6.2007112287e-01	 1.3313066328e+00
 1.1115970447e+00	 6.4607525462e-01	 1.1612324099e+00
 1.0962369751e+00	 6.7180779917e-01	 9.9484480264e-01
 1.0802363757e+00	 6.9724500504e-01	 8.2710894990e-01
 1.0636035053e+00	 7.2236334895e-01	 6.5817887177e-01
 1.0463477606e+00	 7.4713960429e-01	 4.8828374503e-01
 1.0284796638e+00	 7.7155090936e-01	 3.1837685910e-01
 1.0100108447e+00	 7.9557483501e-01	 1.5192765741e-01
 1.1924293717e+00	 5.5268357331e-01	 1.7351610746e+00
 1.1794079971e+00	 5.7995147647e-01	 1.5421345158e+00
 1.1657098113e+00	 6.0701530013e-01	 1.3490867944e+00
 1.1513385715e+00	 6.3385048116e-01	 1.1589165804e+00
 1.1362992013e+00	 6.6043248250e-01	 9.7453501090e-01
 1.1205977967e+00	 6.8673686137e-01	 7.9875872031e-01
 1.1042416285e+00	 7.1273933848e-01	 6.3300226749e-01
 1.0872391388e+00	 7.3841586782e-01	 4.6850220483e-01
 1.0695999331e+00	 7.6374270661e-01	 3.0188293904e-01
 1.0513347674e+00	 7.8869648512e-01	 1.3369204098e-01
 1.0324555301e+00	 8.1325427578e-01	-3.2507170217e-02
 1.2183517494e+00	 5.6469843360e-01	 1.6116599187e+00
 1.2050473014e+00	 5.9255911727e-01	 1.4077173507e+00
 1.1910513289e+00	 6.2021128491e-01	 1.2036570518e+00
 1.1763676709e+00	 6.4762983944e-01	 1.0023239208e+00
 1.1610013578e+00	 6.7478971038e-01	 8.0658510827e-01
 1.1449586184e+00	 7.0166592357e-01	 6.1921173398e-01
 1.1282468813e+00	 7.2823367193e-01	 4.4274486578e-01
 1.1108747723e+00	 7.5446838668e-01	 2.7866551449e-01
 1.0928521056e+00	 7.8034580893e-01	 1.1749537797e-01
 1.0741898710e+00	 8.0584206089e-01	-4.6297807275e-02
 1.0549002156e+00	 8.3093371656e-01	-2.0940036260e-01
 1.2442741270e+00	 5.7671329389e-01	 1.4973099329e+00
 1.2306866057e+00	 6.0516675806e-01	 1.2847564396e+00
 1.2163928466e+00	 6.3340726970e-01	 1.0721379854e+00
 1.2013967703e+00	 6.6140919773e-01	 8.6226631503e-01
 1.1857035144e+00	 6.8914693826e-01	 6.5799227975e-01
 1.1693194401e+00	 7.1659498578e-01	 4.6207521021e-01
 1.1522521341e+00	 7.4372800537e-01	 2.7698670169e-01
 1.1345104057e+00	 7.7052090555e-01	 1.0073542809e-01
 1.1161042780e+00	 7.9694891124e-01	-6.5742252025e-02
 1.0970449747e+00	 8.2298763665e-01	-2.2306638081e-01
 1.0773449010e+00	 8.4861315734e-01	-3.8022291658e-01
 1.2701965047e+00	 5.8872815418e-01	 1.3929667229e+00
 1.2563259100e+00	 6.1777439885e-01	 1.1739705455e+00
 1.2417343642e+00	 6.4660325448e-01	 9.5510548788e-01
 1.2264258697e+00	 6.7518855601e-01	 7.3917252097e-01
 1.2104056709e+00	 7.0350416614e-01	 5.2903663211e-01
 1.1936802617e+00	 7.3152404798e-01	 3.2748277479e-01
 1.1762573869e+00	 7.5922233882e-01	 1.3489297475e-01
 1.1581460392e+00	 7.8657342441e-01	-5.2503950530e-02
 1.1393564505e+00	 8.1355201356e-01	-2.3095060792e-01
 1.1199000783e+00	 8.4013321241e-01	-3.9599957673e-01
 1.0997895864e+00	 8.6629259812e-01	-5.4628698610e-01
 1.2961188823e+00	 6.0074301447e-01	 1.2992300744e+00
 1.2819652143e+00	 6.3038203965e-01	 1.0758080273e+00
 1.2670758819e+00	 6.5979923927e-01	 8.5284806807e-01
 1.2514549691e+00	 6.8896791430e-01	 6.3316461546e-01
 1.2351078275e+00	 7.1786139402e-01	 4.1967014070e-01
 1.2180410834e+00	 7.4645311018e-01	 2.1497056455e-01
 1.2002626397e+00	 7.7471667226e-01	 1.4034458653e-02
 1.1817816726e+00	 8.0262594328e-01	-1.8297341641e-01
 1.1626086229e+00	 8.3015511588e-01	-3.7164236364e-01
 1.1427551819e+00	 8.5727878818e-01	-5.4743701765e-01
 1.1222342719e+00	 8.8397203890e-01	-7.0576904426e-01
 1.3220412600e+00	 6.1275787476e-01	 1.2164488978e+00
 1.3076045186e+00	 6.4298968044e-01	 9.9045136390e-01
 1.2924173995e+00	 6.7299522405e-01	 7.6537081752e-01
 1.2764840684e+00	 7.0274727259e-01	 5.4406126359e-01
 1.2598099840e+00	 7.3221862190e-01	 3.2951907664e-01
 1.2424019051e+00	 7.6138217239e-01	 1.2115983761e-01
 1.2242678925e+00	 7.9021100571e-01	-8.7489628366e-02
 1.2054173061e+00	 8.1867846214e-01	-2.9271968709e-01
 1.1858607954e+00	 8.4675821820e-01	-4.9000888848e-01
 1.1656102856e+00	 8.7442436394e-01	-6.7470880690e-01
 1.1446789573e+00	 9.0165147967e-01	-8.4212019149e-01
 1.3479636376e+00	 6.2477273505e-01	 1.1447269560e+00
 1.3332438229e+00	 6.5559732123e-01	 9.1782250356e-01
 1.3177589171e+00	 6.8619120884e-01	 6.9240024458e-01
 1.3015131678e+00	 7.1652663087e-01	 4.7138189323e-01
 1.2845121406e+00	 7.4657584978e-01	 2.5757661748e-01
 1.2667627267e+00	 7.7631123459e-01	 4.3619551262e-02
 1.2482731453e+00	 8.0570533915e-01	-1.7168790561e-01
 1.2290529395e+00	 8.3473098101e-01	-3.8389446925e-01
 1.2091129678e+00	 8.6336132051e-01	-5.8834497000e-01
 1.1884653892e+00	 8.9156993970e-01	-7.8025280507e-01
 1.1671236428e+00	 9.1933092045e-01	-9.5478066095e-01
 1.3738860153e+00	 6.3678759534e-01	 1.0839292705e+00
 1.3588831271e+00	 6.6820496203e-01	 8.5758893093e-01
 1.3431004348e+00	 6.9938719362e-01	 6.3338986115e-01
 1.3265422672e+00	 7.3030598916e-01	 4.1435165550e-01
 1.3092142971e+00	 7.6093307766e-01	 1.9981480011e-01
 1.2911235484e+00	 7.9124029680e-01	-1.9608680981e-02
 1.2722783981e+00	 8.2119967260e-01	-2.4065725878e-01
 1.2526885730e+00	 8.5078349987e-01	-4.5873405144e-01
 1.2323651403e+00	 8.7996442283e-01	-6.6902768187e-01
 1.2113204929e+00	 9.0871551547e-01	-8.6658837841e-01
 1.1895683282e+00	 9.3701036123e-01	-1.0464133538e+00
 1.3998083929e+00	 6.4880245563e-01	 1.0336891187e+00
 1.3845224314e+00	 6.8081260282e-01	 8.0917035827e-01
 1.3684419524e+00	 7.1258317841e-01	 5.8752642470e-01
 1.3515713666e+00	 7.4408534744e-01	 3.7179414118e-01
 1.3339164537e+00	 7.7529030554e-01	 1.5371675022e-01
 1.3154843701e+00	 8.0616935900e-01	-7.0557050359e-02
 1.2962836509e+00	 8.3669400604e-01	-2.9656250824e-01
 1.2763242064e+00	 8.6683601874e-01	-5.1953811316e-01
 1.2556173128e+00	 8.9656752515e-01	-7.3449444556e-01
 1.2341755965e+00	 9.2586109123e-01	-9.3629383838e-01
 1.2120130136e+00	 9.5468980201e-01	-1.1197404557e+00
 1.4257307705e+00	 6.6081731592e-01	 9.9341554718e-01
 1.4101617357e+00	 6.9342024361e-01	 7.7174596153e-01
 1.3937834700e+00	 7.2577916320e-01	 5.5373675206e-01
 1.3766004660e+00	 7.5786470573e-01	 3.3965027432e-01
 1.3586186102e+00	 7.8964753342e-01	 1.1731982383e-01
 1.3398451917e+00	 8.2109842120e-01	-1.1131153495e-01
 1.3202889037e+00	 8.5218833949e-01	-3.4161541354e-01
 1.2999598399e+00	 8.8288853761e-01	-5.6864785002e-01
 1.2788694852e+00	 9.1317062747e-01	-7.8722038855e-01
 1.2570307001e+00	 9.4300666699e-01	-9.9198315841e-01
 1.2344576991e+00	 9.7236924279e-01	-1.1775196497e+00
 1.0100108447e+00	 7.9557483501e-01	 1.5192765741e-01
 9.9095401884e-01	 8.1918945125e-01	-1.6800649808e-02
 9.7132295976e-01	 8.4237339247e-01	-1.9454008778e-01
 9.5113246729e-01	 8.6510592077e-01	-3.7816834792e-01
 9.3039833114e-01	 8.8736698716e-01	-5.6418142686e-01
 9.0913729010e-01	 9.0913729010e-01	-7.4878963558e-01
 8.8736698716e-01	 9.3039833114e-01	-9.2802220265e-01
 8.6510592077e-01	 9.5113246729e-01	-1.0978369003e+00
 8.4237339247e-01	 9.7132295976e-01	-1.2542309351e+00
 8.1918945125e-01	 9.9095401884e-01	-1.3933492931e+00
 7.9557483501e-01	 1.0100108447e+00	-1.5115868123e+00
 1.0324555301e+00	 8.1325427578e-01	-3.2507170217e-02
 1.0129752193e+00	 8.3739366128e-01	-2.0247500669e-01
 9.9290791442e-01	 8.6109280119e-01	-3.8243527348e-01
 9.7226874434e-01	 8.8433049679e-01	-5.6862293961e-01
 9.5107384961e-01	 9.0708625354e-01	-7.5684039589e-01
 9.2934034099e-01	 9.2934034099e-01	-9.4257165340e-01
 9.0708625354e-01	 9.5107384961e-01	-1.1211064201e+00
 8.8433049679e-01	 9.7226874434e-01	-1.2876699228e+00
 8.6109280119e-01	 9.9290791442e-01	-1.4375541256e+00
 8.3739366128e-01	 1.0129752193e+00	-1.5662459372e+00
 8.1325427578e-01	 1.0324555301e+00	-1.6695480921e+00
 1.0549002156e+00	 8.3093371656e-01	-2.0940036260e-01
 1.0349964197e+00	 8.5559787131e-01	-3.7752718405e-01
 1.0144928691e+00	 8.7981220991e-01	-5.5639329717e-01
 9.9340502139e-01	 9.0355507281e-01	-7.4169250701e-01
 9.7174936808e-01	 9.2680551992e-01	-9.2863140986e-01
 9.4954339188e-01	 9.4954339188e-01	-1.1120627260e+00
 9.2680551992e-01	 9.7174936808e-01	-1.2866299383e+00
 9.0355507281e-01	 9.9340502139e-01	-1.4469184891e+00
 8.7981220991e-01	 1.0144928691e+00	-1.5876085414e+00
 8.5559787131e-01	 1.0349964197e+00	-1.7036242398e+00
 8.3093371656e-01	 1.0549002156e+00	-1.7902745131e+00
 1.0773449010e+00	 8.4861315734e-01	-3.8022291658e-01
 1.0570176201e+00	 8.7380208133e-01	-5.4346182679e-01
 1.0360778237e+00	 8.9853161863e-01	-7.1799756849e-01
 1.0145412984e+00	 9.2277964882e-01	-8.9907450559e-01
 9.9242488655e-01	 9.4652478630e-01	-1.0813906048e+00
 9.6974644277e-01	 9.6974644277e-01	-1.2592510513e+00
 9.4652478630e-01	 9.9242488655e-01	-1.4267347575e+00
 9.2277964882e-01	 1.0145412984e+00	-1.5778683445e+00
 8.9853161863e-01	 1.0360778237e+00	-1.7068018954e+00
 8.7380208133e-01	 1.0570176201e+00	-1.8079806954e+00
 8.4861315734e-01	 1.0773449010e+00	-1.8763072954e+00
 1.0997895864e+00	 8.6629259812e-01	-5.4628698610e-01
 1.0790388205e+00	 8.9200629136e-01	-7.0162811227e-01
 1.0576627784e+00	 9.1725102736e-01	-8.6867969339e-01
 1.0356775755e+00	 9.4200422484e-01	-1.0423187143e+00
 1.0131004050e+00	 9.6624405269e-01	-1.2168111611e+00
 9.8994949366e-01	 9.8994949366e-01	-1.3859872806e+00
 9.6624405269e-01	 1.0131004050e+00	-1.5434314966e+00
 9.4200422484e-01	 1.0356775755e+00	-1.6826808265e+00
 9.1725102736e-01	 1.0576627784e+00	-1.7974253206e+00
 8.9200629136e-01	 1.0790388205e+00	-1.8817039525e+00
 8.6629259812e-01	 1.0997895864e+00	-1.9300895208e+00
 1.1222342719e+00	 8.8397203890e-01	-7.0576904426e-01
 1.1010600209e+00	 9.1021050139e-01	-8.5321396075e-01
 1.0792477331e+00	 9.3597043608e-01	-1.0097155005e+00
 1.0568138525e+00	 9.6122880086e-01	-1.1728253634e+00
 1.0337759235e+00	 9.8596331907e-01	-1.3364437445e+00
 1.0101525446e+00	 1.0101525446e+00	-1.4939874091e+00
 9.8596331907e-01	 1.0337759235e+00	-1.6386047927e+00
 9.6122880086e-01	 1.0568138525e+00	-1.7634007542e+00
 9.3597043608e-01	 1.0792477331e+00	-1.8616636533e+00
 9.1021050139e-01	 1.1010600209e+00	-1.9270873171e+00
 8.8397203890e-01	 1.1222342719e+00	-1.9571509408e+00
 1.1446789573e+00	 9.0165147967e-01	-8.4212019149e-01
 1.1230812213e+00	 9.2841471142e-01	-9.9599294960e-01
 1.1008326877e+00	 9.5468984480e-01	-1.1422196425e+00
 1.0779501296e+00	 9.8045337688e-01	-1.2918417428e+00
 1.0544514420e+00	 1.0056825854e+00	-1.4416953208e+00
 1.0303555954e+00	 1.0303555954e+00	-1.5848339262e+00
 1.0056825854e+00	 1.0544514420e+00	-1.7140168459e+00
 9.8045337688e-01	 1.0779501296e+00	-1.8219623566e+00
 9.5468984480e-01	 1.1008326877e+00	-1.9016036615e+00
 9.2841471142e-01	 1.1230812213e+00	-1.9498819651e+00
 9.0165147967e-01	 1.1446789573e+00	-1.9785185109e+00
 1.1671236428e+00	 9.1933092045e-01	-9.5478066095e-01
 1.1451024218e+00	 9.4661892144e-01	-1.1151741138e+00
 1.1224176424e+00	 9.7340925352e-01	-1.2644624399e+00
 1.0990864066e+00	 9.9967795289e-01	-1.4004574962e+00
 1.0751269604e+00	 1.0254018518e+00	-1.5338265621e+00
 1.0505586463e+00	 1.0505586463e+00	-1.6599754592e+00
 1.0254018518e+00	 1.0751269604e+00	-1.7713093596e+00
 9.9967795289e-01	 1.0990864066e+00	-1.8601935031e+00
 9.7340925352e-01	 1.1224176424e+00	-1.9222384314e+00
 9.4661892144e-01	 1.1451024218e+00	-1.9693577023e+00
 9.1933092045e-01	 1.1671236428e+00	-1.9979592538e+00
 1.1895683282e+00	 9.3701036123e-01	-1.0464133538e+00
 1.1671236222e+00	 9.6482313147e-01	-1.2112205101e+00
 1.1440025970e+00	 9.9212866224e-01	-1.3634998533e+00
 1.1202226837e+00	 1.0189025289e+00	-1.4980305630e+00
 1.0958024789e+00	 1.0451211182e+00	-1.6139480323e+00
 1.0707616972e+00	 1.0707616972e+00	-1.7207251096e+00
 1.0451211182e+00	 1.0958024789e+00	-1.8120040880e+00
 1.0189025289e+00	 1.1202226837e+00	-1.8816334659e+00
 9.9212866224e-01	 1.1440025970e+00	-1.9409731090e+00
 9.6482313147e-01	 1.1671236222e+00	-1.9880139124e+00
 9.3701036123e-01	 1.1895683282e+00	-2.0155964064e+00
 1.2120130136e+00	 9.5468980201e-01	-1.1197404557e+00
 1.1891448226e+00	 9.8302734150e-01	-1.2870099541e+00
 1.1655875517e+00	 1.0108480710e+00	-1.4400868252e+00
 1.1413589607e+00	 1.0381271049e+00	-1.5736261543e+00
 1.1164779974e+00	 1.0648403846e+00	-1.6825384085e+00
 1.0909647481e+00	 1.0909647481e+00	-1.7682576518e+00
 1.0648403846e+00	 1.1164779974e+00	-1.8380790296e+00
 1.0381271049e+00	 1.1413589607e+00	-1.9016320793e+00
 1.0108480710e+00	 1.1655875517e+00	-1.9598531602e+00
 9.8302734150e-01	 1.1891448226e+00	-2.0055526542e+00
 9.5468980201e-01	 1.2120130136e+00	-2.0313211567e+00
 1.2344576991e+00	 9.7236924279e-01	-1.1775196497e+00
 1.2111660230e+00	 1.0012315515e+00	-1.3454568601e+00
 1.1871725064e+00	 1.0295674797e+00	-1.4973124366e+00
 1.1624952378e+00	 1.0573516809e+00	-1.6276547105e+00
 1.1371535158e+00	 1.0845596510e+00	-1.7313331578e+00
 1.1111677990e+00	 1.1111677990e+00	-1.8036057511e+00
 1.0845596510e+00	 1.1371535158e+00	-1.8620069598e+00
 1.0573516809e+00	 1.1624952378e+00	-1.9225457621e+00
 1.0295674797e+00	 1.1871725064e+00	-1.9781894360e+00
 1.0012315515e+00	 1.2111660230e+00	-2.0215049936e+00
 9.7236924279e-01	 1.2344576991e+00	-2.0448543704e+00
 7.9557483501e-01	 1.0100108447e+00	-1.5115868123e+00
 7.7155090936e-01	 1.0284796638e+00	-1.6182066933e+00
 7.4713960429e-01	 1.0463477606e+00	-1.7215842660e+00
 7.2236334895e-01	 1.0636035053e+00	-1.8184968527e+00
 6.9724500504e-01	 1.0802363757e+00	-1.9094947154e+00
 6.7180779917e-01	 1.0962369751e+00	-1.9945208340e+00
 6.4607525462e-01	 1.1115970447e+00	-2.0733097955e+00
 6.2007112287e-01	 1.1263094722e+00	-2.1499050116e+00
 5.9381931534e-01	 1.1403682937e+00	-2.2252311178e+00
 5.6734383568e-01	 1.1537686929e+00	-2.2950720874e+00
 5.4066871302e-01	 1.1665069941e+00	-2.3552690038e+00
 8.1325427578e-01	 1.0324555301e+00	-1.6695480921e+00
 7.8869648512e-01	 1.0513347674e+00	-1.7572244755e+00
 7.6374270661e-01	 1.0695999331e+00	-1.8387194244e+00
 7.3841586782e-01	 1.0872391388e+00	-1.9102503498e+00
 7.1273933848e-01	 1.1042416285e+00	-1.9725076985e+00
 6.8673686137e-01	 1.1205977967e+00	-2.0298716239e+00
 6.6043248250e-01	 1.1362992013e+00	-2.0902501872e+00
 6.3385048116e-01	 1.1513385715e+00	-2.1511893162e+00
 6.0701530013e-01	 1.1657098113e+00	-2.2088284959e+00
 5.7995147647e-01	 1.1794079971e+00	-2.2592309771e+00
 5.5268357331e-01	 1.1924293717e+00	-2.2985408166e+00
 8.3093371656e-01	 1.0549002156e+00	-1.7902745131e+00
 8.0584206089e-01	 1.0741898710e+00	-1.8578657661e+00
 7.8034580893e-01	 1.0928521056e+00	-1.9168865748e+00
 7.5446838668e-01	 1.1108747723e+00	-1.9639297302e+00
 7.2823367193e-01	 1.1282468813e+00	-2.0046362010e+00
 7.0166592357e-01	 1.1449586184e+00	-2.0495088037e+00
 6.7478971038e-01	 1.1610013578e+00	-2.0966139771e+00
 6.4762983944e-01	 1.1763676709e+00	-2.1425661254e+00
 6.2021128491e-01	 1.1910513289e+00	-2.1837237167e+00
 5.9255911727e-01	 1.2050473014e+00	-2.2163840454e+00
 5.6469843360e-01	 1.2183517494e+00	-2.2369544783e+00
 8.4861315734e-01	 1.0773449010e+00	-1.8763072954e+00
 8.2298763665e-01	 1.0970449747e+00	-1.9226598937e+00
 7.9694891124e-01	 1.1161042780e+00	-1.9591893954e+00
 7.7052090555e-01	 1.1345104057e+00	-1.9948989917e+00
 7.4372800537e-01	 1.1522521341e+00	-2.0296396192e+00
 7.1659498578e-01	 1.1693194401e+00	-2.0625576804e+00
 6.8914693826e-01	 1.1857035144e+00	-2.0963183188e+00
 6.6140919773e-01	 1.2013967703e+00	-2.1277622511e+00
 6.3340726970e-01	 1.2163928466e+00	-2.1534142354e+00
 6.0516675806e-01	 1.2306866057e+00	-2.1697584963e+00
 5.7671329389e-01	 1.2442741270e+00	-2.1734257080e+00
 8.6629259812e-01	 1.0997895864e+00	-1.9300895208e+00
 8.4013321241e-01	 1.1199000783e+00	-1.9560642887e+00
 8.1355201356e-01	 1.1393564505e+00	-1.9866808456e+00
 7.8657342441e-01	 1.1581460392e+00	-2.0196816461e+00
 7.5922233882e-01	 1.1762573869e+00	-2.0497137458e+00
 7.3152404798e-01	 1.1936802617e+00	-2.0724463441e+00
 7.0350416614e-01	 1.2104056709e+00	-2.0926820978e+00
 6.7518855601e-01	 1.2264258697e+00	-2.1099521706e+00
 6.4660325448e-01	 1.2417343642e+00	-2.1208911528e+00
 6.1777439885e-01	 1.2563259100e+00	-2.1221209118e+00
 5.8872815418e-01	 1.2701965047e+00	-2.1104549097e+00
 8.8397203890e-01	 1.1222342719e+00	-1.9571509408e+00
 8.5727878818e-01	 1.1427551819e+00	-1.9801340671e+00
 8.3015511588e-01	 1.1626086229e+00	-2.0095693581e+00
 8.0262594328e-01	 1.1817816726e+00	-2.0398210276e+00
 7.7471667226e-01	 1.2002626397e+00	-2.0655289167e+00
 7.4645311018e-01	 1.2180410834e+00	-2.0816959717e+00
 7.1786139402e-01	 1.2351078275e+00	-2.0884509296e+00
 6.8896791430e-01	 1.2514549691e+00	-2.0917824561e+00
 6.5979923927e-01	 1.2670758819e+00	-2.0886625294e+00
 6.3038203965e-01	 1.2819652143e+00	-2.0757989129e+00
 6.0074301447e-01	 1.2961188823e+00	-2.0501466527e+00
 9.0165147967e-01	 1.1446789573e+00	-1.9785185109e+00
 8.7442436394e-01	 1.1656102856e+00	-2.0010268136e+00
 8.4675821820e-01	 1.1858607954e+00	-2.0289005825e+00
 8.1867846214e-01	 1.2054173061e+00	-2.0564427700e+00
 7.9021100571e-01	 1.2242678925e+00	-2.0782552169e+00
 7.6138217239e-01	 1.2424019051e+00	-2.0893299179e+00
 7.3221862190e-01	 1.2598099840e+00	-2.0858204737e+00
 7.0274727259e-01	 1.2764840684e+00	-2.0753947322e+00
 6.7299522405e-01	 1.2924173995e+00	-2.0587754751e+00
 6.4298968044e-01	 1.3076045186e+00	-2.0327018747e+00
 6.1275787476e-01	 1.3220412600e+00	-1.9942285164e+00
 9.1933092045e-01	 1.1671236428e+00	-1.9979592538e+00
 8.9156993970e-01	 1.1884653892e+00	-2.0193145294e+00
 8.6336132051e-01	 1.2091129678e+00	-2.0453640102e+00
 8.3473098101e-01	 1.2290529395e+00	-2.0703175843e+00
 8.0570533915e-01	 1.2482731453e+00	-2.0887090995e+00
 7.7631123459e-01	 1.2667627267e+00	-2.0954913496e+00
 7.4657584978e-01	 1.2845121406e+00	-2.0861149793e+00
 7.1652663087e-01	 1.3015131678e+00	-2.0624473604e+00
 6.8619120884e-01	 1.3177589171e+00	-2.0328371787e+00
 6.5559732123e-01	 1.3332438229e+00	-1.9943408233e+00
 6.2477273505e-01	 1.3479636376e+00	-1.9440693881e+00
 9.3701036123e-01	 1.1895683282e+00	-2.0155964064e+00
 9.0871551547e-01	 1.2113204929e+00	-2.0352749409e+00
 8.7996442283e-01	 1.2323651403e+00	-2.0593547412e+00
 8.5078349987e-01	 1.2526885730e+00	-2.0819210309e+00
 8.2119967260e-01	 1.2722783981e+00	-2.0974107401e+00
 7.9124029680e-01	 1.2911235484e+00	-2.1007110633e+00
 7.6093307766e-01	 1.3092142971e+00	-2.0872400181e+00
 7.3030598916e-01	 1.3265422672e+00	-2.0541360189e+00
 6.9938719362e-01	 1.3431004348e+00	-2.0120350168e+00
 6.6820496203e-01	 1.3588831271e+00	-1.9618476229e+00
 6.3678759534e-01	 1.3738860153e+00	-1.9006972843e+00
 9.5468980201e-01	 1.2120130136e+00	-2.0313211567e+00
 9.2586109123e-01	 1.2341755965e+00	-2.0489533793e+00
 8.9656752515e-01	 1.2556173128e+00	-2.0710338343e+00
 8.6683601874e-01	 1.2763242064e+00	-2.0914919190e+00
 8.3669400604e-01	 1.2962836509e+00	-2.1046400834e+00
 8.0616935900e-01	 1.3154843701e+00	-2.1052757229e+00
 7.7529030554e-01	 1.3339164537e+00	-2.0887629426e+00
 7.4408534744e-01	 1.3515713666e+00	-2.0510946331e+00
 7.1258317841e-01	 1.3684419524e+00	-1.9971558628e+00
 6.8081260282e-01	 1.3845224314e+00	-1.9359935446e+00
 6.4880245563e-01	 1.3998083929e+00	-1.8648167580e+00
 9.7236924279e-01	 1.2344576991e+00	-2.0448543704e+00
 9.4300666699e-01	 1.2570307001e+00	-2.0602234111e+00
 9.1317062747e-01	 1.2788694852e+00	-2.0803874223e+00
 8.8288853761e-01	 1.2999598399e+00	-2.0990895065e+00
 8.5218833949e-01	 1.3202889037e+00	-2.1104917502e+00
 8.2109842120e-01	 1.3398451917e+00	-2.1092801180e+00
 7.8964753342e-01	 1.3586186102e+00	-2.0907468564e+00
 7.5786470573e-01	 1.3766004660e+00	-2.0508511165e+00
 7.2577916320e-01	 1.3937834700e+00	-1.9886046959e+00
 6.9342024361e-01	 1.4101617357e+00	-1.9172072961e+00
 6.6081731592e-01	 1.4257307705e+00	-1.8368259439e+00
 5.4066871302e-01	 1.1665069941e+00	-2.3552690038e+00
 5.1381793654e-01	 1.1785806517e+00	-2.4099258034e+00
 4.8681539164e-01	 1.1899882348e+00	-2.4647407419e+00
 4.5968479811e-01	 1.2007294079e+00	-2.5183134622e+00
 4.3244965053e-01	 1.2108049076e+00	-2.5696080888e+00
 4.0513316117e-01	 1.2202165161e+00	-2.6179801112e+00
 3.7775820563e-01	 1.2289670307e+00	-2.6631846048e+00
 3.5034727146e-01	 1.2370602305e+00	-2.7034513126e+00
 3.2292240987e-01	 1.2445008404e+00	-2.7355198831e+00
 2.9550519074e-01	 1.2512944924e+00	-2.7621199353e+00
 2.6811666100e-01	 1.2574476850e+00	-2.7860967449e+00
 5.5268357331e-01	 1.1924293717e+00	-2.2985408166e+00
 5.2523611291e-01	 1.2047713329e+00	-2.3312752987e+00
 4.9763351145e-01	 1.2164324178e+00	-2.3634083206e+00
 4.6990001584e-01	 1.2274122836e+00	-2.3936881171e+00
 4.4205964276e-01	 1.2377116833e+00	-2.4212661095e+00
 4.1413612031e-01	 1.2473324387e+00	-2.4457224412e+00
 3.8615283242e-01	 1.2562774092e+00	-2.4670702824e+00
 3.5813276638e-01	 1.2645504578e+00	-2.4851898635e+00
 3.3009846342e-01	 1.2721564146e+00	-2.4974005281e+00
 3.0207197276e-01	 1.2791010367e+00	-2.5058931953e+00
 2.7407480903e-01	 1.2853909669e+00	-2.5136276079e+00
 5.6469843360e-01	 1.2183517494e+00	-2.2369544783e+00
 5.3665428928e-01	 1.2309620140e+00	-2.2502646765e+00
 5.0845163127e-01	 1.2428766008e+00	-2.2624554455e+00
 4.8011523358e-01	 1.2540951593e+00	-2.2723805359e+00
 4.5166963500e-01	 1.2646184590e+00	-2.2793401324e+00
 4.2313907944e-01	 1.2744483613e+00	-2.2831047746e+00
 3.9454745921e-01	 1.2835877876e+00	-2.2839151754e+00
 3.6591826130e-01	 1.2920406852e+00	-2.2824104240e+00
 3.3727451697e-01	 1.2998119888e+00	-2.2775364514e+00
 3.0863875477e-01	 1.3069075810e+00	-2.2708659210e+00
 2.8003295705e-01	 1.3133342488e+00	-2.2653406191e+00
 5.7671329389e-01	 1.2442741270e+00	-2.1734257080e+00
 5.4807246564e-01	 1.2571526952e+00	-2.1694421910e+00
 5.1926975108e-01	 1.2693207838e+00	-2.1639947103e+00
 4.9033045132e-01	 1.2807780350e+00	-2.1560052385e+00
 4.6127962723e-01	 1.2915252348e+00	-2.1448914116e+00
 4.3214203858e-01	 1.3015642839e+00	-2.1305884136e+00
 4.0294208600e-01	 1.3108981661e+00	-2.1135435532e+00
 3.7370375622e-01	 1.3195309125e+00	-2.0946868753e+00
 3.4445057053e-01	 1.3274675631e+00	-2.0746907740e+00
 3.1520553679e-01	 1.3347141252e+00	-2.0550206853e+00
 2.8599110507e-01	 1.3412775307e+00	-2.0384461815e+00
 5.8872815418e-01	 1.2701965047e+00	-2.1104549097e+00
 5.5949064201e-01	 1.2833433763e+00	-2.0909869004e+00
 5.3008787089e-01	 1.2957649668e+00	-2.0698177089e+00
 5.0054566905e-01	 1.3074609108e+00	-2.0459060366e+00
 4.7088961947e-01	 1.3184320105e+00	-2.0187629871e+00
 4.4114499772e-01	 1.3286802064e+00	-1.9884713266e+00
 4.1133671280e-01	 1.3382085445e+00	-1.9556738704e+00
 3.8148925114e-01	 1.3470211399e+00	-1.9215349041e+00
 3.5162662408e-01	 1.3551231373e+00	-1.8876876705e+00
 3.2177231881e-01	 1.3625206695e+00	-1.8564907180e+00
 2.9194925309e-01	 1.3692208126e+00	-1.8303993481e+00
 6.0074301447e-01	 1.2961188823e+00	-2.0501466527e+00
 5.7090881838e-01	 1.3095340575e+00	-2.0167253255e+00
 5.4090599071e-01	 1.3222091498e+00	-1.9814081323e+00
 5.1076088679e-01	 1.3341437865e+00	-1.9431648705e+00
 4.8049961170e-01	 1.3453387862e+00	-1.9015836068e+00
 4.5014795685e-01	 1.3557961290e+00	-1.8568865521e+00
 4.1973133959e-01	 1.3655189230e+00	-1.8099111003e+00
 3.8927474607e-01	 1.3745113672e+00	-1.7620605824e+00
 3.5880267763e-01	 1.3827787115e+00	-1.7153680568e+00
 3.2833910082e-01	 1.3903272138e+00	-1.6735109494e+00
 2.9790740112e-01	 1.3971640945e+00	-1.6388459530e+00
 6.1275787476e-01	 1.3220412600e+00	-1.9942285164e+00
 5.8232699475e-01	 1.3357247386e+00	-1.9481478313e+00
 5.5172411052e-01	 1.3486533328e+00	-1.8999550072e+00
 5.2097610452e-01	 1.3608266622e+00	-1.8486112602e+00
 4.9010960393e-01	 1.3722455619e+00	-1.7937727886e+00
 4.5915091599e-01	 1.3829120516e+00	-1.7358023148e+00
 4.2812596638e-01	 1.3928293015e+00	-1.6757414022e+00
 3.9706024099e-01	 1.4020015946e+00	-1.6152488173e+00
 3.6597873119e-01	 1.4104342858e+00	-1.5565489733e+00
 3.3490588284e-01	 1.4181337581e+00	-1.5043734853e+00
 3.0386554914e-01	 1.4251073764e+00	-1.4615739407e+00
 6.2477273505e-01	 1.3479636376e+00	-1.9440693881e+00
 5.9374517111e-01	 1.3619154198e+00	-1.8864247713e+00
 5.6254223034e-01	 1.3750975158e+00	-1.8263660558e+00
 5.3119132226e-01	 1.3875095380e+00	-1.7628322859e+00
 4.9971959617e-01	 1.3991523377e+00	-1.6955468659e+00
 4.6815387513e-01	 1.4100279742e+00	-1.6250236251e+00
 4.3652059317e-01	 1.4201396799e+00	-1.5525288076e+00
 4.0484573591e-01	 1.4294918219e+00	-1.4800050582e+00
 3.7315478474e-01	 1.4380898600e+00	-1.4099642706e+00
 3.4147266485e-01	 1.4459403023e+00	-1.3473869174e+00
 3.0982369716e-01	 1.4530506583e+00	-1.2964691941e+00
 6.3678759534e-01	 1.3738860153e+00	-1.9006972843e+00
 6.0516334748e-01	 1.3881061009e+00	-1.8324224229e+00
 5.7336035015e-01	 1.4015416988e+00	-1.7612811615e+00
 5.4140653999e-01	 1.4141924137e+00	-1.6861830303e+00
 5.0932958840e-01	 1.4260591134e+00	-1.6069258891e+00
 4.7715683426e-01	 1.4371438968e+00	-1.5241951640e+00
 4.4491521996e-01	 1.4474500584e+00	-1.4395136578e+00
 4.1263123083e-01	 1.4569820492e+00	-1.3551489048e+00
 3.8033083829e-01	 1.4657454342e+00	-1.2739859108e+00
 3.4803944687e-01	 1.4737468466e+00	-1.2008389614e+00
 3.1578184518e-01	 1.4809939401e+00	-1.1414752652e+00
 6.4880245563e-01	 1.3998083929e+00	-1.8648167580e+00
 6.1658152385e-01	 1.4142967820e+00	-1.7867187439e+00
 5.8417846996e-01	 1.4279858818e+00	-1.7050859260e+00
 5.5162175773e-01	 1.4408752894e+00	-1.6187974205e+00
 5.1893958064e-01	 1.4529658891e+00	-1.5277412712e+00
 4.8615979340e-01	 1.4642598193e+00	-1.4328052879e+00
 4.5330984676e-01	 1.4747604369e+00	-1.3358125677e+00
 4.2041672575e-01	 1.4844722766e+00	-1.2397389145e+00
 3.8750689184e-01	 1.4934010084e+00	-1.1520263104e+00
 3.5460622889e-01	 1.5015533909e+00	-1.0768148764e+00
 3.2173999320e-01	 1.5089372220e+00	-1.0187667966e+00
 6.6081731592e-01	 1.4257307705e+00	-1.8368259439e+00
 6.2799970022e-01	 1.4404874632e+00	-1.7496189701e+00
 5.9499658978e-01	 1.4544300648e+00	-1.6579253077e+00
 5.6183697547e-01	 1.4675581652e+00	-1.5605994208e+00
 5.2854957287e-01	 1.4798726648e+00	-1.4576440824e+00
 4.9516275254e-01	 1.4913757419e+00	-1.3537612121e+00
 4.6170447355e-01	 1.5020708153e+00	-1.2560823165e+00
 4.2820222067e-01	 1.5119625039e+00	-1.1656324044e+00
 3.9468294540e-01	 1.5210565827e+00	-1.0834252076e+00
 3.6117301090e-01	 1.5293599352e+00	-1.0108253734e+00
 3.2769814123e-01	 1.5368805039e+00	-9.5228162821e-01
 2.6811666100e-01	 1.2574476850e+00	-2.7860967449e+00
 2.4077730652e-01	 1.2629677403e+00	-2.8042832008e+00
 2.1350701747e-01	 1.2678627599e+00	-2.8138249852e+00
 1.8632505732e-01	 1.2721415792e+00	-2.8176673191e+00
 1.5925003536e-01	 1.2758137210e+00	-2.8184814732e+00
 1.3229988281e-01	 1.2788893484e+00	-2.8187023994e+00
 1.0549183235e-01	 1.2813792170e+00	-2.8205709048e+00
 7.8842401197e-02	 1.2832946272e+00	-2.8261774403e+00
 5.2367377465e-02	 1.2846473766e+00	-2.8375049796e+00
 2.6081809771e-02	 1.2854497126e+00	-2.8564688833e+00
 0.0000000000e+00	 1.2857142857e+00	-2.8849520836e+00
 2.7407480903e-01	 1.2853909669e+00	-2.5136276079e+00
 2.4612791333e-01	 1.2910336901e+00	-2.5167567742e+00
 2.1825161785e-01	 1.2960374879e+00	-2.5119522492e+00
 1.9046561414e-01	 1.3004113921e+00	-2.5024514212e+00
 1.6278892504e-01	 1.3041651370e+00	-2.4911561559e+00
 1.3523988020e-01	 1.3073091117e+00	-2.4806840567e+00
 1.0783609529e-01	 1.3098543107e+00	-2.4734239460e+00
 8.0594454557e-02	 1.3118122856e+00	-2.4715922333e+00
 5.3531096965e-02	 1.3131950961e+00	-2.4772873098e+00
 2.6661405544e-02	 1.3140152618e+00	-2.4925396043e+00
 0.0000000000e+00	 1.3142857143e+00	-2.5193554430e+00
 2.8003295705e-01	 1.3133342488e+00	-2.2653406191e+00
 2.5147852014e-01	 1.3190996399e+00	-2.2563793043e+00
 2.2299621824e-01	 1.3242122159e+00	-2.2401667989e+00
 1.9460617097e-01	 1.3286812049e+00	-2.2201567407e+00
 1.6632781471e-01	 1.3325165531e+00	-2.1994110844e+00
 1.3817987760e-01	 1.3357288750e+00	-2.1806668434e+00
 1.1018035823e-01	 1.3383294044e+00	-2.1664065332e+00
 8.2346507917e-02	 1.3403299440e+00	-2.1589285462e+00
 5.4694816464e-02	 1.3417428156e+00	-2.1604142324e+00
 2.7241001317e-02	 1.3425808110e+00	-2.1729890451e+00
 0.0000000000e+00	 1.3428571429e+00	-2.1987756961e+00
 2.8599110507e-01	 1.3412775307e+00	-2.0384461815e+00
 2.5682912695e-01	 1.3471655897e+00	-2.0196501260e+00
 2.2774081863e-01	 1.3523869439e+00	-1.9943668001e+00
 1.9874672780e-01	 1.3569510178e+00	-1.9661769590e+00
 1.6986670438e-01	 1.3608679691e+00	-1.9382187684e+00
 1.4111987499e-01	 1.3641486383e+00	-1.9132721298e+00
 1.1252462117e-01	 1.3668044981e+00	-1.8938459741e+00
 8.4098561277e-02	 1.3688476024e+00	-1.8822642718e+00
 5.5858535963e-02	 1.3702905351e+00	-1.8807471497e+00
 2.7820597089e-02	 1.3711463601e+00	-1.8914841754e+00
 0.0000000000e+00	 1.3714285714e+00	-1.9166975479e+00
 2.9194925309e-01	 1.3692208126e+00	-1.8303993481e+00
 2.6217973377e-01	 1.3752315395e+00	-1.8034054750e+00
 2.3248541902e-01	 1.3805616719e+00	-1.7708719906e+00
 2.0288728463e-01	 1.3852208307e+00	-1.7364036579e+00
 1.7340559406e-01	 1.3892193851e+00	-1.7031168978e+00
 1.4405987239e-01	 1.3925684016e+00	-1.6737440652e+00
 1.1486888411e-01	 1.3952795919e+00	-1.6507397167e+00
 8.5850614637e-02	 1.3973652608e+00	-1.6363841008e+00
 5.7022255462e-02	 1.3988382545e+00	-1.6328798440e+00
 2.8400192862e-02	 1.3997119093e+00	-1.6424385771e+00
 0.0000000000e+00	 1.4000000000e+00	-1.6673550249e+00
 2.9790740112e-01	 1.3971640945e+00	-1.6388459530e+00
 2.6753034058e-01	 1.4032974893e+00	-1.6047599291e+00
 2.3723001941e-01	 1.4087363999e+00	-1.5663611179e+00
 2.0702784146e-01	 1.4134906435e+00	-1.5271603972e+00
 1.7694448373e-01	 1.4175708011e+00	-1.4901396639e+00
 1.4699986978e-01	 1.4209881649e+00	-1.4578787003e+00
 1.1721314705e-01	 1.4237546856e+00	-1.4326827908e+00
 8.7602667997e-02	 1.4258829191e+00	-1.4167057584e+00
 5.8185974962e-02	 1.4273859740e+00	-1.4120639429e+00
 2.8979788635e-02	 1.4282774585e+00	-1.4209375322e+00
 0.0000000000e+00	 1.4285714286e+00	-1.4456565431e+00
 3.0386554914e-01	 1.4251073764e+00	-1.4615739407e+00
 2.7288094739e-01	 1.4313634391e+00	-1.4210537845e+00
 2.4197461980e-01	 1.4369111279e+00	-1.3778159582e+00
 2.1116839829e-01	 1.4417604564e+00	-1.3351439347e+00
 1.8048337341e-01	 1.4459222171e+00	-1.2957566962e+00
 1.4993986718e-01	 1.4494079282e+00	-1.2619611184e+00
 1.1955740999e-01	 1.4522297793e+00	-1.2358035710e+00
 8.9354721357e-02	 1.4544005775e+00	-1.2192147951e+00
 5.9349694461e-02	 1.4559336935e+00	-1.2141430971e+00
 2.9559384407e-02	 1.4568430076e+00	-1.2226719111e+00
 0.0000000000e+00	 1.4571428571e+00	-1.2471187915e+00
 3.0982369716e-01	 1.4530506583e+00	-1.2964691941e+00
 2.7823155420e-01	 1.4594293888e+00	-1.2498055660e+00
 2.4671922018e-01	 1.4650858559e+00	-1.2024710310e+00
 2.1530895512e-01	 1.4700302693e+00	-1.1573716266e+00
 1.8402226308e-01	 1.4742736332e+00	-1.1168185925e+00
 1.5287986458e-01	 1.4778276915e+00	-1.0827094997e+00
 1.2190167293e-01	 1.4807048730e+00	-1.0567067404e+00
 9.1106774717e-02	 1.4829182359e+00	-1.0404288426e+00
 6.0513413960e-02	 1.4844814130e+00	-1.0355691429e+00
 3.0138980180e-02	 1.4854085568e+00	-1.0439775005e+00
 0.0000000000e+00	 1.4857142857e+00	-1.0678976724e+00
 3.1578184518e-01	 1.4809939401e+00	-1.1414752652e+00
 2.8358216101e-01	 1.4874953386e+00	-1.0897312686e+00
 2.5146382057e-01	 1.4932605839e+00	-1.0414133649e+00
 2.1944951195e-01	 1.4983000822e+00	-9.9762882664e-01
 1.8756115276e-01	 1.5026250492e+00	-9.5925981661e-01
 1.5581986197e-01	 1.5062474548e+00	-9.2719414708e-01
 1.2424593587e-01	 1.5091799667e+00	-9.0248568468e-01
 9.2858828077e-02	 1.5114358943e+00	-8.8646504224e-01
 6.1677133459e-02	 1.5130291325e+00	-8.8081270509e-01
 3.0718575953e-02	 1.5139741060e+00	-8.8760556409e-01
 0.0000000000e+00	 1.5142857143e+00	-9.0934642686e-01
 3.2173999320e-01	 1.5089372220e+00	-1.0187667966e+00
 2.8893276782e-01	 1.5155612884e+00	-9.6944834368e-01
 2.5620842096e-01	 1.5214353119e+00	-9.2306614461e-01
 2.2359006878e-01	 1.5265698950e+00	-8.8024119951e-01
 1.9110004243e-01	 1.5309764652e+00	-8.4160517045e-01
 1.5875985937e-01	 1.5346672181e+00	-8.0799018995e-01
 1.2659019882e-01	 1.5376550604e+00	-7.8055260286e-01
 9.4610881437e-02	 1.5399535527e+00	-7.6084566528e-01
 6.2840852958e-02	 1.5415768519e+00	-7.5085513695e-01
 3.1298171725e-02	 1.5425396552e+00	-7.5301026919e-01
 0.0000000000e+00	 1.5428571429e+00	-7.7018101555e-01
 3.2769814123e-01	 1.5368805039e+00	-9.5228162821e-01
 2.9428337463e-01	 1.5436272382e+00	-9.0088351460e-01
 2.6095302135e-01	 1.5496100399e+00	-8.5174231152e-01
 2.2773062561e-01	 1.5548397079e+00	-8.0506722605e-01
 1.9463893211e-01	 1.5593278812e+00	-7.6133661343e-01
 1.6169985676e-01	 1.5630869814e+00	-7.2144663933e-01
 1.2893446176e-01	 1.5661301541e+00	-6.8679061759e-01
 9.6362934797e-02	 1.5684712111e+00	-6.5928627819e-01
 6.4004572458e-02	 1.5701245714e+00	-6.4136687336e-01
 3.1877767498e-02	 1.5711052043e+00	-6.3595030534e-01
 0.0000000000e+00	 1.5714285714e+00	-6.4639847575e-01
 1.5714285714e+00	 0.0000000000e+00	 3.6578058820e+00
 1.5711052043e+00	 3.1877767498e-02	 3.6389363387e+00
 1.5701245714e+00	 6.4004572458e-02	 3.6125063078e+00
 1.5684712111e+00	 9.6362934797e-02	 3.5754759581e+00
 1.5661301541e+00	 1.2893446176e-01	 3.5252139847e+00
 1.5630869814e+00	 1.6169985676e-01	 3.4596089707e+00
 1.5593278812e+00	 1.9463893211e-01	 3.3771750733e+00
 1.5548397079e+00	 2.2773062561e-01	 3.2771398959e+00
 1.5496100399e+00	 2.6095302135e-01	 3.1595004120e+00
 1.5436272382e+00	 2.9428337463e-01	 3.0250310427e+00
 1.5368805039e+00	 3.2769814123e-01	 2.8752265697e+00
 1.6000000000e+00	 0.0000000000e+00	 3.5937906065e+00
 1.5996707535e+00	 3.2457363271e-02	 3.5813977976e+00
 1.5986722909e+00	 6.5168291957e-02	 3.5620254232e+00
 1.5969888694e+00	 9.8114988156e-02	 3.5321641929e+00
 1.5946052478e+00	 1.3127872470e-01	 3.4887417752e+00
 1.5915067447e+00	 1.6463985416e-01	 3.4292779996e+00
 1.5876792973e+00	 1.9817782178e-01	 3.3520388501e+00
 1.5831095208e+00	 2.3187118244e-01	 3.2561757174e+00
 1.5777847679e+00	 2.6569762174e-01	 3.1418340512e+00
 1.5716931880e+00	 2.9963398145e-01	 3.0102134787e+00
 1.5648237858e+00	 3.3365628925e-01	 2.8635597507e+00
 1.6285714286e+00	 0.0000000000e+00	 3.5361097828e+00
 1.6282363027e+00	 3.3036959044e-02	 3.5265499041e+00
 1.6272200104e+00	 6.6332011456e-02	 3.5104074955e+00
 1.6255065278e+00	 9.9867041516e-02	 3.4839212866e+00
 1.6230803416e+00	 1.3362298764e-01	 3.4437760025e+00
 1.6199265080e+00	 1.6757985155e-01	 3.3873043976e+00
 1.6160307133e+00	 2.0171671146e-01	 3.3126932988e+00
 1.6113793336e+00	 2.3601173927e-01	 3.2191786320e+00
 1.6059594959e+00	 2.7044222212e-01	 3.1072117239e+00
 1.5997591378e+00	 3.0498458826e-01	 2.9785767430e+00
 1.5927670677e+00	 3.3961443727e-01	 2.8364371289e+00
 1.6571428571e+00	 0.0000000000e+00	 3.4829204118e+00
 1.6568018518e+00	 3.3616554816e-02	 3.4736116811e+00
 1.6557677299e+00	 6.7495730955e-02	 3.4579249455e+00
 1.6540241862e+00	 1.0161909488e-01	 3.4320253186e+00
 1.6515554353e+00	 1.3596725058e-01	 3.3925108046e+00
 1.6483462713e+00	 1.7051984895e-01	 3.3366647040e+00
 1.6443821293e+00	 2.0525560113e-01	 3.2627180846e+00
 1.6396491465e+00	 2.4015229610e-01	 3.1701057011e+00
 1.6341342239e+00	 2.7518682251e-01	 3.0596956614e+00
 1.6278250876e+00	 3.1033519507e-01	 2.9339703351e+00
 1.6207103496e+00	 3.4557258529e-01	 2.7971336232e+00
 1.6857142857e+00	 0.0000000000e+00	 3.4326425945e+00
 1.6853674010e+00	 3.4196150589e-02	 3.4219212251e+00
 1.6843154494e+00	 6.8659450455e-02	 3.4048460540e+00
 1.6825418446e+00	 1.0337114824e-01	 3.3776475452e+00
 1.6800305290e+00	 1.3831151352e-01	 3.3369508608e+00
 1.6767660346e+00	 1.7345984634e-01	 3.2800827411e+00
 1.6727335453e+00	 2.0879449081e-01	 3.2053954431e+00
 1.6679189594e+00	 2.4429285292e-01	 3.1125894187e+00
 1.6623089519e+00	 2.7993142290e-01	 3.0030128926e+00
 1.6558910373e+00	 3.1568580188e-01	 2.8799132756e+00
 1.6486536315e+00	 3.5153073332e-01	 2.7486125813e+00
 1.7142857143e+00	 0.0000000000e+00	 3.3839376069e+00
 1.7139329502e+00	 3.4775746362e-02	 3.3709222411e+00
 1.7128631688e+00	 6.9823169954e-02	 3.3514296377e+00
 1.7110595030e+00	 1.0512320160e-01	 3.3218547513e+00
 1.7085056227e+00	 1.4065577646e-01	 3.2789207966e+00
 1.7051857979e+00	 1.7639984374e-01	 3.2200452899e+00
 1.7010849614e+00	 2.1233338048e-01	 3.1437311781e+00
 1.6961887723e+00	 2.4843340975e-01	 3.0499629187e+00
 1.6904836799e+00	 2.8467602329e-01	 2.9405833777e+00
 1.6839569871e+00	 3.2103640869e-01	 2.8196237171e+00
 1.6765969134e+00	 3.5748888134e-01	 2.6935552507e+00
 1.7428571429e+00	 0.0000000000e+00	 3.3356881319e+00
 1.7424984993e+00	 3.5355342134e-02	 3.3201519237e+00
 1.7414108883e+00	 7.0986889453e-02	 3.2979203376e+00
 1.7395771613e+00	 1.0687525496e-01	 3.2656115621e+00
 1.7369807164e+00	 1.4300003940e-01	 3.2200739904e+00
 1.7336055612e+00	 1.7933984114e-01	 3.1588167129e+00
 1.7294363774e+00	 2.1587227016e-01	 3.0804742674e+00
 1.7244585851e+00	 2.5257396658e-01	 2.9852835730e+00
 1.7186584079e+00	 2.8942062368e-01	 2.8755464497e+00
 1.7120229369e+00	 3.2638701550e-01	 2.7560469199e+00
 1.7045401953e+00	 3.6344702936e-01	 2.6343888248e+00
 1.7714285714e+00	 0.0000000000e+00	 3.2869804034e+00
 1.7710640485e+00	 3.5934937907e-02	 3.2692300335e+00
 1.7699586078e+00	 7.2150608952e-02	 3.2445444489e+00
 1.7680948197e+00	 1.0862730832e-01	 3.2097827190e+00
 1.7654558101e+00	 1.4534430234e-01	 3.1619008503e+00
 1.7620253245e+00	 1.8227983853e-01	 3.0984526443e+00
 1.7577877934e+00	 2.1941115983e-01	 3.0181352345e+00
 1.7527283980e+00	 2.5671452341e-01	 2.9213551630e+00
 1.7468331359e+00	 2.9416522407e-01	 2.8107857539e+00
 1.7400888867e+00	 3.3173762232e-01	 2.6918817793e+00
 1.7324834771e+00	 3.6940517738e-01	 2.5733132262e+00
 1.8000000000e+00	 0.0000000000e+00	 3.2370880519e+00
 1.7996295977e+00	 3.6514533680e-02	 3.2178490361e+00
 1.7985063273e+00	 7.3314328452e-02	 3.1915062344e+00
 1.7966124781e+00	 1.1037936168e-01	 3.1551353240e+00
 1.7939309038e+00	 1.4768856528e-01	 3.1057366186e+00
 1.7904450878e+00	 1.8521983593e-01	 3.0408128504e+00
 1.7861392094e+00	 2.2295004951e-01	 2.9590034217e+00
 1.7809982109e+00	 2.6085508024e-01	 2.8607487815e+00
 1.7750078639e+00	 2.9890982445e-01	 2.7489528531e+00
 1.7681548365e+00	 3.3708822913e-01	 2.6296060633e+00
 1.7604267590e+00	 3.7536332541e-01	 2.5122984509e+00
 1.8285714286e+00	 0.0000000000e+00	 3.1854574640e+00
 1.8281951468e+00	 3.7094129452e-02	 3.1657651869e+00
 1.8270540468e+00	 7.4478047951e-02	 3.1389846666e+00
 1.8251301365e+00	 1.1213141504e-01	 3.1023410562e+00
 1.8224059975e+00	 1.5003282823e-01	 3.0527687573e+00
 1.8188648511e+00	 1.8815983332e-01	 2.9875733520e+00
 1.8144906254e+00	 2.2648893918e-01	 2.9051632862e+00
 1.8092680237e+00	 2.6499563707e-01	 2.8058226063e+00
 1.8031825919e+00	 3.0365442484e-01	 2.6924896445e+00
 1.7962207863e+00	 3.4243883594e-01	 2.5715005034e+00
 1.7883700409e+00	 3.8132147343e-01	 2.4531954297e+00
 1.8571428571e+00	 0.0000000000e+00	 3.1352942397e+00
 1.8567606960e+00	 3.7673725225e-02	 3.1156954255e+00
 1.8556017662e+00	 7.5641767450e-02	 3.0886937714e+00
 1.8536477949e+00	 1.1388346840e-01	 3.0523031384e+00
 1.8508810912e+00	 1.5237709117e-01	 3.0040439584e+00
 1.8472846144e+00	 1.9109983072e-01	 2.9402378872e+00
 1.8428420415e+00	 2.3002782885e-01	 2.8585098239e+00
 1.8375378366e+00	 2.6913619390e-01	 2.7587406641e+00
 1.8313573199e+00	 3.0839902523e-01	 2.6436497151e+00
 1.8242867361e+00	 3.4778944275e-01	 2.5196718611e+00
 1.8163133228e+00	 3.8727962145e-01	 2.3978109593e+00
 1.5368805039e+00	 3.2769814123e-01	 2.8752265697e+00
 1.5293599352e+00	 3.6117301090e-01	 2.7161591273e+00
 1.5210565827e+00	 3.9468294540e-01	 2.5550776349e+00
 1.5119625039e+00	 4.2820222067e-01	 2.3854523119e+00
 1.5020708153e+00	 4.6170447355e-01	 2.2079916801e+00
 1.4913757419e+00	 4.9516275254e-01	 2.0241642091e+00
 1.4798726648e+00	 5.2854957287e-01	 1.8355515278e+00
 1.4675581652e+00	 5.6183697547e-01	 1.6383113945e+00
 1.4544300648e+00	 5.9499658978e-01	 1.4305948935e+00
 1.4404874632e+00	 6.2799970022e-01	 1.2146029974e+00
 1.4257307705e+00	 6.6081731592e-01	 9.9341554718e-01
 1.5648237858e+00	 3.3365628925e-01	 2.8635597507e+00
 1.5571664794e+00	 3.6773979292e-01	 2.7066118289e+00
 1.5487121569e+00	 4.0185899895e-01	 2.5424404309e+00
 1.5394527313e+00	 4.3598771559e-01	 2.3661831358e+00
 1.5293811938e+00	 4.7009910034e-01	 2.1796221595e+00
 1.5184916645e+00	 5.0416571168e-01	 1.9848188682e+00
 1.5067794406e+00	 5.3815956510e-01	 1.7840386265e+00
 1.4942410409e+00	 5.7205219320e-01	 1.5797330895e+00
 1.4808742477e+00	 6.0581470959e-01	 1.3745292844e+00
 1.4666781443e+00	 6.3941787658e-01	 1.1652731471e+00
 1.4516531482e+00	 6.7283217621e-01	 9.5013510102e-01
 1.5927670677e+00	 3.3961443727e-01	 2.8364371289e+00
 1.5849730237e+00	 3.7430657494e-01	 2.6838775699e+00
 1.5763677311e+00	 4.0903505250e-01	 2.5189741421e+00
 1.5669429586e+00	 4.4377321051e-01	 2.3393959306e+00
 1.5566915722e+00	 4.7849372713e-01	 2.1474244724e+00
 1.5456075871e+00	 5.1316867081e-01	 1.9455978737e+00
 1.5336862163e+00	 5.4776955734e-01	 1.7366621369e+00
 1.5209239166e+00	 5.8226741094e-01	 1.5235378381e+00
 1.5073184307e+00	 6.1663282941e-01	 1.3093075514e+00
 1.4928688255e+00	 6.5083605295e-01	 1.0972286359e+00
 1.4775755258e+00	 6.8484703650e-01	 8.9038601334e-01
 1.6207103496e+00	 3.4557258529e-01	 2.7971336232e+00
 1.6127795680e+00	 3.8087335695e-01	 2.6500467129e+00
 1.6040233054e+00	 4.1621110605e-01	 2.4864614077e+00
 1.5944331860e+00	 4.5155870544e-01	 2.3061305474e+00
 1.5840019507e+00	 4.8688835392e-01	 2.1116989810e+00
 1.5727235097e+00	 5.2217162995e-01	 1.9060849498e+00
 1.5605929920e+00	 5.5737954957e-01	 1.6924122605e+00
 1.5476067923e+00	 5.9248262867e-01	 1.4739606725e+00
 1.5337626137e+00	 6.2745094922e-01	 1.2541407709e+00
 1.5190595066e+00	 6.6225422932e-01	 1.0364987026e+00
 1.5034979035e+00	 6.9686189679e-01	 8.2475493985e-01
 1.6486536315e+00	 3.5153073332e-01	 2.7486125813e+00
 1.6405861123e+00	 3.8744013897e-01	 2.6073609093e+00
 1.6316788796e+00	 4.2338715961e-01	 2.4464892013e+00
 1.6219234133e+00	 4.5934420036e-01	 2.2672588732e+00
 1.6113123292e+00	 4.9528298071e-01	 2.0726068973e+00
 1.5998394322e+00	 5.3117458909e-01	 1.8657542381e+00
 1.5874997677e+00	 5.6698954181e-01	 1.6501175098e+00
 1.5742896681e+00	 6.0269784641e-01	 1.4292421689e+00
 1.5602067967e+00	 6.3826906904e-01	 1.2067644661e+00
 1.5452501878e+00	 6.7367240569e-01	 9.8640837184e-01
 1.5294202811e+00	 7.0887675708e-01	 7.7202232125e-01
 1.6765969134e+00	 3.5748888134e-01	 2.6935552507e+00
 1.6683926565e+00	 3.9400692099e-01	 2.5579010301e+00
 1.6593344538e+00	 4.3056321316e-01	 2.4004641174e+00
 1.6494136407e+00	 4.6712969528e-01	 2.2234990808e+00
 1.6386227076e+00	 5.0367760751e-01	 2.0301839188e+00
 1.6269553548e+00	 5.4017754822e-01	 1.8239838002e+00
 1.6144065435e+00	 5.7659953404e-01	 1.6085405734e+00
 1.6009725438e+00	 6.1291306414e-01	 1.3875876186e+00
 1.5866509797e+00	 6.4908718885e-01	 1.1648983157e+00
 1.5714408689e+00	 6.8509058205e-01	 9.4427525693e-01
 1.5553426588e+00	 7.2089161737e-01	 7.2958578888e-01
 1.7045401953e+00	 3.6344702936e-01	 2.6343888248e+00
 1.6961992008e+00	 4.0057370300e-01	 2.5035581655e+00
 1.6869900281e+00	 4.3773926671e-01	 2.3496268002e+00
 1.6769038680e+00	 4.7491519020e-01	 2.1754292904e+00
 1.6659330861e+00	 5.1207223430e-01	 1.9843535247e+00
 1.6540712774e+00	 5.4918050736e-01	 1.7800690093e+00
 1.6413133192e+00	 5.8620952627e-01	 1.5663923124e+00
 1.6276554195e+00	 6.2312828188e-01	 1.3471821878e+00
 1.6130951627e+00	 6.5990530866e-01	 1.1262737963e+00
 1.5976315501e+00	 6.9650875842e-01	 9.0746015774e-01
 1.5812650364e+00	 7.3290647765e-01	 6.9452722077e-01
 1.7324834771e+00	 3.6940517738e-01	 2.5733132262e+00
 1.7240057451e+00	 4.0714048502e-01	 2.4460481550e+00
 1.7146456023e+00	 4.4491532026e-01	 2.2950656127e+00
 1.7043940953e+00	 4.8270068512e-01	 2.1235007097e+00
 1.6932434645e+00	 5.2046686109e-01	 1.9349399738e+00
 1.6811872000e+00	 5.5818346650e-01	 1.7332358426e+00
 1.6682200949e+00	 5.9581951851e-01	 1.5223458331e+00
 1.6543382953e+00	 6.3334349962e-01	 1.3062062971e+00
 1.6395393457e+00	 6.7072342848e-01	 1.0886514330e+00
 1.6238222312e+00	 7.0792693479e-01	 8.7338678026e-01
 1.6071874141e+00	 7.4492133794e-01	 6.6386146349e-01
 1.7604267590e+00	 3.7536332541e-01	 2.5122984509e+00
 1.7518122894e+00	 4.1370726704e-01	 2.3869252215e+00
 1.7423011765e+00	 4.5209137382e-01	 2.2377296297e+00
 1.7318843227e+00	 4.9048618004e-01	 2.0680503090e+00
 1.7205538430e+00	 5.2886148788e-01	 1.8816810352e+00
 1.7083031226e+00	 5.6718642564e-01	 1.6826540861e+00
 1.6951268706e+00	 6.0542951074e-01	 1.4750506265e+00
 1.6810211710e+00	 6.4355871735e-01	 1.2628511958e+00
 1.6659835287e+00	 6.8154154829e-01	 1.0498383393e+00
 1.6500129124e+00	 7.1934511116e-01	 8.3956180342e-01
 1.6331097917e+00	 7.5693619823e-01	 6.3303643059e-01
 1.7883700409e+00	 3.8132147343e-01	 2.4531954297e+00
 1.7796188336e+00	 4.2027404905e-01	 2.3275948060e+00
 1.7699567508e+00	 4.5926742737e-01	 2.1784410286e+00
 1.7593745500e+00	 4.9827167496e-01	 2.0093130831e+00
 1.7478642215e+00	 5.3725611467e-01	 1.8242404809e+00
 1.7354190451e+00	 5.7618938477e-01	 1.6274504613e+00
 1.7220336464e+00	 6.1503950298e-01	 1.4231467691e+00
 1.7077040467e+00	 6.5377393509e-01	 1.2153347096e+00
 1.6924277117e+00	 6.9235966811e-01	 1.0077060165e+00
 1.6762035935e+00	 7.3076328752e-01	 8.0359525546e-01
 1.6590321694e+00	 7.6895105852e-01	 5.9927879156e-01
 1.8163133228e+00	 3.8727962145e-01	 2.3978109593e+00
 1.8074253779e+00	 4.2684083107e-01	 2.2693256895e+00
 1.7976123250e+00	 4.6644348092e-01	 2.1179069442e+00
 1.7868647774e+00	 5.0605716989e-01	 1.9474339449e+00
 1.7751745999e+00	 5.4565074146e-01	 1.7622203675e+00
 1.7625349677e+00	 5.8519234391e-01	 1.5667216817e+00
 1.7489404221e+00	 6.2464949521e-01	 1.3652791766e+00
 1.7343869225e+00	 6.6398915282e-01	 1.1619171433e+00
 1.7188718947e+00	 7.0317778792e-01	 9.6020838152e-01
 1.7023942747e+00	 7.4218146389e-01	 7.6320487233e-01
 1.6849545470e+00	 7.8096591881e-01	 5.6061505422e-01
 1.4257307705e+00	 6.6081731592e-01	 9.9341554718e-01
 1.4101617357e+00	 6.9342024361e-01	 7.7174596153e-01
 1.3937834700e+00	 7.2577916320e-01	 5.5373675206e-01
 1.3766004660e+00	 7.5786470573e-01	 3.3965027432e-01
 1.3586186102e+00	 7.8964753342e-01	 1.1731982383e-01
 1.3398451917e+00	 8.2109842120e-01	-1.1131153495e-01
 1.3202889037e+00	 8.5218833949e-01	-3.4161541354e-01
 1.2999598399e+00	 8.8288853761e-01	-5.6864785002e-01
 1.2788694852e+00	 9.1317062747e-01	-7.8722038855e-01
 1.2570307001e+00	 9.4300666699e-01	-9.9198315841e-01
 1.2344576991e+00	 9.7236924279e-01	-1.1775196497e+00
 1.4516531482e+00	 6.7283217621e-01	 9.5013510102e-01
 1.4358010400e+00	 7.0602788440e-01	 7.3451106642e-01
 1.4191249877e+00	 7.3897514798e-01	 5.2319804863e-01
 1.4016295654e+00	 7.7164406401e-01	 3.0954919895e-01
 1.3833207668e+00	 8.0400476130e-01	 8.5068351128e-02
 1.3642060134e+00	 8.3602748341e-01	-1.4588960415e-01
 1.3442941565e+00	 8.6768267293e-01	-3.7853956577e-01
 1.3235954733e+00	 8.9894105647e-01	-6.0775870698e-01
 1.3021216577e+00	 9.2977372978e-01	-8.2815928701e-01
 1.2798858038e+00	 9.6015224276e-01	-1.0341747778e+00
 1.2569023845e+00	 9.9004868356e-01	-1.2201591199e+00
 1.4775755258e+00	 6.8484703650e-01	 8.9038601334e-01
 1.4614403443e+00	 7.1863552520e-01	 6.8618087471e-01
 1.4444665053e+00	 7.5217113277e-01	 4.8522575097e-01
 1.4266586647e+00	 7.8542342230e-01	 2.7392755830e-01
 1.4080229233e+00	 8.1836198918e-01	 5.1190584882e-02
 1.3885668351e+00	 8.5095654561e-01	-1.7849426398e-01
 1.3682994093e+00	 8.8317700638e-01	-4.1021292477e-01
 1.3472311068e+00	 9.1499357534e-01	-6.3868764555e-01
 1.3253738301e+00	 9.4637683210e-01	-8.5835079788e-01
 1.3027409074e+00	 9.7729781852e-01	-1.0634334572e+00
 1.2793470699e+00	 1.0077281243e+00	-1.2480687088e+00
 1.5034979035e+00	 6.9686189679e-01	 8.2475493985e-01
 1.4870796486e+00	 7.3124316599e-01	 6.2563133910e-01
 1.4698080230e+00	 7.6536711755e-01	 4.3542125784e-01
 1.4516877641e+00	 7.9920278059e-01	 2.3054100347e-01
 1.4327250799e+00	 8.3271921706e-01	 1.3381668118e-02
 1.4129276567e+00	 8.6588560781e-01	-2.1149410934e-01
 1.3923046620e+00	 8.9867133983e-01	-4.3907154836e-01
 1.3708667402e+00	 9.3104609420e-01	-6.6394200646e-01
 1.3486260026e+00	 9.6297993442e-01	-8.8037698361e-01
 1.3255960111e+00	 9.9444339429e-01	-1.0824184970e+00
 1.3017917554e+00	 1.0254075651e+00	-1.2639859562e+00
 1.5294202811e+00	 7.0887675708e-01	 7.7202232125e-01
 1.5127189528e+00	 7.4385080678e-01	 5.7108989229e-01
 1.4951495406e+00	 7.7856310234e-01	 3.7558219268e-01
 1.4767168635e+00	 8.1298213887e-01	 1.7717084363e-01
 1.4574272364e+00	 8.4707644494e-01	-3.0625778996e-02
 1.4372884784e+00	 8.8081467002e-01	-2.4720974889e-01
 1.4163099148e+00	 9.1416567327e-01	-4.6749473878e-01
 1.3945023737e+00	 9.4709861307e-01	-6.8596574870e-01
 1.3718781751e+00	 9.7958303674e-01	-8.9675241182e-01
 1.3484511147e+00	 1.0115889700e+00	-1.0937204332e+00
 1.3242364408e+00	 1.0430870059e+00	-1.2705814961e+00
 1.5553426588e+00	 7.2089161737e-01	 7.2958578888e-01
 1.5383582571e+00	 7.5645844758e-01	 5.2664646455e-01
 1.5204910582e+00	 7.9175908712e-01	 3.2381336328e-01
 1.5017459629e+00	 8.2676149716e-01	 1.1968244184e-01
 1.4821293930e+00	 8.6143367282e-01	-8.3034557770e-02
 1.4616493001e+00	 8.9574373222e-01	-2.8789297116e-01
 1.4403151676e+00	 9.2966000672e-01	-4.9778297958e-01
 1.4181380071e+00	 9.6315113193e-01	-7.0711623176e-01
 1.3951303475e+00	 9.9618613905e-01	-9.0989986036e-01
 1.3713062183e+00	 1.0287345458e+00	-1.0998357438e+00
 1.3466811263e+00	 1.0607664467e+00	-1.2704328429e+00
 1.5812650364e+00	 7.3290647765e-01	 6.9452722077e-01
 1.5639975614e+00	 7.6906608837e-01	 4.8847583148e-01
 1.5458325759e+00	 8.0495507191e-01	 2.8018739914e-01
 1.5267750623e+00	 8.4054085544e-01	 7.1622831538e-02
 1.5068315495e+00	 8.7579090070e-01	-1.3452760171e-01
 1.4860101217e+00	 9.1067279443e-01	-3.3536925810e-01
 1.4643204204e+00	 9.4515434016e-01	-5.3213544434e-01
 1.4417736406e+00	 9.7920365080e-01	-7.2964058071e-01
 1.4183825200e+00	 1.0127892414e+00	-9.2212561986e-01
 1.3941613220e+00	 1.0458801216e+00	-1.1031411726e+00
 1.3691258117e+00	 1.0784458875e+00	-1.2659978216e+00
 1.6071874141e+00	 7.4492133794e-01	 6.6386146349e-01
 1.5896368657e+00	 7.8167372916e-01	 4.5394610265e-01
 1.5711740935e+00	 8.1815105669e-01	 2.4207150943e-01
 1.5518041616e+00	 8.5432021373e-01	 3.0805540930e-02
 1.5315337061e+00	 8.9014812858e-01	-1.7720013739e-01
 1.5103709434e+00	 9.2560185663e-01	-3.7913511719e-01
 1.4883256732e+00	 9.6064867361e-01	-5.7192955501e-01
 1.4654092740e+00	 9.9525616966e-01	-7.5565168098e-01
 1.4416346924e+00	 1.0293923437e+00	-9.3559443924e-01
 1.4170164256e+00	 1.0630256973e+00	-1.1058677130e+00
 1.3915704971e+00	 1.0961253282e+00	-1.2595876794e+00
 1.6331097917e+00	 7.5693619823e-01	 6.3303643059e-01
 1.6152761700e+00	 7.9428136995e-01	 4.2065988927e-01
 1.5965156111e+00	 8.3134704148e-01	 2.0706617374e-01
 1.5768332610e+00	 8.6809957202e-01	-5.1720808250e-03
 1.5562358626e+00	 9.0450535646e-01	-2.1345652486e-01
 1.5347317651e+00	 9.4053091883e-01	-4.1508293375e-01
 1.5123309260e+00	 9.7614300705e-01	-6.0713170883e-01
 1.4890449075e+00	 1.0113086885e+00	-7.8633026315e-01
 1.4648868649e+00	 1.0459954460e+00	-9.5230415376e-01
 1.4398715293e+00	 1.0801712731e+00	-1.1100742905e+00
 1.4140151826e+00	 1.1138047690e+00	-1.2533763298e+00
 1.6590321694e+00	 7.6895105852e-01	 5.9927879156e-01
 1.6409154743e+00	 8.0688901075e-01	 3.8643774604e-01
 1.6218571288e+00	 8.4454302626e-01	 1.7298806628e-01
 1.6018623604e+00	 8.8187893030e-01	-3.8497061187e-02
 1.5809380192e+00	 9.1886258434e-01	-2.4548481503e-01
 1.5590925867e+00	 9.5545998104e-01	-4.4539732886e-01
 1.5363361788e+00	 9.9163734050e-01	-6.3549301755e-01
 1.5126805409e+00	 1.0273612074e+00	-8.1271583376e-01
 1.4881390374e+00	 1.0625985483e+00	-9.7351512186e-01
 1.4627266329e+00	 1.0973168489e+00	-1.1176211758e+00
 1.4364598680e+00	 1.1314842098e+00	-1.2509771558e+00
 1.6849545470e+00	 7.8096591881e-01	 5.6061505422e-01
 1.6665547786e+00	 8.1949665154e-01	 3.4930189833e-01
 1.6471986464e+00	 8.5773901105e-01	 1.3785326243e-01
 1.6268914598e+00	 8.9565828859e-01	-7.1158033959e-02
 1.6056401757e+00	 9.3321981222e-01	-2.7527431906e-01
 1.5834534084e+00	 9.7038904324e-01	-4.7206244074e-01
 1.5603414316e+00	 1.0071316739e+00	-6.5898558218e-01
 1.5363161744e+00	 1.0434137263e+00	-8.3323867016e-01
 1.5113912098e+00	 1.0792016506e+00	-9.9155015384e-01
 1.4855817365e+00	 1.1144624246e+00	-1.1299871225e+00
 1.4589045534e+00	 1.1491636506e+00	-1.2541310502e+00
 1.2344576991e+00	 9.7236924279e-01	-1.1775196497e+00
 1.2111660230e+00	 1.0012315515e+00	-1.3454568601e+00
 1.1871725064e+00	 1.0295674797e+00	-1.4973124366e+00
 1.1624952378e+00	 1.0573516809e+00	-1.6276547105e+00
 1.1371535158e+00	 1.0845596510e+00	-1.7313331578e+00
 1.1111677990e+00	 1.1111677990e+00	-1.8036057511e+00
 1.0845596510e+00	 1.1371535158e+00	-1.8620069598e+00
 1.0573516809e+00	 1.1624952378e+00	-1.9225457621e+00
 1.0295674797e+00	 1.1871725064e+00	-1.9781894360e+00
 1.0012315515e+00	 1.2111660230e+00	-2.0215049936e+00
 9.7236924279e-01	 1.2344576991e+00	-2.0448543704e+00
 1.2569023845e+00	 9.9004868356e-01	-1.2201591199e+00
 1.2331872234e+00	 1.0194357616e+00	-1.3871944448e+00
 1.2087574610e+00	 1.0482868884e+00	-1.5363226991e+00
 1.1836315149e+00	 1.0765762570e+00	-1.6619918257e+00
 1.1578290343e+00	 1.1042789174e+00	-1.7589539521e+00
 1.1313708499e+00	 1.1313708499e+00	-1.8293883226e+00
 1.1042789174e+00	 1.1578290343e+00	-1.8881266021e+00
 1.0765762570e+00	 1.1836315149e+00	-1.9447321691e+00
 1.0482868884e+00	 1.2087574610e+00	-1.9971179842e+00
 1.0194357616e+00	 1.2331872234e+00	-2.0375488860e+00
 9.9004868356e-01	 1.2569023845e+00	-2.0581065881e+00
 1.2793470699e+00	 1.0077281243e+00	-1.2480687088e+00
 1.2552084239e+00	 1.0376399716e+00	-1.4127991386e+00
 1.2303424157e+00	 1.0670062971e+00	-1.5581298148e+00
 1.2047677919e+00	 1.0958008330e+00	-1.6782883300e+00
 1.1785045528e+00	 1.1239981837e+00	-1.7702987310e+00
 1.1515739008e+00	 1.1515739008e+00	-1.8480066334e+00
 1.1239981837e+00	 1.1785045528e+00	-1.9135803522e+00
 1.0958008330e+00	 1.2047677919e+00	-1.9678318034e+00
 1.0670062971e+00	 1.2303424157e+00	-2.0169596043e+00
 1.0376399716e+00	 1.2552084239e+00	-2.0544568497e+00
 1.0077281243e+00	 1.2793470699e+00	-2.0720053742e+00
 1.3017917554e+00	 1.0254075651e+00	-1.2639859562e+00
 1.2772296243e+00	 1.0558441816e+00	-1.4250827767e+00
 1.2519273704e+00	 1.0857257058e+00	-1.5656135074e+00
 1.2259040690e+00	 1.1150254090e+00	-1.6796820063e+00
 1.1991800712e+00	 1.1437174501e+00	-1.7757291175e+00
 1.1717769517e+00	 1.1717769517e+00	-1.8601619297e+00
 1.1437174501e+00	 1.1991800712e+00	-1.9318867711e+00
 1.1150254090e+00	 1.2259040690e+00	-1.9896891887e+00
 1.0857257058e+00	 1.2519273704e+00	-2.0357829885e+00
 1.0558441816e+00	 1.2772296243e+00	-2.0703935660e+00
 1.0254075651e+00	 1.3017917554e+00	-2.0847936848e+00
 1.3242364408e+00	 1.0430870059e+00	-1.2705814961e+00
 1.2992508247e+00	 1.0740483916e+00	-1.4267956994e+00
 1.2735123250e+00	 1.1044451146e+00	-1.5616011263e+00
 1.2470403460e+00	 1.1342499850e+00	-1.6747878008e+00
 1.2198555897e+00	 1.1634367165e+00	-1.7767079107e+00
 1.1919800026e+00	 1.1919800026e+00	-1.8666433920e+00
 1.1634367165e+00	 1.2198555897e+00	-1.9433776734e+00
 1.1342499850e+00	 1.2470403460e+00	-2.0055591907e+00
 1.1044451146e+00	 1.2735123250e+00	-2.0517979327e+00
 1.0740483916e+00	 1.2992508247e+00	-2.0836755293e+00
 1.0430870059e+00	 1.3242364408e+00	-2.0948714081e+00
 1.3466811263e+00	 1.0607664467e+00	-1.2704328429e+00
 1.3212720251e+00	 1.0922526017e+00	-1.4205996800e+00
 1.2950972797e+00	 1.1231645233e+00	-1.5502429810e+00
 1.2681766231e+00	 1.1534745610e+00	-1.6675302610e+00
 1.2405311082e+00	 1.1831559829e+00	-1.7740160743e+00
 1.2121830535e+00	 1.2121830535e+00	-1.8683100340e+00
 1.1831559829e+00	 1.2405311082e+00	-1.9489905688e+00
 1.1534745610e+00	 1.2681766231e+00	-2.0144829472e+00
 1.1231645233e+00	 1.2950972797e+00	-2.0629486054e+00
 1.0922526017e+00	 1.3212720251e+00	-2.0928224016e+00
 1.0607664467e+00	 1.3466811263e+00	-2.1008453219e+00
 1.3691258117e+00	 1.0784458875e+00	-1.2659978216e+00
 1.3432932255e+00	 1.1104568117e+00	-1.4090405310e+00
 1.3166822343e+00	 1.1418839320e+00	-1.5382458858e+00
 1.2893129001e+00	 1.1726991370e+00	-1.6586478779e+00
 1.2612066267e+00	 1.2028752493e+00	-1.7684789155e+00
 1.2323861044e+00	 1.2323861044e+00	-1.8660724822e+00
 1.2028752493e+00	 1.2612066267e+00	-1.9497235306e+00
 1.1726991370e+00	 1.2893129001e+00	-2.0175512579e+00
 1.1418839320e+00	 1.3166822343e+00	-2.0673747568e+00
 1.1104568117e+00	 1.3432932255e+00	-2.0966084791e+00
 1.0784458875e+00	 1.3691258117e+00	-2.1015792109e+00
 1.3915704971e+00	 1.0961253282e+00	-1.2595876794e+00
 1.3653144260e+00	 1.1286610217e+00	-1.3966119224e+00
 1.3382671890e+00	 1.1606033407e+00	-1.5267484177e+00
 1.3104491772e+00	 1.1919237131e+00	-1.6489025659e+00
 1.2818821451e+00	 1.2225945156e+00	-1.7609492801e+00
 1.2525891552e+00	 1.2525891552e+00	-1.8608746500e+00
 1.2225945156e+00	 1.2818821451e+00	-1.9466154317e+00
 1.1919237131e+00	 1.3104491772e+00	-2.0159050970e+00
 1.1606033407e+00	 1.3382671890e+00	-2.0661345154e+00
 1.1286610217e+00	 1.3653144260e+00	-2.0942347137e+00
 1.0961253282e+00	 1.3915704971e+00	-2.0962441253e+00
 1.4140151826e+00	 1.1138047690e+00	-1.2533763298e+00
 1.3873356264e+00	 1.1468652318e+00	-1.3869157484e+00
 1.3598521437e+00	 1.1793227495e+00	-1.5164245359e+00
 1.3315854542e+00	 1.2111482891e+00	-1.6390642498e+00
 1.3025576636e+00	 1.2423137820e+00	-1.7522906089e+00
 1.2727922061e+00	 1.2727922061e+00	-1.8536753179e+00
 1.2423137820e+00	 1.3025576636e+00	-1.9407261348e+00
 1.2111482891e+00	 1.3315854542e+00	-2.0107145249e+00
 1.1793227495e+00	 1.3598521437e+00	-2.0605199094e+00
 1.1468652318e+00	 1.3873356264e+00	-2.0864988116e+00
 1.1138047690e+00	 1.4140151826e+00	-2.0843861472e+00
 1.4364598680e+00	 1.1314842098e+00	-1.2509771558e+00
 1.4093568268e+00	 1.1650694418e+00	-1.3805210037e+00
 1.3814370983e+00	 1.1980421582e+00	-1.5079410757e+00
 1.3527217313e+00	 1.2303728651e+00	-1.6298952904e+00
 1.3232331821e+00	 1.2620330484e+00	-1.7433598680e+00
 1.2929952570e+00	 1.2929952570e+00	-1.8454296296e+00
 1.2620330484e+00	 1.3232331821e+00	-1.9331166402e+00
 1.2303728651e+00	 1.3527217313e+00	-2.0031576004e+00
 1.1980421582e+00	 1.3814370983e+00	-2.0518400148e+00
 1.1650694418e+00	 1.4093568268e+00	-2.0748563755e+00
 1.1314842098e+00	 1.4364598680e+00	-2.0671944259e+00
 1.4589045534e+00	 1.1491636506e+00	-1.2541310502e+00
 1.4313780272e+00	 1.1832736518e+00	-1.3779752917e+00
 1.4030220530e+00	 1.2167615669e+00	-1.5019435212e+00
 1.3738580083e+00	 1.2495974411e+00	-1.6221347640e+00
 1.3439087005e+00	 1.2817523148e+00	-1.7349903697e+00
 1.3131983079e+00	 1.3131983079e+00	-1.8370705143e+00
 1.2817523148e+00	 1.3439087005e+00	-1.9248291968e+00
 1.2495974411e+00	 1.3738580083e+00	-1.9943992930e+00
 1.2167615669e+00	 1.4030220530e+00	-2.0413988050e+00
 1.1832736518e+00	 1.4313780272e+00	-2.0607685649e+00
 1.1491636506e+00	 1.4589045534e+00	-2.0466503480e+00
 9.7236924279e-01	 1.2344576991e+00	-2.0448543704e+00
 9.4300666699e-01	 1.2570307001e+00	-2.0602234111e+00
 9.1317062747e-01	 1.2788694852e+00	-2.0803874223e+00
 8.8288853761e-01	 1.2999598399e+00	-2.0990895065e+00
 8.5218833949e-01	 1.3202889037e+00	-2.1104917502e+00
 8.2109842120e-01	 1.3398451917e+00	-2.1092801180e+00
 7.8964753342e-01	 1.3586186102e+00	-2.0907468564e+00
 7.5786470573e-01	 1.3766004660e+00	-2.0508511165e+00
 7.2577916320e-01	 1.3937834700e+00	-1.9886046959e+00
 6.9342024361e-01	 1.4101617357e+00	-1.9172072961e+00
 6.6081731592e-01	 1.4257307705e+00	-1.8368259439e+00
 9.9004868356e-01	 1.2569023845e+00	-2.0581065881e+00
 9.6015224276e-01	 1.2798858038e+00	-2.0708591699e+00
 9.2977372978e-01	 1.3021216577e+00	-2.0886776509e+00
 8.9894105647e-01	 1.3235954733e+00	-2.1050995043e+00
 8.6768267293e-01	 1.3442941565e+00	-2.1141242557e+00
 8.3602748341e-01	 1.3642060134e+00	-2.1103208267e+00
 8.0400476130e-01	 1.3833207668e+00	-2.0889097663e+00
 7.7164406401e-01	 1.4016295654e+00	-2.0458213916e+00
 7.3897514798e-01	 1.4191249877e+00	-1.9777642334e+00
 7.0602788440e-01	 1.4358010400e+00	-1.8943415078e+00
 6.7283217621e-01	 1.4516531482e+00	-1.8027727797e+00
 1.0077281243e+00	 1.2793470699e+00	-2.0720053742e+00
 9.7729781852e-01	 1.3027409074e+00	-2.0815886690e+00
 9.4637683210e-01	 1.3253738301e+00	-2.0960700556e+00
 9.1499357534e-01	 1.3472311068e+00	-2.1087727232e+00
 8.8317700638e-01	 1.3682994093e+00	-2.1135346963e+00
 8.5095654561e-01	 1.3885668351e+00	-2.1048178521e+00
 8.1836198918e-01	 1.4080229233e+00	-2.0777889143e+00
 7.8542342230e-01	 1.4266586647e+00	-2.0283738052e+00
 7.5217113277e-01	 1.4444665053e+00	-1.9532875172e+00
 7.1863552520e-01	 1.4614403443e+00	-1.8549506449e+00
 6.8484703650e-01	 1.4775755258e+00	-1.7474886612e+00
 1.0254075651e+00	 1.3017917554e+00	-2.0847936848e+00
 9.9444339429e-01	 1.3255960111e+00	-2.0907119744e+00
 9.6297993442e-01	 1.3486260026e+00	-2.1008957508e+00
 9.3104609420e-01	 1.3708667402e+00	-2.1084457710e+00
 8.9867133983e-01	 1.3923046620e+00	-2.1070412510e+00
 8.6588560781e-01	 1.4129276567e+00	-2.0910496649e+00
 8.3271921706e-01	 1.4327250799e+00	-2.0556052960e+00
 7.9920278059e-01	 1.4516877641e+00	-1.9966583346e+00
 7.6536711755e-01	 1.4698080230e+00	-1.9109971786e+00
 7.3124316599e-01	 1.4870796486e+00	-1.7979134929e+00
 6.9686189679e-01	 1.5034979035e+00	-1.6824236130e+00
 1.0430870059e+00	 1.3242364408e+00	-2.0948714081e+00
 1.0115889700e+00	 1.3484511147e+00	-2.0966859299e+00
 9.7958303674e-01	 1.3718781751e+00	-2.1016377964e+00
 9.4709861307e-01	 1.3945023737e+00	-2.1025980867e+00
 9.1416567327e-01	 1.4163099148e+00	-2.0930920079e+00
 8.8081467002e-01	 1.4372884784e+00	-2.0674084586e+00
 8.4707644494e-01	 1.4574272364e+00	-2.0206747791e+00
 8.1298213887e-01	 1.4767168635e+00	-1.9488989579e+00
 7.7856310234e-01	 1.4951495406e+00	-1.8532129941e+00
 7.4385080678e-01	 1.5127189528e+00	-1.7429321740e+00
 7.0887675708e-01	 1.5294202811e+00	-1.6282752843e+00
 1.0607664467e+00	 1.3466811263e+00	-2.1008453219e+00
 1.0287345458e+00	 1.3713062183e+00	-2.0981725134e+00
 9.9618613905e-01	 1.3951303475e+00	-2.0969777330e+00
 9.6315113193e-01	 1.4181380071e+00	-2.0898964465e+00
 9.2966000672e-01	 1.4403151676e+00	-2.0703072473e+00
 8.9574373222e-01	 1.4616493001e+00	-2.0324400302e+00
 8.6143367282e-01	 1.4821293930e+00	-1.9714532111e+00
 8.2676149716e-01	 1.5017459629e+00	-1.8918521556e+00
 7.9175908712e-01	 1.5204910582e+00	-1.7997953276e+00
 7.5645844758e-01	 1.5383582571e+00	-1.6954649604e+00
 7.2089161737e-01	 1.5553426588e+00	-1.5829074155e+00
 1.0784458875e+00	 1.3691258117e+00	-2.1015792109e+00
 1.0458801216e+00	 1.3941613220e+00	-2.0940873965e+00
 1.0127892414e+00	 1.4183825200e+00	-2.0858423623e+00
 9.7920365080e-01	 1.4417736406e+00	-2.0692397555e+00
 9.4515434016e-01	 1.4643204204e+00	-2.0375220491e+00
 9.1067279443e-01	 1.4860101217e+00	-1.9852266399e+00
 8.7579090070e-01	 1.5068315495e+00	-1.9184500192e+00
 8.4054085544e-01	 1.5267750623e+00	-1.8407479627e+00
 8.0495507191e-01	 1.5458325759e+00	-1.7519981723e+00
 7.6906608837e-01	 1.5639975614e+00	-1.6526231951e+00
 7.3290647765e-01	 1.5812650364e+00	-1.5439271350e+00
 1.0961253282e+00	 1.3915704971e+00	-2.0962441253e+00
 1.0630256973e+00	 1.4170164256e+00	-2.0836486834e+00
 1.0293923437e+00	 1.4416346924e+00	-2.0674507441e+00
 9.9525616966e-01	 1.4654092740e+00	-2.0398040927e+00
 9.6064867361e-01	 1.4883256732e+00	-1.9945305839e+00
 9.2560185663e-01	 1.5103709434e+00	-1.9376454865e+00
 8.9014812858e-01	 1.5315337061e+00	-1.8711935317e+00
 8.5432021373e-01	 1.5518041616e+00	-1.7946844316e+00
 8.1815105669e-01	 1.5711740935e+00	-1.7083127628e+00
 7.8167372916e-01	 1.5896368657e+00	-1.6127535496e+00
 7.4492133794e-01	 1.6071874141e+00	-1.5089942804e+00
 1.1138047690e+00	 1.4140151826e+00	-2.0843861472e+00
 1.0801712731e+00	 1.4398715293e+00	-2.0664258106e+00
 1.0459954460e+00	 1.4648868649e+00	-2.0413613872e+00
 1.0113086885e+00	 1.4890449075e+00	-2.0018508465e+00
 9.7614300705e-01	 1.5123309260e+00	-1.9528357695e+00
 9.4053091883e-01	 1.5347317651e+00	-1.8954518217e+00
 9.0450535646e-01	 1.5562358626e+00	-1.8287304720e+00
 8.6809957202e-01	 1.5768332610e+00	-1.7525803215e+00
 8.3134704148e-01	 1.5965156111e+00	-1.6675311645e+00
 7.9428136995e-01	 1.6152761700e+00	-1.5745186048e+00
 7.5693619823e-01	 1.6331097917e+00	-1.4747100464e+00
 1.1314842098e+00	 1.4364598680e+00	-2.0671944259e+00
 1.0973168489e+00	 1.4627266329e+00	-2.0423885886e+00
 1.0625985483e+00	 1.4881390374e+00	-2.0080413897e+00
 1.0273612074e+00	 1.5126805409e+00	-1.9658494612e+00
 9.9163734050e-01	 1.5363361788e+00	-1.9163923787e+00
 9.5545998104e-01	 1.5590925867e+00	-1.8580520630e+00
 9.1886258434e-01	 1.5809380192e+00	-1.7903444524e+00
 8.8187893030e-01	 1.6018623604e+00	-1.7136035635e+00
 8.4454302626e-01	 1.6218571288e+00	-1.6287092767e+00
 8.0688901075e-01	 1.6409154743e+00	-1.5368613762e+00
 7.6895105852e-01	 1.6590321694e+00	-1.4394003545e+00
 1.1491636506e+00	 1.4589045534e+00	-2.0466503480e+00
 1.1144624246e+00	 1.4855817365e+00	-2.0121783804e+00
 1.0792016506e+00	 1.5113912098e+00	-1.9766813618e+00
 1.0434137263e+00	 1.5363161744e+00	-1.9351166844e+00
 1.0071316739e+00	 1.5603414316e+00	-1.8849186079e+00
 9.7038904324e-01	 1.5834534084e+00	-1.8250395242e+00
 9.3321981222e-01	 1.6056401757e+00	-1.7555166000e+00
 8.9565828859e-01	 1.6268914598e+00	-1.6771331515e+00
 8.5773901105e-01	 1.6471986464e+00	-1.5911301423e+00
 8.1949665154e-01	 1.6665547786e+00	-1.4989701729e+00
 7.8096591881e-01	 1.6849545470e+00	-1.4021540990e+00
 6.6081731592e-01	 1.4257307705e+00	-1.8368259439e+00
 6.2799970022e-01	 1.4404874632e+00	-1.7496189701e+00
 5.9499658978e-01	 1.4544300648e+00	-1.6579253077e+00
 5.6183697547e-01	 1.4675581652e+00	-1.5605994208e+00
 5.2854957287e-01	 1.4798726648e+00	-1.4576440824e+00
 4.9516275254e-01	 1.4913757419e+00	-1.3537612121e+00
 4.6170447355e-01	 1.5020708153e+00	-1.2560823165e+00
 4.2820222067e-01	 1.5119625039e+00	-1.1656324044e+00
 3.9468294540e-01	 1.5210565827e+00	-1.0834252076e+00
 3.6117301090e-01	 1.5293599352e+00	-1.0108253734e+00
 3.2769814123e-01	 1.5368805039e+00	-9.5228162821e-01
 6.7283217621e-01	 1.4516531482e+00	-1.8027727797e+00
 6.3941787658e-01	 1.4666781443e+00	-1.7041295239e+00
 6.0581470959e-01	 1.4808742477e+00	-1.5996285232e+00
 5.7205219320e-01	 1.4942410409e+00	-1.4937390544e+00
 5.3815956510e-01	 1.5067794406e+00	-1.3928164023e+00
 5.0416571168e-01	 1.5184916645e+00	-1.2969439678e+00
 4.7009910034e-01	 1.5293811938e+00	-1.2063548117e+00
 4.3598771559e-01	 1.5394527313e+00	-1.1213889032e+00
 4.0185899895e-01	 1.5487121569e+00	-1.0424628268e+00
 3.6773979292e-01	 1.5571664794e+00	-9.7008418715e-01
 3.3365628925e-01	 1.5648237858e+00	-9.0776462366e-01
 6.8484703650e-01	 1.4775755258e+00	-1.7474886612e+00
 6.5083605295e-01	 1.4928688255e+00	-1.6360254126e+00
 6.1663282941e-01	 1.5073184307e+00	-1.5304126634e+00
 5.8226741094e-01	 1.5209239166e+00	-1.4301981124e+00
 5.4776955734e-01	 1.5336862163e+00	-1.3348297930e+00
 5.1316867081e-01	 1.5456075871e+00	-1.2439622366e+00
 4.7849372713e-01	 1.5566915722e+00	-1.1573791523e+00
 4.4377321051e-01	 1.5669429586e+00	-1.0749486528e+00
 4.0903505250e-01	 1.5763677311e+00	-9.9660669128e-01
 3.7430657494e-01	 1.5849730237e+00	-9.2236337080e-01
 3.3961443727e-01	 1.5927670677e+00	-8.5431049270e-01
 6.9686189679e-01	 1.5034979035e+00	-1.6824236130e+00
 6.6225422932e-01	 1.5190595066e+00	-1.5738143127e+00
 6.2745094922e-01	 1.5337626137e+00	-1.4716476467e+00
 5.9248262867e-01	 1.5476067923e+00	-1.3748395133e+00
 5.5737954957e-01	 1.5605929920e+00	-1.2825824818e+00
 5.2217162995e-01	 1.5727235097e+00	-1.1942316088e+00
 4.8688835392e-01	 1.5840019507e+00	-1.1092317441e+00
 4.5155870544e-01	 1.5944331860e+00	-1.0270826730e+00
 4.1621110605e-01	 1.6040233054e+00	-9.4733696136e-01
 3.8087335695e-01	 1.6127795680e+00	-8.6962423733e-01
 3.4557258529e-01	 1.6207103496e+00	-7.9484870933e-01
 7.0887675708e-01	 1.5294202811e+00	-1.6282752843e+00
 6.7367240569e-01	 1.5452501878e+00	-1.5215981913e+00
 6.3826906904e-01	 1.5602067967e+00	-1.4212217574e+00
 6.0269784641e-01	 1.5742896681e+00	-1.3259694757e+00
 5.6698954181e-01	 1.5874997677e+00	-1.2348911312e+00
 5.3117458909e-01	 1.5998394322e+00	-1.1471462421e+00
 4.9528298071e-01	 1.6113123292e+00	-1.0619356510e+00
 4.5934420036e-01	 1.6219234133e+00	-9.7847691567e-01
 4.2338715961e-01	 1.6316788796e+00	-8.9601748637e-01
 3.8744013897e-01	 1.6405861123e+00	-8.1387838436e-01
 3.5153073332e-01	 1.6486536315e+00	-7.3208701895e-01
 7.2089161737e-01	 1.5553426588e+00	-1.5829074155e+00
 6.8509058205e-01	 1.5714408689e+00	-1.4770302825e+00
 6.4908718885e-01	 1.5866509797e+00	-1.3770958630e+00
 6.1291306414e-01	 1.6009725438e+00	-1.2819472165e+00
 5.7659953404e-01	 1.6144065435e+00	-1.1905932784e+00
 5.4017754822e-01	 1.6269553548e+00	-1.1020889415e+00
 5.0367760751e-01	 1.6386227076e+00	-1.0154707426e+00
 4.6712969528e-01	 1.6494136407e+00	-9.2974304151e-01
 4.3056321316e-01	 1.6593344538e+00	-8.4390770796e-01
 3.9400692099e-01	 1.6683926565e+00	-7.5702891837e-01
 3.5748888134e-01	 1.6765969134e+00	-6.6853444478e-01
 7.3290647765e-01	 1.5812650364e+00	-1.5439271350e+00
 6.9650875842e-01	 1.5976315501e+00	-1.4378952349e+00
 6.5990530866e-01	 1.6130951627e+00	-1.3373295841e+00
 6.2312828188e-01	 1.6276554195e+00	-1.2411972681e+00
 5.8620952627e-01	 1.6413133192e+00	-1.1485582861e+00
 5.4918050736e-01	 1.6540712774e+00	-1.0584413756e+00
 5.1207223430e-01	 1.6659330861e+00	-9.6978376074e-01
 4.7491519020e-01	 1.6769038680e+00	-8.8142886715e-01
 4.3773926671e-01	 1.6869900281e+00	-7.9217396326e-01
 4.0057370300e-01	 1.6961992008e+00	-7.0085809848e-01
 3.6344702936e-01	 1.7045401953e+00	-6.0652310141e-01
 7.4492133794e-01	 1.6071874141e+00	-1.5089942804e+00
 7.0792693479e-01	 1.6238222312e+00	-1.4021267494e+00
 6.7072342848e-01	 1.6395393457e+00	-1.3000961435e+00
 6.3334349962e-01	 1.6543382953e+00	-1.2022222038e+00
 5.9581951851e-01	 1.6682200949e+00	-1.1076985758e+00
 5.5818346650e-01	 1.6811872000e+00	-1.0155944148e+00
 5.2046686109e-01	 1.6932434645e+00	-9.2479831338e-01
 4.8270068512e-01	 1.7043940953e+00	-8.3402852170e-01
 4.4491532026e-01	 1.7146456023e+00	-7.4190025595e-01
 4.0714048502e-01	 1.7240057451e+00	-6.4703911887e-01
 3.6940517738e-01	 1.7324834771e+00	-5.4822895012e-01
 7.5693619823e-01	 1.6331097917e+00	-1.4747100464e+00
 7.1934511116e-01	 1.6500129124e+00	-1.3678256854e+00
 6.8154154829e-01	 1.6659835287e+00	-1.2636976509e+00
 6.4355871735e-01	 1.6810211710e+00	-1.1636157234e+00
 6.0542951074e-01	 1.6951268706e+00	-1.0669811127e+00
 5.6718642564e-01	 1.7083031226e+00	-9.7295857619e-01
 5.2886148788e-01	 1.7205538430e+00	-8.8042480581e-01
 4.9048618004e-01	 1.7318843227e+00	-7.8799234424e-01
 4.5209137382e-01	 1.7423011765e+00	-6.9409855419e-01
 4.1370726704e-01	 1.7518122894e+00	-5.9714718934e-01
 3.7536332541e-01	 1.7604267590e+00	-4.9568879286e-01
 7.6895105852e-01	 1.6590321694e+00	-1.4394003545e+00
 7.3076328752e-01	 1.6762035935e+00	-1.3332785843e+00
 6.9235966811e-01	 1.6924277117e+00	-1.2265807745e+00
 6.5377393509e-01	 1.7077040467e+00	-1.1240760621e+00
 6.1503950298e-01	 1.7220336464e+00	-1.0254391128e+00
 5.7618938477e-01	 1.7354190451e+00	-9.2997456460e-01
 5.3725611467e-01	 1.7478642215e+00	-8.3657031428e-01
 4.9827167496e-01	 1.7593745500e+00	-7.4373655068e-01
 4.5926742737e-01	 1.7699567508e+00	-6.4971866729e-01
 4.2027404905e-01	 1.7796188336e+00	-5.5266999083e-01
 3.8132147343e-01	 1.7883700409e+00	-4.5086879046e-01
 7.8096591881e-01	 1.6849545470e+00	-1.4021540990e+00
 7.4218146389e-01	 1.7023942747e+00	-1.2969658579e+00
 7.0317778792e-01	 1.7188718947e+00	-1.1873527600e+00
 6.6398915282e-01	 1.7343869225e+00	-1.0824196865e+00
 6.2464949521e-01	 1.7489404221e+00	-9.8218395055e-01
 5.8519234391e-01	 1.7625349677e+00	-8.8612389918e-01
 5.4565074146e-01	 1.7751745999e+00	-7.9314840913e-01
 5.0605716989e-01	 1.7868647774e+00	-7.0165269492e-01
 4.6644348092e-01	 1.7976123250e+00	-6.0965774644e-01
 4.2684083107e-01	 1.8074253779e+00	-5.1501757322e-01
 3.8727962145e-01	 1.8163133228e+00	-4.1567679783e-01
 3.2769814123e-01	 1.5368805039e+00	-9.5228162821e-01
 2.9428337463e-01	 1.5436272382e+00	-9.0088351460e-01
 2.6095302135e-01	 1.5496100399e+00	-8.5174231152e-01
 2.2773062561e-01	 1.5548397079e+00	-8.0506722605e-01
 1.9463893211e-01	 1.5593278812e+00	-7.6133661343e-01
 1.6169985676e-01	 1.5630869814e+00	-7.2144663933e-01
 1.2893446176e-01	 1.5661301541e+00	-6.8679061759e-01
 9.6362934797e-02	 1.5684712111e+00	-6.5928627819e-01
 6.4004572458e-02	 1.5701245714e+00	-6.4136687336e-01
 3.1877767498e-02	 1.5711052043e+00	-6.3595030534e-01
 0.0000000000e+00	 1.5714285714e+00	-6.4639847575e-01
 3.3365628925e-01	 1.5648237858e+00	-9.0776462366e-01
 2.9963398145e-01	 1.5716931880e+00	-8.5125123597e-01
 2.6569762174e-01	 1.5777847679e+00	-7.9693916056e-01
 2.3187118244e-01	 1.5831095208e+00	-7.4454021183e-01
 1.9817782178e-01	 1.5876792973e+00	-6.9431542334e-01
 1.6463985416e-01	 1.5915067447e+00	-6.4717582138e-01
 1.3127872470e-01	 1.5946052478e+00	-6.0471069708e-01
 9.8114988156e-02	 1.5969888694e+00	-5.6916307889e-01
 6.5168291957e-02	 1.5986722909e+00	-5.4337046964e-01
 3.2457363271e-02	 1.5996707535e+00	-5.3068686408e-01
 0.0000000000e+00	 1.6000000000e+00	-5.3489973554e-01
 3.3961443727e-01	 1.5927670677e+00	-8.5431049270e-01
 3.0498458826e-01	 1.5997591378e+00	-7.9171021079e-01
 2.7044222212e-01	 1.6059594959e+00	-7.3247911015e-01
 2.3601173927e-01	 1.6113793336e+00	-6.7560947009e-01
 2.0171671146e-01	 1.6160307133e+00	-6.2093608078e-01
 1.6757985155e-01	 1.6199265080e+00	-5.6918335462e-01
 1.3362298764e-01	 1.6230803416e+00	-5.2193683685e-01
 9.9867041516e-02	 1.6255065278e+00	-4.8156148402e-01
 6.6332011456e-02	 1.6272200104e+00	-4.5108711751e-01
 3.3036959044e-02	 1.6282363027e+00	-4.3407905176e-01
 0.0000000000e+00	 1.6285714286e+00	-4.3450919049e-01
 3.4557258529e-01	 1.6207103496e+00	-7.9484870933e-01
 3.1033519507e-01	 1.6278250876e+00	-7.2571000778e-01
 2.7518682251e-01	 1.6341342239e+00	-6.6200365493e-01
 2.4015229610e-01	 1.6396491465e+00	-6.0182811859e-01
 2.0525560113e-01	 1.6443821293e+00	-5.4443280966e-01
 1.7051984895e-01	 1.6483462713e+00	-4.9020478013e-01
 1.3596725058e-01	 1.6515554353e+00	-4.4057684304e-01
 1.0161909488e-01	 1.6540241862e+00	-3.9788238630e-01
 6.7495730955e-02	 1.6557677299e+00	-3.6517983169e-01
 3.3616554816e-02	 1.6568018518e+00	-3.4606688472e-01
 0.0000000000e+00	 1.6571428571e+00	-3.4450159769e-01
 3.5153073332e-01	 1.6486536315e+00	-7.3208701895e-01
 3.1568580188e-01	 1.6558910373e+00	-6.5645721899e-01
 2.7993142290e-01	 1.6623089519e+00	-5.8889984813e-01
 2.4429285292e-01	 1.6679189594e+00	-5.2649426191e-01
 2.0879449081e-01	 1.6727335453e+00	-4.6779626915e-01
 1.7345984634e-01	 1.6767660346e+00	-4.1275664526e-01
 1.3831151352e-01	 1.6800305290e+00	-3.6255825915e-01
 1.0337114824e-01	 1.6825418446e+00	-3.1940024354e-01
 6.8659450455e-02	 1.6843154494e+00	-2.8625491935e-01
 3.4196150589e-02	 1.6853674010e+00	-2.6661994060e-01
 0.0000000000e+00	 1.6857142857e+00	-2.6428454314e-01
 3.5748888134e-01	 1.6765969134e+00	-6.6853444478e-01
 3.2103640869e-01	 1.6839569871e+00	-5.8693975229e-01
 2.8467602329e-01	 1.6904836799e+00	-5.1632435066e-01
 2.4843340975e-01	 1.6961887723e+00	-4.5267344996e-01
 2.1233338048e-01	 1.7010849614e+00	-3.9379325875e-01
 1.7639984374e-01	 1.7051857979e+00	-3.3915247689e-01
 1.4065577646e-01	 1.7085056227e+00	-2.8963981258e-01
 1.0512320160e-01	 1.7110595030e+00	-2.4726938395e-01
 6.9823169954e-02	 1.7128631688e+00	-2.1486270625e-01
 3.4775746362e-02	 1.7139329502e+00	-1.9573223818e-01
 0.0000000000e+00	 1.7142857143e+00	-1.9338737270e-01
 3.6344702936e-01	 1.7045401953e+00	-6.0652310141e-01
 3.2638701550e-01	 1.7120229369e+00	-5.1994969286e-01
 2.8942062368e-01	 1.7186584079e+00	-4.4722594316e-01
 2.5257396658e-01	 1.7244585851e+00	-3.8321961493e-01
 2.1587227016e-01	 1.7294363774e+00	-3.2498502804e-01
 1.7933984114e-01	 1.7336055612e+00	-2.7151758599e-01
 1.4300003940e-01	 1.7369807164e+00	-2.2342200836e-01
 1.0687525496e-01	 1.7395771613e+00	-1.8252985319e-01
 7.0986889453e-02	 1.7414108883e+00	-1.5149826678e-01
 3.5355342134e-02	 1.7424984993e+00	-1.3341764040e-01
 0.0000000000e+00	 1.7428571429e+00	-1.3145121177e-01
 3.6940517738e-01	 1.7324834771e+00	-5.4822895012e-01
 3.3173762232e-01	 1.7400888867e+00	-4.5810489533e-01
 2.9416522407e-01	 1.7468331359e+00	-3.8436667447e-01
 2.5671452341e-01	 1.7527283980e+00	-3.2079465814e-01
 2.1941115983e-01	 1.7577877934e+00	-2.6374434856e-01
 1.8227983853e-01	 1.7620253245e+00	-2.1180283516e-01
 1.4534430234e-01	 1.7654558101e+00	-1.6535696623e-01
 1.0862730832e-01	 1.7680948197e+00	-1.2611285500e-01
 7.2150608952e-02	 1.7699586078e+00	-9.6602157825e-02
 3.5934937907e-02	 1.7710640485e+00	-7.9705721724e-02
 0.0000000000e+00	 1.7714285714e+00	-7.8219950782e-02
 3.7536332541e-01	 1.7604267590e+00	-4.9568879286e-01
 3.3708822913e-01	 1.7681548365e+00	-4.0386944753e-01
 2.9890982445e-01	 1.7750078639e+00	-3.3034179799e-01
 2.6085508024e-01	 1.7809982109e+00	-2.6788683713e-01
 2.2295004951e-01	 1.7861392094e+00	-2.1227148528e-01
 1.8521983593e-01	 1.7904450878e+00	-1.6179748463e-01
 1.4768856528e-01	 1.7939309038e+00	-1.1675758541e-01
 1.1037936168e-01	 1.7966124781e+00	-7.8845830366e-02
 7.3314328452e-02	 1.7985063273e+00	-5.0561155707e-02
 3.6514533680e-02	 1.7996295977e+00	-3.4638048178e-02
 0.0000000000e+00	 1.8000000000e+00	-3.3532089288e-02
 3.8132147343e-01	 1.7883700409e+00	-4.5086879046e-01
 3.4243883594e-01	 1.7962207863e+00	-3.5957312929e-01
 3.0365442484e-01	 1.8031825919e+00	-2.8759862864e-01
 2.6499563707e-01	 1.8092680237e+00	-2.2682808390e-01
 2.2648893918e-01	 1.8144906254e+00	-1.7260918816e-01
 1.8815983332e-01	 1.8188648511e+00	-1.2314121728e-01
 1.5003282823e-01	 1.8224059975e+00	-7.8806110226e-02
 1.1213141504e-01	 1.8251301365e+00	-4.1457215023e-02
 7.4478047951e-02	 1.8270540468e+00	-1.3708996110e-02
 3.7094129452e-02	 1.8281951468e+00	 1.7351751331e-03
 0.0000000000e+00	 1.8285714286e+00	 2.6866554108e-03
 3.8727962145e-01	 1.8163133228e+00	-4.1567679783e-01
 3.4778944275e-01	 1.8242867361e+00	-3.2742997462e-01
 3.0839902523e-01	 1.8313573199e+00	-2.5845443652e-01
 2.6913619390e-01	 1.8375378366e+00	-1.9981036958e-01
 2.3002782885e-01	 1.8428420415e+00	-1.4665680926e-01
 1.9109983072e-01	 1.8472846144e+00	-9.7335431251e-02
 1.5237709117e-01	 1.8508810912e+00	-5.2562161506e-02
 1.1388346840e-01	 1.8536477949e+00	-1.4885817371e-02
 7.5641767450e-02	 1.8556017662e+00	 1.2206004751e-02
 3.7673725225e-02	 1.8567606960e+00	 2.6635794999e-02
 0.0000000000e+00	 1.8571428571e+00	 2.7063991609e-02
 1.8571428571e+00	 0.0000000000e+00	 3.1352942397e+00
 1.8567606960e+00	 3.7673725225e-02	 3.1156954255e+00
 1.8556017662e+00	 7.5641767450e-02	 3.0886937714e+00
 1.8536477949e+00	 1.1388346840e-01	 3.0523031384e+00
 1.8508810912e+00	 1.5237709117e-01	 3.0040439584e+00
 1.8472846144e+00	 1.9109983072e-01	 2.9402378872e+00
 1.8428420415e+00	 2.3002782885e-01	 2.8585098239e+00
 1.8375378366e+00	 2.6913619390e-01	 2.7587406641e+00
 1.8313573199e+00	 3.0839902523e-01	 2.6436497151e+00
 1.8242867361e+00	 3.4778944275e-01	 2.5196718611e+00
 1.8163133228e+00	 3.8727962145e-01	 2.3978109593e+00
 1.8857142857e+00	 0.0000000000e+00	 3.1121088040e+00
 1.8853262452e+00	 3.8253320998e-02	 3.0908736683e+00
 1.8841494857e+00	 7.6805486949e-02	 3.0583178110e+00
 1.8821654533e+00	 1.1563552176e-01	 3.0137072080e+00
 1.8793561850e+00	 1.5472135411e-01	 2.9558568133e+00
 1.8757043777e+00	 1.9403982811e-01	 2.8835708306e+00
 1.8711934575e+00	 2.3356671853e-01	 2.7961672795e+00
 1.8658076495e+00	 2.7327675073e-01	 2.6941116171e+00
 1.8595320479e+00	 3.1314362562e-01	 2.5797868404e+00
 1.8523526858e+00	 3.5314004956e-01	 2.4584293974e+00
 1.8442566047e+00	 3.9323776947e-01	 2.3384045573e+00
 1.9142857143e+00	 0.0000000000e+00	 3.0751145516e+00
 1.9138917944e+00	 3.8832916770e-02	 3.0555691155e+00
 1.9126972052e+00	 7.7969206448e-02	 3.0216993458e+00
 1.9106831116e+00	 1.1738757512e-01	 2.9737069912e+00
 1.9078312787e+00	 1.5706561705e-01	 2.9113031992e+00
 1.9041241410e+00	 1.9697982551e-01	 2.8340901054e+00
 1.8995448735e+00	 2.3710560820e-01	 2.7420230171e+00
 1.8940774624e+00	 2.7741730756e-01	 2.6359808940e+00
 1.8877067759e+00	 3.1788822601e-01	 2.5184760187e+00
 1.8804186356e+00	 3.5849065637e-01	 2.3945361155e+00
 1.8721998866e+00	 3.9919591749e-01	 2.2739711537e+00
 1.9428571429e+00	 0.0000000000e+00	 3.0247881761e+00
 1.9424573435e+00	 3.9412512543e-02	 3.0093940988e+00
 1.9412449247e+00	 7.9132925948e-02	 2.9775115093e+00
 1.9392007700e+00	 1.1913962848e-01	 2.9300073154e+00
 1.9363063724e+00	 1.5940987999e-01	 2.8672231084e+00
 1.9325439043e+00	 1.9991982291e-01	 2.7892914128e+00
 1.9278962895e+00	 2.4064449788e-01	 2.6965280095e+00
 1.9223472752e+00	 2.8155786439e-01	 2.5899312087e+00
 1.9158815039e+00	 3.2263282639e-01	 2.4718227049e+00
 1.9084845854e+00	 3.6384126318e-01	 2.3466675286e+00
 1.9001431685e+00	 4.0515406552e-01	 2.2244161093e+00
 1.9714285714e+00	 0.0000000000e+00	 2.9614213672e+00
 1.9710228927e+00	 3.9992108316e-02	 2.9518558327e+00
 1.9697926442e+00	 8.0296645447e-02	 2.9243928056e+00
 1.9677184284e+00	 1.2089168184e-01	 2.8803403257e+00
 1.9647814661e+00	 1.6175414293e-01	 2.8204539869e+00
 1.9609636676e+00	 2.0285982030e-01	 2.7451803726e+00
 1.9562477056e+00	 2.4418338755e-01	 2.6549711264e+00
 1.9506170881e+00	 2.8569842122e-01	 2.5507019466e+00
 1.9440562319e+00	 3.2737742678e-01	 2.4342351678e+00
 1.9365505352e+00	 3.6919187000e-01	 2.3091680441e+00
 1.9280864504e+00	 4.1111221354e-01	 2.1856212301e+00
 2.0000000000e+00	 0.0000000000e+00	 2.8851340257e+00
 1.9995884419e+00	 4.0571704089e-02	 2.8823660343e+00
 1.9983403636e+00	 8.1460364946e-02	 2.8609530338e+00
 1.9962360868e+00	 1.2264373520e-01	 2.8224677492e+00
 1.9932565598e+00	 1.6409840587e-01	 2.7679137758e+00
 1.9893834309e+00	 2.0579981770e-01	 2.6978878790e+00
 1.9845991216e+00	 2.4772227723e-01	 2.6128064693e+00
 1.9788869010e+00	 2.8983897805e-01	 2.5132342019e+00
 1.9722309599e+00	 3.3212202717e-01	 2.4003577104e+00
 1.9646164850e+00	 3.7454247681e-01	 2.2766766354e+00
 1.9560297323e+00	 4.1707036156e-01	 2.1524386574e+00
 2.0285714286e+00	 0.0000000000e+00	 2.7958863606e+00
 2.0281539910e+00	 4.1151299861e-02	 2.8002497195e+00
 2.0268880831e+00	 8.2624084445e-02	 2.7857786725e+00
 2.0247537452e+00	 1.2439578856e-01	 2.7541828851e+00
 2.0217316535e+00	 1.6644266881e-01	 2.7065996573e+00
 2.0178031942e+00	 2.0873981509e-01	 2.6436658897e+00
 2.0129505376e+00	 2.5126116690e-01	 2.5656466289e+00
 2.0071567138e+00	 2.9397953488e-01	 2.4726620728e+00
 2.0004056879e+00	 3.3686662756e-01	 2.3650607149e+00
 1.9926824348e+00	 3.7989308362e-01	 2.2441180333e+00
 1.9839730142e+00	 4.2302850958e-01	 2.1199745048e+00
 2.0571428571e+00	 0.0000000000e+00	 2.6934899794e+00
 2.0567195402e+00	 4.1730895634e-02	 2.7047532550e+00
 2.0554358026e+00	 8.3787803945e-02	 2.6974377768e+00
 2.0532714036e+00	 1.2614784192e-01	 2.6733123479e+00
 2.0502067472e+00	 1.6878693175e-01	 2.6335867733e+00
 2.0462229575e+00	 2.1167981249e-01	 2.5788833789e+00
 2.0413019536e+00	 2.5480005658e-01	 2.5092562678e+00
 2.0354265267e+00	 2.9812009170e-01	 2.4243044010e+00
 2.0285804159e+00	 3.4161122795e-01	 2.3234312053e+00
 2.0207483846e+00	 3.8524369043e-01	 2.2065980184e+00
 2.0119162960e+00	 4.2898665761e-01	 2.0835799573e+00
 2.0857142857e+00	 0.0000000000e+00	 2.5776180660e+00
 2.0852850894e+00	 4.2310491407e-02	 2.5950517394e+00
 2.0839835221e+00	 8.4951523444e-02	 2.5944844331e+00
 2.0817890619e+00	 1.2789989528e-01	 2.5777175870e+00
 2.0786818409e+00	 1.7113119469e-01	 2.5460269192e+00
 2.0746427208e+00	 2.1461980988e-01	 2.5000224410e+00
 2.0696533696e+00	 2.5833894625e-01	 2.4395459954e+00
 2.0636963396e+00	 3.0226064853e-01	 2.3636569135e+00
 2.0567551439e+00	 3.4635582833e-01	 2.2707638792e+00
 2.0488143343e+00	 3.9059429724e-01	 2.1594434330e+00
 2.0398595779e+00	 4.3494480563e-01	 2.0388428241e+00
 2.1142857143e+00	 0.0000000000e+00	 2.4478147337e+00
 2.1138506385e+00	 4.2890087179e-02	 2.4702557739e+00
 2.1125312416e+00	 8.6115242943e-02	 2.4754628159e+00
 2.1103067203e+00	 1.2965194864e-01	 2.4652962041e+00
 2.1071569346e+00	 1.7347545764e-01	 2.4411472153e+00
 2.1030624841e+00	 2.1755980728e-01	 2.4036745282e+00
 2.0980047857e+00	 2.6187783593e-01	 2.3525665091e+00
 2.0919661524e+00	 3.0640120536e-01	 2.2863847272e+00
 2.0849298719e+00	 3.5110042872e-01	 2.2025525622e+00
 2.0768802841e+00	 3.9594490405e-01	 2.0981967113e+00
 2.0678028598e+00	 4.4090295365e-01	 1.9815795050e+00
 2.1428571429e+00	 0.0000000000e+00	 2.3035036299e+00
 2.1424161877e+00	 4.3469682952e-02	 2.3294176829e+00
 2.1410789610e+00	 8.7278962442e-02	 2.3389108817e+00
 2.1388243787e+00	 1.3140400200e-01	 2.3339830875e+00
 2.1356320284e+00	 1.7581972058e-01	 2.3162487580e+00
 2.1314822474e+00	 2.2049980468e-01	 2.2865368117e+00
 2.1263562017e+00	 2.6541672560e-01	 2.2445029765e+00
 2.1202359653e+00	 3.1054176219e-01	 2.1883151831e+00
 2.1131045999e+00	 3.5584502911e-01	 2.1144820482e+00
 2.1049462339e+00	 4.0129551087e-01	 2.0186088267e+00
 2.0957461417e+00	 4.4686110167e-01	 1.9078273295e+00
 1.8163133228e+00	 3.8727962145e-01	 2.3978109593e+00
 1.8074253779e+00	 4.2684083107e-01	 2.2693256895e+00
 1.7976123250e+00	 4.6644348092e-01	 2.1179069442e+00
 1.7868647774e+00	 5.0605716989e-01	 1.9474339449e+00
 1.7751745999e+00	 5.4565074146e-01	 1.7622203675e+00
 1.7625349677e+00	 5.8519234391e-01	 1.5667216817e+00
 1.7489404221e+00	 6.2464949521e-01	 1.3652791766e+00
 1.7343869225e+00	 6.6398915282e-01	 1.1619171433e+00
 1.7188718947e+00	 7.0317778792e-01	 9.6020838152e-01
 1.7023942747e+00	 7.4218146389e-01	 7.6320487233e-01
 1.6849545470e+00	 7.8096591881e-01	 5.6061505422e-01
 1.8442566047e+00	 3.9323776947e-01	 2.3384045573e+00
 1.8352319222e+00	 4.3340761308e-01	 2.2105452827e+00
 1.8252678992e+00	 4.7361953448e-01	 2.0591938388e+00
 1.8143550047e+00	 5.1384266481e-01	 1.8887707370e+00
 1.8024849784e+00	 5.5404536826e-01	 1.7041054521e+00
 1.7896508903e+00	 5.9419530305e-01	 1.5100986267e+00
 1.7758471978e+00	 6.3425948744e-01	 1.3114266021e+00
 1.7610697982e+00	 6.7420437056e-01	 1.1123066828e+00
 1.7453160777e+00	 7.1399590773e-01	 9.1634008387e-01
 1.7285849558e+00	 7.5359964026e-01	 7.2523118086e-01
 1.7108769247e+00	 7.9298077910e-01	 5.2437432809e-01
 1.8721998866e+00	 3.9919591749e-01	 2.2739711537e+00
 1.8630384665e+00	 4.3997439510e-01	 2.1496176233e+00
 1.8529234734e+00	 4.8079558803e-01	 2.0039191152e+00
 1.8418452321e+00	 5.2162815973e-01	 1.8385737913e+00
 1.8297953568e+00	 5.6243999505e-01	 1.6576052161e+00
 1.8167668129e+00	 6.0319826218e-01	 1.4667407275e+00
 1.8027539735e+00	 6.4386947968e-01	 1.2713615079e+00
 1.7877526739e+00	 6.8441958829e-01	 1.0762213184e+00
 1.7717602607e+00	 7.2481402755e-01	 8.8526213294e-01
 1.7547756370e+00	 7.6501781663e-01	 6.9748885315e-01
 1.7367993023e+00	 8.0499563939e-01	 4.9810417083e-01
 1.9001431685e+00	 4.0515406552e-01	 2.2244161093e+00
 1.8908450108e+00	 4.4654117712e-01	 2.0998642585e+00
 1.8805790477e+00	 4.8797164158e-01	 1.9564121632e+00
 1.8693354594e+00	 5.2941365465e-01	 1.7959799710e+00
 1.8571057353e+00	 5.7083462184e-01	 1.6211068133e+00
 1.8438827355e+00	 6.1220122132e-01	 1.4350622914e+00
 1.8296607492e+00	 6.5347947191e-01	 1.2434855071e+00
 1.8144355496e+00	 6.9463480603e-01	 1.0520524948e+00
 1.7982044437e+00	 7.3563214736e-01	 8.6535362597e-01
 1.7809663181e+00	 7.7643599299e-01	 6.7869541782e-01
 1.7627216799e+00	 8.1701049968e-01	 4.8041773699e-01
 1.9280864504e+00	 4.1111221354e-01	 2.1856212301e+00
 1.9186515550e+00	 4.5310795913e-01	 2.0603301472e+00
 1.9082346219e+00	 4.9514769513e-01	 1.9180776104e+00
 1.8968256868e+00	 5.3719914957e-01	 1.7607989855e+00
 1.8844161138e+00	 5.7922924863e-01	 1.5910267773e+00
 1.8709986581e+00	 6.2120418046e-01	 1.4117365314e+00
 1.8565675250e+00	 6.6308946415e-01	 1.2261261449e+00
 1.8411184254e+00	 7.0485002377e-01	 1.0383043874e+00
 1.8246486267e+00	 7.4645026718e-01	 8.5496147478e-01
 1.8071569993e+00	 7.8785416936e-01	 6.6771124304e-01
 1.7886440576e+00	 8.2902535997e-01	 4.7006919628e-01
 1.9560297323e+00	 4.1707036156e-01	 2.1524386574e+00
 1.9464580993e+00	 4.5967474115e-01	 2.0262335627e+00
 1.9358901961e+00	 5.0232374869e-01	 1.8845435383e+00
 1.9243159141e+00	 5.4498464449e-01	 1.7293755713e+00
 1.9117264922e+00	 5.8762387542e-01	 1.5633232789e+00
 1.8981145806e+00	 6.3020713959e-01	 1.3894384902e+00
 1.8834743007e+00	 6.7269945638e-01	 1.2110298672e+00
 1.8678013011e+00	 7.1506524150e-01	 1.0313752768e+00
 1.8510928097e+00	 7.5726838699e-01	 8.5191444977e-01
 1.8333476804e+00	 7.9927234573e-01	 6.6352620488e-01
 1.8145664352e+00	 8.4104022026e-01	 4.6593936596e-01
 1.9839730142e+00	 4.2302850958e-01	 2.1199745048e+00
 1.9742646436e+00	 4.6624152317e-01	 1.9930537245e+00
 1.9635457704e+00	 5.0949980224e-01	 1.8517025551e+00
 1.9518061414e+00	 5.5277013941e-01	 1.6980343006e+00
 1.9390368707e+00	 5.9601850221e-01	 1.5347511247e+00
 1.9252305032e+00	 6.3921009873e-01	 1.3650446149e+00
 1.9103810764e+00	 6.8230944861e-01	 1.1924163334e+00
 1.8944841768e+00	 7.2528045924e-01	 1.0204031445e+00
 1.8775369927e+00	 7.6808650681e-01	 8.4857313971e-01
 1.8595383616e+00	 8.1069052210e-01	 6.6460525257e-01
 1.8404888129e+00	 8.5305508055e-01	 4.6702147267e-01
 2.0119162960e+00	 4.2898665761e-01	 2.0835799573e+00
 2.0020711879e+00	 4.7280830518e-01	 1.9565215394e+00
 1.9912013446e+00	 5.1667585579e-01	 1.8157019795e+00
 1.9792963688e+00	 5.6055563433e-01	 1.6633536401e+00
 1.9663472491e+00	 6.0441312901e-01	 1.5023142298e+00
 1.9523464258e+00	 6.4821305787e-01	 1.3359600385e+00
 1.9372878521e+00	 6.9191944085e-01	 1.1680513804e+00
 1.9211670526e+00	 7.3549567697e-01	 1.0024729376e+00
 1.9039811757e+00	 7.7890462662e-01	 8.3629942853e-01
 1.8857290427e+00	 8.2210869846e-01	 6.5945794072e-01
 1.8664111905e+00	 8.6506994084e-01	 4.6996639359e-01
 2.0398595779e+00	 4.3494480563e-01	 2.0388428241e+00
 2.0298777321e+00	 4.7937508720e-01	 1.9126107352e+00
 2.0188569188e+00	 5.2385190934e-01	 1.7729343541e+00
 2.0067865961e+00	 5.6834112926e-01	 1.6221556051e+00
 1.9936576276e+00	 6.1280775580e-01	 1.4632541391e+00
 1.9794623484e+00	 6.5721601701e-01	 1.2998173297e+00
 1.9641946279e+00	 7.0152943308e-01	 1.1359139219e+00
 1.9478499283e+00	 7.4571089471e-01	 9.7576074086e-01
 1.9304253587e+00	 7.8972274643e-01	 8.1373707435e-01
 1.9119197239e+00	 8.3352687483e-01	 6.4313325519e-01
 1.8923335682e+00	 8.7708480113e-01	 4.6222896618e-01
 2.0678028598e+00	 4.4090295365e-01	 1.9815795050e+00
 2.0576842764e+00	 4.8594186922e-01	 1.8575293501e+00
 2.0465124931e+00	 5.3102796290e-01	 1.7200282570e+00
 2.0342768235e+00	 5.7612662418e-01	 1.5714956566e+00
 2.0209680061e+00	 6.2120238259e-01	 1.4150387408e+00
 2.0065782710e+00	 6.6621897614e-01	 1.2544637225e+00
 1.9911014036e+00	 7.1113942532e-01	 1.0941813710e+00
 1.9745328040e+00	 7.5592611244e-01	 9.3820519198e-01
 1.9568695417e+00	 8.0054086625e-01	 7.7965695357e-01
 1.9381104050e+00	 8.4494505120e-01	 6.1446701744e-01
 1.9182559458e+00	 8.8909966142e-01	 4.4118513387e-01
 2.0957461417e+00	 4.4686110167e-01	 1.9078273295e+00
 2.0854908207e+00	 4.9250865123e-01	 1.7877115448e+00
 2.0741680673e+00	 5.3820401645e-01	 1.6538393843e+00
 2.0617670508e+00	 5.8391211910e-01	 1.5086528188e+00
 2.0482783845e+00	 6.2959700938e-01	 1.3553511532e+00
 2.0336941935e+00	 6.7522193528e-01	 1.1979484804e+00
 2.0180081793e+00	 7.2074941755e-01	 1.0412151634e+00
 2.0012156798e+00	 7.6614133018e-01	 8.8847293663e-01
 1.9833137247e+00	 8.1135898606e-01	 7.3294628125e-01
 1.9643010862e+00	 8.5636322757e-01	 5.7241187213e-01
 1.9441783235e+00	 9.0111452171e-01	 4.0580185479e-01
 1.6849545470e+00	 7.8096591881e-01	 5.6061505422e-01
 1.6665547786e+00	 8.1949665154e-01	 3.4930189833e-01
 1.6471986464e+00	 8.5773901105e-01	 1.3785326243e-01
 1.6268914598e+00	 8.9565828859e-01	-7.1158033959e-02
 1.6056401757e+00	 9.3321981222e-01	-2.7527431906e-01
 1.5834534084e+00	 9.7038904324e-01	-4.7206244074e-01
 1.5603414316e+00	 1.0071316739e+00	-6.5898558218e-01
 1.5363161744e+00	 1.0434137263e+00	-8.3323867016e-01
 1.5113912098e+00	 1.0792016506e+00	-9.9155015384e-01
 1.4855817365e+00	 1.1144624246e+00	-1.1299871225e+00
 1.4589045534e+00	 1.1491636506e+00	-1.2541310502e+00
 1.7108769247e+00	 7.9298077910e-01	 5.2437432809e-01
 1.6921940828e+00	 8.3210429233e-01	 3.1549728685e-01
 1.6725401641e+00	 8.7093499583e-01	 1.0681740824e-01
 1.6519205592e+00	 9.0943764687e-01	-9.9068766302e-02
 1.6303423323e+00	 9.4757704010e-01	-2.9976218391e-01
 1.6078142301e+00	 9.8531810544e-01	-4.9296567687e-01
 1.5843466844e+00	 1.0226260074e+00	-6.7634613741e-01
 1.5599518078e+00	 1.0594662451e+00	-8.4735555638e-01
 1.5346433823e+00	 1.0958047530e+00	-1.0030138078e+00
 1.5084368402e+00	 1.1316080004e+00	-1.1406550185e+00
 1.4813492389e+00	 1.1668430913e+00	-1.2621552855e+00
 1.7367993023e+00	 8.0499563939e-01	 4.9810417083e-01
 1.7178333871e+00	 8.4471193313e-01	 2.9140397448e-01
 1.6978816817e+00	 8.8413098062e-01	 8.5105328408e-02
 1.6769496585e+00	 9.2321700516e-01	-1.1812357801e-01
 1.6550444888e+00	 9.6193426798e-01	-3.1590092563e-01
 1.6321750517e+00	 1.0002471676e+00	-5.0603113904e-01
 1.6083519372e+00	 1.0381203408e+00	-6.8635749334e-01
 1.5835874413e+00	 1.0755187640e+00	-8.5456845482e-01
 1.5578955547e+00	 1.1124078553e+00	-1.0079630971e+00
 1.5312919438e+00	 1.1487535762e+00	-1.1458782584e+00
 1.5037939243e+00	 1.1845225321e+00	-1.2694599852e+00
 1.7627216799e+00	 8.1701049968e-01	 4.8041773699e-01
 1.7434726914e+00	 8.5731957392e-01	 2.7550416918e-01
 1.7232231993e+00	 8.9732696540e-01	 7.1093329890e-02
 1.7019787579e+00	 9.3699636345e-01	-1.3002513428e-01
 1.6797466454e+00	 9.7629149586e-01	-3.2544434275e-01
 1.6565358734e+00	 1.0151762299e+00	-5.1303604333e-01
 1.6323571900e+00	 1.0536146743e+00	-6.9079375629e-01
 1.6072230747e+00	 1.0915712829e+00	-8.5662409201e-01
 1.5811477272e+00	 1.1290109576e+00	-1.0084313713e+00
 1.5541470475e+00	 1.1658991519e+00	-1.1466648478e+00
 1.5262386098e+00	 1.2022019729e+00	-1.2717470325e+00
 1.7886440576e+00	 8.2902535997e-01	 4.7006919628e-01
 1.7691119957e+00	 8.6992721471e-01	 2.6642184549e-01
 1.7485647170e+00	 9.1052295019e-01	 6.3300315258e-02
 1.7270078573e+00	 9.5077572173e-01	-1.3633230176e-01
 1.7044488019e+00	 9.9064872374e-01	-3.3000060487e-01
 1.6808966951e+00	 1.0301052921e+00	-5.1560931269e-01
 1.6563624428e+00	 1.0691090077e+00	-6.9127708566e-01
 1.6308587082e+00	 1.1076238017e+00	-8.5511250125e-01
 1.6043998996e+00	 1.1456140599e+00	-1.0058663013e+00
 1.5770021511e+00	 1.1830447277e+00	-1.1440465771e+00
 1.5486832952e+00	 1.2198814137e+00	-1.2700422794e+00
 1.8145664352e+00	 8.4104022026e-01	 4.6593936596e-01
 1.7947513000e+00	 8.8253485551e-01	 2.6290730360e-01
 1.7739062346e+00	 9.2371893498e-01	 6.0371438432e-02
 1.7520369567e+00	 9.6455508002e-01	-1.3847722276e-01
 1.7291509585e+00	 1.0050059516e+00	-3.3104988154e-01
 1.7052575167e+00	 1.0450343543e+00	-5.1524958504e-01
 1.6803676956e+00	 1.0846033412e+00	-6.8929590761e-01
 1.6544943416e+00	 1.1236763206e+00	-8.5152646841e-01
 1.6276520721e+00	 1.1622171622e+00	-1.0013129441e+00
 1.5998572547e+00	 1.2001903034e+00	-1.1390721402e+00
 1.5711279806e+00	 1.2375608545e+00	-1.2653873321e+00
 1.8404888129e+00	 8.5305508055e-01	 4.6702147267e-01
 1.8203906043e+00	 8.9514249630e-01	 2.6382189534e-01
 1.7992477522e+00	 9.3691491976e-01	 6.1061957051e-02
 1.7770660561e+00	 9.7833443830e-01	-1.3778217023e-01
 1.7538531150e+00	 1.0193631795e+00	-3.2996173606e-01
 1.7296183384e+00	 1.0599634165e+00	-5.1334297687e-01
 1.7043729484e+00	 1.1000976746e+00	-6.8622288064e-01
 1.6781299751e+00	 1.1397288395e+00	-8.4715941990e-01
 1.6509042446e+00	 1.1788202645e+00	-9.9582907570e-01
 1.6227123584e+00	 1.2173358792e+00	-1.1328000236e+00
 1.5935726661e+00	 1.2552402952e+00	-1.2588318806e+00
 1.8664111905e+00	 8.6506994084e-01	 4.6996639359e-01
 1.8460299086e+00	 9.0775013709e-01	 2.6812290063e-01
 1.8245892699e+00	 9.5011090455e-01	 6.4221262360e-02
 1.8020951555e+00	 9.9211379659e-01	-1.3547620481e-01
 1.7785552716e+00	 1.0337204074e+00	-3.2801230706e-01
 1.7539791601e+00	 1.0748924787e+00	-5.1118062612e-01
 1.7283782012e+00	 1.1155920081e+00	-6.8332860100e-01
 1.7017656086e+00	 1.1557813583e+00	-8.4307197234e-01
 1.6741564170e+00	 1.1954233669e+00	-9.9047824887e-01
 1.6455674620e+00	 1.2344814550e+00	-1.1262911897e+00
 1.6160173515e+00	 1.2729197360e+00	-1.2514260148e+00
 1.8923335682e+00	 8.7708480113e-01	 4.6222896618e-01
 1.8716692128e+00	 9.2035777788e-01	 2.7017902870e-01
 1.8499307875e+00	 9.6330688933e-01	 6.8777069608e-02
 1.8271242548e+00	 1.0058931549e+00	-1.3271165285e-01
 1.8032574281e+00	 1.0480776353e+00	-3.2640129825e-01
 1.7783399817e+00	 1.0898215409e+00	-5.0997603536e-01
 1.7523834540e+00	 1.1310863415e+00	-6.8170951368e-01
 1.7254012420e+00	 1.1718338772e+00	-8.4032270829e-01
 1.6974085895e+00	 1.2120264692e+00	-9.8632265627e-01
 1.6684225656e+00	 1.2516270307e+00	-1.1206015728e+00
 1.6384620369e+00	 1.2905991768e+00	-1.2442123649e+00
 1.9182559458e+00	 8.8909966142e-01	 4.4118513387e-01
 1.8973085171e+00	 9.3296541868e-01	 2.5840751965e-01
 1.8752723052e+00	 9.7650287412e-01	 6.7129910720e-02
 1.8521533542e+00	 1.0196725132e+00	-1.3058150857e-01
 1.8279595847e+00	 1.0624348631e+00	-3.2626879438e-01
 1.8027008034e+00	 1.1047506031e+00	-5.1088223441e-01
 1.7763887067e+00	 1.1465806749e+00	-6.8239818907e-01
 1.7490368755e+00	 1.1878863961e+00	-8.3996677201e-01
 1.7206607619e+00	 1.2286295715e+00	-9.8441581576e-01
 1.6912776693e+00	 1.2687726065e+00	-1.1167744054e+00
 1.6609067224e+00	 1.3082786176e+00	-1.2382180839e+00
 1.9441783235e+00	 9.0111452171e-01	 4.0580185479e-01
 1.9229478214e+00	 9.4557305947e-01	 2.3136621391e-01
 1.9006138228e+00	 9.8969885890e-01	 4.9486598902e-02
 1.8771824536e+00	 1.0334518714e+00	-1.3778308352e-01
 1.8526617412e+00	 1.0767920910e+00	-3.2871962244e-01
 1.8270616251e+00	 1.1196796653e+00	-5.1496997978e-01
 1.8003939595e+00	 1.1620750084e+00	-6.8643587939e-01
 1.7726725089e+00	 1.2039389149e+00	-8.4304875472e-01
 1.7439129344e+00	 1.2452326738e+00	-9.8579509532e-01
 1.7141327729e+00	 1.2859181823e+00	-1.1158323925e+00
 1.6833514078e+00	 1.3259580583e+00	-1.2344466868e+00
 1.4589045534e+00	 1.1491636506e+00	-1.2541310502e+00
 1.4313780272e+00	 1.1832736518e+00	-1.3779752917e+00
 1.4030220530e+00	 1.2167615669e+00	-1.5019435212e+00
 1.3738580083e+00	 1.2495974411e+00	-1.6221347640e+00
 1.3439087005e+00	 1.2817523148e+00	-1.7349903697e+00
 1.3131983079e+00	 1.3131983079e+00	-1.8370705143e+00
 1.2817523148e+00	 1.3439087005e+00	-1.9248291968e+00
 1.2495974411e+00	 1.3738580083e+00	-1.9943992930e+00
 1.2167615669e+00	 1.4030220530e+00	-2.0413988050e+00
 1.1832736518e+00	 1.4313780272e+00	-2.0607685649e+00
 1.1491636506e+00	 1.4589045534e+00	-2.0466503480e+00
 1.4813492389e+00	 1.1668430913e+00	-1.2621552855e+00
 1.4533992276e+00	 1.2014778618e+00	-1.3786700914e+00
 1.4246070076e+00	 1.2354809756e+00	-1.4976974979e+00
 1.3949942854e+00	 1.2688220171e+00	-1.6147771217e+00
 1.3645842190e+00	 1.3014715812e+00	-1.7258153190e+00
 1.3334013588e+00	 1.3334013588e+00	-1.8268349608e+00
 1.3014715812e+00	 1.3645842190e+00	-1.9137239090e+00
 1.2688220171e+00	 1.3949942854e+00	-1.9819950170e+00
 1.2354809756e+00	 1.4246070076e+00	-2.0265700076e+00
 1.2014778618e+00	 1.4533992276e+00	-2.0415985991e+00
 1.1668430913e+00	 1.4813492389e+00	-2.0203228065e+00
 1.5037939243e+00	 1.1845225321e+00	-1.2694599852e+00
 1.4754204280e+00	 1.2196820719e+00	-1.3821365652e+00
 1.4461919623e+00	 1.2542003843e+00	-1.4945974416e+00
 1.4161305624e+00	 1.2880465931e+00	-1.6069382685e+00
 1.3852597375e+00	 1.3211908475e+00	-1.7145828665e+00
 1.3536044097e+00	 1.3536044097e+00	-1.8130665589e+00
 1.3211908475e+00	 1.3852597375e+00	-1.8977546000e+00
 1.2880465931e+00	 1.4161305624e+00	-1.9635737730e+00
 1.2542003843e+00	 1.4461919623e+00	-2.0047708320e+00
 1.2196820719e+00	 1.4754204280e+00	-2.0147103773e+00
 1.1845225321e+00	 1.5037939243e+00	-1.9899333630e+00
 1.5262386098e+00	 1.2022019729e+00	-1.2717470325e+00
 1.4974416285e+00	 1.2378862819e+00	-1.3866708729e+00
 1.4677769170e+00	 1.2729197931e+00	-1.4933946836e+00
 1.4372668395e+00	 1.3072711692e+00	-1.5994450192e+00
 1.4059352559e+00	 1.3409101139e+00	-1.7021997455e+00
 1.3738074606e+00	 1.3738074606e+00	-1.7967577432e+00
 1.3409101139e+00	 1.4059352559e+00	-1.8780060507e+00
 1.3072711692e+00	 1.4372668395e+00	-1.9403194870e+00
 1.2729197931e+00	 1.4677769170e+00	-1.9772903940e+00
 1.2378862819e+00	 1.4974416285e+00	-1.9832897832e+00
 1.2022019729e+00	 1.5262386098e+00	-1.9604518013e+00
 1.5486832952e+00	 1.2198814137e+00	-1.2700422794e+00
 1.5194628289e+00	 1.2560904919e+00	-1.3867512583e+00
 1.4893618716e+00	 1.2916392018e+00	-1.4942123297e+00
 1.4584031165e+00	 1.3264957452e+00	-1.5930221750e+00
 1.4266107744e+00	 1.3606293803e+00	-1.6894650196e+00
 1.3940105115e+00	 1.3940105115e+00	-1.7787900082e+00
 1.3606293803e+00	 1.4266107744e+00	-1.8554517726e+00
 1.3264957452e+00	 1.4584031165e+00	-1.9133079371e+00
 1.2916392018e+00	 1.4893618716e+00	-1.9456688691e+00
 1.2560904919e+00	 1.5194628289e+00	-1.9527054624e+00
 1.2198814137e+00	 1.5486832952e+00	-1.9318198829e+00
 1.5711279806e+00	 1.2375608545e+00	-1.2653873321e+00
 1.5414840293e+00	 1.2742947019e+00	-1.3830592823e+00
 1.5109468263e+00	 1.3103586105e+00	-1.4919073563e+00
 1.4795393936e+00	 1.3457203212e+00	-1.5882773211e+00
 1.4472862929e+00	 1.3803486467e+00	-1.6770535266e+00
 1.4142135624e+00	 1.4142135624e+00	-1.7599160449e+00
 1.3803486467e+00	 1.4472862929e+00	-1.8309348881e+00
 1.3457203212e+00	 1.4795393936e+00	-1.8834864315e+00
 1.3103586105e+00	 1.5109468263e+00	-1.9143798519e+00
 1.2742947019e+00	 1.5414840293e+00	-1.9228874564e+00
 1.2375608545e+00	 1.5711279806e+00	-1.9036445712e+00
 1.5935726661e+00	 1.2552402952e+00	-1.2588318806e+00
 1.5635052297e+00	 1.2924989120e+00	-1.3766326442e+00
 1.5325317809e+00	 1.3290780192e+00	-1.4858597822e+00
 1.5006756706e+00	 1.3649448972e+00	-1.5828892609e+00
 1.4679618114e+00	 1.4000679131e+00	-1.6654991784e+00
 1.4344166133e+00	 1.4344166133e+00	-1.7407417551e+00
 1.4000679131e+00	 1.4679618114e+00	-1.8051489155e+00
 1.3649448972e+00	 1.5006756706e+00	-1.8530738602e+00
 1.3290780192e+00	 1.5325317809e+00	-1.8839661743e+00
 1.2924989120e+00	 1.5635052297e+00	-1.8931877380e+00
 1.2552402952e+00	 1.5935726661e+00	-1.8752328514e+00
 1.6160173515e+00	 1.2729197360e+00	-1.2514260148e+00
 1.5855264301e+00	 1.3107031220e+00	-1.3685083892e+00
 1.5541167356e+00	 1.3477974280e+00	-1.4770949674e+00
 1.5218119477e+00	 1.3841694732e+00	-1.5736722466e+00
 1.4886373298e+00	 1.4197871795e+00	-1.6548351207e+00
 1.4546196642e+00	 1.4546196642e+00	-1.7217081559e+00
 1.4197871795e+00	 1.4886373298e+00	-1.7787541645e+00
 1.3841694732e+00	 1.5218119477e+00	-1.8237815725e+00
 1.3477974280e+00	 1.5541167356e+00	-1.8535387177e+00
 1.3107031220e+00	 1.5855264301e+00	-1.8626899091e+00
 1.2729197360e+00	 1.6160173515e+00	-1.8456264563e+00
 1.6384620369e+00	 1.2905991768e+00	-1.2442123649e+00
 1.6075476306e+00	 1.3289073320e+00	-1.3597147282e+00
 1.5757016903e+00	 1.3665168367e+00	-1.4666290450e+00
 1.5429482247e+00	 1.4033940493e+00	-1.5616018307e+00
 1.5093128483e+00	 1.4395064458e+00	-1.6413725990e+00
 1.4748227150e+00	 1.4748227150e+00	-1.7030731830e+00
 1.4395064458e+00	 1.5093128483e+00	-1.7532874943e+00
 1.4033940493e+00	 1.5429482247e+00	-1.7945084060e+00
 1.3665168367e+00	 1.5757016903e+00	-1.8219712662e+00
 1.3289073320e+00	 1.6075476306e+00	-1.8302448472e+00
 1.2905991768e+00	 1.6384620369e+00	-1.8136366459e+00
 1.6609067224e+00	 1.3082786176e+00	-1.2382180839e+00
 1.6295688310e+00	 1.3471115421e+00	-1.3512627107e+00
 1.5972866449e+00	 1.3852362454e+00	-1.4554603314e+00
 1.5640845018e+00	 1.4226186253e+00	-1.5476658255e+00
 1.5299883668e+00	 1.4592257122e+00	-1.6248079469e+00
 1.4950257659e+00	 1.4950257659e+00	-1.6841074000e+00
 1.4592257122e+00	 1.5299883668e+00	-1.7280013332e+00
 1.4226186253e+00	 1.5640845018e+00	-1.7639294240e+00
 1.3852362454e+00	 1.5972866449e+00	-1.7879367461e+00
 1.3471115421e+00	 1.6295688310e+00	-1.7945063626e+00
 1.3082786176e+00	 1.6609067224e+00	-1.7778790365e+00
 1.6833514078e+00	 1.3259580583e+00	-1.2344466868e+00
 1.6515900314e+00	 1.3653157521e+00	-1.3441377650e+00
 1.6188715996e+00	 1.4039556541e+00	-1.4445606145e+00
 1.5852207788e+00	 1.4418432013e+00	-1.5328258329e+00
 1.5506638852e+00	 1.4789449786e+00	-1.6060946556e+00
 1.5152288168e+00	 1.5152288168e+00	-1.6620431011e+00
 1.4789449786e+00	 1.5506638852e+00	-1.7013799676e+00
 1.4418432013e+00	 1.5852207788e+00	-1.7305490943e+00
 1.4039556541e+00	 1.6188715996e+00	-1.7499434482e+00
 1.3653157521e+00	 1.6515900314e+00	-1.7539668665e+00
 1.3259580583e+00	 1.6833514078e+00	-1.7368084743e+00
 1.1491636506e+00	 1.4589045534e+00	-2.0466503480e+00
 1.1144624246e+00	 1.4855817365e+00	-2.0121783804e+00
 1.0792016506e+00	 1.5113912098e+00	-1.9766813618e+00
 1.0434137263e+00	 1.5363161744e+00	-1.9351166844e+00
 1.0071316739e+00	 1.5603414316e+00	-1.8849186079e+00
 9.7038904324e-01	 1.5834534084e+00	-1.8250395242e+00
 9.3321981222e-01	 1.6056401757e+00	-1.7555166000e+00
 8.9565828859e-01	 1.6268914598e+00	-1.6771331515e+00
 8.5773901105e-01	 1.6471986464e+00	-1.5911301423e+00
 8.1949665154e-01	 1.6665547786e+00	-1.4989701729e+00
 7.8096591881e-01	 1.6849545470e+00	-1.4021540990e+00
 1.1668430913e+00	 1.4813492389e+00	-2.0203228065e+00
 1.1316080004e+00	 1.5084368402e+00	-1.9814704231e+00
 1.0958047530e+00	 1.5346433823e+00	-1.9473363787e+00
 1.0594662451e+00	 1.5599518078e+00	-1.9069090931e+00
 1.0226260074e+00	 1.5843466844e+00	-1.8563071907e+00
 9.8531810544e-01	 1.6078142301e+00	-1.7950718889e+00
 9.4757704010e-01	 1.6303423323e+00	-1.7237684713e+00
 9.0943764687e-01	 1.6519205592e+00	-1.6436246336e+00
 8.7093499583e-01	 1.6725401641e+00	-1.5562259468e+00
 8.3210429233e-01	 1.6921940828e+00	-1.4632705910e+00
 7.9298077910e-01	 1.7108769247e+00	-1.3663830687e+00
 1.1845225321e+00	 1.5037939243e+00	-1.9899333630e+00
 1.1487535762e+00	 1.5312919438e+00	-1.9515919721e+00
 1.1124078553e+00	 1.5578955547e+00	-1.9167237427e+00
 1.0755187640e+00	 1.5835874413e+00	-1.8783684159e+00
 1.0381203408e+00	 1.6083519372e+00	-1.8283133974e+00
 1.0002471676e+00	 1.6321750517e+00	-1.7666692859e+00
 9.6193426798e-01	 1.6550444888e+00	-1.6945077816e+00
 9.2321700516e-01	 1.6769496585e+00	-1.6134683236e+00
 8.8413098062e-01	 1.6978816817e+00	-1.5254380354e+00
 8.4471193313e-01	 1.7178333871e+00	-1.4322982796e+00
 8.0499563939e-01	 1.7367993023e+00	-1.3357370297e+00
 1.2022019729e+00	 1.5262386098e+00	-1.9604518013e+00
 1.1658991519e+00	 1.5541470475e+00	-1.9228046071e+00
 1.1290109576e+00	 1.5811477272e+00	-1.8864859525e+00
 1.0915712829e+00	 1.6072230747e+00	-1.8493313059e+00
 1.0536146743e+00	 1.6323571900e+00	-1.8006109159e+00
 1.0151762299e+00	 1.6565358734e+00	-1.7393948568e+00
 9.7629149586e-01	 1.6797466454e+00	-1.6672396513e+00
 9.3699636345e-01	 1.7019787579e+00	-1.5861622038e+00
 8.9732696540e-01	 1.7232231993e+00	-1.4983048633e+00
 8.5731957392e-01	 1.7434726914e+00	-1.4056750334e+00
 8.1701049968e-01	 1.7627216799e+00	-1.3099579589e+00
 1.2198814137e+00	 1.5486832952e+00	-1.9318198829e+00
 1.1830447277e+00	 1.5770021511e+00	-1.8950045436e+00
 1.1456140599e+00	 1.6043998996e+00	-1.8576866050e+00
 1.1076238017e+00	 1.6308587082e+00	-1.8196605079e+00
 1.0691090077e+00	 1.6563624428e+00	-1.7729086803e+00
 1.0301052921e+00	 1.6808966951e+00	-1.7128589196e+00
 9.9064872374e-01	 1.7044488019e+00	-1.6415306562e+00
 9.5077572173e-01	 1.7270078573e+00	-1.5612818265e+00
 9.1052295019e-01	 1.7485647170e+00	-1.4744598173e+00
 8.6992721471e-01	 1.7691119957e+00	-1.3831355327e+00
 8.2902535997e-01	 1.7886440576e+00	-1.2889185576e+00
 1.2375608545e+00	 1.5711279806e+00	-1.9036445712e+00
 1.2001903034e+00	 1.5998572547e+00	-1.8677560401e+00
 1.1622171622e+00	 1.6276520721e+00	-1.8298745523e+00
 1.1236763206e+00	 1.6544943416e+00	-1.7899052146e+00
 1.0846033412e+00	 1.6803676956e+00	-1.7449088588e+00
 1.0450343543e+00	 1.7052575167e+00	-1.6866778882e+00
 1.0050059516e+00	 1.7291509585e+00	-1.6169689925e+00
 9.6455508002e-01	 1.7520369567e+00	-1.5384420302e+00
 9.2371893498e-01	 1.7739062346e+00	-1.4535947752e+00
 8.8253485551e-01	 1.7947513000e+00	-1.3644930243e+00
 8.4104022026e-01	 1.8145664352e+00	-1.2725903153e+00
 1.2552402952e+00	 1.5935726661e+00	-1.8752328514e+00
 1.2173358792e+00	 1.6227123584e+00	-1.8403249246e+00
 1.1788202645e+00	 1.6509042446e+00	-1.8022983423e+00
 1.1397288395e+00	 1.6781299751e+00	-1.7610704707e+00
 1.1000976746e+00	 1.7043729484e+00	-1.7162650655e+00
 1.0599634165e+00	 1.7296183384e+00	-1.6604334343e+00
 1.0193631795e+00	 1.7538531150e+00	-1.5931248927e+00
 9.7833443830e-01	 1.7770660561e+00	-1.5172589030e+00
 9.3691491976e-01	 1.7992477522e+00	-1.4354238992e+00
 8.9514249630e-01	 1.8203906043e+00	-1.3496052103e+00
 8.5305508055e-01	 1.8404888129e+00	-1.2610117423e+00
 1.2729197360e+00	 1.6160173515e+00	-1.8456264563e+00
 1.2344814550e+00	 1.6455674620e+00	-1.8117122256e+00
 1.1954233669e+00	 1.6741564170e+00	-1.7739386537e+00
 1.1557813583e+00	 1.7017656086e+00	-1.7321994600e+00
 1.1155920081e+00	 1.7283782012e+00	-1.6866072320e+00
 1.0748924787e+00	 1.7539791601e+00	-1.6336318683e+00
 1.0337204074e+00	 1.7785552716e+00	-1.5695112671e+00
 9.9211379659e-01	 1.8020951555e+00	-1.4973119692e+00
 9.5011090455e-01	 1.8245892699e+00	-1.4196476381e+00
 9.0775013709e-01	 1.8460299086e+00	-1.3383403230e+00
 8.6506994084e-01	 1.8664111905e+00	-1.2518377811e+00
 1.2905991768e+00	 1.6384620369e+00	-1.8136366459e+00
 1.2516270307e+00	 1.6684225656e+00	-1.7806879012e+00
 1.2120264692e+00	 1.6974085895e+00	-1.7435408636e+00
 1.1718338772e+00	 1.7254012420e+00	-1.7020342361e+00
 1.1310863415e+00	 1.7523834540e+00	-1.6562911171e+00
 1.0898215409e+00	 1.7783399817e+00	-1.6056637178e+00
 1.0480776353e+00	 1.8032574281e+00	-1.5455445491e+00
 1.0058931549e+00	 1.8271242548e+00	-1.4781065774e+00
 9.6330688933e-01	 1.8499307875e+00	-1.4059169215e+00
 9.2035777788e-01	 1.8716692128e+00	-1.3257630676e+00
 8.7708480113e-01	 1.8923335682e+00	-1.2331105909e+00
 1.3082786176e+00	 1.6609067224e+00	-1.7778790365e+00
 1.2687726065e+00	 1.6912776693e+00	-1.7458246527e+00
 1.2286295715e+00	 1.7206607619e+00	-1.7096477343e+00
 1.1878863961e+00	 1.7490368755e+00	-1.6691053078e+00
 1.1465806749e+00	 1.7763887067e+00	-1.6243173700e+00
 1.1047506031e+00	 1.8027008034e+00	-1.5757634855e+00
 1.0624348631e+00	 1.8279595847e+00	-1.5205057256e+00
 1.0196725132e+00	 1.8521533542e+00	-1.4590353039e+00
 9.7650287412e-01	 1.8752723052e+00	-1.3868192061e+00
 9.3296541868e-01	 1.8973085171e+00	-1.3001813106e+00
 8.8909966142e-01	 1.9182559458e+00	-1.2020203017e+00
 1.3259580583e+00	 1.6833514078e+00	-1.7368084743e+00
 1.2859181823e+00	 1.7141327729e+00	-1.7055318196e+00
 1.2452326738e+00	 1.7439129344e+00	-1.6706322087e+00
 1.2039389149e+00	 1.7726725089e+00	-1.6317632304e+00
 1.1620750084e+00	 1.8003939595e+00	-1.5890341488e+00
 1.1196796653e+00	 1.8270616251e+00	-1.5430836469e+00
 1.0767920910e+00	 1.8526617412e+00	-1.4934929525e+00
 1.0334518714e+00	 1.8771824536e+00	-1.4309634188e+00
 9.8969885890e-01	 1.9006138228e+00	-1.3518522772e+00
 9.4557305947e-01	 1.9229478214e+00	-1.2596811683e+00
 9.0111452171e-01	 1.9441783235e+00	-1.1571856867e+00
 7.8096591881e-01	 1.6849545470e+00	-1.4021540990e+00
 7.4218146389e-01	 1.7023942747e+00	-1.2969658579e+00
 7.0317778792e-01	 1.7188718947e+00	-1.1873527600e+00
 6.6398915282e-01	 1.7343869225e+00	-1.0824196865e+00
 6.2464949521e-01	 1.7489404221e+00	-9.8218395055e-01
 5.8519234391e-01	 1.7625349677e+00	-8.8612389918e-01
 5.4565074146e-01	 1.7751745999e+00	-7.9314840913e-01
 5.0605716989e-01	 1.7868647774e+00	-7.0165269492e-01
 4.6644348092e-01	 1.7976123250e+00	-6.0965774644e-01
 4.2684083107e-01	 1.8074253779e+00	-5.1501757322e-01
 3.8727962145e-01	 1.8163133228e+00	-4.1567679783e-01
 7.9298077910e-01	 1.7108769247e+00	-1.3663830687e+00
 7.5359964026e-01	 1.7285849558e+00	-1.2619975435e+00
 7.1399590773e-01	 1.7453160777e+00	-1.1507176660e+00
 6.7420437056e-01	 1.7610697982e+00	-1.0439993511e+00
 6.3425948744e-01	 1.7758471978e+00	-9.4281963169e-01
 5.9419530305e-01	 1.7896508903e+00	-8.4670039590e-01
 5.5404536826e-01	 1.8024849784e+00	-7.5441212954e-01
 5.1384266481e-01	 1.8143550047e+00	-6.6404971315e-01
 4.7361953448e-01	 1.8252678992e+00	-5.7320254546e-01
 4.3340761308e-01	 1.8352319222e+00	-4.7920124257e-01
 3.9323776947e-01	 1.8442566047e+00	-3.7942135156e-01
 8.0499563939e-01	 1.7367993023e+00	-1.3357370297e+00
 7.6501781663e-01	 1.7547756370e+00	-1.2324892342e+00
 7.2481402755e-01	 1.7717602607e+00	-1.1216753806e+00
 6.8441958829e-01	 1.7877526739e+00	-1.0143324800e+00
 6.4386947968e-01	 1.8027539735e+00	-9.1292214227e-01
 6.0319826218e-01	 1.8167668129e+00	-8.1672546424e-01
 5.6243999505e-01	 1.8297953568e+00	-7.2405577403e-01
 5.2162815973e-01	 1.8418452321e+00	-6.3235915197e-01
 4.8079558803e-01	 1.8529234734e+00	-5.3842883813e-01
 4.3997439510e-01	 1.8630384665e+00	-4.4023262592e-01
 3.9919591749e-01	 1.8721998866e+00	-3.3758992257e-01
 8.1701049968e-01	 1.7627216799e+00	-1.3099579589e+00
 7.7643599299e-01	 1.7809663181e+00	-1.2082796950e+00
 7.3563214736e-01	 1.7982044437e+00	-1.0995606361e+00
 6.9463480603e-01	 1.8144355496e+00	-9.9270108960e-01
 6.5347947191e-01	 1.8296607492e+00	-8.9172334036e-01
 6.1220122132e-01	 1.8438827355e+00	-7.9538765712e-01
 5.7083462184e-01	 1.8571057353e+00	-7.0118475210e-01
 5.2941365465e-01	 1.8693354594e+00	-6.0623186745e-01
 4.8797164158e-01	 1.8805790477e+00	-5.0951667615e-01
 4.4654117712e-01	 1.8908450108e+00	-4.1042565159e-01
 4.0515406552e-01	 1.9001431685e+00	-3.0863742658e-01
 8.2902535997e-01	 1.7886440576e+00	-1.2889185576e+00
 7.8785416936e-01	 1.8071569993e+00	-1.1893584733e+00
 7.4645026718e-01	 1.8246486267e+00	-1.0838510927e+00
 7.0485002377e-01	 1.8411184254e+00	-9.7856100623e-01
 6.6308946415e-01	 1.8565675250e+00	-8.7844634979e-01
 6.2120418046e-01	 1.8709986581e+00	-7.8024272109e-01
 5.7922924863e-01	 1.8844161138e+00	-6.8282472117e-01
 5.3719914957e-01	 1.8968256868e+00	-5.8560760074e-01
 4.9514769513e-01	 1.9082346219e+00	-4.8791301236e-01
 4.5310795913e-01	 1.9186515550e+00	-3.8917839170e-01
 4.1111221354e-01	 1.9280864504e+00	-2.8910478815e-01
 8.4104022026e-01	 1.8145664352e+00	-1.2725903153e+00
 7.9927234573e-01	 1.8333476804e+00	-1.1758363668e+00
 7.5726838699e-01	 1.8510928097e+00	-1.0740576968e+00
 7.1506524150e-01	 1.8678013011e+00	-9.6944655898e-01
 6.7269945638e-01	 1.8834743007e+00	-8.6607101224e-01
 6.3020713959e-01	 1.8981145806e+00	-7.6485926351e-01
 5.8762387542e-01	 1.9117264922e+00	-6.6553095450e-01
 5.4498464449e-01	 1.9243159141e+00	-5.6746194849e-01
 5.0232374869e-01	 1.9358901961e+00	-4.6995729552e-01
 4.5967474115e-01	 1.9464580993e+00	-3.7244406255e-01
 4.1707036156e-01	 1.9560297323e+00	-2.7459604729e-01
 8.5305508055e-01	 1.8404888129e+00	-1.2610117423e+00
 8.1069052210e-01	 1.8595383616e+00	-1.1672988149e+00
 7.6808650681e-01	 1.8775369927e+00	-1.0640329459e+00
 7.2528045924e-01	 1.8944841768e+00	-9.5581274978e-01
 6.8230944861e-01	 1.9103810764e+00	-8.4959384607e-01
 6.3921009873e-01	 1.9252305032e+00	-7.4669369056e-01
 5.9601850221e-01	 1.9390368707e+00	-6.4666374807e-01
 5.5277013941e-01	 1.9518061414e+00	-5.4876274112e-01
 5.0949980224e-01	 1.9635457704e+00	-4.5221987478e-01
 4.6624152317e-01	 1.9742646436e+00	-3.5640884192e-01
 4.2302850958e-01	 1.9839730142e+00	-2.6094641533e-01
 8.6506994084e-01	 1.8664111905e+00	-1.2518377811e+00
 8.2210869846e-01	 1.8857290427e+00	-1.1534427990e+00
 7.7890462662e-01	 1.9039811757e+00	-1.0460158934e+00
 7.3549567697e-01	 1.9211670526e+00	-9.3524032890e-01
 6.9191944085e-01	 1.9372878521e+00	-8.2724659771e-01
 6.4821305787e-01	 1.9523464258e+00	-7.2366215236e-01
 6.0441312901e-01	 1.9663472491e+00	-6.2378400208e-01
 5.6055563433e-01	 1.9792963688e+00	-5.2668995493e-01
 5.1667585579e-01	 1.9912013446e+00	-4.3149046464e-01
 4.7280830518e-01	 2.0020711879e+00	-3.3748123086e-01
 4.2898665761e-01	 2.0119162960e+00	-2.4421230943e-01
 8.7708480113e-01	 1.8923335682e+00	-1.2331105909e+00
 8.3352687483e-01	 1.9119197239e+00	-1.1295632750e+00
 7.8972274643e-01	 1.9304253587e+00	-1.0188286804e+00
 7.4571089471e-01	 1.9478499283e+00	-9.0633320033e-01
 7.0152943308e-01	 1.9641946279e+00	-7.9740813557e-01
 6.5721601701e-01	 1.9794623484e+00	-6.9384987917e-01
 6.1280775580e-01	 1.9936576276e+00	-5.9463929806e-01
 5.6834112926e-01	 2.0067865961e+00	-4.9862328919e-01
 5.2385190934e-01	 2.0188569188e+00	-4.0476693416e-01
 4.7937508720e-01	 2.0298777321e+00	-3.1228179734e-01
 4.3494480563e-01	 2.0398595779e+00	-2.2066182655e-01
 8.8909966142e-01	 1.9182559458e+00	-1.2020203017e+00
 8.4494505120e-01	 1.9381104050e+00	-1.0944010282e+00
 8.0054086625e-01	 1.9568695417e+00	-9.8129156306e-01
 7.5592611244e-01	 1.9745328040e+00	-8.6775867347e-01
 7.1113942532e-01	 1.9911014036e+00	-7.5858668566e-01
 6.6621897614e-01	 2.0065782710e+00	-6.5549560103e-01
 6.2120238259e-01	 2.0209680061e+00	-5.5715017312e-01
 5.7612662418e-01	 2.0342768235e+00	-4.6212998671e-01
 5.3102796290e-01	 2.0465124931e+00	-3.6924438985e-01
 4.8594186922e-01	 2.0576842764e+00	-2.7763326575e-01
 4.4090295365e-01	 2.0678028598e+00	-1.8676561500e-01
 9.0111452171e-01	 1.9441783235e+00	-1.1571856867e+00
 8.5636322757e-01	 1.9643010862e+00	-1.0466942754e+00
 8.1135898606e-01	 1.9833137247e+00	-9.3221942172e-01
 7.6614133018e-01	 2.0012156798e+00	-8.1835107253e-01
 7.2074941755e-01	 2.0180081793e+00	-7.0940218108e-01
 6.7522193528e-01	 2.0336941935e+00	-6.0697610969e-01
 6.2959700938e-01	 2.0482783845e+00	-5.0939657305e-01
 5.8391211910e-01	 2.0617670508e+00	-4.1495287505e-01
 5.3820401645e-01	 2.0741680673e+00	-3.2230452488e-01
 4.9250865123e-01	 2.0854908207e+00	-2.3055092000e-01
 4.4686110167e-01	 2.0957461417e+00	-1.3918810680e-01
 3.8727962145e-01	 1.8163133228e+00	-4.1567679783e-01
 3.4778944275e-01	 1.8242867361e+00	-3.2742997462e-01
 3.0839902523e-01	 1.8313573199e+00	-2.5845443652e-01
 2.6913619390e-01	 1.8375378366e+00	-1.9981036958e-01
 2.3002782885e-01	 1.8428420415e+00	-1.4665680926e-01
 1.9109983072e-01	 1.8472846144e+00	-9.7335431251e-02
 1.5237709117e-01	 1.8508810912e+00	-5.2562161506e-02
 1.1388346840e-01	 1.8536477949e+00	-1.4885817371e-02
 7.5641767450e-02	 1.8556017662e+00	 1.2206004751e-02
 3.7673725225e-02	 1.8567606960e+00	 2.6635794999e-02
 0.0000000000e+00	 1.8571428571e+00	 2.7063991609e-02
 3.9323776947e-01	 1.8442566047e+00	-3.7942135156e-01
 3.5314004956e-01	 1.8523526858e+00	-2.8940987158e-01
 3.1314362562e-01	 1.8595320479e+00	-2.1839026706e-01
 2.7327675073e-01	 1.8658076495e+00	-1.5977140501e-01
 2.3356671853e-01	 1.8711934575e+00	-1.0979893481e-01
 1.9403982811e-01	 1.8757043777e+00	-6.7099107328e-02
 1.5472135411e-01	 1.8793561850e+00	-3.1794901435e-02
 1.1563552176e-01	 1.8821654533e+00	-4.7802935960e-03
 7.6805486949e-02	 1.8841494857e+00	 1.2873960044e-02
 3.8253320998e-02	 1.8853262452e+00	 2.0407989338e-02
 0.0000000000e+00	 1.8857142857e+00	 1.7776536429e-02
 3.9919591749e-01	 1.8721998866e+00	-3.3758992257e-01
 3.5849065637e-01	 1.8804186356e+00	-2.4816687481e-01
 3.1788822601e-01	 1.8877067759e+00	-1.8017517204e-01
 2.7741730756e-01	 1.8940774624e+00	-1.2569490769e-01
 2.3710560820e-01	 1.8995448735e+00	-8.1085322903e-02
 1.9697982551e-01	 1.9041241410e+00	-4.4766378498e-02
 1.5706561705e-01	 1.9078312787e+00	-1.6382023171e-02
 1.1738757512e-01	 1.9106831116e+00	 3.8722982669e-03
 7.7969206448e-02	 1.9126972052e+00	 1.5788040047e-02
 3.8832916770e-02	 1.9138917944e+00	 1.9575902898e-02
 0.0000000000e+00	 1.9142857143e+00	 1.6217364364e-02
 4.0515406552e-01	 1.9001431685e+00	-3.0863742658e-01
 3.6384126318e-01	 1.9084845854e+00	-2.2122944780e-01
 3.2263282639e-01	 1.9158815039e+00	-1.5533834031e-01
 2.8155786439e-01	 1.9223472752e+00	-1.0301012295e-01
 2.4064449788e-01	 1.9278962895e+00	-6.1035704993e-02
 1.9991982291e-01	 1.9325439043e+00	-2.7913486188e-02
 1.5940987999e-01	 1.9363063724e+00	-3.0674350288e-03
 1.1913962848e-01	 1.9392007700e+00	 1.3764521597e-02
 7.9132925948e-02	 1.9412449247e+00	 2.3005740347e-02
 3.9412512543e-02	 1.9424573435e+00	 2.5611115706e-02
 0.0000000000e+00	 1.9428571429e+00	 2.3360391961e-02
 4.1111221354e-01	 1.9280864504e+00	-2.8910478815e-01
 3.6919187000e-01	 1.9365505352e+00	-2.0373704015e-01
 3.2737742678e-01	 1.9440562319e+00	-1.3901588403e-01
 2.8569842122e-01	 1.9506170881e+00	-8.7060408454e-02
 2.4418338755e-01	 1.9562477056e+00	-4.5367777256e-02
 2.0285982030e-01	 1.9609636676e+00	-1.2754383006e-02
 1.6175414293e-01	 1.9647814661e+00	 1.1362596931e-02
 1.2089168184e-01	 1.9677184284e+00	 2.7507338027e-02
 8.0296645447e-02	 1.9697926442e+00	 3.6549246937e-02
 3.9992108316e-02	 1.9710228927e+00	 4.0003550767e-02
 0.0000000000e+00	 1.9714285714e+00	 4.0259665783e-02
 4.1707036156e-01	 1.9560297323e+00	-2.7459604729e-01
 3.7454247681e-01	 1.9646164850e+00	-1.9109654785e-01
 3.3212202717e-01	 1.9722309599e+00	-1.2656955246e-01
 2.8983897805e-01	 1.9788869010e+00	-7.3391320663e-02
 2.4772227723e-01	 1.9845991216e+00	-2.9976412439e-02
 2.0579981770e-01	 1.9893834309e+00	 4.3476668249e-03
 1.6409840587e-01	 1.9932565598e+00	 3.0004458355e-02
 1.2264373520e-01	 1.9962360868e+00	 4.7631636090e-02
 8.1460364946e-02	 1.9983403636e+00	 5.8404395511e-02
 4.0571704089e-02	 1.9995884419e+00	 6.4257977505e-02
 0.0000000000e+00	 2.0000000000e+00	 6.8043638833e-02
 4.2302850958e-01	 1.9839730142e+00	-2.6094641533e-01
 3.7989308362e-01	 1.9926824348e+00	-1.7895666685e-01
 3.3686662756e-01	 2.0004056879e+00	-1.1357560765e-01
 2.9397953488e-01	 2.0071567138e+00	-5.7740686501e-02
 2.5126116690e-01	 2.0129505376e+00	-1.0925419549e-02
 2.0873981509e-01	 2.0178031942e+00	 2.6886275285e-02
 1.6644266881e-01	 2.0217316535e+00	 5.5841083604e-02
 1.2439578856e-01	 2.0247537452e+00	 7.6589722603e-02
 8.2624084445e-02	 2.0268880831e+00	 9.0519762268e-02
 4.1151299861e-02	 2.0281539910e+00	 9.9890822211e-02
 0.0000000000e+00	 2.0285714286e+00	 1.0790993067e-01
 4.2898665761e-01	 2.0119162960e+00	-2.4421230943e-01
 3.8524369043e-01	 2.0207483846e+00	-1.6312847688e-01
 3.4161122795e-01	 2.0285804159e+00	-9.5814220291e-02
 2.9812009170e-01	 2.0354265267e+00	-3.6029152403e-02
 2.5480005658e-01	 2.0413019536e+00	 1.5560294486e-02
 2.1167981249e-01	 2.0462229575e+00	 5.8217819093e-02
 1.6878693175e-01	 2.0502067472e+00	 9.1745678034e-02
 1.2614784192e-01	 2.0532714036e+00	 1.1675678043e-01
 8.3787803945e-02	 2.0554358026e+00	 1.3480587343e-01
 4.1730895634e-02	 2.0567195402e+00	 1.4842725567e-01
 0.0000000000e+00	 2.0571428571e+00	 1.6112052417e-01
 4.3494480563e-01	 2.0398595779e+00	-2.2066182655e-01
 3.9059429724e-01	 2.0488143343e+00	-1.3962568244e-01
 3.4635582833e-01	 2.0567551439e+00	-6.9259335802e-02
 3.0226064853e-01	 2.0636963396e+00	-4.3511650008e-03
 2.5833894625e-01	 2.0696533696e+00	 5.3102199739e-02
 2.1461980988e-01	 2.0746427208e+00	 1.0156705767e-01
 1.7113119469e-01	 2.0786818409e+00	 1.4048528233e-01
 1.2789989528e-01	 2.0817890619e+00	 1.7043229582e-01
 8.4951523444e-02	 2.0839835221e+00	 1.9313452212e-01
 4.2310491407e-02	 2.0852850894e+00	 2.1139853137e-01
 0.0000000000e+00	 2.0857142857e+00	 2.2899735709e-01
 4.4090295365e-01	 2.0678028598e+00	-1.8676561500e-01
 3.9594490405e-01	 2.0768802841e+00	-1.0465799274e-01
 3.5110042872e-01	 2.0849298719e+00	-3.0068966333e-02
 3.0640120536e-01	 2.0919661524e+00	 4.1033657381e-02
 2.6187783593e-01	 2.0980047857e+00	 1.0517528916e-01
 2.1755980728e-01	 2.1030624841e+00	 1.6003250616e-01
 1.7347545764e-01	 2.1071569346e+00	 2.0472419383e-01
 1.2965194864e-01	 2.1103067203e+00	 2.3984145828e-01
 8.6115242943e-02	 2.1125312416e+00	 2.6733818235e-01
 4.2890087179e-02	 2.1138506385e+00	 2.9033955059e-01
 0.0000000000e+00	 2.1142857143e+00	 3.1291827104e-01
 4.4686110167e-01	 2.0957461417e+00	-1.3918810680e-01
 4.0129551087e-01	 2.1049462339e+00	-5.4623176515e-02
 3.5584502911e-01	 2.1131045999e+00	 2.5424131242e-02
 3.1054176219e-01	 2.1202359653e+00	 1.0370879891e-01
 2.6541672560e-01	 2.1263562017e+00	 1.7511492610e-01
 2.2049980468e-01	 2.1314822474e+00	 2.3659158624e-01
 1.7581972058e-01	 2.1356320284e+00	 2.8702725814e-01
 1.3140400200e-01	 2.1388243787e+00	 3.2713653536e-01
 8.7278962442e-02	 2.1410789610e+00	 3.5920951123e-01
 4.3469682952e-02	 2.1424161877e+00	 3.8678663321e-01
 0.0000000000e+00	 2.1428571429e+00	 4.1431328459e-01
 2.1428571429e+00	 0.0000000000e+00	 2.3035036299e+00
 2.1424161877e+00	 4.3469682952e-02	 2.3294176829e+00
 2.1410789610e+00	 8.7278962442e-02	 2.3389108817e+00
 2.1388243787e+00	 1.3140400200e-01	 2.3339830875e+00
 2.1356320284e+00	 1.7581972058e-01	 2.3162487580e+00
 2.1314822474e+00	 2.2049980468e-01	 2.2865368117e+00
 2.1263562017e+00	 2.6541672560e-01	 2.2445029765e+00
 2.1202359653e+00	 3.1054176219e-01	 2.1883151831e+00
 2.1131045999e+00	 3.5584502911e-01	 2.1144820482e+00
 2.1049462339e+00	 4.0129551087e-01	 2.0186088267e+00
 2.0957461417e+00	 4.4686110167e-01	 1.9078273295e+00
 2.1714285714e+00	 0.0000000000e+00	 2.2024297981e+00
 2.1709817369e+00	 4.4049278725e-02	 2.2282025420e+00
 2.1696266805e+00	 8.8442681942e-02	 2.2375079931e+00
 2.1673420371e+00	 1.3315605536e-01	 2.2327577971e+00
 2.1641071221e+00	 1.7816398352e-01	 2.2160977259e+00
 2.1599020107e+00	 2.2343980207e-01	 2.1888560413e+00
 2.1547076177e+00	 2.6895561528e-01	 2.1509891683e+00
 2.1485057782e+00	 3.1468231902e-01	 2.1005907358e+00
 2.1412793279e+00	 3.6058962950e-01	 2.0335406428e+00
 2.1330121837e+00	 4.0664611768e-01	 1.9439866018e+00
 2.1236894236e+00	 4.5281924970e-01	 1.8378498013e+00
 2.2000000000e+00	 0.0000000000e+00	 2.2021702606e+00
 2.1995472860e+00	 4.4628874497e-02	 2.2222315911e+00
 2.1981744000e+00	 8.9606401441e-02	 2.2240124092e+00
 2.1958596955e+00	 1.3490810872e-01	 2.2107945762e+00
 2.1925822158e+00	 1.8050824646e-01	 2.1857583201e+00
 2.1883217740e+00	 2.2637979947e-01	 2.1512623483e+00
 2.1830590337e+00	 2.7249450495e-01	 2.1081040358e+00
 2.1767755911e+00	 3.1882287585e-01	 2.0548316092e+00
 2.1694540559e+00	 3.6533422989e-01	 1.9871920545e+00
 2.1610781335e+00	 4.1199672449e-01	 1.8980578507e+00
 2.1516327055e+00	 4.5877739772e-01	 1.7922152576e+00
 2.2285714286e+00	 0.0000000000e+00	 2.2981729749e+00
 2.2281128352e+00	 4.5208470270e-02	 2.3075436901e+00
 2.2267221195e+00	 9.0770120940e-02	 2.2955364028e+00
 2.2243773539e+00	 1.3666016208e-01	 2.2660526854e+00
 2.2210573095e+00	 1.8285250940e-01	 2.2230724079e+00
 2.2167415373e+00	 2.2931979686e-01	 2.1711597950e+00
 2.2114104498e+00	 2.7603339463e-01	 2.1128679657e+00
 2.2050454039e+00	 3.2296343268e-01	 2.0477862111e+00
 2.1976287839e+00	 3.7007883028e-01	 1.9720806725e+00
 2.1891440833e+00	 4.1734733130e-01	 1.8774855648e+00
 2.1795759874e+00	 4.6473554574e-01	 1.7677227828e+00
 2.2571428571e+00	 0.0000000000e+00	 2.3925983873e+00
 2.2566783844e+00	 4.5788066043e-02	 2.3936617318e+00
 2.2552698390e+00	 9.1933840439e-02	 2.3727111718e+00
 2.2528950122e+00	 1.3841221543e-01	 2.3339247360e+00
 2.2495324032e+00	 1.8519677234e-01	 2.2815304510e+00
 2.2451613006e+00	 2.3225979426e-01	 2.2191851714e+00
 2.2397618658e+00	 2.7957228430e-01	 2.1492585148e+00
 2.2333152168e+00	 3.2710398951e-01	 2.0720074385e+00
 2.2258035119e+00	 3.7482343066e-01	 1.9845848305e+00
 2.2172100331e+00	 4.2269793811e-01	 1.8790999215e+00
 2.2075192693e+00	 4.7069369376e-01	 1.7613576721e+00
 2.2857142857e+00	 0.0000000000e+00	 2.4423190965e+00
 2.2852439336e+00	 4.6367661815e-02	 2.4383675811e+00
 2.2838175584e+00	 9.3097559938e-02	 2.4117737021e+00
 2.2814126706e+00	 1.4016426879e-01	 2.3669511913e+00
 2.2780074969e+00	 1.8754103528e-01	 2.3084212474e+00
 2.2735810639e+00	 2.3519979165e-01	 2.2402086772e+00
 2.2681132818e+00	 2.8311117397e-01	 2.1651419828e+00
 2.2615850297e+00	 3.3124454634e-01	 2.0840412474e+00
 2.2539782399e+00	 3.7956803105e-01	 1.9945842460e+00
 2.2452759828e+00	 4.2804854492e-01	 1.8878670457e+00
 2.2354625512e+00	 4.7665184178e-01	 1.7670028923e+00
 2.3142857143e+00	 0.0000000000e+00	 2.4480448135e+00
 2.3138094827e+00	 4.6947257588e-02	 2.4421897668e+00
 2.3123652779e+00	 9.4261279438e-02	 2.4131066931e+00
 2.3099303290e+00	 1.4191632215e-01	 2.3653938277e+00
 2.3064825906e+00	 1.8988529822e-01	 2.3038183294e+00
 2.3020008272e+00	 2.3813978905e-01	 2.2327340559e+00
 2.2964646978e+00	 2.8665006365e-01	 2.1554023686e+00
 2.2898548425e+00	 3.3538510317e-01	 2.0731980089e+00
 2.2821529678e+00	 3.8431263144e-01	 1.9842099066e+00
 2.2733419326e+00	 4.3339915173e-01	 1.8791472620e+00
 2.2634058331e+00	 4.8260998981e-01	 1.7607761588e+00
 2.3428571429e+00	 0.0000000000e+00	 2.4104128359e+00
 2.3423750319e+00	 4.7526853361e-02	 2.4056049546e+00
 2.3409129974e+00	 9.5424998937e-02	 2.3770608268e+00
 2.3384479874e+00	 1.4366837551e-01	 2.3295008549e+00
 2.3349576843e+00	 1.9222956116e-01	 2.2678794169e+00
 2.3304205905e+00	 2.4107978645e-01	 2.1968289088e+00
 2.3248161138e+00	 2.9018895332e-01	 2.1200061690e+00
 2.3181246554e+00	 3.3952566000e-01	 2.0393213831e+00
 2.3103276958e+00	 3.8905723183e-01	 1.9531412707e+00
 2.3014078824e+00	 4.3874975855e-01	 1.8518768079e+00
 2.2913491149e+00	 4.8856813783e-01	 1.7378927215e+00
 2.3714285714e+00	 0.0000000000e+00	 2.3299924102e+00
 2.3709405811e+00	 4.8106449134e-02	 2.3290413529e+00
 2.3694607169e+00	 9.6588718436e-02	 2.3039572977e+00
 2.3669656458e+00	 1.4542042887e-01	 2.2595086354e+00
 2.3634327780e+00	 1.9457382410e-01	 2.2007659674e+00
 2.3588403538e+00	 2.4401978384e-01	 2.1325773711e+00
 2.3531675299e+00	 2.9372784300e-01	 2.0589456957e+00
 2.3463944683e+00	 3.4366621683e-01	 1.9822859041e+00
 2.3385024238e+00	 3.9380183222e-01	 1.9010965740e+00
 2.3294738322e+00	 4.4410036536e-01	 1.8056131876e+00
 2.3192923968e+00	 4.9452628585e-01	 1.6977479178e+00
 2.4000000000e+00	 0.0000000000e+00	 2.2072887823e+00
 2.3995061302e+00	 4.8686044906e-02	 2.2128818766e+00
 2.3980084364e+00	 9.7752437935e-02	 2.1940901642e+00
 2.3954833042e+00	 1.4717248223e-01	 2.1556432832e+00
 2.3919078718e+00	 1.9691808705e-01	 2.1026440666e+00
 2.3872601170e+00	 2.4695978124e-01	 2.0400803226e+00
 2.3815189459e+00	 2.9726673267e-01	 1.9722386177e+00
 2.3746642812e+00	 3.4780677366e-01	 1.9019958508e+00
 2.3666771518e+00	 3.9854643260e-01	 1.8278306836e+00
 2.3575397820e+00	 4.4945097217e-01	 1.7399516680e+00
 2.3472356787e+00	 5.0048443387e-01	 1.6397754237e+00
 2.4285714286e+00	 0.0000000000e+00	 2.0427469621e+00
 2.4280716794e+00	 4.9265640679e-02	 2.0574670875e+00
 2.4265561558e+00	 9.8916157435e-02	 2.0477285350e+00
 2.4240009625e+00	 1.4892453559e-01	 2.0181221515e+00
 2.4203829655e+00	 1.9926234999e-01	 1.9736852572e+00
 2.4156798803e+00	 2.4989977863e-01	 1.9194555805e+00
 2.4098703619e+00	 3.0080562235e-01	 1.8599275251e+00
 2.4029340940e+00	 3.5194733048e-01	 1.7983841717e+00
 2.3948518798e+00	 4.0329103299e-01	 1.7331330349e+00
 2.3856057318e+00	 4.5480157898e-01	 1.6545228081e+00
 2.3751789606e+00	 5.0644258190e-01	 1.5634444908e+00
 2.0957461417e+00	 4.4686110167e-01	 1.9078273295e+00
 2.0854908207e+00	 4.9250865123e-01	 1.7877115448e+00
 2.0741680673e+00	 5.3820401645e-01	 1.6538393843e+00
 2.0617670508e+00	 5.8391211910e-01	 1.5086528188e+00
 2.0482783845e+00	 6.2959700938e-01	 1.3553511532e+00
 2.0336941935e+00	 6.7522193528e-01	 1.1979484804e+00
 2.0180081793e+00	 7.2074941755e-01	 1.0412151634e+00
 2.0012156798e+00	 7.6614133018e-01	 8.8847293663e-01
 1.9833137247e+00	 8.1135898606e-01	 7.3294628125e-01
 1.9643010862e+00	 8.5636322757e-01	 5.7241187213e-01
 1.9441783235e+00	 9.0111452171e-01	 4.0580185479e-01
 2.1236894236e+00	 4.5281924970e-01	 1.8378498013e+00
 2.1132973650e+00	 4.9907543325e-01	 1.7210289817e+00
 2.1018236415e+00	 5.4538007000e-01	 1.5903942878e+00
 2.0892572782e+00	 5.9169761402e-01	 1.4482647846e+00
 2.0755887630e+00	 6.3799163617e-01	 1.2978079433e+00
 2.0608101161e+00	 6.8422489442e-01	 1.1431492125e+00
 2.0449149550e+00	 7.3035940978e-01	 9.8935446451e-01
 2.0278985555e+00	 7.7635654792e-01	 8.3862681416e-01
 2.0097579077e+00	 8.2217710588e-01	 6.8527515344e-01
 1.9904917673e+00	 8.6778140393e-01	 5.2827670590e-01
 1.9701007011e+00	 9.1312938200e-01	 3.6699649138e-01
 2.1516327055e+00	 4.5877739772e-01	 1.7922152576e+00
 2.1411039092e+00	 5.0564221527e-01	 1.6755109450e+00
 2.1294792158e+00	 5.5255612355e-01	 1.5457382010e+00
 2.1167475055e+00	 5.9948310894e-01	 1.4048604577e+00
 2.1028991414e+00	 6.4638626297e-01	 1.2558042099e+00
 2.0879260387e+00	 6.9322785355e-01	 1.1026276157e+00
 2.0718217308e+00	 7.3996940202e-01	 9.5054988100e-01
 2.0545814312e+00	 7.8657176565e-01	 8.0027359850e-01
 2.0362020907e+00	 8.3299522569e-01	 6.4786988079e-01
 2.0166824485e+00	 8.7919958030e-01	 4.9297724329e-01
 1.9960230788e+00	 9.2514424229e-01	 3.3538576744e-01
 2.1795759874e+00	 4.6473554574e-01	 1.7677227828e+00
 2.1689104535e+00	 5.1220899728e-01	 1.6481472224e+00
 2.1571347900e+00	 5.5973217711e-01	 1.5170810784e+00
 2.1442377329e+00	 6.0726860386e-01	 1.3758804819e+00
 2.1302095199e+00	 6.5478088976e-01	 1.2270051304e+00
 2.1150419613e+00	 7.0223081269e-01	 1.0742532851e+00
 2.0987285065e+00	 7.4957939425e-01	 9.2269933224e-01
 2.0812643069e+00	 7.9678698339e-01	 7.7170116335e-01
 2.0626462736e+00	 8.4381334550e-01	 6.1914329343e-01
 2.0428731296e+00	 8.9061775667e-01	 4.6506360387e-01
 2.0219454564e+00	 9.3715910258e-01	 3.0966839115e-01
 2.2075192693e+00	 4.7069369376e-01	 1.7613576721e+00
 2.1967169978e+00	 5.1877577930e-01	 1.6361275134e+00
 2.1847903642e+00	 5.6690823066e-01	 1.5018405382e+00
 2.1717279602e+00	 6.1505409878e-01	 1.3589742318e+00
 2.1575198984e+00	 6.6317551655e-01	 1.2092784013e+00
 2.1421578839e+00	 7.1123377183e-01	 1.0560844015e+00
 2.1256352822e+00	 7.5918938649e-01	 9.0387877311e-01
 2.1079471827e+00	 8.0700220112e-01	 7.5133767498e-01
 2.0890904566e+00	 8.5463146532e-01	 5.9764492810e-01
 2.0690638108e+00	 9.0203593304e-01	 4.4321690182e-01
 2.0478678341e+00	 9.4917396286e-01	 2.8866631447e-01
 2.2354625512e+00	 4.7665184178e-01	 1.7670028923e+00
 2.2245235421e+00	 5.2534256131e-01	 1.6367498109e+00
 2.2124459384e+00	 5.7408428421e-01	 1.4976330973e+00
 2.1992181875e+00	 6.2283959370e-01	 1.3519893373e+00
 2.1848302768e+00	 6.7157014334e-01	 1.2006818899e+00
 2.1692738064e+00	 7.2023673097e-01	 1.0463533471e+00
 2.1525420579e+00	 7.6879937872e-01	 8.9254064616e-01
 2.1346300584e+00	 8.1721741886e-01	 7.3774464355e-01
 2.1155346396e+00	 8.6544958513e-01	 5.8205367720e-01
 2.0952544919e+00	 9.1345410941e-01	 4.2624152286e-01
 2.0737902117e+00	 9.6118882315e-01	 2.7131667111e-01
 2.2634058331e+00	 4.8260998981e-01	 1.7607761588e+00
 2.2523300863e+00	 5.3190934333e-01	 1.6336780182e+00
 2.2401015127e+00	 5.8126033777e-01	 1.4978387015e+00
 2.2267084149e+00	 6.3062508863e-01	 1.3527035806e+00
 2.2121406553e+00	 6.7996477013e-01	 1.1994515256e+00
 2.1963897290e+00	 7.2923969010e-01	 1.0434525643e+00
 2.1794488337e+00	 7.7840937095e-01	 8.8726752309e-01
 2.1613129341e+00	 8.2743263659e-01	 7.2961020853e-01
 2.1419788226e+00	 8.7626770495e-01	 5.7117066082e-01
 2.1214451731e+00	 9.2487228577e-01	 4.1305760855e-01
 2.0997125894e+00	 9.7320368344e-01	 2.5666390159e-01
 2.2913491149e+00	 4.8856813783e-01	 1.7378927215e+00
 2.2801366306e+00	 5.3847612535e-01	 1.6155222684e+00
 2.2677570869e+00	 5.8843639132e-01	 1.4854672689e+00
 2.2541986422e+00	 6.3841058355e-01	 1.3471452774e+00
 2.2394510337e+00	 6.8835939692e-01	 1.2003577998e+00
 2.2235056516e+00	 7.3824264924e-01	 1.0459007049e+00
 2.2063556094e+00	 7.8801936319e-01	 8.8676482121e-01
 2.1879958099e+00	 8.3764785433e-01	 7.2574263838e-01
 2.1684230056e+00	 8.8708582476e-01	 5.6391230278e-01
 2.1476358542e+00	 9.3629046214e-01	 4.0269373009e-01
 2.1256349670e+00	 9.8521854373e-01	 2.4385204931e-01
 2.3192923968e+00	 4.9452628585e-01	 1.6977479178e+00
 2.3079431749e+00	 5.4504290736e-01	 1.5815212034e+00
 2.2954126611e+00	 5.9561244487e-01	 1.4582669853e+00
 2.2816888696e+00	 6.4619607847e-01	 1.3274246691e+00
 2.2667614122e+00	 6.9675402372e-01	 1.1887046965e+00
 2.2506215742e+00	 7.4724560838e-01	 1.0426577754e+00
 2.2332623851e+00	 7.9762935542e-01	 8.8838231752e-01
 2.2146786856e+00	 8.4786307207e-01	 7.2506402628e-01
 2.1948671886e+00	 8.9790394458e-01	 5.5930359345e-01
 2.1738265354e+00	 9.4770863851e-01	 3.9427973573e-01
 2.1515573446e+00	 9.9723340402e-01	 2.3211721314e-01
 2.3472356787e+00	 5.0048443387e-01	 1.6397754237e+00
 2.3357497192e+00	 5.5160968938e-01	 1.5309525810e+00
 2.3230682354e+00	 6.0278849842e-01	 1.4153727065e+00
 2.3091790969e+00	 6.5398157339e-01	 1.2925562957e+00
 2.2940717907e+00	 7.0514865051e-01	 1.1621663505e+00
 2.2777374968e+00	 7.5624856751e-01	 1.0244455311e+00
 2.2601691608e+00	 8.0723934766e-01	 8.7806275907e-01
 2.2413615613e+00	 8.5807828980e-01	 7.2215448541e-01
 2.2213113716e+00	 9.0872206439e-01	 5.5647152371e-01
 2.2000172165e+00	 9.5912681488e-01	 3.8703975731e-01
 2.1774797223e+00	 1.0092482643e+00	 2.2078014370e-01
 2.3751789606e+00	 5.0644258190e-01	 1.5634444908e+00
 2.3635562634e+00	 5.5817647140e-01	 1.4631303350e+00
 2.3507238096e+00	 6.0996455198e-01	 1.3559570897e+00
 2.3366693243e+00	 6.6176706831e-01	 1.2415956600e+00
 2.3213821691e+00	 7.1354327730e-01	 1.1197138904e+00
 2.3048534193e+00	 7.6525152665e-01	 9.9022946880e-01
 2.2870759366e+00	 8.1684933989e-01	 8.5174670517e-01
 2.2680444371e+00	 8.6829350754e-01	 7.0392680029e-01
 2.2477555546e+00	 9.1954018420e-01	 5.4666631397e-01
 2.2262078977e+00	 9.7054499124e-01	 3.8009134659e-01
 2.2034020999e+00	 1.0212631246e+00	 2.0923897126e-01
 1.9441783235e+00	 9.0111452171e-01	 4.0580185479e-01
 1.9229478214e+00	 9.4557305947e-01	 2.3136621391e-01
 1.9006138228e+00	 9.8969885890e-01	 4.9486598902e-02
 1.8771824536e+00	 1.0334518714e+00	-1.3778308352e-01
 1.8526617412e+00	 1.0767920910e+00	-3.2871962244e-01
 1.8270616251e+00	 1.1196796653e+00	-5.1496997978e-01
 1.8003939595e+00	 1.1620750084e+00	-6.8643587939e-01
 1.7726725089e+00	 1.2039389149e+00	-8.4304875472e-01
 1.7439129344e+00	 1.2452326738e+00	-9.8579509532e-01
 1.7141327729e+00	 1.2859181823e+00	-1.1158323925e+00
 1.6833514078e+00	 1.3259580583e+00	-1.2344466868e+00
 1.9701007011e+00	 9.1312938200e-01	 3.6699649138e-01
 1.9485871257e+00	 9.5818070026e-01	 1.9952632754e-01
 1.9259553404e+00	 1.0028948437e+00	 2.5785663997e-02
 1.9022115530e+00	 1.0472312297e+00	-1.5218022790e-01
 1.8773638978e+00	 1.0911493189e+00	-3.3264137303e-01
 1.8514224468e+00	 1.1346087275e+00	-5.1403421169e-01
 1.8243992123e+00	 1.1775693418e+00	-6.8651330355e-01
 1.7963081424e+00	 1.2199914338e+00	-8.4309291648e-01
 1.7671651069e+00	 1.2618357761e+00	-9.8490853997e-01
 1.7369878766e+00	 1.3030637580e+00	-1.1132540233e+00
 1.7057960933e+00	 1.3436374991e+00	-1.2295311519e+00
 1.9960230788e+00	 9.2514424229e-01	 3.3538576744e-01
 1.9742264300e+00	 9.7078834106e-01	 1.7316556334e-01
 1.9512968581e+00	 1.0160908285e+00	 5.9088240440e-03
 1.9272406524e+00	 1.0610105880e+00	-1.6434796886e-01
 1.9020660543e+00	 1.1055065468e+00	-3.3586450357e-01
 1.8757832684e+00	 1.1495377897e+00	-5.0646741185e-01
 1.8484044651e+00	 1.1930636753e+00	-6.7525837950e-01
 1.8199437758e+00	 1.2360439526e+00	-8.3351814007e-01
 1.7904172793e+00	 1.2784388785e+00	-9.7606720489e-01
 1.7598429802e+00	 1.3202093338e+00	-1.1043594789e+00
 1.7282407787e+00	 1.3613169399e+00	-1.2199343867e+00
 2.0219454564e+00	 9.3715910258e-01	 3.0966839115e-01
 1.9998657343e+00	 9.8339598185e-01	 1.5112939487e-01
 1.9766383757e+00	 1.0292868133e+00	-1.1165811176e-02
 1.9522697517e+00	 1.0747899463e+00	-1.7518870989e-01
 1.9267682109e+00	 1.1198637747e+00	-3.3911571887e-01
 1.9001440901e+00	 1.1644668519e+00	-4.9996378285e-01
 1.8724097179e+00	 1.2085580087e+00	-6.5820401922e-01
 1.8435794093e+00	 1.2520964715e+00	-8.1517762352e-01
 1.8136694518e+00	 1.2950419808e+00	-9.6006165048e-01
 1.7826980838e+00	 1.3373549096e+00	-1.0898860298e+00
 1.7506854641e+00	 1.3789963807e+00	-1.2063516659e+00
 2.0478678341e+00	 9.4917396286e-01	 2.8866631447e-01
 2.0255050386e+00	 9.9600362264e-01	 1.3237750871e-01
 2.0019798933e+00	 1.0424827980e+00	-2.6355454817e-02
 1.9772988511e+00	 1.0885693046e+00	-1.8551006379e-01
 1.9514703674e+00	 1.1342210025e+00	-3.4279932694e-01
 1.9245049118e+00	 1.1793959141e+00	-4.9505467006e-01
 1.8964149707e+00	 1.2240523422e+00	-6.4379645438e-01
 1.8672150427e+00	 1.2681489904e+00	-7.9134642170e-01
 1.8369216242e+00	 1.3116450831e+00	-9.3764275614e-01
 1.8055531875e+00	 1.3545004853e+00	-1.0705267295e+00
 1.7731301496e+00	 1.3966758215e+00	-1.1894302629e+00
 2.0737902117e+00	 9.6118882315e-01	 2.7131667111e-01
 2.0511443428e+00	 1.0086112634e+00	 1.1597540008e-01
 2.0273214110e+00	 1.0556787828e+00	-4.0481428546e-02
 2.0023279505e+00	 1.1023486629e+00	-1.9603405239e-01
 1.9761725240e+00	 1.1485782304e+00	-3.4743518316e-01
 1.9488657334e+00	 1.1943249763e+00	-4.9218444813e-01
 1.9204202235e+00	 1.2395466756e+00	-6.3250609854e-01
 1.8908506762e+00	 1.2842015092e+00	-7.7100518647e-01
 1.8601737967e+00	 1.3282481854e+00	-9.1019287319e-01
 1.8284082911e+00	 1.3716460611e+00	-1.0469214502e+00
 1.7955748350e+00	 1.4143552622e+00	-1.1697601514e+00
 2.0997125894e+00	 9.7320368344e-01	 2.5666390159e-01
 2.0767836471e+00	 1.0212189042e+00	 1.0108613363e-01
 2.0526629286e+00	 1.0688747676e+00	-5.4277803062e-02
 2.0273570499e+00	 1.1161280212e+00	-2.0737267436e-01
 2.0008746805e+00	 1.1629354583e+00	-3.5349160264e-01
 1.9732265551e+00	 1.2092540385e+00	-4.9171971984e-01
 1.9444254763e+00	 1.2550410091e+00	-6.2459248474e-01
 1.9144863096e+00	 1.3002540281e+00	-7.5502578362e-01
 1.8834259691e+00	 1.3448512877e+00	-8.8591200235e-01
 1.8512633948e+00	 1.3887916368e+00	-1.0196478725e+00
 1.8180195204e+00	 1.4320347030e+00	-1.1478646684e+00
 2.1256349670e+00	 9.8521854373e-01	 2.4385204931e-01
 2.1024229514e+00	 1.0338265450e+00	 8.6962255413e-02
 2.0780044463e+00	 1.0820707524e+00	-6.8399905943e-02
 2.0523861493e+00	 1.1299073795e+00	-2.1970683912e-01
 2.0255768371e+00	 1.1772926862e+00	-3.6136668283e-01
 1.9975873768e+00	 1.2241831007e+00	-4.9395632144e-01
 1.9684307291e+00	 1.2705353425e+00	-6.2024230976e-01
 1.9381219431e+00	 1.3163065470e+00	-7.4348040401e-01
 1.9066781416e+00	 1.3614543900e+00	-8.6698469177e-01
 1.8741184984e+00	 1.4059372126e+00	-9.9362519400e-01
 1.8404642059e+00	 1.4497141438e+00	-1.1241911433e+00
 2.1515573446e+00	 9.9723340402e-01	 2.3211721314e-01
 2.1280622557e+00	 1.0464341858e+00	 7.2937843282e-02
 2.1033459639e+00	 1.0952667372e+00	-8.3432708016e-02
 2.0774152486e+00	 1.1436867377e+00	-2.3336882379e-01
 2.0502789936e+00	 1.1916499141e+00	-3.7139536335e-01
 2.0219481984e+00	 1.2391121629e+00	-4.9912624969e-01
 1.9924359819e+00	 1.2860296760e+00	-6.1957619654e-01
 1.9617575765e+00	 1.3323590658e+00	-7.3637141589e-01
 1.9299303141e+00	 1.3780574924e+00	-8.5329052327e-01
 1.8969736020e+00	 1.4230827884e+00	-9.7372696717e-01
 1.8629088913e+00	 1.4673935846e+00	-1.1000858413e+00
 2.1774797223e+00	 1.0092482643e+00	 2.2078014370e-01
 2.1537015600e+00	 1.0590418266e+00	 5.8420684127e-02
 2.1286874815e+00	 1.1084627220e+00	-9.9899098359e-02
 2.1024443480e+00	 1.1574660960e+00	-2.4873040304e-01
 2.0749811502e+00	 1.2060071419e+00	-3.8385640199e-01
 2.0463090201e+00	 1.2540412251e+00	-5.0740451681e-01
 2.0164412347e+00	 1.3015240094e+00	-6.2265539538e-01
 1.9853932100e+00	 1.3484115847e+00	-7.3363787916e-01
 1.9531824865e+00	 1.3946605947e+00	-8.4464036294e-01
 1.9198287057e+00	 1.4402283641e+00	-9.5963621565e-01
 1.8853535768e+00	 1.4850730253e+00	-1.0815716396e+00
 2.2034020999e+00	 1.0212631246e+00	 2.0923897126e-01
 2.1793408643e+00	 1.0716494674e+00	 4.2884567529e-02
 2.1540289992e+00	 1.1216587068e+00	-1.1806866122e-01
 2.1274734474e+00	 1.1712454543e+00	-2.6611336382e-01
 2.0996833067e+00	 1.2203643698e+00	-3.9897927363e-01
 2.0706698418e+00	 1.2689702873e+00	-5.1891593949e-01
 2.0404464875e+00	 1.3170183428e+00	-6.2948842907e-01
 2.0090288434e+00	 1.3644641036e+00	-7.3516201232e-01
 1.9764346590e+00	 1.4112636970e+00	-8.4078261604e-01
 1.9426838093e+00	 1.4573739399e+00	-9.5096333480e-01
 1.9077982622e+00	 1.5027524661e+00	-1.0670259942e+00
 1.6833514078e+00	 1.3259580583e+00	-1.2344466868e+00
 1.6515900314e+00	 1.3653157521e+00	-1.3441377650e+00
 1.6188715996e+00	 1.4039556541e+00	-1.4445606145e+00
 1.5852207788e+00	 1.4418432013e+00	-1.5328258329e+00
 1.5506638852e+00	 1.4789449786e+00	-1.6060946556e+00
 1.5152288168e+00	 1.5152288168e+00	-1.6620431011e+00
 1.4789449786e+00	 1.5506638852e+00	-1.7013799676e+00
 1.4418432013e+00	 1.5852207788e+00	-1.7305490943e+00
 1.4039556541e+00	 1.6188715996e+00	-1.7499434482e+00
 1.3653157521e+00	 1.6515900314e+00	-1.7539668665e+00
 1.3259580583e+00	 1.6833514078e+00	-1.7368084743e+00
 1.7057960933e+00	 1.3436374991e+00	-1.2295311519e+00
 1.6736112318e+00	 1.3835199621e+00	-1.3362626599e+00
 1.6404565543e+00	 1.4226750628e+00	-1.4332536876e+00
 1.6063570559e+00	 1.4610677773e+00	-1.5178823756e+00
 1.5713394037e+00	 1.4986642450e+00	-1.5873322935e+00
 1.5354318677e+00	 1.5354318677e+00	-1.6391923437e+00
 1.4986642450e+00	 1.5713394037e+00	-1.6752007948e+00
 1.4610677773e+00	 1.6063570559e+00	-1.6985774630e+00
 1.4226750628e+00	 1.6404565543e+00	-1.7135384987e+00
 1.3835199621e+00	 1.6736112318e+00	-1.7153583979e+00
 1.3436374991e+00	 1.7057960933e+00	-1.6981582985e+00
 1.7282407787e+00	 1.3613169399e+00	-1.2199343867e+00
 1.6956324322e+00	 1.4017241721e+00	-1.3253821106e+00
 1.6620415089e+00	 1.4413944716e+00	-1.4206770908e+00
 1.6274933329e+00	 1.4802923533e+00	-1.5034431772e+00
 1.5920149222e+00	 1.5183835114e+00	-1.5695703722e+00
 1.5556349186e+00	 1.5556349186e+00	-1.6179151898e+00
 1.5183835114e+00	 1.5920149222e+00	-1.6511789680e+00
 1.4802923533e+00	 1.6274933329e+00	-1.6719904784e+00
 1.4413944716e+00	 1.6620415089e+00	-1.6840612463e+00
 1.4017241721e+00	 1.6956324322e+00	-1.6852388076e+00
 1.3613169399e+00	 1.7282407787e+00	-1.6695301911e+00
 1.7506854641e+00	 1.3789963807e+00	-1.2063516659e+00
 1.7176536327e+00	 1.4199283822e+00	-1.3121578227e+00
 1.6836264636e+00	 1.4601138803e+00	-1.4074649184e+00
 1.6486296100e+00	 1.4995169293e+00	-1.4893862530e+00
 1.6126904406e+00	 1.5381027777e+00	-1.5522247149e+00
 1.5758379695e+00	 1.5758379695e+00	-1.5975957113e+00
 1.5381027777e+00	 1.6126904406e+00	-1.6286448515e+00
 1.4995169293e+00	 1.6486296100e+00	-1.6484094183e+00
 1.4601138803e+00	 1.6836264636e+00	-1.6595766067e+00
 1.4199283822e+00	 1.7176536327e+00	-1.6617090354e+00
 1.3789963807e+00	 1.7506854641e+00	-1.6490475383e+00
 1.7731301496e+00	 1.3966758215e+00	-1.1894302629e+00
 1.7396748331e+00	 1.4381325922e+00	-1.2972008080e+00
 1.7052114182e+00	 1.4788332890e+00	-1.3941992442e+00
 1.6697658870e+00	 1.5187415054e+00	-1.4746769495e+00
 1.6333659591e+00	 1.5578220441e+00	-1.5347375424e+00
 1.5960410204e+00	 1.5960410204e+00	-1.5776393004e+00
 1.5578220441e+00	 1.6333659591e+00	-1.6069715492e+00
 1.5187415054e+00	 1.6697658870e+00	-1.6261823391e+00
 1.4788332890e+00	 1.7052114182e+00	-1.6381380306e+00
 1.4381325922e+00	 1.7396748331e+00	-1.6428575292e+00
 1.3966758215e+00	 1.7731301496e+00	-1.6348157959e+00
 1.7955748350e+00	 1.4143552622e+00	-1.1697601514e+00
 1.7616960335e+00	 1.4563368022e+00	-1.2810618024e+00
 1.7267963729e+00	 1.4975526977e+00	-1.3804801095e+00
 1.6909021641e+00	 1.5379660814e+00	-1.4588181367e+00
 1.6540414776e+00	 1.5775413105e+00	-1.5165725552e+00
 1.6162440713e+00	 1.6162440713e+00	-1.5574684404e+00
 1.5775413105e+00	 1.6540414776e+00	-1.5855452376e+00
 1.5379660814e+00	 1.6909021641e+00	-1.6046657083e+00
 1.4975526977e+00	 1.7267963729e+00	-1.6180377900e+00
 1.4563368022e+00	 1.7616960335e+00	-1.6267955691e+00
 1.4143552622e+00	 1.7955748350e+00	-1.6249573464e+00
 1.8180195204e+00	 1.4320347030e+00	-1.1478646684e+00
 1.7837172339e+00	 1.4745410123e+00	-1.2642216544e+00
 1.7483813276e+00	 1.5162721064e+00	-1.3647182605e+00
 1.7120384411e+00	 1.5571906574e+00	-1.4413381150e+00
 1.6747169961e+00	 1.5972605769e+00	-1.4972112474e+00
 1.6364471222e+00	 1.6364471222e+00	-1.5365184817e+00
 1.5972605769e+00	 1.6747169961e+00	-1.5637604290e+00
 1.5571906574e+00	 1.7120384411e+00	-1.5832229396e+00
 1.5162721064e+00	 1.7483813276e+00	-1.5984568250e+00
 1.4745410123e+00	 1.7837172339e+00	-1.6116926263e+00
 1.4320347030e+00	 1.8180195204e+00	-1.6176463941e+00
 1.8404642059e+00	 1.4497141438e+00	-1.1241911433e+00
 1.8057384343e+00	 1.4927452223e+00	-1.2465069480e+00
 1.7699662822e+00	 1.5349915152e+00	-1.3464882895e+00
 1.7331747182e+00	 1.5764152334e+00	-1.4217849743e+00
 1.6953925145e+00	 1.6169798433e+00	-1.4761492175e+00
 1.6566501731e+00	 1.6566501731e+00	-1.5142334217e+00
 1.6169798433e+00	 1.6953925145e+00	-1.5410152465e+00
 1.5764152334e+00	 1.7331747182e+00	-1.5612166241e+00
 1.5349915152e+00	 1.7699662822e+00	-1.5787385040e+00
 1.4927452223e+00	 1.8057384343e+00	-1.5961324876e+00
 1.4497141438e+00	 1.8404642059e+00	-1.6111438971e+00
 1.8629088913e+00	 1.4673935846e+00	-1.1000858413e+00
 1.8277596347e+00	 1.5109494323e+00	-1.2257613504e+00
 1.7915512369e+00	 1.5537109239e+00	-1.3254096814e+00
 1.7543109952e+00	 1.5956398094e+00	-1.3997234409e+00
 1.7160680330e+00	 1.6366991097e+00	-1.4528924763e+00
 1.6768532240e+00	 1.6768532240e+00	-1.4900616897e+00
 1.6366991097e+00	 1.7160680330e+00	-1.5167067104e+00
 1.5956398094e+00	 1.7543109952e+00	-1.5380033528e+00
 1.5537109239e+00	 1.7915512369e+00	-1.5582143716e+00
 1.5109494323e+00	 1.8277596347e+00	-1.5801163497e+00
 1.4673935846e+00	 1.8629088913e+00	-1.6024669963e+00
 1.8853535768e+00	 1.4850730253e+00	-1.0815716396e+00
 1.8497808352e+00	 1.5291536423e+00	-1.2014747445e+00
 1.8131361915e+00	 1.5724303326e+00	-1.3011221965e+00
 1.7754472723e+00	 1.6148643854e+00	-1.3747317145e+00
 1.7367435515e+00	 1.6564183760e+00	-1.4269537512e+00
 1.6970562748e+00	 1.6970562748e+00	-1.4634519355e+00
 1.6564183760e+00	 1.7367435515e+00	-1.4902260354e+00
 1.6148643854e+00	 1.7754472723e+00	-1.5129285540e+00
 1.5724303326e+00	 1.8131361915e+00	-1.5362003057e+00
 1.5291536423e+00	 1.8497808352e+00	-1.5630495863e+00
 1.4850730253e+00	 1.8853535768e+00	-1.5819888438e+00
 1.9077982622e+00	 1.5027524661e+00	-1.0670259942e+00
 1.8718020356e+00	 1.5473578524e+00	-1.1760728443e+00
 1.8347211462e+00	 1.5911497413e+00	-1.2732832323e+00
 1.7965835493e+00	 1.6340889615e+00	-1.3463982960e+00
 1.7574190699e+00	 1.6761376424e+00	-1.3978487882e+00
 1.7172593257e+00	 1.7172593257e+00	-1.4338488210e+00
 1.6761376424e+00	 1.7574190699e+00	-1.4609539367e+00
 1.6340889615e+00	 1.7965835493e+00	-1.4853213471e+00
 1.5911497413e+00	 1.8347211462e+00	-1.5119909568e+00
 1.5473578524e+00	 1.8718020356e+00	-1.5401606268e+00
 1.5027524661e+00	 1.9077982622e+00	-1.5491179310e+00
 1.3259580583e+00	 1.6833514078e+00	-1.7368084743e+00
 1.2859181823e+00	 1.7141327729e+00	-1.7055318196e+00
 1.2452326738e+00	 1.7439129344e+00	-1.6706322087e+00
 1.2039389149e+00	 1.7726725089e+00	-1.6317632304e+00
 1.1620750084e+00	 1.8003939595e+00	-1.5890341488e+00
 1.1196796653e+00	 1.8270616251e+00	-1.5430836469e+00
 1.0767920910e+00	 1.8526617412e+00	-1.4934929525e+00
 1.0334518714e+00	 1.8771824536e+00	-1.4309634188e+00
 9.8969885890e-01	 1.9006138228e+00	-1.3518522772e+00
 9.4557305947e-01	 1.9229478214e+00	-1.2596811683e+00
 9.0111452171e-01	 1.9441783235e+00	-1.1571856867e+00
 1.3436374991e+00	 1.7057960933e+00	-1.6981582985e+00
 1.3030637580e+00	 1.7369878766e+00	-1.6683515873e+00
 1.2618357761e+00	 1.7671651069e+00	-1.6356844829e+00
 1.2199914338e+00	 1.7963081424e+00	-1.5997165313e+00
 1.1775693418e+00	 1.8243992123e+00	-1.5605688940e+00
 1.1346087275e+00	 1.8514224468e+00	-1.5189921996e+00
 1.0911493189e+00	 1.8773638978e+00	-1.4673768841e+00
 1.0472312297e+00	 1.9022115530e+00	-1.3972465203e+00
 1.0028948437e+00	 1.9259553404e+00	-1.3122867439e+00
 9.5818070026e-01	 1.9485871257e+00	-1.2158203039e+00
 9.1312938200e-01	 1.9701007011e+00	-1.1104032433e+00
 1.3613169399e+00	 1.7282407787e+00	-1.6695301911e+00
 1.3202093338e+00	 1.7598429802e+00	-1.6427334288e+00
 1.2784388785e+00	 1.7904172793e+00	-1.6139229642e+00
 1.2360439526e+00	 1.8199437758e+00	-1.5826038096e+00
 1.1930636753e+00	 1.8484044651e+00	-1.5489610323e+00
 1.1495377897e+00	 1.8757832684e+00	-1.5063604725e+00
 1.1055065468e+00	 1.9020660543e+00	-1.4455667652e+00
 1.0610105880e+00	 1.9272406524e+00	-1.3688905793e+00
 1.0160908285e+00	 1.9512968581e+00	-1.2793042370e+00
 9.7078834106e-01	 1.9742264300e+00	-1.1799208118e+00
 9.2514424229e-01	 1.9960230788e+00	-1.0731097539e+00
 1.3789963807e+00	 1.7506854641e+00	-1.6490475383e+00
 1.3373549096e+00	 1.7826980838e+00	-1.6268044711e+00
 1.2950419808e+00	 1.8136694518e+00	-1.6034552232e+00
 1.2520964715e+00	 1.8435794093e+00	-1.5784935160e+00
 1.2085580087e+00	 1.8724097179e+00	-1.5467033556e+00
 1.1644668519e+00	 1.9001440901e+00	-1.4950396439e+00
 1.1198637747e+00	 1.9267682109e+00	-1.4263324717e+00
 1.0747899463e+00	 1.9522697517e+00	-1.3441241007e+00
 1.0292868133e+00	 1.9766383757e+00	-1.2511081630e+00
 9.8339598185e-01	 1.9998657343e+00	-1.1501463254e+00
 9.3715910258e-01	 2.0219454564e+00	-1.0434145187e+00
 1.3966758215e+00	 1.7731301496e+00	-1.6348157959e+00
 1.3545004853e+00	 1.8055531875e+00	-1.6186645135e+00
 1.3116450831e+00	 1.8369216242e+00	-1.6023487411e+00
 1.2681489904e+00	 1.8672150427e+00	-1.5823717316e+00
 1.2240523422e+00	 1.8964149707e+00	-1.5425011712e+00
 1.1793959141e+00	 1.9245049118e+00	-1.4830579867e+00
 1.1342210025e+00	 1.9514703674e+00	-1.4079322490e+00
 1.0885693046e+00	 1.9772988511e+00	-1.3211972086e+00
 1.0424827980e+00	 2.0019798933e+00	-1.2259289285e+00
 9.9600362264e-01	 2.0255050386e+00	-1.1246925234e+00
 9.4917396286e-01	 2.0478678341e+00	-1.0194636505e+00
 1.4143552622e+00	 1.7955748350e+00	-1.6249573464e+00
 1.3716460611e+00	 1.8284082911e+00	-1.6164202332e+00
 1.3282481854e+00	 1.8601737967e+00	-1.6078008124e+00
 1.2842015092e+00	 1.8908506762e+00	-1.5820024501e+00
 1.2395466756e+00	 1.9204202235e+00	-1.5344623322e+00
 1.1943249763e+00	 1.9488657334e+00	-1.4685766619e+00
 1.1485782304e+00	 1.9761725240e+00	-1.3884465797e+00
 1.1023486629e+00	 2.0023279505e+00	-1.2983831990e+00
 1.0556787828e+00	 2.0273214110e+00	-1.2020252188e+00
 1.0086112634e+00	 2.0511443428e+00	-1.1017880646e+00
 9.6118882315e-01	 2.0737902117e+00	-9.9944059726e-01
 1.4320347030e+00	 1.8180195204e+00	-1.6176463941e+00
 1.3887916368e+00	 1.8512633948e+00	-1.6182194337e+00
 1.3448512877e+00	 1.8834259691e+00	-1.6082302716e+00
 1.3002540281e+00	 1.9144863096e+00	-1.5749924543e+00
 1.2550410091e+00	 1.9444254763e+00	-1.5209725385e+00
 1.2092540385e+00	 1.9732265551e+00	-1.4498768826e+00
 1.1629354583e+00	 2.0008746805e+00	-1.3660550515e+00
 1.1161280212e+00	 2.0273570499e+00	-1.2739792811e+00
 1.0688747676e+00	 2.0526629286e+00	-1.1776854150e+00
 1.0212189042e+00	 2.0767836471e+00	-1.0796956859e+00
 9.7320368344e-01	 2.0997125894e+00	-9.8156685412e-01
 1.4497141438e+00	 1.8404642059e+00	-1.6111438971e+00
 1.4059372126e+00	 1.8741184984e+00	-1.6164373652e+00
 1.3614543900e+00	 1.9066781416e+00	-1.5995413001e+00
 1.3163065470e+00	 1.9381219431e+00	-1.5599493326e+00
 1.2705353425e+00	 1.9684307291e+00	-1.5005292506e+00
 1.2241831007e+00	 1.9975873768e+00	-1.4253495840e+00
 1.1772926862e+00	 2.0255768371e+00	-1.3390468991e+00
 1.1299073795e+00	 2.0523861493e+00	-1.2462726067e+00
 1.0820707524e+00	 2.0780044463e+00	-1.1512291390e+00
 1.0338265450e+00	 2.1024229514e+00	-1.0567134474e+00
 9.8521854373e-01	 2.1256349670e+00	-9.6410284745e-01
 1.4673935846e+00	 1.8629088913e+00	-1.6024669963e+00
 1.4230827884e+00	 1.8969736020e+00	-1.6033352444e+00
 1.3780574924e+00	 1.9299303141e+00	-1.5805647098e+00
 1.3323590658e+00	 1.9617575765e+00	-1.5355863242e+00
 1.2860296760e+00	 1.9924359819e+00	-1.4717314965e+00
 1.2391121629e+00	 2.0219481984e+00	-1.3934851631e+00
 1.1916499141e+00	 2.0502789936e+00	-1.3058107177e+00
 1.1436867377e+00	 2.0774152486e+00	-1.2135626645e+00
 1.0952667372e+00	 2.1033459639e+00	-1.1210089142e+00
 1.0464341858e+00	 2.1280622557e+00	-1.0311761154e+00
 9.9723340402e-01	 2.1515573446e+00	-9.4534897698e-01
 1.4850730253e+00	 1.8853535768e+00	-1.5819888438e+00
 1.4402283641e+00	 1.9198287057e+00	-1.5779672465e+00
 1.3946605947e+00	 1.9531824865e+00	-1.5502330611e+00
 1.3484115847e+00	 1.9853932100e+00	-1.5007122832e+00
 1.3015240094e+00	 2.0164412347e+00	-1.4332697335e+00
 1.2540412251e+00	 2.0463090201e+00	-1.3528632830e+00
 1.2060071419e+00	 2.0749811502e+00	-1.2648242535e+00
 1.1574660960e+00	 2.1024443480e+00	-1.1742343822e+00
 1.1084627220e+00	 2.1286874815e+00	-1.0854119338e+00
 1.0590418266e+00	 2.1537015600e+00	-1.0014566689e+00
 1.0092482643e+00	 2.1774797223e+00	-9.2364680262e-01
 1.5027524661e+00	 1.9077982622e+00	-1.5491179310e+00
 1.4573739399e+00	 1.9426838093e+00	-1.5394917460e+00
 1.4112636970e+00	 1.9764346590e+00	-1.5075708111e+00
 1.3644641036e+00	 2.0090288434e+00	-1.4542216848e+00
 1.3170183428e+00	 2.0404464875e+00	-1.3839157601e+00
 1.2689702873e+00	 2.0706698418e+00	-1.3021427374e+00
 1.2203643698e+00	 2.0996833067e+00	-1.2146442638e+00
 1.1712454543e+00	 2.1274734474e+00	-1.1267536453e+00
 1.1216587068e+00	 2.1540289992e+00	-1.0428543164e+00
 1.0716494674e+00	 2.1793408643e+00	-9.6596792061e-01
 1.0212631246e+00	 2.2034020999e+00	-8.9738036426e-01
 9.0111452171e-01	 1.9441783235e+00	-1.1571856867e+00
 8.5636322757e-01	 1.9643010862e+00	-1.0466942754e+00
 8.1135898606e-01	 1.9833137247e+00	-9.3221942172e-01
 7.6614133018e-01	 2.0012156798e+00	-8.1835107253e-01
 7.2074941755e-01	 2.0180081793e+00	-7.0940218108e-01
 6.7522193528e-01	 2.0336941935e+00	-6.0697610969e-01
 6.2959700938e-01	 2.0482783845e+00	-5.0939657305e-01
 5.8391211910e-01	 2.0617670508e+00	-4.1495287505e-01
 5.3820401645e-01	 2.0741680673e+00	-3.2230452488e-01
 4.9250865123e-01	 2.0854908207e+00	-2.3055092000e-01
 4.4686110167e-01	 2.0957461417e+00	-1.3918810680e-01
 9.1312938200e-01	 1.9701007011e+00	-1.1104032433e+00
 8.6778140393e-01	 1.9904917673e+00	-9.9846444171e-01
 8.2217710588e-01	 2.0097579077e+00	-8.8386253399e-01
 7.7635654792e-01	 2.0278985555e+00	-7.7064882545e-01
 7.3035940978e-01	 2.0449149550e+00	-6.6265049063e-01
 6.8422489442e-01	 2.0608101161e+00	-5.6146659772e-01
 6.3799163617e-01	 2.0755887630e+00	-4.6512989497e-01
 5.9169761402e-01	 2.0892572782e+00	-3.7168739771e-01
 5.4538007000e-01	 2.1018236415e+00	-2.7972954833e-01
 4.9907543325e-01	 2.1132973650e+00	-1.8842439250e-01
 4.5281924970e-01	 2.1236894236e+00	-9.7427118663e-02
 9.2514424229e-01	 1.9960230788e+00	-1.0731097539e+00
 8.7919958030e-01	 2.0166824485e+00	-9.6125695041e-01
 8.3299522569e-01	 2.0362020907e+00	-8.4791642441e-01
 7.8657176565e-01	 2.0545814312e+00	-7.3659134381e-01
 7.3996940202e-01	 2.0718217308e+00	-6.3059560843e-01
 6.9322785355e-01	 2.0879260387e+00	-5.3165575401e-01
 6.4638626297e-01	 2.1028991414e+00	-4.3767870771e-01
 5.9948310894e-01	 2.1167475055e+00	-3.4658483251e-01
 5.5255612355e-01	 2.1294792158e+00	-2.5704796858e-01
 5.0564221527e-01	 2.1411039092e+00	-1.6848883284e-01
 4.5877739772e-01	 2.1516327055e+00	-8.0931041752e-02
 9.3715910258e-01	 2.0219454564e+00	-1.0434145187e+00
 8.9061775667e-01	 2.0428731296e+00	-9.3312588635e-01
 8.4381334550e-01	 2.0626462736e+00	-8.2239369548e-01
 7.9678698339e-01	 2.0812643069e+00	-7.1416569992e-01
 7.4957939425e-01	 2.0987285065e+00	-6.1122067367e-01
 7.0223081269e-01	 2.1150419613e+00	-5.1538633839e-01
 6.5478088976e-01	 2.1302095199e+00	-4.2472008410e-01
 6.0726860386e-01	 2.1442377329e+00	-3.3712893870e-01
 5.5973217711e-01	 2.1571347900e+00	-2.5153432271e-01
 5.1220899728e-01	 2.1689104535e+00	-1.6780828881e-01
 4.6473554574e-01	 2.1795759874e+00	-8.6569316522e-02
 9.4917396286e-01	 2.0478678341e+00	-1.0194636505e+00
 9.0203593304e-01	 2.0690638108e+00	-9.1216605733e-01
 8.5463146532e-01	 2.0890904566e+00	-8.0535014833e-01
 8.0700220112e-01	 2.1079471827e+00	-7.0140329716e-01
 7.5918938649e-01	 2.1256352822e+00	-6.0257181905e-01
 7.1123377183e-01	 2.1421578839e+00	-5.1062198633e-01
 6.6317551655e-01	 2.1575198984e+00	-4.2407837643e-01
 6.1505409878e-01	 2.1717279602e+00	-3.4096930799e-01
 5.6690823066e-01	 2.1847903642e+00	-2.6063998861e-01
 5.1877577930e-01	 2.1967169978e+00	-1.8362758331e-01
 4.7069369376e-01	 2.2075192693e+00	-1.1138963794e-01
 9.6118882315e-01	 2.0737902117e+00	-9.9944059726e-01
 9.1345410941e-01	 2.0952544919e+00	-8.9651307932e-01
 8.6544958513e-01	 2.1155346396e+00	-7.9488444840e-01
 8.1721741886e-01	 2.1346300584e+00	-6.9637913876e-01
 7.6879937872e-01	 2.1525420579e+00	-6.0271655022e-01
 7.2023673097e-01	 2.1692738064e+00	-5.1542960025e-01
 6.7157014334e-01	 2.1848302768e+00	-4.3370981185e-01
 6.2283959370e-01	 2.1992181875e+00	-3.5590797732e-01
 5.7408428421e-01	 2.2124459384e+00	-2.8198162880e-01
 5.2534256131e-01	 2.2245235421e+00	-2.1327190642e-01
 4.7665184178e-01	 2.2354625512e+00	-1.4921420498e-01
 9.7320368344e-01	 2.0997125894e+00	-9.8156685412e-01
 9.2487228577e-01	 2.1214451731e+00	-8.8434367604e-01
 8.7626770495e-01	 2.1419788226e+00	-7.8913802782e-01
 8.2743263659e-01	 2.1613129341e+00	-6.9721135203e-01
 7.7840937095e-01	 2.1794488337e+00	-6.0976456110e-01
 7.2923969010e-01	 2.1963897290e+00	-5.2796202291e-01
 6.7996477013e-01	 2.2121406553e+00	-4.5168737766e-01
 6.3062508863e-01	 2.2267084149e+00	-3.7958547599e-01
 5.8126033777e-01	 2.2401015127e+00	-3.0834013812e-01
 5.3190934333e-01	 2.2523300863e+00	-2.3922941788e-01
 4.8260998981e-01	 2.2634058331e+00	-1.7511695120e-01
 9.8521854373e-01	 2.1256349670e+00	-9.6410284745e-01
 9.3629046214e-01	 2.1476358542e+00	-8.7387617460e-01
 8.8708582476e-01	 2.1684230056e+00	-7.8629520440e-01
 8.3764785433e-01	 2.1879958099e+00	-7.0206094642e-01
 7.8801936319e-01	 2.2063556094e+00	-6.2186726452e-01
 7.3824264924e-01	 2.2235056516e+00	-5.4641646873e-01
 6.8835939692e-01	 2.2394510337e+00	-4.7179741101e-01
 6.3841058355e-01	 2.2541986422e+00	-3.9570078520e-01
 5.8843639132e-01	 2.2677570869e+00	-3.2037735772e-01
 5.3847612535e-01	 2.2801366306e+00	-2.4865645597e-01
 4.8856813783e-01	 2.2913491149e+00	-1.8334865917e-01
 9.9723340402e-01	 2.1515573446e+00	-9.4534897698e-01
 9.4770863851e-01	 2.1738265354e+00	-8.6337118068e-01
 8.9790394458e-01	 2.1948671886e+00	-7.8458349880e-01
 8.4786307207e-01	 2.2146786856e+00	-7.0913178557e-01
 7.9762935542e-01	 2.2332623851e+00	-6.3538406417e-01
 7.4724560838e-01	 2.2506215742e+00	-5.5710938686e-01
 6.9675402372e-01	 2.2667614122e+00	-4.7608680364e-01
 6.4619607847e-01	 2.2816888696e+00	-3.9456093279e-01
 5.9561244487e-01	 2.2954126611e+00	-3.1492045989e-01
 5.4504290736e-01	 2.3079431749e+00	-2.3999179923e-01
 4.9452628585e-01	 2.3192923968e+00	-1.7246431306e-01
 1.0092482643e+00	 2.1774797223e+00	-9.2364680262e-01
 9.5912681488e-01	 2.2000172165e+00	-8.5113241834e-01
 9.0872206439e-01	 2.2213113716e+00	-7.8227413353e-01
 8.5807828980e-01	 2.2413615613e+00	-7.1111367197e-01
 8.0723934766e-01	 2.2601691608e+00	-6.3235752927e-01
 7.5624856751e-01	 2.2777374968e+00	-5.4825512219e-01
 7.0514865051e-01	 2.2940717907e+00	-4.6126945691e-01
 6.5398157339e-01	 2.3091790969e+00	-3.7445471684e-01
 6.0278849842e-01	 2.3230682354e+00	-2.9035720074e-01
 5.5160968938e-01	 2.3357497192e+00	-2.1173723813e-01
 5.0048443387e-01	 2.3472356787e+00	-1.4108434497e-01
 1.0212631246e+00	 2.2034020999e+00	-8.9738036426e-01
 9.7054499124e-01	 2.2262078977e+00	-8.3526689552e-01
 9.1954018420e-01	 2.2477555546e+00	-7.6776314090e-01
 8.6829350754e-01	 2.2680444371e+00	-6.9109998183e-01
 8.1684933989e-01	 2.2870759366e+00	-6.0720025352e-01
 7.6525152665e-01	 2.3048534193e+00	-5.1801812910e-01
 7.1354327730e-01	 2.3213821691e+00	-4.2561842090e-01
 6.6176706831e-01	 2.3366693243e+00	-3.3372800368e-01
 6.0996455198e-01	 2.3507238096e+00	-2.4513250576e-01
 5.5817647140e-01	 2.3635562634e+00	-1.6245334220e-01
 5.0644258190e-01	 2.3751789606e+00	-8.7890515134e-02
 4.4686110167e-01	 2.0957461417e+00	-1.3918810680e-01
 4.0129551087e-01	 2.1049462339e+00	-5.4623176515e-02
 3.5584502911e-01	 2.1131045999e+00	 2.5424131242e-02
 3.1054176219e-01	 2.1202359653e+00	 1.0370879891e-01
 2.6541672560e-01	 2.1263562017e+00	 1.7511492610e-01
 2.2049980468e-01	 2.1314822474e+00	 2.3659158624e-01
 1.7581972058e-01	 2.1356320284e+00	 2.8702725814e-01
 1.3140400200e-01	 2.1388243787e+00	 3.2713653536e-01
 8.7278962442e-02	 2.1410789610e+00	 3.5920951123e-01
 4.3469682952e-02	 2.1424161877e+00	 3.8678663321e-01
 0.0000000000e+00	 2.1428571429e+00	 4.1431328459e-01
 4.5281924970e-01	 2.1236894236e+00	-9.7427118663e-02
 4.0664611768e-01	 2.1330121837e+00	-1.1719352939e-02
 3.6058962950e-01	 2.1412793279e+00	 7.1719368429e-02
 3.1468231902e-01	 2.1485057782e+00	 1.5444650174e-01
 2.6895561528e-01	 2.1547076177e+00	 2.2965043286e-01
 2.2343980207e-01	 2.1599020107e+00	 2.9379368339e-01
 1.7816398352e-01	 2.1641071221e+00	 3.4580027557e-01
 1.3315605536e-01	 2.1673420371e+00	 3.8678230342e-01
 8.8442681942e-02	 2.1696266805e+00	 4.1963225283e-01
 4.4049278725e-02	 2.1709817369e+00	 4.4854970541e-01
 0.0000000000e+00	 2.1714285714e+00	 4.7856150963e-01
 4.5877739772e-01	 2.1516327055e+00	-8.0931041752e-02
 4.1199672449e-01	 2.1610781335e+00	 1.8020302581e-03
 3.6533422989e-01	 2.1694540559e+00	 8.3167024161e-02
 3.1882287585e-01	 2.1767755911e+00	 1.6376196638e-01
 2.7249450495e-01	 2.1830590337e+00	 2.3512651112e-01
 2.2637979947e-01	 2.1883217740e+00	 2.9365205778e-01
 1.8050824646e-01	 2.1925822158e+00	 3.3873346171e-01
 1.3490810872e-01	 2.1958596955e+00	 3.7231670588e-01
 8.9606401441e-02	 2.1981744000e+00	 3.9831661192e-01
 4.4628874497e-02	 2.1995472860e+00	 4.2197945690e-01
 0.0000000000e+00	 2.2000000000e+00	 4.4925471348e-01
 4.6473554574e-01	 2.1795759874e+00	-8.6569316522e-02
 4.1734733130e-01	 2.1891440833e+00	-1.0803793569e-02
 3.7007883028e-01	 2.1976287839e+00	 6.2974211172e-02
 3.2296343268e-01	 2.2050454039e+00	 1.3464759907e-01
 2.7603339463e-01	 2.2114104498e+00	 1.9412616432e-01
 2.2931979686e-01	 2.2167415373e+00	 2.3819721346e-01
 1.8285250940e-01	 2.2210573095e+00	 2.6721427745e-01
 1.3666016208e-01	 2.2243773539e+00	 2.8474658751e-01
 9.0770120940e-02	 2.2267221195e+00	 2.9676733062e-01
 4.5208470270e-02	 2.2281128352e+00	 3.0926621227e-01
 0.0000000000e+00	 2.2285714286e+00	 3.2877679850e-01
 4.7069369376e-01	 2.2075192693e+00	-1.1138963794e-01
 4.2269793811e-01	 2.2172100331e+00	-4.6449854698e-02
 3.7482343066e-01	 2.2258035119e+00	 1.4620873160e-02
 3.2710398951e-01	 2.2333152168e+00	 7.4113248017e-02
 2.7957228430e-01	 2.2397618658e+00	 1.2164304066e-01
 2.3225979426e-01	 2.2451613006e+00	 1.5485538637e-01
 1.8519677234e-01	 2.2495324032e+00	 1.7471774477e-01
 1.3841221543e-01	 2.2528950122e+00	 1.8462221132e-01
 9.1933840439e-02	 2.2552698390e+00	 1.8965865217e-01
 4.5788066043e-02	 2.2566783844e+00	 1.9598736958e-01
 0.0000000000e+00	 2.2571428571e+00	 2.1029969028e-01
 4.7665184178e-01	 2.2354625512e+00	-1.4921420498e-01
 4.2804854492e-01	 2.2452759828e+00	-9.0138853104e-02
 3.7956803105e-01	 2.2539782399e+00	-3.2395638281e-02
 3.3124454634e-01	 2.2615850297e+00	 2.4054483426e-02
 2.8311117397e-01	 2.2681132818e+00	 6.7485054342e-02
 2.3519979165e-01	 2.2735810639e+00	 9.6033228163e-02
 1.8754103528e-01	 2.2780074969e+00	 1.1122642208e-01
 1.4016426879e-01	 2.2814126706e+00	 1.1687878178e-01
 9.3097559938e-02	 2.2838175584e+00	 1.1837314371e-01
 4.6367661815e-02	 2.2852439336e+00	 1.2204598182e-01
 0.0000000000e+00	 2.2857142857e+00	 1.3466239566e-01
 4.8260998981e-01	 2.2634058331e+00	-1.7511695120e-01
 4.3339915173e-01	 2.2733419326e+00	-1.1667333337e-01
 3.8431263144e-01	 2.2821529678e+00	-5.9880052713e-02
 3.3538510317e-01	 2.2898548425e+00	-4.4841945675e-03
 2.8665006365e-01	 2.2964646978e+00	 3.7211483313e-02
 2.3813978905e-01	 2.3020008272e+00	 6.3681388976e-02
 1.8988529822e-01	 2.3064825906e+00	 7.6995307911e-02
 1.4191632215e-01	 2.3099303290e+00	 8.1347790575e-02
 9.4261279438e-02	 2.3123652779e+00	 8.2352907846e-02
 4.6947257588e-02	 2.3138094827e+00	 8.6445426509e-02
 0.0000000000e+00	 2.3142857143e+00	 1.0037402537e-01
 4.8856813783e-01	 2.2913491149e+00	-1.8334865917e-01
 4.3874975855e-01	 2.3014078824e+00	-1.2409595725e-01
 3.8905723183e-01	 2.3103276958e+00	-6.6626754399e-02
 3.3952566000e-01	 2.3181246554e+00	-1.0531043897e-02
 2.9018895332e-01	 2.3248161138e+00	 3.1551123783e-02
 2.4107978645e-01	 2.3304205905e+00	 5.8267648899e-02
 1.9222956116e-01	 2.3349576843e+00	 7.2206524027e-02
 1.4366837551e-01	 2.3384479874e+00	 7.7894087494e-02
 9.5424998937e-02	 2.3409129974e+00	 8.1106782457e-02
 4.7526853361e-02	 2.3423750319e+00	 8.8292738938e-02
 0.0000000000e+00	 2.3428571429e+00	 1.0608725831e-01
 4.9452628585e-01	 2.3192923968e+00	-1.7246431306e-01
 4.4410036536e-01	 2.3294738322e+00	-1.1109789633e-01
 3.9380183222e-01	 2.3385024238e+00	-5.1498823678e-02
 3.4366621683e-01	 2.3463944683e+00	 6.8338573231e-03
 2.9372784300e-01	 2.3531675299e+00	 5.1193634380e-02
 2.4401978384e-01	 2.3588403538e+00	 8.0238933549e-02
 1.9457382410e-01	 2.3634327780e+00	 9.7044672783e-02
 1.4542042887e-01	 2.3669656458e+00	 1.0641282214e-01
 9.6588718436e-02	 2.3694607169e+00	 1.1420563244e-01
 4.8106449134e-02	 2.3709405811e+00	 1.2679204234e-01
 0.0000000000e+00	 2.3714285714e+00	 1.5058969288e-01
 5.0048443387e-01	 2.3472356787e+00	-1.4108434497e-01
 4.4945097217e-01	 2.3575397820e+00	-7.6437148531e-02
 3.9854643260e-01	 2.3666771518e+00	-1.3424567459e-02
 3.4780677366e-01	 2.3746642812e+00	 4.8480058333e-02
 2.9726673267e-01	 2.3815189459e+00	 9.6790165650e-02
 2.4695978124e-01	 2.3872601170e+00	 1.3002096136e-01
 1.9691808705e-01	 2.3919078718e+00	 1.5169532856e-01
 1.4717248223e-01	 2.3954833042e+00	 1.6682659706e-01
 9.7752437935e-02	 2.3980084364e+00	 1.8127797416e-01
 4.8686044906e-02	 2.3995061302e+00	 2.0123844629e-01
 0.0000000000e+00	 2.4000000000e+00	 2.3279581599e-01
 5.0644258190e-01	 2.3751789606e+00	-8.7890515134e-02
 4.5480157898e-01	 2.3856057318e+00	-1.8934704463e-02
 4.0329103299e-01	 2.3948518798e+00	 4.8605793126e-02
 3.5194733048e-01	 2.4029340940e+00	 1.1522806835e-01
 3.0080562235e-01	 2.4098703619e+00	 1.6895393102e-01
 2.4989977863e-01	 2.4156798803e+00	 2.0801790272e-01
 1.9926234999e-01	 2.4203829655e+00	 2.3634362528e-01
 1.4892453559e-01	 2.4240009625e+00	 2.5908281483e-01
 9.8916157435e-02	 2.4265561558e+00	 2.8200590515e-01
 4.9265640679e-02	 2.4280716794e+00	 3.1101237475e-01
 0.0000000000e+00	 2.4285714286e+00	 3.5173953908e-01
 2.4285714286e+00	 0.0000000000e+00	 2.0427469621e+00
 2.4280716794e+00	 4.9265640679e-02	 2.0574670875e+00
 2.4265561558e+00	 9.8916157435e-02	 2.0477285350e+00
 2.4240009625e+00	 1.4892453559e-01	 2.0181221515e+00
 2.4203829655e+00	 1.9926234999e-01	 1.9736852572e+00
 2.4156798803e+00	 2.4989977863e-01	 1.9194555805e+00
 2.4098703619e+00	 3.0080562235e-01	 1.8599275251e+00
 2.4029340940e+00	 3.5194733048e-01	 1.7983841717e+00
 2.3948518798e+00	 4.0329103299e-01	 1.7331330349e+00
 2.3856057318e+00	 4.5480157898e-01	 1.6545228081e+00
 2.3751789606e+00	 5.0644258190e-01	 1.5634444908e+00
 2.4571428571e+00	 0.0000000000e+00	 1.8833462185e+00
 2.4566372286e+00	 4.9845236452e-02	 1.9067252078e+00
 2.4551038753e+00	 1.0007987693e-01	 1.9056410204e+00
 2.4525186209e+00	 1.5067658895e-01	 1.8844911488e+00
 2.4488580592e+00	 2.0160661293e-01	 1.8481949510e+00
 2.4440996436e+00	 2.5283977603e-01	 1.8017953445e+00
 2.4382217779e+00	 3.0434451202e-01	 1.7499635224e+00
 2.4312039069e+00	 3.5608788731e-01	 1.6963775510e+00
 2.4230266078e+00	 4.0803563338e-01	 1.6390859453e+00
 2.4136716816e+00	 4.6015218579e-01	 1.5688116008e+00
 2.4031222425e+00	 5.1240072992e-01	 1.4859594932e+00
 2.4857142857e+00	 0.0000000000e+00	 1.7751262973e+00
 2.4852027777e+00	 5.0424832224e-02	 1.8038608618e+00
 2.4836515948e+00	 1.0124359643e-01	 1.8080744730e+00
 2.4810362793e+00	 1.5242864231e-01	 1.7919589254e+00
 2.4773331529e+00	 2.0395087587e-01	 1.7603051687e+00
 2.4725194069e+00	 2.5577977342e-01	 1.7181583526e+00
 2.4665731940e+00	 3.0788340170e-01	 1.6703769525e+00
 2.4594737198e+00	 3.6022844414e-01	 1.6210641295e+00
 2.4512013358e+00	 4.1278023377e-01	 1.5679881804e+00
 2.4417376313e+00	 4.6550279260e-01	 1.5025393748e+00
 2.4310655244e+00	 5.1835887794e-01	 1.4247473692e+00
 2.5142857143e+00	 0.0000000000e+00	 1.7170878010e+00
 2.5137683269e+00	 5.1004427997e-02	 1.7481085448e+00
 2.5121993143e+00	 1.0240731593e-01	 1.7545093186e+00
 2.5095539377e+00	 1.5418069567e-01	 1.7402446736e+00
 2.5058082466e+00	 2.0629513881e-01	 1.7099469599e+00
 2.5009391702e+00	 2.5871977082e-01	 1.6686407179e+00
 2.4949246100e+00	 3.1142229137e-01	 1.6213626125e+00
 2.4877435326e+00	 3.6436900097e-01	 1.5726521870e+00
 2.4793760638e+00	 4.1752483416e-01	 1.5199904103e+00
 2.4698035811e+00	 4.7085339942e-01	 1.4557267185e+00
 2.4590088063e+00	 5.2431702596e-01	 1.3796470713e+00
 2.5428571429e+00	 0.0000000000e+00	 1.7082414284e+00
 2.5423338761e+00	 5.1584023770e-02	 1.7387149792e+00
 2.5407470338e+00	 1.0357103543e-01	 1.7444409939e+00
 2.5380715961e+00	 1.5593274903e-01	 1.7290854019e+00
 2.5342833403e+00	 2.0863940175e-01	 1.6970713607e+00
 2.5293589335e+00	 2.6165976822e-01	 1.6533594075e+00
 2.5232760260e+00	 3.1496118105e-01	 1.6031350553e+00
 2.5160133455e+00	 3.6850955780e-01	 1.5513660542e+00
 2.5075507918e+00	 4.2226943455e-01	 1.4952582299e+00
 2.4978695309e+00	 4.7620400623e-01	 1.4284071485e+00
 2.4869520882e+00	 5.3027517399e-01	 1.3505106359e+00
 2.5714285714e+00	 0.0000000000e+00	 1.7476074130e+00
 2.5708994253e+00	 5.2163619542e-02	 1.7749386986e+00
 2.5692947532e+00	 1.0473475493e-01	 1.7773796785e+00
 2.5665892544e+00	 1.5768480239e-01	 1.7582357912e+00
 2.5627584340e+00	 2.1098366469e-01	 1.7216493256e+00
 2.5577786968e+00	 2.6459976561e-01	 1.6724521781e+00
 2.5516274420e+00	 3.1850007072e-01	 1.6159284325e+00
 2.5442831584e+00	 3.7265011463e-01	 1.5574337553e+00
 2.5357255198e+00	 4.2701403493e-01	 1.4939710940e+00
 2.5259354807e+00	 4.8155461304e-01	 1.4206258052e+00
 2.5148953701e+00	 5.3623332201e-01	 1.3372016115e+00
 2.6000000000e+00	 0.0000000000e+00	 1.8310515349e+00
 2.5994649744e+00	 5.2743215315e-02	 1.8533661831e+00
 2.5978424727e+00	 1.0589847443e-01	 1.8513065684e+00
 2.5951069128e+00	 1.5943685575e-01	 1.8271196697e+00
 2.5912335277e+00	 2.1332792763e-01	 1.7836716656e+00
 2.5861984601e+00	 2.6753976301e-01	 1.7260775145e+00
 2.5799788581e+00	 3.2203896040e-01	 1.6599963358e+00
 2.5725529713e+00	 3.7679067146e-01	 1.5910579882e+00
 2.5639002478e+00	 4.3175863532e-01	 1.5163212587e+00
 2.5540014305e+00	 4.8690521985e-01	 1.4324381635e+00
 2.5428386519e+00	 5.4219147003e-01	 1.3395935197e+00
 2.6285714286e+00	 0.0000000000e+00	 1.8930316697e+00
 2.6280305236e+00	 5.3322811088e-02	 1.9104542050e+00
 2.6263901922e+00	 1.0706219393e-01	 1.9068000047e+00
 2.6236245712e+00	 1.6118890911e-01	 1.8837771347e+00
 2.6197086215e+00	 2.1567219057e-01	 1.8435960487e+00
 2.6146182234e+00	 2.7047976040e-01	 1.7889597883e+00
 2.6083302741e+00	 3.2557785007e-01	 1.7230432889e+00
 2.6008227841e+00	 3.8093122829e-01	 1.6492312677e+00
 2.5920749758e+00	 4.3650323571e-01	 1.5625127295e+00
 2.5820673803e+00	 4.9225582666e-01	 1.4639087601e+00
 2.5707819338e+00	 5.4814961805e-01	 1.3575683438e+00
 2.6571428571e+00	 0.0000000000e+00	 1.9087002415e+00
 2.6565960728e+00	 5.3902406861e-02	 1.9204411676e+00
 2.6549379117e+00	 1.0822591343e-01	 1.9144463008e+00
 2.6521422296e+00	 1.6294096247e-01	 1.8919384616e+00
 2.6481837152e+00	 2.1801645351e-01	 1.8546221254e+00
 2.6430379867e+00	 2.7341975780e-01	 1.8046902819e+00
 2.6366816901e+00	 3.2911673975e-01	 1.7448227627e+00
 2.6290925970e+00	 3.8507178512e-01	 1.6777713021e+00
 2.6202497038e+00	 4.4124783610e-01	 1.5979819918e+00
 2.6101333300e+00	 4.9760643347e-01	 1.5021414489e+00
 2.5987252157e+00	 5.5410776607e-01	 1.3895686228e+00
 2.6857142857e+00	 0.0000000000e+00	 1.8792358496e+00
 2.6851616219e+00	 5.4482002633e-02	 1.8844813973e+00
 2.6834856312e+00	 1.0938963293e-01	 1.8753991424e+00
 2.6806598880e+00	 1.6469301583e-01	 1.8527749672e+00
 2.6766588089e+00	 2.2036071646e-01	 1.8178513540e+00
 2.6714577500e+00	 2.7635975519e-01	 1.7723518195e+00
 2.6650331061e+00	 3.3265562942e-01	 1.7184994119e+00
 2.6573624099e+00	 3.8921234195e-01	 1.6584255203e+00
 2.6484244318e+00	 4.4599243649e-01	 1.5862745368e+00
 2.6381992798e+00	 5.0295704028e-01	 1.4989908069e+00
 2.6266684976e+00	 5.6006591410e-01	 1.3955118965e+00
 2.7142857143e+00	 0.0000000000e+00	 1.8058243261e+00
 2.7137271711e+00	 5.5061598406e-02	 1.8037264929e+00
 2.7120333507e+00	 1.1055335243e-01	 1.7908010908e+00
 2.7091775464e+00	 1.6644506919e-01	 1.7674399777e+00
 2.7051339026e+00	 2.2270497940e-01	 1.7344616248e+00
 2.6998775133e+00	 2.7929975259e-01	 1.6931541274e+00
 2.6933845221e+00	 3.3619451910e-01	 1.6453151165e+00
 2.6856322227e+00	 3.9335289878e-01	 1.5924758709e+00
 2.6765991598e+00	 4.5073703687e-01	 1.5286726130e+00
 2.6662652296e+00	 5.0830764710e-01	 1.4510481238e+00
 2.6546117795e+00	 5.6602406212e-01	 1.3582249836e+00
 2.3751789606e+00	 5.0644258190e-01	 1.5634444908e+00
 2.3635562634e+00	 5.5817647140e-01	 1.4631303350e+00
 2.3507238096e+00	 6.0996455198e-01	 1.3559570897e+00
 2.3366693243e+00	 6.6176706831e-01	 1.2415956600e+00
 2.3213821691e+00	 7.1354327730e-01	 1.1197138904e+00
 2.3048534193e+00	 7.6525152665e-01	 9.9022946880e-01
 2.2870759366e+00	 8.1684933989e-01	 8.5174670517e-01
 2.2680444371e+00	 8.6829350754e-01	 7.0392680029e-01
 2.2477555546e+00	 9.1954018420e-01	 5.4666631397e-01
 2.2262078977e+00	 9.7054499124e-01	 3.8009134659e-01
 2.2034020999e+00	 1.0212631246e+00	 2.0923897126e-01
 2.4031222425e+00	 5.1240072992e-01	 1.4859594932e+00
 2.3913628077e+00	 5.6474325341e-01	 1.3933419041e+00
 2.3783793838e+00	 6.1714060553e-01	 1.2937367690e+00
 2.3641595516e+00	 6.6955256323e-01	 1.1869979874e+00
 2.3486925476e+00	 7.2193790409e-01	 1.0728105239e+00
 2.3319693419e+00	 7.7425448579e-01	 9.5074512661e-01
 2.3139827123e+00	 8.2645933212e-01	 8.1958654120e-01
 2.2947273128e+00	 8.7850872527e-01	 6.7936941660e-01
 2.2741997376e+00	 9.3035830402e-01	 5.3008182369e-01
 2.2523985788e+00	 9.8196316761e-01	 3.7185111440e-01
 2.2293244776e+00	 1.0332779849e+00	 2.0535644789e-01
 2.4310655244e+00	 5.1835887794e-01	 1.4247473692e+00
 2.4191693520e+00	 5.7131003543e-01	 1.3370629232e+00
 2.4060349581e+00	 6.2431665908e-01	 1.2425776348e+00
 2.3916497790e+00	 6.7733805815e-01	 1.1413270309e+00
 2.3760029260e+00	 7.3033253088e-01	 1.0329882431e+00
 2.3590852645e+00	 7.8325744492e-01	 9.1675419020e-01
 2.3408894880e+00	 8.3606932436e-01	 7.9172244326e-01
 2.3214101885e+00	 8.8872394301e-01	 6.5811621981e-01
 2.3006439206e+00	 9.4117642383e-01	 5.1590053298e-01
 2.2785892600e+00	 9.9338134398e-01	 3.6508048316e-01
 2.2552468552e+00	 1.0452928452e+00	 2.0612742991e-01
 2.4590088063e+00	 5.2431702596e-01	 1.3796470713e+00
 2.4469758963e+00	 5.7787681745e-01	 1.2939276906e+00
 2.4336905323e+00	 6.3149271263e-01	 1.2019186933e+00
 2.4191400063e+00	 6.8512355308e-01	 1.1038508055e+00
 2.4033133045e+00	 7.3872715767e-01	 9.9938178526e-01
 2.3862011871e+00	 7.9226040406e-01	 8.8733159578e-01
 2.3677962637e+00	 8.4567931659e-01	 7.6718893662e-01
 2.3480930642e+00	 8.9893916074e-01	 6.3919979148e-01
 2.3270881036e+00	 9.5199454365e-01	 5.0319524856e-01
 2.3047799411e+00	 1.0047995203e+00	 3.5893758100e-01
 2.2811692329e+00	 1.0573077055e+00	 2.0656098301e-01
 2.4869520882e+00	 5.3027517399e-01	 1.3505106359e+00
 2.4747824405e+00	 5.8444359946e-01	 1.2635858684e+00
 2.4613461065e+00	 6.3866876619e-01	 1.1712184484e+00
 2.4466302336e+00	 6.9290904800e-01	 1.0738632207e+00
 2.4306236830e+00	 7.4712178447e-01	 9.7114760054e-01
 2.4133171097e+00	 8.0126336320e-01	 8.6159094409e-01
 2.3947030395e+00	 8.5528930883e-01	 7.4506439517e-01
 2.3747759400e+00	 9.0915437848e-01	 6.2170180269e-01
 2.3535322866e+00	 9.6281266346e-01	 4.9109306921e-01
 2.3309706223e+00	 1.0162176967e+00	 3.5263987248e-01
 2.3070916105e+00	 1.0693225658e+00	 2.0601183897e-01
 2.5148953701e+00	 5.3623332201e-01	 1.3372016115e+00
 2.5025889848e+00	 5.9101038148e-01	 1.2457006694e+00
 2.4890016807e+00	 6.4584481974e-01	 1.1499529317e+00
 2.4741204610e+00	 7.0069454292e-01	 1.0506820586e+00
 2.4579340614e+00	 7.5551641126e-01	 9.4746284666e-01
 2.4404330322e+00	 8.1026632234e-01	 8.3868201696e-01
 2.4216098152e+00	 8.6489930106e-01	 7.2446843741e-01
 2.4014588157e+00	 9.1936959622e-01	 6.0475036647e-01
 2.3799764696e+00	 9.7363078327e-01	 4.7877278174e-01
 2.3571613034e+00	 1.0276358731e+00	 3.4546169479e-01
 2.3330139882e+00	 1.0813374260e+00	 2.0389658875e-01
 2.5428386519e+00	 5.4219147003e-01	 1.3395935197e+00
 2.5303955291e+00	 5.9757716350e-01	 1.2399470929e+00
 2.5166572550e+00	 6.5302087329e-01	 1.1376137992e+00
 2.5016106883e+00	 7.0848003784e-01	 1.0336470349e+00
 2.4852444399e+00	 7.6391103805e-01	 9.2756952964e-01
 2.4675489548e+00	 8.1926928147e-01	 8.1778840190e-01
 2.4485165909e+00	 8.7450929329e-01	 7.0455943944e-01
 2.4281416914e+00	 9.2958481395e-01	 5.8751751274e-01
 2.4064206526e+00	 9.8444890309e-01	 4.6546238112e-01
 2.3833519846e+00	 1.0390540494e+00	 3.3673191516e-01
 2.3589363658e+00	 1.0933522863e+00	 1.9969157778e-01
 2.5707819338e+00	 5.4814961805e-01	 1.3575683438e+00
 2.5582020734e+00	 6.0414394551e-01	 1.2460102067e+00
 2.5443128292e+00	 6.6019692684e-01	 1.1337064889e+00
 2.5291009157e+00	 7.1626553276e-01	 1.0221179347e+00
 2.5125548183e+00	 7.7230566484e-01	 9.1073808475e-01
 2.4946648774e+00	 8.2827224061e-01	 7.9812521654e-01
 2.4754233666e+00	 8.8411928553e-01	 6.8453215620e-01
 2.4548245672e+00	 9.3980003169e-01	 5.6921677676e-01
 2.4328648356e+00	 9.9526702290e-01	 4.5043670544e-01
 2.4095426657e+00	 1.0504722258e+00	 3.2583170044e-01
 2.3848587435e+00	 1.1053671466e+00	 1.9293090590e-01
 2.5987252157e+00	 5.5410776607e-01	 1.3895686228e+00
 2.5860086176e+00	 6.1071072753e-01	 1.2635834698e+00
 2.5719684034e+00	 6.6737298040e-01	 1.1377484351e+00
 2.5565911430e+00	 7.2405102768e-01	 1.0154728192e+00
 2.5398651968e+00	 7.8070029163e-01	 8.9626391922e-01
 2.5217808000e+00	 8.3727519975e-01	 7.7893692551e-01
 2.5023301424e+00	 8.9372927776e-01	 6.6361544269e-01
 2.4815074429e+00	 9.5001524942e-01	 5.4910089220e-01
 2.4593090186e+00	 1.0060851427e+00	 4.3301517703e-01
 2.4357333469e+00	 1.0618904022e+00	 3.1219239021e-01
 2.4107811211e+00	 1.1173820069e+00	 1.8327150873e-01
 2.6266684976e+00	 5.6006591410e-01	 1.3955118965e+00
 2.6138151619e+00	 6.1727750954e-01	 1.2769688242e+00
 2.5996239777e+00	 6.7454903395e-01	 1.1477797726e+00
 2.5840813704e+00	 7.3183652260e-01	 1.0131062971e+00
 2.5671755753e+00	 7.8909491843e-01	 8.8346545924e-01
 2.5488967226e+00	 8.4627815888e-01	 7.5949524274e-01
 2.5292369181e+00	 9.0333927000e-01	 6.4107006783e-01
 2.5081903186e+00	 9.6023046716e-01	 5.2645958126e-01
 2.4857532016e+00	 1.0169032625e+00	 4.1255964175e-01
 2.4619240280e+00	 1.0733085786e+00	 2.9529346585e-01
 2.4367034988e+00	 1.1293968672e+00	 1.7071398274e-01
 2.6546117795e+00	 5.6602406212e-01	 1.3582249836e+00
 2.6416217062e+00	 6.2384429156e-01	 1.2506644642e+00
 2.6272795519e+00	 6.8172508750e-01	 1.1320256891e+00
 2.6115715977e+00	 7.3962201752e-01	 1.0051993970e+00
 2.5944859537e+00	 7.9748954522e-01	 8.7160464957e-01
 2.5760126451e+00	 8.5528111802e-01	 7.3909711296e-01
 2.5561436938e+00	 9.1294926223e-01	 6.1618661399e-01
 2.5348731944e+00	 9.7044568490e-01	 5.0061743467e-01
 2.5121973846e+00	 1.0277213823e+00	 3.8847229933e-01
 2.4881147092e+00	 1.0847267549e+00	 2.7466060845e-01
 2.4626258764e+00	 1.1414117275e+00	 1.5497422505e-01
 2.2034020999e+00	 1.0212631246e+00	 2.0923897126e-01
 2.1793408643e+00	 1.0716494674e+00	 4.2884567529e-02
 2.1540289992e+00	 1.1216587068e+00	-1.1806866122e-01
 2.1274734474e+00	 1.1712454543e+00	-2.6611336382e-01
 2.0996833067e+00	 1.2203643698e+00	-3.9897927363e-01
 2.0706698418e+00	 1.2689702873e+00	-5.1891593949e-01
 2.0404464875e+00	 1.3170183428e+00	-6.2948842907e-01
 2.0090288434e+00	 1.3644641036e+00	-7.3516201232e-01
 1.9764346590e+00	 1.4112636970e+00	-8.4078261604e-01
 1.9426838093e+00	 1.4573739399e+00	-9.5096333480e-01
 1.9077982622e+00	 1.5027524661e+00	-1.0670259942e+00
 2.2293244776e+00	 1.0332779849e+00	 2.0535644789e-01
 2.2049801686e+00	 1.0842571082e+00	 3.4154293438e-02
 2.1793705168e+00	 1.1348546915e+00	-1.3044953954e-01
 2.1525025468e+00	 1.1850248126e+00	-2.7924848817e-01
 2.1243854633e+00	 1.2347215977e+00	-4.1139459188e-01
 2.0950306634e+00	 1.2838993495e+00	-5.2922804533e-01
 2.0644517403e+00	 1.3325126763e+00	-6.3659542895e-01
 2.0326644769e+00	 1.3805166224e+00	-7.3841132984e-01
 1.9996868314e+00	 1.4278667993e+00	-8.4010666151e-01
 1.9655389130e+00	 1.4745195157e+00	-9.4697447243e-01
 1.9302429476e+00	 1.5204319069e+00	-1.0552899181e+00
 2.2552468552e+00	 1.0452928452e+00	 2.0612742991e-01
 2.2306194728e+00	 1.0968647490e+00	 3.9142309703e-02
 2.2047120344e+00	 1.1480506763e+00	-1.2999970903e-01
 2.1775316462e+00	 1.1988041709e+00	-2.8193289776e-01
 2.1490876198e+00	 1.2490788256e+00	-4.1578045153e-01
 2.1193914851e+00	 1.2988284117e+00	-5.3393299580e-01
 2.0884569931e+00	 1.3480070097e+00	-6.4049524794e-01
 2.0563001103e+00	 1.3965691413e+00	-7.4082406894e-01
 2.0229390039e+00	 1.4444699016e+00	-8.4094354439e-01
 1.9883940166e+00	 1.4916650914e+00	-9.4631213658e-01
 1.9526876331e+00	 1.5381113477e+00	-1.0461780757e+00
 2.2811692329e+00	 1.0573077055e+00	 2.0656098301e-01
 2.2562587771e+00	 1.1094723898e+00	 4.6118027094e-02
 2.2300535521e+00	 1.1612466611e+00	-1.1786495650e-01
 2.2025607456e+00	 1.2125835292e+00	-2.7452816079e-01
 2.1737897764e+00	 1.2634360535e+00	-4.1237969909e-01
 2.1437523068e+00	 1.3137574739e+00	-5.3313417396e-01
 2.1124622459e+00	 1.3635013432e+00	-6.4113310684e-01
 2.0799357438e+00	 1.4126216602e+00	-7.4217168955e-01
 2.0461911764e+00	 1.4610730039e+00	-8.4287947637e-01
 2.0112491202e+00	 1.5088106672e+00	-9.4610097823e-01
 1.9751323185e+00	 1.5557907885e+00	-1.0388663565e+00
 2.3070916105e+00	 1.0693225658e+00	 2.0601183897e-01
 2.2818980814e+00	 1.1220800306e+00	 5.1331439852e-02
 2.2553950697e+00	 1.1744426459e+00	-1.0468140171e-01
 2.2275898449e+00	 1.2263628875e+00	-2.5766404056e-01
 2.1984919329e+00	 1.2777932814e+00	-4.0140742525e-01
 2.1681131284e+00	 1.3286865361e+00	-5.2690736341e-01
 2.1364674987e+00	 1.3789956766e+00	-6.3842510890e-01
 2.1035713772e+00	 1.4286741790e+00	-7.4219331626e-01
 2.0694433488e+00	 1.4776761063e+00	-8.4546343221e-01
 2.0341042239e+00	 1.5259562430e+00	-9.4546305607e-01
 1.9975770039e+00	 1.5734702292e+00	-1.0325983994e+00
 2.3330139882e+00	 1.0813374260e+00	 2.0389658875e-01
 2.3075373857e+00	 1.1346876714e+00	 5.4764213456e-02
 2.2807365873e+00	 1.1876386307e+00	-9.4082449480e-02
 2.2526189443e+00	 1.2401422457e+00	-2.4021743667e-01
 2.2231940895e+00	 1.2921505092e+00	-3.8306660634e-01
 2.1924739501e+00	 1.3436155983e+00	-5.1530750086e-01
 2.1604727515e+00	 1.3944900101e+00	-6.3226480368e-01
 2.1272070107e+00	 1.4447266979e+00	-7.4060207353e-01
 2.0926955213e+00	 1.4942792086e+00	-8.4744556337e-01
 2.0569593275e+00	 1.5431018187e+00	-9.4383499446e-01
 2.0200216894e+00	 1.5911496700e+00	-1.0266879124e+00
 2.3589363658e+00	 1.0933522863e+00	 1.9969157778e-01
 2.3331766900e+00	 1.1472953122e+00	 5.6086096874e-02
 2.3060781050e+00	 1.2008346155e+00	-8.6201523351e-02
 2.2776480437e+00	 1.2539216040e+00	-2.2614847106e-01
 2.2478962460e+00	 1.3065077371e+00	-3.6352870969e-01
 2.2168347718e+00	 1.3585446605e+00	-4.9837537381e-01
 2.1844780042e+00	 1.4099843435e+00	-6.2252970750e-01
 2.1508426441e+00	 1.4607792168e+00	-7.3709138839e-01
 2.1159476937e+00	 1.5108823109e+00	-8.4665459064e-01
 2.0798144311e+00	 1.5602473945e+00	-9.4072209990e-01
 2.0424663748e+00	 1.6088291108e+00	-1.0205209859e+00
 2.3848587435e+00	 1.1053671466e+00	 1.9293090590e-01
 2.3588159943e+00	 1.1599029529e+00	 5.5011822391e-02
 2.3314196226e+00	 1.2140306003e+00	-8.1128845938e-02
 2.3026771431e+00	 1.2677009623e+00	-2.1535223697e-01
 2.2725984026e+00	 1.3208649650e+00	-3.4777706252e-01
 2.2411955934e+00	 1.3734737227e+00	-4.7898915286e-01
 2.2084832570e+00	 1.4254786770e+00	-6.0908778387e-01
 2.1744782776e+00	 1.4768317356e+00	-7.3134126342e-01
 2.1391998662e+00	 1.5274854132e+00	-8.4271076017e-01
 2.1026695348e+00	 1.5773929702e+00	-9.3570053101e-01
 2.0649110603e+00	 1.6265085516e+00	-1.0135584029e+00
 2.4107811211e+00	 1.1173820069e+00	 1.8327150873e-01
 2.3844552986e+00	 1.1725105937e+00	 5.1300742267e-02
 2.3567611403e+00	 1.2272265850e+00	-7.8917421533e-02
 2.3277062425e+00	 1.2814803206e+00	-2.0769483739e-01
 2.2973005591e+00	 1.3352221929e+00	-3.3549174164e-01
 2.2655564151e+00	 1.3884027849e+00	-4.6320112189e-01
 2.2324885098e+00	 1.4409730104e+00	-5.9250462716e-01
 2.1981139110e+00	 1.4928842545e+00	-7.2253006811e-01
 2.1624520386e+00	 1.5440885155e+00	-8.3537181399e-01
 2.1255246384e+00	 1.5945385460e+00	-9.2841945736e-01
 2.0873557457e+00	 1.6441879923e+00	-1.0053379443e+00
 2.4367034988e+00	 1.1293968672e+00	 1.7071398274e-01
 2.4100946028e+00	 1.1851182345e+00	 4.4751346014e-02
 2.3821026579e+00	 1.2404225698e+00	-7.9588947036e-02
 2.3527353418e+00	 1.2952596789e+00	-2.0301974302e-01
 2.3220027157e+00	 1.3495794208e+00	-3.2633950024e-01
 2.2899172368e+00	 1.4033318471e+00	-4.5073581541e-01
 2.2564937626e+00	 1.4564673439e+00	-5.7816771598e-01
 2.2217495445e+00	 1.5089367734e+00	-7.0908433487e-01
 2.1857042111e+00	 1.5606916179e+00	-8.2446609111e-01
 2.1483797421e+00	 1.6116841218e+00	-9.1860320833e-01
 2.1098004311e+00	 1.6618674331e+00	-9.9547669104e-01
 2.4626258764e+00	 1.1414117275e+00	 1.5497422505e-01
 2.4357339071e+00	 1.1977258753e+00	 3.5195852557e-02
 2.4074441755e+00	 1.2536185546e+00	-8.3139656478e-02
 2.3777644412e+00	 1.3090390372e+00	-2.0115409245e-01
 2.3467048722e+00	 1.3639366486e+00	-3.1998053982e-01
 2.3142780584e+00	 1.4182609094e+00	-4.4108765351e-01
 2.2804990154e+00	 1.4719616773e+00	-5.6669046421e-01
 2.2453851780e+00	 1.5249892922e+00	-6.9376346136e-01
 2.2089563836e+00	 1.5772947202e+00	-8.0989452243e-01
 2.1712348457e+00	 1.6288296975e+00	-9.0605341253e-01
 2.1322451166e+00	 1.6795468739e+00	-9.8367332249e-01
 1.9077982622e+00	 1.5027524661e+00	-1.0670259942e+00
 1.8718020356e+00	 1.5473578524e+00	-1.1760728443e+00
 1.8347211462e+00	 1.5911497413e+00	-1.2732832323e+00
 1.7965835493e+00	 1.6340889615e+00	-1.3463982960e+00
 1.7574190699e+00	 1.6761376424e+00	-1.3978487882e+00
 1.7172593257e+00	 1.7172593257e+00	-1.4338488210e+00
 1.6761376424e+00	 1.7574190699e+00	-1.4609539367e+00
 1.6340889615e+00	 1.7965835493e+00	-1.4853213471e+00
 1.5911497413e+00	 1.8347211462e+00	-1.5119909568e+00
 1.5473578524e+00	 1.8718020356e+00	-1.5401606268e+00
 1.5027524661e+00	 1.9077982622e+00	-1.5491179310e+00
 1.9302429476e+00	 1.5204319069e+00	-1.0552899181e+00
 1.8938232360e+00	 1.5655620624e+00	-1.1542840645e+00
 1.8563061009e+00	 1.6098691501e+00	-1.2440476244e+00
 1.8177198264e+00	 1.6533135375e+00	-1.3174423789e+00
 1.7780945884e+00	 1.6958569088e+00	-1.3689297142e+00
 1.7374623766e+00	 1.7374623766e+00	-1.4052145217e+00
 1.6958569088e+00	 1.7780945884e+00	-1.4334614494e+00
 1.6533135375e+00	 1.8177198264e+00	-1.4603819988e+00
 1.6098691501e+00	 1.8563061009e+00	-1.4912737318e+00
 1.5655620624e+00	 1.8938232360e+00	-1.5126316809e+00
 1.5204319069e+00	 1.9302429476e+00	-1.5124381314e+00
 1.9526876331e+00	 1.5381113477e+00	-1.0461780757e+00
 1.9158444364e+00	 1.5837662724e+00	-1.1367074457e+00
 1.8778910555e+00	 1.6285885588e+00	-1.2187458232e+00
 1.8388561034e+00	 1.6725381135e+00	-1.2905026585e+00
 1.7987701069e+00	 1.7155761752e+00	-1.3434537147e+00
 1.7576654275e+00	 1.7576654275e+00	-1.3814037166e+00
 1.7155761752e+00	 1.7987701069e+00	-1.4122009052e+00
 1.6725381135e+00	 1.8388561034e+00	-1.4431816593e+00
 1.6285885588e+00	 1.8778910555e+00	-1.4742077376e+00
 1.5837662724e+00	 1.9158444364e+00	-1.4874384839e+00
 1.5381113477e+00	 1.9526876331e+00	-1.4796747610e+00
 1.9751323185e+00	 1.5557907885e+00	-1.0388663565e+00
 1.9378656368e+00	 1.6019704824e+00	-1.1223870705e+00
 1.8994760102e+00	 1.6473079675e+00	-1.1980324704e+00
 1.8599923805e+00	 1.6917626895e+00	-1.2653425739e+00
 1.8194456253e+00	 1.7352954416e+00	-1.3207921761e+00
 1.7778684784e+00	 1.7778684784e+00	-1.3616860985e+00
 1.7352954416e+00	 1.8194456253e+00	-1.3963502353e+00
 1.6917626895e+00	 1.8599923805e+00	-1.4322930064e+00
 1.6473079675e+00	 1.8994760102e+00	-1.4576685890e+00
 1.6019704824e+00	 1.9378656368e+00	-1.4641343464e+00
 1.5557907885e+00	 1.9751323185e+00	-1.4502734024e+00
 1.9975770039e+00	 1.5734702292e+00	-1.0325983994e+00
 1.9598868373e+00	 1.6201746925e+00	-1.1104376522e+00
 1.9210609649e+00	 1.6660273762e+00	-1.1808883523e+00
 1.8811286575e+00	 1.7109872655e+00	-1.2440878921e+00
 1.8401211438e+00	 1.7550147079e+00	-1.3003105852e+00
 1.7980715293e+00	 1.7980715293e+00	-1.3453167637e+00
 1.7550147079e+00	 1.8401211438e+00	-1.3850646149e+00
 1.7109872655e+00	 1.8811286575e+00	-1.4217466319e+00
 1.6660273762e+00	 1.9210609649e+00	-1.4412734256e+00
 1.6201746925e+00	 1.9598868373e+00	-1.4422310209e+00
 1.5734702292e+00	 1.9975770039e+00	-1.4236344714e+00
 2.0200216894e+00	 1.5911496700e+00	-1.0266879124e+00
 1.9819080377e+00	 1.6383789025e+00	-1.1000469924e+00
 1.9426459195e+00	 1.6847467849e+00	-1.1663698006e+00
 1.9022649346e+00	 1.7302118415e+00	-1.2264245964e+00
 1.8607966623e+00	 1.7747339743e+00	-1.2816071929e+00
 1.8182745802e+00	 1.8182745802e+00	-1.3315316742e+00
 1.7747339743e+00	 1.8607966623e+00	-1.3769448136e+00
 1.7302118415e+00	 1.9022649346e+00	-1.4098466598e+00
 1.6847467849e+00	 1.9426459195e+00	-1.4246136810e+00
 1.6383789025e+00	 1.9819080377e+00	-1.4212127159e+00
 1.5911496700e+00	 2.0200216894e+00	-1.3991271235e+00
 2.0424663748e+00	 1.6088291108e+00	-1.0205209859e+00
 2.0039292381e+00	 1.6565831125e+00	-1.0904784396e+00
 1.9642308742e+00	 1.7034661937e+00	-1.1536113013e+00
 1.9234012116e+00	 1.7494364176e+00	-1.2113511327e+00
 1.8814721807e+00	 1.7944532407e+00	-1.2658083392e+00
 1.8384776311e+00	 1.8384776311e+00	-1.3195431446e+00
 1.7944532407e+00	 1.8814721807e+00	-1.3671267560e+00
 1.7494364176e+00	 1.9234012116e+00	-1.3962721436e+00
 1.7034661937e+00	 1.9642308742e+00	-1.4072691620e+00
 1.6565831125e+00	 2.0039292381e+00	-1.4005501528e+00
 1.6088291108e+00	 2.0424663748e+00	-1.3761032070e+00
 2.0649110603e+00	 1.6265085516e+00	-1.0135584029e+00
 2.0259504385e+00	 1.6747873226e+00	-1.0810733508e+00
 1.9858158288e+00	 1.7221856024e+00	-1.1418281124e+00
 1.9445374887e+00	 1.7686609936e+00	-1.1979488370e+00
 1.9021476992e+00	 1.8141725071e+00	-1.2522960395e+00
 1.8586806820e+00	 1.8586806820e+00	-1.3083897936e+00
 1.8141725071e+00	 1.9021476992e+00	-1.3544380397e+00
 1.7686609936e+00	 1.9445374887e+00	-1.3807044673e+00
 1.7221856024e+00	 1.9858158288e+00	-1.3888221644e+00
 1.6747873226e+00	 2.0259504385e+00	-1.3797146603e+00
 1.6265085516e+00	 2.0649110603e+00	-1.3539112574e+00
 2.0873557457e+00	 1.6441879923e+00	-1.0053379443e+00
 2.0479716389e+00	 1.6929915326e+00	-1.0712535556e+00
 2.0074007835e+00	 1.7409050111e+00	-1.1303188886e+00
 1.9656737657e+00	 1.7878855696e+00	-1.1853847215e+00
 1.9228232177e+00	 1.8338917735e+00	-1.2400960998e+00
 1.8788837329e+00	 1.8788837329e+00	-1.2955370372e+00
 1.8338917735e+00	 1.9228232177e+00	-1.3386622936e+00
 1.7878855696e+00	 1.9656737657e+00	-1.3628414308e+00
 1.7409050111e+00	 2.0074007835e+00	-1.3688716192e+00
 1.6929915326e+00	 2.0479716389e+00	-1.3581923055e+00
 1.6441879923e+00	 2.0873557457e+00	-1.3319105314e+00
 2.1098004311e+00	 1.6618674331e+00	-9.9547669104e-01
 2.0699928393e+00	 1.7111957426e+00	-1.0605238209e+00
 2.0289857382e+00	 1.7596244198e+00	-1.1184683135e+00
 1.9868100428e+00	 1.8071101456e+00	-1.1729142719e+00
 1.9434987362e+00	 1.8536110398e+00	-1.2283130228e+00
 1.8990867838e+00	 1.8990867838e+00	-1.2801114668e+00
 1.8536110398e+00	 1.9434987362e+00	-1.3196154500e+00
 1.8071101456e+00	 1.9868100428e+00	-1.3424113614e+00
 1.7596244198e+00	 2.0289857382e+00	-1.3470472704e+00
 1.7111957426e+00	 2.0699928393e+00	-1.3354980573e+00
 1.6618674331e+00	 2.1098004311e+00	-1.3094850772e+00
 2.1322451166e+00	 1.6795468739e+00	-9.8367332249e-01
 2.0920140398e+00	 1.7293999526e+00	-1.0484743183e+00
 2.0505706928e+00	 1.7783438285e+00	-1.1057497378e+00
 2.0079463198e+00	 1.8263347216e+00	-1.1598842557e+00
 1.9641742546e+00	 1.8733303062e+00	-1.2146224589e+00
 1.9192898346e+00	 1.9192898346e+00	-1.2619594280e+00
 1.8733303062e+00	 1.9641742546e+00	-1.2977596922e+00
 1.8263347216e+00	 2.0079463198e+00	-1.3191872513e+00
 1.7783438285e+00	 2.0505706928e+00	-1.3230238791e+00
 1.7293999526e+00	 2.0920140398e+00	-1.3111899808e+00
 1.6795468739e+00	 2.1322451166e+00	-1.2860578378e+00
 1.5027524661e+00	 1.9077982622e+00	-1.5491179310e+00
 1.4573739399e+00	 1.9426838093e+00	-1.5394917460e+00
 1.4112636970e+00	 1.9764346590e+00	-1.5075708111e+00
 1.3644641036e+00	 2.0090288434e+00	-1.4542216848e+00
 1.3170183428e+00	 2.0404464875e+00	-1.3839157601e+00
 1.2689702873e+00	 2.0706698418e+00	-1.3021427374e+00
 1.2203643698e+00	 2.0996833067e+00	-1.2146442638e+00
 1.1712454543e+00	 2.1274734474e+00	-1.1267536453e+00
 1.1216587068e+00	 2.1540289992e+00	-1.0428543164e+00
 1.0716494674e+00	 2.1793408643e+00	-9.6596792061e-01
 1.0212631246e+00	 2.2034020999e+00	-8.9738036426e-01
 1.5204319069e+00	 1.9302429476e+00	-1.5124381314e+00
 1.4745195157e+00	 1.9655389130e+00	-1.4961841322e+00
 1.4278667993e+00	 1.9996868314e+00	-1.4616260749e+00
 1.3805166224e+00	 2.0326644769e+00	-1.4059634397e+00
 1.3325126763e+00	 2.0644517403e+00	-1.3343266671e+00
 1.2838993495e+00	 2.0950306634e+00	-1.2527745252e+00
 1.2347215977e+00	 2.1243854633e+00	-1.1674788802e+00
 1.1850248126e+00	 2.1525025468e+00	-1.0840257402e+00
 1.1348546915e+00	 2.1793705168e+00	-1.0068458173e+00
 1.0842571082e+00	 2.2049801686e+00	-9.3879489587e-01
 1.0332779849e+00	 2.2293244776e+00	-8.8028920364e-01
 1.5381113477e+00	 1.9526876331e+00	-1.4796747610e+00
 1.4916650914e+00	 1.9883940166e+00	-1.4566832591e+00
 1.4444699016e+00	 2.0229390039e+00	-1.4213717104e+00
 1.3965691413e+00	 2.0563001103e+00	-1.3656878889e+00
 1.3480070097e+00	 2.0884569931e+00	-1.2950387179e+00
 1.2988284117e+00	 2.1193914851e+00	-1.2160687206e+00
 1.2490788256e+00	 2.1490876198e+00	-1.1353784147e+00
 1.1988041709e+00	 2.1775316462e+00	-1.0587854216e+00
 1.1480506763e+00	 2.2047120344e+00	-9.9072658474e-01
 1.0968647490e+00	 2.2306194728e+00	-9.3279774356e-01
 1.0452928452e+00	 2.2552468552e+00	-8.7272115432e-01
 1.5557907885e+00	 1.9751323185e+00	-1.4502734024e+00
 1.5088106672e+00	 2.0112491202e+00	-1.4219696156e+00
 1.4610730039e+00	 2.0461911764e+00	-1.3858352975e+00
 1.4126216602e+00	 2.0799357438e+00	-1.3322487077e+00
 1.3635013432e+00	 2.1124622459e+00	-1.2647437697e+00
 1.3137574739e+00	 2.1437523068e+00	-1.1905715255e+00
 1.2634360535e+00	 2.1737897764e+00	-1.1167624163e+00
 1.2125835292e+00	 2.2025607456e+00	-1.0493461485e+00
 1.1612466611e+00	 2.2300535521e+00	-9.9188845183e-01
 1.1094723898e+00	 2.2562587771e+00	-9.3262359997e-01
 1.0573077055e+00	 2.2811692329e+00	-8.6780932846e-01
 1.5734702292e+00	 1.9975770039e+00	-1.4236344714e+00
 1.5259562430e+00	 2.0341042239e+00	-1.3915133903e+00
 1.4776761063e+00	 2.0694433488e+00	-1.3541068191e+00
 1.4286741790e+00	 2.1035713772e+00	-1.3045562733e+00
 1.3789956766e+00	 2.1364674987e+00	-1.2421869494e+00
 1.3286865361e+00	 2.1681131284e+00	-1.1748812508e+00
 1.2777932814e+00	 2.1984919329e+00	-1.1101035994e+00
 1.2263628875e+00	 2.2275898449e+00	-1.0537159466e+00
 1.1744426459e+00	 2.2553950697e+00	-9.9630583871e-01
 1.1220800306e+00	 2.2818980814e+00	-9.3264520919e-01
 1.0693225658e+00	 2.3070916105e+00	-8.6409145044e-01
 1.5911496700e+00	 2.0200216894e+00	-1.3991271235e+00
 1.5431018187e+00	 2.0569593275e+00	-1.3645574076e+00
 1.4942792086e+00	 2.0926955213e+00	-1.3259240767e+00
 1.4447266979e+00	 2.1272070107e+00	-1.2815672421e+00
 1.3944900101e+00	 2.1604727515e+00	-1.2261561029e+00
 1.3436155983e+00	 2.1924739501e+00	-1.1676376889e+00
 1.2921505092e+00	 2.2231940895e+00	-1.1139065833e+00
 1.2401422457e+00	 2.2526189443e+00	-1.0600011723e+00
 1.1876386307e+00	 2.2807365873e+00	-9.9875516710e-01
 1.1346876714e+00	 2.3075373857e+00	-9.3165403208e-01
 1.0813374260e+00	 2.3330139882e+00	-8.6020336341e-01
 1.6088291108e+00	 2.0424663748e+00	-1.3761032070e+00
 1.5602473945e+00	 2.0798144311e+00	-1.3403216482e+00
 1.5108823109e+00	 2.1159476937e+00	-1.3017588458e+00
 1.4607792168e+00	 2.1508426441e+00	-1.2622741910e+00
 1.4099843435e+00	 2.1844780042e+00	-1.2154713167e+00
 1.3585446605e+00	 2.2168347718e+00	-1.1675115710e+00
 1.3065077371e+00	 2.2478962460e+00	-1.1195302940e+00
 1.2539216040e+00	 2.2776480437e+00	-1.0625865464e+00
 1.2008346155e+00	 2.3060781050e+00	-9.9835106041e-01
 1.1472953122e+00	 2.3331766900e+00	-9.2855409319e-01
 1.0933522863e+00	 2.3589363658e+00	-8.5487752089e-01
 1.6265085516e+00	 2.0649110603e+00	-1.3539112574e+00
 1.5773929702e+00	 2.1026695348e+00	-1.3180170518e+00
 1.5274854132e+00	 2.1391998662e+00	-1.2807222047e+00
 1.4768317356e+00	 2.1744782776e+00	-1.2456953188e+00
 1.4254786770e+00	 2.2084832570e+00	-1.2089745088e+00
 1.3734737227e+00	 2.2411955934e+00	-1.1698100460e+00
 1.3208649650e+00	 2.2725984026e+00	-1.1201231327e+00
 1.2677009623e+00	 2.3026771431e+00	-1.0609004251e+00
 1.2140306003e+00	 2.3314196226e+00	-9.9431446693e-01
 1.1599029529e+00	 2.3588159943e+00	-9.2235469740e-01
 1.1053671466e+00	 2.3848587435e+00	-8.4694160909e-01
 1.6441879923e+00	 2.0873557457e+00	-1.3319105314e+00
 1.5945385460e+00	 2.1255246384e+00	-1.2968593631e+00
 1.5440885155e+00	 2.1624520386e+00	-1.2618688711e+00
 1.4928842545e+00	 2.1981139110e+00	-1.2312435826e+00
 1.4409730104e+00	 2.2324885098e+00	-1.2047026087e+00
 1.3884027849e+00	 2.2655564151e+00	-1.1663965196e+00
 1.3352221929e+00	 2.2973005591e+00	-1.1154180590e+00
 1.2814803206e+00	 2.3277062425e+00	-1.0544759378e+00
 1.2272265850e+00	 2.3567611403e+00	-9.8597080668e-01
 1.1725105937e+00	 2.3844552986e+00	-9.1216852809e-01
 1.1173820069e+00	 2.4107811211e+00	-8.3530701654e-01
 1.6618674331e+00	 2.1098004311e+00	-1.3094850772e+00
 1.6116841218e+00	 2.1483797421e+00	-1.2760830183e+00
 1.5606916179e+00	 2.1857042111e+00	-1.2442643886e+00
 1.5089367734e+00	 2.2217495445e+00	-1.2189441148e+00
 1.4564673439e+00	 2.2564937626e+00	-1.1953366115e+00
 1.4033318471e+00	 2.2899172368e+00	-1.1570120937e+00
 1.3495794208e+00	 2.3220027157e+00	-1.1052503979e+00
 1.2952596789e+00	 2.3527353418e+00	-1.0429491363e+00
 1.2404225698e+00	 2.3821026579e+00	-9.7274821146e-01
 1.1851182345e+00	 2.4100946028e+00	-8.9720995114e-01
 1.1293968672e+00	 2.4367034988e+00	-8.1892666854e-01
 1.6795468739e+00	 2.1322451166e+00	-1.2860578378e+00
 1.6288296975e+00	 2.1712348457e+00	-1.2549550680e+00
 1.5772947202e+00	 2.2089563836e+00	-1.2269987734e+00
 1.5249892922e+00	 2.2453851780e+00	-1.2047384600e+00
 1.4719616773e+00	 2.2804990154e+00	-1.1796375980e+00
 1.4182609094e+00	 2.3142780584e+00	-1.1417796185e+00
 1.3639366486e+00	 2.3467048722e+00	-1.0895559422e+00
 1.3090390372e+00	 2.3777644412e+00	-1.0260572232e+00
 1.2536185546e+00	 2.4074441755e+00	-9.5417585109e-01
 1.1977258753e+00	 2.4357339071e+00	-8.7679341382e-01
 1.1414117275e+00	 2.4626258764e+00	-7.9688901015e-01
 1.0212631246e+00	 2.2034020999e+00	-8.9738036426e-01
 9.7054499124e-01	 2.2262078977e+00	-8.3526689552e-01
 9.1954018420e-01	 2.2477555546e+00	-7.6776314090e-01
 8.6829350754e-01	 2.2680444371e+00	-6.9109998183e-01
 8.1684933989e-01	 2.2870759366e+00	-6.0720025352e-01
 7.6525152665e-01	 2.3048534193e+00	-5.1801812910e-01
 7.1354327730e-01	 2.3213821691e+00	-4.2561842090e-01
 6.6176706831e-01	 2.3366693243e+00	-3.3372800368e-01
 6.0996455198e-01	 2.3507238096e+00	-2.4513250576e-01
 5.5817647140e-01	 2.3635562634e+00	-1.6245334220e-01
 5.0644258190e-01	 2.3751789606e+00	-8.7890515134e-02
 1.0332779849e+00	 2.2293244776e+00	-8.8028920364e-01
 9.8196316761e-01	 2.2523985788e+00	-8.1746730178e-01
 9.3035830402e-01	 2.2741997376e+00	-7.4462367151e-01
 8.7850872527e-01	 2.2947273128e+00	-6.6318653951e-01
 8.2645933212e-01	 2.3139827123e+00	-5.7490541418e-01
 7.7425448579e-01	 2.3319693419e+00	-4.8148294555e-01
 7.2193790409e-01	 2.3486925476e+00	-3.8452027242e-01
 6.6955256323e-01	 2.3641595516e+00	-2.8817746500e-01
 6.1714060553e-01	 2.3783793838e+00	-1.9566921383e-01
 5.6474325341e-01	 2.3913628077e+00	-1.0944855799e-01
 5.1240072992e-01	 2.4031222425e+00	-3.1378205880e-02
 1.0452928452e+00	 2.2552468552e+00	-8.7272115432e-01
 9.9338134398e-01	 2.2785892600e+00	-8.0494445097e-01
 9.4117642383e-01	 2.3006439206e+00	-7.2765004587e-01
 8.8872394301e-01	 2.3214101885e+00	-6.4227003560e-01
 8.3606932436e-01	 2.3408894880e+00	-5.5048901842e-01
 7.8325744492e-01	 2.3590852645e+00	-4.5386240701e-01
 7.3033253088e-01	 2.3760029260e+00	-3.5360447985e-01
 6.7733805815e-01	 2.3916497790e+00	-2.5398331280e-01
 6.2431665908e-01	 2.4060349581e+00	-1.5893034595e-01
 5.7131003543e-01	 2.4191693520e+00	-7.0741313884e-02
 5.1835887794e-01	 2.4310655244e+00	 9.0671582540e-03
 1.0573077055e+00	 2.2811692329e+00	-8.6780932846e-01
 1.0047995203e+00	 2.3047799411e+00	-7.9601840498e-01
 9.5199454365e-01	 2.3270881036e+00	-7.1510599001e-01
 8.9893916074e-01	 2.3480930642e+00	-6.2661845028e-01
 8.4567931659e-01	 2.3677962637e+00	-5.3228210429e-01
 7.9226040406e-01	 2.3862011871e+00	-4.3360683340e-01
 7.3872715767e-01	 2.4033133045e+00	-3.3157654205e-01
 6.8512355308e-01	 2.4191400063e+00	-2.3012388818e-01
 6.3149271263e-01	 2.4336905323e+00	-1.3422003821e-01
 5.7787681745e-01	 2.4469758963e+00	-4.5999898026e-02
 5.2431702596e-01	 2.4590088063e+00	 3.3390937120e-02
 1.0693225658e+00	 2.3070916105e+00	-8.6409145044e-01
 1.0162176967e+00	 2.3309706223e+00	-7.8910241486e-01
 9.6281266346e-01	 2.3535322866e+00	-7.0534057317e-01
 9.0915437848e-01	 2.3747759400e+00	-6.1457615293e-01
 8.5528930883e-01	 2.3947030395e+00	-5.1868217543e-01
 8.0126336320e-01	 2.4133171097e+00	-4.1922223628e-01
 7.4712178447e-01	 2.4306236830e+00	-3.1712743579e-01
 6.9290904800e-01	 2.4466302336e+00	-2.1559813727e-01
 6.3866876619e-01	 2.4613461065e+00	-1.2085244219e-01
 5.8444359946e-01	 2.4747824405e+00	-3.4893258739e-02
 5.3027517399e-01	 2.4869520882e+00	 4.1546419681e-02
 1.0813374260e+00	 2.3330139882e+00	-8.6020336341e-01
 1.0276358731e+00	 2.3571613034e+00	-7.8270096883e-01
 9.7363078327e-01	 2.3799764696e+00	-6.9678609839e-01
 9.1936959622e-01	 2.4014588157e+00	-6.0456177317e-01
 8.6489930106e-01	 2.4216098152e+00	-5.0815118322e-01
 8.1026632234e-01	 2.4404330322e+00	-4.0926853419e-01
 7.5551641126e-01	 2.4579340614e+00	-3.0888586458e-01
 7.0069454292e-01	 2.4741204610e+00	-2.0942351606e-01
 6.4584481974e-01	 2.4890016807e+00	-1.1815007666e-01
 5.9101038148e-01	 2.5025889848e+00	-3.7089956758e-02
 5.3623332201e-01	 2.5148953701e+00	 3.3495138301e-02
 1.0933522863e+00	 2.3589363658e+00	-8.5487752089e-01
 1.0390540494e+00	 2.3833519846e+00	-7.7540798959e-01
 9.8444890309e-01	 2.4064206526e+00	-6.8795614223e-01
 9.2958481395e-01	 2.4281416914e+00	-5.9506621358e-01
 8.7450929329e-01	 2.4485165909e+00	-4.9921363583e-01
 8.1926928147e-01	 2.4675489548e+00	-4.0235787400e-01
 7.6391103805e-01	 2.4852444399e+00	-3.0559846145e-01
 7.0848003784e-01	 2.5016106883e+00	-2.1063394180e-01
 6.5302087329e-01	 2.5166572550e+00	-1.2544218844e-01
 5.9757716350e-01	 2.5303955291e+00	-5.2257084861e-02
 5.4219147003e-01	 2.5428386519e+00	 9.2072611849e-03
 1.1053671466e+00	 2.3848587435e+00	-8.4694160909e-01
 1.0504722258e+00	 2.4095426657e+00	-7.6590516948e-01
 9.9526702290e-01	 2.4328648356e+00	-6.7744373228e-01
 9.3980003169e-01	 2.4548245672e+00	-5.8465079311e-01
 8.8411928553e-01	 2.4754233666e+00	-4.9045482471e-01
 8.2827224061e-01	 2.4946648774e+00	-3.9715305016e-01
 7.7230566484e-01	 2.5125548183e+00	-3.0605607320e-01
 7.1626553276e-01	 2.5291009157e+00	-2.1827778724e-01
 6.6019692684e-01	 2.5443128292e+00	-1.4206312173e-01
 6.0414394551e-01	 2.5582020734e+00	-8.0059157388e-02
 5.4814961805e-01	 2.5707819338e+00	-3.1337942973e-02
 1.1173820069e+00	 2.4107811211e+00	-8.3530701654e-01
 1.0618904022e+00	 2.4357333469e+00	-7.5296043327e-01
 1.0060851427e+00	 2.4593090186e+00	-6.6391965203e-01
 9.5001524942e-01	 2.4815074429e+00	-5.7194551145e-01
 8.9372927776e-01	 2.5023301424e+00	-4.8051915950e-01
 8.3727519975e-01	 2.5217808000e+00	-3.9236601446e-01
 7.8070029163e-01	 2.5398651968e+00	-3.0908841245e-01
 7.2405102768e-01	 2.5565911430e+00	-2.3141591476e-01
 6.6737298040e-01	 2.5719684034e+00	-1.6735069523e-01
 6.1071072753e-01	 2.5860086176e+00	-1.2015697193e-01
 5.5410776607e-01	 2.5987252157e+00	-8.6726717967e-02
 1.1293968672e+00	 2.4367034988e+00	-8.1892666854e-01
 1.0733085786e+00	 2.4619240280e+00	-7.3542651895e-01
 1.0169032625e+00	 2.4857532016e+00	-6.4613086380e-01
 9.6023046716e-01	 2.5081903186e+00	-5.5564742532e-01
 9.0333927000e-01	 2.5292369181e+00	-4.6810860342e-01
 8.4627815888e-01	 2.5488967226e+00	-3.8675646960e-01
 7.8909491843e-01	 2.5671755753e+00	-3.1356290149e-01
 7.3183652260e-01	 2.5840813704e+00	-2.4911974718e-01
 6.7454903395e-01	 2.5996239777e+00	-1.9919280800e-01
 6.1727750954e-01	 2.6138151619e+00	-1.5709966547e-01
 5.6006591410e-01	 2.6266684976e+00	-1.1760383309e-01
 1.1414117275e+00	 2.4626258764e+00	-7.9688901015e-01
 1.0847267549e+00	 2.4881147092e+00	-7.1223966785e-01
 1.0277213823e+00	 2.5121973846e+00	-6.2289904070e-01
 9.7044568490e-01	 2.5348731944e+00	-5.3451912846e-01
 9.1294926223e-01	 2.5561436938e+00	-4.5198120162e-01
 8.5528111802e-01	 2.5760126451e+00	-3.7913054039e-01
 7.9748954522e-01	 2.5944859537e+00	-3.1830928766e-01
 7.3962201752e-01	 2.6115715977e+00	-2.6154241704e-01
 6.8172508750e-01	 2.6272795519e+00	-2.0640711496e-01
 6.2384429156e-01	 2.6416217062e+00	-1.5605181281e-01
 5.6602406212e-01	 2.6546117795e+00	-1.0722876051e-01
 5.0644258190e-01	 2.3751789606e+00	-8.7890515134e-02
 4.5480157898e-01	 2.3856057318e+00	-1.8934704463e-02
 4.0329103299e-01	 2.3948518798e+00	 4.8605793126e-02
 3.5194733048e-01	 2.4029340940e+00	 1.1522806835e-01
 3.0080562235e-01	 2.4098703619e+00	 1.6895393102e-01
 2.4989977863e-01	 2.4156798803e+00	 2.0801790272e-01
 1.9926234999e-01	 2.4203829655e+00	 2.3634362528e-01
 1.4892453559e-01	 2.4240009625e+00	 2.5908281483e-01
 9.8916157435e-02	 2.4265561558e+00	 2.8200590515e-01
 4.9265640679e-02	 2.4280716794e+00	 3.1101237475e-01
 0.0000000000e+00	 2.4285714286e+00	 3.5173953908e-01
 5.1240072992e-01	 2.4031222425e+00	-3.1378205880e-02
 4.6015218579e-01	 2.4136716816e+00	 4.1384131386e-02
 4.0803563338e-01	 2.4230266078e+00	 1.1269413998e-01
 3.5608788731e-01	 2.4312039069e+00	 1.8299882362e-01
 3.0434451202e-01	 2.4382217779e+00	 2.4113557796e-01
 2.5283977603e-01	 2.4440996436e+00	 2.8498039437e-01
 2.0160661293e-01	 2.4488580592e+00	 3.1884853722e-01
 1.5067658895e-01	 2.4525186209e+00	 3.4800320291e-01
 1.0007987693e-01	 2.4551038753e+00	 3.7808188622e-01
 4.9845236452e-02	 2.4566372286e+00	 4.1464553657e-01
 0.0000000000e+00	 2.4571428571e+00	 4.6282728617e-01
 5.1835887794e-01	 2.4310655244e+00	 9.0671582540e-03
 4.6550279260e-01	 2.4417376313e+00	 8.3467710342e-02
 4.1278023377e-01	 2.4512013358e+00	 1.5587530218e-01
 3.6022844414e-01	 2.4594737198e+00	 2.2670643109e-01
 3.0788340170e-01	 2.4665731940e+00	 2.8593029554e-01
 2.5577977342e-01	 2.4725194069e+00	 3.3104859752e-01
 2.0395087587e-01	 2.4773331529e+00	 3.6679444887e-01
 1.5242864231e-01	 2.4810362793e+00	 3.9855871524e-01
 1.0124359643e-01	 2.4836515948e+00	 4.3185614781e-01
 5.0424832224e-02	 2.4852027777e+00	 4.7191727613e-01
 0.0000000000e+00	 2.4857142857e+00	 5.2338073089e-01
 5.2431702596e-01	 2.4590088063e+00	 3.3390937120e-02
 4.7085339942e-01	 2.4698035811e+00	 1.0692127739e-01
 4.1752483416e-01	 2.4793760638e+00	 1.7752650701e-01
 3.6436900097e-01	 2.4877435326e+00	 2.4564014070e-01
 3.1142229137e-01	 2.4949246100e+00	 3.0265449110e-01
 2.5871977082e-01	 2.5009391702e+00	 3.4570776388e-01
 2.0629513881e-01	 2.5058082466e+00	 3.7996406033e-01
 1.5418069567e-01	 2.5095539377e+00	 4.1094415930e-01
 1.0240731593e-01	 2.5121993143e+00	 4.4403579788e-01
 5.1004427997e-02	 2.5137683269e+00	 4.8413253120e-01
 0.0000000000e+00	 2.5142857143e+00	 5.3537360756e-01
 5.3027517399e-01	 2.4869520882e+00	 4.1546419681e-02
 4.7620400623e-01	 2.4978695309e+00	 1.1136404693e-01
 4.2226943455e-01	 2.5075507918e+00	 1.7704084035e-01
 3.6850955780e-01	 2.5160133455e+00	 2.3910704072e-01
 3.1496118105e-01	 2.5232760260e+00	 2.9064172137e-01
 2.6165976822e-01	 2.5293589335e+00	 3.2845864125e-01
 2.0863940175e-01	 2.5342833403e+00	 3.5815248086e-01
 1.5593274903e-01	 2.5380715961e+00	 3.8536176205e-01
 1.0357103543e-01	 2.5407470338e+00	 4.1532801319e-01
 5.1584023770e-02	 2.5423338761e+00	 4.5258615896e-01
 0.0000000000e+00	 2.5428571429e+00	 5.0075621334e-01
 5.3623332201e-01	 2.5148953701e+00	 3.3495138301e-02
 4.8155461304e-01	 2.5259354807e+00	 9.6428799906e-02
 4.2701403493e-01	 2.5357255198e+00	 1.5382628468e-01
 3.7265011463e-01	 2.5442831584e+00	 2.0644344378e-01
 3.1850007072e-01	 2.5516274420e+00	 2.4924007294e-01
 2.6459976561e-01	 2.5577786968e+00	 2.7881505091e-01
 2.1098366469e-01	 2.5627584340e+00	 3.0116521043e-01
 1.5768480239e-01	 2.5665892544e+00	 3.2201974449e-01
 1.0473475493e-01	 2.5692947532e+00	 3.4643937723e-01
 5.2163619542e-02	 2.5708994253e+00	 3.7856318920e-01
 0.0000000000e+00	 2.5714285714e+00	 4.2145671031e-01
 5.4219147003e-01	 2.5428386519e+00	 9.2072611849e-03
 4.8690521985e-01	 2.5540014305e+00	 6.1761599486e-02
 4.3175863532e-01	 2.5639002478e+00	 1.0730490244e-01
 3.7679067146e-01	 2.5725529713e+00	 1.4704480775e-01
 3.2203896040e-01	 2.5799788581e+00	 1.7780970237e-01
 2.6753976301e-01	 2.5861984601e+00	 1.9630161258e-01
 2.1332792763e-01	 2.5912335277e+00	 2.0881624458e-01
 1.5943685575e-01	 2.5951069128e+00	 2.2147051693e-01
 1.0589847443e-01	 2.5978424727e+00	 2.3956304662e-01
 5.2743215315e-02	 2.5994649744e+00	 2.6588696780e-01
 0.0000000000e+00	 2.6000000000e+00	 3.0232725303e-01
 5.4814961805e-01	 2.5707819338e+00	-3.1337942973e-02
 4.9225582666e-01	 2.5820673803e+00	 7.0216162730e-03
 4.3650323571e-01	 2.5920749758e+00	 3.6912153839e-02
 3.8093122829e-01	 2.6008227841e+00	 6.3494179015e-02
 3.2557785007e-01	 2.6083302741e+00	 8.8132868206e-02
 2.7047976040e-01	 2.6146182234e+00	 1.0552345509e-01
 2.1567219057e-01	 2.6197086215e+00	 1.1969213460e-01
 1.6118890911e-01	 2.6236245712e+00	 1.3424876827e-01
 1.0706219393e-01	 2.6263901922e+00	 1.5206597988e-01
 5.3322811088e-02	 2.6280305236e+00	 1.7524038145e-01
 0.0000000000e+00	 2.6285714286e+00	 2.0507169841e-01
 5.5410776607e-01	 2.5987252157e+00	-8.6726717967e-02
 4.9760643347e-01	 2.6101333300e+00	-5.5317454672e-02
 4.4124783610e-01	 2.6202497038e+00	-2.3543612904e-02
 3.8507178512e-01	 2.6290925970e+00	 8.9322223348e-03
 3.2911673975e-01	 2.6366816901e+00	 3.9256408166e-02
 2.7341975780e-01	 2.6430379867e+00	 6.1581662960e-02
 2.1801645351e-01	 2.6481837152e+00	 7.9221483966e-02
 1.6294096247e-01	 2.6521422296e+00	 9.5233877554e-02
 1.0822591343e-01	 2.6549379117e+00	 1.1192829569e-01
 5.3902406861e-02	 2.6565960728e+00	 1.3084741875e-01
 0.0000000000e+00	 2.6571428571e+00	 1.5276366736e-01
 5.6006591410e-01	 2.6266684976e+00	-1.1760383309e-01
 5.0295704028e-01	 2.6381992798e+00	-7.8016998941e-02
 4.4599243649e-01	 2.6484244318e+00	-3.8461107740e-02
 3.8921234195e-01	 2.6573624099e+00	 8.7157634180e-04
 3.3265562942e-01	 2.6650331061e+00	 3.7349884482e-02
 2.7635975519e-01	 2.6714577500e+00	 6.4783521007e-02
 2.2036071646e-01	 2.6766588089e+00	 8.5748945550e-02
 1.6469301583e-01	 2.6806598880e+00	 1.0276541256e-01
 1.0938963293e-01	 2.6834856312e+00	 1.1760476424e-01
 5.4482002633e-02	 2.6851616219e+00	 1.3129475936e-01
 0.0000000000e+00	 2.6857142857e+00	 1.4413358910e-01
 5.6602406212e-01	 2.6546117795e+00	-1.0722876051e-01
 5.0830764710e-01	 2.6662652296e+00	-5.8033765167e-02
 4.5073703687e-01	 2.6765991598e+00	-9.5391640464e-03
 3.9335289878e-01	 2.6856322227e+00	 3.7535975638e-02
 3.3619451910e-01	 2.6933845221e+00	 8.0639043365e-02
 2.7929975259e-01	 2.6998775133e+00	 1.1337969338e-01
 2.2270497940e-01	 2.7051339026e+00	 1.3758123204e-01
 1.6644506919e-01	 2.7091775464e+00	 1.5523038876e-01
 1.1055335243e-01	 2.7120333507e+00	 1.6758063743e-01
 5.5061598406e-02	 2.7137271711e+00	 1.7517816721e-01
 0.0000000000e+00	 2.7142857143e+00	 1.7789510287e-01
 2.7142857143e+00	 0.0000000000e+00	 1.8058243261e+00
 2.7137271711e+00	 5.5061598406e-02	 1.8037264929e+00
 2.7120333507e+00	 1.1055335243e-01	 1.7908010908e+00
 2.7091775464e+00	 1.6644506919e-01	 1.7674399777e+00
 2.7051339026e+00	 2.2270497940e-01	 1.7344616248e+00
 2.6998775133e+00	 2.7929975259e-01	 1.6931541274e+00
 2.6933845221e+00	 3.3619451910e-01	 1.6453151165e+00
 2.6856322227e+00	 3.9335289878e-01	 1.5924758709e+00
 2.6765991598e+00	 4.5073703687e-01	 1.5286726130e+00
 2.6662652296e+00	 5.0830764710e-01	 1.4510481238e+00
 2.6546117795e+00	 5.6602406212e-01	 1.3582249836e+00
 2.7428571429e+00	 0.0000000000e+00	 1.7176210562e+00
 2.7422927203e+00	 5.5641194179e-02	 1.7086287685e+00
 2.7405810701e+00	 1.1171707193e-01	 1.6918541220e+00
 2.7376952047e+00	 1.6819712255e-01	 1.6673802999e+00
 2.7336089963e+00	 2.2504924234e-01	 1.6356830761e+00
 2.7282972766e+00	 2.8223974998e-01	 1.5976932037e+00
 2.7217359382e+00	 3.3973340877e-01	 1.5548587819e+00
 2.7139020356e+00	 3.9749345561e-01	 1.5081898525e+00
 2.7047738878e+00	 4.5548163726e-01	 1.4518259049e+00
 2.6943311794e+00	 5.1365825391e-01	 1.3831115870e+00
 2.6825550614e+00	 5.7198221014e-01	 1.3004686134e+00
 2.7714285714e+00	 0.0000000000e+00	 1.6424529093e+00
 2.7708582694e+00	 5.6220789951e-02	 1.6285088633e+00
 2.7691287896e+00	 1.1288079143e-01	 1.6088249365e+00
 2.7662128631e+00	 1.6994917591e-01	 1.5833014222e+00
 2.7620840900e+00	 2.2739350528e-01	 1.5521939889e+00
 2.7567170399e+00	 2.8517974738e-01	 1.5161960582e+00
 2.7500873542e+00	 3.4327229844e-01	 1.4765244699e+00
 2.7421718485e+00	 4.0163401244e-01	 1.4338021345e+00
 2.7329486158e+00	 4.6022623765e-01	 1.3825004575e+00
 2.7223971292e+00	 5.1900886072e-01	 1.3202299758e+00
 2.7104983433e+00	 5.7794035816e-01	 1.2453713900e+00
 2.8000000000e+00	 0.0000000000e+00	 1.5795840204e+00
 2.7994238186e+00	 5.6800385724e-02	 1.5628678279e+00
 2.7976765091e+00	 1.1404451092e-01	 1.5414785625e+00
 2.7947305215e+00	 1.7170122927e-01	 1.5152510278e+00
 2.7905591837e+00	 2.2973776822e-01	 1.4843342754e+00
 2.7851368032e+00	 2.8811974478e-01	 1.4492946812e+00
 2.7784387702e+00	 3.4681118812e-01	 1.4112258713e+00
 2.7704416613e+00	 4.0577456926e-01	 1.3704982366e+00
 2.7611233438e+00	 4.6497083804e-01	 1.3221093596e+00
 2.7504630790e+00	 5.2435946753e-01	 1.2640067547e+00
 2.7384416252e+00	 5.8389850619e-01	 1.1946830041e+00
 2.8285714286e+00	 0.0000000000e+00	 1.5283628168e+00
 2.8279893678e+00	 5.7379981497e-02	 1.5112693121e+00
 2.8262242286e+00	 1.1520823042e-01	 1.4896227366e+00
 2.8232481799e+00	 1.7345328263e-01	 1.4633014657e+00
 2.8190342774e+00	 2.3208203116e-01	 1.4324523416e+00
 2.8135565665e+00	 2.9105974217e-01	 1.3976152594e+00
 2.8067901862e+00	 3.5035007779e-01	 1.3598584354e+00
 2.7987114742e+00	 4.0991512609e-01	 1.3194331088e+00
 2.7892980718e+00	 4.6971543843e-01	 1.2720251876e+00
 2.7785290288e+00	 5.2971007434e-01	 1.2159969312e+00
 2.7663849071e+00	 5.8985665421e-01	 1.1500988547e+00
 2.8571428571e+00	 0.0000000000e+00	 1.4882178039e+00
 2.8565549169e+00	 5.7959577269e-02	 1.4733360464e+00
 2.8547719481e+00	 1.1637194992e-01	 1.4531051048e+00
 2.8517658383e+00	 1.7520533599e-01	 1.4275476802e+00
 2.8475093711e+00	 2.3442629410e-01	 1.3969037420e+00
 2.8419763298e+00	 2.9399973957e-01	 1.3617775372e+00
 2.8351416023e+00	 3.5388896747e-01	 1.3232994044e+00
 2.8269812871e+00	 4.1405568292e-01	 1.2817315530e+00
 2.8174727998e+00	 4.7446003881e-01	 1.2335809386e+00
 2.8065949785e+00	 5.3506068115e-01	 1.1777084254e+00
 2.7943281890e+00	 5.9581480223e-01	 1.1132617637e+00
 2.8857142857e+00	 0.0000000000e+00	 1.4586536002e+00
 2.8851204661e+00	 5.8539173042e-02	 1.4487465328e+00
 2.8833196675e+00	 1.1753566942e-01	 1.4318105928e+00
 2.8802834967e+00	 1.7695738935e-01	 1.4081052723e+00
 2.8759844649e+00	 2.3677055704e-01	 1.3780499298e+00
 2.8703960931e+00	 2.9693973696e-01	 1.3423942380e+00
 2.8634930183e+00	 3.5742785714e-01	 1.3024078751e+00
 2.8552511000e+00	 4.1819623975e-01	 1.2584886459e+00
 2.8456475278e+00	 4.7920463920e-01	 1.2080709411e+00
 2.8346609283e+00	 5.4041128797e-01	 1.1506033972e+00
 2.8222714708e+00	 6.0177295025e-01	 1.0857636368e+00
 2.9142857143e+00	 0.0000000000e+00	 1.4392472069e+00
 2.9136860153e+00	 5.9118768815e-02	 1.4372319317e+00
 2.9118673870e+00	 1.1869938892e-01	 1.4256589353e+00
 2.9088011550e+00	 1.7870944271e-01	 1.4051086840e+00
 2.9044595586e+00	 2.3911481998e-01	 1.3762570942e+00
 2.8988158564e+00	 2.9987973436e-01	 1.3400705417e+00
 2.8918444343e+00	 3.6096674682e-01	 1.2980248874e+00
 2.8835209128e+00	 4.2233679658e-01	 1.2507701614e+00
 2.8738222558e+00	 4.8394923959e-01	 1.1967517443e+00
 2.8627268781e+00	 5.4576189478e-01	 1.1360995353e+00
 2.8502147527e+00	 6.0773109828e-01	 1.0691470725e+00
 2.9428571429e+00	 0.0000000000e+00	 1.4296444938e+00
 2.9422515645e+00	 5.9698364587e-02	 1.4385731313e+00
 2.9404151065e+00	 1.1986310842e-01	 1.4346023532e+00
 2.9373188134e+00	 1.8046149607e-01	 1.4187094961e+00
 2.9329346523e+00	 2.4145908293e-01	 1.3918950809e+00
 2.9272356197e+00	 3.0281973175e-01	 1.3554036145e+00
 2.9201958503e+00	 3.6450563649e-01	 1.3109735383e+00
 2.9117907257e+00	 4.2647735341e-01	 1.2596129944e+00
 2.9019969838e+00	 4.8869383998e-01	 1.2008429874e+00
 2.8907928279e+00	 5.5111250159e-01	 1.1355713093e+00
 2.8781580346e+00	 6.1368924630e-01	 1.0649069242e+00
 2.9714285714e+00	 0.0000000000e+00	 1.4328642907e+00
 2.9708171136e+00	 6.0277960360e-02	 1.4553534477e+00
 2.9689628260e+00	 1.2102682792e-01	 1.4601681189e+00
 2.9658364718e+00	 1.8221354943e-01	 1.4494128076e+00
 2.9614097460e+00	 2.4380334587e-01	 1.4253363884e+00
 2.9556553830e+00	 3.0575972915e-01	 1.3889821867e+00
 2.9485472663e+00	 3.6804452617e-01	 1.3420591179e+00
 2.9400605386e+00	 4.3061791024e-01	 1.2860255851e+00
 2.9301717118e+00	 4.9343844037e-01	 1.2215282501e+00
 2.9188587777e+00	 5.5646310840e-01	 1.1503511886e+00
 2.9061013165e+00	 6.1964739432e-01	 1.0744918166e+00
 3.0000000000e+00	 0.0000000000e+00	 1.5016806764e+00
 2.9993826628e+00	 6.0857556133e-02	 1.5381041253e+00
 2.9975105455e+00	 1.2219054742e-01	 1.5486913123e+00
 2.9943541302e+00	 1.8396560279e-01	 1.5365243926e+00
 2.9898848397e+00	 2.4614760881e-01	 1.5049279168e+00
 2.9840751463e+00	 3.0869972655e-01	 1.4575839480e+00
 2.9768986824e+00	 3.7158341584e-01	 1.3986789144e+00
 2.9683303514e+00	 4.3475846707e-01	 1.3319027307e+00
 2.9583464398e+00	 4.9818304076e-01	 1.2599558859e+00
 2.9469247275e+00	 5.6181371521e-01	 1.1817308292e+00
 2.9340445984e+00	 6.2560554234e-01	 1.0993056220e+00
 2.6546117795e+00	 5.6602406212e-01	 1.3582249836e+00
 2.6416217062e+00	 6.2384429156e-01	 1.2506644642e+00
 2.6272795519e+00	 6.8172508750e-01	 1.1320256891e+00
 2.6115715977e+00	 7.3962201752e-01	 1.0051993970e+00
 2.5944859537e+00	 7.9748954522e-01	 8.7160464957e-01
 2.5760126451e+00	 8.5528111802e-01	 7.3909711296e-01
 2.5561436938e+00	 9.1294926223e-01	 6.1618661399e-01
 2.5348731944e+00	 9.7044568490e-01	 5.0061743467e-01
 2.5121973846e+00	 1.0277213823e+00	 3.8847229933e-01
 2.4881147092e+00	 1.0847267549e+00	 2.7466060845e-01
 2.4626258764e+00	 1.1414117275e+00	 1.5497422505e-01
 2.6825550614e+00	 5.7198221014e-01	 1.3004686134e+00
 2.6694282505e+00	 6.3041107358e-01	 1.2037716745e+00
 2.6549351261e+00	 6.8890114105e-01	 1.0959032837e+00
 2.6390618251e+00	 7.4740751245e-01	 9.7931350862e-01
 2.6217963322e+00	 8.0588417201e-01	 8.5492636821e-01
 2.6031285677e+00	 8.6428407716e-01	 7.2577653994e-01
 2.5830504695e+00	 9.2255925446e-01	 5.9690840523e-01
 2.5615560701e+00	 9.8066090263e-01	 4.7766699173e-01
 2.5386415676e+00	 1.0385395022e+00	 3.6521689905e-01
 2.5143053903e+00	 1.0961449313e+00	 2.5338631138e-01
 2.4885482540e+00	 1.1534265878e+00	 1.3801016207e-01
 2.7104983433e+00	 5.7794035816e-01	 1.2453713900e+00
 2.6972347948e+00	 6.3697785559e-01	 1.1573582634e+00
 2.6825907004e+00	 6.9607719461e-01	 1.0583405214e+00
 2.6665520524e+00	 7.5519300737e-01	 9.5029505480e-01
 2.6491067106e+00	 8.1427879880e-01	 8.3378634422e-01
 2.6302444903e+00	 8.7328703630e-01	 7.1185163972e-01
 2.6099572453e+00	 9.3216924670e-01	 5.8787947264e-01
 2.5882389458e+00	 9.9087612037e-01	 4.6451231027e-01
 2.5650857506e+00	 1.0493576220e+00	 3.4805207571e-01
 2.5404960715e+00	 1.1075631077e+00	 2.3531818487e-01
 2.5144706317e+00	 1.1654414481e+00	 1.2245262838e-01
 2.7384416252e+00	 5.8389850619e-01	 1.1946830041e+00
 2.7250413390e+00	 6.4354463761e-01	 1.1132877382e+00
 2.7102462746e+00	 7.0325324816e-01	 1.0212974164e+00
 2.6940422797e+00	 7.6297850229e-01	 9.2019051332e-01
 2.6764170891e+00	 8.2267342559e-01	 8.1028758704e-01
 2.6573604129e+00	 8.8228999543e-01	 6.9453903190e-01
 2.6368640210e+00	 9.4177923893e-01	 5.7596123032e-01
 2.6149218215e+00	 1.0010913381e+00	 4.5668350388e-01
 2.5915299336e+00	 1.0601757418e+00	 3.3759229669e-01
 2.5666867526e+00	 1.1189812840e+00	 2.2121498138e-01
 2.5403930093e+00	 1.1774563084e+00	 1.0898708841e-01
 2.7663849071e+00	 5.8985665421e-01	 1.1500988547e+00
 2.7528478833e+00	 6.5011141963e-01	 1.0733649386e+00
 2.7379018488e+00	 7.1042930171e-01	 9.8667161949e-01
 2.7215325071e+00	 7.7076399721e-01	 8.9098164778e-01
 2.7037274676e+00	 8.3106805238e-01	 7.8646320160e-01
 2.6844763355e+00	 8.9129295457e-01	 6.7589893212e-01
 2.6637707967e+00	 9.5138923117e-01	 5.6194236491e-01
 2.6416046973e+00	 1.0113065558e+00	 4.4642025203e-01
 2.6179741166e+00	 1.0709938616e+00	 3.2996070693e-01
 2.5928774338e+00	 1.1303994604e+00	 2.1194251161e-01
 2.5663153870e+00	 1.1894711687e+00	 9.8283001987e-02
 2.7943281890e+00	 5.9581480223e-01	 1.1132617637e+00
 2.7806544276e+00	 6.5667820164e-01	 1.0393380343e+00
 2.7655574231e+00	 7.1760535527e-01	 9.5630066152e-01
 2.7490227344e+00	 7.7854949213e-01	 8.6458670756e-01
 2.7310378460e+00	 8.3946267918e-01	 7.6427815391e-01
 2.7115922580e+00	 9.0029591371e-01	 6.5791904936e-01
 2.6906775724e+00	 9.6099922340e-01	 5.4780913551e-01
 2.6682875730e+00	 1.0215217736e+00	 4.3548573304e-01
 2.6444182995e+00	 1.0818119814e+00	 3.2134399215e-01
 2.6190681149e+00	 1.1418176368e+00	 2.0508713044e-01
 2.5922377646e+00	 1.2014860289e+00	 9.0991050336e-02
 2.8222714708e+00	 6.0177295025e-01	 1.0857636368e+00
 2.8084609719e+00	 6.6324498366e-01	 1.0129004562e+00
 2.7932129973e+00	 7.2478140882e-01	 9.3196412506e-01
 2.7765129618e+00	 7.8633498705e-01	 8.4286204685e-01
 2.7583482245e+00	 8.4785730597e-01	 7.4563095633e-01
 2.7387081806e+00	 9.0929887284e-01	 6.4251629516e-01
 2.7175843481e+00	 9.7060921563e-01	 5.3547284286e-01
 2.6949704487e+00	 1.0317369913e+00	 4.2576182766e-01
 2.6708624825e+00	 1.0926301012e+00	 3.1356327064e-01
 2.6452587961e+00	 1.1532358131e+00	 1.9904701050e-01
 2.6181601423e+00	 1.2135008892e+00	 8.6251309277e-02
 2.8502147527e+00	 6.0773109828e-01	 1.0691470725e+00
 2.8362675161e+00	 6.6981176568e-01	 9.9569276920e-01
 2.8208685715e+00	 7.3195746237e-01	 9.1538574970e-01
 2.8040031891e+00	 7.9412048197e-01	 8.2760367211e-01
 2.7856586029e+00	 8.5625193276e-01	 7.3235527801e-01
 2.7658241032e+00	 9.1830183198e-01	 6.3153841672e-01
 2.7444911239e+00	 9.8021920787e-01	 5.2677144340e-01
 2.7216533245e+00	 1.0419522090e+00	 4.1905301074e-01
 2.6973066655e+00	 1.1034482210e+00	 3.0836651290e-01
 2.6714494772e+00	 1.1646539895e+00	 1.9541067542e-01
 2.6440825199e+00	 1.2255157495e+00	 8.3645171959e-02
 2.8781580346e+00	 6.1368924630e-01	 1.0649069242e+00
 2.8640740604e+00	 6.7637854769e-01	 9.8930448906e-01
 2.8485241457e+00	 7.3913351592e-01	 9.0823547507e-01
 2.8314934165e+00	 8.0190597689e-01	 8.2054872263e-01
 2.8129689814e+00	 8.6464655955e-01	 7.2622148559e-01
 2.7929400258e+00	 9.2730479112e-01	 6.2676555906e-01
 2.7713978996e+00	 9.8982920010e-01	 5.2347109278e-01
 2.7483362002e+00	 1.0521674268e+00	 4.1708783514e-01
 2.7237508485e+00	 1.1142663409e+00	 3.0742632178e-01
 2.6976401584e+00	 1.1760721659e+00	 1.9568094881e-01
 2.6700048976e+00	 1.2375306098e+00	 8.4543857790e-02
 2.9061013165e+00	 6.1964739432e-01	 1.0744918166e+00
 2.8918806047e+00	 6.8294532971e-01	 9.9527584678e-01
 2.8761797200e+00	 7.4630956948e-01	 9.1212332835e-01
 2.8589836438e+00	 8.0969147182e-01	 8.2337688893e-01
 2.8402793599e+00	 8.7304118634e-01	 7.2893811888e-01
 2.8200559484e+00	 9.3630775025e-01	 6.2991176104e-01
 2.7983046753e+00	 9.9943919234e-01	 5.2726762387e-01
 2.7750190759e+00	 1.0623826445e+00	 4.2152035205e-01
 2.7501950315e+00	 1.1250844607e+00	 3.1239233583e-01
 2.7238308395e+00	 1.1874903422e+00	 2.0127956690e-01
 2.6959272752e+00	 1.2495454701e+00	 9.0240673075e-02
 2.9340445984e+00	 6.2560554234e-01	 1.0993056220e+00
 2.9196871490e+00	 6.8951211173e-01	 1.0150995050e+00
 2.9038352942e+00	 7.5348562303e-01	 9.2860344532e-01
 2.8864738712e+00	 8.1747696674e-01	 8.3771177297e-01
 2.8675897383e+00	 8.8143581313e-01	 7.4215330587e-01
 2.8471718709e+00	 9.4531070939e-01	 6.4262638955e-01
 2.8252114510e+00	 1.0090491846e+00	 5.3978796325e-01
 2.8017019517e+00	 1.0725978623e+00	 4.3393147202e-01
 2.7766392145e+00	 1.1359025805e+00	 3.2474991370e-01
 2.7500215207e+00	 1.1989085186e+00	 2.1355174033e-01
 2.7218496529e+00	 1.2615603304e+00	 1.0195545688e-01
 2.4626258764e+00	 1.1414117275e+00	 1.5497422505e-01
 2.4357339071e+00	 1.1977258753e+00	 3.5195852557e-02
 2.4074441755e+00	 1.2536185546e+00	-8.3139656478e-02
 2.3777644412e+00	 1.3090390372e+00	-2.0115409245e-01
 2.3467048722e+00	 1.3639366486e+00	-3.1998053982e-01
 2.3142780584e+00	 1.4182609094e+00	-4.4108765351e-01
 2.2804990154e+00	 1.4719616773e+00	-5.6669046421e-01
 2.2453851780e+00	 1.5249892922e+00	-6.9376346136e-01
 2.2089563836e+00	 1.5772947202e+00	-8.0989452243e-01
 2.1712348457e+00	 1.6288296975e+00	-9.0605341253e-01
 2.1322451166e+00	 1.6795468739e+00	-9.8367332249e-01
 2.4885482540e+00	 1.1534265878e+00	 1.3801016207e-01
 2.4613732114e+00	 1.2103335161e+00	 2.3760782695e-02
 2.4327856932e+00	 1.2668145394e+00	-8.9035267821e-02
 2.4027935406e+00	 1.3228183955e+00	-2.0195037620e-01
 2.3714070288e+00	 1.3782938765e+00	-3.1648173667e-01
 2.3386388801e+00	 1.4331899716e+00	-4.3439779177e-01
 2.3045042682e+00	 1.4874560107e+00	-5.5808162540e-01
 2.2690208114e+00	 1.5410418111e+00	-6.8018473467e-01
 2.2322085560e+00	 1.5938978225e+00	-7.9285961876e-01
 2.1940899493e+00	 1.6459752733e+00	-8.9144136906e-01
 2.1546898020e+00	 1.6972263147e+00	-9.7050385469e-01
 2.5144706317e+00	 1.1654414481e+00	 1.2245262838e-01
 2.4870125157e+00	 1.2229411569e+00	 1.2154067537e-02
 2.4581272108e+00	 1.2800105242e+00	-9.6251158136e-02
 2.4278226400e+00	 1.3365977537e+00	-2.0485992739e-01
 2.3961091853e+00	 1.3926511044e+00	-3.1559461652e-01
 2.3629997018e+00	 1.4481190338e+00	-4.3057295139e-01
 2.3285095210e+00	 1.5029503442e+00	-5.5142016726e-01
 2.2926564449e+00	 1.5570943300e+00	-6.6864490741e-01
 2.2554607285e+00	 1.6105009248e+00	-7.7739366640e-01
 2.2169450530e+00	 1.6631208491e+00	-8.7546857634e-01
 2.1771344874e+00	 1.7149057555e+00	-9.5660403455e-01
 2.5403930093e+00	 1.1774563084e+00	 1.0898708841e-01
 2.5126518200e+00	 1.2355487977e+00	 1.0891408649e-03
 2.4834687284e+00	 1.2932065090e+00	-1.0404894084e-01
 2.4528517394e+00	 1.3503771120e+00	-2.0912051191e-01
 2.4208113419e+00	 1.4070083323e+00	-3.1653140061e-01
 2.3873605234e+00	 1.4630480960e+00	-4.2879451732e-01
 2.3525147738e+00	 1.5184446776e+00	-5.4590922641e-01
 2.3162920783e+00	 1.5731468488e+00	-6.5864293849e-01
 2.2787129009e+00	 1.6271040271e+00	-7.6379228437e-01
 2.2398001566e+00	 1.6802664248e+00	-8.5908959610e-01
 2.1995791729e+00	 1.7325851962e+00	-9.4189262884e-01
 2.5663153870e+00	 1.1894711687e+00	 9.8283001987e-02
 2.5382911243e+00	 1.2481564385e+00	-8.7406194970e-03
 2.5088102461e+00	 1.3064024938e+00	-1.1171555965e-01
 2.4778808387e+00	 1.3641564703e+00	-2.1400160638e-01
 2.4455134984e+00	 1.4213655602e+00	-3.1854335430e-01
 2.4117213451e+00	 1.4779771582e+00	-4.2829101917e-01
 2.3765200266e+00	 1.5339390111e+00	-5.4108897885e-01
 2.3399277118e+00	 1.5891993677e+00	-6.4974549676e-01
 2.3019650734e+00	 1.6437071294e+00	-7.5164465554e-01
 2.2626552603e+00	 1.6974120006e+00	-8.4437533296e-01
 2.2220238583e+00	 1.7502646370e+00	-9.2638072113e-01
 2.5922377646e+00	 1.2014860289e+00	 9.0991050336e-02
 2.5639304286e+00	 1.2607640793e+00	-1.6665358587e-02
 2.5341517637e+00	 1.3195984785e+00	-1.1856746680e-01
 2.5029099381e+00	 1.3779358286e+00	-2.1880929951e-01
 2.4702156550e+00	 1.4357227880e+00	-3.2092641606e-01
 2.4360821668e+00	 1.4929062204e+00	-4.2815231614e-01
 2.4005252794e+00	 1.5494333445e+00	-5.3656212660e-01
 2.3635633452e+00	 1.6052518866e+00	-6.4158030800e-01
 2.3252172459e+00	 1.6603102318e+00	-7.4060110851e-01
 2.2855103639e+00	 1.7145575764e+00	-8.3108734272e-01
 2.2444685438e+00	 1.7679440778e+00	-9.1127830600e-01
 2.6181601423e+00	 1.2135008892e+00	 8.6251309277e-02
 2.5895697328e+00	 1.2733717201e+00	-2.2042260524e-02
 2.5594932814e+00	 1.3327944633e+00	-1.2395484176e-01
 2.5279390375e+00	 1.3917151869e+00	-2.2289122567e-01
 2.4949178115e+00	 1.4500800159e+00	-3.2302685103e-01
 2.4604429884e+00	 1.5078352826e+00	-4.2742500916e-01
 2.4245305322e+00	 1.5649276780e+00	-5.3198722662e-01
 2.3871989787e+00	 1.6213044054e+00	-6.3382951017e-01
 2.3484694183e+00	 1.6769133341e+00	-7.3036652390e-01
 2.3083654675e+00	 1.7317031521e+00	-8.1895087344e-01
 2.2669132292e+00	 1.7856235186e+00	-8.9761984571e-01
 2.6440825199e+00	 1.2255157495e+00	 8.3645171959e-02
 2.6152090371e+00	 1.2859793609e+00	-2.4618701217e-02
 2.5848347990e+00	 1.3459904481e+00	-1.2726584767e-01
 2.5529681369e+00	 1.4054945452e+00	-2.2564152851e-01
 2.5196199681e+00	 1.4644372438e+00	-3.2424692789e-01
 2.4848038101e+00	 1.5227643448e+00	-4.2577531110e-01
 2.4485357850e+00	 1.5804220114e+00	-5.2707203140e-01
 2.4108346121e+00	 1.6373569243e+00	-6.2622301614e-01
 2.3717215908e+00	 1.6935164364e+00	-7.2069374511e-01
 2.3312205712e+00	 1.7488487279e+00	-8.0774094195e-01
 2.2893579146e+00	 1.8033029593e+00	-8.8519950187e-01
 2.6700048976e+00	 1.2375306098e+00	 8.4543857790e-02
 2.6408483414e+00	 1.2985870017e+00	-2.3997718276e-02
 2.6101763166e+00	 1.3591864329e+00	-1.2779563679e-01
 2.5779972363e+00	 1.4192739035e+00	-2.2650585263e-01
 2.5443221246e+00	 1.4787944717e+00	-3.2405061708e-01
 2.5091646318e+00	 1.5376934070e+00	-4.2293576577e-01
 2.4725410378e+00	 1.5959163449e+00	-5.2156684064e-01
 2.4344702456e+00	 1.6534094432e+00	-6.1853188357e-01
 2.3949737632e+00	 1.7101195387e+00	-7.1137699346e-01
 2.3540756748e+00	 1.7659943036e+00	-7.9727581960e-01
 2.3118026001e+00	 1.8209824001e+00	-8.7385808795e-01
 2.6959272752e+00	 1.2495454701e+00	 9.0240673075e-02
 2.6664876457e+00	 1.3111946425e+00	-1.9032576597e-02
 2.6355178343e+00	 1.3723824177e+00	-1.2439020362e-01
 2.6030263357e+00	 1.4330532617e+00	-2.2485494455e-01
 2.5690242812e+00	 1.4931516996e+00	-3.2190675990e-01
 2.5335254535e+00	 1.5526224692e+00	-4.1867783251e-01
 2.4965462906e+00	 1.6114106783e+00	-5.1525786305e-01
 2.4581058790e+00	 1.6694619620e+00	-6.1056169135e-01
 2.4182259357e+00	 1.7267226410e+00	-7.0224528715e-01
 2.3769307785e+00	 1.7831398794e+00	-7.8741052028e-01
 2.3342472855e+00	 1.8386618409e+00	-8.6347674470e-01
 2.7218496529e+00	 1.2615603304e+00	 1.0195545688e-01
 2.6921269500e+00	 1.3238022833e+00	-8.6389571113e-03
 2.6608593519e+00	 1.3855784025e+00	-1.1608460496e-01
 2.6280554350e+00	 1.4468326200e+00	-2.1900437080e-01
 2.5937264377e+00	 1.5075089274e+00	-3.1739222094e-01
 2.5578862751e+00	 1.5675515314e+00	-4.1280527606e-01
 2.5205515434e+00	 1.6269050118e+00	-5.0796058772e-01
 2.4817415125e+00	 1.6855144809e+00	-6.0214592220e-01
 2.4414781082e+00	 1.7433257433e+00	-6.9315586399e-01
 2.3997858821e+00	 1.8002854552e+00	-7.7803029084e-01
 2.3566919709e+00	 1.8563412817e+00	-8.5397947878e-01
 2.1322451166e+00	 1.6795468739e+00	-9.8367332249e-01
 2.0920140398e+00	 1.7293999526e+00	-1.0484743183e+00
 2.0505706928e+00	 1.7783438285e+00	-1.1057497378e+00
 2.0079463198e+00	 1.8263347216e+00	-1.1598842557e+00
 1.9641742546e+00	 1.8733303062e+00	-1.2146224589e+00
 1.9192898346e+00	 1.9192898346e+00	-1.2619594280e+00
 1.8733303062e+00	 1.9641742546e+00	-1.2977596922e+00
 1.8263347216e+00	 2.0079463198e+00	-1.3191872513e+00
 1.7783438285e+00	 2.0505706928e+00	-1.3230238791e+00
 1.7293999526e+00	 2.0920140398e+00	-1.3111899808e+00
 1.6795468739e+00	 2.1322451166e+00	-1.2860578378e+00
 2.1546898020e+00	 1.6972263147e+00	-9.7050385469e-01
 2.1140352402e+00	 1.7476041627e+00	-1.0356185033e+00
 2.0721556475e+00	 1.7970632373e+00	-1.0926431482e+00
 2.0290825969e+00	 1.8455592976e+00	-1.1467604854e+00
 1.9848497731e+00	 1.8930495726e+00	-1.1989168271e+00
 1.9394928855e+00	 1.9394928855e+00	-1.2423423805e+00
 1.8930495726e+00	 1.9848497731e+00	-1.2748786521e+00
 1.8455592976e+00	 2.0290825969e+00	-1.2945757027e+00
 1.7970632373e+00	 2.0721556475e+00	-1.2982249965e+00
 1.7476041627e+00	 2.1140352402e+00	-1.2866572886e+00
 1.6972263147e+00	 2.1546898020e+00	-1.2629214018e+00
 2.1771344874e+00	 1.7149057555e+00	-9.5660403455e-01
 2.1360564406e+00	 1.7658083727e+00	-1.0225504630e+00
 2.0937406021e+00	 1.8157826460e+00	-1.0797254890e+00
 2.0502188739e+00	 1.8647838737e+00	-1.1337685666e+00
 2.0055252916e+00	 1.9127688390e+00	-1.1825043564e+00
 1.9596959364e+00	 1.9596959364e+00	-1.2226490060e+00
 1.9127688390e+00	 2.0055252916e+00	-1.2524422371e+00
 1.8647838737e+00	 2.0502188739e+00	-1.2702454006e+00
 1.8157826460e+00	 2.0937406021e+00	-1.2741638515e+00
 1.7658083727e+00	 2.1360564406e+00	-1.2633725021e+00
 1.7149057555e+00	 2.1771344874e+00	-1.2414421253e+00
 2.1995791729e+00	 1.7325851962e+00	-9.4189262884e-01
 2.1580776410e+00	 1.7840125827e+00	-1.0091172795e+00
 2.1153255568e+00	 1.8345020547e+00	-1.0667563569e+00
 2.0713551510e+00	 1.8840084497e+00	-1.1197534333e+00
 2.0262008100e+00	 1.9324881054e+00	-1.1656369499e+00
 1.9798989873e+00	 1.9798989873e+00	-1.2030753731e+00
 1.9324881054e+00	 2.0262008100e+00	-1.2305900857e+00
 1.8840084497e+00	 2.0713551510e+00	-1.2467857893e+00
 1.8345020547e+00	 2.1153255568e+00	-1.2507592537e+00
 1.7840125827e+00	 2.1580776410e+00	-1.2411254870e+00
 1.7325851962e+00	 2.1995791729e+00	-1.2212541176e+00
 2.2220238583e+00	 1.7502646370e+00	-9.2638072113e-01
 2.1800988414e+00	 1.8022167928e+00	-9.9526189372e-01
 2.1369105115e+00	 1.8532214634e+00	-1.0535925930e+00
 2.0924914280e+00	 1.9032330257e+00	-1.1050056153e+00
 2.0468763285e+00	 1.9522073718e+00	-1.1486449476e+00
 2.0001020382e+00	 2.0001020382e+00	-1.1839002105e+00
 1.9522073718e+00	 2.0468763285e+00	-1.2095501085e+00
 1.9032330257e+00	 2.0924914280e+00	-1.2244110047e+00
 1.8532214634e+00	 2.1369105115e+00	-1.2280326874e+00
 1.8022167928e+00	 2.1800988414e+00	-1.2198055566e+00
 1.7502646370e+00	 2.2220238583e+00	-1.2020867003e+00
 2.2444685438e+00	 1.7679440778e+00	-9.1127830600e-01
 2.2021200419e+00	 1.8204210028e+00	-9.8102555132e-01
 2.1584954661e+00	 1.8719408722e+00	-1.0398992074e+00
 2.1136277051e+00	 1.9224576017e+00	-1.0899742413e+00
 2.0675518470e+00	 1.9719266381e+00	-1.1319256885e+00
 2.0203050891e+00	 2.0203050891e+00	-1.1654736502e+00
 1.9719266381e+00	 2.0675518470e+00	-1.1896274629e+00
 1.9224576017e+00	 2.1136277051e+00	-1.2033804636e+00
 1.8719408722e+00	 2.1584954661e+00	-1.2064570660e+00
 1.8204210028e+00	 2.2021200419e+00	-1.1994158236e+00
 1.7679440778e+00	 2.2444685438e+00	-1.1835809065e+00
 2.2669132292e+00	 1.7856235186e+00	-8.9761984571e-01
 2.2241412423e+00	 1.8386252128e+00	-9.6655598016e-01
 2.1800804208e+00	 1.8906602809e+00	-1.0258599026e+00
 2.1347639821e+00	 1.9416821777e+00	-1.0751610702e+00
 2.0882273654e+00	 1.9916459045e+00	-1.1159320800e+00
 2.0405081400e+00	 2.0405081400e+00	-1.1482059776e+00
 1.9916459045e+00	 2.0882273654e+00	-1.1711935372e+00
 1.9416821777e+00	 2.1347639821e+00	-1.1840271941e+00
 1.8906602809e+00	 2.1800804208e+00	-1.1865628149e+00
 1.8386252128e+00	 2.2241412423e+00	-1.1800895209e+00
 1.7856235186e+00	 2.2669132292e+00	-1.1662409530e+00
 2.2893579146e+00	 1.8033029593e+00	-8.8519950187e-01
 2.2461624427e+00	 1.8568294228e+00	-9.5287973937e-01
 2.2016653754e+00	 1.9093796896e+00	-1.0120730455e+00
 2.1559002592e+00	 1.9609067538e+00	-1.0611089366e+00
 2.1089028839e+00	 2.0113651709e+00	-1.1011611717e+00
 2.0607111909e+00	 2.0607111909e+00	-1.1325563902e+00
 2.0113651709e+00	 2.1089028839e+00	-1.1546749449e+00
 1.9609067538e+00	 2.1559002592e+00	-1.1667471137e+00
 1.9093796896e+00	 2.2016653754e+00	-1.1687131033e+00
 1.8568294228e+00	 2.2461624427e+00	-1.1625805965e+00
 1.8033029593e+00	 2.2893579146e+00	-1.1511982502e+00
 2.3118026001e+00	 1.8209824001e+00	-8.7385808795e-01
 2.2681836431e+00	 1.8750336329e+00	-9.4062236351e-01
 2.2232503301e+00	 1.9280990983e+00	-9.9916610726e-01
 2.1770365362e+00	 1.9801313298e+00	-1.0483902009e+00
 2.1295784024e+00	 2.0310844373e+00	-1.0881427358e+00
 2.0809142418e+00	 2.0809142418e+00	-1.1190217622e+00
 2.0310844373e+00	 2.1295784024e+00	-1.1405425268e+00
 1.9801313298e+00	 2.1770365362e+00	-1.1519883183e+00
 1.9280990983e+00	 2.2232503301e+00	-1.1533338202e+00
 1.8750336329e+00	 2.2681836431e+00	-1.1484729385e+00
 1.8209824001e+00	 2.3118026001e+00	-1.1395820908e+00
 2.3342472855e+00	 1.8386618409e+00	-8.6347674470e-01
 2.2902048435e+00	 1.8932378429e+00	-9.2992925729e-01
 2.2448352848e+00	 1.9468185070e+00	-9.8812631680e-01
 2.1981728133e+00	 1.9993559058e+00	-1.0375952025e+00
 2.1502539209e+00	 2.0508037037e+00	-1.0774278526e+00
 2.1011172927e+00	 2.1011172927e+00	-1.1081254169e+00
 2.0508037037e+00	 2.1502539209e+00	-1.1293003623e+00
 1.9993559058e+00	 2.1981728133e+00	-1.1402403819e+00
 1.9468185070e+00	 2.2448352848e+00	-1.1416687359e+00
 1.8932378429e+00	 2.2902048435e+00	-1.1389673546e+00
 1.8386618409e+00	 2.3342472855e+00	-1.1325064418e+00
 2.3566919709e+00	 1.8563412817e+00	-8.5397947878e-01
 2.3122260440e+00	 1.9114420529e+00	-9.2094918540e-01
 2.2664202394e+00	 1.9655379158e+00	-9.7955060564e-01
 2.2193090903e+00	 2.0185804818e+00	-1.0293207172e+00
 2.1709294393e+00	 2.0705229700e+00	-1.0695774996e+00
 2.1213203436e+00	 2.1213203436e+00	-1.1004059044e+00
 2.0705229700e+00	 2.1709294393e+00	-1.1214747881e+00
 2.0185804818e+00	 2.2193090903e+00	-1.1320236648e+00
 1.9655379158e+00	 2.2664202394e+00	-1.1351596218e+00
 1.9114420529e+00	 2.3122260440e+00	-1.1350449092e+00
 1.8563412817e+00	 2.3566919709e+00	-1.1310635916e+00
 1.6795468739e+00	 2.1322451166e+00	-1.2860578378e+00
 1.6288296975e+00	 2.1712348457e+00	-1.2549550680e+00
 1.5772947202e+00	 2.2089563836e+00	-1.2269987734e+00
 1.5249892922e+00	 2.2453851780e+00	-1.2047384600e+00
 1.4719616773e+00	 2.2804990154e+00	-1.1796375980e+00
 1.4182609094e+00	 2.3142780584e+00	-1.1417796185e+00
 1.3639366486e+00	 2.3467048722e+00	-1.0895559422e+00
 1.3090390372e+00	 2.3777644412e+00	-1.0260572232e+00
 1.2536185546e+00	 2.4074441755e+00	-9.5417585109e-01
 1.1977258753e+00	 2.4357339071e+00	-8.7679341382e-01
 1.1414117275e+00	 2.4626258764e+00	-7.9688901015e-01
 1.6972263147e+00	 2.1546898020e+00	-1.2629214018e+00
 1.6459752733e+00	 2.1940899493e+00	-1.2346030001e+00
 1.5938978225e+00	 2.2322085560e+00	-1.2105803426e+00
 1.5410418111e+00	 2.2690208114e+00	-1.1870102343e+00
 1.4874560107e+00	 2.3045042682e+00	-1.1597652088e+00
 1.4331899716e+00	 2.3386388801e+00	-1.1225933851e+00
 1.3782938765e+00	 2.3714070288e+00	-1.0700891738e+00
 1.3228183955e+00	 2.4027935406e+00	-1.0054902955e+00
 1.2668145394e+00	 2.4327856932e+00	-9.3198911450e-01
 1.2103335161e+00	 2.4613732114e+00	-8.5284634528e-01
 1.1534265878e+00	 2.4885482540e+00	-7.7149984692e-01
 1.7149057555e+00	 2.1771344874e+00	-1.2414421253e+00
 1.6631208491e+00	 2.2169450530e+00	-1.2162275340e+00
 1.6105009248e+00	 2.2554607285e+00	-1.1933015210e+00
 1.5570943300e+00	 2.2926564449e+00	-1.1681130827e+00
 1.5029503442e+00	 2.3285095210e+00	-1.1388290133e+00
 1.4481190338e+00	 2.3629997018e+00	-1.1016979558e+00
 1.3926511044e+00	 2.3961091853e+00	-1.0490675900e+00
 1.3365977537e+00	 2.4278226400e+00	-9.8353166133e-01
 1.2800105242e+00	 2.4581272108e+00	-9.0866307793e-01
 1.2229411569e+00	 2.4870125157e+00	-8.2819741027e-01
 1.1654414481e+00	 2.5144706317e+00	-7.4614160362e-01
 1.7325851962e+00	 2.1995791729e+00	-1.2212541176e+00
 1.6802664248e+00	 2.2398001566e+00	-1.1986604565e+00
 1.6271040271e+00	 2.2787129009e+00	-1.1751925299e+00
 1.5731468488e+00	 2.3162920783e+00	-1.1488042093e+00
 1.5184446776e+00	 2.3525147738e+00	-1.1177610473e+00
 1.4630480960e+00	 2.3873605234e+00	-1.0798726199e+00
 1.4070083323e+00	 2.4208113419e+00	-1.0272500394e+00
 1.3503771120e+00	 2.4528517394e+00	-9.6093237890e-01
 1.2932065090e+00	 2.4834687284e+00	-8.8495392946e-01
 1.2355487977e+00	 2.5126518200e+00	-8.0362176813e-01
 1.1774563084e+00	 2.5403930093e+00	-7.2162383008e-01
 1.7502646370e+00	 2.2220238583e+00	-1.2020867003e+00
 1.6974120006e+00	 2.2626552603e+00	-1.1807236784e+00
 1.6437071294e+00	 2.3019650734e+00	-1.1571344043e+00
 1.5891993677e+00	 2.3399277118e+00	-1.1299137331e+00
 1.5339390111e+00	 2.3765200266e+00	-1.0973600066e+00
 1.4779771582e+00	 2.4117213451e+00	-1.0579730745e+00
 1.4213655602e+00	 2.4455134984e+00	-1.0054673338e+00
 1.3641564703e+00	 2.4778808387e+00	-9.3850913252e-01
 1.3064024938e+00	 2.5088102461e+00	-8.6167524046e-01
 1.2481564385e+00	 2.5382911243e+00	-7.7994183350e-01
 1.1894711687e+00	 2.5663153870e+00	-6.9879137048e-01
 1.7679440778e+00	 2.2444685438e+00	-1.1835809065e+00
 1.7145575764e+00	 2.2855103639e+00	-1.1633488193e+00
 1.6603102318e+00	 2.3252172459e+00	-1.1400618776e+00
 1.6052518866e+00	 2.3635633452e+00	-1.1123332997e+00
 1.5494333445e+00	 2.4005252794e+00	-1.0784933841e+00
 1.4929062204e+00	 2.4360821668e+00	-1.0371564589e+00
 1.4357227880e+00	 2.4702156550e+00	-9.8462170507e-01
 1.3779358286e+00	 2.5029099381e+00	-9.1714422739e-01
 1.3195984785e+00	 2.5341517637e+00	-8.3969852370e-01
 1.2607640793e+00	 2.5639304286e+00	-7.5802841901e-01
 1.2014860289e+00	 2.5922377646e+00	-6.7852610898e-01
 1.7856235186e+00	 2.2669132292e+00	-1.1662409530e+00
 1.7317031521e+00	 2.3083654675e+00	-1.1475701798e+00
 1.6769133341e+00	 2.3484694183e+00	-1.1249513018e+00
 1.6213044054e+00	 2.3871989787e+00	-1.0970047094e+00
 1.5649276780e+00	 2.4245305322e+00	-1.0620868831e+00
 1.5078352826e+00	 2.4604429884e+00	-1.0189076893e+00
 1.4500800159e+00	 2.4949178115e+00	-9.6568624212e-01
 1.3917151869e+00	 2.5279390375e+00	-8.9778554791e-01
 1.3327944633e+00	 2.5594932814e+00	-8.1995373486e-01
 1.2733717201e+00	 2.5895697328e+00	-7.3880179873e-01
 1.2135008892e+00	 2.6181601423e+00	-6.6182703476e-01
 1.8033029593e+00	 2.2893579146e+00	-1.1511982502e+00
 1.7488487279e+00	 2.3312205712e+00	-1.1344422686e+00
 1.6935164364e+00	 2.3717215908e+00	-1.1128085842e+00
 1.6373569243e+00	 2.4108346121e+00	-1.0849085576e+00
 1.5804220114e+00	 2.4485357850e+00	-1.0491138376e+00
 1.5227643448e+00	 2.4848038101e+00	-1.0042276620e+00
 1.4644372438e+00	 2.5196199681e+00	-9.4970431014e-01
 1.4054945452e+00	 2.5529681369e+00	-8.8144648203e-01
 1.3459904481e+00	 2.5848347990e+00	-8.0342972131e-01
 1.2859793609e+00	 2.6152090371e+00	-7.2427741332e-01
 1.2255157495e+00	 2.6440825199e+00	-6.5051330572e-01
 1.8209824001e+00	 2.3118026001e+00	-1.1395820908e+00
 1.7659943036e+00	 2.3540756748e+00	-1.1250271389e+00
 1.7101195387e+00	 2.3949737632e+00	-1.1046571423e+00
 1.6534094432e+00	 2.4344702456e+00	-1.0770528885e+00
 1.5959163449e+00	 2.4725410378e+00	-1.0405846368e+00
 1.5376934070e+00	 2.5091646318e+00	-9.9414129901e-01
 1.4787944717e+00	 2.5443221246e+00	-9.3778895289e-01
 1.4192739035e+00	 2.5779972363e+00	-8.6920581370e-01
 1.3591864329e+00	 2.6101763166e+00	-7.9224462379e-01
 1.2985870017e+00	 2.6408483414e+00	-7.1762268334e-01
 1.2375306098e+00	 2.6700048976e+00	-6.4669539115e-01
 1.8386618409e+00	 2.3342472855e+00	-1.1325064418e+00
 1.7831398794e+00	 2.3769307785e+00	-1.1203817423e+00
 1.7267226410e+00	 2.4182259357e+00	-1.1015258739e+00
 1.6694619620e+00	 2.4581058790e+00	-1.0744618603e+00
 1.6114106783e+00	 2.4965462906e+00	-1.0375361560e+00
 1.5526224692e+00	 2.5335254535e+00	-9.8970980760e-01
 1.4931516996e+00	 2.5690242812e+00	-9.3128356297e-01
 1.4330532617e+00	 2.6030263357e+00	-8.6268472908e-01
 1.3723824177e+00	 2.6355178343e+00	-7.9094241833e-01
 1.3111946425e+00	 2.6664876457e+00	-7.2073648135e-01
 1.2495454701e+00	 2.6959272752e+00	-6.5242730685e-01
 1.8563412817e+00	 2.3566919709e+00	-1.1310635916e+00
 1.8002854552e+00	 2.3997858821e+00	-1.1215452990e+00
 1.7433257433e+00	 2.4414781082e+00	-1.1044371430e+00
 1.6855144809e+00	 2.4817415125e+00	-1.0781644209e+00
 1.6269050118e+00	 2.5205515434e+00	-1.0410211914e+00
 1.5675515314e+00	 2.5578862751e+00	-9.9202093403e-01
 1.5075089274e+00	 2.5937264377e+00	-9.3168929899e-01
 1.4468326200e+00	 2.6280554350e+00	-8.6724619133e-01
 1.3855784025e+00	 2.6608593519e+00	-8.0137520091e-01
 1.3238022833e+00	 2.6921269500e+00	-7.3543727061e-01
 1.2615603304e+00	 2.7218496529e+00	-6.6970359028e-01
 1.1414117275e+00	 2.4626258764e+00	-7.9688901015e-01
 1.0847267549e+00	 2.4881147092e+00	-7.1223966785e-01
 1.0277213823e+00	 2.5121973846e+00	-6.2289904070e-01
 9.7044568490e-01	 2.5348731944e+00	-5.3451912846e-01
 9.1294926223e-01	 2.5561436938e+00	-4.5198120162e-01
 8.5528111802e-01	 2.5760126451e+00	-3.7913054039e-01
 7.9748954522e-01	 2.5944859537e+00	-3.1830928766e-01
 7.3962201752e-01	 2.6115715977e+00	-2.6154241704e-01
 6.8172508750e-01	 2.6272795519e+00	-2.0640711496e-01
 6.2384429156e-01	 2.6416217062e+00	-1.5605181281e-01
 5.6602406212e-01	 2.6546117795e+00	-1.0722876051e-01
 1.1534265878e+00	 2.4885482540e+00	-7.7149984692e-01
 1.0961449313e+00	 2.5143053903e+00	-6.8634460997e-01
 1.0385395022e+00	 2.5386415676e+00	-5.9808029957e-01
 9.8066090263e-01	 2.5615560701e+00	-5.1360699781e-01
 9.2255925446e-01	 2.5830504695e+00	-4.3864591562e-01
 8.6428407716e-01	 2.6031285677e+00	-3.7589295047e-01
 8.0588417201e-01	 2.6217963322e+00	-3.1641956804e-01
 7.4740751245e-01	 2.6390618251e+00	-2.5508583616e-01
 6.8890114105e-01	 2.6549351261e+00	-1.9280411734e-01
 6.3041107358e-01	 2.6694282505e+00	-1.3438192106e-01
 5.7198221014e-01	 2.6825550614e+00	-7.6868530100e-02
 1.1654414481e+00	 2.5144706317e+00	-7.4614160362e-01
 1.1075631077e+00	 2.5404960715e+00	-6.6190614917e-01
 1.0493576220e+00	 2.5650857506e+00	-5.7684682966e-01
 9.9087612037e-01	 2.5882389458e+00	-4.9931696878e-01
 9.3216924670e-01	 2.6099572453e+00	-4.3223171795e-01
 8.7328703630e-01	 2.6302444903e+00	-3.6935534369e-01
 8.1427879880e-01	 2.6491067106e+00	-3.0748036292e-01
 7.5519300737e-01	 2.6665520524e+00	-2.4296023718e-01
 6.9607719461e-01	 2.6825907004e+00	-1.7562004780e-01
 6.3697785559e-01	 2.6972347948e+00	-1.1144490507e-01
 5.7794035816e-01	 2.7104983433e+00	-4.8005962966e-02
 1.1774563084e+00	 2.5403930093e+00	-7.2162383008e-01
 1.1189812840e+00	 2.5666867526e+00	-6.3972683922e-01
 1.0601757418e+00	 2.5915299336e+00	-5.6004548466e-01
 1.0010913381e+00	 2.6149218215e+00	-4.8818787802e-01
 9.4177923893e-01	 2.6368640210e+00	-4.2132987624e-01
 8.8228999543e-01	 2.6573604129e+00	-3.5752578749e-01
 8.2267342559e-01	 2.6764170891e+00	-2.9402757303e-01
 7.6297850229e-01	 2.6940422797e+00	-2.2753178265e-01
 7.0325324816e-01	 2.7102462746e+00	-1.5702682767e-01
 6.4354463761e-01	 2.7250413390e+00	-8.9184721945e-02
 5.8389850619e-01	 2.7384416252e+00	-2.2310565767e-02
 1.1894711687e+00	 2.5663153870e+00	-6.9879137048e-01
 1.1303994604e+00	 2.5928774338e+00	-6.2055825079e-01
 1.0709938616e+00	 2.6179741166e+00	-5.4514420299e-01
 1.0113065558e+00	 2.6416046973e+00	-4.7423182669e-01
 9.5138923117e-01	 2.6637707967e+00	-4.0740415798e-01
 8.9129295457e-01	 2.6844763355e+00	-3.4298574268e-01
 8.3106805238e-01	 2.7037274676e+00	-2.7853735938e-01
 7.7076399721e-01	 2.7215325071e+00	-2.1111420530e-01
 7.1042930171e-01	 2.7379018488e+00	-1.3913033930e-01
 6.5011141963e-01	 2.7528478833e+00	-6.9481389996e-02
 5.8985665421e-01	 2.7663849071e+00	-1.3927564733e-03
 1.2014860289e+00	 2.5922377646e+00	-6.7852610898e-01
 1.1418176368e+00	 2.6190681149e+00	-6.0365267675e-01
 1.0818119814e+00	 2.6444182995e+00	-5.3009023334e-01
 1.0215217736e+00	 2.6682875730e+00	-4.5983862088e-01
 9.6099922340e-01	 2.6906775724e+00	-3.9302296696e-01
 9.0029591371e-01	 2.7115922580e+00	-3.2825657922e-01
 8.3946267918e-01	 2.7310378460e+00	-2.6342897592e-01
 7.7854949213e-01	 2.7490227344e+00	-1.9596913270e-01
 7.1760535527e-01	 2.7655574231e+00	-1.2397589141e-01
 6.5667820164e-01	 2.7806544276e+00	-5.4155623420e-02
 5.9581480223e-01	 2.7943281890e+00	 1.3192416782e-02
 1.2135008892e+00	 2.6181601423e+00	-6.6182703476e-01
 1.1532358131e+00	 2.6452587961e+00	-5.8933209272e-01
 1.0926301012e+00	 2.6708624825e+00	-5.1732039482e-01
 1.0317369913e+00	 2.6949704487e+00	-4.4751029452e-01
 9.7060921563e-01	 2.7175843481e+00	-3.8069570599e-01
 9.0929887284e-01	 2.7387081806e+00	-3.1580230556e-01
 8.4785730597e-01	 2.7583482245e+00	-2.5106743924e-01
 7.8633498705e-01	 2.7765129618e+00	-1.8430859552e-01
 7.2478140882e-01	 2.7932129973e+00	-1.1355354947e-01
 6.6324498366e-01	 2.8084609719e+00	-4.4973354895e-02
 6.0177295025e-01	 2.8222714708e+00	 1.9941639934e-02
 1.2255157495e+00	 2.6440825199e+00	-6.5051330572e-01
 1.1646539895e+00	 2.6714494772e+00	-5.7990666027e-01
 1.1034482210e+00	 2.6973066655e+00	-5.0922209117e-01
 1.0419522090e+00	 2.7216533245e+00	-4.3969209124e-01
 9.8021920787e-01	 2.7444911239e+00	-3.7287530917e-01
 9.1830183198e-01	 2.7658241032e+00	-3.0803214159e-01
 8.5625193276e-01	 2.7856586029e+00	-2.4376604646e-01
 7.9412048197e-01	 2.8040031891e+00	-1.7829739407e-01
 7.3195746237e-01	 2.8208685715e+00	-1.0980334003e-01
 6.6981176568e-01	 2.8362675161e+00	-4.3650153695e-02
 6.0773109828e-01	 2.8502147527e+00	 1.7399774583e-02
 1.2375306098e+00	 2.6700048976e+00	-6.4669539115e-01
 1.1760721659e+00	 2.6976401584e+00	-5.7763622671e-01
 1.1142663409e+00	 2.7237508485e+00	-5.0812326826e-01
 1.0521674268e+00	 2.7483362002e+00	-4.3877472237e-01
 9.8982920010e-01	 2.7713978996e+00	-3.7196062945e-01
 9.2730479112e-01	 2.7929400258e+00	-3.0730294596e-01
 8.6464655955e-01	 2.8129689814e+00	-2.4378875166e-01
 8.0190597689e-01	 2.8314934165e+00	-1.8005533283e-01
 7.3913351592e-01	 2.8485241457e+00	-1.1462033776e-01
 6.7637854769e-01	 2.8640740604e+00	-5.1855546427e-02
 6.1368924630e-01	 2.8781580346e+00	 4.1563717073e-03
 1.2495454701e+00	 2.6959272752e+00	-6.5242730685e-01
 1.1874903422e+00	 2.7238308395e+00	-5.8472809175e-01
 1.1250844607e+00	 2.7501950315e+00	-5.1621954240e-01
 1.0623826445e+00	 2.7750190759e+00	-4.4709649566e-01
 9.9943919234e-01	 2.7983046753e+00	-3.8029869123e-01
 9.3630775025e-01	 2.8200559484e+00	-3.1592150750e-01
 8.7304118634e-01	 2.8402793599e+00	-2.5335241027e-01
 8.0969147182e-01	 2.8589836438e+00	-1.9165933182e-01
 7.4630956948e-01	 2.8761797200e+00	-1.2981961491e-01
 6.8294532971e-01	 2.8918806047e+00	-7.1217246960e-02
 6.1964739432e-01	 2.9061013165e+00	-2.1157747360e-02
 1.2615603304e+00	 2.7218496529e+00	-6.6970359028e-01
 1.1989085186e+00	 2.7500215207e+00	-6.0333467694e-01
 1.1359025805e+00	 2.7766392145e+00	-5.3573734319e-01
 1.0725978623e+00	 2.8017019517e+00	-4.6694532332e-01
 1.0090491846e+00	 2.8252114510e+00	-4.0018681698e-01
 9.4531070939e-01	 2.8471718709e+00	-3.3614670980e-01
 8.8143581313e-01	 2.8675897383e+00	-2.7462890042e-01
 8.1747696674e-01	 2.8864738712e+00	-2.1514542298e-01
 7.5348562303e-01	 2.9038352942e+00	-1.5714777612e-01
 6.8951211173e-01	 2.9196871490e+00	-1.0332530160e-01
 6.2560554234e-01	 2.9340445984e+00	-5.9873847182e-02
 5.6602406212e-01	 2.6546117795e+00	-1.0722876051e-01
 5.0830764710e-01	 2.6662652296e+00	-5.8033765167e-02
 4.5073703687e-01	 2.6765991598e+00	-9.5391640464e-03
 3.9335289878e-01	 2.6856322227e+00	 3.7535975638e-02
 3.3619451910e-01	 2.6933845221e+00	 8.0639043365e-02
 2.7929975259e-01	 2.6998775133e+00	 1.1337969338e-01
 2.2270497940e-01	 2.7051339026e+00	 1.3758123204e-01
 1.6644506919e-01	 2.7091775464e+00	 1.5523038876e-01
 1.1055335243e-01	 2.7120333507e+00	 1.6758063743e-01
 5.5061598406e-02	 2.7137271711e+00	 1.7517816721e-01
 0.0000000000e+00	 2.7142857143e+00	 1.7789510287e-01
 5.7198221014e-01	 2.6825550614e+00	-7.6868530100e-02
 5.1365825391e-01	 2.6943311794e+00	-1.9030742176e-02
 4.5548163726e-01	 2.7047738878e+00	 3.7324709520e-02
 3.9749345561e-01	 2.7139020356e+00	 9.1058505308e-02
 3.3973340877e-01	 2.7217359382e+00	 1.3967164188e-01
 2.8223974998e-01	 2.7282972766e+00	 1.7676966063e-01
 2.2504924234e-01	 2.7336089963e+00	 2.0349897416e-01
 1.6819712255e-01	 2.7376952047e+00	 2.2139167748e-01
 1.1171707193e-01	 2.7405810701e+00	 2.3126651925e-01
 5.5641194179e-02	 2.7422927203e+00	 2.3327862531e-01
 0.0000000000e+00	 2.7428571429e+00	 2.2697217481e-01
 5.7794035816e-01	 2.7104983433e+00	-4.8005962966e-02
 5.1900886072e-01	 2.7223971292e+00	 1.5424708869e-02
 4.6022623765e-01	 2.7329486158e+00	 7.6613077067e-02
 4.0163401244e-01	 2.7421718485e+00	 1.3420594683e-01
 3.4327229844e-01	 2.7500873542e+00	 1.8584684018e-01
 2.8517974738e-01	 2.7567170399e+00	 2.2538644286e-01
 2.2739350528e-01	 2.7620840900e+00	 2.5345740835e-01
 1.6994917591e-01	 2.7662128631e+00	 2.7128362694e-01
 1.1288079143e-01	 2.7691287896e+00	 2.7939428540e-01
 5.6220789951e-02	 2.7708582694e+00	 2.7769847266e-01
 0.0000000000e+00	 2.7714285714e+00	 2.6555811613e-01
 5.8389850619e-01	 2.7384416252e+00	-2.2310565767e-02
 5.2435946753e-01	 2.7504630790e+00	 4.3966509868e-02
 4.6497083804e-01	 2.7611233438e+00	 1.0727070977e-01
 4.0577456926e-01	 2.7704416613e+00	 1.6623144112e-01
 3.4681118812e-01	 2.7784387702e+00	 2.1873320392e-01
 2.8811974478e-01	 2.7851368032e+00	 2.5908284905e-01
 2.2973776822e-01	 2.7905591837e+00	 2.8755898058e-01
 1.7170122927e-01	 2.7947305215e+00	 3.0521200549e-01
 1.1404451092e-01	 2.7976765091e+00	 3.1241597343e-01
 5.6800385724e-02	 2.7994238186e+00	 3.0896931094e-01
 0.0000000000e+00	 2.8000000000e+00	 2.9418891143e-01
 5.8985665421e-01	 2.7663849071e+00	-1.3927564733e-03
 5.2971007434e-01	 2.7785290288e+00	 6.5280384160e-02
 4.6971543843e-01	 2.7892980718e+00	 1.2828495738e-01
 4.0991512609e-01	 2.7987114742e+00	 1.8641961243e-01
 3.5035007779e-01	 2.8067901862e+00	 2.3791627370e-01
 2.9105974217e-01	 2.8135565665e+00	 2.7771495502e-01
 2.3208203116e-01	 2.8190342774e+00	 3.0589412525e-01
 1.7345328263e-01	 2.8232481799e+00	 3.2345368749e-01
 1.1520823042e-01	 2.8262242286e+00	 3.3073623525e-01
 5.7379981497e-02	 2.8279893678e+00	 3.2755528056e-01
 0.0000000000e+00	 2.8285714286e+00	 3.1331148197e-01
 5.9581480223e-01	 2.7943281890e+00	 1.3192416782e-02
 5.3506068115e-01	 2.8065949785e+00	 7.8101105669e-02
 4.7446003881e-01	 2.8174727998e+00	 1.3868397618e-01
 4.1405568292e-01	 2.8269812871e+00	 1.9408576783e-01
 3.5388896747e-01	 2.8351416023e+00	 2.4299863036e-01
 2.9399973957e-01	 2.8419763298e+00	 2.8114308782e-01
 2.3442629410e-01	 2.8475093711e+00	 3.0854311609e-01
 1.7520533599e-01	 2.8517658383e+00	 3.2625930064e-01
 1.1637194992e-01	 2.8547719481e+00	 3.3471569388e-01
 5.7959577269e-02	 2.8565549169e+00	 3.3385702420e-01
 0.0000000000e+00	 2.8571428571e+00	 3.2328813884e-01
 6.0177295025e-01	 2.8222714708e+00	 1.9941639934e-02
 5.4041128797e-01	 2.8346609283e+00	 8.1209797588e-02
 4.7920463920e-01	 2.8456475278e+00	 1.3753497053e-01
 4.1819623975e-01	 2.8552511000e+00	 1.8857507305e-01
 3.5742785714e-01	 2.8634930183e+00	 2.3359989868e-01
 2.9693973696e-01	 2.8703960931e+00	 2.6923271022e-01
 2.3677055704e-01	 2.8759844649e+00	 2.9557777998e-01
 1.7695738935e-01	 2.8802834967e+00	 3.1385570045e-01
 1.1753566942e-01	 2.8833196675e+00	 3.2467409380e-01
 5.8539173042e-02	 2.8851204661e+00	 3.2821541318e-01
 0.0000000000e+00	 2.8857142857e+00	 3.2440077160e-01
 6.0773109828e-01	 2.8502147527e+00	 1.7399774583e-02
 5.4576189478e-01	 2.8627268781e+00	 7.3431277209e-02
 4.8394923959e-01	 2.8738222558e+00	 1.2394244737e-01
 4.2233679658e-01	 2.8835209128e+00	 1.6926170641e-01
 3.6096674682e-01	 2.8918444343e+00	 2.0935669355e-01
 2.9987973436e-01	 2.8988158564e+00	 2.4185521240e-01
 2.3911481998e-01	 2.9044595586e+00	 2.6706308330e-01
 1.7870944271e-01	 2.9088011550e+00	 2.8644828381e-01
 1.1869938892e-01	 2.9118673870e+00	 3.0089325897e-01
 5.9118768815e-02	 2.9136860153e+00	 3.1091505273e-01
 0.0000000000e+00	 2.9142857143e+00	 3.1685479047e-01
 6.1368924630e-01	 2.8781580346e+00	 4.1563717073e-03
 5.5111250159e-01	 2.8907928279e+00	 5.3631443760e-02
 4.8869383998e-01	 2.9019969838e+00	 9.7046482479e-02
 4.2647735341e-01	 2.9117907257e+00	 1.3554799214e-01
 3.6450563649e-01	 2.9201958503e+00	 1.6992251263e-01
 3.0281973175e-01	 2.9272356197e+00	 1.9888861705e-01
 2.4145908293e-01	 2.9329346523e+00	 2.2305859916e-01
 1.8046149607e-01	 2.9373188134e+00	 2.4422315249e-01
 1.1986310842e-01	 2.9404151065e+00	 2.6361987159e-01
 5.9698364587e-02	 2.9422515645e+00	 2.8218758147e-01
 0.0000000000e+00	 2.9428571429e+00	 3.0078283897e-01
 6.1964739432e-01	 2.9061013165e+00	-2.1157747360e-02
 5.5646310840e-01	 2.9188587777e+00	 2.0714706356e-02
 4.9343844037e-01	 2.9301717118e+00	 5.6020997912e-02
 4.3061791024e-01	 2.9400605386e+00	 8.6863514717e-02
 3.6804452617e-01	 2.9485472663e+00	 1.1496757908e-01
 3.0575972915e-01	 2.9556553830e+00	 1.4021820370e-01
 2.4380334587e-01	 2.9614097460e+00	 1.6361986384e-01
 1.8221354943e-01	 2.9658364718e+00	 1.8701924917e-01
 1.2102682792e-01	 2.9689628260e+00	 2.1156948506e-01
 6.0277960360e-02	 2.9708171136e+00	 2.3955929165e-01
 0.0000000000e+00	 2.9714285714e+00	 2.7308390146e-01
 6.2560554234e-01	 2.9340445984e+00	-5.9873847182e-02
 5.6181371521e-01	 2.9469247275e+00	-2.6378550611e-02
 4.9818304076e-01	 2.9583464398e+00	 7.2049816198e-05
 4.3475846707e-01	 2.9683303514e+00	 2.1749237404e-02
 3.7158341584e-01	 2.9768986824e+00	 3.7604881832e-02
 3.0869972655e-01	 2.9840751463e+00	 4.9722955110e-02
 2.4614760881e-01	 2.9898848397e+00	 6.1313755467e-02
 1.8396560279e-01	 2.9943541302e+00	 7.6794745821e-02
 1.2219054742e-01	 2.9975105455e+00	 1.0001959839e-01
 6.0857556133e-02	 2.9993826628e+00	 1.3443702457e-01
 0.0000000000e+00	 3.0000000000e+00	 1.8320989446e-01
