patch_n	x	y	stress_yy
0	 0.000000000000000e+00	 0.000000000000000e+00	 3.137003695073070e-02
0	 3.703703703703703e-02	 0.000000000000000e+00	 2.861294866816591e-02
0	 7.407407407407410e-02	 0.000000000000000e+00	 3.217096669423095e-02
0	 1.111111111111111e-01	 0.000000000000000e+00	 4.037731624019274e-02
0	 1.481481481481482e-01	 0.000000000000000e+00	 5.156522251731818e-02
0	 1.851851851851852e-01	 0.000000000000000e+00	 6.406791073687422e-02
0	 2.222222222222223e-01	 0.000000000000000e+00	 7.621860611012775e-02
0	 2.592592592592593e-01	 0.000000000000000e+00	 8.635053384834575e-02
0	 2.962962962962963e-01	 0.000000000000000e+00	 9.279691916279510e-02
0	 3.333333333333333e-01	 0.000000000000000e+00	 9.389098726474268e-02
0	 3.703703703703705e-01	 0.000000000000000e+00	 8.796596336545552e-02
0	 3.703703703703703e-02	 0.000000000000000e+00	 9.007656449333600e+00
0	 7.407407407407410e-02	 0.000000000000000e+00	 9.007805914911621e+00
0	 1.111111111111111e-01	 0.000000000000000e+00	 9.008905514435504e+00
0	 1.481481481481482e-01	 0.000000000000000e+00	 9.010934954677658e+00
0	 1.851851851851852e-01	 0.000000000000000e+00	 9.013873942410523e+00
0	 2.222222222222223e-01	 0.000000000000000e+00	 9.017702184406435e+00
0	 2.592592592592593e-01	 0.000000000000000e+00	 9.022399387437838e+00
0	 2.962962962962963e-01	 0.000000000000000e+00	 9.027945258277127e+00
0	 3.333333333333333e-01	 0.000000000000000e+00	 9.034319503696695e+00
0	 3.703703703703705e-01	 0.000000000000000e+00	 9.041501830468924e+00
0	 7.407407407407410e-02	 0.000000000000000e+00	 9.965167170394718e+00
0	 1.111111111111111e-01	 0.000000000000000e+00	 9.965174698647630e+00
0	 1.481481481481482e-01	 0.000000000000000e+00	 9.965198147765904e+00
0	 1.851851851851852e-01	 0.000000000000000e+00	 9.965237355650649e+00
0	 2.222222222222223e-01	 0.000000000000000e+00	 9.965292160202935e+00
0	 2.592592592592593e-01	 0.000000000000000e+00	 9.965362399323896e+00
0	 2.962962962962963e-01	 0.000000000000000e+00	 9.965447910914612e+00
0	 3.333333333333333e-01	 0.000000000000000e+00	 9.965548532876218e+00
0	 3.703703703703705e-01	 0.000000000000000e+00	 9.965664103109789e+00
0	 3.703703703703705e-01	 0.000000000000000e+00	 8.796596336545552e-02
0	 4.814814814814816e-01	 0.000000000000000e+00	 3.051944890891875e-02
0	 5.185185185185186e-01	 0.000000000000000e+00	 5.017951413918260e-03
0	 5.555555555555556e-01	 0.000000000000000e+00	-1.999805729506484e-02
0	 5.925925925925926e-01	 0.000000000000000e+00	-4.233148614357371e-02
0	 6.296296296296297e-01	 0.000000000000000e+00	-5.978524405715151e-02
0	 6.666666666666669e-01	 0.000000000000000e+00	-7.016223996134120e-02
0	 7.037037037037038e-01	 0.000000000000000e+00	-7.126538278168601e-02
0	 7.407407407407409e-01	 0.000000000000000e+00	-6.089758144372897e-02
0	 4.814814814814816e-01	 0.000000000000000e+00	 9.067827199957241e+00
0	 5.185185185185186e-01	 0.000000000000000e+00	 9.078187281259078e+00
0	 5.555555555555556e-01	 0.000000000000000e+00	 9.089292891799932e+00
0	 5.925925925925926e-01	 0.000000000000000e+00	 9.101111951505867e+00
0	 6.296296296296297e-01	 0.000000000000000e+00	 9.113612380302971e+00
0	 6.666666666666669e-01	 0.000000000000000e+00	 9.126762098117343e+00
0	 7.037037037037038e-01	 0.000000000000000e+00	 9.140529024875031e+00
0	 7.407407407407409e-01	 0.000000000000000e+00	 9.154881080502133e+00
0	 4.814814814814816e-01	 0.000000000000000e+00	 9.966099728798309e+00
0	 5.185185185185186e-01	 0.000000000000000e+00	 9.966275823177799e+00
0	 5.555555555555556e-01	 0.000000000000000e+00	 9.966467280554175e+00
0	 5.925925925925926e-01	 0.000000000000000e+00	 9.966673658346169e+00
0	 6.296296296296297e-01	 0.000000000000000e+00	 9.966894513972415e+00
0	 6.666666666666669e-01	 0.000000000000000e+00	 9.967129404851491e+00
0	 7.037037037037038e-01	 0.000000000000000e+00	 9.967377888402083e+00
0	 7.407407407407409e-01	 0.000000000000000e+00	 9.967639522042814e+00
0	 7.407407407407409e-01	 0.000000000000000e+00	-6.089758144372897e-02
0	 8.518518518518522e-01	 0.000000000000000e+00	 7.144051051844482e-03
0	 8.888888888888892e-01	 0.000000000000000e+00	 2.654998327863232e-02
0	 9.259259259259263e-01	 0.000000000000000e+00	 3.740122119421831e-02
0	 9.629629629629635e-01	 0.000000000000000e+00	 3.554733179340269e-02
0	 1.000000000000000e+00	 0.000000000000000e+00	 1.683788207098505e-02
0	 1.037037037037038e+00	 0.000000000000000e+00	-2.287756097823432e-02
0	 1.074074074074075e+00	 0.000000000000000e+00	-8.774943035945565e-02
0	 1.111111111111111e+00	 0.000000000000000e+00	-1.819281590778772e-01
0	 8.518518518518522e-01	 0.000000000000000e+00	 9.201365583491723e+00
0	 8.888888888888892e-01	 0.000000000000000e+00	 9.218019256804864e+00
0	 9.259259259259263e-01	 0.000000000000000e+00	 9.235191871291500e+00
0	 9.629629629629635e-01	 0.000000000000000e+00	 9.252840645816949e+00
0	 1.000000000000000e+00	 0.000000000000000e+00	 9.270922799246494e+00
0	 1.037037037037038e+00	 0.000000000000000e+00	 9.289395550445454e+00
0	 1.074074074074075e+00	 0.000000000000000e+00	 9.308216118279091e+00
0	 1.111111111111111e+00	 0.000000000000000e+00	 9.327341721612758e+00
0	 8.518518518518522e-01	 0.000000000000000e+00	 9.968500609100015e+00
0	 8.888888888888892e-01	 0.000000000000000e+00	 9.968815385394985e+00
0	 9.259259259259263e-01	 0.000000000000000e+00	 9.969144106399106e+00
0	 9.629629629629635e-01	 0.000000000000000e+00	 9.969486080357100e+00
0	 1.000000000000000e+00	 0.000000000000000e+00	 9.969840615513881e+00
0	 1.037037037037038e+00	 0.000000000000000e+00	 9.970207020114316e+00
0	 1.074074074074075e+00	 0.000000000000000e+00	 9.970584602403093e+00
0	 1.111111111111111e+00	 0.000000000000000e+00	 9.970972670625176e+00
0	 1.111111111111111e+00	 0.000000000000000e+00	-1.819281590778772e-01
0	 1.222222222222223e+00	 0.000000000000000e+00	-7.826108380985310e-01
0	 1.259259259259260e+00	 0.000000000000000e+00	-1.093579710785979e+00
0	 1.296296296296297e+00	 0.000000000000000e+00	-1.454122624265624e+00
0	 1.333333333333334e+00	 0.000000000000000e+00	-1.860761609108611e+00
0	 1.370370370370371e+00	 0.000000000000000e+00	-2.310018695886089e+00
0	 1.407407407407408e+00	 0.000000000000000e+00	-2.798415915169205e+00
0	 1.444444444444445e+00	 0.000000000000000e+00	-3.322475297529108e+00
0	 1.481481481481482e+00	 0.000000000000000e+00	-3.878718873536936e+00
0	 1.222222222222223e+00	 0.000000000000000e+00	 9.386419958143907e+00
0	 1.259259259259260e+00	 0.000000000000000e+00	 9.406703797901471e+00
0	 1.296296296296297e+00	 0.000000000000000e+00	 9.427216029417687e+00
0	 1.333333333333334e+00	 0.000000000000000e+00	 9.447908621340869e+00
0	 1.370370370370371e+00	 0.000000000000000e+00	 9.468733542319313e+00
0	 1.407407407407408e+00	 0.000000000000000e+00	 9.489642761001249e+00
0	 1.444444444444445e+00	 0.000000000000000e+00	 9.510588246034944e+00
0	 1.481481481481482e+00	 0.000000000000000e+00	 9.531521966068750e+00
0	 1.222222222222223e+00	 0.000000000000000e+00	 9.972195266323968e+00
0	 1.259259259259260e+00	 0.000000000000000e+00	 9.972625420387933e+00
0	 1.296296296296297e+00	 0.000000000000000e+00	 9.973067089345067e+00
0	 1.333333333333334e+00	 0.000000000000000e+00	 9.973519402499981e+00
0	 1.370370370370371e+00	 0.000000000000000e+00	 9.973981489157334e+00
0	 1.407407407407408e+00	 0.000000000000000e+00	 9.974452478621831e+00
0	 1.444444444444445e+00	 0.000000000000000e+00	 9.974931500198096e+00
0	 1.481481481481482e+00	 0.000000000000000e+00	 9.975417683190932e+00
0	 1.481481481481482e+00	 0.000000000000000e+00	-3.878718873536936e+00
0	 1.592592592592593e+00	 0.000000000000000e+00	-5.674866768121635e+00
0	 1.629629629629630e+00	 0.000000000000000e+00	-6.282683439748679e+00
0	 1.666666666666667e+00	 0.000000000000000e+00	-6.877788727176291e+00
0	 1.703703703703704e+00	 0.000000000000000e+00	-7.449825587855170e+00
0	 1.740740740740741e+00	 0.000000000000000e+00	-7.988436979236009e+00
0	 1.777777777777778e+00	 0.000000000000000e+00	-8.483265858769514e+00
0	 1.814814814814816e+00	 0.000000000000000e+00	-8.923955183906367e+00
0	 1.851851851851852e+00	 0.000000000000000e+00	-9.300147912097277e+00
0	 1.592592592592593e+00	 0.000000000000000e+00	 9.594153126135009e+00
0	 1.629629629629630e+00	 0.000000000000000e+00	 9.615057593355226e+00
0	 1.666666666666667e+00	 0.000000000000000e+00	 9.635934799326332e+00
0	 1.703703703703704e+00	 0.000000000000000e+00	 9.656751373597430e+00
0	 1.740740740740741e+00	 0.000000000000000e+00	 9.677473945717638e+00
0	 1.777777777777778e+00	 0.000000000000000e+00	 9.698069145236053e+00
0	 1.814814814814816e+00	 0.000000000000000e+00	 9.718503601701746e+00
0	 1.851851851851852e+00	 0.000000000000000e+00	 9.738743944663824e+00
0	 1.592592592592593e+00	 0.000000000000000e+00	 9.976913382431988e+00
0	 1.629629629629630e+00	 0.000000000000000e+00	 9.977428101879303e+00
0	 1.666666666666667e+00	 0.000000000000000e+00	 9.977951235676880e+00
0	 1.703703703703704e+00	 0.000000000000000e+00	 9.978481810515156e+00
0	 1.740740740740741e+00	 0.000000000000000e+00	 9.979018853084527e+00
0	 1.777777777777778e+00	 0.000000000000000e+00	 9.979561390075334e+00
0	 1.814814814814816e+00	 0.000000000000000e+00	 9.980108448178049e+00
0	 1.851851851851852e+00	 0.000000000000000e+00	 9.980659054083009e+00
0	 1.851851851851852e+00	 0.000000000000000e+00	-9.300147912097277e+00
0	 1.962962962962963e+00	 0.000000000000000e+00	-9.365568576359925e+00
0	 2.000000000000000e+00	 0.000000000000000e+00	-8.999255087291729e+00
0	 2.037037037037038e+00	 0.000000000000000e+00	-8.461877169018248e+00
0	 2.074074074074075e+00	 0.000000000000000e+00	-7.767232277163088e+00
0	 2.111111111111112e+00	 0.000000000000000e+00	-6.929117867349786e+00
0	 2.148148148148149e+00	 0.000000000000000e+00	-5.961331395201929e+00
0	 2.185185185185186e+00	 0.000000000000000e+00	-4.877670316343084e+00
0	 2.222222222222223e+00	 0.000000000000000e+00	-3.691932086396830e+00
0	 1.962962962962963e+00	 0.000000000000000e+00	 9.798095254737667e+00
0	 2.000000000000000e+00	 0.000000000000000e+00	 9.817414010919830e+00
0	 2.037037037037038e+00	 0.000000000000000e+00	 9.836479283240816e+00
0	 2.074074074074075e+00	 0.000000000000000e+00	 9.855276193480249e+00
0	 2.111111111111112e+00	 0.000000000000000e+00	 9.873789863417718e+00
0	 2.148148148148149e+00	 0.000000000000000e+00	 9.892005414832848e+00
0	 2.185185185185186e+00	 0.000000000000000e+00	 9.909907969505216e+00
0	 2.222222222222223e+00	 0.000000000000000e+00	 9.927482649214454e+00
0	 1.962962962962963e+00	 0.000000000000000e+00	 9.982325588402800e+00
0	 2.000000000000000e+00	 0.000000000000000e+00	 9.982890125988488e+00
0	 2.037037037037038e+00	 0.000000000000000e+00	 9.983459632867158e+00
0	 2.074074074074075e+00	 0.000000000000000e+00	 9.984033113087579e+00
0	 2.111111111111112e+00	 0.000000000000000e+00	 9.984609570698517e+00
0	 2.148148148148149e+00	 0.000000000000000e+00	 9.985188009748773e+00
0	 2.185185185185186e+00	 0.000000000000000e+00	 9.985767434287043e+00
0	 2.222222222222223e+00	 0.000000000000000e+00	 9.986346848362167e+00
0	 2.222222222222223e+00	 0.000000000000000e+00	-3.691932086396830e+00
0	 2.333333333333333e+00	 0.000000000000000e+00	-8.474056721573575e-02
0	 2.370370370370371e+00	 0.000000000000000e+00	 1.067448356661503e+00
0	 2.407407407407407e+00	 0.000000000000000e+00	 2.187970067336974e+00
0	 2.444444444444445e+00	 0.000000000000000e+00	 3.272886711644547e+00
0	 2.481481481481482e+00	 0.000000000000000e+00	 4.318260436418094e+00
0	 2.518518518518520e+00	 0.000000000000000e+00	 5.320153388491502e+00
0	 2.555555555555557e+00	 0.000000000000000e+00	 6.274627714698635e+00
0	 2.592592592592593e+00	 0.000000000000000e+00	 7.177745561873365e+00
0	 2.333333333333333e+00	 0.000000000000000e+00	 9.978155113133262e+00
0	 2.370370370370371e+00	 0.000000000000000e+00	 9.994362138998003e+00
0	 2.407407407407407e+00	 0.000000000000000e+00	 1.001021788289841e+01
0	 2.444444444444445e+00	 0.000000000000000e+00	 1.002571550477722e+01
0	 2.481481481481482e+00	 0.000000000000000e+00	 1.004084816457708e+01
0	 2.518518518518520e+00	 0.000000000000000e+00	 1.005560902224072e+01
0	 2.555555555555557e+00	 0.000000000000000e+00	 1.006999123771080e+01
0	 2.592592592592593e+00	 0.000000000000000e+00	 1.008398797093000e+01
0	 2.333333333333333e+00	 0.000000000000000e+00	 9.988078282624299e+00
0	 2.370370370370371e+00	 0.000000000000000e+00	 9.988657371490358e+00
0	 2.407407407407407e+00	 0.000000000000000e+00	 9.989237981722781e+00
0	 2.444444444444445e+00	 0.000000000000000e+00	 9.989819167128228e+00
0	 2.481481481481482e+00	 0.000000000000000e+00	 9.990399981513228e+00
0	 2.518518518518520e+00	 0.000000000000000e+00	 9.990979478684428e+00
0	 2.555555555555557e+00	 0.000000000000000e+00	 9.991556712448425e+00
0	 2.592592592592593e+00	 0.000000000000000e+00	 9.992130736611788e+00
0	 2.592592592592593e+00	 0.000000000000000e+00	 7.177745561873365e+00
0	 2.703703703703704e+00	 0.000000000000000e+00	 9.282544066350024e+00
0	 2.740740740740741e+00	 0.000000000000000e+00	 9.769742796705680e+00
0	 2.777777777777778e+00	 0.000000000000000e+00	 1.016118023323627e+01
0	 2.814814814814816e+00	 0.000000000000000e+00	 1.046371983098774e+01
0	 2.851851851851853e+00	 0.000000000000000e+00	 1.068422504500599e+01
0	 2.888888888888890e+00	 0.000000000000000e+00	 1.082955933033697e+01
0	 2.925925925925927e+00	 0.000000000000000e+00	 1.090658614202660e+01
0	 2.962962962962963e+00	 0.000000000000000e+00	 1.092216893512082e+01
0	 2.703703703703704e+00	 0.000000000000000e+00	 1.012362053297216e+01
0	 2.740740740740741e+00	 0.000000000000000e+00	 1.013605451558469e+01
0	 2.777777777777778e+00	 0.000000000000000e+00	 1.014810865694434e+01
0	 2.814814814814816e+00	 0.000000000000000e+00	 1.015978812258804e+01
0	 2.851851851851853e+00	 0.000000000000000e+00	 1.017109807805267e+01
0	 2.888888888888890e+00	 0.000000000000000e+00	 1.018204368887512e+01
0	 2.925925925925927e+00	 0.000000000000000e+00	 1.019263012059224e+01
0	 2.962962962962963e+00	 0.000000000000000e+00	 1.020286253874099e+01
0	 2.703703703703704e+00	 0.000000000000000e+00	 9.993827156478339e+00
0	 2.740740740740741e+00	 0.000000000000000e+00	 9.994388151587053e+00
0	 2.777777777777778e+00	 0.000000000000000e+00	 9.994947516305084e+00
0	 2.814814814814816e+00	 0.000000000000000e+00	 9.995504410248378e+00
0	 2.851851851851853e+00	 0.000000000000000e+00	 9.996057993032831e+00
0	 2.888888888888890e+00	 0.000000000000000e+00	 9.996607424274279e+00
0	 2.925925925925927e+00	 0.000000000000000e+00	 9.997151863588687e+00
0	 2.962962962962963e+00	 0.000000000000000e+00	 9.997690470591888e+00
0	 2.962962962962963e+00	 0.000000000000000e+00	 1.092216893512082e+01
0	 3.074074074074074e+00	 0.000000000000000e+00	 1.088220057225434e+01
0	 3.111111111111112e+00	 0.000000000000000e+00	 1.086800096430760e+01
0	 3.148148148148149e+00	 0.000000000000000e+00	 1.085320775830183e+01
0	 3.185185185185186e+00	 0.000000000000000e+00	 1.083772784149895e+01
0	 3.222222222222223e+00	 0.000000000000000e+00	 1.082146810116092e+01
0	 3.259259259259260e+00	 0.000000000000000e+00	 1.080433542454967e+01
0	 3.296296296296297e+00	 0.000000000000000e+00	 1.078623669892716e+01
0	 3.333333333333333e+00	 0.000000000000000e+00	 1.076707881155532e+01
0	 3.074074074074074e+00	 0.000000000000000e+00	 1.023140464070450e+01
0	 3.111111111111112e+00	 0.000000000000000e+00	 1.024017352039357e+01
0	 3.148148148148149e+00	 0.000000000000000e+00	 1.024857949086153e+01
0	 3.185185185185186e+00	 0.000000000000000e+00	 1.025663056330953e+01
0	 3.222222222222223e+00	 0.000000000000000e+00	 1.026433474893880e+01
0	 3.259259259259260e+00	 0.000000000000000e+00	 1.027170005895051e+01
0	 3.296296296296297e+00	 0.000000000000000e+00	 1.027873450454585e+01
0	 3.333333333333333e+00	 0.000000000000000e+00	 1.028544609692601e+01
0	 3.074074074074074e+00	 0.000000000000000e+00	 9.999265660788295e+00
0	 3.111111111111112e+00	 0.000000000000000e+00	 9.999780931659819e+00
0	 3.148148148148149e+00	 0.000000000000000e+00	 1.000029194276280e+01
0	 3.185185185185186e+00	 0.000000000000000e+00	 1.000079799811735e+01
0	 3.222222222222223e+00	 0.000000000000000e+00	 1.000129840174340e+01
0	 3.259259259259260e+00	 0.000000000000000e+00	 1.000179245766100e+01
0	 3.296296296296297e+00	 0.000000000000000e+00	 1.000227946989008e+01
0	 3.333333333333333e+00	 0.000000000000000e+00	 1.000275874245065e+01
0	 3.333333333333333e+00	 0.000000000000000e+00	 1.076707881155532e+01
0	 3.444444444444445e+00	 0.000000000000000e+00	 1.071107980660956e+01
0	 3.481481481481481e+00	 0.000000000000000e+00	 1.069392089428147e+01
0	 3.518518518518518e+00	 0.000000000000000e+00	 1.067758102340231e+01
0	 3.555555555555555e+00	 0.000000000000000e+00	 1.066209939204533e+01
0	 3.592592592592593e+00	 0.000000000000000e+00	 1.064751519828373e+01
0	 3.629629629629631e+00	 0.000000000000000e+00	 1.063386764019074e+01
0	 3.666666666666667e+00	 0.000000000000000e+00	 1.062119591583957e+01
0	 3.703703703703704e+00	 0.000000000000000e+00	 1.060953922330345e+01
0	 3.444444444444445e+00	 0.000000000000000e+00	 1.030366308384258e+01
0	 3.481481481481481e+00	 0.000000000000000e+00	 1.030909150250180e+01
0	 3.518518518518518e+00	 0.000000000000000e+00	 1.031421311929315e+01
0	 3.555555555555555e+00	 0.000000000000000e+00	 1.031903868262370e+01
0	 3.592592592592593e+00	 0.000000000000000e+00	 1.032357894090052e+01
0	 3.629629629629631e+00	 0.000000000000000e+00	 1.032784464253069e+01
0	 3.666666666666667e+00	 0.000000000000000e+00	 1.033184653592131e+01
0	 3.703703703703704e+00	 0.000000000000000e+00	 1.033559536947943e+01
0	 3.444444444444445e+00	 0.000000000000000e+00	 1.000414551406556e+01
0	 3.481481481481481e+00	 0.000000000000000e+00	 1.000459403276094e+01
0	 3.518518518518518e+00	 0.000000000000000e+00	 1.000503630881633e+01
0	 3.555555555555555e+00	 0.000000000000000e+00	 1.000547181031564e+01
0	 3.592592592592593e+00	 0.000000000000000e+00	 1.000590000534275e+01
0	 3.629629629629631e+00	 0.000000000000000e+00	 1.000632036198165e+01
0	 3.666666666666667e+00	 0.000000000000000e+00	 1.000673234831617e+01
0	 3.703703703703704e+00	 0.000000000000000e+00	 1.000713543243020e+01
0	 3.703703703703704e+00	 0.000000000000000e+00	 1.060953922330345e+01
0	 3.814814814814815e+00	 0.000000000000000e+00	 1.057765358116992e+01
0	 3.851851851851852e+00	 0.000000000000000e+00	 1.056758316199066e+01
0	 3.888888888888890e+00	 0.000000000000000e+00	 1.055771766767952e+01
0	 3.925925925925927e+00	 0.000000000000000e+00	 1.054801261469781e+01
0	 3.962962962962964e+00	 0.000000000000000e+00	 1.053842351950681e+01
0	 4.000000000000001e+00	 0.000000000000000e+00	 1.052890589856783e+01
0	 4.037037037037039e+00	 0.000000000000000e+00	 1.051941526834215e+01
0	 4.074074074074075e+00	 0.000000000000000e+00	 1.050990714529109e+01
0	 3.814814814814815e+00	 0.000000000000000e+00	 1.034533845884945e+01
0	 3.851851851851852e+00	 0.000000000000000e+00	 1.034806520030353e+01
0	 3.888888888888890e+00	 0.000000000000000e+00	 1.035054376363988e+01
0	 3.925925925925927e+00	 0.000000000000000e+00	 1.035278378635245e+01
0	 3.962962962962964e+00	 0.000000000000000e+00	 1.035479490593524e+01
0	 4.000000000000001e+00	 0.000000000000000e+00	 1.035658675988223e+01
0	 4.037037037037039e+00	 0.000000000000000e+00	 1.035816898568739e+01
0	 4.074074074074075e+00	 0.000000000000000e+00	 1.035955122084473e+01
0	 3.814814814814815e+00	 0.000000000000000e+00	 1.000828783012223e+01
0	 3.851851851851852e+00	 0.000000000000000e+00	 1.000865573075501e+01
0	 3.888888888888890e+00	 0.000000000000000e+00	 1.000901610290686e+01
0	 3.925925925925927e+00	 0.000000000000000e+00	 1.000936858125343e+01
0	 3.962962962962964e+00	 0.000000000000000e+00	 1.000971280047052e+01
0	 4.000000000000001e+00	 0.000000000000000e+00	 1.001004839523398e+01
0	 4.037037037037039e+00	 0.000000000000000e+00	 1.001037500021951e+01
0	 4.074074074074075e+00	 0.000000000000000e+00	 1.001069225010293e+01
0	 4.074074074074075e+00	 0.000000000000000e+00	 1.050990714529109e+01
0	 4.185185185185186e+00	 0.000000000000000e+00	 1.048210664032303e+01
0	 4.222222222222223e+00	 0.000000000000000e+00	 1.047323215805085e+01
0	 4.259259259259260e+00	 0.000000000000000e+00	 1.046457835398495e+01
0	 4.296296296296298e+00	 0.000000000000000e+00	 1.045615992923395e+01
0	 4.333333333333334e+00	 0.000000000000000e+00	 1.044799158490645e+01
0	 4.370370370370371e+00	 0.000000000000000e+00	 1.044008802211110e+01
0	 4.407407407407409e+00	 0.000000000000000e+00	 1.043246394195649e+01
0	 4.444444444444446e+00	 0.000000000000000e+00	 1.042513404555124e+01
0	 4.185185185185186e+00	 0.000000000000000e+00	 1.036253201377878e+01
0	 4.222222222222223e+00	 0.000000000000000e+00	 1.036313108996335e+01
0	 4.259259259259260e+00	 0.000000000000000e+00	 1.036354463721240e+01
0	 4.296296296296298e+00	 0.000000000000000e+00	 1.036378119846464e+01
0	 4.333333333333334e+00	 0.000000000000000e+00	 1.036384931665883e+01
0	 4.370370370370371e+00	 0.000000000000000e+00	 1.036375753473368e+01
0	 4.407407407407409e+00	 0.000000000000000e+00	 1.036351439562790e+01
0	 4.444444444444446e+00	 0.000000000000000e+00	 1.036312844228024e+01
0	 4.185185185185186e+00	 0.000000000000000e+00	 1.001158559854436e+01
0	 4.222222222222223e+00	 0.000000000000000e+00	 1.001186602736312e+01
0	 4.259259259259260e+00	 0.000000000000000e+00	 1.001213830137072e+01
0	 4.296296296296298e+00	 0.000000000000000e+00	 1.001240221221503e+01
0	 4.333333333333334e+00	 0.000000000000000e+00	 1.001265755154384e+01
0	 4.370370370370371e+00	 0.000000000000000e+00	 1.001290411100506e+01
0	 4.407407407407409e+00	 0.000000000000000e+00	 1.001314168224646e+01
0	 4.444444444444446e+00	 0.000000000000000e+00	 1.001337005691592e+01
0	 4.444444444444446e+00	 0.000000000000000e+00	 1.042513404555124e+01
0	 4.555555555555555e+00	 0.000000000000000e+00	 1.040427333573088e+01
0	 4.592592592592593e+00	 0.000000000000000e+00	 1.039758717226103e+01
0	 4.629629629629631e+00	 0.000000000000000e+00	 1.039101489588616e+01
0	 4.666666666666668e+00	 0.000000000000000e+00	 1.038454461692218e+01
0	 4.703703703703704e+00	 0.000000000000000e+00	 1.037816444568496e+01
0	 4.740740740740740e+00	 0.000000000000000e+00	 1.037186249249043e+01
0	 4.777777777777779e+00	 0.000000000000000e+00	 1.036562686765448e+01
0	 4.814814814814815e+00	 0.000000000000000e+00	 1.035944568149302e+01
0	 4.555555555555555e+00	 0.000000000000000e+00	 1.036113839473271e+01
0	 4.592592592592593e+00	 0.000000000000000e+00	 1.036018784998502e+01
0	 4.629629629629631e+00	 0.000000000000000e+00	 1.035910240738351e+01
0	 4.666666666666668e+00	 0.000000000000000e+00	 1.035788871018743e+01
0	 4.703703703703704e+00	 0.000000000000000e+00	 1.035655340165614e+01
0	 4.740740740740740e+00	 0.000000000000000e+00	 1.035510312504884e+01
0	 4.777777777777779e+00	 0.000000000000000e+00	 1.035354452362488e+01
0	 4.814814814814815e+00	 0.000000000000000e+00	 1.035188424064352e+01
0	 4.555555555555555e+00	 0.000000000000000e+00	 1.001399882111260e+01
0	 4.592592592592593e+00	 0.000000000000000e+00	 1.001419112728600e+01
0	 4.629629629629631e+00	 0.000000000000000e+00	 1.001437523113152e+01
0	 4.666666666666668e+00	 0.000000000000000e+00	 1.001455106213025e+01
0	 4.703703703703704e+00	 0.000000000000000e+00	 1.001471854976314e+01
0	 4.740740740740740e+00	 0.000000000000000e+00	 1.001487762351121e+01
0	 4.777777777777779e+00	 0.000000000000000e+00	 1.001502821285538e+01
0	 4.814814814814815e+00	 0.000000000000000e+00	 1.001517024727679e+01
0	 4.814814814814815e+00	 0.000000000000000e+00	 1.035944568149302e+01
0	 4.925925925925926e+00	 0.000000000000000e+00	 1.034132311168853e+01
0	 4.962962962962963e+00	 0.000000000000000e+00	 1.033544557175156e+01
0	 5.000000000000002e+00	 0.000000000000000e+00	 1.032965420185324e+01
0	 5.037037037037037e+00	 0.000000000000000e+00	 1.032395170901736e+01
0	 5.074074074074074e+00	 0.000000000000000e+00	 1.031834080026777e+01
0	 5.111111111111111e+00	 0.000000000000000e+00	 1.031282418262827e+01
0	 5.148148148148147e+00	 0.000000000000000e+00	 1.030740456312270e+01
0	 5.185185185185185e+00	 0.000000000000000e+00	 1.030208464877485e+01
0	 4.925925925925926e+00	 0.000000000000000e+00	 1.034632138315081e+01
0	 4.962962962962963e+00	 0.000000000000000e+00	 1.034427042620005e+01
0	 5.000000000000002e+00	 0.000000000000000e+00	 1.034212803162232e+01
0	 5.037037037037037e+00	 0.000000000000000e+00	 1.033989921561946e+01
0	 5.074074074074074e+00	 0.000000000000000e+00	 1.033758899439328e+01
0	 5.111111111111111e+00	 0.000000000000000e+00	 1.033520238414563e+01
0	 5.148148148148147e+00	 0.000000000000000e+00	 1.033274440107829e+01
0	 5.185185185185185e+00	 0.000000000000000e+00	 1.033022006139314e+01
0	 4.925925925925926e+00	 0.000000000000000e+00	 1.001554478038289e+01
0	 4.962962962962963e+00	 0.000000000000000e+00	 1.001565336019628e+01
0	 5.000000000000002e+00	 0.000000000000000e+00	 1.001575415304591e+01
0	 5.037037037037037e+00	 0.000000000000000e+00	 1.001584720326244e+01
0	 5.074074074074074e+00	 0.000000000000000e+00	 1.001593255517644e+01
0	 5.111111111111111e+00	 0.000000000000000e+00	 1.001601025311867e+01
0	 5.148148148148147e+00	 0.000000000000000e+00	 1.001608034141971e+01
0	 5.185185185185185e+00	 0.000000000000000e+00	 1.001614286441023e+01
0	 5.185185185185185e+00	 0.000000000000000e+00	 1.030208464877485e+01
0	 5.296296296296299e+00	 0.000000000000000e+00	 1.028654040218254e+01
0	 5.333333333333337e+00	 0.000000000000000e+00	 1.028147005210063e+01
0	 5.370370370370373e+00	 0.000000000000000e+00	 1.027645153073455e+01
0	 5.407407407407410e+00	 0.000000000000000e+00	 1.027148261567919e+01
0	 5.444444444444448e+00	 0.000000000000000e+00	 1.026656108452942e+01
0	 5.481481481481485e+00	 0.000000000000000e+00	 1.026168471488004e+01
0	 5.518518518518523e+00	 0.000000000000000e+00	 1.025685128432594e+01
0	 5.555555555555557e+00	 0.000000000000000e+00	 1.025205857046198e+01
0	 5.296296296296299e+00	 0.000000000000000e+00	 1.032226884137090e+01
0	 5.333333333333337e+00	 0.000000000000000e+00	 1.031948933053476e+01
0	 5.370370370370373e+00	 0.000000000000000e+00	 1.031665012285041e+01
0	 5.407407407407410e+00	 0.000000000000000e+00	 1.031375481611940e+01
0	 5.444444444444448e+00	 0.000000000000000e+00	 1.031080700814341e+01
0	 5.481481481481485e+00	 0.000000000000000e+00	 1.030781029672399e+01
0	 5.518518518518523e+00	 0.000000000000000e+00	 1.030476827966279e+01
0	 5.555555555555557e+00	 0.000000000000000e+00	 1.030168455476137e+01
0	 5.296296296296299e+00	 0.000000000000000e+00	 1.001628556512471e+01
0	 5.333333333333337e+00	 0.000000000000000e+00	 1.001631857111234e+01
0	 5.370370370370373e+00	 0.000000000000000e+00	 1.001634454412782e+01
0	 5.407407407407410e+00	 0.000000000000000e+00	 1.001636361855366e+01
0	 5.444444444444448e+00	 0.000000000000000e+00	 1.001637592877231e+01
0	 5.481481481481485e+00	 0.000000000000000e+00	 1.001638160916627e+01
0	 5.518518518518523e+00	 0.000000000000000e+00	 1.001638079411804e+01
0	 5.555555555555557e+00	 0.000000000000000e+00	 1.001637361801013e+01
0	 5.555555555555557e+00	 0.000000000000000e+00	 1.025205857046198e+01
0	 5.666666666666667e+00	 0.000000000000000e+00	 1.023791295442243e+01
0	 5.703703703703703e+00	 0.000000000000000e+00	 1.023327414426972e+01
0	 5.740740740740740e+00	 0.000000000000000e+00	 1.022867303623168e+01
0	 5.777777777777774e+00	 0.000000000000000e+00	 1.022410933301892e+01
0	 5.814814814814812e+00	 0.000000000000000e+00	 1.021958273734209e+01
0	 5.851851851851849e+00	 0.000000000000000e+00	 1.021509295191180e+01
0	 5.888888888888886e+00	 0.000000000000000e+00	 1.021063967943874e+01
0	 5.925925925925926e+00	 0.000000000000000e+00	 1.020622262263351e+01
0	 5.666666666666667e+00	 0.000000000000000e+00	 1.029220150479500e+01
0	 5.703703703703703e+00	 0.000000000000000e+00	 1.028896321886628e+01
0	 5.740740740740740e+00	 0.000000000000000e+00	 1.028568976671931e+01
0	 5.777777777777774e+00	 0.000000000000000e+00	 1.028238361289819e+01
0	 5.814814814814812e+00	 0.000000000000000e+00	 1.027904722194703e+01
0	 5.851851851851849e+00	 0.000000000000000e+00	 1.027568305840991e+01
0	 5.888888888888886e+00	 0.000000000000000e+00	 1.027229358683095e+01
0	 5.925925925925926e+00	 0.000000000000000e+00	 1.026888127175423e+01
0	 5.666666666666667e+00	 0.000000000000000e+00	 1.001631502817195e+01
0	 5.703703703703703e+00	 0.000000000000000e+00	 1.001628307924223e+01
0	 5.740740740740740e+00	 0.000000000000000e+00	 1.001624507454116e+01
0	 5.777777777777774e+00	 0.000000000000000e+00	 1.001620121525401e+01
0	 5.814814814814812e+00	 0.000000000000000e+00	 1.001615170256597e+01
0	 5.851851851851849e+00	 0.000000000000000e+00	 1.001609673766229e+01
0	 5.888888888888886e+00	 0.000000000000000e+00	 1.001603652172827e+01
0	 5.925925925925926e+00	 0.000000000000000e+00	 1.001597125594911e+01
0	 5.925925925925926e+00	 0.000000000000000e+00	 1.020622262263351e+01
0	 6.037037037037040e+00	 0.000000000000000e+00	 1.019312104681076e+01
0	 6.074074074074075e+00	 0.000000000000000e+00	 1.018879534923332e+01
0	 6.111111111111114e+00	 0.000000000000000e+00	 1.018448978604241e+01
0	 6.148148148148152e+00	 0.000000000000000e+00	 1.018020398956094e+01
0	 6.185185185185189e+00	 0.000000000000000e+00	 1.017593759211176e+01
0	 6.222222222222227e+00	 0.000000000000000e+00	 1.017169022601777e+01
0	 6.259259259259266e+00	 0.000000000000000e+00	 1.016746152360186e+01
0	 6.296296296296297e+00	 0.000000000000000e+00	 1.016325111718692e+01
0	 6.037037037037040e+00	 0.000000000000000e+00	 1.025852036151040e+01
0	 6.074074074074075e+00	 0.000000000000000e+00	 1.025502566873947e+01
0	 6.111111111111114e+00	 0.000000000000000e+00	 1.025151279464316e+01
0	 6.148148148148152e+00	 0.000000000000000e+00	 1.024798339555950e+01
0	 6.185185185185189e+00	 0.000000000000000e+00	 1.024443912782655e+01
0	 6.222222222222227e+00	 0.000000000000000e+00	 1.024088164778236e+01
0	 6.259259259259266e+00	 0.000000000000000e+00	 1.023731261176498e+01
0	 6.296296296296297e+00	 0.000000000000000e+00	 1.023373367611247e+01
0	 6.037037037037040e+00	 0.000000000000000e+00	 1.001574667600260e+01
0	 6.074074074074075e+00	 0.000000000000000e+00	 1.001566176699439e+01
0	 6.111111111111114e+00	 0.000000000000000e+00	 1.001557189946316e+01
0	 6.148148148148152e+00	 0.000000000000000e+00	 1.001547732030037e+01
0	 6.185185185185189e+00	 0.000000000000000e+00	 1.001537827639754e+01
0	 6.222222222222227e+00	 0.000000000000000e+00	 1.001527501464596e+01
0	 6.259259259259266e+00	 0.000000000000000e+00	 1.001516778193722e+01
0	 6.296296296296297e+00	 0.000000000000000e+00	 1.001505682516271e+01
0	 6.296296296296297e+00	 0.000000000000000e+00	 1.016325111718692e+01
0	 6.407407407407407e+00	 0.000000000000000e+00	 1.015070866309078e+01
0	 6.444444444444442e+00	 0.000000000000000e+00	 1.014655343548928e+01
0	 6.481481481481479e+00	 0.000000000000000e+00	 1.014240986133762e+01
0	 6.518518518518515e+00	 0.000000000000000e+00	 1.013827725557650e+01
0	 6.555555555555552e+00	 0.000000000000000e+00	 1.013415493314666e+01
0	 6.592592592592589e+00	 0.000000000000000e+00	 1.013004220898882e+01
0	 6.629629629629626e+00	 0.000000000000000e+00	 1.012593839804370e+01
0	 6.666666666666666e+00	 0.000000000000000e+00	 1.012184281525203e+01
0	 6.407407407407407e+00	 0.000000000000000e+00	 1.022294841046080e+01
0	 6.444444444444442e+00	 0.000000000000000e+00	 1.021933851612931e+01
0	 6.481481481481479e+00	 0.000000000000000e+00	 1.021572280231574e+01
0	 6.518518518518515e+00	 0.000000000000000e+00	 1.021210232989876e+01
0	 6.555555555555552e+00	 0.000000000000000e+00	 1.020847815975698e+01
0	 6.592592592592589e+00	 0.000000000000000e+00	 1.020485135276912e+01
0	 6.629629629629626e+00	 0.000000000000000e+00	 1.020122296981379e+01
0	 6.666666666666666e+00	 0.000000000000000e+00	 1.019759407176966e+01
0	 6.407407407407407e+00	 0.000000000000000e+00	 1.001470339121676e+01
0	 6.444444444444442e+00	 0.000000000000000e+00	 1.001457796118191e+01
0	 6.481481481481479e+00	 0.000000000000000e+00	 1.001444871154280e+01
0	 6.518518518518515e+00	 0.000000000000000e+00	 1.001431591696459e+01
0	 6.555555555555552e+00	 0.000000000000000e+00	 1.001417985211227e+01
0	 6.592592592592589e+00	 0.000000000000000e+00	 1.001404079165098e+01
0	 6.629629629629626e+00	 0.000000000000000e+00	 1.001389901024570e+01
0	 6.666666666666666e+00	 0.000000000000000e+00	 1.001375478256159e+01
0	 6.666666666666666e+00	 0.000000000000000e+00	 1.012184281525203e+01
0	 6.777777777777778e+00	 0.000000000000000e+00	 1.010957575090395e+01
0	 6.814814814814816e+00	 0.000000000000000e+00	 1.010548918938143e+01
0	 6.851851851851854e+00	 0.000000000000000e+00	 1.010140316559438e+01
0	 6.888888888888892e+00	 0.000000000000000e+00	 1.009731726420603e+01
0	 6.925925925925928e+00	 0.000000000000000e+00	 1.009323106987962e+01
0	 6.962962962962966e+00	 0.000000000000000e+00	 1.008914416727837e+01
0	 7.000000000000004e+00	 0.000000000000000e+00	 1.008505614106551e+01
0	 7.037037037037037e+00	 0.000000000000000e+00	 1.008096657590429e+01
0	 6.777777777777778e+00	 0.000000000000000e+00	 1.018671228350575e+01
0	 6.814814814814816e+00	 0.000000000000000e+00	 1.018308812146213e+01
0	 6.851851851851854e+00	 0.000000000000000e+00	 1.017946659172053e+01
0	 6.888888888888892e+00	 0.000000000000000e+00	 1.017584839052678e+01
0	 6.925925925925928e+00	 0.000000000000000e+00	 1.017223421412677e+01
0	 6.962962962962966e+00	 0.000000000000000e+00	 1.016862475876635e+01
0	 7.000000000000004e+00	 0.000000000000000e+00	 1.016502072069142e+01
0	 7.037037037037037e+00	 0.000000000000000e+00	 1.016142279614788e+01
0	 6.777777777777778e+00	 0.000000000000000e+00	 1.001330934337904e+01
0	 6.814814814814816e+00	 0.000000000000000e+00	 1.001315560970335e+01
0	 6.851851851851854e+00	 0.000000000000000e+00	 1.001299917234888e+01
0	 6.888888888888892e+00	 0.000000000000000e+00	 1.001284031767488e+01
0	 6.925925925925928e+00	 0.000000000000000e+00	 1.001267933204028e+01
0	 6.962962962962966e+00	 0.000000000000000e+00	 1.001251650180439e+01
0	 7.000000000000004e+00	 0.000000000000000e+00	 1.001235211332616e+01
0	 7.037037037037037e+00	 0.000000000000000e+00	 1.001218645296483e+01
0	 7.037037037037037e+00	 0.000000000000000e+00	 1.008096657590429e+01
0	 7.148148148148146e+00	 0.000000000000000e+00	 1.006867352646191e+01
0	 7.185185185185182e+00	 0.000000000000000e+00	 1.006456400812734e+01
0	 7.222222222222221e+00	 0.000000000000000e+00	 1.006044718359596e+01
0	 7.259259259259255e+00	 0.000000000000000e+00	 1.005632221970583e+01
0	 7.296296296296293e+00	 0.000000000000000e+00	 1.005218828329503e+01
0	 7.333333333333328e+00	 0.000000000000000e+00	 1.004804454120159e+01
0	 7.370370370370367e+00	 0.000000000000000e+00	 1.004389016026358e+01
0	 7.407407407407405e+00	 0.000000000000000e+00	 1.003972430731906e+01
0	 7.148148148148146e+00	 0.000000000000000e+00	 1.015067218351665e+01
0	 7.185185185185182e+00	 0.000000000000000e+00	 1.014710474589886e+01
0	 7.222222222222221e+00	 0.000000000000000e+00	 1.014354615406386e+01
0	 7.259259259259255e+00	 0.000000000000000e+00	 1.013999688669146e+01
0	 7.296296296296293e+00	 0.000000000000000e+00	 1.013645742246139e+01
0	 7.333333333333328e+00	 0.000000000000000e+00	 1.013292824005348e+01
0	 7.370370370370367e+00	 0.000000000000000e+00	 1.012940981814748e+01
0	 7.407407407407405e+00	 0.000000000000000e+00	 1.012590263542317e+01
0	 7.148148148148146e+00	 0.000000000000000e+00	 1.001168379630545e+01
0	 7.185185185185182e+00	 0.000000000000000e+00	 1.001151318607715e+01
0	 7.222222222222221e+00	 0.000000000000000e+00	 1.001134091421832e+01
0	 7.259259259259255e+00	 0.000000000000000e+00	 1.001116726360320e+01
0	 7.296296296296293e+00	 0.000000000000000e+00	 1.001099251710593e+01
0	 7.333333333333328e+00	 0.000000000000000e+00	 1.001081695760069e+01
0	 7.370370370370367e+00	 0.000000000000000e+00	 1.001064086796161e+01
0	 7.407407407407405e+00	 0.000000000000000e+00	 1.001046453106294e+01
0	 7.407407407407405e+00	 0.000000000000000e+00	 1.003972430731906e+01
0	 7.518518518518520e+00	 0.000000000000000e+00	 1.002714425991201e+01
0	 7.555555555555557e+00	 0.000000000000000e+00	 1.002291993853222e+01
0	 7.592592592592593e+00	 0.000000000000000e+00	 1.001867867543389e+01
0	 7.629629629629631e+00	 0.000000000000000e+00	 1.001441959725907e+01
0	 7.666666666666670e+00	 0.000000000000000e+00	 1.001014183064990e+01
0	 7.703703703703707e+00	 0.000000000000000e+00	 1.000584450224843e+01
0	 7.740740740740746e+00	 0.000000000000000e+00	 1.000152673869677e+01
0	 7.777777777777778e+00	 0.000000000000000e+00	 9.997187666637023e+00
0	 7.518518518518520e+00	 0.000000000000000e+00	 1.011545357994781e+01
0	 7.555555555555557e+00	 0.000000000000000e+00	 1.011199637893220e+01
0	 7.592592592592593e+00	 0.000000000000000e+00	 1.010855278983637e+01
0	 7.629629629629631e+00	 0.000000000000000e+00	 1.010512322445481e+01
0	 7.666666666666670e+00	 0.000000000000000e+00	 1.010170809458207e+01
0	 7.703703703703707e+00	 0.000000000000000e+00	 1.009830781201269e+01
0	 7.740740740740746e+00	 0.000000000000000e+00	 1.009492278854107e+01
0	 7.777777777777778e+00	 0.000000000000000e+00	 1.009155343596182e+01
0	 7.518518518518520e+00	 0.000000000000000e+00	 1.000993592357840e+01
0	 7.555555555555557e+00	 0.000000000000000e+00	 1.000975858659684e+01
0	 7.592592592592593e+00	 0.000000000000000e+00	 1.000958049811128e+01
0	 7.629629629629631e+00	 0.000000000000000e+00	 1.000940192019399e+01
0	 7.666666666666670e+00	 0.000000000000000e+00	 1.000922311491743e+01
0	 7.703703703703707e+00	 0.000000000000000e+00	 1.000904434435392e+01
0	 7.740740740740746e+00	 0.000000000000000e+00	 1.000886587057577e+01
0	 7.777777777777778e+00	 0.000000000000000e+00	 1.000868795565542e+01
0	 7.777777777777778e+00	 0.000000000000000e+00	 9.997187666637023e+00
0	 7.888888888888888e+00	 0.000000000000000e+00	 9.984035076543130e+00
0	 7.925925925925924e+00	 0.000000000000000e+00	 9.979601910652471e+00
0	 7.962962962962960e+00	 0.000000000000000e+00	 9.975142137140766e+00
0	 7.999999999999997e+00	 0.000000000000000e+00	 9.970654482193188e+00
0	 8.037037037037035e+00	 0.000000000000000e+00	 9.966137671994900e+00
0	 8.074074074074069e+00	 0.000000000000000e+00	 9.961590432731093e+00
0	 8.111111111111109e+00	 0.000000000000000e+00	 9.957011490586925e+00
0	 8.148148148148149e+00	 0.000000000000000e+00	 9.952399571747588e+00
0	 7.888888888888888e+00	 0.000000000000000e+00	 1.008154372919489e+01
0	 7.925925925925924e+00	 0.000000000000000e+00	 1.007824151254017e+01
0	 7.962962962962960e+00	 0.000000000000000e+00	 1.007495724597362e+01
0	 7.999999999999997e+00	 0.000000000000000e+00	 1.007169139117013e+01
0	 8.037037037037035e+00	 0.000000000000000e+00	 1.006844440980455e+01
0	 8.074074074074069e+00	 0.000000000000000e+00	 1.006521676355174e+01
0	 8.111111111111109e+00	 0.000000000000000e+00	 1.006200891408655e+01
0	 8.148148148148149e+00	 0.000000000000000e+00	 1.005882132308385e+01
0	 7.888888888888888e+00	 0.000000000000000e+00	 1.000815926429917e+01
0	 7.925925925925924e+00	 0.000000000000000e+00	 1.000798341241478e+01
0	 7.962962962962960e+00	 0.000000000000000e+00	 1.000780750951276e+01
0	 7.999999999999997e+00	 0.000000000000000e+00	 1.000763177008157e+01
0	 8.037037037037035e+00	 0.000000000000000e+00	 1.000745640860964e+01
0	 8.074074074074069e+00	 0.000000000000000e+00	 1.000728163958541e+01
0	 8.111111111111109e+00	 0.000000000000000e+00	 1.000710767749726e+01
0	 8.148148148148149e+00	 0.000000000000000e+00	 1.000693473683376e+01
0	 8.148148148148149e+00	 0.000000000000000e+00	 9.952399571747588e+00
0	 8.259259259259260e+00	 0.000000000000000e+00	 9.938361884067358e+00
0	 8.296296296296299e+00	 0.000000000000000e+00	 9.933611140245642e+00
0	 8.333333333333336e+00	 0.000000000000000e+00	 9.928821940366962e+00
0	 8.370370370370374e+00	 0.000000000000000e+00	 9.923992665175671e+00
0	 8.407407407407410e+00	 0.000000000000000e+00	 9.919121695416077e+00
0	 8.444444444444448e+00	 0.000000000000000e+00	 9.914207411832500e+00
0	 8.481481481481486e+00	 0.000000000000000e+00	 9.909248195169271e+00
0	 8.518518518518521e+00	 0.000000000000000e+00	 9.904242426170729e+00
0	 8.259259259259260e+00	 0.000000000000000e+00	 1.004938401417786e+01
0	 8.296296296296299e+00	 0.000000000000000e+00	 1.004628145536545e+01
0	 8.333333333333336e+00	 0.000000000000000e+00	 1.004320151747478e+01
0	 8.370370370370374e+00	 0.000000000000000e+00	 1.004014483609307e+01
0	 8.407407407407410e+00	 0.000000000000000e+00	 1.003711204680756e+01
0	 8.444444444444448e+00	 0.000000000000000e+00	 1.003410378520552e+01
0	 8.481481481481486e+00	 0.000000000000000e+00	 1.003112068687426e+01
0	 8.518518518518521e+00	 0.000000000000000e+00	 1.002816338740103e+01
0	 8.259259259259260e+00	 0.000000000000000e+00	 1.000642335486555e+01
0	 8.296296296296299e+00	 0.000000000000000e+00	 1.000625409057443e+01
0	 8.333333333333336e+00	 0.000000000000000e+00	 1.000608511837741e+01
0	 8.370370370370374e+00	 0.000000000000000e+00	 1.000591657179107e+01
0	 8.407407407407410e+00	 0.000000000000000e+00	 1.000574858433183e+01
0	 8.444444444444448e+00	 0.000000000000000e+00	 1.000558128951630e+01
0	 8.481481481481486e+00	 0.000000000000000e+00	 1.000541482086095e+01
0	 8.518518518518521e+00	 0.000000000000000e+00	 1.000524931188229e+01
0	 8.518518518518521e+00	 0.000000000000000e+00	 9.904242426170731e+00
0	 8.629629629629628e+00	 0.000000000000000e+00	 9.888946510307719e+00
0	 8.666666666666666e+00	 0.000000000000000e+00	 9.883749951845925e+00
0	 8.703703703703702e+00	 0.000000000000000e+00	 9.878500778315674e+00
0	 8.740740740740737e+00	 0.000000000000000e+00	 9.873196796628125e+00
0	 8.777777777777775e+00	 0.000000000000000e+00	 9.867835813694438e+00
0	 8.814814814814810e+00	 0.000000000000000e+00	 9.862415636425762e+00
0	 8.851851851851849e+00	 0.000000000000000e+00	 9.856934071733253e+00
0	 8.888888888888888e+00	 0.000000000000000e+00	 9.851388926528086e+00
0	 8.629629629629628e+00	 0.000000000000000e+00	 1.001945015257657e+01
0	 8.666666666666666e+00	 0.000000000000000e+00	 1.001659975216222e+01
0	 8.703703703703702e+00	 0.000000000000000e+00	 1.001377779288571e+01
0	 8.740740740740737e+00	 0.000000000000000e+00	 1.001098521335838e+01
0	 8.777777777777775e+00	 0.000000000000000e+00	 1.000822295219161e+01
0	 8.814814814814810e+00	 0.000000000000000e+00	 1.000549194799684e+01
0	 8.851851851851849e+00	 0.000000000000000e+00	 1.000279313938540e+01
0	 8.888888888888888e+00	 0.000000000000000e+00	 1.000012746496870e+01
0	 8.629629629629628e+00	 0.000000000000000e+00	 1.000475922522490e+01
0	 8.666666666666666e+00	 0.000000000000000e+00	 1.000459683078256e+01
0	 8.703703703703702e+00	 0.000000000000000e+00	 1.000443450646692e+01
0	 8.740740740740737e+00	 0.000000000000000e+00	 1.000427223505095e+01
0	 8.777777777777775e+00	 0.000000000000000e+00	 1.000410999930736e+01
0	 8.814814814814810e+00	 0.000000000000000e+00	 1.000394778200915e+01
0	 8.851851851851849e+00	 0.000000000000000e+00	 1.000378556592908e+01
0	 8.888888888888888e+00	 0.000000000000000e+00	 1.000362333384012e+01
0	 8.888888888888888e+00	 0.000000000000000e+00	 9.851388926528088e+00
0	 9.000000000000002e+00	 0.000000000000000e+00	 9.834377118484788e+00
0	 9.037037037037040e+00	 0.000000000000000e+00	 9.828574846611946e+00
0	 9.074074074074074e+00	 0.000000000000000e+00	 9.822701893723409e+00
0	 9.111111111111112e+00	 0.000000000000000e+00	 9.816755351967251e+00
0	 9.148148148148151e+00	 0.000000000000000e+00	 9.810732313491593e+00
0	 9.185185185185187e+00	 0.000000000000000e+00	 9.804629870444511e+00
0	 9.222222222222227e+00	 0.000000000000000e+00	 9.798445114974101e+00
0	 9.259259259259260e+00	 0.000000000000000e+00	 9.792175139228494e+00
0	 9.000000000000002e+00	 0.000000000000000e+00	 9.992333579659828e+00
0	 9.037037037037040e+00	 0.000000000000000e+00	 9.989804185924806e+00
0	 9.074074074074074e+00	 0.000000000000000e+00	 9.987311141939045e+00
0	 9.111111111111112e+00	 0.000000000000000e+00	 9.984855835957415e+00
0	 9.148148148148151e+00	 0.000000000000000e+00	 9.982439656234757e+00
0	 9.185185185185187e+00	 0.000000000000000e+00	 9.980063991025984e+00
0	 9.222222222222227e+00	 0.000000000000000e+00	 9.977730228585898e+00
0	 9.259259259259260e+00	 0.000000000000000e+00	 9.975439757169379e+00
0	 9.000000000000002e+00	 0.000000000000000e+00	 1.000313603825947e+01
0	 9.037037037037040e+00	 0.000000000000000e+00	 1.000297244746510e+01
0	 9.074074074074074e+00	 0.000000000000000e+00	 1.000280776896891e+01
0	 9.111111111111112e+00	 0.000000000000000e+00	 1.000264179139585e+01
0	 9.148148148148151e+00	 0.000000000000000e+00	 1.000247430337118e+01
0	 9.185185185185187e+00	 0.000000000000000e+00	 1.000230509351984e+01
0	 9.222222222222227e+00	 0.000000000000000e+00	 1.000213395046693e+01
0	 9.259259259259260e+00	 0.000000000000000e+00	 1.000196066283754e+01
0	 9.259259259259260e+00	 0.000000000000000e+00	 9.792175139228494e+00
0	 9.370370370370370e+00	 0.000000000000000e+00	 9.772866046103140e+00
0	 9.407407407407407e+00	 0.000000000000000e+00	 9.766255452653263e+00
0	 9.444444444444443e+00	 0.000000000000000e+00	 9.759551192500915e+00
0	 9.481481481481477e+00	 0.000000000000000e+00	 9.752749334346989e+00
0	 9.518518518518514e+00	 0.000000000000000e+00	 9.745845946892441e+00
0	 9.555555555555550e+00	 0.000000000000000e+00	 9.738837098838188e+00
0	 9.592592592592588e+00	 0.000000000000000e+00	 9.731718858885170e+00
0	 9.629629629629630e+00	 0.000000000000000e+00	 9.724487295734306e+00
0	 9.370370370370370e+00	 0.000000000000000e+00	 9.968832911455241e+00
0	 9.407407407407407e+00	 0.000000000000000e+00	 9.966719129994537e+00
0	 9.444444444444443e+00	 0.000000000000000e+00	 9.964652557319692e+00
0	 9.481481481481477e+00	 0.000000000000000e+00	 9.962635227356550e+00
0	 9.518518518518514e+00	 0.000000000000000e+00	 9.960669174030805e+00
0	 9.555555555555550e+00	 0.000000000000000e+00	 9.958756431268258e+00
0	 9.592592592592588e+00	 0.000000000000000e+00	 9.956899032994663e+00
0	 9.629629629629630e+00	 0.000000000000000e+00	 9.955099013135715e+00
0	 9.370370370370370e+00	 0.000000000000000e+00	 1.000142592778469e+01
0	 9.407407407407407e+00	 0.000000000000000e+00	 1.000124203378730e+01
0	 9.444444444444443e+00	 0.000000000000000e+00	 1.000105455281896e+01
0	 9.481481481481477e+00	 0.000000000000000e+00	 1.000086291134090e+01
0	 9.518518518518514e+00	 0.000000000000000e+00	 1.000066653581455e+01
0	 9.555555555555550e+00	 0.000000000000000e+00	 1.000046485270108e+01
0	 9.592592592592588e+00	 0.000000000000000e+00	 1.000025728846181e+01
0	 9.629629629629630e+00	 0.000000000000000e+00	 1.000004326955811e+01
0	 9.629629629629630e+00	 0.000000000000000e+00	 9.724487295734306e+00
0	 9.740740740740740e+00	 0.000000000000000e+00	 9.702129217474488e+00
0	 9.777777777777779e+00	 0.000000000000000e+00	 9.694445033469483e+00
0	 9.814814814814817e+00	 0.000000000000000e+00	 9.686636386448281e+00
0	 9.851851851851855e+00	 0.000000000000000e+00	 9.678698045976738e+00
0	 9.888888888888893e+00	 0.000000000000000e+00	 9.670624781620631e+00
0	 9.925925925925931e+00	 0.000000000000000e+00	 9.662411362945836e+00
0	 9.962962962962967e+00	 0.000000000000000e+00	 9.654052559518115e+00
0	 1.000000000000000e+01	 0.000000000000000e+00	 9.645543140903346e+00
0	 9.740740740740740e+00	 0.000000000000000e+00	 9.950050123792977e+00
0	 9.777777777777779e+00	 0.000000000000000e+00	 9.948484401861716e+00
0	 9.814814814814817e+00	 0.000000000000000e+00	 9.946981443952918e+00
0	 9.851851851851855e+00	 0.000000000000000e+00	 9.945544113592973e+00
0	 9.888888888888893e+00	 0.000000000000000e+00	 9.944175274308286e+00
0	 9.925925925925931e+00	 0.000000000000000e+00	 9.942877789625310e+00
0	 9.962962962962967e+00	 0.000000000000000e+00	 9.941654523070346e+00
0	 1.000000000000000e+01	 0.000000000000000e+00	 9.940508338169876e+00
0	 9.740740740740740e+00	 0.000000000000000e+00	 9.999357832536965e+00
0	 9.777777777777779e+00	 0.000000000000000e+00	 9.999114841712213e+00
0	 9.814814814814817e+00	 0.000000000000000e+00	 9.998863026988754e+00
0	 9.851851851851855e+00	 0.000000000000000e+00	 9.998600814226934e+00
0	 9.888888888888893e+00	 0.000000000000000e+00	 9.998326629287197e+00
0	 9.925925925925931e+00	 0.000000000000000e+00	 9.998038898029961e+00
0	 9.962962962962967e+00	 0.000000000000000e+00	 9.997736046315621e+00
0	 1.000000000000000e+01	 0.000000000000000e+00	 9.997416500004668e+00
1	 1.000000000000000e+00	 0.000000000000000e+00	 3.108070840658665e+01
1	 1.028571428571429e+00	 0.000000000000000e+00	 2.900308609573742e+01
1	 1.057142857142857e+00	 0.000000000000000e+00	 2.724622790258357e+01
1	 1.085714285714286e+00	 0.000000000000000e+00	 2.576752308543964e+01
1	 1.114285714285714e+00	 0.000000000000000e+00	 2.452873123510066e+01
1	 1.142857142857143e+00	 0.000000000000000e+00	 2.349543598328220e+01
1	 1.171428571428571e+00	 0.000000000000000e+00	 2.263657865616657e+01
1	 1.200000000000000e+00	 0.000000000000000e+00	 2.192405854887113e+01
1	 1.228571428571429e+00	 0.000000000000000e+00	 2.133238897557206e+01
1	 1.257142857142857e+00	 0.000000000000000e+00	 2.083840022188410e+01
1	 1.285714285714286e+00	 0.000000000000000e+00	 2.042098210358955e+01
1	 1.285714285714286e+00	 0.000000000000000e+00	 2.042098210358955e+01
1	 1.314285714285714e+00	 0.000000000000000e+00	 2.008586501928087e+01
1	 1.342857142857143e+00	 0.000000000000000e+00	 1.984432744408876e+01
1	 1.371428571428571e+00	 0.000000000000000e+00	 1.968569994945456e+01
1	 1.400000000000000e+00	 0.000000000000000e+00	 1.960018408057959e+01
1	 1.428571428571429e+00	 0.000000000000000e+00	 1.957876525904898e+01
1	 1.457142857142857e+00	 0.000000000000000e+00	 1.961313593220592e+01
1	 1.485714285714286e+00	 0.000000000000000e+00	 1.969562758990568e+01
1	 1.514285714285714e+00	 0.000000000000000e+00	 1.981915047748613e+01
1	 1.542857142857143e+00	 0.000000000000000e+00	 1.997714000729714e+01
1	 1.571428571428572e+00	 0.000000000000000e+00	 2.016350901624500e+01
1	 1.571428571428572e+00	 0.000000000000000e+00	 2.016350901624500e+01
1	 1.600000000000000e+00	 0.000000000000000e+00	 2.037691801521705e+01
1	 1.628571428571428e+00	 0.000000000000000e+00	 2.061349831259124e+01
1	 1.657142857142857e+00	 0.000000000000000e+00	 2.086419487926587e+01
1	 1.685714285714286e+00	 0.000000000000000e+00	 2.112056658641730e+01
1	 1.714285714285714e+00	 0.000000000000000e+00	 2.137473504714346e+01
1	 1.742857142857143e+00	 0.000000000000000e+00	 2.161933849007687e+01
1	 1.771428571428571e+00	 0.000000000000000e+00	 2.184749009684147e+01
1	 1.800000000000000e+00	 0.000000000000000e+00	 2.205274030737080e+01
1	 1.828571428571428e+00	 0.000000000000000e+00	 2.222904265910257e+01
1	 1.857142857142857e+00	 0.000000000000000e+00	 2.237072277947830e+01
1	 1.857142857142857e+00	 0.000000000000000e+00	 2.237072277947830e+01
1	 1.885714285714285e+00	 0.000000000000000e+00	 2.242718766978589e+01
1	 1.914285714285714e+00	 0.000000000000000e+00	 2.235664603932011e+01
1	 1.942857142857143e+00	 0.000000000000000e+00	 2.216654429149346e+01
1	 1.971428571428571e+00	 0.000000000000000e+00	 2.186389715415824e+01
1	 2.000000000000000e+00	 0.000000000000000e+00	 2.145531851357524e+01
1	 2.028571428571428e+00	 0.000000000000000e+00	 2.094704964269474e+01
1	 2.057142857142856e+00	 0.000000000000000e+00	 2.034498507708094e+01
1	 2.085714285714285e+00	 0.000000000000000e+00	 1.965469636404789e+01
1	 2.114285714285714e+00	 0.000000000000000e+00	 1.888145388619000e+01
1	 2.142857142857142e+00	 0.000000000000000e+00	 1.803024693902996e+01
1	 2.142857142857142e+00	 0.000000000000000e+00	 1.803024693902996e+01
1	 2.171428571428571e+00	 0.000000000000000e+00	 1.713081464262024e+01
1	 2.200000000000000e+00	 0.000000000000000e+00	 1.621250406733121e+01
1	 2.228571428571428e+00	 0.000000000000000e+00	 1.527935526045012e+01
1	 2.257142857142857e+00	 0.000000000000000e+00	 1.433520370990790e+01
1	 2.285714285714285e+00	 0.000000000000000e+00	 1.338369312923891e+01
1	 2.314285714285713e+00	 0.000000000000000e+00	 1.242828729550670e+01
1	 2.342857142857142e+00	 0.000000000000000e+00	 1.147228102104000e+01
1	 2.371428571428570e+00	 0.000000000000000e+00	 1.051881033203123e+01
1	 2.399999999999999e+00	 0.000000000000000e+00	 9.570861920092188e+00
1	 2.428571428571428e+00	 0.000000000000000e+00	 8.631281926641172e+00
1	 2.428571428571428e+00	 0.000000000000000e+00	 8.631281926641170e+00
1	 2.457142857142857e+00	 0.000000000000000e+00	 7.722319826339093e+00
1	 2.485714285714286e+00	 0.000000000000000e+00	 6.864032873254005e+00
1	 2.514285714285713e+00	 0.000000000000000e+00	 6.055896925007866e+00
1	 2.542857142857143e+00	 0.000000000000000e+00	 5.297411396183428e+00
1	 2.571428571428570e+00	 0.000000000000000e+00	 4.588097949604204e+00
1	 2.600000000000000e+00	 0.000000000000000e+00	 3.927499273903677e+00
1	 2.628571428571428e+00	 0.000000000000000e+00	 3.315177940818217e+00
1	 2.657142857142857e+00	 0.000000000000000e+00	 2.750715336203055e+00
1	 2.685714285714285e+00	 0.000000000000000e+00	 2.233710659281290e+00
1	 2.714285714285714e+00	 0.000000000000000e+00	 1.763779985098185e+00
1	 2.714285714285714e+00	 0.000000000000000e+00	 1.763779985098185e+00
1	 2.742857142857143e+00	 0.000000000000000e+00	 1.351890292115210e+00
1	 2.771428571428571e+00	 0.000000000000000e+00	 1.005908688122886e+00
1	 2.800000000000000e+00	 0.000000000000000e+00	 7.209672887698007e-01
1	 2.828571428571428e+00	 0.000000000000000e+00	 4.923948919005702e-01
1	 2.857142857142856e+00	 0.000000000000000e+00	 3.157071434460157e-01
1	 2.885714285714285e+00	 0.000000000000000e+00	 1.865972875179210e-01
1	 2.914285714285714e+00	 0.000000000000000e+00	 1.009274606158411e-01
1	 2.942857142857143e+00	 0.000000000000000e+00	 5.472049296750559e-02
1	 2.971428571428571e+00	 0.000000000000000e+00	 4.415218286880650e-02
1	 3.000000000000000e+00	 0.000000000000000e+00	 6.554401249008038e-02
