x	y	stress_yy
 1.000000e+00	 0.000000e+00	 3.076556e+01
 9.998757e-01	 1.576381e-02	 3.077070e+01
 9.994998e-01	 3.162495e-02	 3.072621e+01
 9.988675e-01	 4.757827e-02	 3.063275e+01
 9.979743e-01	 6.361843e-02	 3.049113e+01
 9.968157e-01	 7.973984e-02	 3.030222e+01
 1.011111e+00	 0.000000e+00	 2.995287e+01
 1.010985e+00	 1.593896e-02	 2.996430e+01
 1.010605e+00	 3.197634e-02	 2.992641e+01
 1.009966e+00	 4.810692e-02	 2.984006e+01
 1.009063e+00	 6.432530e-02	 2.970621e+01
 1.007891e+00	 8.062584e-02	 2.952590e+01
 1.022222e+00	 0.000000e+00	 2.919189e+01
 1.022095e+00	 1.611412e-02	 2.920842e+01
 1.021711e+00	 3.232772e-02	 2.917594e+01
 1.021065e+00	 4.863557e-02	 2.909548e+01
 1.020152e+00	 6.503217e-02	 2.896816e+01
 1.018967e+00	 8.151184e-02	 2.879523e+01
 1.033333e+00	 0.000000e+00	 2.848160e+01
 1.033205e+00	 1.628927e-02	 2.850204e+01
 1.032816e+00	 3.267911e-02	 2.847373e+01
 1.032163e+00	 4.916421e-02	 2.839790e+01
 1.031240e+00	 6.573904e-02	 2.827588e+01
 1.030043e+00	 8.239784e-02	 2.810908e+01
 1.044444e+00	 0.000000e+00	 2.782104e+01
 1.044315e+00	 1.646442e-02	 2.784416e+01
 1.043922e+00	 3.303050e-02	 2.781877e+01
 1.043262e+00	 4.969286e-02	 2.774630e+01
 1.042329e+00	 6.644591e-02	 2.762829e+01
 1.041119e+00	 8.328384e-02	 2.746636e+01
 1.055556e+00	 0.000000e+00	 2.720934e+01
 1.055424e+00	 1.663958e-02	 2.723387e+01
 1.055028e+00	 3.338189e-02	 2.721011e+01
 1.054360e+00	 5.022151e-02	 2.713971e+01
 1.053417e+00	 6.715278e-02	 2.702441e+01
 1.052194e+00	 8.416984e-02	 2.686607e+01
 9.968157e-01	 7.973984e-02	 3.030222e+01
 9.953874e-01	 9.593675e-02	 3.012259e+01
 9.936853e-01	 1.122032e-01	 2.989356e+01
 9.917053e-01	 1.285329e-01	 2.961648e+01
 9.894435e-01	 1.449195e-01	 2.929267e+01
 9.868962e-01	 1.613564e-01	 2.892342e+01
 1.007891e+00	 8.062584e-02	 2.952590e+01
 1.006447e+00	 9.700271e-02	 2.936134e+01
 1.004726e+00	 1.134499e-01	 2.914772e+01
 1.002724e+00	 1.299610e-01	 2.888650e+01
 1.000437e+00	 1.465297e-01	 2.857914e+01
 9.978617e-01	 1.631493e-01	 2.822709e+01
 1.018967e+00	 8.151184e-02	 2.879523e+01
 1.017507e+00	 9.806867e-02	 2.864458e+01
 1.015767e+00	 1.146966e-01	 2.844523e+01
 1.013743e+00	 1.313891e-01	 2.819880e+01
 1.011431e+00	 1.481399e-01	 2.790692e+01
 1.008827e+00	 1.649421e-01	 2.757116e+01
 1.030043e+00	 8.239784e-02	 2.810908e+01
 1.028567e+00	 9.913464e-02	 2.797113e+01
 1.026808e+00	 1.159433e-01	 2.778490e+01
 1.024762e+00	 1.328173e-01	 2.755219e+01
 1.022425e+00	 1.497501e-01	 2.727478e+01
 1.019793e+00	 1.667350e-01	 2.695440e+01
 1.041119e+00	 8.328384e-02	 2.746636e+01
 1.039627e+00	 1.002006e-01	 2.733989e+01
 1.037849e+00	 1.171900e-01	 2.716562e+01
 1.035781e+00	 1.342454e-01	 2.694553e+01
 1.033419e+00	 1.513604e-01	 2.668159e+01
 1.030758e+00	 1.685278e-01	 2.637566e+01
 1.052194e+00	 8.416984e-02	 2.686607e+01
 1.050687e+00	 1.012666e-01	 2.674982e+01
 1.048890e+00	 1.184367e-01	 2.658632e+01
 1.046800e+00	 1.356736e-01	 2.637775e+01
 1.044413e+00	 1.529706e-01	 2.612624e+01
 1.041724e+00	 1.703207e-01	 2.583386e+01
 9.868962e-01	 1.613564e-01	 2.892342e+01
 9.840600e-01	 1.778369e-01	 2.855040e+01
 9.809315e-01	 1.943540e-01	 2.813194e+01
 9.775075e-01	 2.109005e-01	 2.766977e+01
 9.737853e-01	 2.274691e-01	 2.716554e+01
 9.697621e-01	 2.440522e-01	 2.662080e+01
 9.978617e-01	 1.631493e-01	 2.822709e+01
 9.949940e-01	 1.798129e-01	 2.787995e+01
 9.918307e-01	 1.965135e-01	 2.748756e+01
 9.883687e-01	 2.132438e-01	 2.705165e+01
 9.846051e-01	 2.299965e-01	 2.657387e+01
 9.805372e-01	 2.467639e-01	 2.605573e+01
 1.008827e+00	 1.649421e-01	 2.757116e+01
 1.005928e+00	 1.817889e-01	 2.724828e+01
 1.002730e+00	 1.986730e-01	 2.688046e+01
 9.992299e-01	 2.155872e-01	 2.646945e+01
 9.954250e-01	 2.325239e-01	 2.601688e+01
 9.913124e-01	 2.494756e-01	 2.552425e+01
 1.019793e+00	 1.667350e-01	 2.695440e+01
 1.016862e+00	 1.837648e-01	 2.665421e+01
 1.013629e+00	 2.008325e-01	 2.630949e+01
 1.010091e+00	 2.179305e-01	 2.592204e+01
 1.006245e+00	 2.350514e-01	 2.549349e+01
 1.002087e+00	 2.521873e-01	 2.502533e+01
 1.030758e+00	 1.685278e-01	 2.637566e+01
 1.027796e+00	 1.857408e-01	 2.609658e+01
 1.024528e+00	 2.029920e-01	 2.577354e+01
 1.020952e+00	 2.202738e-01	 2.540835e+01
 1.017065e+00	 2.375788e-01	 2.500267e+01
 1.012863e+00	 2.548990e-01	 2.455797e+01
 1.041724e+00	 1.703207e-01	 2.583386e+01
 1.038730e+00	 1.877168e-01	 2.557435e+01
 1.035428e+00	 2.051514e-01	 2.527156e+01
 1.031814e+00	 2.226172e-01	 2.492736e+01
 1.027884e+00	 2.401062e-01	 2.454344e+01
 1.023638e+00	 2.576107e-01	 2.412126e+01
 9.697621e-01	 2.440522e-01	 2.662080e+01
 9.654354e-01	 2.606423e-01	 2.607795e+01
 9.608031e-01	 2.772315e-01	 2.549971e+01
 9.558632e-01	 2.938119e-01	 2.488785e+01
 9.506141e-01	 3.103754e-01	 2.424403e+01
 9.450542e-01	 3.269137e-01	 2.356983e+01
 9.805372e-01	 2.467639e-01	 2.605573e+01
 9.761625e-01	 2.635384e-01	 2.554620e+01
 9.714787e-01	 2.803119e-01	 2.500154e+01
 9.664839e-01	 2.970765e-01	 2.442342e+01
 9.611764e-01	 3.138240e-01	 2.381341e+01
 9.555548e-01	 3.305461e-01	 2.317296e+01
 9.913124e-01	 2.494756e-01	 2.552425e+01
 9.868896e-01	 2.664344e-01	 2.504741e+01
 9.821543e-01	 2.833923e-01	 2.453581e+01
 9.771047e-01	 3.003411e-01	 2.399106e+01
 9.717388e-01	 3.172726e-01	 2.341462e+01
 9.660554e-01	 3.341785e-01	 2.280783e+01
 1.002087e+00	 2.521873e-01	 2.502533e+01
 9.976166e-01	 2.693304e-01	 2.458054e+01
 9.928299e-01	 2.864726e-01	 2.410154e+01
 9.877254e-01	 3.036057e-01	 2.358985e+01
 9.823012e-01	 3.207213e-01	 2.304682e+01
 9.765560e-01	 3.378109e-01	 2.247367e+01
 1.012863e+00	 2.548990e-01	 2.455797e+01
 1.008344e+00	 2.722264e-01	 2.414468e+01
 1.003505e+00	 2.895530e-01	 2.369786e+01
 9.983461e-01	 3.068702e-01	 2.321896e+01
 9.928636e-01	 3.241699e-01	 2.270924e+01
 9.870566e-01	 3.414432e-01	 2.216976e+01
 1.023638e+00	 2.576107e-01	 2.412126e+01
 1.019071e+00	 2.751225e-01	 2.373893e+01
 1.014181e+00	 2.926333e-01	 2.332393e+01
 1.008967e+00	 3.101348e-01	 2.287763e+01
 1.003426e+00	 3.276185e-01	 2.240117e+01
 9.975572e-01	 3.450756e-01	 2.189548e+01
 9.450542e-01	 3.269137e-01	 2.356983e+01
 9.391824e-01	 3.434186e-01	 2.287367e+01
 9.329980e-01	 3.598816e-01	 2.214905e+01
 9.265002e-01	 3.762942e-01	 2.140184e+01
 9.196890e-01	 3.926477e-01	 2.068605e+01
 9.125641e-01	 4.089336e-01	 2.001444e+01
 9.555548e-01	 3.305461e-01	 2.317296e+01
 9.496178e-01	 3.472344e-01	 2.250402e+01
 9.433646e-01	 3.638803e-01	 2.180579e+01
 9.367947e-01	 3.804752e-01	 2.109321e+01
 9.299077e-01	 3.970105e-01	 2.042243e+01
 9.227037e-01	 4.134773e-01	 1.979637e+01
 9.660554e-01	 3.341785e-01	 2.280783e+01
 9.600532e-01	 3.510501e-01	 2.216373e+01
 9.537313e-01	 3.678790e-01	 2.148962e+01
 9.470891e-01	 3.846562e-01	 2.081486e+01
 9.401265e-01	 4.013732e-01	 2.018807e+01
 9.328433e-01	 4.180210e-01	 1.960669e+01
 9.765560e-01	 3.378109e-01	 2.247367e+01
 9.704885e-01	 3.548659e-01	 2.185218e+01
 9.640979e-01	 3.718776e-01	 2.120040e+01
 9.573836e-01	 3.888373e-01	 2.056663e+01
 9.503453e-01	 4.057360e-01	 1.998294e+01
 9.429829e-01	 4.225647e-01	 1.944541e+01
 9.870566e-01	 3.414432e-01	 2.216976e+01
 9.809239e-01	 3.586817e-01	 2.156879e+01
 9.744646e-01	 3.758763e-01	 2.094123e+01
 9.676780e-01	 3.930183e-01	 2.034843e+01
 9.605640e-01	 4.100987e-01	 1.980699e+01
 9.531225e-01	 4.271084e-01	 1.931257e+01
 9.975572e-01	 3.450756e-01	 2.189548e+01
 9.913592e-01	 3.624974e-01	 2.131309e+01
 9.848312e-01	 3.798750e-01	 2.071284e+01
 9.779725e-01	 3.971994e-01	 2.016015e+01
 9.707828e-01	 4.144615e-01	 1.966018e+01
 9.632621e-01	 4.316521e-01	 1.920819e+01
 9.125641e-01	 4.089336e-01	 2.001444e+01
 9.051262e-01	 4.251431e-01	 1.915647e+01
 8.973756e-01	 4.412674e-01	 1.832881e+01
 8.893136e-01	 4.572978e-01	 1.752679e+01
 8.809413e-01	 4.732255e-01	 1.674544e+01
 8.722604e-01	 4.890417e-01	 1.597956e+01
 9.227037e-01	 4.134773e-01	 1.979637e+01
 9.151831e-01	 4.298669e-01	 1.897253e+01
 9.073465e-01	 4.461704e-01	 1.817993e+01
 8.991949e-01	 4.623789e-01	 1.741340e+01
 8.907296e-01	 4.784836e-01	 1.666742e+01
 8.819522e-01	 4.944755e-01	 1.593624e+01
 9.328433e-01	 4.180210e-01	 1.960669e+01
 9.252401e-01	 4.345907e-01	 1.881645e+01
 9.173173e-01	 4.510734e-01	 1.805847e+01
 9.090761e-01	 4.674600e-01	 1.732706e+01
 9.005178e-01	 4.837416e-01	 1.661619e+01
 8.916440e-01	 4.999093e-01	 1.591954e+01
 9.429829e-01	 4.225647e-01	 1.944541e+01
 9.352970e-01	 4.393145e-01	 1.868832e+01
 9.272882e-01	 4.559763e-01	 1.796460e+01
 9.189574e-01	 4.725411e-01	 1.726804e+01
 9.103060e-01	 4.889997e-01	 1.659211e+01
 9.013358e-01	 5.053431e-01	 1.592990e+01
 9.531225e-01	 4.271084e-01	 1.931257e+01
 9.453540e-01	 4.440383e-01	 1.858825e+01
 9.372590e-01	 4.608793e-01	 1.789847e+01
 9.288387e-01	 4.776222e-01	 1.723657e+01
 9.200943e-01	 4.942578e-01	 1.659546e+01
 9.110275e-01	 5.107769e-01	 1.596769e+01
 9.632621e-01	 4.316521e-01	 1.920819e+01
 9.554109e-01	 4.487621e-01	 1.851630e+01
 9.472299e-01	 4.657823e-01	 1.786023e+01
 9.387199e-01	 4.827033e-01	 1.723283e+01
 9.298825e-01	 4.995158e-01	 1.662650e+01
 9.207193e-01	 5.162107e-01	 1.603323e+01
 8.722604e-01	 4.890417e-01	 1.597956e+01
 8.632728e-01	 5.047375e-01	 1.516981e+01
 8.539809e-01	 5.203044e-01	 1.436510e+01
 8.443871e-01	 5.357335e-01	 1.356034e+01
 8.344945e-01	 5.510163e-01	 1.275056e+01
 8.243063e-01	 5.661441e-01	 1.193102e+01
 8.819522e-01	 4.944755e-01	 1.593624e+01
 8.728648e-01	 5.103457e-01	 1.516325e+01
 8.634696e-01	 5.260855e-01	 1.439385e+01
 8.537692e-01	 5.416861e-01	 1.362229e+01
 8.437667e-01	 5.571387e-01	 1.284289e+01
 8.334652e-01	 5.724346e-01	 1.205024e+01
 8.916440e-01	 4.999093e-01	 1.591954e+01
 8.824567e-01	 5.159539e-01	 1.518291e+01
 8.729582e-01	 5.318667e-01	 1.444850e+01
 8.631513e-01	 5.476387e-01	 1.370986e+01
 8.530388e-01	 5.632611e-01	 1.296064e+01
 8.426242e-01	 5.787251e-01	 1.219471e+01
 9.013358e-01	 5.053431e-01	 1.592990e+01
 8.920486e-01	 5.215621e-01	 1.522933e+01
 8.824469e-01	 5.376479e-01	 1.452967e+01
 8.725334e-01	 5.535913e-01	 1.382381e+01
 8.623110e-01	 5.693835e-01	 1.310470e+01
 8.517832e-01	 5.850156e-01	 1.236545e+01
 9.110275e-01	 5.107769e-01	 1.596769e+01
 9.016405e-01	 5.271703e-01	 1.530298e+01
 8.919356e-01	 5.434290e-01	 1.463796e+01
 8.819154e-01	 5.595439e-01	 1.396485e+01
 8.715832e-01	 5.755059e-01	 1.327587e+01
 8.609421e-01	 5.913061e-01	 1.256342e+01
 9.207193e-01	 5.162107e-01	 1.603323e+01
 9.112325e-01	 5.327785e-01	 1.540425e+01
 9.014243e-01	 5.492102e-01	 1.477386e+01
 8.912975e-01	 5.654965e-01	 1.413356e+01
 8.808553e-01	 5.816283e-01	 1.347488e+01
 8.701011e-01	 5.975966e-01	 1.278944e+01
 8.243063e-01	 5.661441e-01	 1.193102e+01
 8.138260e-01	 5.811086e-01	 1.122223e+01
 8.030576e-01	 5.959013e-01	 1.049992e+01
 7.920053e-01	 6.105142e-01	 9.761753e+00
 7.806736e-01	 6.249389e-01	 9.006185e+00
 7.690674e-01	 6.391677e-01	 8.232571e+00
 8.334652e-01	 5.724346e-01	 1.205024e+01
 8.228685e-01	 5.875653e-01	 1.137576e+01
 8.119805e-01	 6.025225e-01	 1.068357e+01
 8.008054e-01	 6.172976e-01	 9.970683e+00
 7.893478e-01	 6.318827e-01	 9.234869e+00
 7.776125e-01	 6.462696e-01	 8.474848e+00
 8.426242e-01	 5.787251e-01	 1.219471e+01
 8.319111e-01	 5.940221e-01	 1.155466e+01
 8.209034e-01	 6.091436e-01	 1.089272e+01
 8.096055e-01	 6.240811e-01	 1.020519e+01
 7.980219e-01	 6.388265e-01	 9.489164e+00
 7.861577e-01	 6.533715e-01	 8.742687e+00
 8.517832e-01	 5.850156e-01	 1.236545e+01
 8.409536e-01	 6.004789e-01	 1.176010e+01
 8.298262e-01	 6.157647e-01	 1.112867e+01
 8.184055e-01	 6.308646e-01	 1.046673e+01
 8.066961e-01	 6.457702e-01	 9.770687e+00
 7.947029e-01	 6.604733e-01	 9.037873e+00
 8.609421e-01	 5.913061e-01	 1.256342e+01
 8.499961e-01	 6.069356e-01	 1.199315e+01
 8.387491e-01	 6.223858e-01	 1.139262e+01
 8.272056e-01	 6.376481e-01	 1.075668e+01
 8.153702e-01	 6.527140e-01	 1.008096e+01
 8.032481e-01	 6.675752e-01	 9.362090e+00
 8.701011e-01	 5.975966e-01	 1.278944e+01
 8.590386e-01	 6.133924e-01	 1.225477e+01
 8.476720e-01	 6.290070e-01	 1.168569e+01
 8.360056e-01	 6.444316e-01	 1.107628e+01
 8.240444e-01	 6.596578e-01	 1.042140e+01
 8.117933e-01	 6.746771e-01	 9.716917e+00
 7.690674e-01	 6.391677e-01	 8.232571e+00
 7.571916e-01	 6.531928e-01	 7.598468e+00
 7.450519e-01	 6.670065e-01	 6.964986e+00
 7.326538e-01	 6.806015e-01	 6.339208e+00
 7.200033e-01	 6.939706e-01	 5.733091e+00
 7.071068e-01	 7.071068e-01	 5.149851e+00
 7.776125e-01	 6.462696e-01	 8.474848e+00
 7.656049e-01	 6.604505e-01	 7.870336e+00
 7.533302e-01	 6.744177e-01	 7.261790e+00
 7.407944e-01	 6.881638e-01	 6.653621e+00
 7.280034e-01	 7.016814e-01	 6.056483e+00
 7.149635e-01	 7.149635e-01	 5.479068e+00
 7.861577e-01	 6.533715e-01	 8.742687e+00
 7.740181e-01	 6.677082e-01	 8.168614e+00
 7.616086e-01	 6.818289e-01	 7.585654e+00
 7.489350e-01	 6.957260e-01	 6.997772e+00
 7.360034e-01	 7.093922e-01	 6.411173e+00
 7.228203e-01	 7.228203e-01	 5.838603e+00
 7.947029e-01	 6.604733e-01	 9.037873e+00
 7.824313e-01	 6.749659e-01	 8.495224e+00
 7.698869e-01	 6.892401e-01	 7.938646e+00
 7.570756e-01	 7.032882e-01	 7.371620e+00
 7.440035e-01	 7.171029e-01	 6.799264e+00
 7.306770e-01	 7.306770e-01	 6.230897e+00
 8.032481e-01	 6.675752e-01	 9.362090e+00
 7.908446e-01	 6.822236e-01	 8.851994e+00
 7.781653e-01	 6.966513e-01	 8.322739e+00
 7.652162e-01	 7.108505e-01	 7.777289e+00
 7.520035e-01	 7.248137e-01	 7.220300e+00
 7.385337e-01	 7.385337e-01	 6.658426e+00
 8.117933e-01	 6.746771e-01	 9.716917e+00
 7.992578e-01	 6.894813e-01	 9.240643e+00
 7.864436e-01	 7.040624e-01	 8.739804e+00
 7.733568e-01	 7.184127e-01	 8.216807e+00
 7.600035e-01	 7.325245e-01	 7.675807e+00
 7.463905e-01	 7.463905e-01	 7.127674e+00
 7.071068e-01	 7.071068e-01	 5.149851e+00
 6.939706e-01	 7.200033e-01	 4.636563e+00
 6.806015e-01	 7.326538e-01	 4.116878e+00
 6.670065e-01	 7.450519e-01	 3.598063e+00
 6.531928e-01	 7.571916e-01	 3.142594e+00
 6.391677e-01	 7.690674e-01	 2.777940e+00
 7.149635e-01	 7.149635e-01	 5.479068e+00
 7.016814e-01	 7.280034e-01	 4.954324e+00
 6.881638e-01	 7.407944e-01	 4.415362e+00
 6.744177e-01	 7.533302e-01	 3.903866e+00
 6.604505e-01	 7.656049e-01	 3.468404e+00
 6.462696e-01	 7.776125e-01	 3.120974e+00
 7.228203e-01	 7.228203e-01	 5.838603e+00
 7.093922e-01	 7.360034e-01	 5.299788e+00
 6.957260e-01	 7.489350e-01	 4.753699e+00
 6.818289e-01	 7.616086e-01	 4.262121e+00
 6.677082e-01	 7.740181e-01	 3.843955e+00
 6.533715e-01	 7.861577e-01	 3.511456e+00
 7.306770e-01	 7.306770e-01	 6.230897e+00
 7.171029e-01	 7.440035e-01	 5.677500e+00
 7.032882e-01	 7.570756e-01	 5.146249e+00
 6.892401e-01	 7.698869e-01	 4.671488e+00
 6.749659e-01	 7.824313e-01	 4.267943e+00
 6.604733e-01	 7.947029e-01	 3.948137e+00
 7.385337e-01	 7.385337e-01	 6.658426e+00
 7.248137e-01	 7.520035e-01	 6.106857e+00
 7.108505e-01	 7.652162e-01	 5.591487e+00
 6.966513e-01	 7.781653e-01	 5.130460e+00
 6.822236e-01	 7.908446e-01	 4.738895e+00
 6.675752e-01	 8.032481e-01	 4.429591e+00
 7.463905e-01	 7.463905e-01	 7.127674e+00
 7.325245e-01	 7.600035e-01	 6.590716e+00
 7.184127e-01	 7.733568e-01	 6.087718e+00
 7.040624e-01	 7.864436e-01	 5.637361e+00
 6.894813e-01	 7.992578e-01	 5.255167e+00
 6.746771e-01	 8.117933e-01	 4.954224e+00
 6.391677e-01	 7.690674e-01	 2.777940e+00
 6.249389e-01	 7.806736e-01	 2.318616e+00
 6.105142e-01	 7.920053e-01	 1.912463e+00
 5.959013e-01	 8.030576e-01	 1.563491e+00
 5.811086e-01	 8.138260e-01	 1.273960e+00
 5.661441e-01	 8.243063e-01	 1.044435e+00
 6.462696e-01	 7.776125e-01	 3.120974e+00
 6.318827e-01	 7.893478e-01	 2.652779e+00
 6.172976e-01	 8.008054e-01	 2.239444e+00
 6.025225e-01	 8.119805e-01	 1.884977e+00
 5.875653e-01	 8.228685e-01	 1.591532e+00
 5.724346e-01	 8.334652e-01	 1.359468e+00
 6.533715e-01	 7.861577e-01	 3.511456e+00
 6.388265e-01	 7.980219e-01	 3.033323e+00
 6.240811e-01	 8.096055e-01	 2.612070e+00
 6.091436e-01	 8.209034e-01	 2.251692e+00
 5.940221e-01	 8.319111e-01	 1.954228e+00
 5.787251e-01	 8.426242e-01	 1.719814e+00
 6.604733e-01	 7.947029e-01	 3.948137e+00
 6.457702e-01	 8.066961e-01	 3.459037e+00
 6.308646e-01	 8.184055e-01	 3.029184e+00
 6.157647e-01	 8.298262e-01	 2.662554e+00
 6.004789e-01	 8.409536e-01	 2.361055e+00
 5.850156e-01	 8.517832e-01	 2.124583e+00
 6.675752e-01	 8.032481e-01	 4.429591e+00
 6.527140e-01	 8.153702e-01	 3.928537e+00
 6.376481e-01	 8.272056e-01	 3.489459e+00
 6.223858e-01	 8.387491e-01	 3.116310e+00
 6.069356e-01	 8.499961e-01	 2.810849e+00
 5.913061e-01	 8.609421e-01	 2.572715e+00
 6.746771e-01	 8.117933e-01	 4.954224e+00
 6.596578e-01	 8.240444e-01	 4.440268e+00
 6.444316e-01	 8.360056e-01	 3.991402e+00
 6.290070e-01	 8.476720e-01	 3.611539e+00
 6.133924e-01	 8.590386e-01	 3.302282e+00
 5.975966e-01	 8.701011e-01	 3.062990e+00
 5.661441e-01	 8.243063e-01	 1.044435e+00
 5.510163e-01	 8.344945e-01	 7.448735e-01
 5.357335e-01	 8.443871e-01	 4.901894e-01
 5.203044e-01	 8.539809e-01	 2.757472e-01
 5.047375e-01	 8.632728e-01	 9.564535e-02
 4.890417e-01	 8.722604e-01	-5.715033e-02
 5.724346e-01	 8.334652e-01	 1.359468e+00
 5.571387e-01	 8.437667e-01	 1.048779e+00
 5.416861e-01	 8.537692e-01	 7.820730e-01
 5.260855e-01	 8.634696e-01	 5.542244e-01
 5.103457e-01	 8.728648e-01	 3.587763e-01
 4.944755e-01	 8.819522e-01	 1.880821e-01
 5.787251e-01	 8.426242e-01	 1.719814e+00
 5.632611e-01	 8.530388e-01	 1.398058e+00
 5.476387e-01	 8.631513e-01	 1.119672e+00
 5.318667e-01	 8.729582e-01	 8.790118e-01
 5.159539e-01	 8.824567e-01	 6.690328e-01
 4.999093e-01	 8.916440e-01	 4.814410e-01
 5.850156e-01	 8.517832e-01	 2.124583e+00
 5.693835e-01	 8.623110e-01	 1.791949e+00
 5.535913e-01	 8.725334e-01	 1.502365e+00
 5.376479e-01	 8.824469e-01	 1.249639e+00
 5.215621e-01	 8.920486e-01	 1.026105e+00
 5.053431e-01	 9.013358e-01	 8.227843e-01
 5.913061e-01	 8.609421e-01	 2.572715e+00
 5.755059e-01	 8.715832e-01	 2.229524e+00
 5.595439e-01	 8.819154e-01	 1.929369e+00
 5.434290e-01	 8.919356e-01	 1.665478e+00
 5.271703e-01	 9.016405e-01	 1.429527e+00
 5.107769e-01	 9.110275e-01	 1.211816e+00
 5.975966e-01	 8.701011e-01	 3.062990e+00
 5.816283e-01	 8.808553e-01	 2.709697e+00
 5.654965e-01	 8.912975e-01	 2.399741e+00
 5.492102e-01	 9.014243e-01	 2.125739e+00
 5.327785e-01	 9.112325e-01	 1.878675e+00
 5.162107e-01	 9.207193e-01	 1.648087e+00
 4.890417e-01	 8.722604e-01	-5.715033e-02
 4.732255e-01	 8.809413e-01	-1.556486e-01
 4.572978e-01	 8.893136e-01	-2.435574e-01
 4.412674e-01	 8.973756e-01	-3.304771e-01
 4.251431e-01	 9.051262e-01	-4.265221e-01
 4.089336e-01	 9.125641e-01	-5.421558e-01
 4.944755e-01	 8.819522e-01	 1.880821e-01
 4.784836e-01	 8.907296e-01	 6.984633e-02
 4.623789e-01	 8.991949e-01	-3.885154e-02
 4.461704e-01	 9.073465e-01	-1.482875e-01
 4.298669e-01	 9.151831e-01	-2.692786e-01
 4.134773e-01	 9.227037e-01	-4.130081e-01
 4.999093e-01	 8.916440e-01	 4.814410e-01
 4.837416e-01	 9.005178e-01	 3.455276e-01
 4.674600e-01	 9.090761e-01	 2.181439e-01
 4.510734e-01	 9.173173e-01	 8.829583e-02
 4.345907e-01	 9.252401e-01	-5.558011e-02
 4.180210e-01	 9.328433e-01	-2.254313e-01
 5.053431e-01	 9.013358e-01	 8.227843e-01
 4.889997e-01	 9.103060e-01	 6.713973e-01
 4.725411e-01	 9.189574e-01	 5.275816e-01
 4.559763e-01	 9.272882e-01	 3.795810e-01
 4.393145e-01	 9.352970e-01	 2.150404e-01
 4.225647e-01	 9.429829e-01	 2.120205e-02
 5.107769e-01	 9.110275e-01	 1.211816e+00
 4.942578e-01	 9.200943e-01	 1.047307e+00
 4.776222e-01	 9.288387e-01	 8.894689e-01
 4.608793e-01	 9.372590e-01	 7.257357e-01
 4.440383e-01	 9.453540e-01	 5.429142e-01
 4.271084e-01	 9.531225e-01	 3.273889e-01
 5.162107e-01	 9.207193e-01	 1.648087e+00
 4.995158e-01	 9.298825e-01	 1.472963e+00
 4.827033e-01	 9.387199e-01	 1.303670e+00
 4.657823e-01	 9.472299e-01	 1.126789e+00
 4.487621e-01	 9.554109e-01	 9.282394e-01
 4.316521e-01	 9.632621e-01	 6.934978e-01
 4.089336e-01	 9.125641e-01	-5.421558e-01
 3.926477e-01	 9.196890e-01	-5.304511e-01
 3.762942e-01	 9.265002e-01	-5.183516e-01
 3.598816e-01	 9.329980e-01	-5.134236e-01
 3.434186e-01	 9.391824e-01	-5.145122e-01
 3.269137e-01	 9.450542e-01	-5.255557e-01
 4.134773e-01	 9.227037e-01	-4.130081e-01
 3.970105e-01	 9.299077e-01	-4.181998e-01
 3.804752e-01	 9.367947e-01	-4.243880e-01
 3.638803e-01	 9.433646e-01	-4.414235e-01
 3.472344e-01	 9.496178e-01	-4.691350e-01
 3.305461e-01	 9.555548e-01	-5.105248e-01
 4.180210e-01	 9.328433e-01	-2.254313e-01
 4.013732e-01	 9.401265e-01	-2.453902e-01
 3.846562e-01	 9.470891e-01	-2.679846e-01
 3.678790e-01	 9.537313e-01	-3.046464e-01
 3.510501e-01	 9.600532e-01	-3.577391e-01
 3.341785e-01	 9.660554e-01	-4.287591e-01
 4.225647e-01	 9.429829e-01	 2.120205e-02
 4.057360e-01	 9.503453e-01	-1.124343e-02
 3.888373e-01	 9.573836e-01	-4.821065e-02
 3.718776e-01	 9.640979e-01	-1.020816e-01
 3.548659e-01	 9.704885e-01	-1.790548e-01
 3.378109e-01	 9.765560e-01	-2.788005e-01
 4.271084e-01	 9.531225e-01	 3.273889e-01
 4.100987e-01	 9.605640e-01	 2.848942e-01
 3.930183e-01	 9.676780e-01	 2.357452e-01
 3.758763e-01	 9.744646e-01	 1.667008e-01
 3.586817e-01	 9.809239e-01	 6.806047e-02
 3.414432e-01	 9.870566e-01	-5.930488e-02
 4.316521e-01	 9.632621e-01	 6.934978e-01
 4.144615e-01	 9.707828e-01	 6.435536e-01
 3.971994e-01	 9.779725e-01	 5.845768e-01
 3.798750e-01	 9.848312e-01	 5.024188e-01
 3.624974e-01	 9.913592e-01	 3.846222e-01
 3.450756e-01	 9.975572e-01	 2.309578e-01
 3.269137e-01	 9.450542e-01	-5.255557e-01
 3.103754e-01	 9.506141e-01	-4.999646e-01
 2.938119e-01	 9.558632e-01	-4.661120e-01
 2.772315e-01	 9.608031e-01	-4.256898e-01
 2.606423e-01	 9.654354e-01	-3.793552e-01
 2.440522e-01	 9.697621e-01	-3.267386e-01
 3.305461e-01	 9.555548e-01	-5.105248e-01
 3.138240e-01	 9.611764e-01	-5.110576e-01
 2.970765e-01	 9.664839e-01	-5.000919e-01
 2.803119e-01	 9.714787e-01	-4.793075e-01
 2.635384e-01	 9.761625e-01	-4.492712e-01
 2.467639e-01	 9.805372e-01	-4.094462e-01
 3.341785e-01	 9.660554e-01	-4.287591e-01
 3.172726e-01	 9.717388e-01	-4.528328e-01
 3.003411e-01	 9.771047e-01	-4.629033e-01
 2.833923e-01	 9.821543e-01	-4.606446e-01
 2.664344e-01	 9.868896e-01	-4.465317e-01
 2.494756e-01	 9.913124e-01	-4.198517e-01
 3.378109e-01	 9.765560e-01	-2.788005e-01
 3.207213e-01	 9.823012e-01	-3.237443e-01
 3.036057e-01	 9.877254e-01	-3.529301e-01
 2.864726e-01	 9.928299e-01	-3.680339e-01
 2.693304e-01	 9.976166e-01	-3.694377e-01
 2.521873e-01	 1.002087e+00	-3.562424e-01
 3.414432e-01	 9.870566e-01	-5.930488e-02
 3.241699e-01	 9.928636e-01	-1.223446e-01
 3.068702e-01	 9.983461e-01	-1.686412e-01
 2.895530e-01	 1.003505e+00	-1.998807e-01
 2.722264e-01	 1.008344e+00	-2.163509e-01
 2.548990e-01	 1.012863e+00	-2.169571e-01
 3.450756e-01	 9.975572e-01	 2.309578e-01
 3.276185e-01	 1.003426e+00	 1.527146e-01
 3.101348e-01	 1.008967e+00	 9.140945e-02
 2.926333e-01	 1.014181e+00	 4.533745e-02
 2.751225e-01	 1.019071e+00	 1.430580e-02
 2.576107e-01	 1.023638e+00	-3.855158e-04
 2.440522e-01	 9.697621e-01	-3.267386e-01
 2.274691e-01	 9.737853e-01	-3.012061e-01
 2.109005e-01	 9.775075e-01	-2.733578e-01
 1.943540e-01	 9.809315e-01	-2.400952e-01
 1.778369e-01	 9.840600e-01	-1.975083e-01
 1.613564e-01	 9.868962e-01	-1.409769e-01
 2.467639e-01	 9.805372e-01	-4.094462e-01
 2.299965e-01	 9.846051e-01	-3.971316e-01
 2.132438e-01	 9.883687e-01	-3.803865e-01
 1.965135e-01	 9.918307e-01	-3.557216e-01
 1.798129e-01	 9.949940e-01	-3.187770e-01
 1.631493e-01	 9.978617e-01	-2.644329e-01
 2.494756e-01	 9.913124e-01	-4.198517e-01
 2.325239e-01	 9.954250e-01	-4.219478e-01
 2.155872e-01	 9.992299e-01	-4.181423e-01
 1.986730e-01	 1.002730e+00	-4.045245e-01
 1.817889e-01	 1.005928e+00	-3.762484e-01
 1.649421e-01	 1.008827e+00	-3.276527e-01
 2.521873e-01	 1.002087e+00	-3.562424e-01
 2.350514e-01	 1.006245e+00	-3.739432e-01
 2.179305e-01	 1.010091e+00	-3.849337e-01
 2.008325e-01	 1.013629e+00	-3.848502e-01
 1.837648e-01	 1.016862e+00	-3.683231e-01
 1.667350e-01	 1.019793e+00	-3.291061e-01
 2.548990e-01	 1.012863e+00	-2.169571e-01
 2.375788e-01	 1.017065e+00	-2.514490e-01
 2.202738e-01	 1.020952e+00	-2.791046e-01
 2.029920e-01	 1.024528e+00	-2.950747e-01
 1.857408e-01	 1.027796e+00	-2.934267e-01
 1.685278e-01	 1.030758e+00	-2.672841e-01
 2.576107e-01	 1.023638e+00	-3.855158e-04
 2.401062e-01	 1.027884e+00	-5.283895e-02
 2.226172e-01	 1.031814e+00	-9.903427e-02
 2.051514e-01	 1.035428e+00	-1.336031e-01
 1.877168e-01	 1.038730e+00	-1.500087e-01
 1.703207e-01	 1.041724e+00	-1.406980e-01
 1.613564e-01	 9.868962e-01	-1.409769e-01
 1.449195e-01	 9.894435e-01	-1.183839e-01
 1.285329e-01	 9.917053e-01	-1.010316e-01
 1.122032e-01	 9.936853e-01	-8.266715e-02
 9.593675e-02	 9.953874e-01	-5.673743e-02
 7.973984e-02	 9.968157e-01	-1.652170e-02
 1.631493e-01	 9.978617e-01	-2.644329e-01
 1.465297e-01	 1.000437e+00	-2.470299e-01
 1.299610e-01	 1.002724e+00	-2.331299e-01
 1.134499e-01	 1.004726e+00	-2.158288e-01
 9.700271e-02	 1.006447e+00	-1.879056e-01
 8.062584e-02	 1.007891e+00	-1.419666e-01
 1.649421e-01	 1.008827e+00	-3.276527e-01
 1.481399e-01	 1.011431e+00	-3.193834e-01
 1.313891e-01	 1.013743e+00	-3.132560e-01
 1.146966e-01	 1.015767e+00	-3.016622e-01
 9.806867e-02	 1.017507e+00	-2.766588e-01
 8.151184e-02	 1.018967e+00	-2.301226e-01
 1.667350e-01	 1.019793e+00	-3.291061e-01
 1.497501e-01	 1.022425e+00	-3.340000e-01
 1.328173e-01	 1.024762e+00	-3.400637e-01
 1.159433e-01	 1.026808e+00	-3.389306e-01
 9.913464e-02	 1.028567e+00	-3.218777e-01
 8.239784e-02	 1.030043e+00	-2.799937e-01
 1.685278e-01	 1.030758e+00	-2.672841e-01
 1.513604e-01	 1.033419e+00	-2.894532e-01
 1.342454e-01	 1.035781e+00	-3.122235e-01
 1.171900e-01	 1.037849e+00	-3.264124e-01
 1.002006e-01	 1.039627e+00	-3.224581e-01
 8.328384e-02	 1.041119e+00	-2.905994e-01
 1.703207e-01	 1.041724e+00	-1.406980e-01
 1.529706e-01	 1.044413e+00	-1.843346e-01
 1.356736e-01	 1.046800e+00	-2.284212e-01
 1.184367e-01	 1.048890e+00	-2.629006e-01
 1.012666e-01	 1.050687e+00	-2.773096e-01
 8.416984e-02	 1.052194e+00	-2.609735e-01
 7.973984e-02	 9.968157e-01	-1.652170e-02
 6.361843e-02	 9.979743e-01	-9.301443e-03
 4.757827e-02	 9.988675e-01	-1.054799e-02
 3.162495e-02	 9.994998e-01	-1.331911e-02
 1.576381e-02	 9.998757e-01	-1.091139e-02
 0.000000e+00	 1.000000e+00	 3.032449e-03
 8.062584e-02	 1.007891e+00	-1.419666e-01
 6.432530e-02	 1.009063e+00	-1.313951e-01
 4.810692e-02	 1.009966e+00	-1.288464e-01
 3.197634e-02	 1.010605e+00	-1.266426e-01
 1.593896e-02	 1.010985e+00	-1.173704e-01
 0.000000e+00	 1.011111e+00	-9.399728e-02
 8.151184e-02	 1.018967e+00	-2.301226e-01
 6.503217e-02	 1.020152e+00	-2.212672e-01
 4.863557e-02	 1.021065e+00	-2.199891e-01
 3.232772e-02	 1.021711e+00	-2.178196e-01
 1.611412e-02	 1.022095e+00	-2.065818e-01
 0.000000e+00	 1.022222e+00	-1.785165e-01
 8.239784e-02	 1.030043e+00	-2.799937e-01
 6.573904e-02	 1.031240e+00	-2.780558e-01
 4.916421e-02	 1.032163e+00	-2.832516e-01
 3.267911e-02	 1.032816e+00	-2.862645e-01
 1.628927e-02	 1.033205e+00	-2.780982e-01
 0.000000e+00	 1.033333e+00	-2.502119e-01
 8.328384e-02	 1.041119e+00	-2.905994e-01
 6.644591e-02	 1.042329e+00	-3.009145e-01
 4.969286e-02	 1.043262e+00	-3.179263e-01
 3.303050e-02	 1.043922e+00	-3.314104e-01
 1.646442e-02	 1.044315e+00	-3.314918e-01
 0.000000e+00	 1.044444e+00	-3.087918e-01
 8.416984e-02	 1.052194e+00	-2.609735e-01
 6.715278e-02	 1.053417e+00	-2.890121e-01
 5.022151e-02	 1.054360e+00	-3.233218e-01
 3.338189e-02	 1.055028e+00	-3.527073e-01
 1.663958e-02	 1.055424e+00	-3.663536e-01
 0.000000e+00	 1.055556e+00	-3.539846e-01
 1.055556e+00	 0.000000e+00	 2.720934e+01
 1.055424e+00	 1.663958e-02	 2.723387e+01
 1.055028e+00	 3.338189e-02	 2.721011e+01
 1.054360e+00	 5.022151e-02	 2.713971e+01
 1.053417e+00	 6.715278e-02	 2.702441e+01
 1.052194e+00	 8.416984e-02	 2.686607e+01
 1.066667e+00	 0.000000e+00	 2.658628e+01
 1.066534e+00	 1.681473e-02	 2.661610e+01
 1.066133e+00	 3.373328e-02	 2.659759e+01
 1.065459e+00	 5.075016e-02	 2.653264e+01
 1.064506e+00	 6.785965e-02	 2.642330e+01
 1.063270e+00	 8.505583e-02	 2.627168e+01
 1.077778e+00	 0.000000e+00	 2.599686e+01
 1.077644e+00	 1.698988e-02	 2.603119e+01
 1.077239e+00	 3.408466e-02	 2.601711e+01
 1.076557e+00	 5.127880e-02	 2.595681e+01
 1.075595e+00	 6.856653e-02	 2.585260e+01
 1.074346e+00	 8.594183e-02	 2.570690e+01
 1.088889e+00	 0.000000e+00	 2.544078e+01
 1.088754e+00	 1.716504e-02	 2.547878e+01
 1.088344e+00	 3.443605e-02	 2.546828e+01
 1.087656e+00	 5.180745e-02	 2.541176e+01
 1.086683e+00	 6.927340e-02	 2.531184e+01
 1.085422e+00	 8.682783e-02	 2.517122e+01
 1.100000e+00	 0.000000e+00	 2.491774e+01
 1.099863e+00	 1.734019e-02	 2.495855e+01
 1.099450e+00	 3.478744e-02	 2.495074e+01
 1.098754e+00	 5.233610e-02	 2.489710e+01
 1.097772e+00	 6.998027e-02	 2.480055e+01
 1.096497e+00	 8.771383e-02	 2.466413e+01
 1.111111e+00	 0.000000e+00	 2.442751e+01
 1.110973e+00	 1.751534e-02	 2.447022e+01
 1.110555e+00	 3.513883e-02	 2.446415e+01
 1.109853e+00	 5.286475e-02	 2.441243e+01
 1.108860e+00	 7.068714e-02	 2.431831e+01
 1.107573e+00	 8.859983e-02	 2.418518e+01
 1.052194e+00	 8.416984e-02	 2.686607e+01
 1.050687e+00	 1.012666e-01	 2.674982e+01
 1.048890e+00	 1.184367e-01	 2.658632e+01
 1.046800e+00	 1.356736e-01	 2.637775e+01
 1.044413e+00	 1.529706e-01	 2.612624e+01
 1.041724e+00	 1.703207e-01	 2.583386e+01
 1.063270e+00	 8.505583e-02	 2.627168e+01
 1.061747e+00	 1.023325e-01	 2.616825e+01
 1.059931e+00	 1.196834e-01	 2.601742e+01
 1.057819e+00	 1.371017e-01	 2.582158e+01
 1.055406e+00	 1.545808e-01	 2.558308e+01
 1.052689e+00	 1.721135e-01	 2.530419e+01
 1.074346e+00	 8.594183e-02	 2.570690e+01
 1.072806e+00	 1.033985e-01	 2.561524e+01
 1.070972e+00	 1.209301e-01	 2.547608e+01
 1.068838e+00	 1.385299e-01	 2.529208e+01
 1.066400e+00	 1.561910e-01	 2.506581e+01
 1.063655e+00	 1.739064e-01	 2.479974e+01
 1.085422e+00	 8.682783e-02	 2.517122e+01
 1.083866e+00	 1.044645e-01	 2.509022e+01
 1.082013e+00	 1.221768e-01	 2.496174e+01
 1.079857e+00	 1.399580e-01	 2.478867e+01
 1.077394e+00	 1.578012e-01	 2.457382e+01
 1.074620e+00	 1.756992e-01	 2.431991e+01
 1.096497e+00	 8.771383e-02	 2.466413e+01
 1.094926e+00	 1.055304e-01	 2.459267e+01
 1.093054e+00	 1.234235e-01	 2.447383e+01
 1.090876e+00	 1.413861e-01	 2.431076e+01
 1.088388e+00	 1.594114e-01	 2.410653e+01
 1.085586e+00	 1.774921e-01	 2.386408e+01
 1.107573e+00	 8.859983e-02	 2.418518e+01
 1.105986e+00	 1.065964e-01	 2.412212e+01
 1.104095e+00	 1.246702e-01	 2.401186e+01
 1.101895e+00	 1.428143e-01	 2.385782e+01
 1.099382e+00	 1.610217e-01	 2.366337e+01
 1.096551e+00	 1.792849e-01	 2.343169e+01
 1.041724e+00	 1.703207e-01	 2.583386e+01
 1.038730e+00	 1.877168e-01	 2.557435e+01
 1.035428e+00	 2.051514e-01	 2.527156e+01
 1.031814e+00	 2.226172e-01	 2.492736e+01
 1.027884e+00	 2.401062e-01	 2.454344e+01
 1.023638e+00	 2.576107e-01	 2.412126e+01
 1.052689e+00	 1.721135e-01	 2.530419e+01
 1.049664e+00	 1.896927e-01	 2.506276e+01
 1.046327e+00	 2.073109e-01	 2.477782e+01
 1.042675e+00	 2.249605e-01	 2.445131e+01
 1.038704e+00	 2.426337e-01	 2.408498e+01
 1.034413e+00	 2.603224e-01	 2.368032e+01
 1.063655e+00	 1.739064e-01	 2.479974e+01
 1.060598e+00	 1.916687e-01	 2.457536e+01
 1.057226e+00	 2.094704e-01	 2.430739e+01
 1.053536e+00	 2.273039e-01	 2.399787e+01
 1.049524e+00	 2.451611e-01	 2.364862e+01
 1.045188e+00	 2.630341e-01	 2.326114e+01
 1.074620e+00	 1.756992e-01	 2.431991e+01
 1.071532e+00	 1.936447e-01	 2.411153e+01
 1.068125e+00	 2.116299e-01	 2.385966e+01
 1.064397e+00	 2.296472e-01	 2.356645e+01
 1.060344e+00	 2.476885e-01	 2.323378e+01
 1.055963e+00	 2.657458e-01	 2.286320e+01
 1.085586e+00	 1.774921e-01	 2.386408e+01
 1.082466e+00	 1.956206e-01	 2.367068e+01
 1.079025e+00	 2.137894e-01	 2.343407e+01
 1.075258e+00	 2.319905e-01	 2.315651e+01
 1.071164e+00	 2.502160e-01	 2.283995e+01
 1.066738e+00	 2.684575e-01	 2.248601e+01
 1.096551e+00	 1.792849e-01	 2.343169e+01
 1.093400e+00	 1.975966e-01	 2.325226e+01
 1.089924e+00	 2.159489e-01	 2.303008e+01
 1.086119e+00	 2.343339e-01	 2.276752e+01
 1.081984e+00	 2.527434e-01	 2.246665e+01
 1.077513e+00	 2.711691e-01	 2.212913e+01
 1.023638e+00	 2.576107e-01	 2.412126e+01
 1.019071e+00	 2.751225e-01	 2.373893e+01
 1.014181e+00	 2.926333e-01	 2.332393e+01
 1.008967e+00	 3.101348e-01	 2.287763e+01
 1.003426e+00	 3.276185e-01	 2.240117e+01
 9.975572e-01	 3.450756e-01	 2.189548e+01
 1.034413e+00	 2.603224e-01	 2.368032e+01
 1.029798e+00	 2.780185e-01	 2.332305e+01
 1.024857e+00	 2.957137e-01	 2.293349e+01
 1.019587e+00	 3.133994e-01	 2.251290e+01
 1.013988e+00	 3.310671e-01	 2.206224e+01
 1.008058e+00	 3.487080e-01	 2.158223e+01
 1.045188e+00	 2.630341e-01	 2.326114e+01
 1.040525e+00	 2.809145e-01	 2.292796e+01
 1.035532e+00	 2.987940e-01	 2.256306e+01
 1.030208e+00	 3.166640e-01	 2.216757e+01
 1.024551e+00	 3.345157e-01	 2.174229e+01
 1.018558e+00	 3.523404e-01	 2.128771e+01
 1.055963e+00	 2.657458e-01	 2.286320e+01
 1.051252e+00	 2.838105e-01	 2.255321e+01
 1.046208e+00	 3.018744e-01	 2.221225e+01
 1.040829e+00	 3.199286e-01	 2.184134e+01
 1.035113e+00	 3.379643e-01	 2.144109e+01
 1.029059e+00	 3.559727e-01	 2.101180e+01
 1.066738e+00	 2.684575e-01	 2.248601e+01
 1.061979e+00	 2.867066e-01	 2.219836e+01
 1.056883e+00	 3.049547e-01	 2.188072e+01
 1.051450e+00	 3.231931e-01	 2.153393e+01
 1.045675e+00	 3.414129e-01	 2.115848e+01
 1.039560e+00	 3.596051e-01	 2.075442e+01
 1.077513e+00	 2.711691e-01	 2.212913e+01
 1.072706e+00	 2.896026e-01	 2.186306e+01
 1.067559e+00	 3.080351e-01	 2.156815e+01
 1.062070e+00	 3.264577e-01	 2.124514e+01
 1.056238e+00	 3.448616e-01	 2.089433e+01
 1.050060e+00	 3.632375e-01	 2.051554e+01
 9.975572e-01	 3.450756e-01	 2.189548e+01
 9.913592e-01	 3.624974e-01	 2.131309e+01
 9.848312e-01	 3.798750e-01	 2.071284e+01
 9.779725e-01	 3.971994e-01	 2.016015e+01
 9.707828e-01	 4.144615e-01	 1.966018e+01
 9.632621e-01	 4.316521e-01	 1.920819e+01
 1.008058e+00	 3.487080e-01	 2.158223e+01
 1.001795e+00	 3.663132e-01	 2.100840e+01
 9.951979e-01	 3.838737e-01	 2.043009e+01
 9.882669e-01	 4.013804e-01	 1.990767e+01
 9.810016e-01	 4.188242e-01	 1.943912e+01
 9.734018e-01	 4.361958e-01	 1.901940e+01
 1.018558e+00	 3.523404e-01	 2.128771e+01
 1.012230e+00	 3.701289e-01	 2.072166e+01
 1.005564e+00	 3.878724e-01	 2.016972e+01
 9.985614e-01	 4.055615e-01	 1.967766e+01
 9.912203e-01	 4.231870e-01	 1.924074e+01
 9.835414e-01	 4.407395e-01	 1.885358e+01
 1.029059e+00	 3.559727e-01	 2.101180e+01
 1.022665e+00	 3.739447e-01	 2.045484e+01
 1.015931e+00	 3.918711e-01	 1.993180e+01
 1.008856e+00	 4.097425e-01	 1.947024e+01
 1.001439e+00	 4.275497e-01	 1.906513e+01
 9.936810e-01	 4.452833e-01	 1.871082e+01
 1.039560e+00	 3.596051e-01	 2.075442e+01
 1.033101e+00	 3.777605e-01	 2.021050e+01
 1.026298e+00	 3.958697e-01	 1.971644e+01
 1.019150e+00	 4.139236e-01	 1.928549e+01
 1.011658e+00	 4.319125e-01	 1.891238e+01
 1.003821e+00	 4.498270e-01	 1.859120e+01
 1.050060e+00	 3.632375e-01	 2.051554e+01
 1.043536e+00	 3.815762e-01	 1.998872e+01
 1.036664e+00	 3.998684e-01	 1.952369e+01
 1.029445e+00	 4.181046e-01	 1.912345e+01
 1.021877e+00	 4.362752e-01	 1.878250e+01
 1.013960e+00	 4.543707e-01	 1.849471e+01
 9.632621e-01	 4.316521e-01	 1.920819e+01
 9.554109e-01	 4.487621e-01	 1.851630e+01
 9.472299e-01	 4.657823e-01	 1.786023e+01
 9.387199e-01	 4.827033e-01	 1.723283e+01
 9.298825e-01	 4.995158e-01	 1.662650e+01
 9.207193e-01	 5.162107e-01	 1.603323e+01
 9.734018e-01	 4.361958e-01	 1.901940e+01
 9.654679e-01	 4.534860e-01	 1.834997e+01
 9.572007e-01	 4.706853e-01	 1.771810e+01
 9.486012e-01	 4.877844e-01	 1.711621e+01
 9.396707e-01	 5.047739e-01	 1.653623e+01
 9.304111e-01	 5.216445e-01	 1.596965e+01
 9.835414e-01	 4.407395e-01	 1.885358e+01
 9.755249e-01	 4.582098e-01	 1.820679e+01
 9.671715e-01	 4.755882e-01	 1.759937e+01
 9.584824e-01	 4.928654e-01	 1.702334e+01
 9.494590e-01	 5.100319e-01	 1.647016e+01
 9.401029e-01	 5.270783e-01	 1.593084e+01
 9.936810e-01	 4.452833e-01	 1.871082e+01
 9.855818e-01	 4.629336e-01	 1.808684e+01
 9.771424e-01	 4.804912e-01	 1.750415e+01
 9.683637e-01	 4.979465e-01	 1.695435e+01
 9.592472e-01	 5.152900e-01	 1.642846e+01
 9.497947e-01	 5.325120e-01	 1.591700e+01
 1.003821e+00	 4.498270e-01	 1.859120e+01
 9.956388e-01	 4.676574e-01	 1.799021e+01
 9.871132e-01	 4.853942e-01	 1.743250e+01
 9.782450e-01	 5.030276e-01	 1.690930e+01
 9.690355e-01	 5.205481e-01	 1.641120e+01
 9.594865e-01	 5.379458e-01	 1.592822e+01
 1.013960e+00	 4.543707e-01	 1.849471e+01
 1.005696e+00	 4.723812e-01	 1.791686e+01
 9.970841e-01	 4.902971e-01	 1.738440e+01
 9.881262e-01	 5.081087e-01	 1.688818e+01
 9.788237e-01	 5.258061e-01	 1.641836e+01
 9.691782e-01	 5.433796e-01	 1.596450e+01
 9.207193e-01	 5.162107e-01	 1.603323e+01
 9.112325e-01	 5.327785e-01	 1.540425e+01
 9.014243e-01	 5.492102e-01	 1.477386e+01
 8.912975e-01	 5.654965e-01	 1.413356e+01
 8.808553e-01	 5.816283e-01	 1.347488e+01
 8.701011e-01	 5.975966e-01	 1.278944e+01
 9.304111e-01	 5.216445e-01	 1.596965e+01
 9.208244e-01	 5.383867e-01	 1.536828e+01
 9.109129e-01	 5.549913e-01	 1.476433e+01
 9.006796e-01	 5.714491e-01	 1.414860e+01
 8.901275e-01	 5.877507e-01	 1.351184e+01
 8.792600e-01	 6.038870e-01	 1.284490e+01
 9.401029e-01	 5.270783e-01	 1.593084e+01
 9.304163e-01	 5.439949e-01	 1.535683e+01
 9.204016e-01	 5.607725e-01	 1.477920e+01
 9.100617e-01	 5.774017e-01	 1.418802e+01
 8.993996e-01	 5.938731e-01	 1.357328e+01
 8.884190e-01	 6.101775e-01	 1.292504e+01
 9.497947e-01	 5.325120e-01	 1.591700e+01
 9.400082e-01	 5.496031e-01	 1.537018e+01
 9.298903e-01	 5.665537e-01	 1.481881e+01
 9.194438e-01	 5.833543e-01	 1.425226e+01
 9.086718e-01	 5.999955e-01	 1.365974e+01
 8.975780e-01	 6.164680e-01	 1.303050e+01
 9.594865e-01	 5.379458e-01	 1.592822e+01
 9.496001e-01	 5.552113e-01	 1.540847e+01
 9.393790e-01	 5.723348e-01	 1.488340e+01
 9.288258e-01	 5.893068e-01	 1.434164e+01
 9.179440e-01	 6.061179e-01	 1.377164e+01
 9.067369e-01	 6.227585e-01	 1.316182e+01
 9.691782e-01	 5.433796e-01	 1.596450e+01
 9.591921e-01	 5.608195e-01	 1.547176e+01
 9.488676e-01	 5.781160e-01	 1.497308e+01
 9.382079e-01	 5.952594e-01	 1.445636e+01
 9.272161e-01	 6.122403e-01	 1.390926e+01
 9.158959e-01	 6.290490e-01	 1.331939e+01
 8.701011e-01	 5.975966e-01	 1.278944e+01
 8.590386e-01	 6.133924e-01	 1.225477e+01
 8.476720e-01	 6.290070e-01	 1.168569e+01
 8.360056e-01	 6.444316e-01	 1.107628e+01
 8.240444e-01	 6.596578e-01	 1.042140e+01
 8.117933e-01	 6.746771e-01	 9.716917e+00
 8.792600e-01	 6.038870e-01	 1.284490e+01
 8.680811e-01	 6.198492e-01	 1.233755e+01
 8.565948e-01	 6.356281e-01	 1.179159e+01
 8.448057e-01	 6.512151e-01	 1.120029e+01
 8.327185e-01	 6.666015e-01	 1.055774e+01
 8.203385e-01	 6.817789e-01	 9.858995e+00
 8.884190e-01	 6.101775e-01	 1.292504e+01
 8.771236e-01	 6.263059e-01	 1.244565e+01
 8.655177e-01	 6.422492e-01	 1.192350e+01
 8.536058e-01	 6.579986e-01	 1.135104e+01
 8.413927e-01	 6.735453e-01	 1.072151e+01
 8.288837e-01	 6.888808e-01	 1.002916e+01
 8.975780e-01	 6.164680e-01	 1.303050e+01
 8.861661e-01	 6.327627e-01	 1.257985e+01
 8.744406e-01	 6.488704e-01	 1.208233e+01
 8.624058e-01	 6.647821e-01	 1.152956e+01
 8.500668e-01	 6.804891e-01	 1.091392e+01
 8.374289e-01	 6.959827e-01	 1.022880e+01
 9.067369e-01	 6.227585e-01	 1.316182e+01
 8.952086e-01	 6.392194e-01	 1.274078e+01
 8.833634e-01	 6.554915e-01	 1.226884e+01
 8.712059e-01	 6.715656e-01	 1.173676e+01
 8.587410e-01	 6.874328e-01	 1.113603e+01
 8.459741e-01	 7.030845e-01	 1.045914e+01
 9.158959e-01	 6.290490e-01	 1.331939e+01
 9.042512e-01	 6.456762e-01	 1.292894e+01
 8.922863e-01	 6.621126e-01	 1.248367e+01
 8.800059e-01	 6.783491e-01	 1.197342e+01
 8.674151e-01	 6.943766e-01	 1.138875e+01
 8.545193e-01	 7.101864e-01	 1.072126e+01
 8.117933e-01	 6.746771e-01	 9.716917e+00
 7.992578e-01	 6.894813e-01	 9.240643e+00
 7.864436e-01	 7.040624e-01	 8.739804e+00
 7.733568e-01	 7.184127e-01	 8.216807e+00
 7.600035e-01	 7.325245e-01	 7.675807e+00
 7.463905e-01	 7.463905e-01	 7.127674e+00
 8.203385e-01	 6.817789e-01	 9.858995e+00
 8.076711e-01	 6.967390e-01	 9.407437e+00
 7.947220e-01	 7.114736e-01	 8.923290e+00
 7.814974e-01	 7.259750e-01	 8.408369e+00
 7.680036e-01	 7.402353e-01	 7.866295e+00
 7.542472e-01	 7.542472e-01	 7.327765e+00
 8.288837e-01	 6.888808e-01	 1.002916e+01
 8.160843e-01	 7.039967e-01	 9.603840e+00
 8.030004e-01	 7.188848e-01	 9.137791e+00
 7.896380e-01	 7.335372e-01	 8.632198e+00
 7.760036e-01	 7.479461e-01	 8.095439e+00
 7.621040e-01	 7.621040e-01	 7.573741e+00
 8.374289e-01	 6.959827e-01	 1.022880e+01
 8.244976e-01	 7.112544e-01	 9.831378e+00
 8.112787e-01	 7.262960e-01	 9.384991e+00
 7.977786e-01	 7.410994e-01	 8.890154e+00
 7.840036e-01	 7.556569e-01	 8.369210e+00
 7.699607e-01	 7.699607e-01	 7.863081e+00
 8.459741e-01	 7.030845e-01	 1.045914e+01
 8.329108e-01	 7.185121e-01	 1.009144e+01
 8.195571e-01	 7.337072e-01	 9.666436e+00
 8.059192e-01	 7.486617e-01	 9.187250e+00
 7.920037e-01	 7.633677e-01	 8.684795e+00
 7.778175e-01	 7.778175e-01	 8.193006e+00
 8.545193e-01	 7.101864e-01	 1.072126e+01
 8.413240e-01	 7.257698e-01	 1.038525e+01
 8.278354e-01	 7.411184e-01	 9.983530e+00
 8.140598e-01	 7.562239e-01	 9.524514e+00
 8.000037e-01	 7.710784e-01	 9.039122e+00
 7.856742e-01	 7.856742e-01	 8.560506e+00
 7.463905e-01	 7.463905e-01	 7.127674e+00
 7.325245e-01	 7.600035e-01	 6.590716e+00
 7.184127e-01	 7.733568e-01	 6.087718e+00
 7.040624e-01	 7.864436e-01	 5.637361e+00
 6.894813e-01	 7.992578e-01	 5.255167e+00
 6.746771e-01	 8.117933e-01	 4.954224e+00
 7.542472e-01	 7.542472e-01	 7.327765e+00
 7.402353e-01	 7.680036e-01	 6.788456e+00
 7.259750e-01	 7.814974e-01	 6.283826e+00
 7.114736e-01	 7.947220e-01	 5.837293e+00
 6.967390e-01	 8.076711e-01	 5.465059e+00
 6.817789e-01	 8.203385e-01	 5.180738e+00
 7.621040e-01	 7.621040e-01	 7.573741e+00
 7.479461e-01	 7.760036e-01	 7.033666e+00
 7.335372e-01	 7.896380e-01	 6.527708e+00
 7.188848e-01	 8.030004e-01	 6.084617e+00
 7.039967e-01	 8.160843e-01	 5.722310e+00
 6.888808e-01	 8.288837e-01	 5.454935e+00
 7.699607e-01	 7.699607e-01	 7.863081e+00
 7.556569e-01	 7.840036e-01	 7.322659e+00
 7.410994e-01	 7.977786e-01	 6.817161e+00
 7.262960e-01	 8.112787e-01	 6.377061e+00
 7.112544e-01	 8.244976e-01	 6.024602e+00
 6.959827e-01	 8.374289e-01	 5.774472e+00
 7.778175e-01	 7.778175e-01	 8.193006e+00
 7.633677e-01	 7.920037e-01	 7.652680e+00
 7.486617e-01	 8.059192e-01	 7.148923e+00
 7.337072e-01	 8.195571e-01	 6.712199e+00
 7.185121e-01	 8.329108e-01	 6.369463e+00
 7.030845e-01	 8.459741e-01	 6.136851e+00
 7.856742e-01	 7.856742e-01	 8.560506e+00
 7.710784e-01	 8.000037e-01	 8.020746e+00
 7.562239e-01	 8.140598e-01	 7.519413e+00
 7.411184e-01	 8.278354e-01	 7.087445e+00
 7.257698e-01	 8.413240e-01	 6.754264e+00
 7.101864e-01	 8.545193e-01	 6.539424e+00
 6.746771e-01	 8.117933e-01	 4.954224e+00
 6.596578e-01	 8.240444e-01	 4.440268e+00
 6.444316e-01	 8.360056e-01	 3.991402e+00
 6.290070e-01	 8.476720e-01	 3.611539e+00
 6.133924e-01	 8.590386e-01	 3.302282e+00
 5.975966e-01	 8.701011e-01	 3.062990e+00
 6.817789e-01	 8.203385e-01	 5.180738e+00
 6.666015e-01	 8.327185e-01	 4.664235e+00
 6.512151e-01	 8.448057e-01	 4.214210e+00
 6.356281e-01	 8.565948e-01	 3.834434e+00
 6.198492e-01	 8.680811e-01	 3.526242e+00
 6.038870e-01	 8.792600e-01	 3.288614e+00
 6.888808e-01	 8.288837e-01	 5.454935e+00
 6.735453e-01	 8.413927e-01	 4.933941e+00
 6.579986e-01	 8.536058e-01	 4.481285e+00
 6.422492e-01	 8.655177e-01	 4.100584e+00
 6.263059e-01	 8.771236e-01	 3.792891e+00
 6.101775e-01	 8.884190e-01	 3.556787e+00
 6.959827e-01	 8.374289e-01	 5.774472e+00
 6.804891e-01	 8.500668e-01	 5.247119e+00
 6.647821e-01	 8.624058e-01	 4.790452e+00
 6.488704e-01	 8.744406e-01	 4.407922e+00
 6.327627e-01	 8.861661e-01	 4.100287e+00
 6.164680e-01	 8.975780e-01	 3.865704e+00
 7.030845e-01	 8.459741e-01	 6.136851e+00
 6.874328e-01	 8.587410e-01	 5.601347e+00
 6.715656e-01	 8.712059e-01	 5.139381e+00
 6.554915e-01	 8.833634e-01	 4.754229e+00
 6.392194e-01	 8.952086e-01	 4.446336e+00
 6.227585e-01	 9.067369e-01	 4.213414e+00
 7.101864e-01	 8.545193e-01	 6.539424e+00
 6.943766e-01	 8.674151e-01	 5.994052e+00
 6.783491e-01	 8.800059e-01	 5.525591e+00
 6.621126e-01	 8.922863e-01	 5.137134e+00
 6.456762e-01	 9.042512e-01	 4.828793e+00
 6.290490e-01	 9.158959e-01	 4.597814e+00
 5.975966e-01	 8.701011e-01	 3.062990e+00
 5.816283e-01	 8.808553e-01	 2.709697e+00
 5.654965e-01	 8.912975e-01	 2.399741e+00
 5.492102e-01	 9.014243e-01	 2.125739e+00
 5.327785e-01	 9.112325e-01	 1.878675e+00
 5.162107e-01	 9.207193e-01	 1.648087e+00
 6.038870e-01	 8.792600e-01	 3.288614e+00
 5.877507e-01	 8.901275e-01	 2.926515e+00
 5.714491e-01	 9.006796e-01	 2.607415e+00
 5.549913e-01	 9.109129e-01	 2.323246e+00
 5.383867e-01	 9.208244e-01	 2.064234e+00
 5.216445e-01	 9.304111e-01	 1.819085e+00
 6.101775e-01	 8.884190e-01	 3.556787e+00
 5.938731e-01	 8.993996e-01	 3.186167e+00
 5.774017e-01	 9.100617e-01	 2.858573e+00
 5.607725e-01	 9.204016e-01	 2.565223e+00
 5.439949e-01	 9.304163e-01	 2.295541e+00
 5.270783e-01	 9.401029e-01	 2.037363e+00
 6.164680e-01	 8.975780e-01	 3.865704e+00
 5.999955e-01	 9.086718e-01	 3.487002e+00
 5.833543e-01	 9.194438e-01	 3.151732e+00
 5.665537e-01	 9.298903e-01	 2.850361e+00
 5.496031e-01	 9.400082e-01	 2.571473e+00
 5.325120e-01	 9.497947e-01	 2.301989e+00
 6.227585e-01	 9.067369e-01	 4.213414e+00
 6.061179e-01	 9.179440e-01	 3.827220e+00
 5.893068e-01	 9.288258e-01	 3.485258e+00
 5.723348e-01	 9.393790e-01	 3.177203e+00
 5.552113e-01	 9.496001e-01	 2.890761e+00
 5.379458e-01	 9.594865e-01	 2.611889e+00
 6.290490e-01	 9.158959e-01	 4.597814e+00
 6.122403e-01	 9.272161e-01	 4.204874e+00
 5.952594e-01	 9.382079e-01	 3.857369e+00
 5.781160e-01	 9.488676e-01	 3.544149e+00
 5.608195e-01	 9.591921e-01	 3.251993e+00
 5.433796e-01	 9.691782e-01	 2.965852e+00
 5.162107e-01	 9.207193e-01	 1.648087e+00
 4.995158e-01	 9.298825e-01	 1.472963e+00
 4.827033e-01	 9.387199e-01	 1.303670e+00
 4.657823e-01	 9.472299e-01	 1.126789e+00
 4.487621e-01	 9.554109e-01	 9.282394e-01
 4.316521e-01	 9.632621e-01	 6.934978e-01
 5.216445e-01	 9.304111e-01	 1.819085e+00
 5.047739e-01	 9.396707e-01	 1.631453e+00
 4.877844e-01	 9.486012e-01	 1.447820e+00
 4.706853e-01	 9.572007e-01	 1.253824e+00
 4.534860e-01	 9.654679e-01	 1.034412e+00
 4.361958e-01	 9.734018e-01	 7.740727e-01
 5.270783e-01	 9.401029e-01	 2.037363e+00
 5.100319e-01	 9.494590e-01	 1.839489e+00
 4.928654e-01	 9.584824e-01	 1.643885e+00
 4.755882e-01	 9.671715e-01	 1.435197e+00
 4.582098e-01	 9.755249e-01	 1.197348e+00
 4.407395e-01	 9.835414e-01	 9.137868e-01
 5.325120e-01	 9.497947e-01	 2.301989e+00
 5.152900e-01	 9.592472e-01	 2.096321e+00
 4.979465e-01	 9.683637e-01	 1.891306e+00
 4.804912e-01	 9.771424e-01	 1.670543e+00
 4.629336e-01	 9.855818e-01	 1.416881e+00
 4.452833e-01	 9.936810e-01	 1.112672e+00
 5.379458e-01	 9.594865e-01	 2.611889e+00
 5.205481e-01	 9.690355e-01	 2.401064e+00
 5.030276e-01	 9.782450e-01	 2.189390e+00
 4.853942e-01	 9.871132e-01	 1.959369e+00
 4.676574e-01	 9.956388e-01	 1.692719e+00
 4.498270e-01	 1.003821e+00	 1.370641e+00
 5.433796e-01	 9.691782e-01	 2.965852e+00
 5.258061e-01	 9.788237e-01	 2.752695e+00
 5.081087e-01	 9.881262e-01	 2.537313e+00
 4.902971e-01	 9.970841e-01	 2.301054e+00
 4.723812e-01	 1.005696e+00	 2.024446e+00
 4.543707e-01	 1.013960e+00	 1.687484e+00
 4.316521e-01	 9.632621e-01	 6.934978e-01
 4.144615e-01	 9.707828e-01	 6.435536e-01
 3.971994e-01	 9.779725e-01	 5.845768e-01
 3.798750e-01	 9.848312e-01	 5.024188e-01
 3.624974e-01	 9.913592e-01	 3.846222e-01
 3.450756e-01	 9.975572e-01	 2.309578e-01
 4.361958e-01	 9.734018e-01	 7.740727e-01
 4.188242e-01	 9.810016e-01	 7.115041e-01
 4.013804e-01	 9.882669e-01	 6.389770e-01
 3.838737e-01	 9.951979e-01	 5.414800e-01
 3.663132e-01	 1.001795e+00	 4.046067e-01
 3.487080e-01	 1.008058e+00	 2.255803e-01
 4.407395e-01	 9.835414e-01	 9.137868e-01
 4.231870e-01	 9.912203e-01	 8.427696e-01
 4.055615e-01	 9.985614e-01	 7.605873e-01
 3.878724e-01	 1.005564e+00	 6.513126e-01
 3.701289e-01	 1.012230e+00	 4.992583e-01
 3.523404e-01	 1.018558e+00	 2.977432e-01
 4.452833e-01	 9.936810e-01	 1.112672e+00
 4.275497e-01	 1.001439e+00	 1.037523e+00
 4.097425e-01	 1.008856e+00	 9.497226e-01
 3.918711e-01	 1.015931e+00	 8.323735e-01
 3.739447e-01	 1.022665e+00	 6.688301e-01
 3.559727e-01	 1.029059e+00	 4.481882e-01
 4.498270e-01	 1.003821e+00	 1.370641e+00
 4.319125e-01	 1.011658e+00	 1.295823e+00
 4.139236e-01	 1.019150e+00	 1.206590e+00
 3.958697e-01	 1.026298e+00	 1.085018e+00
 3.777605e-01	 1.033101e+00	 9.134499e-01
 3.596051e-01	 1.039560e+00	 6.775464e-01
 4.543707e-01	 1.013960e+00	 1.687484e+00
 4.362752e-01	 1.021877e+00	 1.617614e+00
 4.181046e-01	 1.029445e+00	 1.531291e+00
 3.998684e-01	 1.036664e+00	 1.409503e+00
 3.815762e-01	 1.043536e+00	 1.233526e+00
 3.632375e-01	 1.050060e+00	 9.863369e-01
 3.450756e-01	 9.975572e-01	 2.309578e-01
 3.276185e-01	 1.003426e+00	 1.527146e-01
 3.101348e-01	 1.008967e+00	 9.140945e-02
 2.926333e-01	 1.014181e+00	 4.533745e-02
 2.751225e-01	 1.019071e+00	 1.430580e-02
 2.576107e-01	 1.023638e+00	-3.855158e-04
 3.487080e-01	 1.008058e+00	 2.255803e-01
 3.310671e-01	 1.013988e+00	 1.346004e-01
 3.133994e-01	 1.019587e+00	 5.970203e-02
 2.957137e-01	 1.024857e+00	-8.957235e-04
 2.780185e-01	 1.029798e+00	-4.733600e-02
 2.603224e-01	 1.034413e+00	-7.814658e-02
 3.523404e-01	 1.018558e+00	 2.977432e-01
 3.345157e-01	 1.024551e+00	 1.966037e-01
 3.166640e-01	 1.030208e+00	 1.098658e-01
 2.987940e-01	 1.035532e+00	 3.566302e-02
 2.809145e-01	 1.040525e+00	-2.609718e-02
 2.630341e-01	 1.045188e+00	-7.375977e-02
 3.559727e-01	 1.029059e+00	 4.481882e-01
 3.379643e-01	 1.035113e+00	 3.396495e-01
 3.199286e-01	 1.040829e+00	 2.429839e-01
 3.018744e-01	 1.046208e+00	 1.562295e-01
 2.838105e-01	 1.051252e+00	 7.934447e-02
 2.657458e-01	 1.055963e+00	 1.417757e-02
 3.596051e-01	 1.039560e+00	 6.775464e-01
 3.414129e-01	 1.045675e+00	 5.645671e-01
 3.231931e-01	 1.051450e+00	 4.600577e-01
 3.049547e-01	 1.056883e+00	 3.619498e-01
 2.867066e-01	 1.061979e+00	 2.702526e-01
 2.684575e-01	 1.066738e+00	 1.870193e-01
 3.632375e-01	 1.050060e+00	 9.863369e-01
 3.448616e-01	 1.056238e+00	 8.720891e-01
 3.264577e-01	 1.062070e+00	 7.620057e-01
 3.080351e-01	 1.067559e+00	 6.538999e-01
 2.896026e-01	 1.072706e+00	 5.478318e-01
 2.711691e-01	 1.077513e+00	 4.460702e-01
 2.576107e-01	 1.023638e+00	-3.855158e-04
 2.401062e-01	 1.027884e+00	-5.283895e-02
 2.226172e-01	 1.031814e+00	-9.903427e-02
 2.051514e-01	 1.035428e+00	-1.336031e-01
 1.877168e-01	 1.038730e+00	-1.500087e-01
 1.703207e-01	 1.041724e+00	-1.406980e-01
 2.603224e-01	 1.034413e+00	-7.814658e-02
 2.426337e-01	 1.038704e+00	-1.487236e-01
 2.249605e-01	 1.042675e+00	-2.094727e-01
 2.073109e-01	 1.046327e+00	-2.545158e-01
 1.896927e-01	 1.049664e+00	-2.767271e-01
 1.721135e-01	 1.052689e+00	-2.678958e-01
 2.630341e-01	 1.045188e+00	-7.375977e-02
 2.451611e-01	 1.049524e+00	-1.631236e-01
 2.273039e-01	 1.053536e+00	-2.399396e-01
 2.094704e-01	 1.057226e+00	-2.977832e-01
 1.916687e-01	 1.060598e+00	-3.288941e-01
 1.739064e-01	 1.063655e+00	-3.243525e-01
 2.657458e-01	 1.055963e+00	 1.417757e-02
 2.476885e-01	 1.060344e+00	-9.460786e-02
 2.296472e-01	 1.064397e+00	-1.889980e-01
 2.116299e-01	 1.068125e+00	-2.619830e-01
 1.936447e-01	 1.071532e+00	-3.051216e-01
 1.756992e-01	 1.074620e+00	-3.087312e-01
 2.684575e-01	 1.066738e+00	 1.870193e-01
 2.502160e-01	 1.071164e+00	 5.821525e-02
 2.319905e-01	 1.075258e+00	-5.524190e-02
 2.137894e-01	 1.079025e+00	-1.457170e-01
 1.956206e-01	 1.082466e+00	-2.040401e-01
 1.774921e-01	 1.085586e+00	-2.197101e-01
 2.711691e-01	 1.077513e+00	 4.460702e-01
 2.527434e-01	 1.081984e+00	 2.966980e-01
 2.343339e-01	 1.086119e+00	 1.627035e-01
 2.159489e-01	 1.089924e+00	 5.238830e-02
 1.975966e-01	 1.093400e+00	-2.429914e-02
 1.792849e-01	 1.096551e+00	-5.598154e-02
 1.703207e-01	 1.041724e+00	-1.406980e-01
 1.529706e-01	 1.044413e+00	-1.843346e-01
 1.356736e-01	 1.046800e+00	-2.284212e-01
 1.184367e-01	 1.048890e+00	-2.629006e-01
 1.012666e-01	 1.050687e+00	-2.773096e-01
 8.416984e-02	 1.052194e+00	-2.609735e-01
 1.721135e-01	 1.052689e+00	-2.678958e-01
 1.545808e-01	 1.055406e+00	-3.134010e-01
 1.371017e-01	 1.057819e+00	-3.572952e-01
 1.196834e-01	 1.059931e+00	-3.886103e-01
 1.023325e-01	 1.061747e+00	-3.959479e-01
 8.505583e-02	 1.063270e+00	-3.676889e-01
 1.739064e-01	 1.063655e+00	-3.243525e-01
 1.561910e-01	 1.066400e+00	-3.757017e-01
 1.385299e-01	 1.068838e+00	-4.238787e-01
 1.209301e-01	 1.070972e+00	-4.569392e-01
 1.033985e-01	 1.072806e+00	-4.624820e-01
 8.594183e-02	 1.074346e+00	-4.278737e-01
 1.756992e-01	 1.074620e+00	-3.087312e-01
 1.578012e-01	 1.077394e+00	-3.699821e-01
 1.399580e-01	 1.079857e+00	-4.270149e-01
 1.221768e-01	 1.082013e+00	-4.668419e-01
 1.044645e-01	 1.083866e+00	-4.759886e-01
 8.682783e-02	 1.085422e+00	-4.407343e-01
 1.774921e-01	 1.085586e+00	-2.197101e-01
 1.594114e-01	 1.088388e+00	-2.949987e-01
 1.413861e-01	 1.090876e+00	-3.655555e-01
 1.234235e-01	 1.093054e+00	-4.172799e-01
 1.055304e-01	 1.094926e+00	-4.355503e-01
 8.771383e-02	 1.096497e+00	-4.054830e-01
 1.792849e-01	 1.096551e+00	-5.598154e-02
 1.610217e-01	 1.099382e+00	-1.495185e-01
 1.428143e-01	 1.101895e+00	-2.383605e-01
 1.246702e-01	 1.104095e+00	-3.072208e-01
 1.065964e-01	 1.105986e+00	-3.402549e-01
 8.859983e-02	 1.107573e+00	-3.213370e-01
 8.416984e-02	 1.052194e+00	-2.609735e-01
 6.715278e-02	 1.053417e+00	-2.890121e-01
 5.022151e-02	 1.054360e+00	-3.233218e-01
 3.338189e-02	 1.055028e+00	-3.527073e-01
 1.663958e-02	 1.055424e+00	-3.663536e-01
 0.000000e+00	 1.055556e+00	-3.539846e-01
 8.505583e-02	 1.063270e+00	-3.676889e-01
 6.785965e-02	 1.064506e+00	-3.852918e-01
 5.075016e-02	 1.065459e+00	-4.096050e-01
 3.373328e-02	 1.066133e+00	-4.283807e-01
 1.681473e-02	 1.066534e+00	-4.297819e-01
 0.000000e+00	 1.066667e+00	-4.025542e-01
 8.594183e-02	 1.074346e+00	-4.278737e-01
 6.856653e-02	 1.075595e+00	-4.405962e-01
 5.127880e-02	 1.076557e+00	-4.604752e-01
 3.408466e-02	 1.077239e+00	-4.741418e-01
 1.698988e-02	 1.077644e+00	-4.686706e-01
 0.000000e+00	 1.077778e+00	-4.317639e-01
 8.682783e-02	 1.085422e+00	-4.407343e-01
 6.927340e-02	 1.086683e+00	-4.542741e-01
 5.180745e-02	 1.087656e+00	-4.754296e-01
 3.443605e-02	 1.088344e+00	-4.896399e-01
 1.716504e-02	 1.088754e+00	-4.828211e-01
 0.000000e+00	 1.088889e+00	-4.415648e-01
 8.771383e-02	 1.096497e+00	-4.054830e-01
 6.998027e-02	 1.097772e+00	-4.256800e-01
 5.233610e-02	 1.098754e+00	-4.539719e-01
 3.478744e-02	 1.099450e+00	-4.745314e-01
 1.734019e-02	 1.099863e+00	-4.720432e-01
 0.000000e+00	 1.100000e+00	-4.319177e-01
 8.859983e-02	 1.107573e+00	-3.213370e-01
 7.068714e-02	 1.108860e+00	-3.541737e-01
 5.286475e-02	 1.109853e+00	-3.956117e-01
 3.513883e-02	 1.110555e+00	-4.284796e-01
 1.751534e-02	 1.110973e+00	-4.361547e-01
 0.000000e+00	 1.111111e+00	-4.027924e-01
 1.111111e+00	 0.000000e+00	 2.442751e+01
 1.110973e+00	 1.751534e-02	 2.447022e+01
 1.110555e+00	 3.513883e-02	 2.446415e+01
 1.109853e+00	 5.286475e-02	 2.441243e+01
 1.108860e+00	 7.068714e-02	 2.431831e+01
 1.107573e+00	 8.859983e-02	 2.418518e+01
 1.122222e+00	 0.000000e+00	 2.393810e+01
 1.122083e+00	 1.769050e-02	 2.398229e+01
 1.121661e+00	 3.549022e-02	 2.397777e+01
 1.120951e+00	 5.339339e-02	 2.392782e+01
 1.119949e+00	 7.139401e-02	 2.383591e+01
 1.118649e+00	 8.948582e-02	 2.370567e+01
 1.133333e+00	 0.000000e+00	 2.347541e+01
 1.133193e+00	 1.786565e-02	 2.352145e+01
 1.132766e+00	 3.584161e-02	 2.351897e+01
 1.132050e+00	 5.392204e-02	 2.347139e+01
 1.131038e+00	 7.210088e-02	 2.338229e+01
 1.129724e+00	 9.037182e-02	 2.325541e+01
 1.144444e+00	 0.000000e+00	 2.303798e+01
 1.144302e+00	 1.804080e-02	 2.308632e+01
 1.143872e+00	 3.619299e-02	 2.308646e+01
 1.143148e+00	 5.445069e-02	 2.304193e+01
 1.142126e+00	 7.280775e-02	 2.295644e+01
 1.140800e+00	 9.125782e-02	 2.283384e+01
 1.155556e+00	 0.000000e+00	 2.262438e+01
 1.155412e+00	 1.821596e-02	 2.267552e+01
 1.154978e+00	 3.654438e-02	 2.267892e+01
 1.154247e+00	 5.497934e-02	 2.263822e+01
 1.153215e+00	 7.351463e-02	 2.255724e+01
 1.151876e+00	 9.214382e-02	 2.243991e+01
 1.166667e+00	 0.000000e+00	 2.223317e+01
 1.166522e+00	 1.839111e-02	 2.228771e+01
 1.166083e+00	 3.689577e-02	 2.229508e+01
 1.165345e+00	 5.550798e-02	 2.225906e+01
 1.164303e+00	 7.422150e-02	 2.218356e+01
 1.162952e+00	 9.302982e-02	 2.207259e+01
 1.107573e+00	 8.859983e-02	 2.418518e+01
 1.105986e+00	 1.065964e-01	 2.412212e+01
 1.104095e+00	 1.246702e-01	 2.401186e+01
 1.101895e+00	 1.428143e-01	 2.385782e+01
 1.099382e+00	 1.610217e-01	 2.366337e+01
 1.096551e+00	 1.792849e-01	 2.343169e+01
 1.118649e+00	 8.948582e-02	 2.370567e+01
 1.117046e+00	 1.076623e-01	 2.365025e+01
 1.115136e+00	 1.259169e-01	 2.354833e+01
 1.112914e+00	 1.442424e-01	 2.340388e+01
 1.110375e+00	 1.626319e-01	 2.322094e+01
 1.107517e+00	 1.810778e-01	 2.300260e+01
 1.129724e+00	 9.037182e-02	 2.325541e+01
 1.128106e+00	 1.087283e-01	 2.320706e+01
 1.126177e+00	 1.271636e-01	 2.311219e+01
 1.123933e+00	 1.456706e-01	 2.297477e+01
 1.121369e+00	 1.642421e-01	 2.279888e+01
 1.118482e+00	 1.828706e-01	 2.258865e+01
 1.140800e+00	 9.125782e-02	 2.283384e+01
 1.139166e+00	 1.097943e-01	 2.279294e+01
 1.137218e+00	 1.284103e-01	 2.270559e+01
 1.134952e+00	 1.470987e-01	 2.257576e+01
 1.132363e+00	 1.658523e-01	 2.240753e+01
 1.129448e+00	 1.846635e-01	 2.220502e+01
 1.151876e+00	 9.214382e-02	 2.243991e+01
 1.150225e+00	 1.108602e-01	 2.240694e+01
 1.148259e+00	 1.296570e-01	 2.232767e+01
 1.145971e+00	 1.485269e-01	 2.220609e+01
 1.143357e+00	 1.674625e-01	 2.204627e+01
 1.140413e+00	 1.864563e-01	 2.185230e+01
 1.162952e+00	 9.302982e-02	 2.207259e+01
 1.161285e+00	 1.119262e-01	 2.204811e+01
 1.159300e+00	 1.309037e-01	 2.197760e+01
 1.156989e+00	 1.499550e-01	 2.186504e+01
 1.154351e+00	 1.690727e-01	 2.171446e+01
 1.151379e+00	 1.882492e-01	 2.152993e+01
 1.096551e+00	 1.792849e-01	 2.343169e+01
 1.093400e+00	 1.975966e-01	 2.325226e+01
 1.089924e+00	 2.159489e-01	 2.303008e+01
 1.086119e+00	 2.343339e-01	 2.276752e+01
 1.081984e+00	 2.527434e-01	 2.246665e+01
 1.077513e+00	 2.711691e-01	 2.212913e+01
 1.107517e+00	 1.810778e-01	 2.300260e+01
 1.104334e+00	 1.995726e-01	 2.283992e+01
 1.100823e+00	 2.181084e-01	 2.263450e+01
 1.096981e+00	 2.366772e-01	 2.238888e+01
 1.092804e+00	 2.552708e-01	 2.210522e+01
 1.088289e+00	 2.738808e-01	 2.178528e+01
 1.118482e+00	 1.828706e-01	 2.258865e+01
 1.115268e+00	 2.015485e-01	 2.243884e+01
 1.111722e+00	 2.202679e-01	 2.224796e+01
 1.107842e+00	 2.390206e-01	 2.201890e+01
 1.103623e+00	 2.577983e-01	 2.175235e+01
 1.099064e+00	 2.765925e-01	 2.145010e+01
 1.129448e+00	 1.846635e-01	 2.220502e+01
 1.126202e+00	 2.035245e-01	 2.206625e+01
 1.122622e+00	 2.224274e-01	 2.188462e+01
 1.118703e+00	 2.413639e-01	 2.166431e+01
 1.114443e+00	 2.603257e-01	 2.140939e+01
 1.109839e+00	 2.793042e-01	 2.112358e+01
 1.140413e+00	 1.864563e-01	 2.185230e+01
 1.137136e+00	 2.055005e-01	 2.172623e+01
 1.133521e+00	 2.245868e-01	 2.155563e+01
 1.129564e+00	 2.437072e-01	 2.134467e+01
 1.125263e+00	 2.628531e-01	 2.109746e+01
 1.120614e+00	 2.820159e-01	 2.081797e+01
 1.151379e+00	 1.882492e-01	 2.152993e+01
 1.148070e+00	 2.074764e-01	 2.141831e+01
 1.144420e+00	 2.267463e-01	 2.126056e+01
 1.140425e+00	 2.460506e-01	 2.106089e+01
 1.136083e+00	 2.653806e-01	 2.082341e+01
 1.131389e+00	 2.847276e-01	 2.055213e+01
 1.077513e+00	 2.711691e-01	 2.212913e+01
 1.072706e+00	 2.896026e-01	 2.186306e+01
 1.067559e+00	 3.080351e-01	 2.156815e+01
 1.062070e+00	 3.264577e-01	 2.124514e+01
 1.056238e+00	 3.448616e-01	 2.089433e+01
 1.050060e+00	 3.632375e-01	 2.051554e+01
 1.088289e+00	 2.738808e-01	 2.178528e+01
 1.083433e+00	 2.924986e-01	 2.154018e+01
 1.078235e+00	 3.111154e-01	 2.126459e+01
 1.072691e+00	 3.297223e-01	 2.095920e+01
 1.066800e+00	 3.483102e-01	 2.062424e+01
 1.060561e+00	 3.668699e-01	 2.025944e+01
 1.099064e+00	 2.765925e-01	 2.145010e+01
 1.094160e+00	 2.953946e-01	 2.122688e+01
 1.088910e+00	 3.141958e-01	 2.097178e+01
 1.083312e+00	 3.329869e-01	 2.068547e+01
 1.077363e+00	 3.517588e-01	 2.036811e+01
 1.071061e+00	 3.705022e-01	 2.001933e+01
 1.109839e+00	 2.793042e-01	 2.112358e+01
 1.104887e+00	 2.982907e-01	 2.092317e+01
 1.099586e+00	 3.172761e-01	 2.068977e+01
 1.093932e+00	 3.362514e-01	 2.042405e+01
 1.087925e+00	 3.552074e-01	 2.012609e+01
 1.081562e+00	 3.741346e-01	 1.979753e+01
 1.120614e+00	 2.820159e-01	 2.081797e+01
 1.115614e+00	 3.011867e-01	 2.063200e+01
 1.110261e+00	 3.203565e-01	 2.041865e+01
 1.104553e+00	 3.395160e-01	 2.017508e+01
 1.098487e+00	 3.586560e-01	 1.989836e+01
 1.092063e+00	 3.777670e-01	 1.959603e+01
 1.131389e+00	 2.847276e-01	 2.055213e+01
 1.126341e+00	 3.040827e-01	 2.037791e+01
 1.120937e+00	 3.234368e-01	 2.017308e+01
 1.115174e+00	 3.427806e-01	 1.994131e+01
 1.109050e+00	 3.621046e-01	 1.968514e+01
 1.102563e+00	 3.813994e-01	 1.941492e+01
 1.050060e+00	 3.632375e-01	 2.051554e+01
 1.043536e+00	 3.815762e-01	 1.998872e+01
 1.036664e+00	 3.998684e-01	 1.952369e+01
 1.029445e+00	 4.181046e-01	 1.912345e+01
 1.021877e+00	 4.362752e-01	 1.878250e+01
 1.013960e+00	 4.543707e-01	 1.849471e+01
 1.060561e+00	 3.668699e-01	 2.025944e+01
 1.053971e+00	 3.853920e-01	 1.974063e+01
 1.047031e+00	 4.038671e-01	 1.929244e+01
 1.039739e+00	 4.222857e-01	 1.891175e+01
 1.032095e+00	 4.406380e-01	 1.859289e+01
 1.024100e+00	 4.589144e-01	 1.832947e+01
 1.071061e+00	 3.705022e-01	 2.001933e+01
 1.064407e+00	 3.892078e-01	 1.951250e+01
 1.057398e+00	 4.078658e-01	 1.908104e+01
 1.050034e+00	 4.264667e-01	 1.871980e+01
 1.042314e+00	 4.450007e-01	 1.842296e+01
 1.034239e+00	 4.634581e-01	 1.818393e+01
 1.081562e+00	 3.741346e-01	 1.979753e+01
 1.074842e+00	 3.930235e-01	 1.930442e+01
 1.067764e+00	 4.118645e-01	 1.888953e+01
 1.060328e+00	 4.306478e-01	 1.854760e+01
 1.052533e+00	 4.493635e-01	 1.827267e+01
 1.044379e+00	 4.680018e-01	 1.805801e+01
 1.092063e+00	 3.777670e-01	 1.959603e+01
 1.085277e+00	 3.968393e-01	 1.911646e+01
 1.078131e+00	 4.158632e-01	 1.871793e+01
 1.070623e+00	 4.348288e-01	 1.839511e+01
 1.062752e+00	 4.537262e-01	 1.814193e+01
 1.054519e+00	 4.725455e-01	 1.795152e+01
 1.102563e+00	 3.813994e-01	 1.941492e+01
 1.095713e+00	 4.006550e-01	 1.894863e+01
 1.088498e+00	 4.198619e-01	 1.856619e+01
 1.080917e+00	 4.390098e-01	 1.826220e+01
 1.072970e+00	 4.580890e-01	 1.803053e+01
 1.064658e+00	 4.770892e-01	 1.786421e+01
 1.013960e+00	 4.543707e-01	 1.849471e+01
 1.005696e+00	 4.723812e-01	 1.791686e+01
 9.970841e-01	 4.902971e-01	 1.738440e+01
 9.881262e-01	 5.081087e-01	 1.688818e+01
 9.788237e-01	 5.258061e-01	 1.641836e+01
 9.691782e-01	 5.433796e-01	 1.596450e+01
 1.024100e+00	 4.589144e-01	 1.832947e+01
 1.015753e+00	 4.771050e-01	 1.776640e+01
 1.007055e+00	 4.952001e-01	 1.725101e+01
 9.980075e-01	 5.131898e-01	 1.677383e+01
 9.886119e-01	 5.310642e-01	 1.632464e+01
 9.788700e-01	 5.488134e-01	 1.589257e+01
 1.034239e+00	 4.634581e-01	 1.818393e+01
 1.025810e+00	 4.818288e-01	 1.763591e+01
 1.017026e+00	 5.001031e-01	 1.713798e+01
 1.007889e+00	 5.182709e-01	 1.668035e+01
 9.984002e-01	 5.363223e-01	 1.625246e+01
 9.885618e-01	 5.542472e-01	 1.584297e+01
 1.044379e+00	 4.680018e-01	 1.805801e+01
 1.035867e+00	 4.865526e-01	 1.752527e+01
 1.026997e+00	 5.050061e-01	 1.704514e+01
 1.017770e+00	 5.233520e-01	 1.660753e+01
 1.008188e+00	 5.415803e-01	 1.620154e+01
 9.982536e-01	 5.596810e-01	 1.581542e+01
 1.054519e+00	 4.725455e-01	 1.795152e+01
 1.045924e+00	 4.912765e-01	 1.743423e+01
 1.036967e+00	 5.099090e-01	 1.697218e+01
 1.027651e+00	 5.284331e-01	 1.655502e+01
 1.017977e+00	 5.468384e-01	 1.617151e+01
 1.007945e+00	 5.651148e-01	 1.580953e+01
 1.064658e+00	 4.770892e-01	 1.786421e+01
 1.055981e+00	 4.960003e-01	 1.736247e+01
 1.046938e+00	 5.148120e-01	 1.691871e+01
 1.037533e+00	 5.335141e-01	 1.652236e+01
 1.027765e+00	 5.520964e-01	 1.616187e+01
 1.017637e+00	 5.705486e-01	 1.582475e+01
 9.691782e-01	 5.433796e-01	 1.596450e+01
 9.591921e-01	 5.608195e-01	 1.547176e+01
 9.488676e-01	 5.781160e-01	 1.497308e+01
 9.382079e-01	 5.952594e-01	 1.445636e+01
 9.272161e-01	 6.122403e-01	 1.390926e+01
 9.158959e-01	 6.290490e-01	 1.331939e+01
 9.788700e-01	 5.488134e-01	 1.589257e+01
 9.687840e-01	 5.664277e-01	 1.541897e+01
 9.583563e-01	 5.838971e-01	 1.493927e+01
 9.475900e-01	 6.012120e-01	 1.444065e+01
 9.364883e-01	 6.183627e-01	 1.390999e+01
 9.250548e-01	 6.353395e-01	 1.333403e+01
 9.885618e-01	 5.542472e-01	 1.584297e+01
 9.783759e-01	 5.720359e-01	 1.538848e+01
 9.678450e-01	 5.896783e-01	 1.492790e+01
 9.569721e-01	 6.071646e-01	 1.444769e+01
 9.457604e-01	 6.244851e-01	 1.393394e+01
 9.342138e-01	 6.416300e-01	 1.337255e+01
 9.982536e-01	 5.596810e-01	 1.581542e+01
 9.879678e-01	 5.776441e-01	 1.538004e+01
 9.773337e-01	 5.954595e-01	 1.493876e+01
 9.663542e-01	 6.131172e-01	 1.447732e+01
 9.550326e-01	 6.306075e-01	 1.398104e+01
 9.433728e-01	 6.479205e-01	 1.343495e+01
 1.007945e+00	 5.651148e-01	 1.580953e+01
 9.975597e-01	 5.832523e-01	 1.539325e+01
 9.868224e-01	 6.012406e-01	 1.497147e+01
 9.757362e-01	 6.190698e-01	 1.452922e+01
 9.643048e-01	 6.367299e-01	 1.405102e+01
 9.525317e-01	 6.542110e-01	 1.352105e+01
 1.017637e+00	 5.705486e-01	 1.582475e+01
 1.007152e+00	 5.888605e-01	 1.542757e+01
 9.963110e-01	 6.070218e-01	 1.502553e+01
 9.851183e-01	 6.250224e-01	 1.460292e+01
 9.735769e-01	 6.428523e-01	 1.414348e+01
 9.616907e-01	 6.605015e-01	 1.363051e+01
 9.158959e-01	 6.290490e-01	 1.331939e+01
 9.042512e-01	 6.456762e-01	 1.292894e+01
 8.922863e-01	 6.621126e-01	 1.248367e+01
 8.800059e-01	 6.783491e-01	 1.197342e+01
 8.674151e-01	 6.943766e-01	 1.138875e+01
 8.545193e-01	 7.101864e-01	 1.072126e+01
 9.250548e-01	 6.353395e-01	 1.333403e+01
 9.132937e-01	 6.521330e-01	 1.296788e+01
 9.012091e-01	 6.687337e-01	 1.254180e+01
 8.888060e-01	 6.851326e-01	 1.204463e+01
 8.760893e-01	 7.013204e-01	 1.146595e+01
 8.630645e-01	 7.172882e-01	 1.079632e+01
 9.342138e-01	 6.416300e-01	 1.337255e+01
 9.223362e-01	 6.585897e-01	 1.303124e+01
 9.101320e-01	 6.753549e-01	 1.262503e+01
 8.976061e-01	 6.919160e-01	 1.214176e+01
 8.847635e-01	 7.082641e-01	 1.156995e+01
 8.716097e-01	 7.243901e-01	 1.089912e+01
 9.433728e-01	 6.479205e-01	 1.343495e+01
 9.313787e-01	 6.650465e-01	 1.311913e+01
 9.190549e-01	 6.819760e-01	 1.273361e+01
 9.064061e-01	 6.986995e-01	 1.226519e+01
 8.934376e-01	 7.152079e-01	 1.170132e+01
 8.801549e-01	 7.314920e-01	 1.103042e+01
 9.525317e-01	 6.542110e-01	 1.352105e+01
 9.404212e-01	 6.715032e-01	 1.323149e+01
 9.279777e-01	 6.885971e-01	 1.286761e+01
 9.152062e-01	 7.054830e-01	 1.241514e+01
 9.021118e-01	 7.221517e-01	 1.186044e+01
 8.887001e-01	 7.385938e-01	 1.119077e+01
 9.616907e-01	 6.605015e-01	 1.363051e+01
 9.494637e-01	 6.779600e-01	 1.336809e+01
 9.369006e-01	 6.952182e-01	 1.302692e+01
 9.240062e-01	 7.122665e-01	 1.259165e+01
 9.107859e-01	 7.290954e-01	 1.204749e+01
 8.972452e-01	 7.456957e-01	 1.137803e+01
 8.545193e-01	 7.101864e-01	 1.072126e+01
 8.413240e-01	 7.257698e-01	 1.038525e+01
 8.278354e-01	 7.411184e-01	 9.983530e+00
 8.140598e-01	 7.562239e-01	 9.524514e+00
 8.000037e-01	 7.710784e-01	 9.039122e+00
 7.856742e-01	 7.856742e-01	 8.560506e+00
 8.630645e-01	 7.172882e-01	 1.079632e+01
 8.497373e-01	 7.330275e-01	 1.048239e+01
 8.361138e-01	 7.485295e-01	 1.009618e+01
 8.222004e-01	 7.637862e-01	 9.649269e+00
 8.080038e-01	 7.787892e-01	 9.173777e+00
 7.935309e-01	 7.935309e-01	 8.703710e+00
 8.716097e-01	 7.243901e-01	 1.089912e+01
 8.581505e-01	 7.402852e-01	 1.061100e+01
 8.443921e-01	 7.559407e-01	 1.024081e+01
 8.303410e-01	 7.713484e-01	 9.805787e+00
 8.160038e-01	 7.865000e-01	 9.340193e+00
 8.013877e-01	 8.013877e-01	 8.878899e+00
 8.801549e-01	 7.314920e-01	 1.103042e+01
 8.665638e-01	 7.475429e-01	 1.076959e+01
 8.526705e-01	 7.633519e-01	 1.041372e+01
 8.384816e-01	 7.789106e-01	 9.990400e+00
 8.240038e-01	 7.942108e-01	 9.534717e+00
 8.092444e-01	 8.092444e-01	 9.082431e+00
 8.887001e-01	 7.385938e-01	 1.119077e+01
 8.749770e-01	 7.548006e-01	 1.095301e+01
 8.609488e-01	 7.707631e-01	 1.061109e+01
 8.466222e-01	 7.864729e-01	 1.019928e+01
 8.320039e-01	 8.019216e-01	 9.753530e+00
 8.171012e-01	 8.171012e-01	 9.310502e+00
 8.972452e-01	 7.456957e-01	 1.137803e+01
 8.833902e-01	 7.620583e-01	 1.115728e+01
 8.692272e-01	 7.781743e-01	 1.082894e+01
 8.547627e-01	 7.940351e-01	 1.042847e+01
 8.400039e-01	 8.096324e-01	 9.992677e+00
 8.249579e-01	 8.249579e-01	 9.559159e+00
 7.856742e-01	 7.856742e-01	 8.560506e+00
 7.710784e-01	 8.000037e-01	 8.020746e+00
 7.562239e-01	 8.140598e-01	 7.519413e+00
 7.411184e-01	 8.278354e-01	 7.087445e+00
 7.257698e-01	 8.413240e-01	 6.754264e+00
 7.101864e-01	 8.545193e-01	 6.539424e+00
 7.935309e-01	 7.935309e-01	 8.703710e+00
 7.787892e-01	 8.080038e-01	 8.162569e+00
 7.637862e-01	 8.222004e-01	 7.662667e+00
 7.485295e-01	 8.361138e-01	 7.235784e+00
 7.330275e-01	 8.497373e-01	 6.912335e+00
 7.172882e-01	 8.630645e-01	 6.716177e+00
 8.013877e-01	 8.013877e-01	 8.878899e+00
 7.865000e-01	 8.160038e-01	 8.337238e+00
 7.713484e-01	 8.303410e-01	 7.839849e+00
 7.559407e-01	 8.443921e-01	 7.419381e+00
 7.402852e-01	 8.581505e-01	 7.107019e+00
 7.243901e-01	 8.716097e-01	 6.930058e+00
 8.092444e-01	 8.092444e-01	 9.082431e+00
 7.942108e-01	 8.240038e-01	 8.541117e+00
 7.789106e-01	 8.384816e-01	 8.047338e+00
 7.633519e-01	 8.526705e-01	 7.634640e+00
 7.475429e-01	 8.665638e-01	 7.335026e+00
 7.314920e-01	 8.801549e-01	 7.177894e+00
 8.171012e-01	 8.171012e-01	 9.310502e+00
 8.019216e-01	 8.320039e-01	 8.770403e+00
 7.864729e-01	 8.466222e-01	 8.281343e+00
 7.707631e-01	 8.609488e-01	 7.877791e+00
 7.548006e-01	 8.749770e-01	 7.592598e+00
 7.385938e-01	 8.887001e-01	 7.456369e+00
 8.249579e-01	 8.249579e-01	 9.559159e+00
 8.096324e-01	 8.400039e-01	 9.021146e+00
 7.940351e-01	 8.547627e-01	 8.537917e+00
 7.781743e-01	 8.692272e-01	 8.144901e+00
 7.620583e-01	 8.833902e-01	 7.875830e+00
 7.456957e-01	 8.972452e-01	 7.762094e+00
 7.101864e-01	 8.545193e-01	 6.539424e+00
 6.943766e-01	 8.674151e-01	 5.994052e+00
 6.783491e-01	 8.800059e-01	 5.525591e+00
 6.621126e-01	 8.922863e-01	 5.137134e+00
 6.456762e-01	 9.042512e-01	 4.828793e+00
 6.290490e-01	 9.158959e-01	 4.597814e+00
 7.172882e-01	 8.630645e-01	 6.716177e+00
 7.013204e-01	 8.760893e-01	 6.160552e+00
 6.851326e-01	 8.888060e-01	 5.686233e+00
 6.687337e-01	 9.012091e-01	 5.296124e+00
 6.521330e-01	 9.132937e-01	 4.989999e+00
 6.353395e-01	 9.250548e-01	 4.764622e+00
 7.243901e-01	 8.716097e-01	 6.930058e+00
 7.082641e-01	 8.847635e-01	 6.362753e+00
 6.919160e-01	 8.976061e-01	 5.881702e+00
 6.753549e-01	 9.101320e-01	 5.489608e+00
 6.585897e-01	 9.223362e-01	 5.185889e+00
 6.416300e-01	 9.342138e-01	 4.966798e+00
 7.314920e-01	 8.801549e-01	 7.177894e+00
 7.152079e-01	 8.934376e-01	 6.597552e+00
 6.986995e-01	 9.064061e-01	 6.108983e+00
 6.819760e-01	 9.190549e-01	 5.714680e+00
 6.650465e-01	 9.313787e-01	 5.413680e+00
 6.479205e-01	 9.433728e-01	 5.201702e+00
 7.385938e-01	 8.887001e-01	 7.456369e+00
 7.221517e-01	 9.021118e-01	 6.861700e+00
 7.054830e-01	 9.152062e-01	 6.364920e+00
 6.885971e-01	 9.279777e-01	 5.968289e+00
 6.715032e-01	 9.404212e-01	 5.670449e+00
 6.542110e-01	 9.525317e-01	 5.466553e+00
 7.456957e-01	 8.972452e-01	 7.762094e+00
 7.290954e-01	 9.107859e-01	 7.151808e+00
 7.122665e-01	 9.240062e-01	 6.646210e+00
 6.952182e-01	 9.369006e-01	 6.247245e+00
 6.779600e-01	 9.494637e-01	 5.953132e+00
 6.605015e-01	 9.616907e-01	 5.758432e+00
 6.290490e-01	 9.158959e-01	 4.597814e+00
 6.122403e-01	 9.272161e-01	 4.204874e+00
 5.952594e-01	 9.382079e-01	 3.857369e+00
 5.781160e-01	 9.488676e-01	 3.544149e+00
 5.608195e-01	 9.591921e-01	 3.251993e+00
 5.433796e-01	 9.691782e-01	 2.965852e+00
 6.353395e-01	 9.250548e-01	 4.764622e+00
 6.183627e-01	 9.364883e-01	 4.367630e+00
 6.012120e-01	 9.475900e-01	 4.015452e+00
 5.838971e-01	 9.583563e-01	 3.695978e+00
 5.664277e-01	 9.687840e-01	 3.394939e+00
 5.488134e-01	 9.788700e-01	 3.096157e+00
 6.416300e-01	 9.342138e-01	 4.966798e+00
 6.244851e-01	 9.457604e-01	 4.565753e+00
 6.071646e-01	 9.569721e-01	 4.209382e+00
 5.896783e-01	 9.678450e-01	 3.884578e+00
 5.720359e-01	 9.783759e-01	 3.575974e+00
 5.542472e-01	 9.885618e-01	 3.266215e+00
 6.479205e-01	 9.433728e-01	 5.201702e+00
 6.306075e-01	 9.550326e-01	 4.796795e+00
 6.131172e-01	 9.663542e-01	 4.436915e+00
 5.954595e-01	 9.773337e-01	 4.107916e+00
 5.776441e-01	 9.879678e-01	 3.793289e+00
 5.596810e-01	 9.982536e-01	 3.474452e+00
 6.542110e-01	 9.525317e-01	 5.466553e+00
 6.367299e-01	 9.643048e-01	 5.058165e+00
 6.190698e-01	 9.757362e-01	 4.695665e+00
 6.012406e-01	 9.868224e-01	 4.363822e+00
 5.832523e-01	 9.975597e-01	 4.044941e+00
 5.651148e-01	 1.007945e+00	 3.719156e+00
 6.605015e-01	 9.616907e-01	 5.758432e+00
 6.428523e-01	 9.735769e-01	 5.347137e+00
 6.250224e-01	 9.851183e-01	 4.983110e+00
 6.070218e-01	 9.963110e-01	 4.649993e+00
 5.888605e-01	 1.007152e+00	 4.328851e+00
 5.705486e-01	 1.017637e+00	 3.998485e+00
 5.433796e-01	 9.691782e-01	 2.965852e+00
 5.258061e-01	 9.788237e-01	 2.752695e+00
 5.081087e-01	 9.881262e-01	 2.537313e+00
 4.902971e-01	 9.970841e-01	 2.301054e+00
 4.723812e-01	 1.005696e+00	 2.024446e+00
 4.543707e-01	 1.013960e+00	 1.687484e+00
 5.488134e-01	 9.788700e-01	 3.096157e+00
 5.310642e-01	 9.886119e-01	 2.874795e+00
 5.131898e-01	 9.980075e-01	 2.648822e+00
 4.952001e-01	 1.007055e+00	 2.398439e+00
 4.771050e-01	 1.015753e+00	 2.102992e+00
 4.589144e-01	 1.024100e+00	 1.741275e+00
 5.542472e-01	 9.885618e-01	 3.266215e+00
 5.363223e-01	 9.984002e-01	 3.040324e+00
 5.182709e-01	 1.007889e+00	 2.807597e+00
 5.001031e-01	 1.017026e+00	 2.547028e+00
 4.818288e-01	 1.025810e+00	 2.236721e+00
 4.634581e-01	 1.034239e+00	 1.854204e+00
 5.596810e-01	 9.982536e-01	 3.474452e+00
 5.415803e-01	 1.008188e+00	 3.247895e+00
 5.233520e-01	 1.017770e+00	 3.012446e+00
 5.050061e-01	 1.026997e+00	 2.745830e+00
 4.865526e-01	 1.035867e+00	 2.424842e+00
 4.680018e-01	 1.044379e+00	 2.025686e+00
 5.651148e-01	 1.007945e+00	 3.719156e+00
 5.468384e-01	 1.017977e+00	 3.495990e+00
 5.284331e-01	 1.027651e+00	 3.262050e+00
 5.099090e-01	 1.036967e+00	 2.993729e+00
 4.912765e-01	 1.045924e+00	 2.666452e+00
 4.725455e-01	 1.054519e+00	 2.255027e+00
 5.705486e-01	 1.017637e+00	 3.998485e+00
 5.520964e-01	 1.027765e+00	 3.782964e+00
 5.335141e-01	 1.037533e+00	 3.554968e+00
 5.148120e-01	 1.046938e+00	 3.289494e+00
 4.960003e-01	 1.055981e+00	 2.960529e+00
 4.770892e-01	 1.064658e+00	 2.541420e+00
 4.543707e-01	 1.013960e+00	 1.687484e+00
 4.362752e-01	 1.021877e+00	 1.617614e+00
 4.181046e-01	 1.029445e+00	 1.531291e+00
 3.998684e-01	 1.036664e+00	 1.409503e+00
 3.815762e-01	 1.043536e+00	 1.233526e+00
 3.632375e-01	 1.050060e+00	 9.863369e-01
 4.589144e-01	 1.024100e+00	 1.741275e+00
 4.406380e-01	 1.032095e+00	 1.664118e+00
 4.222857e-01	 1.039739e+00	 1.563666e+00
 4.038671e-01	 1.047031e+00	 1.419648e+00
 3.853920e-01	 1.053971e+00	 1.212113e+00
 3.668699e-01	 1.060561e+00	 9.219571e-01
 4.634581e-01	 1.034239e+00	 1.854204e+00
 4.450007e-01	 1.042314e+00	 1.772816e+00
 4.264667e-01	 1.050034e+00	 1.661115e+00
 4.078658e-01	 1.057398e+00	 1.497511e+00
 3.892078e-01	 1.064407e+00	 1.260768e+00
 3.705022e-01	 1.071061e+00	 9.302859e-01
 4.680018e-01	 1.044379e+00	 2.025686e+00
 4.493635e-01	 1.052533e+00	 1.943351e+00
 4.306478e-01	 1.060328e+00	 1.823507e+00
 4.118645e-01	 1.067764e+00	 1.643185e+00
 3.930235e-01	 1.074842e+00	 1.379802e+00
 3.741346e-01	 1.081562e+00	 1.011466e+00
 4.725455e-01	 1.054519e+00	 2.255027e+00
 4.537262e-01	 1.062752e+00	 2.175259e+00
 4.348288e-01	 1.070623e+00	 2.050610e+00
 4.158632e-01	 1.078131e+00	 1.856664e+00
 3.968393e-01	 1.085277e+00	 1.569432e+00
 3.777670e-01	 1.092063e+00	 1.165665e+00
 4.770892e-01	 1.064658e+00	 2.541420e+00
 4.580890e-01	 1.072970e+00	 2.467970e+00
 4.390098e-01	 1.080917e+00	 2.342088e+00
 4.198619e-01	 1.088498e+00	 2.137845e+00
 4.006550e-01	 1.095713e+00	 1.829781e+00
 3.813994e-01	 1.102563e+00	 1.393229e+00
 3.632375e-01	 1.050060e+00	 9.863369e-01
 3.448616e-01	 1.056238e+00	 8.720891e-01
 3.264577e-01	 1.062070e+00	 7.620057e-01
 3.080351e-01	 1.067559e+00	 6.538999e-01
 2.896026e-01	 1.072706e+00	 5.478318e-01
 2.711691e-01	 1.077513e+00	 4.460702e-01
 3.668699e-01	 1.060561e+00	 9.219571e-01
 3.483102e-01	 1.066800e+00	 7.819303e-01
 3.297223e-01	 1.072691e+00	 6.563441e-01
 3.111154e-01	 1.078235e+00	 5.429772e-01
 2.924986e-01	 1.083433e+00	 4.419894e-01
 2.738808e-01	 1.088289e+00	 3.558802e-01
 3.705022e-01	 1.071061e+00	 9.302859e-01
 3.517588e-01	 1.077363e+00	 7.715433e-01
 3.329869e-01	 1.083312e+00	 6.362401e-01
 3.141958e-01	 1.088910e+00	 5.221070e-01
 2.953946e-01	 1.094160e+00	 4.294029e-01
 2.765925e-01	 1.099064e+00	 3.608700e-01
 3.741346e-01	 1.081562e+00	 1.011466e+00
 3.552074e-01	 1.087925e+00	 8.414812e-01
 3.362514e-01	 1.093932e+00	 7.023852e-01
 3.172761e-01	 1.099586e+00	 5.920957e-01
 2.982907e-01	 1.104887e+00	 5.109702e-01
 2.793042e-01	 1.109839e+00	 4.620055e-01
 3.777670e-01	 1.092063e+00	 1.165665e+00
 3.586560e-01	 1.098487e+00	 9.921919e-01
 3.395160e-01	 1.104553e+00	 8.553832e-01
 3.203565e-01	 1.110261e+00	 7.536788e-01
 3.011867e-01	 1.115614e+00	 6.713200e-01
 2.820159e-01	 1.120614e+00	 5.918748e-01
 3.813994e-01	 1.102563e+00	 1.393229e+00
 3.621046e-01	 1.109050e+00	 1.224016e+00
 3.427806e-01	 1.115174e+00	 1.081204e+00
 3.234368e-01	 1.120937e+00	 9.258873e-01
 3.040827e-01	 1.126341e+00	 7.729058e-01
 2.847276e-01	 1.131389e+00	 6.425017e-01
 2.711691e-01	 1.077513e+00	 4.460702e-01
 2.527434e-01	 1.081984e+00	 2.966980e-01
 2.343339e-01	 1.086119e+00	 1.627035e-01
 2.159489e-01	 1.089924e+00	 5.238830e-02
 1.975966e-01	 1.093400e+00	-2.429914e-02
 1.792849e-01	 1.096551e+00	-5.598154e-02
 2.738808e-01	 1.088289e+00	 3.558802e-01
 2.552708e-01	 1.092804e+00	 2.270714e-01
 2.366772e-01	 1.096981e+00	 1.130712e-01
 2.181084e-01	 1.100823e+00	 2.288399e-02
 1.995726e-01	 1.104334e+00	-3.271802e-02
 1.810778e-01	 1.107517e+00	-4.142932e-02
 2.765925e-01	 1.099064e+00	 3.608700e-01
 2.577983e-01	 1.103623e+00	 2.524194e-01
 2.390206e-01	 1.107842e+00	 1.572274e-01
 2.202679e-01	 1.111722e+00	 8.482091e-02
 2.015485e-01	 1.115268e+00	 3.800892e-02
 1.828706e-01	 1.118482e+00	 3.084948e-02
 2.793042e-01	 1.109839e+00	 4.620055e-01
 2.603257e-01	 1.114443e+00	 3.659545e-01
 2.413639e-01	 1.118703e+00	 2.583871e-01
 2.224274e-01	 1.122622e+00	 1.595035e-01
 2.035245e-01	 1.126202e+00	 9.083790e-02
 1.846635e-01	 1.129448e+00	 7.375114e-02
 2.820159e-01	 1.120614e+00	 5.918748e-01
 2.628531e-01	 1.125263e+00	 4.497240e-01
 2.437072e-01	 1.129564e+00	 3.053565e-01
 2.245868e-01	 1.133521e+00	 1.807220e-01
 2.055005e-01	 1.137136e+00	 9.778021e-02
 1.864563e-01	 1.140413e+00	 7.821232e-02
 2.847276e-01	 1.131389e+00	 6.425017e-01
 2.653806e-01	 1.136083e+00	 4.610041e-01
 2.460506e-01	 1.140425e+00	 2.877701e-01
 2.267463e-01	 1.144420e+00	 1.452718e-01
 2.074764e-01	 1.148070e+00	 5.587107e-02
 1.882492e-01	 1.151379e+00	 4.153760e-02
 1.792849e-01	 1.096551e+00	-5.598154e-02
 1.610217e-01	 1.099382e+00	-1.495185e-01
 1.428143e-01	 1.101895e+00	-2.383605e-01
 1.246702e-01	 1.104095e+00	-3.072208e-01
 1.065964e-01	 1.105986e+00	-3.402549e-01
 8.859983e-02	 1.107573e+00	-3.213370e-01
 1.810778e-01	 1.107517e+00	-4.142932e-02
 1.626319e-01	 1.110375e+00	-1.182163e-01
 1.442424e-01	 1.112914e+00	-1.983496e-01
 1.259169e-01	 1.115136e+00	-2.669609e-01
 1.076623e-01	 1.117046e+00	-3.043634e-01
 8.948582e-02	 1.118649e+00	-2.913666e-01
 1.828706e-01	 1.118482e+00	 3.084948e-02
 1.642421e-01	 1.121369e+00	-5.467848e-02
 1.456706e-01	 1.123933e+00	-1.474018e-01
 1.271636e-01	 1.126177e+00	-2.265247e-01
 1.087283e-01	 1.128106e+00	-2.718841e-01
 9.037182e-02	 1.129724e+00	-2.640705e-01
 1.846635e-01	 1.129448e+00	 7.375114e-02
 1.658523e-01	 1.132363e+00	-2.068008e-02
 1.470987e-01	 1.134952e+00	-1.202753e-01
 1.284103e-01	 1.137218e+00	-2.040175e-01
 1.097943e-01	 1.139166e+00	-2.515542e-01
 9.125782e-02	 1.140800e+00	-2.433081e-01
 1.864563e-01	 1.140413e+00	 7.821232e-02
 1.674625e-01	 1.143357e+00	-1.881909e-02
 1.485269e-01	 1.145971e+00	-1.189884e-01
 1.296570e-01	 1.148259e+00	-2.011068e-01
 1.108602e-01	 1.150225e+00	-2.446859e-01
 9.214382e-02	 1.151876e+00	-2.300359e-01
 1.882492e-01	 1.151379e+00	 4.153760e-02
 1.690727e-01	 1.154351e+00	-5.146822e-02
 1.499550e-01	 1.156989e+00	-1.455757e-01
 1.309037e-01	 1.159300e+00	-2.194781e-01
 1.119262e-01	 1.161285e+00	-2.526095e-01
 9.302982e-02	 1.162952e+00	-2.252277e-01
 8.859983e-02	 1.107573e+00	-3.213370e-01
 7.068714e-02	 1.108860e+00	-3.541737e-01
 5.286475e-02	 1.109853e+00	-3.956117e-01
 3.513883e-02	 1.110555e+00	-4.284796e-01
 1.751534e-02	 1.110973e+00	-4.361547e-01
 0.000000e+00	 1.111111e+00	-4.027924e-01
 8.948582e-02	 1.118649e+00	-2.913666e-01
 7.139401e-02	 1.119949e+00	-3.335552e-01
 5.339339e-02	 1.120951e+00	-3.848595e-01
 3.549022e-02	 1.121661e+00	-4.270065e-01
 1.769050e-02	 1.122083e+00	-4.426215e-01
 0.000000e+00	 1.122222e+00	-4.153085e-01
 9.037182e-02	 1.129724e+00	-2.640705e-01
 7.210088e-02	 1.131038e+00	-3.120912e-01
 5.392204e-02	 1.132050e+00	-3.686780e-01
 3.584161e-02	 1.132766e+00	-4.152424e-01
 1.786565e-02	 1.133193e+00	-4.340673e-01
 0.000000e+00	 1.133333e+00	-4.083797e-01
 9.125782e-02	 1.140800e+00	-2.433081e-01
 7.280775e-02	 1.142126e+00	-2.913179e-01
 5.445069e-02	 1.143148e+00	-3.475604e-01
 3.619299e-02	 1.143872e+00	-3.931822e-01
 1.804080e-02	 1.144302e+00	-4.101711e-01
 0.000000e+00	 1.144444e+00	-3.814198e-01
 9.214382e-02	 1.151876e+00	-2.300359e-01
 7.351463e-02	 1.153215e+00	-2.718532e-01
 5.497934e-02	 1.154247e+00	-3.217972e-01
 3.654438e-02	 1.154978e+00	-3.608044e-01
 1.821596e-02	 1.155412e+00	-3.706197e-01
 0.000000e+00	 1.155556e+00	-3.338492e-01
 9.302982e-02	 1.162952e+00	-2.252277e-01
 7.422150e-02	 1.164303e+00	-2.543308e-01
 5.550798e-02	 1.165345e+00	-2.916922e-01
 3.689577e-02	 1.166083e+00	-3.180986e-01
 1.839111e-02	 1.166522e+00	-3.151084e-01
 0.000000e+00	 1.166667e+00	-2.650941e-01
 1.166667e+00	 0.000000e+00	 2.223317e+01
 1.166522e+00	 1.839111e-02	 2.228771e+01
 1.166083e+00	 3.689577e-02	 2.229508e+01
 1.165345e+00	 5.550798e-02	 2.225906e+01
 1.164303e+00	 7.422150e-02	 2.218356e+01
 1.162952e+00	 9.302982e-02	 2.207259e+01
 1.177778e+00	 0.000000e+00	 2.184760e+01
 1.177631e+00	 1.856626e-02	 2.190043e+01
 1.177189e+00	 3.724716e-02	 2.190669e+01
 1.176444e+00	 5.603663e-02	 2.187026e+01
 1.175392e+00	 7.492837e-02	 2.179512e+01
 1.174027e+00	 9.391582e-02	 2.168538e+01
 1.188889e+00	 0.000000e+00	 2.148086e+01
 1.188741e+00	 1.874142e-02	 2.153280e+01
 1.188294e+00	 3.759855e-02	 2.153890e+01
 1.187542e+00	 5.656528e-02	 2.150314e+01
 1.186481e+00	 7.563524e-02	 2.142959e+01
 1.185103e+00	 9.480181e-02	 2.132241e+01
 1.200000e+00	 0.000000e+00	 2.113161e+01
 1.199851e+00	 1.891657e-02	 2.118353e+01
 1.199400e+00	 3.794994e-02	 2.119050e+01
 1.198641e+00	 5.709393e-02	 2.115659e+01
 1.197569e+00	 7.634211e-02	 2.108593e+01
 1.196179e+00	 9.568781e-02	 2.098273e+01
 1.211111e+00	 0.000000e+00	 2.079850e+01
 1.210961e+00	 1.909172e-02	 2.085136e+01
 1.210505e+00	 3.830132e-02	 2.086032e+01
 1.209740e+00	 5.762257e-02	 2.082950e+01
 1.208658e+00	 7.704898e-02	 2.076311e+01
 1.207255e+00	 9.657381e-02	 2.066538e+01
 1.222222e+00	 0.000000e+00	 2.048022e+01
 1.222070e+00	 1.926688e-02	 2.053504e+01
 1.221611e+00	 3.865271e-02	 2.054718e+01
 1.220838e+00	 5.815122e-02	 2.052080e+01
 1.219746e+00	 7.775585e-02	 2.046014e+01
 1.218330e+00	 9.745981e-02	 2.036945e+01
 1.162952e+00	 9.302982e-02	 2.207259e+01
 1.161285e+00	 1.119262e-01	 2.204811e+01
 1.159300e+00	 1.309037e-01	 2.197760e+01
 1.156989e+00	 1.499550e-01	 2.186504e+01
 1.154351e+00	 1.690727e-01	 2.171446e+01
 1.151379e+00	 1.882492e-01	 2.152993e+01
 1.174027e+00	 9.391582e-02	 2.168538e+01
 1.172345e+00	 1.129922e-01	 2.166373e+01
 1.170340e+00	 1.321504e-01	 2.159657e+01
 1.168008e+00	 1.513831e-01	 2.148785e+01
 1.165345e+00	 1.706830e-01	 2.134157e+01
 1.162344e+00	 1.900420e-01	 2.116178e+01
 1.185103e+00	 9.480181e-02	 2.132241e+01
 1.183405e+00	 1.140581e-01	 2.130433e+01
 1.181381e+00	 1.333971e-01	 2.124135e+01
 1.179027e+00	 1.528113e-01	 2.113737e+01
 1.176338e+00	 1.722932e-01	 2.099639e+01
 1.173310e+00	 1.918349e-01	 2.082237e+01
 1.196179e+00	 9.568781e-02	 2.098273e+01
 1.194465e+00	 1.151241e-01	 2.096905e+01
 1.192422e+00	 1.346438e-01	 2.091117e+01
 1.190046e+00	 1.542394e-01	 2.081296e+01
 1.187332e+00	 1.739034e-01	 2.067832e+01
 1.184275e+00	 1.936277e-01	 2.051120e+01
 1.207255e+00	 9.657381e-02	 2.066538e+01
 1.205525e+00	 1.161901e-01	 2.065705e+01
 1.203463e+00	 1.358905e-01	 2.060530e+01
 1.201065e+00	 1.556676e-01	 2.051394e+01
 1.198326e+00	 1.755136e-01	 2.038681e+01
 1.195241e+00	 1.954206e-01	 2.022780e+01
 1.218330e+00	 9.745981e-02	 2.036945e+01
 1.216585e+00	 1.172560e-01	 2.036751e+01
 1.214504e+00	 1.371372e-01	 2.032301e+01
 1.212084e+00	 1.570957e-01	 2.023969e+01
 1.209320e+00	 1.771238e-01	 2.012132e+01
 1.206206e+00	 1.972134e-01	 1.997170e+01
 1.151379e+00	 1.882492e-01	 2.152993e+01
 1.148070e+00	 2.074764e-01	 2.141831e+01
 1.144420e+00	 2.267463e-01	 2.126056e+01
 1.140425e+00	 2.460506e-01	 2.106089e+01
 1.136083e+00	 2.653806e-01	 2.082341e+01
 1.131389e+00	 2.847276e-01	 2.055213e+01
 1.162344e+00	 1.900420e-01	 2.116178e+01
 1.159004e+00	 2.094524e-01	 2.106080e+01
 1.155319e+00	 2.289058e-01	 2.091370e+01
 1.151287e+00	 2.483939e-01	 2.072457e+01
 1.146903e+00	 2.679080e-01	 2.049743e+01
 1.142164e+00	 2.874393e-01	 2.023615e+01
 1.173310e+00	 1.918349e-01	 2.082237e+01
 1.169938e+00	 2.114284e-01	 2.073233e+01
 1.166219e+00	 2.310653e-01	 2.059624e+01
 1.162148e+00	 2.507372e-01	 2.041806e+01
 1.157723e+00	 2.704354e-01	 2.020169e+01
 1.152939e+00	 2.901510e-01	 1.995090e+01
 1.184275e+00	 1.936277e-01	 2.051120e+01
 1.180872e+00	 2.134043e-01	 2.043252e+01
 1.177118e+00	 2.332248e-01	 2.030788e+01
 1.173009e+00	 2.530806e-01	 2.014114e+01
 1.168542e+00	 2.729629e-01	 1.993607e+01
 1.163715e+00	 2.928627e-01	 1.969634e+01
 1.195241e+00	 1.954206e-01	 2.022780e+01
 1.191806e+00	 2.153803e-01	 2.016099e+01
 1.188017e+00	 2.353843e-01	 2.004835e+01
 1.183870e+00	 2.554239e-01	 1.989361e+01
 1.179362e+00	 2.754903e-01	 1.970044e+01
 1.174490e+00	 2.955744e-01	 1.947239e+01
 1.206206e+00	 1.972134e-01	 1.997170e+01
 1.202740e+00	 2.173563e-01	 1.991735e+01
 1.198916e+00	 2.375438e-01	 1.981733e+01
 1.194731e+00	 2.577673e-01	 1.967525e+01
 1.190182e+00	 2.780177e-01	 1.949465e+01
 1.185265e+00	 2.982861e-01	 1.927898e+01
 1.131389e+00	 2.847276e-01	 2.055213e+01
 1.126341e+00	 3.040827e-01	 2.037791e+01
 1.120937e+00	 3.234368e-01	 2.017308e+01
 1.115174e+00	 3.427806e-01	 1.994131e+01
 1.109050e+00	 3.621046e-01	 1.968514e+01
 1.102563e+00	 3.813994e-01	 1.941492e+01
 1.142164e+00	 2.874393e-01	 2.023615e+01
 1.137068e+00	 3.069787e-01	 2.007659e+01
 1.131613e+00	 3.265172e-01	 1.988445e+01
 1.125794e+00	 3.460452e-01	 1.966321e+01
 1.119612e+00	 3.655533e-01	 1.941586e+01
 1.113064e+00	 3.850317e-01	 1.917581e+01
 1.152939e+00	 2.901510e-01	 1.995090e+01
 1.147795e+00	 3.098748e-01	 1.980557e+01
 1.142288e+00	 3.295975e-01	 1.962580e+01
 1.136415e+00	 3.493097e-01	 1.941481e+01
 1.130175e+00	 3.690019e-01	 1.917542e+01
 1.123564e+00	 3.886641e-01	 1.895691e+01
 1.163715e+00	 2.928627e-01	 1.969634e+01
 1.158523e+00	 3.127708e-01	 1.956492e+01
 1.152964e+00	 3.326779e-01	 1.939724e+01
 1.147036e+00	 3.525743e-01	 1.919634e+01
 1.140737e+00	 3.724505e-01	 1.896540e+01
 1.134065e+00	 3.922965e-01	 1.877049e+01
 1.174490e+00	 2.955744e-01	 1.947239e+01
 1.169250e+00	 3.156668e-01	 1.935465e+01
 1.163639e+00	 3.357582e-01	 1.919889e+01
 1.157657e+00	 3.558389e-01	 1.900795e+01
 1.151299e+00	 3.758991e-01	 1.878829e+01
 1.144566e+00	 3.959289e-01	 1.861638e+01
 1.185265e+00	 2.982861e-01	 1.927898e+01
 1.179977e+00	 3.185628e-01	 1.917475e+01
 1.174315e+00	 3.388386e-01	 1.903080e+01
 1.168277e+00	 3.591035e-01	 1.884979e+01
 1.161862e+00	 3.793477e-01	 1.864421e+01
 1.155066e+00	 3.995612e-01	 1.849430e+01
 1.102563e+00	 3.813994e-01	 1.941492e+01
 1.095713e+00	 4.006550e-01	 1.894863e+01
 1.088498e+00	 4.198619e-01	 1.856619e+01
 1.080917e+00	 4.390098e-01	 1.826220e+01
 1.072970e+00	 4.580890e-01	 1.803053e+01
 1.064658e+00	 4.770892e-01	 1.786421e+01
 1.113064e+00	 3.850317e-01	 1.917581e+01
 1.106148e+00	 4.044708e-01	 1.872792e+01
 1.098864e+00	 4.238605e-01	 1.836373e+01
 1.091211e+00	 4.431909e-01	 1.807772e+01
 1.083189e+00	 4.624518e-01	 1.786423e+01
 1.074798e+00	 4.816329e-01	 1.771676e+01
 1.123564e+00	 3.886641e-01	 1.895691e+01
 1.116584e+00	 4.082866e-01	 1.851296e+01
 1.109231e+00	 4.278592e-01	 1.816693e+01
 1.101506e+00	 4.473719e-01	 1.790395e+01
 1.093408e+00	 4.668145e-01	 1.771378e+01
 1.084937e+00	 4.861766e-01	 1.759043e+01
 1.134065e+00	 3.922965e-01	 1.877049e+01
 1.127019e+00	 4.121023e-01	 1.833166e+01
 1.119598e+00	 4.318579e-01	 1.798833e+01
 1.111800e+00	 4.515530e-01	 1.774088e+01
 1.103627e+00	 4.711773e-01	 1.757883e+01
 1.095077e+00	 4.907203e-01	 1.748461e+01
 1.144566e+00	 3.959289e-01	 1.861638e+01
 1.137454e+00	 4.159181e-01	 1.818775e+01
 1.129964e+00	 4.358566e-01	 1.785146e+01
 1.122095e+00	 4.557340e-01	 1.760885e+01
 1.113846e+00	 4.755400e-01	 1.746022e+01
 1.105217e+00	 4.952640e-01	 1.739856e+01
 1.155066e+00	 3.995612e-01	 1.849430e+01
 1.147890e+00	 4.197339e-01	 1.808066e+01
 1.140331e+00	 4.398553e-01	 1.775608e+01
 1.132389e+00	 4.599151e-01	 1.752284e+01
 1.124064e+00	 4.799028e-01	 1.738229e+01
 1.115356e+00	 4.998077e-01	 1.733454e+01
 1.064658e+00	 4.770892e-01	 1.786421e+01
 1.055981e+00	 4.960003e-01	 1.736247e+01
 1.046938e+00	 5.148120e-01	 1.691871e+01
 1.037533e+00	 5.335141e-01	 1.652236e+01
 1.027765e+00	 5.520964e-01	 1.616187e+01
 1.017637e+00	 5.705486e-01	 1.582475e+01
 1.074798e+00	 4.816329e-01	 1.771676e+01
 1.066037e+00	 5.007241e-01	 1.722251e+01
 1.056909e+00	 5.197150e-01	 1.679023e+01
 1.047414e+00	 5.385952e-01	 1.640917e+01
 1.037553e+00	 5.573545e-01	 1.606753e+01
 1.027329e+00	 5.759824e-01	 1.575247e+01
 1.084937e+00	 4.861766e-01	 1.759043e+01
 1.076094e+00	 5.054479e-01	 1.710362e+01
 1.066880e+00	 5.246179e-01	 1.668290e+01
 1.057295e+00	 5.436763e-01	 1.631736e+01
 1.047341e+00	 5.626126e-01	 1.599495e+01
 1.037021e+00	 5.814162e-01	 1.570254e+01
 1.095077e+00	 4.907203e-01	 1.748461e+01
 1.086151e+00	 5.101717e-01	 1.700509e+01
 1.076851e+00	 5.295209e-01	 1.659589e+01
 1.067176e+00	 5.487574e-01	 1.624598e+01
 1.057130e+00	 5.678706e-01	 1.594312e+01
 1.046713e+00	 5.868500e-01	 1.567387e+01
 1.105217e+00	 4.952640e-01	 1.739856e+01
 1.096208e+00	 5.148955e-01	 1.692605e+01
 1.086822e+00	 5.344239e-01	 1.652822e+01
 1.077058e+00	 5.538385e-01	 1.619396e+01
 1.066918e+00	 5.731287e-01	 1.591086e+01
 1.056404e+00	 5.922838e-01	 1.566523e+01
 1.115356e+00	 4.998077e-01	 1.733454e+01
 1.106265e+00	 5.196193e-01	 1.686553e+01
 1.096792e+00	 5.393269e-01	 1.647879e+01
 1.086939e+00	 5.589196e-01	 1.616007e+01
 1.076706e+00	 5.783867e-01	 1.589684e+01
 1.066096e+00	 5.977176e-01	 1.567519e+01
 1.017637e+00	 5.705486e-01	 1.582475e+01
 1.007152e+00	 5.888605e-01	 1.542757e+01
 9.963110e-01	 6.070218e-01	 1.502553e+01
 9.851183e-01	 6.250224e-01	 1.460292e+01
 9.735769e-01	 6.428523e-01	 1.414348e+01
 9.616907e-01	 6.605015e-01	 1.363051e+01
 1.027329e+00	 5.759824e-01	 1.575247e+01
 1.016744e+00	 5.944687e-01	 1.537005e+01
 1.005800e+00	 6.128029e-01	 1.498235e+01
 9.945004e-01	 6.309750e-01	 1.457278e+01
 9.828491e-01	 6.489747e-01	 1.412409e+01
 9.708496e-01	 6.667919e-01	 1.361851e+01
 1.037021e+00	 5.814162e-01	 1.570254e+01
 1.026335e+00	 6.000769e-01	 1.533308e+01
 1.015288e+00	 6.185841e-01	 1.495819e+01
 1.003882e+00	 6.369276e-01	 1.456041e+01
 9.921213e-01	 6.550971e-01	 1.412151e+01
 9.800086e-01	 6.730824e-01	 1.362266e+01
 1.046713e+00	 5.868500e-01	 1.567387e+01
 1.035927e+00	 6.056851e-01	 1.531558e+01
 1.024777e+00	 6.243653e-01	 1.495203e+01
 1.013265e+00	 6.428802e-01	 1.456486e+01
 1.001393e+00	 6.612195e-01	 1.413488e+01
 9.891675e-01	 6.793729e-01	 1.364220e+01
 1.056404e+00	 5.922838e-01	 1.566523e+01
 1.045519e+00	 6.112933e-01	 1.531634e+01
 1.034266e+00	 6.301464e-01	 1.496265e+01
 1.022647e+00	 6.488328e-01	 1.458497e+01
 1.010666e+00	 6.673419e-01	 1.416312e+01
 9.983265e-01	 6.856634e-01	 1.367615e+01
 1.066096e+00	 5.977176e-01	 1.567519e+01
 1.055111e+00	 6.169014e-01	 1.533394e+01
 1.043754e+00	 6.359276e-01	 1.498868e+01
 1.032029e+00	 6.547854e-01	 1.461939e+01
 1.019938e+00	 6.734643e-01	 1.420493e+01
 1.007485e+00	 6.919539e-01	 1.372330e+01
 9.616907e-01	 6.605015e-01	 1.363051e+01
 9.494637e-01	 6.779600e-01	 1.336809e+01
 9.369006e-01	 6.952182e-01	 1.302692e+01
 9.240062e-01	 7.122665e-01	 1.259165e+01
 9.107859e-01	 7.290954e-01	 1.204749e+01
 8.972452e-01	 7.456957e-01	 1.137803e+01
 9.708496e-01	 6.667919e-01	 1.361851e+01
 9.585062e-01	 6.844168e-01	 1.337608e+01
 9.458235e-01	 7.018394e-01	 1.305349e+01
 9.328063e-01	 7.190500e-01	 1.263455e+01
 9.194601e-01	 7.360392e-01	 1.210360e+01
 9.057904e-01	 7.527976e-01	 1.142882e+01
 9.800086e-01	 6.730824e-01	 1.362266e+01
 9.675487e-01	 6.908735e-01	 1.340378e+01
 9.547463e-01	 7.084605e-01	 1.310353e+01
 9.416064e-01	 7.258335e-01	 1.270486e+01
 9.281342e-01	 7.429830e-01	 1.219039e+01
 9.143356e-01	 7.598994e-01	 1.149864e+01
 9.891675e-01	 6.793729e-01	 1.364220e+01
 9.765912e-01	 6.973303e-01	 1.345046e+01
 9.636692e-01	 7.150816e-01	 1.317635e+01
 9.504064e-01	 7.326170e-01	 1.280193e+01
 9.368084e-01	 7.499267e-01	 1.229558e+01
 9.228808e-01	 7.670013e-01	 1.158300e+01
 9.983265e-01	 6.856634e-01	 1.367615e+01
 9.856338e-01	 7.037871e-01	 1.351514e+01
 9.725920e-01	 7.217027e-01	 1.327102e+01
 9.592065e-01	 7.394005e-01	 1.292490e+01
 9.454825e-01	 7.568705e-01	 1.241150e+01
 9.314260e-01	 7.741032e-01	 1.167735e+01
 1.007485e+00	 6.919539e-01	 1.372330e+01
 9.946763e-01	 7.102438e-01	 1.359663e+01
 9.815149e-01	 7.283239e-01	 1.338637e+01
 9.680065e-01	 7.461840e-01	 1.306640e+01
 9.541567e-01	 7.638143e-01	 1.253349e+01
 9.399712e-01	 7.812050e-01	 1.177709e+01
 8.972452e-01	 7.456957e-01	 1.137803e+01
 8.833902e-01	 7.620583e-01	 1.115728e+01
 8.692272e-01	 7.781743e-01	 1.082894e+01
 8.547627e-01	 7.940351e-01	 1.042847e+01
 8.400039e-01	 8.096324e-01	 9.992677e+00
 8.249579e-01	 8.249579e-01	 9.559159e+00
 9.057904e-01	 7.527976e-01	 1.142882e+01
 8.918035e-01	 7.693160e-01	 1.122866e+01
 8.775055e-01	 7.855855e-01	 1.091730e+01
 8.629033e-01	 8.015973e-01	 1.053085e+01
 8.480039e-01	 8.173431e-01	 1.010686e+01
 8.328147e-01	 8.328147e-01	 9.683769e+00
 9.143356e-01	 7.598994e-01	 1.149864e+01
 9.002167e-01	 7.765737e-01	 1.131738e+01
 8.857839e-01	 7.929966e-01	 1.102149e+01
 8.710439e-01	 8.091596e-01	 1.064773e+01
 8.560040e-01	 8.250539e-01	 1.023444e+01
 8.406714e-01	 8.406714e-01	 9.820913e+00
 9.228808e-01	 7.670013e-01	 1.158300e+01
 9.086300e-01	 7.838314e-01	 1.141900e+01
 8.940622e-01	 8.004078e-01	 1.113711e+01
 8.791845e-01	 8.167218e-01	 1.077476e+01
 8.640040e-01	 8.327647e-01	 1.037110e+01
 8.485281e-01	 8.485281e-01	 9.966304e+00
 9.314260e-01	 7.741032e-01	 1.167735e+01
 9.170432e-01	 7.910891e-01	 1.152904e+01
 9.023406e-01	 8.078190e-01	 1.125973e+01
 8.873251e-01	 8.242841e-01	 1.090754e+01
 8.720040e-01	 8.404755e-01	 1.051246e+01
 8.563849e-01	 8.563849e-01	 1.011558e+01
 9.399712e-01	 7.812050e-01	 1.177709e+01
 9.254564e-01	 7.983468e-01	 1.164294e+01
 9.106190e-01	 8.152302e-01	 1.138484e+01
 8.954657e-01	 8.318463e-01	 1.104161e+01
 8.800041e-01	 8.481863e-01	 1.065408e+01
 8.642416e-01	 8.642416e-01	 1.026431e+01
 8.249579e-01	 8.249579e-01	 9.559159e+00
 8.096324e-01	 8.400039e-01	 9.021146e+00
 7.940351e-01	 8.547627e-01	 8.537917e+00
 7.781743e-01	 8.692272e-01	 8.144901e+00
 7.620583e-01	 8.833902e-01	 7.875830e+00
 7.456957e-01	 8.972452e-01	 7.762094e+00
 8.328147e-01	 8.328147e-01	 9.683769e+00
 8.173431e-01	 8.480039e-01	 9.147973e+00
 8.015973e-01	 8.629033e-01	 8.669054e+00
 7.855855e-01	 8.775055e-01	 8.283357e+00
 7.693160e-01	 8.918035e-01	 8.025460e+00
 7.527976e-01	 9.057904e-01	 7.927484e+00
 8.406714e-01	 8.406714e-01	 9.820913e+00
 8.250539e-01	 8.560040e-01	 9.287400e+00
 8.091596e-01	 8.710439e-01	 8.813146e+00
 7.929966e-01	 8.857839e-01	 8.435453e+00
 7.765737e-01	 9.002167e-01	 8.189784e+00
 7.598994e-01	 9.143356e-01	 8.109034e+00
 8.485281e-01	 8.485281e-01	 9.966304e+00
 8.327647e-01	 8.640040e-01	 9.435146e+00
 8.167218e-01	 8.791845e-01	 8.965916e+00
 8.004078e-01	 8.940622e-01	 8.596923e+00
 7.838314e-01	 9.086300e-01	 8.364558e+00
 7.670013e-01	 9.228808e-01	 8.302534e+00
 8.563849e-01	 8.563849e-01	 1.011558e+01
 8.404755e-01	 8.720040e-01	 9.586844e+00
 8.242841e-01	 8.873251e-01	 9.123000e+00
 8.078190e-01	 9.023406e-01	 8.763405e+00
 7.910891e-01	 9.170432e-01	 8.545430e+00
 7.741032e-01	 9.314260e-01	 8.503651e+00
 8.642416e-01	 8.642416e-01	 1.026431e+01
 8.481863e-01	 8.800041e-01	 9.738065e+00
 8.318463e-01	 8.954657e-01	 9.279957e+00
 8.152302e-01	 9.106190e-01	 8.930451e+00
 7.983468e-01	 9.254564e-01	 8.727952e+00
 7.812050e-01	 9.399712e-01	 8.707951e+00
 7.456957e-01	 8.972452e-01	 7.762094e+00
 7.290954e-01	 9.107859e-01	 7.151808e+00
 7.122665e-01	 9.240062e-01	 6.646210e+00
 6.952182e-01	 9.369006e-01	 6.247245e+00
 6.779600e-01	 9.494637e-01	 5.953132e+00
 6.605015e-01	 9.616907e-01	 5.758432e+00
 7.527976e-01	 9.057904e-01	 7.927484e+00
 7.360392e-01	 9.194601e-01	 7.292921e+00
 7.190500e-01	 9.328063e-01	 6.773459e+00
 7.018394e-01	 9.458235e-01	 6.370772e+00
 6.844168e-01	 9.585062e-01	 6.082758e+00
 6.667919e-01	 9.708496e-01	 5.903475e+00
 7.598994e-01	 9.143356e-01	 8.109034e+00
 7.429830e-01	 9.281342e-01	 7.450879e+00
 7.258335e-01	 9.416064e-01	 6.918418e+00
 7.084605e-01	 9.547463e-01	 6.513496e+00
 6.908735e-01	 9.675487e-01	 6.233625e+00
 6.730824e-01	 9.800086e-01	 6.072322e+00
 7.670013e-01	 9.228808e-01	 8.302534e+00
 7.499267e-01	 9.368084e-01	 7.622434e+00
 7.326170e-01	 9.504064e-01	 7.077382e+00
 7.150816e-01	 9.636692e-01	 6.671791e+00
 6.973303e-01	 9.765912e-01	 6.402202e+00
 6.793729e-01	 9.891675e-01	 6.261561e+00
 7.741032e-01	 9.314260e-01	 8.503651e+00
 7.568705e-01	 9.454825e-01	 7.803525e+00
 7.394005e-01	 9.592065e-01	 7.246510e+00
 7.217027e-01	 9.725920e-01	 6.841893e+00
 7.037871e-01	 9.856338e-01	 6.584824e+00
 6.856634e-01	 9.983265e-01	 6.467647e+00
 7.812050e-01	 9.399712e-01	 8.707951e+00
 7.638143e-01	 9.541567e-01	 7.989744e+00
 7.461840e-01	 9.680065e-01	 7.422223e+00
 7.283239e-01	 9.815149e-01	 7.019900e+00
 7.102438e-01	 9.946763e-01	 6.777696e+00
 6.919539e-01	 1.007485e+00	 6.686907e+00
 6.605015e-01	 9.616907e-01	 5.758432e+00
 6.428523e-01	 9.735769e-01	 5.347137e+00
 6.250224e-01	 9.851183e-01	 4.983110e+00
 6.070218e-01	 9.963110e-01	 4.649993e+00
 5.888605e-01	 1.007152e+00	 4.328851e+00
 5.705486e-01	 1.017637e+00	 3.998485e+00
 6.667919e-01	 9.708496e-01	 5.903475e+00
 6.489747e-01	 9.828491e-01	 5.492918e+00
 6.309750e-01	 9.945004e-01	 5.126472e+00
 6.128029e-01	 1.005800e+00	 4.786507e+00
 5.944687e-01	 1.016744e+00	 4.452720e+00
 5.759824e-01	 1.027329e+00	 4.102457e+00
 6.730824e-01	 9.800086e-01	 6.072322e+00
 6.550971e-01	 9.921213e-01	 5.662166e+00
 6.369276e-01	 1.003882e+00	 5.293611e+00
 6.185841e-01	 1.015288e+00	 4.947710e+00
 6.000769e-01	 1.026335e+00	 4.602737e+00
 5.814162e-01	 1.037021e+00	 4.234529e+00
 6.793729e-01	 9.891675e-01	 6.261561e+00
 6.612195e-01	 1.001393e+00	 5.851698e+00
 6.428802e-01	 1.013265e+00	 5.481586e+00
 6.243653e-01	 1.024777e+00	 5.130913e+00
 6.056851e-01	 1.035927e+00	 4.776474e+00
 5.868500e-01	 1.046713e+00	 4.392542e+00
 6.856634e-01	 9.983265e-01	 6.467647e+00
 6.673419e-01	 1.010666e+00	 6.058201e+00
 6.488328e-01	 1.022647e+00	 5.687326e+00
 6.301464e-01	 1.034266e+00	 5.333295e+00
 6.112933e-01	 1.045519e+00	 4.971373e+00
 5.922838e-01	 1.056404e+00	 4.574203e+00
 6.919539e-01	 1.007485e+00	 6.686907e+00
 6.734643e-01	 1.019938e+00	 6.278230e+00
 6.547854e-01	 1.032029e+00	 5.907628e+00
 6.359276e-01	 1.043754e+00	 5.551907e+00
 6.169014e-01	 1.055111e+00	 5.184746e+00
 5.977176e-01	 1.066096e+00	 4.777097e+00
 5.705486e-01	 1.017637e+00	 3.998485e+00
 5.520964e-01	 1.027765e+00	 3.782964e+00
 5.335141e-01	 1.037533e+00	 3.554968e+00
 5.148120e-01	 1.046938e+00	 3.289494e+00
 4.960003e-01	 1.055981e+00	 2.960529e+00
 4.770892e-01	 1.064658e+00	 2.541420e+00
 5.759824e-01	 1.027329e+00	 4.102457e+00
 5.573545e-01	 1.037553e+00	 3.877406e+00
 5.385952e-01	 1.047414e+00	 3.636883e+00
 5.197150e-01	 1.056909e+00	 3.354291e+00
 5.007241e-01	 1.066037e+00	 3.001993e+00
 4.816329e-01	 1.074798e+00	 2.551694e+00
 5.814162e-01	 1.037021e+00	 4.234529e+00
 5.626126e-01	 1.047341e+00	 4.003129e+00
 5.436763e-01	 1.057295e+00	 3.753485e+00
 5.246179e-01	 1.066880e+00	 3.457346e+00
 5.054479e-01	 1.076094e+00	 3.085378e+00
 4.861766e-01	 1.084937e+00	 2.607573e+00
 5.868500e-01	 1.046713e+00	 4.392542e+00
 5.678706e-01	 1.057130e+00	 4.158220e+00
 5.487574e-01	 1.067176e+00	 3.903121e+00
 5.295209e-01	 1.076851e+00	 3.597265e+00
 5.101717e-01	 1.086151e+00	 3.209555e+00
 4.907203e-01	 1.095077e+00	 2.708197e+00
 5.922838e-01	 1.056404e+00	 4.574203e+00
 5.731287e-01	 1.066918e+00	 4.340643e+00
 5.538385e-01	 1.077058e+00	 4.084012e+00
 5.344239e-01	 1.086822e+00	 3.772537e+00
 5.148955e-01	 1.096208e+00	 3.373280e+00
 4.952640e-01	 1.105217e+00	 2.852589e+00
 5.977176e-01	 1.066096e+00	 4.777097e+00
 5.783867e-01	 1.076706e+00	 4.548235e+00
 5.589196e-01	 1.086939e+00	 4.294260e+00
 5.393269e-01	 1.096792e+00	 3.981528e+00
 5.196193e-01	 1.106265e+00	 3.575191e+00
 4.998077e-01	 1.115356e+00	 3.021409e+00
 4.770892e-01	 1.064658e+00	 2.541420e+00
 4.580890e-01	 1.072970e+00	 2.467970e+00
 4.390098e-01	 1.080917e+00	 2.342088e+00
 4.198619e-01	 1.088498e+00	 2.137845e+00
 4.006550e-01	 1.095713e+00	 1.829781e+00
 3.813994e-01	 1.102563e+00	 1.393229e+00
 4.816329e-01	 1.074798e+00	 2.551694e+00
 4.624518e-01	 1.083189e+00	 2.478899e+00
 4.431909e-01	 1.091211e+00	 2.375223e+00
 4.238605e-01	 1.098864e+00	 2.213643e+00
 4.044708e-01	 1.106148e+00	 1.967545e+00
 3.850317e-01	 1.113064e+00	 1.607468e+00
 4.861766e-01	 1.084937e+00	 2.607573e+00
 4.668145e-01	 1.093408e+00	 2.548188e+00
 4.473719e-01	 1.101506e+00	 2.478718e+00
 4.278592e-01	 1.109231e+00	 2.370966e+00
 4.082866e-01	 1.116584e+00	 2.168009e+00
 3.886641e-01	 1.123564e+00	 1.782674e+00
 4.907203e-01	 1.095077e+00	 2.708197e+00
 4.711773e-01	 1.103627e+00	 2.674989e+00
 4.515530e-01	 1.111800e+00	 2.651272e+00
 4.318579e-01	 1.119598e+00	 2.537647e+00
 4.121023e-01	 1.127019e+00	 2.270934e+00
 3.922965e-01	 1.134065e+00	 1.846416e+00
 4.952640e-01	 1.105217e+00	 2.852589e+00
 4.755400e-01	 1.113846e+00	 2.850790e+00
 4.557340e-01	 1.122095e+00	 2.772188e+00
 4.358566e-01	 1.129964e+00	 2.573640e+00
 4.159181e-01	 1.137454e+00	 2.249293e+00
 3.959289e-01	 1.144566e+00	 1.795134e+00
 4.998077e-01	 1.115356e+00	 3.021409e+00
 4.799028e-01	 1.124064e+00	 2.927430e+00
 4.599151e-01	 1.132389e+00	 2.746925e+00
 4.398553e-01	 1.140331e+00	 2.472808e+00
 4.197339e-01	 1.147890e+00	 2.100056e+00
 3.995612e-01	 1.155066e+00	 1.625432e+00
 3.813994e-01	 1.102563e+00	 1.393229e+00
 3.621046e-01	 1.109050e+00	 1.224016e+00
 3.427806e-01	 1.115174e+00	 1.081204e+00
 3.234368e-01	 1.120937e+00	 9.258873e-01
 3.040827e-01	 1.126341e+00	 7.729058e-01
 2.847276e-01	 1.131389e+00	 6.425017e-01
 3.850317e-01	 1.113064e+00	 1.607468e+00
 3.655533e-01	 1.119612e+00	 1.497626e+00
 3.460452e-01	 1.125794e+00	 1.350531e+00
 3.265172e-01	 1.131613e+00	 1.185887e+00
 3.069787e-01	 1.137068e+00	 1.023236e+00
 2.874393e-01	 1.142164e+00	 8.835585e-01
 3.886641e-01	 1.123564e+00	 1.782674e+00
 3.690019e-01	 1.130175e+00	 1.671882e+00
 3.493097e-01	 1.136415e+00	 1.521592e+00
 3.295975e-01	 1.142288e+00	 1.352739e+00
 3.098748e-01	 1.147795e+00	 1.185731e+00
 2.901510e-01	 1.152939e+00	 1.042307e+00
 3.922965e-01	 1.134065e+00	 1.846416e+00
 3.724505e-01	 1.140737e+00	 1.738802e+00
 3.525743e-01	 1.147036e+00	 1.590347e+00
 3.326779e-01	 1.152964e+00	 1.422454e+00
 3.127708e-01	 1.158523e+00	 1.256487e+00
 2.928627e-01	 1.163715e+00	 1.114973e+00
 3.959289e-01	 1.144566e+00	 1.795134e+00
 3.758991e-01	 1.151299e+00	 1.694338e+00
 3.558389e-01	 1.157657e+00	 1.552857e+00
 3.357582e-01	 1.163639e+00	 1.391118e+00
 3.156668e-01	 1.169250e+00	 1.231661e+00
 2.955744e-01	 1.174490e+00	 1.097825e+00
 3.995612e-01	 1.155066e+00	 1.625432e+00
 3.793477e-01	 1.161862e+00	 1.534892e+00
 3.591035e-01	 1.168277e+00	 1.405292e+00
 3.388386e-01	 1.174315e+00	 1.254905e+00
 3.185628e-01	 1.179977e+00	 1.107474e+00
 2.982861e-01	 1.185265e+00	 9.871759e-01
 2.847276e-01	 1.131389e+00	 6.425017e-01
 2.653806e-01	 1.136083e+00	 4.610041e-01
 2.460506e-01	 1.140425e+00	 2.877701e-01
 2.267463e-01	 1.144420e+00	 1.452718e-01
 2.074764e-01	 1.148070e+00	 5.587107e-02
 1.882492e-01	 1.151379e+00	 4.153760e-02
 2.874393e-01	 1.142164e+00	 8.835585e-01
 2.679080e-01	 1.146903e+00	 6.887387e-01
 2.483939e-01	 1.151287e+00	 5.018237e-01
 2.289058e-01	 1.155319e+00	 3.457717e-01
 2.094524e-01	 1.159004e+00	 2.433302e-01
 1.900420e-01	 1.162344e+00	 2.167602e-01
 2.901510e-01	 1.152939e+00	 1.042307e+00
 2.704354e-01	 1.157723e+00	 8.402366e-01
 2.507372e-01	 1.162148e+00	 6.459703e-01
 2.310653e-01	 1.166219e+00	 4.829347e-01
 2.114284e-01	 1.169938e+00	 3.742334e-01
 1.918349e-01	 1.173310e+00	 3.423782e-01
 2.928627e-01	 1.163715e+00	 1.114973e+00
 2.729629e-01	 1.168542e+00	 9.118821e-01
 2.530806e-01	 1.173009e+00	 7.167902e-01
 2.332248e-01	 1.177118e+00	 5.535723e-01
 2.134043e-01	 1.180872e+00	 4.456550e-01
 1.936277e-01	 1.184275e+00	 4.157570e-01
 2.955744e-01	 1.174490e+00	 1.097825e+00
 2.754903e-01	 1.179362e+00	 9.000880e-01
 2.554239e-01	 1.183870e+00	 7.108801e-01
 2.353843e-01	 1.188017e+00	 5.545016e-01
 2.153803e-01	 1.191806e+00	 4.546667e-01
 1.954206e-01	 1.195241e+00	 4.342528e-01
 2.982861e-01	 1.185265e+00	 9.871759e-01
 2.780177e-01	 1.190182e+00	 8.012980e-01
 2.577673e-01	 1.194731e+00	 6.248545e-01
 2.375438e-01	 1.198916e+00	 4.825473e-01
 2.173563e-01	 1.202740e+00	 3.983389e-01
 1.972134e-01	 1.206206e+00	 3.952137e-01
 1.882492e-01	 1.151379e+00	 4.153760e-02
 1.690727e-01	 1.154351e+00	-5.146822e-02
 1.499550e-01	 1.156989e+00	-1.455757e-01
 1.309037e-01	 1.159300e+00	-2.194781e-01
 1.119262e-01	 1.161285e+00	-2.526095e-01
 9.302982e-02	 1.162952e+00	-2.252277e-01
 1.900420e-01	 1.162344e+00	 2.167602e-01
 1.706830e-01	 1.165345e+00	 1.038659e-01
 1.513831e-01	 1.168008e+00	-9.543095e-03
 1.321504e-01	 1.170340e+00	-1.020349e-01
 1.129922e-01	 1.172345e+00	-1.529607e-01
 9.391582e-02	 1.174027e+00	-1.425219e-01
 1.918349e-01	 1.173310e+00	 3.423782e-01
 1.722932e-01	 1.176338e+00	 2.171379e-01
 1.528113e-01	 1.179027e+00	 9.204173e-02
 1.333971e-01	 1.181381e+00	-1.141774e-02
 1.140581e-01	 1.183405e+00	-7.257788e-02
 9.480181e-02	 1.185103e+00	-7.165553e-02
 1.936277e-01	 1.184275e+00	 4.157570e-01
 1.739034e-01	 1.187332e+00	 2.860151e-01
 1.542394e-01	 1.190046e+00	 1.571671e-01
 1.346438e-01	 1.192422e+00	 5.069677e-02
 1.151241e-01	 1.194465e+00	-1.279385e-02
 9.568781e-02	 1.196179e+00	-1.361430e-02
 1.954206e-01	 1.195241e+00	 4.342528e-01
 1.755136e-01	 1.198326e+00	 3.081513e-01
 1.556676e-01	 1.201065e+00	 1.838051e-01
 1.358905e-01	 1.203463e+00	 8.261421e-02
 1.161901e-01	 1.205525e+00	 2.504044e-02
 9.657381e-02	 1.207255e+00	 3.059845e-02
 1.972134e-01	 1.206206e+00	 3.952137e-01
 1.771238e-01	 1.209320e+00	 2.811876e-01
 1.570957e-01	 1.212084e+00	 1.699119e-01
 1.371372e-01	 1.214504e+00	 8.262285e-02
 1.172560e-01	 1.216585e+00	 3.955638e-02
 9.745981e-02	 1.218330e+00	 5.996239e-02
 9.302982e-02	 1.162952e+00	-2.252277e-01
 7.422150e-02	 1.164303e+00	-2.543308e-01
 5.550798e-02	 1.165345e+00	-2.916922e-01
 3.689577e-02	 1.166083e+00	-3.180986e-01
 1.839111e-02	 1.166522e+00	-3.151084e-01
 0.000000e+00	 1.166667e+00	-2.650941e-01
 9.391582e-02	 1.174027e+00	-1.425219e-01
 7.492837e-02	 1.175392e+00	-1.885732e-01
 5.603663e-02	 1.176444e+00	-2.423420e-01
 3.724716e-02	 1.177189e+00	-2.845014e-01
 1.856626e-02	 1.177631e+00	-2.964595e-01
 0.000000e+00	 1.177778e+00	-2.603888e-01
 9.480181e-02	 1.185103e+00	-7.165553e-02
 7.563524e-02	 1.186481e+00	-1.270660e-01
 5.656528e-02	 1.187542e+00	-1.899263e-01
 3.759855e-02	 1.188294e+00	-2.408666e-01
 1.874142e-02	 1.188741e+00	-2.612121e-01
 0.000000e+00	 1.188889e+00	-2.329978e-01
 9.568781e-02	 1.196179e+00	-1.361430e-02
 7.634211e-02	 1.197569e+00	-7.046078e-02
 5.709393e-02	 1.198641e+00	-1.347707e-01
 3.794994e-02	 1.199400e+00	-1.872078e-01
 1.891657e-02	 1.199851e+00	-2.090871e-01
 0.000000e+00	 1.200000e+00	-1.823739e-01
 9.657381e-02	 1.207255e+00	 3.059845e-02
 7.704898e-02	 1.208658e+00	-1.942481e-02
 5.762257e-02	 1.209740e+00	-7.721404e-02
 3.830132e-02	 1.210505e+00	-1.235491e-01
 1.909172e-02	 1.210961e+00	-1.398131e-01
 0.000000e+00	 1.211111e+00	-1.079749e-01
 9.745981e-02	 1.218330e+00	 5.996239e-02
 7.775585e-02	 1.219746e+00	 2.535950e-02
 5.815122e-02	 1.220838e+00	-1.760812e-02
 3.865271e-02	 1.221611e+00	-4.992465e-02
 1.926688e-02	 1.222070e+00	-5.312591e-02
 0.000000e+00	 1.222222e+00	-9.263057e-03
 1.222222e+00	 0.000000e+00	 2.048022e+01
 1.222070e+00	 1.926688e-02	 2.053504e+01
 1.221611e+00	 3.865271e-02	 2.054718e+01
 1.220838e+00	 5.815122e-02	 2.052080e+01
 1.219746e+00	 7.775585e-02	 2.046014e+01
 1.218330e+00	 9.745981e-02	 2.036945e+01
 1.233333e+00	 0.000000e+00	 2.017289e+01
 1.233180e+00	 1.944203e-02	 2.022436e+01
 1.232716e+00	 3.900410e-02	 2.023425e+01
 1.231937e+00	 5.867987e-02	 2.020679e+01
 1.230835e+00	 7.846273e-02	 2.014620e+01
 1.229406e+00	 9.834581e-02	 2.005671e+01
 1.244444e+00	 0.000000e+00	 1.987909e+01
 1.244290e+00	 1.961718e-02	 1.992824e+01
 1.243822e+00	 3.935549e-02	 1.993711e+01
 1.243035e+00	 5.920851e-02	 1.990993e+01
 1.241924e+00	 7.916960e-02	 1.985089e+01
 1.240482e+00	 9.923181e-02	 1.976422e+01
 1.255556e+00	 0.000000e+00	 1.959749e+01
 1.255400e+00	 1.979234e-02	 1.964545e+01
 1.254928e+00	 3.970688e-02	 1.965461e+01
 1.254134e+00	 5.973716e-02	 1.962915e+01
 1.253012e+00	 7.987647e-02	 1.957327e+01
 1.251558e+00	 1.001178e-01	 1.949110e+01
 1.266667e+00	 0.000000e+00	 1.932678e+01
 1.266509e+00	 1.996749e-02	 1.937478e+01
 1.266033e+00	 4.005827e-02	 1.938561e+01
 1.265232e+00	 6.026581e-02	 1.936343e+01
 1.264101e+00	 8.058334e-02	 1.931236e+01
 1.262633e+00	 1.010038e-01	 1.923649e+01
 1.277778e+00	 0.000000e+00	 1.906567e+01
 1.277619e+00	 2.014264e-02	 1.911501e+01
 1.277139e+00	 4.040965e-02	 1.912899e+01
 1.276331e+00	 6.079446e-02	 1.911172e+01
 1.275189e+00	 8.129021e-02	 1.906724e+01
 1.273709e+00	 1.018898e-01	 1.899953e+01
 1.218330e+00	 9.745981e-02	 2.036945e+01
 1.216585e+00	 1.172560e-01	 2.036751e+01
 1.214504e+00	 1.371372e-01	 2.032301e+01
 1.212084e+00	 1.570957e-01	 2.023969e+01
 1.209320e+00	 1.771238e-01	 2.012132e+01
 1.206206e+00	 1.972134e-01	 1.997170e+01
 1.229406e+00	 9.834581e-02	 2.005671e+01
 1.227644e+00	 1.183220e-01	 2.005462e+01
 1.225545e+00	 1.383839e-01	 2.001100e+01
 1.223103e+00	 1.585239e-01	 1.992950e+01
 1.220314e+00	 1.787340e-01	 1.981377e+01
 1.217172e+00	 1.990063e-01	 1.966749e+01
 1.240482e+00	 9.923181e-02	 1.976422e+01
 1.238704e+00	 1.193880e-01	 1.976295e+01
 1.236586e+00	 1.396306e-01	 1.972128e+01
 1.234122e+00	 1.599520e-01	 1.964270e+01
 1.231307e+00	 1.803443e-01	 1.953074e+01
 1.228137e+00	 2.007991e-01	 1.938898e+01
 1.251558e+00	 1.001178e-01	 1.949110e+01
 1.249764e+00	 1.204539e-01	 1.949174e+01
 1.247627e+00	 1.408773e-01	 1.945315e+01
 1.245141e+00	 1.613801e-01	 1.937868e+01
 1.242301e+00	 1.819545e-01	 1.927174e+01
 1.239103e+00	 2.025920e-01	 1.913574e+01
 1.262633e+00	 1.010038e-01	 1.923649e+01
 1.260824e+00	 1.215199e-01	 1.924022e+01
 1.258668e+00	 1.421240e-01	 1.920594e+01
 1.256160e+00	 1.628083e-01	 1.913688e+01
 1.253295e+00	 1.835647e-01	 1.903626e+01
 1.250069e+00	 2.043848e-01	 1.890734e+01
 1.273709e+00	 1.018898e-01	 1.899953e+01
 1.271884e+00	 1.225858e-01	 1.900762e+01
 1.269709e+00	 1.433707e-01	 1.897901e+01
 1.267179e+00	 1.642364e-01	 1.891672e+01
 1.264289e+00	 1.851749e-01	 1.882381e+01
 1.261034e+00	 2.061777e-01	 1.870337e+01
 1.206206e+00	 1.972134e-01	 1.997170e+01
 1.202740e+00	 2.173563e-01	 1.991735e+01
 1.198916e+00	 2.375438e-01	 1.981733e+01
 1.194731e+00	 2.577673e-01	 1.967525e+01
 1.190182e+00	 2.780177e-01	 1.949465e+01
 1.185265e+00	 2.982861e-01	 1.927898e+01
 1.217172e+00	 1.990063e-01	 1.966749e+01
 1.213674e+00	 2.193322e-01	 1.961913e+01
 1.209815e+00	 2.397033e-01	 1.952519e+01
 1.205593e+00	 2.601106e-01	 1.938918e+01
 1.201002e+00	 2.805452e-01	 1.921455e+01
 1.196040e+00	 3.009977e-01	 1.900468e+01
 1.228137e+00	 2.007991e-01	 1.938898e+01
 1.224608e+00	 2.213082e-01	 1.934767e+01
 1.220715e+00	 2.418628e-01	 1.926090e+01
 1.216454e+00	 2.624539e-01	 1.913206e+01
 1.211822e+00	 2.830726e-01	 1.896450e+01
 1.206815e+00	 3.037094e-01	 1.876154e+01
 1.239103e+00	 2.025920e-01	 1.913574e+01
 1.235542e+00	 2.232842e-01	 1.910263e+01
 1.231614e+00	 2.440223e-01	 1.902418e+01
 1.227315e+00	 2.647973e-01	 1.890365e+01
 1.222642e+00	 2.856000e-01	 1.874430e+01
 1.217590e+00	 3.064211e-01	 1.854938e+01
 1.250069e+00	 2.043848e-01	 1.890734e+01
 1.246476e+00	 2.252601e-01	 1.888366e+01
 1.242513e+00	 2.461817e-01	 1.881473e+01
 1.238176e+00	 2.671406e-01	 1.870370e+01
 1.233461e+00	 2.881275e-01	 1.855375e+01
 1.228365e+00	 3.091328e-01	 1.836803e+01
 1.261034e+00	 2.061777e-01	 1.870337e+01
 1.257410e+00	 2.272361e-01	 1.869039e+01
 1.253412e+00	 2.483412e-01	 1.863225e+01
 1.249037e+00	 2.694840e-01	 1.853197e+01
 1.244281e+00	 2.906549e-01	 1.839262e+01
 1.239140e+00	 3.118445e-01	 1.821728e+01
 1.185265e+00	 2.982861e-01	 1.927898e+01
 1.179977e+00	 3.185628e-01	 1.917475e+01
 1.174315e+00	 3.388386e-01	 1.903080e+01
 1.168277e+00	 3.591035e-01	 1.884979e+01
 1.161862e+00	 3.793477e-01	 1.864421e+01
 1.155066e+00	 3.995612e-01	 1.849430e+01
 1.196040e+00	 3.009977e-01	 1.900468e+01
 1.190704e+00	 3.214589e-01	 1.890694e+01
 1.184991e+00	 3.419189e-01	 1.876880e+01
 1.178898e+00	 3.623681e-01	 1.859277e+01
 1.172424e+00	 3.827963e-01	 1.839985e+01
 1.165567e+00	 4.031936e-01	 1.826793e+01
 1.206815e+00	 3.037094e-01	 1.876154e+01
 1.201431e+00	 3.243549e-01	 1.867034e+01
 1.195666e+00	 3.449993e-01	 1.853808e+01
 1.189519e+00	 3.656326e-01	 1.836713e+01
 1.182986e+00	 3.862449e-01	 1.818898e+01
 1.176067e+00	 4.068260e-01	 1.807382e+01
 1.217590e+00	 3.064211e-01	 1.854938e+01
 1.212158e+00	 3.272509e-01	 1.846483e+01
 1.206342e+00	 3.480796e-01	 1.833856e+01
 1.200139e+00	 3.688972e-01	 1.817282e+01
 1.193549e+00	 3.896936e-01	 1.801115e+01
 1.186568e+00	 4.104584e-01	 1.791138e+01
 1.228365e+00	 3.091328e-01	 1.836803e+01
 1.222885e+00	 3.301469e-01	 1.829028e+01
 1.217017e+00	 3.511600e-01	 1.817014e+01
 1.210760e+00	 3.721618e-01	 1.801010e+01
 1.204111e+00	 3.931422e-01	 1.786580e+01
 1.197069e+00	 4.140907e-01	 1.777994e+01
 1.239140e+00	 3.118445e-01	 1.821728e+01
 1.233612e+00	 3.330430e-01	 1.814651e+01
 1.227693e+00	 3.542403e-01	 1.803267e+01
 1.221381e+00	 3.754264e-01	 1.788034e+01
 1.214674e+00	 3.965908e-01	 1.775231e+01
 1.207569e+00	 4.177231e-01	 1.767873e+01
 1.155066e+00	 3.995612e-01	 1.849430e+01
 1.147890e+00	 4.197339e-01	 1.808066e+01
 1.140331e+00	 4.398553e-01	 1.775608e+01
 1.132389e+00	 4.599151e-01	 1.752284e+01
 1.124064e+00	 4.799028e-01	 1.738229e+01
 1.115356e+00	 4.998077e-01	 1.733454e+01
 1.165567e+00	 4.031936e-01	 1.826793e+01
 1.158325e+00	 4.235496e-01	 1.787057e+01
 1.150698e+00	 4.438540e-01	 1.756240e+01
 1.142684e+00	 4.640961e-01	 1.734615e+01
 1.134283e+00	 4.842655e-01	 1.722365e+01
 1.125496e+00	 5.043514e-01	 1.719552e+01
 1.176067e+00	 4.068260e-01	 1.807382e+01
 1.168760e+00	 4.273654e-01	 1.769135e+01
 1.161064e+00	 4.478526e-01	 1.739795e+01
 1.152978e+00	 4.682772e-01	 1.719684e+01
 1.144502e+00	 4.886283e-01	 1.709038e+01
 1.135635e+00	 5.088951e-01	 1.707975e+01
 1.186568e+00	 4.104584e-01	 1.791138e+01
 1.179196e+00	 4.311811e-01	 1.754226e+01
 1.171431e+00	 4.518513e-01	 1.726186e+01
 1.163273e+00	 4.724582e-01	 1.707393e+01
 1.154721e+00	 4.929910e-01	 1.698137e+01
 1.145775e+00	 5.134389e-01	 1.698596e+01
 1.197069e+00	 4.140907e-01	 1.777994e+01
 1.189631e+00	 4.349969e-01	 1.742251e+01
 1.181797e+00	 4.558500e-01	 1.715323e+01
 1.173567e+00	 4.766393e-01	 1.697636e+01
 1.164939e+00	 4.973538e-01	 1.689542e+01
 1.155915e+00	 5.179826e-01	 1.691282e+01
 1.207569e+00	 4.177231e-01	 1.767873e+01
 1.200066e+00	 4.388127e-01	 1.733123e+01
 1.192164e+00	 4.598487e-01	 1.707102e+01
 1.183861e+00	 4.808203e-01	 1.690299e+01
 1.175158e+00	 5.017165e-01	 1.683126e+01
 1.166054e+00	 5.225263e-01	 1.685892e+01
 1.115356e+00	 4.998077e-01	 1.733454e+01
 1.106265e+00	 5.196193e-01	 1.686553e+01
 1.096792e+00	 5.393269e-01	 1.647879e+01
 1.086939e+00	 5.589196e-01	 1.616007e+01
 1.076706e+00	 5.783867e-01	 1.589684e+01
 1.066096e+00	 5.977176e-01	 1.567519e+01
 1.125496e+00	 5.043514e-01	 1.719552e+01
 1.116322e+00	 5.243431e-01	 1.671777e+01
 1.106763e+00	 5.442298e-01	 1.634641e+01
 1.096820e+00	 5.640007e-01	 1.604953e+01
 1.086494e+00	 5.836448e-01	 1.581064e+01
 1.075788e+00	 6.031514e-01	 1.561632e+01
 1.135635e+00	 5.088951e-01	 1.707975e+01
 1.126379e+00	 5.290670e-01	 1.659476e+01
 1.116734e+00	 5.491328e-01	 1.622012e+01
 1.106701e+00	 5.690817e-01	 1.594611e+01
 1.096283e+00	 5.889029e-01	 1.573809e+01
 1.085480e+00	 6.085852e-01	 1.557798e+01
 1.145775e+00	 5.134389e-01	 1.698596e+01
 1.136436e+00	 5.337908e-01	 1.649887e+01
 1.126705e+00	 5.540358e-01	 1.612298e+01
 1.116583e+00	 5.741628e-01	 1.585314e+01
 1.106071e+00	 5.941609e-01	 1.567740e+01
 1.095171e+00	 6.140190e-01	 1.555807e+01
 1.155915e+00	 5.179826e-01	 1.691282e+01
 1.146493e+00	 5.385146e-01	 1.642844e+01
 1.136676e+00	 5.589387e-01	 1.605610e+01
 1.126464e+00	 5.792439e-01	 1.579214e+01
 1.115859e+00	 5.994190e-01	 1.563008e+01
 1.104863e+00	 6.194528e-01	 1.555428e+01
 1.166054e+00	 5.225263e-01	 1.685892e+01
 1.156550e+00	 5.432384e-01	 1.638173e+01
 1.146647e+00	 5.638417e-01	 1.601742e+01
 1.136345e+00	 5.843250e-01	 1.576386e+01
 1.125647e+00	 6.046770e-01	 1.561610e+01
 1.114555e+00	 6.248866e-01	 1.556590e+01
 1.066096e+00	 5.977176e-01	 1.567519e+01
 1.055111e+00	 6.169014e-01	 1.533394e+01
 1.043754e+00	 6.359276e-01	 1.498868e+01
 1.032029e+00	 6.547854e-01	 1.461939e+01
 1.019938e+00	 6.734643e-01	 1.420493e+01
 1.007485e+00	 6.919539e-01	 1.372330e+01
 1.075788e+00	 6.031514e-01	 1.561632e+01
 1.064703e+00	 6.225096e-01	 1.527981e+01
 1.053243e+00	 6.417087e-01	 1.494053e+01
 1.041411e+00	 6.607380e-01	 1.457756e+01
 1.029210e+00	 6.795867e-01	 1.416872e+01
 1.016644e+00	 6.982444e-01	 1.369084e+01
 1.085480e+00	 6.085852e-01	 1.557798e+01
 1.074295e+00	 6.281178e-01	 1.524354e+01
 1.062732e+00	 6.474899e-01	 1.490796e+01
 1.050793e+00	 6.666906e-01	 1.454941e+01
 1.038482e+00	 6.857091e-01	 1.414471e+01
 1.025803e+00	 7.045349e-01	 1.366952e+01
 1.095171e+00	 6.140190e-01	 1.555807e+01
 1.083887e+00	 6.337260e-01	 1.522302e+01
 1.072220e+00	 6.532711e-01	 1.488886e+01
 1.060175e+00	 6.726432e-01	 1.453287e+01
 1.047754e+00	 6.918315e-01	 1.413088e+01
 1.034962e+00	 7.108254e-01	 1.365739e+01
 1.104863e+00	 6.194528e-01	 1.555428e+01
 1.093479e+00	 6.393342e-01	 1.521592e+01
 1.081709e+00	 6.590522e-01	 1.488087e+01
 1.069557e+00	 6.785958e-01	 1.452561e+01
 1.057026e+00	 6.979539e-01	 1.412495e+01
 1.044121e+00	 7.171159e-01	 1.365227e+01
 1.114555e+00	 6.248866e-01	 1.556590e+01
 1.103071e+00	 6.449424e-01	 1.521969e+01
 1.091198e+00	 6.648334e-01	 1.488146e+01
 1.078939e+00	 6.845484e-01	 1.452509e+01
 1.066299e+00	 7.040763e-01	 1.412442e+01
 1.053280e+00	 7.234064e-01	 1.365171e+01
 1.007485e+00	 6.919539e-01	 1.372330e+01
 9.946763e-01	 7.102438e-01	 1.359663e+01
 9.815149e-01	 7.283239e-01	 1.338637e+01
 9.680065e-01	 7.461840e-01	 1.306640e+01
 9.541567e-01	 7.638143e-01	 1.253349e+01
 9.399712e-01	 7.812050e-01	 1.177709e+01
 1.016644e+00	 6.982444e-01	 1.369084e+01
 1.003719e+00	 7.167006e-01	 1.360313e+01
 9.904378e-01	 7.349450e-01	 1.343416e+01
 9.768066e-01	 7.529675e-01	 1.312971e+01
 9.628308e-01	 7.707580e-01	 1.258524e+01
 9.485164e-01	 7.883069e-01	 1.181800e+01
 1.025803e+00	 7.045349e-01	 1.366952e+01
 1.012761e+00	 7.231573e-01	 1.362592e+01
 9.993606e-01	 7.415661e-01	 1.350350e+01
 9.856066e-01	 7.597510e-01	 1.319587e+01
 9.715050e-01	 7.777018e-01	 1.264056e+01
 9.570616e-01	 7.954087e-01	 1.186326e+01
 1.034962e+00	 7.108254e-01	 1.365739e+01
 1.021804e+00	 7.296141e-01	 1.366300e+01
 1.008283e+00	 7.481872e-01	 1.357824e+01
 9.944067e-01	 7.665344e-01	 1.325999e+01
 9.801791e-01	 7.846456e-01	 1.269459e+01
 9.656068e-01	 8.025106e-01	 1.190802e+01
 1.044121e+00	 7.171159e-01	 1.365227e+01
 1.030846e+00	 7.360709e-01	 1.371216e+01
 1.017206e+00	 7.548084e-01	 1.364527e+01
 1.003207e+00	 7.733179e-01	 1.331717e+01
 9.888533e-01	 7.915893e-01	 1.274251e+01
 9.741520e-01	 8.096125e-01	 1.194748e+01
 1.053280e+00	 7.234064e-01	 1.365171e+01
 1.039889e+00	 7.425276e-01	 1.376995e+01
 1.026129e+00	 7.614295e-01	 1.369966e+01
 1.012007e+00	 7.801014e-01	 1.336256e+01
 9.975274e-01	 7.985331e-01	 1.277951e+01
 9.826972e-01	 8.167143e-01	 1.197688e+01
 9.399712e-01	 7.812050e-01	 1.177709e+01
 9.254564e-01	 7.983468e-01	 1.164294e+01
 9.106190e-01	 8.152302e-01	 1.138484e+01
 8.954657e-01	 8.318463e-01	 1.104161e+01
 8.800041e-01	 8.481863e-01	 1.065408e+01
 8.642416e-01	 8.642416e-01	 1.026431e+01
 9.485164e-01	 7.883069e-01	 1.181800e+01
 9.338697e-01	 8.056045e-01	 1.170826e+01
 9.188973e-01	 8.226414e-01	 1.147049e+01
 9.036063e-01	 8.394085e-01	 1.114409e+01
 8.880041e-01	 8.558971e-01	 1.077061e+01
 8.720984e-01	 8.720984e-01	 1.039297e+01
 9.570616e-01	 7.954087e-01	 1.186326e+01
 9.422829e-01	 8.128622e-01	 1.177520e+01
 9.271757e-01	 8.300526e-01	 1.155518e+01
 9.117469e-01	 8.469708e-01	 1.124317e+01
 8.960042e-01	 8.636079e-01	 1.088149e+01
 8.799551e-01	 8.799551e-01	 1.051397e+01
 9.656068e-01	 8.025106e-01	 1.190802e+01
 9.506962e-01	 8.201199e-01	 1.183901e+01
 9.354540e-01	 8.374638e-01	 1.163423e+01
 9.198875e-01	 8.545330e-01	 1.133425e+01
 9.040042e-01	 8.713186e-01	 1.098217e+01
 8.878118e-01	 8.878118e-01	 1.062277e+01
 9.741520e-01	 8.096125e-01	 1.194748e+01
 9.591094e-01	 8.273775e-01	 1.189500e+01
 9.437324e-01	 8.448749e-01	 1.170301e+01
 9.280281e-01	 8.620953e-01	 1.141273e+01
 9.120042e-01	 8.790294e-01	 1.106809e+01
 8.956686e-01	 8.956686e-01	 1.071485e+01
 9.826972e-01	 8.167143e-01	 1.197688e+01
 9.675226e-01	 8.346352e-01	 1.193850e+01
 9.520107e-01	 8.522861e-01	 1.175695e+01
 9.361687e-01	 8.696575e-01	 1.147410e+01
 9.200043e-01	 8.867402e-01	 1.113475e+01
 9.035253e-01	 9.035253e-01	 1.078572e+01
 8.642416e-01	 8.642416e-01	 1.026431e+01
 8.481863e-01	 8.800041e-01	 9.738065e+00
 8.318463e-01	 8.954657e-01	 9.279957e+00
 8.152302e-01	 9.106190e-01	 8.930451e+00
 7.983468e-01	 9.254564e-01	 8.727952e+00
 7.812050e-01	 9.399712e-01	 8.707951e+00
 8.720984e-01	 8.720984e-01	 1.039297e+01
 8.558971e-01	 8.880041e-01	 9.872476e+00
 8.394085e-01	 9.036063e-01	 9.420784e+00
 8.226414e-01	 9.188973e-01	 9.079316e+00
 8.056045e-01	 9.338697e-01	 8.887384e+00
 7.883069e-01	 9.485164e-01	 8.881273e+00
 8.799551e-01	 8.799551e-01	 1.051397e+01
 8.636079e-01	 8.960042e-01	 9.997476e+00
 8.469708e-01	 9.117469e-01	 9.550776e+00
 8.300526e-01	 9.271757e-01	 9.216319e+00
 8.128622e-01	 9.422829e-01	 9.034387e+00
 7.954087e-01	 9.570616e-01	 9.042125e+00
 8.878118e-01	 8.878118e-01	 1.062277e+01
 8.713186e-01	 9.040042e-01	 1.010854e+01
 8.545330e-01	 9.198875e-01	 9.665416e+00
 8.374638e-01	 9.354540e-01	 9.336949e+00
 8.201199e-01	 9.506962e-01	 9.164459e+00
 8.025106e-01	 9.656068e-01	 9.186020e+00
 8.956686e-01	 8.956686e-01	 1.071485e+01
 8.790294e-01	 9.120042e-01	 1.020115e+01
 8.620953e-01	 9.280281e-01	 9.760180e+00
 8.448749e-01	 9.437324e-01	 9.436673e+00
 8.273775e-01	 9.591094e-01	 9.273061e+00
 8.096125e-01	 9.741520e-01	 9.308418e+00
 9.035253e-01	 9.035253e-01	 1.078572e+01
 8.867402e-01	 9.200043e-01	 1.027079e+01
 8.696575e-01	 9.361687e-01	 9.830550e+00
 8.522861e-01	 9.520107e-01	 9.510953e+00
 8.346352e-01	 9.675226e-01	 9.355632e+00
 8.167143e-01	 9.826972e-01	 9.404741e+00
 7.812050e-01	 9.399712e-01	 8.707951e+00
 7.638143e-01	 9.541567e-01	 7.989744e+00
 7.461840e-01	 9.680065e-01	 7.422223e+00
 7.283239e-01	 9.815149e-01	 7.019900e+00
 7.102438e-01	 9.946763e-01	 6.777696e+00
 6.919539e-01	 1.007485e+00	 6.686907e+00
 7.883069e-01	 9.485164e-01	 8.881273e+00
 7.707580e-01	 9.628308e-01	 8.137213e+00
 7.529675e-01	 9.768066e-01	 7.552072e+00
 7.349450e-01	 9.904378e-01	 7.143485e+00
 7.167006e-01	 1.003719e+00	 6.909698e+00
 6.982444e-01	 1.016644e+00	 6.840030e+00
 7.954087e-01	 9.570616e-01	 9.042125e+00
 7.777018e-01	 9.715050e-01	 8.275482e+00
 7.597510e-01	 9.856066e-01	 7.676558e+00
 7.415661e-01	 9.993606e-01	 7.264158e+00
 7.231573e-01	 1.012761e+00	 7.042609e+00
 7.045349e-01	 1.025803e+00	 6.998509e+00
 8.025106e-01	 9.656068e-01	 9.186020e+00
 7.846456e-01	 9.801791e-01	 8.400018e+00
 7.665344e-01	 9.944067e-01	 7.791121e+00
 7.481872e-01	 1.008283e+00	 7.378655e+00
 7.296141e-01	 1.021804e+00	 7.172276e+00
 7.108254e-01	 1.034962e+00	 7.158286e+00
 8.096125e-01	 9.741520e-01	 9.308418e+00
 7.915893e-01	 9.888533e-01	 8.506220e+00
 7.733179e-01	 1.003207e+00	 7.891118e+00
 7.548084e-01	 1.017206e+00	 7.483011e+00
 7.360709e-01	 1.030846e+00	 7.294412e+00
 7.171159e-01	 1.044121e+00	 7.315178e+00
 8.167143e-01	 9.826972e-01	 9.404741e+00
 7.985331e-01	 9.975274e-01	 8.589439e+00
 7.801014e-01	 1.012007e+00	 7.971846e+00
 7.614295e-01	 1.026129e+00	 7.572487e+00
 7.425276e-01	 1.039889e+00	 7.404677e+00
 7.234064e-01	 1.053280e+00	 7.464874e+00
 6.919539e-01	 1.007485e+00	 6.686907e+00
 6.734643e-01	 1.019938e+00	 6.278230e+00
 6.547854e-01	 1.032029e+00	 5.907628e+00
 6.359276e-01	 1.043754e+00	 5.551907e+00
 6.169014e-01	 1.055111e+00	 5.184746e+00
 5.977176e-01	 1.066096e+00	 4.777097e+00
 6.982444e-01	 1.016644e+00	 6.840030e+00
 6.795867e-01	 1.029210e+00	 6.422509e+00
 6.607380e-01	 1.041411e+00	 6.041752e+00
 6.417087e-01	 1.053243e+00	 5.672876e+00
 6.225096e-01	 1.064703e+00	 5.287746e+00
 6.031514e-01	 1.075788e+00	 4.855404e+00
 7.045349e-01	 1.025803e+00	 6.998509e+00
 6.857091e-01	 1.038482e+00	 6.571245e+00
 6.666906e-01	 1.050793e+00	 6.180176e+00
 6.474899e-01	 1.062732e+00	 5.798673e+00
 6.281178e-01	 1.074295e+00	 5.396733e+00
 6.085852e-01	 1.085480e+00	 4.941424e+00
 7.108254e-01	 1.034962e+00	 7.158286e+00
 6.918315e-01	 1.047754e+00	 6.720656e+00
 6.726432e-01	 1.060175e+00	 6.319404e+00
 6.532711e-01	 1.072220e+00	 5.926103e+00
 6.337260e-01	 1.083887e+00	 5.508821e+00
 6.140190e-01	 1.095171e+00	 5.032586e+00
 7.171159e-01	 1.044121e+00	 7.315178e+00
 6.979539e-01	 1.057026e+00	 6.866832e+00
 6.785958e-01	 1.069557e+00	 6.455814e+00
 6.590522e-01	 1.081709e+00	 6.051842e+00
 6.393342e-01	 1.093479e+00	 5.620994e+00
 6.194528e-01	 1.104863e+00	 5.126193e+00
 7.234064e-01	 1.053280e+00	 7.464874e+00
 7.040763e-01	 1.066299e+00	 7.005736e+00
 6.845484e-01	 1.078939e+00	 6.585653e+00
 6.648334e-01	 1.091198e+00	 6.172436e+00
 6.449424e-01	 1.103071e+00	 5.730108e+00
 6.248866e-01	 1.114555e+00	 5.208434e+00
 5.977176e-01	 1.066096e+00	 4.777097e+00
 5.783867e-01	 1.076706e+00	 4.548235e+00
 5.589196e-01	 1.086939e+00	 4.294260e+00
 5.393269e-01	 1.096792e+00	 3.981528e+00
 5.196193e-01	 1.106265e+00	 3.575191e+00
 4.998077e-01	 1.115356e+00	 3.021409e+00
 6.031514e-01	 1.075788e+00	 4.855404e+00
 5.836448e-01	 1.086494e+00	 4.642502e+00
 5.640007e-01	 1.096820e+00	 4.440049e+00
 5.442298e-01	 1.106763e+00	 4.213350e+00
 5.243431e-01	 1.116322e+00	 3.898948e+00
 5.043514e-01	 1.125496e+00	 3.332491e+00
 6.085852e-01	 1.085480e+00	 4.941424e+00
 5.889029e-01	 1.096283e+00	 4.760825e+00
 5.690817e-01	 1.106701e+00	 4.625807e+00
 5.491328e-01	 1.116734e+00	 4.469001e+00
 5.290670e-01	 1.126379e+00	 4.112909e+00
 5.088951e-01	 1.135635e+00	 3.519870e+00
 6.140190e-01	 1.095171e+00	 5.032586e+00
 5.941609e-01	 1.106071e+00	 4.900582e+00
 5.741628e-01	 1.116583e+00	 4.819549e+00
 5.540358e-01	 1.126705e+00	 4.598588e+00
 5.337908e-01	 1.136436e+00	 4.191783e+00
 5.134389e-01	 1.145775e+00	 3.581504e+00
 6.194528e-01	 1.104863e+00	 5.126193e+00
 5.994190e-01	 1.115859e+00	 5.037481e+00
 5.792439e-01	 1.126464e+00	 4.876536e+00
 5.589387e-01	 1.136676e+00	 4.582294e+00
 5.385146e-01	 1.146493e+00	 4.134191e+00
 5.179826e-01	 1.155915e+00	 3.515558e+00
 6.248866e-01	 1.114555e+00	 5.208434e+00
 6.046770e-01	 1.125647e+00	 5.032489e+00
 5.843250e-01	 1.136345e+00	 4.777390e+00
 5.638417e-01	 1.146647e+00	 4.419407e+00
 5.432384e-01	 1.156550e+00	 3.938959e+00
 5.225263e-01	 1.166054e+00	 3.320400e+00
 4.998077e-01	 1.115356e+00	 3.021409e+00
 4.799028e-01	 1.124064e+00	 2.927430e+00
 4.599151e-01	 1.132389e+00	 2.746925e+00
 4.398553e-01	 1.140331e+00	 2.472808e+00
 4.197339e-01	 1.147890e+00	 2.100056e+00
 3.995612e-01	 1.155066e+00	 1.625432e+00
 5.043514e-01	 1.125496e+00	 3.332491e+00
 4.842655e-01	 1.134283e+00	 3.273366e+00
 4.640961e-01	 1.142684e+00	 3.116175e+00
 4.438540e-01	 1.150698e+00	 2.853981e+00
 4.235496e-01	 1.158325e+00	 2.481997e+00
 4.031936e-01	 1.165567e+00	 1.997304e+00
 5.088951e-01	 1.135635e+00	 3.519870e+00
 4.886283e-01	 1.144502e+00	 3.493227e+00
 4.682772e-01	 1.152978e+00	 3.357447e+00
 4.478526e-01	 1.161064e+00	 3.105817e+00
 4.273654e-01	 1.168760e+00	 2.733878e+00
 4.068260e-01	 1.176067e+00	 2.239108e+00
 5.134389e-01	 1.145775e+00	 3.581504e+00
 4.929910e-01	 1.154721e+00	 3.584835e+00
 4.724582e-01	 1.163273e+00	 3.468417e+00
 4.518513e-01	 1.171431e+00	 3.225850e+00
 4.311811e-01	 1.179196e+00	 2.853081e+00
 4.104584e-01	 1.186568e+00	 2.348077e+00
 5.179826e-01	 1.155915e+00	 3.515558e+00
 4.973538e-01	 1.164939e+00	 3.546210e+00
 4.766393e-01	 1.173567e+00	 3.446953e+00
 4.558500e-01	 1.181797e+00	 3.211784e+00
 4.349969e-01	 1.189631e+00	 2.837150e+00
 4.140907e-01	 1.197069e+00	 2.321595e+00
 5.225263e-01	 1.166054e+00	 3.320400e+00
 5.017165e-01	 1.175158e+00	 3.375564e+00
 4.808203e-01	 1.183861e+00	 3.291103e+00
 4.598487e-01	 1.192164e+00	 3.061499e+00
 4.388127e-01	 1.200066e+00	 2.683792e+00
 4.177231e-01	 1.207569e+00	 2.157198e+00
 3.995612e-01	 1.155066e+00	 1.625432e+00
 3.793477e-01	 1.161862e+00	 1.534892e+00
 3.591035e-01	 1.168277e+00	 1.405292e+00
 3.388386e-01	 1.174315e+00	 1.254905e+00
 3.185628e-01	 1.179977e+00	 1.107474e+00
 2.982861e-01	 1.185265e+00	 9.871759e-01
 4.031936e-01	 1.165567e+00	 1.997304e+00
 3.827963e-01	 1.172424e+00	 1.903364e+00
 3.623681e-01	 1.178898e+00	 1.767275e+00
 3.419189e-01	 1.184991e+00	 1.604488e+00
 3.214589e-01	 1.190704e+00	 1.439848e+00
 3.009977e-01	 1.196040e+00	 1.298518e+00
 4.068260e-01	 1.176067e+00	 2.239108e+00
 3.862449e-01	 1.182986e+00	 2.144827e+00
 3.656326e-01	 1.189519e+00	 2.006606e+00
 3.449993e-01	 1.195666e+00	 1.836762e+00
 3.243549e-01	 1.201431e+00	 1.660769e+00
 3.037094e-01	 1.206815e+00	 1.504802e+00
 4.104584e-01	 1.186568e+00	 2.348077e+00
 3.896936e-01	 1.193549e+00	 2.256311e+00
 3.688972e-01	 1.200139e+00	 2.119935e+00
 3.480796e-01	 1.206342e+00	 1.948306e+00
 3.272509e-01	 1.212158e+00	 1.766794e+00
 3.064211e-01	 1.217590e+00	 1.602613e+00
 4.140907e-01	 1.197069e+00	 2.321595e+00
 3.931422e-01	 1.204111e+00	 2.234986e+00
 3.721618e-01	 1.210760e+00	 2.104022e+00
 3.511600e-01	 1.217017e+00	 1.935789e+00
 3.301469e-01	 1.222885e+00	 1.754550e+00
 3.091328e-01	 1.228365e+00	 1.588585e+00
 4.177231e-01	 1.207569e+00	 2.157198e+00
 3.965908e-01	 1.214674e+00	 2.078165e+00
 3.754264e-01	 1.221381e+00	 1.955811e+00
 3.542403e-01	 1.227693e+00	 1.795979e+00
 3.330430e-01	 1.233612e+00	 1.620738e+00
 3.118445e-01	 1.239140e+00	 1.459410e+00
 2.982861e-01	 1.185265e+00	 9.871759e-01
 2.780177e-01	 1.190182e+00	 8.012980e-01
 2.577673e-01	 1.194731e+00	 6.248545e-01
 2.375438e-01	 1.198916e+00	 4.825473e-01
 2.173563e-01	 1.202740e+00	 3.983389e-01
 1.972134e-01	 1.206206e+00	 3.952137e-01
 3.009977e-01	 1.196040e+00	 1.298518e+00
 2.805452e-01	 1.201002e+00	 1.087966e+00
 2.601106e-01	 1.205593e+00	 8.884938e-01
 2.397033e-01	 1.209815e+00	 7.252406e-01
 2.193322e-01	 1.213674e+00	 6.224364e-01
 1.990063e-01	 1.217172e+00	 6.031755e-01
 3.037094e-01	 1.206815e+00	 1.504802e+00
 2.830726e-01	 1.211822e+00	 1.276809e+00
 2.624539e-01	 1.216454e+00	 1.061997e+00
 2.418628e-01	 1.220715e+00	 8.859125e-01
 2.213082e-01	 1.224608e+00	 7.730075e-01
 2.007991e-01	 1.228137e+00	 7.464255e-01
 3.064211e-01	 1.217590e+00	 1.602613e+00
 2.856000e-01	 1.222642e+00	 1.364478e+00
 2.647973e-01	 1.227315e+00	 1.142131e+00
 2.440223e-01	 1.231614e+00	 9.614935e-01
 2.232842e-01	 1.235542e+00	 8.471879e-01
 2.025920e-01	 1.239103e+00	 8.223427e-01
 3.091328e-01	 1.228365e+00	 1.588585e+00
 2.881275e-01	 1.233461e+00	 1.347661e+00
 2.671406e-01	 1.238176e+00	 1.125687e+00
 2.461817e-01	 1.242513e+00	 9.489252e-01
 2.252601e-01	 1.246476e+00	 8.421152e-01
 2.043848e-01	 1.250069e+00	 8.283009e-01
 3.118445e-01	 1.239140e+00	 1.459410e+00
 2.906549e-01	 1.244281e+00	 1.223082e+00
 2.694840e-01	 1.249037e+00	 1.009479e+00
 2.483412e-01	 1.253412e+00	 8.451616e-01
 2.272361e-01	 1.257410e+00	 7.549297e-01
 2.061777e-01	 1.261034e+00	 7.616690e-01
 1.972134e-01	 1.206206e+00	 3.952137e-01
 1.771238e-01	 1.209320e+00	 2.811876e-01
 1.570957e-01	 1.212084e+00	 1.699119e-01
 1.371372e-01	 1.214504e+00	 8.262285e-02
 1.172560e-01	 1.216585e+00	 3.955638e-02
 9.745981e-02	 1.218330e+00	 5.996239e-02
 1.990063e-01	 1.217172e+00	 6.031755e-01
 1.787340e-01	 1.220314e+00	 4.681022e-01
 1.585239e-01	 1.223103e+00	 3.361924e-01
 1.383839e-01	 1.225545e+00	 2.284669e-01
 1.183220e-01	 1.227644e+00	 1.648798e-01
 9.834581e-02	 1.229406e+00	 1.643577e-01
 2.007991e-01	 1.228137e+00	 7.464255e-01
 1.803443e-01	 1.231307e+00	 5.993264e-01
 1.599520e-01	 1.234122e+00	 4.560018e-01
 1.396306e-01	 1.236586e+00	 3.371655e-01
 1.193880e-01	 1.238704e+00	 2.623917e-01
 9.923181e-02	 1.240482e+00	 2.501819e-01
 2.025920e-01	 1.239103e+00	 8.223427e-01
 1.819545e-01	 1.242301e+00	 6.725169e-01
 1.613801e-01	 1.245141e+00	 5.273015e-01
 1.408773e-01	 1.247627e+00	 4.070052e-01
 1.204539e-01	 1.249764e+00	 3.307185e-01
 1.001178e-01	 1.251558e+00	 3.164092e-01
 2.043848e-01	 1.250069e+00	 8.283009e-01
 1.835647e-01	 1.253295e+00	 6.853198e-01
 1.628083e-01	 1.256160e+00	 5.480381e-01
 1.421240e-01	 1.258668e+00	 4.362559e-01
 1.215199e-01	 1.260824e+00	 3.684691e-01
 1.010038e-01	 1.262633e+00	 3.619967e-01
 2.061777e-01	 1.261034e+00	 7.616690e-01
 1.851749e-01	 1.264289e+00	 6.353707e-01
 1.642364e-01	 1.267179e+00	 5.161445e-01
 1.433707e-01	 1.269709e+00	 4.231715e-01
 1.225858e-01	 1.271884e+00	 3.742356e-01
 1.018898e-01	 1.273709e+00	 3.858849e-01
 9.745981e-02	 1.218330e+00	 5.996239e-02
 7.775585e-02	 1.219746e+00	 2.535950e-02
 5.815122e-02	 1.220838e+00	-1.760812e-02
 3.865271e-02	 1.221611e+00	-4.992465e-02
 1.926688e-02	 1.222070e+00	-5.312591e-02
 0.000000e+00	 1.222222e+00	-9.263057e-03
 9.834581e-02	 1.229406e+00	 1.643577e-01
 7.846273e-02	 1.230835e+00	 1.102658e-01
 5.867987e-02	 1.231937e+00	 4.891028e-02
 3.900410e-02	 1.232716e+00	-9.990422e-04
 1.944203e-02	 1.233180e+00	-2.125257e-02
 0.000000e+00	 1.233333e+00	 5.915791e-03
 9.923181e-02	 1.240482e+00	 2.501819e-01
 7.916960e-02	 1.241924e+00	 1.860410e-01
 5.920851e-02	 1.243035e+00	 1.153958e-01
 3.935549e-02	 1.243822e+00	 5.654972e-02
 1.961718e-02	 1.244290e+00	 2.736131e-02
 0.000000e+00	 1.244444e+00	 4.532349e-02
 1.001178e-01	 1.251558e+00	 3.164092e-01
 7.987647e-02	 1.253012e+00	 2.519977e-01
 5.973716e-02	 1.254134e+00	 1.814952e-01
 3.970688e-02	 1.254928e+00	 1.226914e-01
 1.979234e-02	 1.255400e+00	 9.299077e-02
 0.000000e+00	 1.255556e+00	 1.095163e-01
 1.010038e-01	 1.262633e+00	 3.619967e-01
 8.058334e-02	 1.264101e+00	 3.074331e-01
 6.026581e-02	 1.265232e+00	 2.468422e-01
 4.005827e-02	 1.266033e+00	 1.973853e-01
 1.996749e-02	 1.266509e+00	 1.759033e-01
 0.000000e+00	 1.266667e+00	 1.990457e-01
 1.018898e-01	 1.273709e+00	 3.858849e-01
 8.129021e-02	 1.275189e+00	 3.516295e-01
 6.079446e-02	 1.276331e+00	 3.110575e-01
 4.040965e-02	 1.277139e+00	 2.805806e-01
 2.014264e-02	 1.277619e+00	 2.763589e-01
 0.000000e+00	 1.277778e+00	 3.144586e-01
 1.277778e+00	 0.000000e+00	 1.906567e+01
 1.277619e+00	 2.014264e-02	 1.911501e+01
 1.277139e+00	 4.040965e-02	 1.912899e+01
 1.276331e+00	 6.079446e-02	 1.911172e+01
 1.275189e+00	 8.129021e-02	 1.906724e+01
 1.273709e+00	 1.018898e-01	 1.899953e+01
 1.288889e+00	 0.000000e+00	 1.881900e+01
 1.288729e+00	 2.031780e-02	 1.886310e+01
 1.288244e+00	 4.076104e-02	 1.887354e+01
 1.287429e+00	 6.132310e-02	 1.885434e+01
 1.286278e+00	 8.199708e-02	 1.880941e+01
 1.284785e+00	 1.027758e-01	 1.874261e+01
 1.300000e+00	 0.000000e+00	 1.858186e+01
 1.299838e+00	 2.049295e-02	 1.862203e+01
 1.299350e+00	 4.111243e-02	 1.863043e+01
 1.298528e+00	 6.185175e-02	 1.861095e+01
 1.297367e+00	 8.270395e-02	 1.856736e+01
 1.295860e+00	 1.036618e-01	 1.850335e+01
 1.311111e+00	 0.000000e+00	 1.835292e+01
 1.310948e+00	 2.066811e-02	 1.839058e+01
 1.310455e+00	 4.146382e-02	 1.839854e+01
 1.309626e+00	 6.238040e-02	 1.838053e+01
 1.308455e+00	 8.341082e-02	 1.834016e+01
 1.306936e+00	 1.045478e-01	 1.828092e+01
 1.322222e+00	 0.000000e+00	 1.813087e+01
 1.322058e+00	 2.084326e-02	 1.816753e+01
 1.321561e+00	 4.181521e-02	 1.817674e+01
 1.320725e+00	 6.290905e-02	 1.816205e+01
 1.319544e+00	 8.411770e-02	 1.812688e+01
 1.318012e+00	 1.054338e-01	 1.807449e+01
 1.333333e+00	 0.000000e+00	 1.791441e+01
 1.333168e+00	 2.101841e-02	 1.795168e+01
 1.332666e+00	 4.216660e-02	 1.796393e+01
 1.331823e+00	 6.343769e-02	 1.795452e+01
 1.330632e+00	 8.482457e-02	 1.792661e+01
 1.329088e+00	 1.063198e-01	 1.788322e+01
 1.273709e+00	 1.018898e-01	 1.899953e+01
 1.271884e+00	 1.225858e-01	 1.900762e+01
 1.269709e+00	 1.433707e-01	 1.897901e+01
 1.267179e+00	 1.642364e-01	 1.891672e+01
 1.264289e+00	 1.851749e-01	 1.882381e+01
 1.261034e+00	 2.061777e-01	 1.870337e+01
 1.284785e+00	 1.027758e-01	 1.874261e+01
 1.282944e+00	 1.236518e-01	 1.874731e+01
 1.280750e+00	 1.446174e-01	 1.871698e+01
 1.278198e+00	 1.656646e-01	 1.865447e+01
 1.275283e+00	 1.867851e-01	 1.856264e+01
 1.272000e+00	 2.079705e-01	 1.844442e+01
 1.295860e+00	 1.036618e-01	 1.850335e+01
 1.294004e+00	 1.247178e-01	 1.850621e+01
 1.291791e+00	 1.458641e-01	 1.847576e+01
 1.289217e+00	 1.670927e-01	 1.841463e+01
 1.286276e+00	 1.883953e-01	 1.832548e+01
 1.282965e+00	 2.097634e-01	 1.821105e+01
 1.306936e+00	 1.045478e-01	 1.828092e+01
 1.305064e+00	 1.257837e-01	 1.828358e+01
 1.302832e+00	 1.471108e-01	 1.825468e+01
 1.300236e+00	 1.685209e-01	 1.819661e+01
 1.297270e+00	 1.900056e-01	 1.811181e+01
 1.293931e+00	 2.115562e-01	 1.800281e+01
 1.318012e+00	 1.054338e-01	 1.807449e+01
 1.316123e+00	 1.268497e-01	 1.807868e+01
 1.313873e+00	 1.483575e-01	 1.805309e+01
 1.311255e+00	 1.699490e-01	 1.799984e+01
 1.308264e+00	 1.916158e-01	 1.792113e+01
 1.304896e+00	 2.133491e-01	 1.781924e+01
 1.329088e+00	 1.063198e-01	 1.788322e+01
 1.327183e+00	 1.279157e-01	 1.789077e+01
 1.324914e+00	 1.496042e-01	 1.787034e+01
 1.322274e+00	 1.713771e-01	 1.782375e+01
 1.319258e+00	 1.932260e-01	 1.775292e+01
 1.315862e+00	 2.151419e-01	 1.765989e+01
 1.261034e+00	 2.061777e-01	 1.870337e+01
 1.257410e+00	 2.272361e-01	 1.869039e+01
 1.253412e+00	 2.483412e-01	 1.863225e+01
 1.249037e+00	 2.694840e-01	 1.853197e+01
 1.244281e+00	 2.906549e-01	 1.839262e+01
 1.239140e+00	 3.118445e-01	 1.821728e+01
 1.272000e+00	 2.079705e-01	 1.844442e+01
 1.268344e+00	 2.292121e-01	 1.843587e+01
 1.264312e+00	 2.505007e-01	 1.838262e+01
 1.259899e+00	 2.718273e-01	 1.828750e+01
 1.255101e+00	 2.931823e-01	 1.815343e+01
 1.249916e+00	 3.145562e-01	 1.798337e+01
 1.282965e+00	 2.097634e-01	 1.821105e+01
 1.279278e+00	 2.311880e-01	 1.820783e+01
 1.275211e+00	 2.526602e-01	 1.816031e+01
 1.270760e+00	 2.741706e-01	 1.807114e+01
 1.265921e+00	 2.957098e-01	 1.794308e+01
 1.260691e+00	 3.172679e-01	 1.777896e+01
 1.293931e+00	 2.115562e-01	 1.800281e+01
 1.290212e+00	 2.331640e-01	 1.800587e+01
 1.286110e+00	 2.548197e-01	 1.796497e+01
 1.281621e+00	 2.765140e-01	 1.788257e+01
 1.276741e+00	 2.982372e-01	 1.776128e+01
 1.271466e+00	 3.199796e-01	 1.760379e+01
 1.304896e+00	 2.133491e-01	 1.781924e+01
 1.301146e+00	 2.351400e-01	 1.782959e+01
 1.297009e+00	 2.569792e-01	 1.779627e+01
 1.292482e+00	 2.788573e-01	 1.772150e+01
 1.287561e+00	 3.007647e-01	 1.760773e+01
 1.282241e+00	 3.226913e-01	 1.745755e+01
 1.315862e+00	 2.151419e-01	 1.765989e+01
 1.312080e+00	 2.371159e-01	 1.767861e+01
 1.307909e+00	 2.591387e-01	 1.765383e+01
 1.303343e+00	 2.812007e-01	 1.758758e+01
 1.298380e+00	 3.032921e-01	 1.748213e+01
 1.293016e+00	 3.254030e-01	 1.733994e+01
 1.239140e+00	 3.118445e-01	 1.821728e+01
 1.233612e+00	 3.330430e-01	 1.814651e+01
 1.227693e+00	 3.542403e-01	 1.803267e+01
 1.221381e+00	 3.754264e-01	 1.788034e+01
 1.214674e+00	 3.965908e-01	 1.775231e+01
 1.207569e+00	 4.177231e-01	 1.767873e+01
 1.249916e+00	 3.145562e-01	 1.798337e+01
 1.244339e+00	 3.359390e-01	 1.791476e+01
 1.238368e+00	 3.573207e-01	 1.780391e+01
 1.232002e+00	 3.786909e-01	 1.765923e+01
 1.225236e+00	 4.000394e-01	 1.754570e+01
 1.218070e+00	 4.213555e-01	 1.748405e+01
 1.260691e+00	 3.172679e-01	 1.777896e+01
 1.255066e+00	 3.388350e-01	 1.771295e+01
 1.249044e+00	 3.604010e-01	 1.760549e+01
 1.242622e+00	 3.819555e-01	 1.747006e+01
 1.235798e+00	 4.034880e-01	 1.736958e+01
 1.228570e+00	 4.249879e-01	 1.731812e+01
 1.271466e+00	 3.199796e-01	 1.760379e+01
 1.265793e+00	 3.417311e-01	 1.754084e+01
 1.259720e+00	 3.634814e-01	 1.743712e+01
 1.253243e+00	 3.852201e-01	 1.731209e+01
 1.246361e+00	 4.069366e-01	 1.722310e+01
 1.239071e+00	 4.286202e-01	 1.717998e+01
 1.282241e+00	 3.226913e-01	 1.745755e+01
 1.276520e+00	 3.446271e-01	 1.739811e+01
 1.270395e+00	 3.665617e-01	 1.729851e+01
 1.263864e+00	 3.884847e-01	 1.718453e+01
 1.256923e+00	 4.103853e-01	 1.710536e+01
 1.249572e+00	 4.322526e-01	 1.706863e+01
 1.293016e+00	 3.254030e-01	 1.733994e+01
 1.287247e+00	 3.475231e-01	 1.728443e+01
 1.281071e+00	 3.696421e-01	 1.718928e+01
 1.274484e+00	 3.917493e-01	 1.708655e+01
 1.267485e+00	 4.138339e-01	 1.701539e+01
 1.260072e+00	 4.358850e-01	 1.698298e+01
 1.207569e+00	 4.177231e-01	 1.767873e+01
 1.200066e+00	 4.388127e-01	 1.733123e+01
 1.192164e+00	 4.598487e-01	 1.707102e+01
 1.183861e+00	 4.808203e-01	 1.690299e+01
 1.175158e+00	 5.017165e-01	 1.683126e+01
 1.166054e+00	 5.225263e-01	 1.685892e+01
 1.218070e+00	 4.213555e-01	 1.748405e+01
 1.210502e+00	 4.426284e-01	 1.714744e+01
 1.202531e+00	 4.638474e-01	 1.689707e+01
 1.194156e+00	 4.850014e-01	 1.673857e+01
 1.185377e+00	 5.060793e-01	 1.667692e+01
 1.176194e+00	 5.270700e-01	 1.671609e+01
 1.228570e+00	 4.249879e-01	 1.731812e+01
 1.220937e+00	 4.464442e-01	 1.699196e+01
 1.212897e+00	 4.678461e-01	 1.675072e+01
 1.204450e+00	 4.891824e-01	 1.660086e+01
 1.195596e+00	 5.104420e-01	 1.654820e+01
 1.186333e+00	 5.316137e-01	 1.659765e+01
 1.239071e+00	 4.286202e-01	 1.717998e+01
 1.231373e+00	 4.502600e-01	 1.686366e+01
 1.223264e+00	 4.718447e-01	 1.663071e+01
 1.214745e+00	 4.933634e-01	 1.648842e+01
 1.205814e+00	 5.148048e-01	 1.644352e+01
 1.196473e+00	 5.361574e-01	 1.650186e+01
 1.249572e+00	 4.322526e-01	 1.706863e+01
 1.241808e+00	 4.540757e-01	 1.676137e+01
 1.233631e+00	 4.758434e-01	 1.653572e+01
 1.225039e+00	 4.975445e-01	 1.639979e+01
 1.216033e+00	 5.191675e-01	 1.636125e+01
 1.206613e+00	 5.407011e-01	 1.642693e+01
 1.260072e+00	 4.358850e-01	 1.698298e+01
 1.252243e+00	 4.578915e-01	 1.668390e+01
 1.243997e+00	 4.798421e-01	 1.646439e+01
 1.235334e+00	 5.017255e-01	 1.633348e+01
 1.226252e+00	 5.235303e-01	 1.629976e+01
 1.216752e+00	 5.452448e-01	 1.637107e+01
 1.166054e+00	 5.225263e-01	 1.685892e+01
 1.156550e+00	 5.432384e-01	 1.638173e+01
 1.146647e+00	 5.638417e-01	 1.601742e+01
 1.136345e+00	 5.843250e-01	 1.576386e+01
 1.125647e+00	 6.046770e-01	 1.561610e+01
 1.114555e+00	 6.248866e-01	 1.556590e+01
 1.176194e+00	 5.270700e-01	 1.671609e+01
 1.166607e+00	 5.479622e-01	 1.625178e+01
 1.156618e+00	 5.687447e-01	 1.590365e+01
 1.146226e+00	 5.894061e-01	 1.567039e+01
 1.135435e+00	 6.099351e-01	 1.554787e+01
 1.124247e+00	 6.303204e-01	 1.552865e+01
 1.186333e+00	 5.316137e-01	 1.659765e+01
 1.176664e+00	 5.526860e-01	 1.614335e+01
 1.166588e+00	 5.736477e-01	 1.580847e+01
 1.156108e+00	 5.944872e-01	 1.559253e+01
 1.145224e+00	 6.151932e-01	 1.549230e+01
 1.133939e+00	 6.357542e-01	 1.550117e+01
 1.196473e+00	 5.361574e-01	 1.650186e+01
 1.186721e+00	 5.574098e-01	 1.605456e+01
 1.176559e+00	 5.785506e-01	 1.572983e+01
 1.165989e+00	 5.995683e-01	 1.552810e+01
 1.155012e+00	 6.204512e-01	 1.544704e+01
 1.143630e+00	 6.411880e-01	 1.548099e+01
 1.206613e+00	 5.407011e-01	 1.642693e+01
 1.196778e+00	 5.621336e-01	 1.598350e+01
 1.186530e+00	 5.834536e-01	 1.566570e+01
 1.175870e+00	 6.046494e-01	 1.547491e+01
 1.164800e+00	 6.257093e-01	 1.540978e+01
 1.153322e+00	 6.466218e-01	 1.546559e+01
 1.216752e+00	 5.452448e-01	 1.637107e+01
 1.206835e+00	 5.668575e-01	 1.592824e+01
 1.196501e+00	 5.883566e-01	 1.561402e+01
 1.185751e+00	 6.097304e-01	 1.543078e+01
 1.174588e+00	 6.309674e-01	 1.537815e+01
 1.163014e+00	 6.520556e-01	 1.545248e+01
 1.114555e+00	 6.248866e-01	 1.556590e+01
 1.103071e+00	 6.449424e-01	 1.521969e+01
 1.091198e+00	 6.648334e-01	 1.488146e+01
 1.078939e+00	 6.845484e-01	 1.452509e+01
 1.066299e+00	 7.040763e-01	 1.412442e+01
 1.053280e+00	 7.234064e-01	 1.365171e+01
 1.124247e+00	 6.303204e-01	 1.552865e+01
 1.112663e+00	 6.505506e-01	 1.516379e+01
 1.100686e+00	 6.706145e-01	 1.483270e+01
 1.088321e+00	 6.905010e-01	 1.448659e+01
 1.075571e+00	 7.101987e-01	 1.409901e+01
 1.062439e+00	 7.296968e-01	 1.364207e+01
 1.133939e+00	 6.357542e-01	 1.550117e+01
 1.122255e+00	 6.561588e-01	 1.511240e+01
 1.110175e+00	 6.763957e-01	 1.477757e+01
 1.097703e+00	 6.964535e-01	 1.444832e+01
 1.084843e+00	 7.163211e-01	 1.408097e+01
 1.071598e+00	 7.359873e-01	 1.364751e+01
 1.143630e+00	 6.411880e-01	 1.548099e+01
 1.131847e+00	 6.617670e-01	 1.507190e+01
 1.119664e+00	 6.821769e-01	 1.472284e+01
 1.107085e+00	 7.024061e-01	 1.440699e+01
 1.094115e+00	 7.224435e-01	 1.406681e+01
 1.080757e+00	 7.422778e-01	 1.366356e+01
 1.153322e+00	 6.466218e-01	 1.546559e+01
 1.141439e+00	 6.673752e-01	 1.503945e+01
 1.129153e+00	 6.879580e-01	 1.467954e+01
 1.116467e+00	 7.083587e-01	 1.436264e+01
 1.103387e+00	 7.285659e-01	 1.405275e+01
 1.089916e+00	 7.485683e-01	 1.366814e+01
 1.163014e+00	 6.520556e-01	 1.545248e+01
 1.151030e+00	 6.729834e-01	 1.501223e+01
 1.138641e+00	 6.937392e-01	 1.464463e+01
 1.125850e+00	 7.143113e-01	 1.432809e+01
 1.112659e+00	 7.346883e-01	 1.403504e+01
 1.099075e+00	 7.548588e-01	 1.364870e+01
 1.053280e+00	 7.234064e-01	 1.365171e+01
 1.039889e+00	 7.425276e-01	 1.376995e+01
 1.026129e+00	 7.614295e-01	 1.369966e+01
 1.012007e+00	 7.801014e-01	 1.336256e+01
 9.975274e-01	 7.985331e-01	 1.277951e+01
 9.826972e-01	 8.167143e-01	 1.197688e+01
 1.062439e+00	 7.296968e-01	 1.364207e+01
 1.048931e+00	 7.489844e-01	 1.381747e+01
 1.035052e+00	 7.680506e-01	 1.375153e+01
 1.020807e+00	 7.868849e-01	 1.341969e+01
 1.006202e+00	 8.054769e-01	 1.284230e+01
 9.912424e-01	 8.238162e-01	 1.204559e+01
 1.071598e+00	 7.359873e-01	 1.364751e+01
 1.057974e+00	 7.554412e-01	 1.385532e+01
 1.043975e+00	 7.746717e-01	 1.379222e+01
 1.029607e+00	 7.936684e-01	 1.346413e+01
 1.014876e+00	 8.124206e-01	 1.289087e+01
 9.997876e-01	 8.309181e-01	 1.209850e+01
 1.080757e+00	 7.422778e-01	 1.366356e+01
 1.067016e+00	 7.618979e-01	 1.387831e+01
 1.052898e+00	 7.812929e-01	 1.381671e+01
 1.038407e+00	 8.004519e-01	 1.349104e+01
 1.023550e+00	 8.193644e-01	 1.292053e+01
 1.008333e+00	 8.380199e-01	 1.213102e+01
 1.089916e+00	 7.485683e-01	 1.366814e+01
 1.076059e+00	 7.683547e-01	 1.388132e+01
 1.061821e+00	 7.879140e-01	 1.382011e+01
 1.047207e+00	 8.072354e-01	 1.349573e+01
 1.032224e+00	 8.263082e-01	 1.292674e+01
 1.016878e+00	 8.451218e-01	 1.213873e+01
 1.099075e+00	 7.548588e-01	 1.364870e+01
 1.085101e+00	 7.748114e-01	 1.385941e+01
 1.070744e+00	 7.945351e-01	 1.379769e+01
 1.056007e+00	 8.140189e-01	 1.347363e+01
 1.040898e+00	 8.332519e-01	 1.290508e+01
 1.025423e+00	 8.522237e-01	 1.211733e+01
 9.826972e-01	 8.167143e-01	 1.197688e+01
 9.675226e-01	 8.346352e-01	 1.193850e+01
 9.520107e-01	 8.522861e-01	 1.175695e+01
 9.361687e-01	 8.696575e-01	 1.147410e+01
 9.200043e-01	 8.867402e-01	 1.113475e+01
 9.035253e-01	 9.035253e-01	 1.078572e+01
 9.912424e-01	 8.238162e-01	 1.204559e+01
 9.759359e-01	 8.418929e-01	 1.203096e+01
 9.602891e-01	 8.596973e-01	 1.186737e+01
 9.443093e-01	 8.772197e-01	 1.159723e+01
 9.280043e-01	 8.944510e-01	 1.126614e+01
 9.113821e-01	 9.113821e-01	 1.092192e+01
 9.997876e-01	 8.309181e-01	 1.209850e+01
 9.843491e-01	 8.491506e-01	 1.210435e+01
 9.685674e-01	 8.671085e-01	 1.195550e+01
 9.524499e-01	 8.847820e-01	 1.169493e+01
 9.360043e-01	 9.021618e-01	 1.136909e+01
 9.192388e-01	 9.192388e-01	 1.102683e+01
 1.008333e+00	 8.380199e-01	 1.213102e+01
 9.927624e-01	 8.564083e-01	 1.215422e+01
 9.768458e-01	 8.745197e-01	 1.201698e+01
 9.605905e-01	 8.923442e-01	 1.176290e+01
 9.440044e-01	 9.098726e-01	 1.143932e+01
 9.270956e-01	 9.270956e-01	 1.109619e+01
 1.016878e+00	 8.451218e-01	 1.213873e+01
 1.001176e+00	 8.636660e-01	 1.217625e+01
 9.851241e-01	 8.819309e-01	 1.204758e+01
 9.687311e-01	 8.999065e-01	 1.179696e+01
 9.520044e-01	 9.175833e-01	 1.147266e+01
 9.349523e-01	 9.349523e-01	 1.112583e+01
 1.025423e+00	 8.522237e-01	 1.211733e+01
 1.009589e+00	 8.709237e-01	 1.216628e+01
 9.934025e-01	 8.893420e-01	 1.204322e+01
 9.768717e-01	 9.074687e-01	 1.179307e+01
 9.600045e-01	 9.252941e-01	 1.146509e+01
 9.428090e-01	 9.428090e-01	 1.111170e+01
 9.035253e-01	 9.035253e-01	 1.078572e+01
 8.867402e-01	 9.200043e-01	 1.027079e+01
 8.696575e-01	 9.361687e-01	 9.830550e+00
 8.522861e-01	 9.520107e-01	 9.510953e+00
 8.346352e-01	 9.675226e-01	 9.355632e+00
 8.167143e-01	 9.826972e-01	 9.404741e+00
 9.113821e-01	 9.113821e-01	 1.092192e+01
 8.944510e-01	 9.280043e-01	 1.040722e+01
 8.772197e-01	 9.443093e-01	 9.971327e+00
 8.596973e-01	 9.602891e-01	 9.661658e+00
 8.418929e-01	 9.759359e-01	 9.523257e+00
 8.238162e-01	 9.912424e-01	 9.597572e+00
 9.192388e-01	 9.192388e-01	 1.102683e+01
 9.021618e-01	 9.360043e-01	 1.051182e+01
 8.847820e-01	 9.524499e-01	 1.007997e+01
 8.671085e-01	 9.685674e-01	 9.780267e+00
 8.491506e-01	 9.843491e-01	 9.659245e+00
 8.309181e-01	 9.997876e-01	 9.759735e+00
 9.270956e-01	 9.270956e-01	 1.109619e+01
 9.098726e-01	 9.440044e-01	 1.058025e+01
 8.923442e-01	 9.605905e-01	 1.015206e+01
 8.745197e-01	 9.768458e-01	 9.862260e+00
 8.564083e-01	 9.927624e-01	 9.758978e+00
 8.380199e-01	 1.008333e+00	 9.886520e+00
 9.349523e-01	 9.349523e-01	 1.112583e+01
 9.175833e-01	 9.520044e-01	 1.060825e+01
 8.999065e-01	 9.687311e-01	 1.018325e+01
 8.819309e-01	 9.851241e-01	 9.903180e+00
 8.636660e-01	 1.001176e+00	 9.817886e+00
 8.451218e-01	 1.016878e+00	 9.973245e+00
 9.428090e-01	 9.428090e-01	 1.111170e+01
 9.252941e-01	 9.600045e-01	 1.059169e+01
 9.074687e-01	 9.768717e-01	 1.016927e+01
 8.893420e-01	 9.934025e-01	 9.898644e+00
 8.709237e-01	 1.009589e+00	 9.831459e+00
 8.522237e-01	 1.025423e+00	 1.001527e+01
 8.167143e-01	 9.826972e-01	 9.404741e+00
 7.985331e-01	 9.975274e-01	 8.589439e+00
 7.801014e-01	 1.012007e+00	 7.971846e+00
 7.614295e-01	 1.026129e+00	 7.572487e+00
 7.425276e-01	 1.039889e+00	 7.404677e+00
 7.234064e-01	 1.053280e+00	 7.464874e+00
 8.238162e-01	 9.912424e-01	 9.597572e+00
 8.054769e-01	 1.006202e+00	 8.775677e+00
 7.868849e-01	 1.020807e+00	 8.150854e+00
 7.680506e-01	 1.035052e+00	 7.743713e+00
 7.489844e-01	 1.048931e+00	 7.567330e+00
 7.296968e-01	 1.062439e+00	 7.622969e+00
 8.309181e-01	 9.997876e-01	 9.759735e+00
 8.124206e-01	 1.014876e+00	 8.928517e+00
 7.936684e-01	 1.029607e+00	 8.294595e+00
 7.746717e-01	 1.043975e+00	 7.878744e+00
 7.554412e-01	 1.057974e+00	 7.693855e+00
 7.359873e-01	 1.071598e+00	 7.743471e+00
 8.380199e-01	 1.008333e+00	 9.886520e+00
 8.193644e-01	 1.023550e+00	 9.043272e+00
 8.004519e-01	 1.038407e+00	 8.398420e+00
 7.812929e-01	 1.052898e+00	 7.972981e+00
 7.618979e-01	 1.067016e+00	 7.779732e+00
 7.422778e-01	 1.080757e+00	 7.822304e+00
 8.451218e-01	 1.016878e+00	 9.973245e+00
 8.263082e-01	 1.032224e+00	 9.115264e+00
 8.072354e-01	 1.047207e+00	 8.457665e+00
 7.879140e-01	 1.061821e+00	 8.021791e+00
 7.683547e-01	 1.076059e+00	 7.820377e+00
 7.485683e-01	 1.089916e+00	 7.856581e+00
 8.522237e-01	 1.025423e+00	 1.001527e+01
 8.332519e-01	 1.040898e+00	 9.139836e+00
 8.140189e-01	 1.056007e+00	 8.467663e+00
 7.945351e-01	 1.070744e+00	 8.020517e+00
 7.748114e-01	 1.085101e+00	 7.811168e+00
 7.548588e-01	 1.099075e+00	 7.842358e+00
 7.234064e-01	 1.053280e+00	 7.464874e+00
 7.040763e-01	 1.066299e+00	 7.005736e+00
 6.845484e-01	 1.078939e+00	 6.585653e+00
 6.648334e-01	 1.091198e+00	 6.172436e+00
 6.449424e-01	 1.103071e+00	 5.730108e+00
 6.248866e-01	 1.114555e+00	 5.208434e+00
 7.296968e-01	 1.062439e+00	 7.622969e+00
 7.101987e-01	 1.075571e+00	 7.131160e+00
 6.905010e-01	 1.088321e+00	 6.725250e+00
 6.706145e-01	 1.100686e+00	 6.372592e+00
 6.505506e-01	 1.112663e+00	 6.034309e+00
 6.303204e-01	 1.124247e+00	 5.517990e+00
 7.359873e-01	 1.071598e+00	 7.743471e+00
 7.163211e-01	 1.084843e+00	 7.235522e+00
 6.964535e-01	 1.097703e+00	 6.860334e+00
 6.763957e-01	 1.110175e+00	 6.584726e+00
 6.561588e-01	 1.122255e+00	 6.261749e+00
 6.357542e-01	 1.133939e+00	 5.703138e+00
 7.422778e-01	 1.080757e+00	 7.822304e+00
 7.224435e-01	 1.094115e+00	 7.314545e+00
 7.024061e-01	 1.107085e+00	 6.986526e+00
 6.821769e-01	 1.119664e+00	 6.743207e+00
 6.617670e-01	 1.131847e+00	 6.354772e+00
 6.411880e-01	 1.143630e+00	 5.763812e+00
 7.485683e-01	 1.089916e+00	 7.856581e+00
 7.285659e-01	 1.103387e+00	 7.363826e+00
 7.083587e-01	 1.116467e+00	 7.076783e+00
 6.879580e-01	 1.129153e+00	 6.758197e+00
 6.673752e-01	 1.141439e+00	 6.313963e+00
 6.466218e-01	 1.153322e+00	 5.700163e+00
 7.548588e-01	 1.099075e+00	 7.842358e+00
 7.346883e-01	 1.112659e+00	 7.377085e+00
 7.143113e-01	 1.125850e+00	 7.026048e+00
 6.937392e-01	 1.138641e+00	 6.630167e+00
 6.729834e-01	 1.151030e+00	 6.140110e+00
 6.520556e-01	 1.163014e+00	 5.512548e+00
 6.248866e-01	 1.114555e+00	 5.208434e+00
 6.046770e-01	 1.125647e+00	 5.032489e+00
 5.843250e-01	 1.136345e+00	 4.777390e+00
 5.638417e-01	 1.146647e+00	 4.419407e+00
 5.432384e-01	 1.156550e+00	 3.938959e+00
 5.225263e-01	 1.166054e+00	 3.320400e+00
 6.303204e-01	 1.124247e+00	 5.517990e+00
 6.099351e-01	 1.135435e+00	 5.383914e+00
 5.894061e-01	 1.146226e+00	 5.159598e+00
 5.687447e-01	 1.156618e+00	 4.821042e+00
 5.479622e-01	 1.166607e+00	 4.348604e+00
 5.270700e-01	 1.176194e+00	 3.726775e+00
 6.357542e-01	 1.133939e+00	 5.703138e+00
 6.151932e-01	 1.145224e+00	 5.606831e+00
 5.944872e-01	 1.156108e+00	 5.409238e+00
 5.736477e-01	 1.166588e+00	 5.086153e+00
 5.526860e-01	 1.176664e+00	 4.617948e+00
 5.316137e-01	 1.186333e+00	 3.989328e+00
 6.411880e-01	 1.143630e+00	 5.763812e+00
 6.204512e-01	 1.155012e+00	 5.701080e+00
 5.995683e-01	 1.165989e+00	 5.526031e+00
 5.785506e-01	 1.176559e+00	 5.214324e+00
 5.574098e-01	 1.186721e+00	 4.746419e+00
 5.361574e-01	 1.196473e+00	 4.107321e+00
 6.466218e-01	 1.153322e+00	 5.700163e+00
 6.257093e-01	 1.164800e+00	 5.666707e+00
 6.046494e-01	 1.175870e+00	 5.509900e+00
 5.834536e-01	 1.186530e+00	 5.205334e+00
 5.621336e-01	 1.196778e+00	 4.733637e+00
 5.407011e-01	 1.206613e+00	 4.080194e+00
 6.520556e-01	 1.163014e+00	 5.512548e+00
 6.309674e-01	 1.174588e+00	 5.503961e+00
 6.097304e-01	 1.185751e+00	 5.360964e+00
 5.883566e-01	 1.196501e+00	 5.059152e+00
 5.668575e-01	 1.206835e+00	 4.579400e+00
 5.452448e-01	 1.216752e+00	 3.907563e+00
 5.225263e-01	 1.166054e+00	 3.320400e+00
 5.017165e-01	 1.175158e+00	 3.375564e+00
 4.808203e-01	 1.183861e+00	 3.291103e+00
 4.598487e-01	 1.192164e+00	 3.061499e+00
 4.388127e-01	 1.200066e+00	 2.683792e+00
 4.177231e-01	 1.207569e+00	 2.157198e+00
 5.270700e-01	 1.176194e+00	 3.726775e+00
 5.060793e-01	 1.185377e+00	 3.779921e+00
 4.850014e-01	 1.194156e+00	 3.689461e+00
 4.638474e-01	 1.202531e+00	 3.450758e+00
 4.426284e-01	 1.210502e+00	 3.061811e+00
 4.213555e-01	 1.218070e+00	 2.522857e+00
 5.316137e-01	 1.186333e+00	 3.989328e+00
 5.104420e-01	 1.195596e+00	 4.040548e+00
 4.891824e-01	 1.204450e+00	 3.944498e+00
 4.678461e-01	 1.212897e+00	 3.697509e+00
 4.464442e-01	 1.220937e+00	 3.298641e+00
 4.249879e-01	 1.228570e+00	 2.749248e+00
 5.361574e-01	 1.196473e+00	 4.107321e+00
 5.148048e-01	 1.205814e+00	 4.156442e+00
 4.933634e-01	 1.214745e+00	 4.054936e+00
 4.718447e-01	 1.223264e+00	 3.800201e+00
 4.502600e-01	 1.231373e+00	 3.392453e+00
 4.286202e-01	 1.239071e+00	 2.834268e+00
 5.407011e-01	 1.206613e+00	 4.080194e+00
 5.191675e-01	 1.216033e+00	 4.126772e+00
 4.975445e-01	 1.225039e+00	 4.019668e+00
 4.758434e-01	 1.233631e+00	 3.757443e+00
 4.540757e-01	 1.241808e+00	 3.341575e+00
 4.322526e-01	 1.249572e+00	 2.775965e+00
 5.452448e-01	 1.216752e+00	 3.907563e+00
 5.235303e-01	 1.226252e+00	 3.950878e+00
 5.017255e-01	 1.235334e+00	 3.837749e+00
 4.798421e-01	 1.243997e+00	 3.568003e+00
 4.578915e-01	 1.252243e+00	 3.144483e+00
 4.358850e-01	 1.260072e+00	 2.572528e+00
 4.177231e-01	 1.207569e+00	 2.157198e+00
 3.965908e-01	 1.214674e+00	 2.078165e+00
 3.754264e-01	 1.221381e+00	 1.955811e+00
 3.542403e-01	 1.227693e+00	 1.795979e+00
 3.330430e-01	 1.233612e+00	 1.620738e+00
 3.118445e-01	 1.239140e+00	 1.459410e+00
 4.213555e-01	 1.218070e+00	 2.522857e+00
 4.000394e-01	 1.225236e+00	 2.450689e+00
 3.786909e-01	 1.232002e+00	 2.330514e+00
 3.573207e-01	 1.238368e+00	 2.167783e+00
 3.359390e-01	 1.244339e+00	 1.981631e+00
 3.145562e-01	 1.249916e+00	 1.802171e+00
 4.249879e-01	 1.228570e+00	 2.749248e+00
 4.034880e-01	 1.235798e+00	 2.684415e+00
 3.819555e-01	 1.242622e+00	 2.567793e+00
 3.604010e-01	 1.249044e+00	 2.405176e+00
 3.388350e-01	 1.255066e+00	 2.212509e+00
 3.172679e-01	 1.260691e+00	 2.020238e+00
 4.286202e-01	 1.239071e+00	 2.834268e+00
 4.069366e-01	 1.246361e+00	 2.777029e+00
 3.852201e-01	 1.253243e+00	 2.665133e+00
 3.634814e-01	 1.259720e+00	 2.505263e+00
 3.417311e-01	 1.265793e+00	 2.310368e+00
 3.199796e-01	 1.271466e+00	 2.110563e+00
 4.322526e-01	 1.249572e+00	 2.775965e+00
 4.103853e-01	 1.256923e+00	 2.726356e+00
 3.884847e-01	 1.263864e+00	 2.620145e+00
 3.665617e-01	 1.270395e+00	 2.465259e+00
 3.446271e-01	 1.276520e+00	 2.272294e+00
 3.226913e-01	 1.282241e+00	 2.070160e+00
 4.358850e-01	 1.260072e+00	 2.572528e+00
 4.138339e-01	 1.267485e+00	 2.530358e+00
 3.917493e-01	 1.274484e+00	 2.430566e+00
 3.696421e-01	 1.281071e+00	 2.282492e+00
 3.475231e-01	 1.287247e+00	 2.095457e+00
 3.254030e-01	 1.293016e+00	 1.896110e+00
 3.118445e-01	 1.239140e+00	 1.459410e+00
 2.906549e-01	 1.244281e+00	 1.223082e+00
 2.694840e-01	 1.249037e+00	 1.009479e+00
 2.483412e-01	 1.253412e+00	 8.451616e-01
 2.272361e-01	 1.257410e+00	 7.549297e-01
 2.061777e-01	 1.261034e+00	 7.616690e-01
 3.145562e-01	 1.249916e+00	 1.802171e+00
 2.931823e-01	 1.255101e+00	 1.543975e+00
 2.718273e-01	 1.259899e+00	 1.309421e+00
 2.505007e-01	 1.264312e+00	 1.125381e+00
 2.292121e-01	 1.268344e+00	 1.016719e+00
 2.079705e-01	 1.272000e+00	 1.006154e+00
 3.172679e-01	 1.260691e+00	 2.020238e+00
 2.957098e-01	 1.265921e+00	 1.747382e+00
 2.741706e-01	 1.270760e+00	 1.499868e+00
 2.526602e-01	 1.275211e+00	 1.304836e+00
 2.311880e-01	 1.279278e+00	 1.187146e+00
 2.097634e-01	 1.282965e+00	 1.169266e+00
 3.199796e-01	 1.271466e+00	 2.110563e+00
 2.982372e-01	 1.276741e+00	 1.830241e+00
 2.765140e-01	 1.281621e+00	 1.577806e+00
 2.548197e-01	 1.286110e+00	 1.380616e+00
 2.331640e-01	 1.290212e+00	 1.263458e+00
 2.115562e-01	 1.293931e+00	 1.248459e+00
 3.226913e-01	 1.282241e+00	 2.070160e+00
 3.007647e-01	 1.287561e+00	 1.789537e+00
 2.788573e-01	 1.292482e+00	 1.540252e+00
 2.569792e-01	 1.297009e+00	 1.349830e+00
 2.351400e-01	 1.301146e+00	 1.242907e+00
 2.133491e-01	 1.304896e+00	 1.241180e+00
 3.254030e-01	 1.293016e+00	 1.896110e+00
 3.032921e-01	 1.298380e+00	 1.622301e+00
 2.812007e-01	 1.303343e+00	 1.384253e+00
 2.591387e-01	 1.307909e+00	 1.209600e+00
 2.371159e-01	 1.312080e+00	 1.122754e+00
 2.151419e-01	 1.315862e+00	 1.144875e+00
 2.061777e-01	 1.261034e+00	 7.616690e-01
 1.851749e-01	 1.264289e+00	 6.353707e-01
 1.642364e-01	 1.267179e+00	 5.161445e-01
 1.433707e-01	 1.269709e+00	 4.231715e-01
 1.225858e-01	 1.271884e+00	 3.742356e-01
 1.018898e-01	 1.273709e+00	 3.858849e-01
 2.079705e-01	 1.272000e+00	 1.006154e+00
 1.867851e-01	 1.275283e+00	 8.568160e-01
 1.656646e-01	 1.278198e+00	 7.149654e-01
 1.446174e-01	 1.280750e+00	 5.991159e-01
 1.236518e-01	 1.282944e+00	 5.262851e-01
 1.027758e-01	 1.284785e+00	 5.121925e-01
 2.097634e-01	 1.282965e+00	 1.169266e+00
 1.883953e-01	 1.286276e+00	 1.007480e+00
 1.670927e-01	 1.289217e+00	 8.539665e-01
 1.458641e-01	 1.291791e+00	 7.264492e-01
 1.247178e-01	 1.294004e+00	 6.410473e-01
 1.036618e-01	 1.295860e+00	 6.125140e-01
 2.115562e-01	 1.293931e+00	 1.248459e+00
 1.900056e-01	 1.297270e+00	 1.085057e+00
 1.685209e-01	 1.300236e+00	 9.311199e-01
 1.471108e-01	 1.302832e+00	 8.034500e-01
 1.257837e-01	 1.305064e+00	 7.171281e-01
 1.045478e-01	 1.306936e+00	 6.857961e-01
 2.133491e-01	 1.304896e+00	 1.241180e+00
 1.916158e-01	 1.308264e+00	 1.087231e+00
 1.699490e-01	 1.311255e+00	 9.443841e-01
 1.483575e-01	 1.313873e+00	 8.283808e-01
 1.268497e-01	 1.316123e+00	 7.531164e-01
 1.054338e-01	 1.318012e+00	 7.309686e-01
 2.151419e-01	 1.315862e+00	 1.144875e+00
 1.932260e-01	 1.319258e+00	 1.011679e+00
 1.713771e-01	 1.322274e+00	 8.917051e-01
 1.496042e-01	 1.324914e+00	 7.994885e-01
 1.279157e-01	 1.327183e+00	 7.475844e-01
 1.063198e-01	 1.329088e+00	 7.469448e-01
 1.018898e-01	 1.273709e+00	 3.858849e-01
 8.129021e-02	 1.275189e+00	 3.516295e-01
 6.079446e-02	 1.276331e+00	 3.110575e-01
 4.040965e-02	 1.277139e+00	 2.805806e-01
 2.014264e-02	 1.277619e+00	 2.763589e-01
 0.000000e+00	 1.277778e+00	 3.144586e-01
 1.027758e-01	 1.284785e+00	 5.121925e-01
 8.199708e-02	 1.286278e+00	 4.551249e-01
 6.132310e-02	 1.287429e+00	 3.933363e-01
 4.076104e-02	 1.288244e+00	 3.423597e-01
 2.031780e-02	 1.288729e+00	 3.175455e-01
 0.000000e+00	 1.288889e+00	 3.342488e-01
 1.036618e-01	 1.295860e+00	 6.125140e-01
 8.270395e-02	 1.297367e+00	 5.440177e-01
 6.185175e-02	 1.298528e+00	 4.720036e-01
 4.111243e-02	 1.299350e+00	 4.109899e-01
 2.049295e-02	 1.299838e+00	 3.753858e-01
 0.000000e+00	 1.300000e+00	 3.797114e-01
 1.045478e-01	 1.306936e+00	 6.857961e-01
 8.341082e-02	 1.308455e+00	 6.175948e-01
 6.238040e-02	 1.309626e+00	 5.466862e-01
 4.146382e-02	 1.310455e+00	 4.864296e-01
 2.066811e-02	 1.310948e+00	 4.501543e-01
 0.000000e+00	 1.311111e+00	 4.514138e-01
 1.054338e-01	 1.318012e+00	 7.309686e-01
 8.411770e-02	 1.319544e+00	 6.751274e-01
 6.290905e-02	 1.320725e+00	 6.169973e-01
 4.181521e-02	 1.321561e+00	 5.686267e-01
 2.084326e-02	 1.322058e+00	 5.421177e-01
 0.000000e+00	 1.322222e+00	 5.499185e-01
 1.063198e-01	 1.329088e+00	 7.469448e-01
 8.482457e-02	 1.330632e+00	 7.158717e-01
 6.343769e-02	 1.331823e+00	 6.825372e-01
 4.216660e-02	 1.332666e+00	 6.575184e-01
 2.101841e-02	 1.333168e+00	 6.515354e-01
 0.000000e+00	 1.333333e+00	 6.757829e-01
 1.333333e+00	 0.000000e+00	 1.791441e+01
 1.333168e+00	 2.101841e-02	 1.795168e+01
 1.332666e+00	 4.216660e-02	 1.796393e+01
 1.331823e+00	 6.343769e-02	 1.795452e+01
 1.330632e+00	 8.482457e-02	 1.792661e+01
 1.329088e+00	 1.063198e-01	 1.788322e+01
 1.344444e+00	 0.000000e+00	 1.771499e+01
 1.344277e+00	 2.119357e-02	 1.774537e+01
 1.343772e+00	 4.251798e-02	 1.775295e+01
 1.342922e+00	 6.396634e-02	 1.774084e+01
 1.341721e+00	 8.553144e-02	 1.771190e+01
 1.340163e+00	 1.072058e-01	 1.766885e+01
 1.355556e+00	 0.000000e+00	 1.752228e+01
 1.355387e+00	 2.136872e-02	 1.754737e+01
 1.354878e+00	 4.286937e-02	 1.755208e+01
 1.354020e+00	 6.449499e-02	 1.753921e+01
 1.352810e+00	 8.623831e-02	 1.751131e+01
 1.351239e+00	 1.080918e-01	 1.747075e+01
 1.366667e+00	 0.000000e+00	 1.733491e+01
 1.366497e+00	 2.154387e-02	 1.735643e+01
 1.365983e+00	 4.322076e-02	 1.736017e+01
 1.365119e+00	 6.502364e-02	 1.734860e+01
 1.363898e+00	 8.694518e-02	 1.732391e+01
 1.362315e+00	 1.089778e-01	 1.728809e+01
 1.377778e+00	 0.000000e+00	 1.715156e+01
 1.377607e+00	 2.171903e-02	 1.717133e+01
 1.377089e+00	 4.357215e-02	 1.717610e+01
 1.376217e+00	 6.555228e-02	 1.716798e+01
 1.374987e+00	 8.765205e-02	 1.714877e+01
 1.373391e+00	 1.098638e-01	 1.712004e+01
 1.388889e+00	 0.000000e+00	 1.697089e+01
 1.388716e+00	 2.189418e-02	 1.699083e+01
 1.388194e+00	 4.392354e-02	 1.699875e+01
 1.387316e+00	 6.608093e-02	 1.699635e+01
 1.386075e+00	 8.835892e-02	 1.698499e+01
 1.384466e+00	 1.107498e-01	 1.696577e+01
 1.329088e+00	 1.063198e-01	 1.788322e+01
 1.327183e+00	 1.279157e-01	 1.789077e+01
 1.324914e+00	 1.496042e-01	 1.787034e+01
 1.322274e+00	 1.713771e-01	 1.782375e+01
 1.319258e+00	 1.932260e-01	 1.775292e+01
 1.315862e+00	 2.151419e-01	 1.765989e+01
 1.340163e+00	 1.072058e-01	 1.766885e+01
 1.338243e+00	 1.289816e-01	 1.767083e+01
 1.335955e+00	 1.508509e-01	 1.764712e+01
 1.333293e+00	 1.728053e-01	 1.759923e+01
 1.330252e+00	 1.948362e-01	 1.752878e+01
 1.326827e+00	 2.169348e-01	 1.743753e+01
 1.351239e+00	 1.080918e-01	 1.747075e+01
 1.349303e+00	 1.300476e-01	 1.746915e+01
 1.346996e+00	 1.520976e-01	 1.744412e+01
 1.344312e+00	 1.742334e-01	 1.739685e+01
 1.341246e+00	 1.964464e-01	 1.732863e+01
 1.337793e+00	 2.187276e-01	 1.724094e+01
 1.362315e+00	 1.089778e-01	 1.728809e+01
 1.360363e+00	 1.311136e-01	 1.728496e+01
 1.358037e+00	 1.533443e-01	 1.726066e+01
 1.355331e+00	 1.756616e-01	 1.721601e+01
 1.352239e+00	 1.980566e-01	 1.715194e+01
 1.348758e+00	 2.205205e-01	 1.706961e+01
 1.373391e+00	 1.098638e-01	 1.712004e+01
 1.371423e+00	 1.321795e-01	 1.711752e+01
 1.369078e+00	 1.545910e-01	 1.709608e+01
 1.366349e+00	 1.770897e-01	 1.705610e+01
 1.363233e+00	 1.996669e-01	 1.699815e+01
 1.359724e+00	 2.223133e-01	 1.692303e+01
 1.384466e+00	 1.107498e-01	 1.696577e+01
 1.382483e+00	 1.332455e-01	 1.696611e+01
 1.380118e+00	 1.558377e-01	 1.694971e+01
 1.377368e+00	 1.785179e-01	 1.691654e+01
 1.374227e+00	 2.012771e-01	 1.686673e+01
 1.370689e+00	 2.241062e-01	 1.680070e+01
 1.315862e+00	 2.151419e-01	 1.765989e+01
 1.312080e+00	 2.371159e-01	 1.767861e+01
 1.307909e+00	 2.591387e-01	 1.765383e+01
 1.303343e+00	 2.812007e-01	 1.758758e+01
 1.298380e+00	 3.032921e-01	 1.748213e+01
 1.293016e+00	 3.254030e-01	 1.733994e+01
 1.326827e+00	 2.169348e-01	 1.743753e+01
 1.323014e+00	 2.390919e-01	 1.745755e+01
 1.318808e+00	 2.612982e-01	 1.743518e+01
 1.314205e+00	 2.835440e-01	 1.737222e+01
 1.309200e+00	 3.058195e-01	 1.727076e+01
 1.303791e+00	 3.281147e-01	 1.713311e+01
 1.337793e+00	 2.187276e-01	 1.724094e+01
 1.333948e+00	 2.410678e-01	 1.726313e+01
 1.329707e+00	 2.634577e-01	 1.724392e+01
 1.325066e+00	 2.858873e-01	 1.718485e+01
 1.320020e+00	 3.083470e-01	 1.708782e+01
 1.314566e+00	 3.308264e-01	 1.695501e+01
 1.348758e+00	 2.205205e-01	 1.706961e+01
 1.344882e+00	 2.430438e-01	 1.709490e+01
 1.340606e+00	 2.656171e-01	 1.707962e+01
 1.335927e+00	 2.882307e-01	 1.702506e+01
 1.330840e+00	 3.108744e-01	 1.693291e+01
 1.325342e+00	 3.335380e-01	 1.680521e+01
 1.359724e+00	 2.223133e-01	 1.692303e+01
 1.355816e+00	 2.450198e-01	 1.695238e+01
 1.351506e+00	 2.677766e-01	 1.694184e+01
 1.346788e+00	 2.905740e-01	 1.689240e+01
 1.341660e+00	 3.134018e-01	 1.680556e+01
 1.336117e+00	 3.362497e-01	 1.668324e+01
 1.370689e+00	 2.241062e-01	 1.680070e+01
 1.366750e+00	 2.469957e-01	 1.683512e+01
 1.362405e+00	 2.699361e-01	 1.683012e+01
 1.357649e+00	 2.929173e-01	 1.678643e+01
 1.352480e+00	 3.159293e-01	 1.670532e+01
 1.346892e+00	 3.389614e-01	 1.658858e+01
 1.293016e+00	 3.254030e-01	 1.733994e+01
 1.287247e+00	 3.475231e-01	 1.728443e+01
 1.281071e+00	 3.696421e-01	 1.718928e+01
 1.274484e+00	 3.917493e-01	 1.708655e+01
 1.267485e+00	 4.138339e-01	 1.701539e+01
 1.260072e+00	 4.358850e-01	 1.698298e+01
 1.303791e+00	 3.281147e-01	 1.713311e+01
 1.297974e+00	 3.504191e-01	 1.707950e+01
 1.291746e+00	 3.727224e-01	 1.698851e+01
 1.285105e+00	 3.950138e-01	 1.689709e+01
 1.278048e+00	 4.172825e-01	 1.683446e+01
 1.270573e+00	 4.395174e-01	 1.680834e+01
 1.314566e+00	 3.308264e-01	 1.695501e+01
 1.308701e+00	 3.533152e-01	 1.690414e+01
 1.302422e+00	 3.758028e-01	 1.681883e+01
 1.295726e+00	 3.982784e-01	 1.673746e+01
 1.288610e+00	 4.207311e-01	 1.668175e+01
 1.281073e+00	 4.431497e-01	 1.666001e+01
 1.325342e+00	 3.335380e-01	 1.680521e+01
 1.319428e+00	 3.562112e-01	 1.675785e+01
 1.313098e+00	 3.788831e-01	 1.667934e+01
 1.306346e+00	 4.015430e-01	 1.660661e+01
 1.299173e+00	 4.241797e-01	 1.655610e+01
 1.291574e+00	 4.467821e-01	 1.653674e+01
 1.336117e+00	 3.362497e-01	 1.668324e+01
 1.330155e+00	 3.591072e-01	 1.664010e+01
 1.323773e+00	 3.819635e-01	 1.656903e+01
 1.316967e+00	 4.048076e-01	 1.650343e+01
 1.309735e+00	 4.276283e-01	 1.645632e+01
 1.302075e+00	 4.504145e-01	 1.643723e+01
 1.346892e+00	 3.389614e-01	 1.658858e+01
 1.340883e+00	 3.620032e-01	 1.655032e+01
 1.334449e+00	 3.850438e-01	 1.648688e+01
 1.327588e+00	 4.080721e-01	 1.642680e+01
 1.320297e+00	 4.310770e-01	 1.638117e+01
 1.312575e+00	 4.540469e-01	 1.636018e+01
 1.260072e+00	 4.358850e-01	 1.698298e+01
 1.252243e+00	 4.578915e-01	 1.668390e+01
 1.243997e+00	 4.798421e-01	 1.646439e+01
 1.235334e+00	 5.017255e-01	 1.633348e+01
 1.226252e+00	 5.235303e-01	 1.629976e+01
 1.216752e+00	 5.452448e-01	 1.637107e+01
 1.270573e+00	 4.395174e-01	 1.680834e+01
 1.262679e+00	 4.617072e-01	 1.652187e+01
 1.254364e+00	 4.838408e-01	 1.631385e+01
 1.245628e+00	 5.059066e-01	 1.619423e+01
 1.236471e+00	 5.278930e-01	 1.617259e+01
 1.226892e+00	 5.497885e-01	 1.625783e+01
 1.281073e+00	 4.431497e-01	 1.666001e+01
 1.273114e+00	 4.655230e-01	 1.638508e+01
 1.264731e+00	 4.878395e-01	 1.618723e+01
 1.255923e+00	 5.100876e-01	 1.607735e+01
 1.246689e+00	 5.322558e-01	 1.606603e+01
 1.237031e+00	 5.543322e-01	 1.616325e+01
 1.291574e+00	 4.467821e-01	 1.653674e+01
 1.283549e+00	 4.693388e-01	 1.627216e+01
 1.275097e+00	 4.918382e-01	 1.608304e+01
 1.266217e+00	 5.142687e-01	 1.598122e+01
 1.256908e+00	 5.366185e-01	 1.597833e+01
 1.247171e+00	 5.588759e-01	 1.608543e+01
 1.302075e+00	 4.504145e-01	 1.643723e+01
 1.293985e+00	 4.731545e-01	 1.618170e+01
 1.285464e+00	 4.958369e-01	 1.599975e+01
 1.276511e+00	 5.184497e-01	 1.590420e+01
 1.267127e+00	 5.409813e-01	 1.590773e+01
 1.257311e+00	 5.634196e-01	 1.602251e+01
 1.312575e+00	 4.540469e-01	 1.636018e+01
 1.304420e+00	 4.769703e-01	 1.611229e+01
 1.295831e+00	 4.998355e-01	 1.593586e+01
 1.286806e+00	 5.226308e-01	 1.584468e+01
 1.277346e+00	 5.453440e-01	 1.585250e+01
 1.267450e+00	 5.679633e-01	 1.597264e+01
 1.216752e+00	 5.452448e-01	 1.637107e+01
 1.206835e+00	 5.668575e-01	 1.592824e+01
 1.196501e+00	 5.883566e-01	 1.561402e+01
 1.185751e+00	 6.097304e-01	 1.543078e+01
 1.174588e+00	 6.309674e-01	 1.537815e+01
 1.163014e+00	 6.520556e-01	 1.545248e+01
 1.226892e+00	 5.497885e-01	 1.625783e+01
 1.216892e+00	 5.715813e-01	 1.582262e+01
 1.206472e+00	 5.932595e-01	 1.551824e+01
 1.195633e+00	 6.148115e-01	 1.534809e+01
 1.184377e+00	 6.362254e-01	 1.531284e+01
 1.172706e+00	 6.574894e-01	 1.540989e+01
 1.237031e+00	 5.543322e-01	 1.616325e+01
 1.226949e+00	 5.763051e-01	 1.573206e+01
 1.216443e+00	 5.981625e-01	 1.543384e+01
 1.205514e+00	 6.198926e-01	 1.527302e+01
 1.194165e+00	 6.414835e-01	 1.525139e+01
 1.182397e+00	 6.629232e-01	 1.536745e+01
 1.247171e+00	 5.588759e-01	 1.608543e+01
 1.237006e+00	 5.810289e-01	 1.565457e+01
 1.226413e+00	 6.030655e-01	 1.535870e+01
 1.215395e+00	 6.249737e-01	 1.520336e+01
 1.203953e+00	 6.467415e-01	 1.519145e+01
 1.192089e+00	 6.683570e-01	 1.532264e+01
 1.257311e+00	 5.634196e-01	 1.602251e+01
 1.247063e+00	 5.857527e-01	 1.558819e+01
 1.236384e+00	 6.079685e-01	 1.529077e+01
 1.225277e+00	 6.300548e-01	 1.513691e+01
 1.213741e+00	 6.519996e-01	 1.513069e+01
 1.201781e+00	 6.737908e-01	 1.527301e+01
 1.267450e+00	 5.679633e-01	 1.597264e+01
 1.257120e+00	 5.904765e-01	 1.553099e+01
 1.246355e+00	 6.128714e-01	 1.522801e+01
 1.235158e+00	 6.351359e-01	 1.507153e+01
 1.223530e+00	 6.572577e-01	 1.506687e+01
 1.211473e+00	 6.792246e-01	 1.521616e+01
 1.163014e+00	 6.520556e-01	 1.545248e+01
 1.151030e+00	 6.729834e-01	 1.501223e+01
 1.138641e+00	 6.937392e-01	 1.464463e+01
 1.125850e+00	 7.143113e-01	 1.432809e+01
 1.112659e+00	 7.346883e-01	 1.403504e+01
 1.099075e+00	 7.548588e-01	 1.364870e+01
 1.172706e+00	 6.574894e-01	 1.540989e+01
 1.160622e+00	 6.785916e-01	 1.496806e+01
 1.148130e+00	 6.995203e-01	 1.461068e+01
 1.135232e+00	 7.202639e-01	 1.431786e+01
 1.121932e+00	 7.408107e-01	 1.406364e+01
 1.108234e+00	 7.611493e-01	 1.367211e+01
 1.182397e+00	 6.629232e-01	 1.536745e+01
 1.170214e+00	 6.841998e-01	 1.492612e+01
 1.157619e+00	 7.053015e-01	 1.458115e+01
 1.144614e+00	 7.262165e-01	 1.431441e+01
 1.131204e+00	 7.469331e-01	 1.408836e+01
 1.117393e+00	 7.674398e-01	 1.366655e+01
 1.192089e+00	 6.683570e-01	 1.532264e+01
 1.179806e+00	 6.898080e-01	 1.488359e+01
 1.167107e+00	 7.110827e-01	 1.455292e+01
 1.153996e+00	 7.321691e-01	 1.431428e+01
 1.140476e+00	 7.530555e-01	 1.409274e+01
 1.126552e+00	 7.737303e-01	 1.364056e+01
 1.201781e+00	 6.737908e-01	 1.527301e+01
 1.189398e+00	 6.954162e-01	 1.483774e+01
 1.176596e+00	 7.168638e-01	 1.452292e+01
 1.163378e+00	 7.381217e-01	 1.431411e+01
 1.149748e+00	 7.591779e-01	 1.407334e+01
 1.135711e+00	 7.800208e-01	 1.359157e+01
 1.211473e+00	 6.792246e-01	 1.521616e+01
 1.198990e+00	 7.010244e-01	 1.478587e+01
 1.186085e+00	 7.226450e-01	 1.448818e+01
 1.172760e+00	 7.440743e-01	 1.430681e+01
 1.159020e+00	 7.653004e-01	 1.402715e+01
 1.144870e+00	 7.863113e-01	 1.351662e+01
 1.099075e+00	 7.548588e-01	 1.364870e+01
 1.085101e+00	 7.748114e-01	 1.385941e+01
 1.070744e+00	 7.945351e-01	 1.379769e+01
 1.056007e+00	 8.140189e-01	 1.347363e+01
 1.040898e+00	 8.332519e-01	 1.290508e+01
 1.025423e+00	 8.522237e-01	 1.211733e+01
 1.108234e+00	 7.611493e-01	 1.367211e+01
 1.094144e+00	 7.812682e-01	 1.390956e+01
 1.079666e+00	 8.011563e-01	 1.386972e+01
 1.064807e+00	 8.208024e-01	 1.356137e+01
 1.049572e+00	 8.401957e-01	 1.300156e+01
 1.033968e+00	 8.593255e-01	 1.221528e+01
 1.117393e+00	 7.674398e-01	 1.366655e+01
 1.103186e+00	 7.877250e-01	 1.392604e+01
 1.088589e+00	 8.077774e-01	 1.390764e+01
 1.073607e+00	 8.275859e-01	 1.361457e+01
 1.058246e+00	 8.471394e-01	 1.306299e+01
 1.042514e+00	 8.664274e-01	 1.227751e+01
 1.126552e+00	 7.737303e-01	 1.364056e+01
 1.112229e+00	 7.941817e-01	 1.390444e+01
 1.097512e+00	 8.143985e-01	 1.390721e+01
 1.082407e+00	 8.343694e-01	 1.362918e+01
 1.066921e+00	 8.540832e-01	 1.308546e+01
 1.051059e+00	 8.735292e-01	 1.230025e+01
 1.135711e+00	 7.800208e-01	 1.359157e+01
 1.121271e+00	 8.006385e-01	 1.385019e+01
 1.106435e+00	 8.210196e-01	 1.386435e+01
 1.091207e+00	 8.411528e-01	 1.360135e+01
 1.075595e+00	 8.610270e-01	 1.306530e+01
 1.059604e+00	 8.806311e-01	 1.227994e+01
 1.144870e+00	 7.863113e-01	 1.351662e+01
 1.130314e+00	 8.070953e-01	 1.376630e+01
 1.115358e+00	 8.276408e-01	 1.377677e+01
 1.100007e+00	 8.479363e-01	 1.352747e+01
 1.084269e+00	 8.679707e-01	 1.299907e+01
 1.068149e+00	 8.877330e-01	 1.221326e+01
 1.025423e+00	 8.522237e-01	 1.211733e+01
 1.009589e+00	 8.709237e-01	 1.216628e+01
 9.934025e-01	 8.893420e-01	 1.204322e+01
 9.768717e-01	 9.074687e-01	 1.179307e+01
 9.600045e-01	 9.252941e-01	 1.146509e+01
 9.428090e-01	 9.428090e-01	 1.111170e+01
 1.033968e+00	 8.593255e-01	 1.221528e+01
 1.018002e+00	 8.781814e-01	 1.227476e+01
 1.001681e+00	 8.967532e-01	 1.216161e+01
 9.850123e-01	 9.150309e-01	 1.192158e+01
 9.680045e-01	 9.330049e-01	 1.160514e+01
 9.506658e-01	 9.506658e-01	 1.126611e+01
 1.042514e+00	 8.664274e-01	 1.227751e+01
 1.026415e+00	 8.854391e-01	 1.234608e+01
 1.009959e+00	 9.041644e-01	 1.224113e+01
 9.931529e-01	 9.225932e-01	 1.200935e+01
 9.760045e-01	 9.407157e-01	 1.170242e+01
 9.585225e-01	 9.585225e-01	 1.137569e+01
 1.051059e+00	 8.735292e-01	 1.230025e+01
 1.034829e+00	 8.926968e-01	 1.237652e+01
 1.018238e+00	 9.115756e-01	 1.227814e+01
 1.001294e+00	 9.301554e-01	 1.205272e+01
 9.840046e-01	 9.484265e-01	 1.175324e+01
 9.663793e-01	 9.663793e-01	 1.143666e+01
 1.059604e+00	 8.806311e-01	 1.227994e+01
 1.043242e+00	 8.999545e-01	 1.236262e+01
 1.026516e+00	 9.189868e-01	 1.226920e+01
 1.009434e+00	 9.377177e-01	 1.204825e+01
 9.920046e-01	 9.561373e-01	 1.175411e+01
 9.742360e-01	 9.742360e-01	 1.144545e+01
 1.068149e+00	 8.877330e-01	 1.221326e+01
 1.051655e+00	 9.072122e-01	 1.230115e+01
 1.034794e+00	 9.263980e-01	 1.221110e+01
 1.017575e+00	 9.452799e-01	 1.199271e+01
 1.000005e+00	 9.638480e-01	 1.170177e+01
 9.820928e-01	 9.820928e-01	 1.139869e+01
 9.428090e-01	 9.428090e-01	 1.111170e+01
 9.252941e-01	 9.600045e-01	 1.059169e+01
 9.074687e-01	 9.768717e-01	 1.016927e+01
 8.893420e-01	 9.934025e-01	 9.898644e+00
 8.709237e-01	 1.009589e+00	 9.831459e+00
 8.522237e-01	 1.025423e+00	 1.001527e+01
 9.506658e-01	 9.506658e-01	 1.126611e+01
 9.330049e-01	 9.680045e-01	 1.076192e+01
 9.150309e-01	 9.850123e-01	 1.035026e+01
 8.967532e-01	 1.001681e+00	 1.008681e+01
 8.781814e-01	 1.018002e+00	 1.002464e+01
 8.593255e-01	 1.033968e+00	 1.021268e+01
 9.585225e-01	 9.585225e-01	 1.137569e+01
 9.407157e-01	 9.760045e-01	 1.088204e+01
 9.225932e-01	 9.931529e-01	 1.047621e+01
 9.041644e-01	 1.009959e+00	 1.021544e+01
 8.854391e-01	 1.026415e+00	 1.015437e+01
 8.664274e-01	 1.042514e+00	 1.034342e+01
 9.663793e-01	 9.663793e-01	 1.143666e+01
 9.484265e-01	 9.840046e-01	 1.094826e+01
 9.301554e-01	 1.001294e+00	 1.054327e+01
 9.115756e-01	 1.018238e+00	 1.028061e+01
 8.926968e-01	 1.034829e+00	 1.021663e+01
 8.735292e-01	 1.051059e+00	 1.040339e+01
 9.742360e-01	 9.742360e-01	 1.144545e+01
 9.561373e-01	 9.920046e-01	 1.095697e+01
 9.377177e-01	 1.009434e+00	 1.054775e+01
 9.189868e-01	 1.026516e+00	 1.027854e+01
 8.999545e-01	 1.043242e+00	 1.020754e+01
 8.806311e-01	 1.059604e+00	 1.038857e+01
 9.820928e-01	 9.820928e-01	 1.139869e+01
 9.638480e-01	 1.000005e+00	 1.090474e+01
 9.452799e-01	 1.017575e+00	 1.048614e+01
 9.263980e-01	 1.034794e+00	 1.020561e+01
 9.072122e-01	 1.051655e+00	 1.012334e+01
 8.877330e-01	 1.068149e+00	 1.029507e+01
 8.522237e-01	 1.025423e+00	 1.001527e+01
 8.332519e-01	 1.040898e+00	 9.139836e+00
 8.140189e-01	 1.056007e+00	 8.467663e+00
 7.945351e-01	 1.070744e+00	 8.020517e+00
 7.748114e-01	 1.085101e+00	 7.811168e+00
 7.548588e-01	 1.099075e+00	 7.842358e+00
 8.593255e-01	 1.033968e+00	 1.021268e+01
 8.401957e-01	 1.049572e+00	 9.304301e+00
 8.208024e-01	 1.064807e+00	 8.626752e+00
 8.011563e-01	 1.079666e+00	 8.203289e+00
 7.812682e-01	 1.094144e+00	 8.047694e+00
 7.611493e-01	 1.108234e+00	 8.163170e+00
 8.664274e-01	 1.042514e+00	 1.034342e+01
 8.471394e-01	 1.058246e+00	 9.408243e+00
 8.275859e-01	 1.073607e+00	 8.731974e+00
 8.077774e-01	 1.088589e+00	 8.339457e+00
 7.877250e-01	 1.103186e+00	 8.245567e+00
 7.674398e-01	 1.117393e+00	 8.428307e+00
 8.735292e-01	 1.051059e+00	 1.040339e+01
 8.540832e-01	 1.066921e+00	 9.447254e+00
 8.343694e-01	 1.082407e+00	 8.778634e+00
 8.143985e-01	 1.097512e+00	 8.424066e+00
 7.941817e-01	 1.112229e+00	 8.398873e+00
 7.737303e-01	 1.126552e+00	 8.557859e+00
 8.806311e-01	 1.059604e+00	 1.038857e+01
 8.610270e-01	 1.075595e+00	 9.417002e+00
 8.411528e-01	 1.091207e+00	 8.762098e+00
 8.210196e-01	 1.106435e+00	 8.452201e+00
 8.006385e-01	 1.121271e+00	 8.446185e+00
 7.800208e-01	 1.135711e+00	 8.548888e+00
 8.877330e-01	 1.068149e+00	 1.029507e+01
 8.679707e-01	 1.084269e+00	 9.313248e+00
 8.479363e-01	 1.100007e+00	 8.677804e+00
 8.276408e-01	 1.115358e+00	 8.410118e+00
 8.070953e-01	 1.130314e+00	 8.353032e+00
 7.863113e-01	 1.144870e+00	 8.404206e+00
 7.548588e-01	 1.099075e+00	 7.842358e+00
 7.346883e-01	 1.112659e+00	 7.377085e+00
 7.143113e-01	 1.125850e+00	 7.026048e+00
 6.937392e-01	 1.138641e+00	 6.630167e+00
 6.729834e-01	 1.151030e+00	 6.140110e+00
 6.520556e-01	 1.163014e+00	 5.512548e+00
 7.611493e-01	 1.108234e+00	 8.163170e+00
 7.408107e-01	 1.121932e+00	 7.745312e+00
 7.202639e-01	 1.135232e+00	 7.366658e+00
 6.995203e-01	 1.148130e+00	 6.955693e+00
 6.785916e-01	 1.160622e+00	 6.462870e+00
 6.574894e-01	 1.172706e+00	 5.844857e+00
 7.674398e-01	 1.117393e+00	 8.428307e+00
 7.469331e-01	 1.131204e+00	 7.974309e+00
 7.262165e-01	 1.144614e+00	 7.571319e+00
 7.053015e-01	 1.157619e+00	 7.148975e+00
 6.841998e-01	 1.170214e+00	 6.656468e+00
 6.629232e-01	 1.182397e+00	 6.050495e+00
 7.737303e-01	 1.126552e+00	 8.557859e+00
 7.530555e-01	 1.140476e+00	 8.067094e+00
 7.321691e-01	 1.153996e+00	 7.641849e+00
 7.110827e-01	 1.167107e+00	 7.211593e+00
 6.898080e-01	 1.179806e+00	 6.722226e+00
 6.683570e-01	 1.192089e+00	 6.130515e+00
 7.800208e-01	 1.135711e+00	 8.548888e+00
 7.591779e-01	 1.149748e+00	 8.025855e+00
 7.381217e-01	 1.163378e+00	 7.580247e+00
 7.168638e-01	 1.176596e+00	 7.145307e+00
 6.954162e-01	 1.189398e+00	 6.661651e+00
 6.737908e-01	 1.201781e+00	 6.086154e+00
 7.863113e-01	 1.144870e+00	 8.404206e+00
 7.653004e-01	 1.159020e+00	 7.853019e+00
 7.440743e-01	 1.172760e+00	 7.389000e+00
 7.226450e-01	 1.186085e+00	 6.952050e+00
 7.010244e-01	 1.198990e+00	 6.476427e+00
 6.792246e-01	 1.211473e+00	 5.918831e+00
 6.520556e-01	 1.163014e+00	 5.512548e+00
 6.309674e-01	 1.174588e+00	 5.503961e+00
 6.097304e-01	 1.185751e+00	 5.360964e+00
 5.883566e-01	 1.196501e+00	 5.059152e+00
 5.668575e-01	 1.206835e+00	 4.579400e+00
 5.452448e-01	 1.216752e+00	 3.907563e+00
 6.574894e-01	 1.172706e+00	 5.844857e+00
 6.362254e-01	 1.184377e+00	 5.865577e+00
 6.148115e-01	 1.195633e+00	 5.741219e+00
 5.932595e-01	 1.206472e+00	 5.447662e+00
 5.715813e-01	 1.216892e+00	 4.966306e+00
 5.497885e-01	 1.226892e+00	 4.283758e+00
 6.629232e-01	 1.182397e+00	 6.050495e+00
 6.414835e-01	 1.194165e+00	 6.097702e+00
 6.198926e-01	 1.205514e+00	 5.989076e+00
 5.981625e-01	 1.216443e+00	 5.700851e+00
 5.763051e-01	 1.226949e+00	 5.215033e+00
 5.543322e-01	 1.237031e+00	 4.519069e+00
 6.683570e-01	 1.192089e+00	 6.130515e+00
 6.467415e-01	 1.203953e+00	 6.201220e+00
 6.249737e-01	 1.215395e+00	 6.105229e+00
 6.030655e-01	 1.226413e+00	 5.819202e+00
 5.810289e-01	 1.237006e+00	 5.325835e+00
 5.588759e-01	 1.247171e+00	 4.613505e+00
 6.737908e-01	 1.201781e+00	 6.086154e+00
 6.519996e-01	 1.213741e+00	 6.177199e+00
 6.300548e-01	 1.225277e+00	 6.090553e+00
 6.079685e-01	 1.236384e+00	 5.803376e+00
 5.857527e-01	 1.247063e+00	 5.299136e+00
 5.634196e-01	 1.257311e+00	 4.567237e+00
 6.792246e-01	 1.211473e+00	 5.918831e+00
 6.572577e-01	 1.223530e+00	 6.026885e+00
 6.351359e-01	 1.235158e+00	 5.946096e+00
 6.128714e-01	 1.246355e+00	 5.654202e+00
 5.904765e-01	 1.257120e+00	 5.135532e+00
 5.679633e-01	 1.267450e+00	 4.380606e+00
 5.452448e-01	 1.216752e+00	 3.907563e+00
 5.235303e-01	 1.226252e+00	 3.950878e+00
 5.017255e-01	 1.235334e+00	 3.837749e+00
 4.798421e-01	 1.243997e+00	 3.568003e+00
 4.578915e-01	 1.252243e+00	 3.144483e+00
 4.358850e-01	 1.260072e+00	 2.572528e+00
 5.497885e-01	 1.226892e+00	 4.283758e+00
 5.278930e-01	 1.236471e+00	 4.333325e+00
 5.059066e-01	 1.245628e+00	 4.223015e+00
 4.838408e-01	 1.254364e+00	 3.953880e+00
 4.617072e-01	 1.262679e+00	 3.530095e+00
 4.395174e-01	 1.270573e+00	 2.958414e+00
 5.543322e-01	 1.237031e+00	 4.519069e+00
 5.322558e-01	 1.246689e+00	 4.572253e+00
 5.100876e-01	 1.255923e+00	 4.462421e+00
 4.878395e-01	 1.264731e+00	 4.191958e+00
 4.655230e-01	 1.273114e+00	 3.766490e+00
 4.431497e-01	 1.281073e+00	 3.194300e+00
 5.588759e-01	 1.247171e+00	 4.613505e+00
 5.366185e-01	 1.256908e+00	 4.667413e+00
 5.142687e-01	 1.266217e+00	 4.555450e+00
 4.918382e-01	 1.275097e+00	 4.281448e+00
 4.693388e-01	 1.283549e+00	 3.852599e+00
 4.467821e-01	 1.291574e+00	 3.278841e+00
 5.634196e-01	 1.257311e+00	 4.567237e+00
 5.409813e-01	 1.267127e+00	 4.618716e+00
 5.184497e-01	 1.276511e+00	 4.501742e+00
 4.958369e-01	 1.285464e+00	 4.221710e+00
 4.731545e-01	 1.293985e+00	 3.787501e+00
 4.504145e-01	 1.302075e+00	 3.210831e+00
 5.679633e-01	 1.267450e+00	 4.380606e+00
 5.453440e-01	 1.277346e+00	 4.426235e+00
 5.226308e-01	 1.286806e+00	 4.301091e+00
 4.998355e-01	 1.295831e+00	 4.012252e+00
 4.769703e-01	 1.304420e+00	 3.570412e+00
 4.540469e-01	 1.312575e+00	 2.989196e+00
 4.358850e-01	 1.260072e+00	 2.572528e+00
 4.138339e-01	 1.267485e+00	 2.530358e+00
 3.917493e-01	 1.274484e+00	 2.430566e+00
 3.696421e-01	 1.281071e+00	 2.282492e+00
 3.475231e-01	 1.287247e+00	 2.095457e+00
 3.254030e-01	 1.293016e+00	 1.896110e+00
 4.395174e-01	 1.270573e+00	 2.958414e+00
 4.172825e-01	 1.278048e+00	 2.925479e+00
 3.950138e-01	 1.285105e+00	 2.828102e+00
 3.727224e-01	 1.291746e+00	 2.677151e+00
 3.504191e-01	 1.297974e+00	 2.482059e+00
 3.281147e-01	 1.303791e+00	 2.266310e+00
 4.431497e-01	 1.281073e+00	 3.194300e+00
 4.207311e-01	 1.288610e+00	 3.169737e+00
 3.982784e-01	 1.295726e+00	 3.074961e+00
 3.758028e-01	 1.302422e+00	 2.922484e+00
 3.533152e-01	 1.308701e+00	 2.722749e+00
 3.308264e-01	 1.314566e+00	 2.495697e+00
 4.467821e-01	 1.291574e+00	 3.278841e+00
 4.241797e-01	 1.299173e+00	 3.261536e+00
 4.015430e-01	 1.306346e+00	 3.169300e+00
 3.788831e-01	 1.313098e+00	 3.016413e+00
 3.562112e-01	 1.319428e+00	 2.815029e+00
 3.335380e-01	 1.325342e+00	 2.581604e+00
 4.504145e-01	 1.302075e+00	 3.210831e+00
 4.276283e-01	 1.309735e+00	 3.199408e+00
 4.048076e-01	 1.316967e+00	 3.109394e+00
 3.819635e-01	 1.323773e+00	 2.956965e+00
 3.591072e-01	 1.330155e+00	 2.756502e+00
 3.362497e-01	 1.336117e+00	 2.521443e+00
 4.540469e-01	 1.312575e+00	 2.989196e+00
 4.310770e-01	 1.320297e+00	 2.982012e+00
 4.080721e-01	 1.327588e+00	 2.893638e+00
 3.850438e-01	 1.334449e+00	 2.742278e+00
 3.620032e-01	 1.340883e+00	 2.544875e+00
 3.389614e-01	 1.346892e+00	 2.312705e+00
 3.254030e-01	 1.293016e+00	 1.896110e+00
 3.032921e-01	 1.298380e+00	 1.622301e+00
 2.812007e-01	 1.303343e+00	 1.384253e+00
 2.591387e-01	 1.307909e+00	 1.209600e+00
 2.371159e-01	 1.312080e+00	 1.122754e+00
 2.151419e-01	 1.315862e+00	 1.144875e+00
 3.281147e-01	 1.303791e+00	 2.266310e+00
 3.058195e-01	 1.309200e+00	 1.975485e+00
 2.835440e-01	 1.314205e+00	 1.719858e+00
 2.612982e-01	 1.318808e+00	 1.527170e+00
 2.390919e-01	 1.323014e+00	 1.421588e+00
 2.169348e-01	 1.326827e+00	 1.423717e+00
 3.308264e-01	 1.314566e+00	 2.495697e+00
 3.083470e-01	 1.320020e+00	 2.194211e+00
 2.858873e-01	 1.325066e+00	 1.928571e+00
 2.634577e-01	 1.329707e+00	 1.726560e+00
 2.410678e-01	 1.333948e+00	 1.612013e+00
 2.187276e-01	 1.337793e+00	 1.604866e+00
 3.335380e-01	 1.325342e+00	 2.581604e+00
 3.108744e-01	 1.330840e+00	 2.275720e+00
 2.882307e-01	 1.335927e+00	 2.007611e+00
 2.656171e-01	 1.340606e+00	 1.805033e+00
 2.430438e-01	 1.344882e+00	 1.691398e+00
 2.205205e-01	 1.348758e+00	 1.685855e+00
 3.362497e-01	 1.336117e+00	 2.521443e+00
 3.134018e-01	 1.341660e+00	 2.217307e+00
 2.905740e-01	 1.346788e+00	 1.954231e+00
 2.677766e-01	 1.351506e+00	 1.759874e+00
 2.450198e-01	 1.355816e+00	 1.657124e+00
 2.223133e-01	 1.359724e+00	 1.664219e+00
 3.389614e-01	 1.346892e+00	 2.312705e+00
 3.159293e-01	 1.352480e+00	 2.016328e+00
 2.929173e-01	 1.357649e+00	 1.765727e+00
 2.699361e-01	 1.362405e+00	 1.588392e+00
 2.469957e-01	 1.366750e+00	 1.506580e+00
 2.241062e-01	 1.370689e+00	 1.537493e+00
 2.151419e-01	 1.315862e+00	 1.144875e+00
 1.932260e-01	 1.319258e+00	 1.011679e+00
 1.713771e-01	 1.322274e+00	 8.917051e-01
 1.496042e-01	 1.324914e+00	 7.994885e-01
 1.279157e-01	 1.327183e+00	 7.475844e-01
 1.063198e-01	 1.329088e+00	 7.469448e-01
 2.169348e-01	 1.326827e+00	 1.423717e+00
 1.948362e-01	 1.330252e+00	 1.264546e+00
 1.728053e-01	 1.333293e+00	 1.119443e+00
 1.508509e-01	 1.335955e+00	 1.001657e+00
 1.289816e-01	 1.338243e+00	 9.223179e-01
 1.072058e-01	 1.340163e+00	 8.908623e-01
 2.187276e-01	 1.337793e+00	 1.604866e+00
 1.964464e-01	 1.341246e+00	 1.431608e+00
 1.742334e-01	 1.344312e+00	 1.273861e+00
 1.520976e-01	 1.346996e+00	 1.143427e+00
 1.300476e-01	 1.349303e+00	 1.049839e+00
 1.080918e-01	 1.351239e+00	 1.000838e+00
 2.205205e-01	 1.348758e+00	 1.685855e+00
 1.980566e-01	 1.352239e+00	 1.510604e+00
 1.756616e-01	 1.355331e+00	 1.352950e+00
 1.533443e-01	 1.358037e+00	 1.223077e+00
 1.311136e-01	 1.360363e+00	 1.128740e+00
 1.089778e-01	 1.362315e+00	 1.075799e+00
 2.223133e-01	 1.359724e+00	 1.664219e+00
 1.996669e-01	 1.363233e+00	 1.499268e+00
 1.770897e-01	 1.366349e+00	 1.354688e+00
 1.545910e-01	 1.369078e+00	 1.238869e+00
 1.321795e-01	 1.371423e+00	 1.157598e+00
 1.098638e-01	 1.373391e+00	 1.114657e+00
 2.241062e-01	 1.370689e+00	 1.537493e+00
 2.012771e-01	 1.374227e+00	 1.395326e+00
 1.785179e-01	 1.377368e+00	 1.277042e+00
 1.558377e-01	 1.380118e+00	 1.189051e+00
 1.332455e-01	 1.382483e+00	 1.134974e+00
 1.107498e-01	 1.384466e+00	 1.116306e+00
 1.063198e-01	 1.329088e+00	 7.469448e-01
 8.482457e-02	 1.330632e+00	 7.158717e-01
 6.343769e-02	 1.331823e+00	 6.825372e-01
 4.216660e-02	 1.332666e+00	 6.575184e-01
 2.101841e-02	 1.333168e+00	 6.515354e-01
 0.000000e+00	 1.333333e+00	 6.757829e-01
 1.072058e-01	 1.340163e+00	 8.908623e-01
 8.553144e-02	 1.341721e+00	 8.330415e-01
 6.396634e-02	 1.342922e+00	 7.755919e-01
 4.251798e-02	 1.343772e+00	 7.274380e-01
 2.119357e-02	 1.344277e+00	 6.977355e-01
 0.000000e+00	 1.344444e+00	 6.962463e-01
 1.080918e-01	 1.351239e+00	 1.000838e+00
 8.623831e-02	 1.352810e+00	 9.295810e-01
 6.449499e-02	 1.354020e+00	 8.608966e-01
 4.286937e-02	 1.354878e+00	 8.018789e-01
 2.136872e-02	 1.355387e+00	 7.599479e-01
 0.000000e+00	 1.355556e+00	 7.432687e-01
 1.089778e-01	 1.362315e+00	 1.075799e+00
 8.694518e-02	 1.363898e+00	 1.004759e+00
 6.502364e-02	 1.365119e+00	 9.380666e-01
 4.322076e-02	 1.365983e+00	 8.807981e-01
 2.154387e-02	 1.366497e+00	 8.384575e-01
 0.000000e+00	 1.366667e+00	 8.174412e-01
 1.098638e-01	 1.373391e+00	 1.114657e+00
 8.765205e-02	 1.374987e+00	 1.057830e+00
 6.555228e-02	 1.376217e+00	 1.006703e+00
 4.357215e-02	 1.377089e+00	 9.641414e-01
 2.171903e-02	 1.377607e+00	 9.335411e-01
 0.000000e+00	 1.377778e+00	 9.193493e-01
 1.107498e-01	 1.384466e+00	 1.116306e+00
 8.835892e-02	 1.386075e+00	 1.088031e+00
 6.608093e-02	 1.387316e+00	 1.066395e+00
 4.392354e-02	 1.388194e+00	 1.051844e+00
 2.189418e-02	 1.388716e+00	 1.045467e+00
 0.000000e+00	 1.388889e+00	 1.049573e+00
 1.388889e+00	 0.000000e+00	 1.697089e+01
 1.388716e+00	 2.189418e-02	 1.699083e+01
 1.388194e+00	 4.392354e-02	 1.699875e+01
 1.387316e+00	 6.608093e-02	 1.699635e+01
 1.386075e+00	 8.835892e-02	 1.698499e+01
 1.384466e+00	 1.107498e-01	 1.696577e+01
 1.400000e+00	 0.000000e+00	 1.680869e+01
 1.399826e+00	 2.206933e-02	 1.681999e+01
 1.399300e+00	 4.427493e-02	 1.682208e+01
 1.398415e+00	 6.660958e-02	 1.681618e+01
 1.397164e+00	 8.906580e-02	 1.680313e+01
 1.395542e+00	 1.116358e-01	 1.678353e+01
 1.411111e+00	 0.000000e+00	 1.665086e+01
 1.410936e+00	 2.224449e-02	 1.665541e+01
 1.410405e+00	 4.462631e-02	 1.665375e+01
 1.409513e+00	 6.713823e-02	 1.664657e+01
 1.408253e+00	 8.977267e-02	 1.663416e+01
 1.406618e+00	 1.125218e-01	 1.661656e+01
 1.422222e+00	 0.000000e+00	 1.649599e+01
 1.422046e+00	 2.241964e-02	 1.649580e+01
 1.421511e+00	 4.497770e-02	 1.649259e+01
 1.420612e+00	 6.766687e-02	 1.648646e+01
 1.419341e+00	 9.047954e-02	 1.647713e+01
 1.417693e+00	 1.134078e-01	 1.646400e+01
 1.433333e+00	 0.000000e+00	 1.634269e+01
 1.433155e+00	 2.259479e-02	 1.633991e+01
 1.432616e+00	 4.532909e-02	 1.633745e+01
 1.431710e+00	 6.819552e-02	 1.633484e+01
 1.430430e+00	 9.118641e-02	 1.633111e+01
 1.428769e+00	 1.142938e-01	 1.632501e+01
 1.444444e+00	 0.000000e+00	 1.618960e+01
 1.444265e+00	 2.276995e-02	 1.618647e+01
 1.443722e+00	 4.568048e-02	 1.618722e+01
 1.442809e+00	 6.872417e-02	 1.619067e+01
 1.441518e+00	 9.189328e-02	 1.619518e+01
 1.439845e+00	 1.151798e-01	 1.619877e+01
 1.384466e+00	 1.107498e-01	 1.696577e+01
 1.382483e+00	 1.332455e-01	 1.696611e+01
 1.380118e+00	 1.558377e-01	 1.694971e+01
 1.377368e+00	 1.785179e-01	 1.691654e+01
 1.374227e+00	 2.012771e-01	 1.686673e+01
 1.370689e+00	 2.241062e-01	 1.680070e+01
 1.395542e+00	 1.116358e-01	 1.678353e+01
 1.393542e+00	 1.343114e-01	 1.677690e+01
 1.391159e+00	 1.570844e-01	 1.675636e+01
 1.388387e+00	 1.799460e-01	 1.672142e+01
 1.385221e+00	 2.028873e-01	 1.667178e+01
 1.381655e+00	 2.258990e-01	 1.660748e+01
 1.406618e+00	 1.125218e-01	 1.661656e+01
 1.404602e+00	 1.353774e-01	 1.660545e+01
 1.402200e+00	 1.583311e-01	 1.658317e+01
 1.399406e+00	 1.813741e-01	 1.654875e+01
 1.396215e+00	 2.044975e-01	 1.650144e+01
 1.392620e+00	 2.276919e-01	 1.644085e+01
 1.417693e+00	 1.134078e-01	 1.646400e+01
 1.415662e+00	 1.364434e-01	 1.645096e+01
 1.413241e+00	 1.595778e-01	 1.642944e+01
 1.410425e+00	 1.828023e-01	 1.639790e+01
 1.407208e+00	 2.061077e-01	 1.635511e+01
 1.403586e+00	 2.294847e-01	 1.630022e+01
 1.428769e+00	 1.142938e-01	 1.632501e+01
 1.426722e+00	 1.375093e-01	 1.631270e+01
 1.424282e+00	 1.608245e-01	 1.629447e+01
 1.421444e+00	 1.842304e-01	 1.626823e+01
 1.418202e+00	 2.077179e-01	 1.623218e+01
 1.414551e+00	 2.312776e-01	 1.618500e+01
 1.439845e+00	 1.151798e-01	 1.619877e+01
 1.437782e+00	 1.385753e-01	 1.618991e+01
 1.435323e+00	 1.620712e-01	 1.617759e+01
 1.432463e+00	 1.856586e-01	 1.615909e+01
 1.429196e+00	 2.093282e-01	 1.613205e+01
 1.425517e+00	 2.330704e-01	 1.609461e+01
 1.370689e+00	 2.241062e-01	 1.680070e+01
 1.366750e+00	 2.469957e-01	 1.683512e+01
 1.362405e+00	 2.699361e-01	 1.683012e+01
 1.357649e+00	 2.929173e-01	 1.678643e+01
 1.352480e+00	 3.159293e-01	 1.670532e+01
 1.346892e+00	 3.389614e-01	 1.658858e+01
 1.381655e+00	 2.258990e-01	 1.660748e+01
 1.377684e+00	 2.489717e-01	 1.663992e+01
 1.373304e+00	 2.720956e-01	 1.663487e+01
 1.368511e+00	 2.952607e-01	 1.659282e+01
 1.363299e+00	 3.184567e-01	 1.651483e+01
 1.357667e+00	 3.416731e-01	 1.640257e+01
 1.392620e+00	 2.276919e-01	 1.644085e+01
 1.388618e+00	 2.509477e-01	 1.647237e+01
 1.384203e+00	 2.742551e-01	 1.646810e+01
 1.379372e+00	 2.976040e-01	 1.642825e+01
 1.374119e+00	 3.209841e-01	 1.635367e+01
 1.368442e+00	 3.443848e-01	 1.624592e+01
 1.403586e+00	 2.294847e-01	 1.630022e+01
 1.399552e+00	 2.529236e-01	 1.633190e+01
 1.395103e+00	 2.764146e-01	 1.632924e+01
 1.390233e+00	 2.999474e-01	 1.629212e+01
 1.384939e+00	 3.235116e-01	 1.622121e+01
 1.379217e+00	 3.470965e-01	 1.611793e+01
 1.414551e+00	 2.312776e-01	 1.618500e+01
 1.410486e+00	 2.548996e-01	 1.621795e+01
 1.406002e+00	 2.785741e-01	 1.621771e+01
 1.401094e+00	 3.022907e-01	 1.618384e+01
 1.395759e+00	 3.260390e-01	 1.611679e+01
 1.389992e+00	 3.498082e-01	 1.601788e+01
 1.425517e+00	 2.330704e-01	 1.609461e+01
 1.421420e+00	 2.568756e-01	 1.612993e+01
 1.416901e+00	 2.807336e-01	 1.613290e+01
 1.411955e+00	 3.046340e-01	 1.610275e+01
 1.406579e+00	 3.285664e-01	 1.603972e+01
 1.400767e+00	 3.525199e-01	 1.594500e+01
 1.346892e+00	 3.389614e-01	 1.658858e+01
 1.340883e+00	 3.620032e-01	 1.655032e+01
 1.334449e+00	 3.850438e-01	 1.648688e+01
 1.327588e+00	 4.080721e-01	 1.642680e+01
 1.320297e+00	 4.310770e-01	 1.638117e+01
 1.312575e+00	 4.540469e-01	 1.636018e+01
 1.357667e+00	 3.416731e-01	 1.640257e+01
 1.351610e+00	 3.648993e-01	 1.637018e+01
 1.345124e+00	 3.881242e-01	 1.631616e+01
 1.338209e+00	 4.113367e-01	 1.626360e+01
 1.330860e+00	 4.345256e-01	 1.622282e+01
 1.323076e+00	 4.576792e-01	 1.620465e+01
 1.368442e+00	 3.443848e-01	 1.624592e+01
 1.362337e+00	 3.677953e-01	 1.621978e+01
 1.355800e+00	 3.912045e-01	 1.617432e+01
 1.348829e+00	 4.146013e-01	 1.612733e+01
 1.341422e+00	 4.379742e-01	 1.608916e+01
 1.333576e+00	 4.613116e-01	 1.607127e+01
 1.379217e+00	 3.470965e-01	 1.611793e+01
 1.373064e+00	 3.706913e-01	 1.609831e+01
 1.366476e+00	 3.942849e-01	 1.606014e+01
 1.359450e+00	 4.178659e-01	 1.601671e+01
 1.351984e+00	 4.414228e-01	 1.597884e+01
 1.344077e+00	 4.649440e-01	 1.595864e+01
 1.389992e+00	 3.498082e-01	 1.601788e+01
 1.383791e+00	 3.735873e-01	 1.600498e+01
 1.377151e+00	 3.973652e-01	 1.597239e+01
 1.370071e+00	 4.211304e-01	 1.593043e+01
 1.362547e+00	 4.448714e-01	 1.589051e+01
 1.354578e+00	 4.685764e-01	 1.586538e+01
 1.400767e+00	 3.525199e-01	 1.594500e+01
 1.394518e+00	 3.764834e-01	 1.593868e+01
 1.387827e+00	 4.004456e-01	 1.590981e+01
 1.380691e+00	 4.243950e-01	 1.586719e+01
 1.373109e+00	 4.483200e-01	 1.582282e+01
 1.365078e+00	 4.722087e-01	 1.579008e+01
 1.312575e+00	 4.540469e-01	 1.636018e+01
 1.304420e+00	 4.769703e-01	 1.611229e+01
 1.295831e+00	 4.998355e-01	 1.593586e+01
 1.286806e+00	 5.226308e-01	 1.584468e+01
 1.277346e+00	 5.453440e-01	 1.585250e+01
 1.267450e+00	 5.679633e-01	 1.597264e+01
 1.323076e+00	 4.576792e-01	 1.620465e+01
 1.314855e+00	 4.807861e-01	 1.597128e+01
 1.306197e+00	 5.038342e-01	 1.580792e+01
 1.297100e+00	 5.268118e-01	 1.572937e+01
 1.287565e+00	 5.497068e-01	 1.575044e+01
 1.277590e+00	 5.725070e-01	 1.588563e+01
 1.333576e+00	 4.613116e-01	 1.607127e+01
 1.325291e+00	 4.846018e-01	 1.585089e+01
 1.316564e+00	 5.078329e-01	 1.569880e+01
 1.307395e+00	 5.309929e-01	 1.563082e+01
 1.297783e+00	 5.540696e-01	 1.566285e+01
 1.287729e+00	 5.770507e-01	 1.581058e+01
 1.344077e+00	 4.649440e-01	 1.595864e+01
 1.335726e+00	 4.884176e-01	 1.574963e+01
 1.326930e+00	 5.118316e-01	 1.560695e+01
 1.317689e+00	 5.351739e-01	 1.554741e+01
 1.308002e+00	 5.584323e-01	 1.558805e+01
 1.297869e+00	 5.815945e-01	 1.574570e+01
 1.354578e+00	 4.685764e-01	 1.586538e+01
 1.346162e+00	 4.922333e-01	 1.566605e+01
 1.337297e+00	 5.158303e-01	 1.553084e+01
 1.327984e+00	 5.393550e-01	 1.547756e+01
 1.318221e+00	 5.627951e-01	 1.552435e+01
 1.308009e+00	 5.861382e-01	 1.568927e+01
 1.365078e+00	 4.722087e-01	 1.579008e+01
 1.356597e+00	 4.960491e-01	 1.559870e+01
 1.347664e+00	 5.198290e-01	 1.546895e+01
 1.338278e+00	 5.435360e-01	 1.541970e+01
 1.328440e+00	 5.671578e-01	 1.547016e+01
 1.318148e+00	 5.906819e-01	 1.563959e+01
 1.267450e+00	 5.679633e-01	 1.597264e+01
 1.257120e+00	 5.904765e-01	 1.553099e+01
 1.246355e+00	 6.128714e-01	 1.522801e+01
 1.235158e+00	 6.351359e-01	 1.507153e+01
 1.223530e+00	 6.572577e-01	 1.506687e+01
 1.211473e+00	 6.792246e-01	 1.521616e+01
 1.277590e+00	 5.725070e-01	 1.588563e+01
 1.267177e+00	 5.952003e-01	 1.544586e+01
 1.256326e+00	 6.177744e-01	 1.514646e+01
 1.245039e+00	 6.402170e-01	 1.499659e+01
 1.233318e+00	 6.625157e-01	 1.500298e+01
 1.221165e+00	 6.846583e-01	 1.516921e+01
 1.287729e+00	 5.770507e-01	 1.581058e+01
 1.277234e+00	 5.999241e-01	 1.536985e+01
 1.266297e+00	 6.226774e-01	 1.507103e+01
 1.254920e+00	 6.452981e-01	 1.492467e+01
 1.243106e+00	 6.677738e-01	 1.493891e+01
 1.230856e+00	 6.900921e-01	 1.511886e+01
 1.297869e+00	 5.815945e-01	 1.574570e+01
 1.287291e+00	 6.046479e-01	 1.530107e+01
 1.276268e+00	 6.275803e-01	 1.499974e+01
 1.264802e+00	 6.503791e-01	 1.485365e+01
 1.252894e+00	 6.730318e-01	 1.487244e+01
 1.240548e+00	 6.955259e-01	 1.506274e+01
 1.308009e+00	 5.861382e-01	 1.568927e+01
 1.297347e+00	 6.093718e-01	 1.523771e+01
 1.286238e+00	 6.324833e-01	 1.493068e+01
 1.274683e+00	 6.554602e-01	 1.478154e+01
 1.262683e+00	 6.782899e-01	 1.480143e+01
 1.250240e+00	 7.009597e-01	 1.499856e+01
 1.318148e+00	 5.906819e-01	 1.563959e+01
 1.307404e+00	 6.140956e-01	 1.517802e+01
 1.296209e+00	 6.373863e-01	 1.486202e+01
 1.284564e+00	 6.605413e-01	 1.470641e+01
 1.272471e+00	 6.835480e-01	 1.472384e+01
 1.259932e+00	 7.063935e-01	 1.492417e+01
 1.211473e+00	 6.792246e-01	 1.521616e+01
 1.198990e+00	 7.010244e-01	 1.478587e+01
 1.186085e+00	 7.226450e-01	 1.448818e+01
 1.172760e+00	 7.440743e-01	 1.430681e+01
 1.159020e+00	 7.653004e-01	 1.402715e+01
 1.144870e+00	 7.863113e-01	 1.351662e+01
 1.221165e+00	 6.846583e-01	 1.516921e+01
 1.208582e+00	 7.066326e-01	 1.476050e+01
 1.195573e+00	 7.284261e-01	 1.450008e+01
 1.182142e+00	 7.500269e-01	 1.434841e+01
 1.168292e+00	 7.714228e-01	 1.405466e+01
 1.154029e+00	 7.926017e-01	 1.354580e+01
 1.230856e+00	 6.900921e-01	 1.511886e+01
 1.218174e+00	 7.122408e-01	 1.473237e+01
 1.205062e+00	 7.342073e-01	 1.450983e+01
 1.191524e+00	 7.559795e-01	 1.436558e+01
 1.177564e+00	 7.775452e-01	 1.405860e+01
 1.163188e+00	 7.988922e-01	 1.355208e+01
 1.240548e+00	 6.955259e-01	 1.506274e+01
 1.227766e+00	 7.178490e-01	 1.469884e+01
 1.214551e+00	 7.399885e-01	 1.451452e+01
 1.200906e+00	 7.619321e-01	 1.435626e+01
 1.186837e+00	 7.836676e-01	 1.403699e+01
 1.172347e+00	 8.051827e-01	 1.353347e+01
 1.250240e+00	 7.009597e-01	 1.499856e+01
 1.237358e+00	 7.234571e-01	 1.465738e+01
 1.224039e+00	 7.457696e-01	 1.450341e+01
 1.210288e+00	 7.678847e-01	 1.431878e+01
 1.196109e+00	 7.897900e-01	 1.398819e+01
 1.181506e+00	 8.114732e-01	 1.348841e+01
 1.259932e+00	 7.063935e-01	 1.492417e+01
 1.246950e+00	 7.290653e-01	 1.460558e+01
 1.233528e+00	 7.515508e-01	 1.446176e+01
 1.219670e+00	 7.738373e-01	 1.425184e+01
 1.205381e+00	 7.959124e-01	 1.391094e+01
 1.190665e+00	 8.177637e-01	 1.341565e+01
 1.144870e+00	 7.863113e-01	 1.351662e+01
 1.130314e+00	 8.070953e-01	 1.376630e+01
 1.115358e+00	 8.276408e-01	 1.377677e+01
 1.100007e+00	 8.479363e-01	 1.352747e+01
 1.084269e+00	 8.679707e-01	 1.299907e+01
 1.068149e+00	 8.877330e-01	 1.221326e+01
 1.154029e+00	 7.926017e-01	 1.354580e+01
 1.139356e+00	 8.135520e-01	 1.381171e+01
 1.124281e+00	 8.342619e-01	 1.383824e+01
 1.108807e+00	 8.547198e-01	 1.361223e+01
 1.092943e+00	 8.749145e-01	 1.310898e+01
 1.076694e+00	 8.948348e-01	 1.233556e+01
 1.163188e+00	 7.988922e-01	 1.355208e+01
 1.148399e+00	 8.200088e-01	 1.382872e+01
 1.133204e+00	 8.408830e-01	 1.386573e+01
 1.117608e+00	 8.615033e-01	 1.364945e+01
 1.101617e+00	 8.818583e-01	 1.316664e+01
 1.085239e+00	 9.019367e-01	 1.240374e+01
 1.172347e+00	 8.051827e-01	 1.353347e+01
 1.157441e+00	 8.264655e-01	 1.381551e+01
 1.142126e+00	 8.475041e-01	 1.385758e+01
 1.126408e+00	 8.682868e-01	 1.364512e+01
 1.110291e+00	 8.888020e-01	 1.316941e+01
 1.093785e+00	 9.090386e-01	 1.241535e+01
 1.181506e+00	 8.114732e-01	 1.348841e+01
 1.166484e+00	 8.329223e-01	 1.377067e+01
 1.151049e+00	 8.541253e-01	 1.381253e+01
 1.135208e+00	 8.750703e-01	 1.359848e+01
 1.118966e+00	 8.957458e-01	 1.311900e+01
 1.102330e+00	 9.161404e-01	 1.236824e+01
 1.190665e+00	 8.177637e-01	 1.341565e+01
 1.175526e+00	 8.393791e-01	 1.369312e+01
 1.159972e+00	 8.607464e-01	 1.372965e+01
 1.144008e+00	 8.818538e-01	 1.350874e+01
 1.127640e+00	 9.026896e-01	 1.301999e+01
 1.110875e+00	 9.232423e-01	 1.226060e+01
 1.068149e+00	 8.877330e-01	 1.221326e+01
 1.051655e+00	 9.072122e-01	 1.230115e+01
 1.034794e+00	 9.263980e-01	 1.221110e+01
 1.017575e+00	 9.452799e-01	 1.199271e+01
 1.000005e+00	 9.638480e-01	 1.170177e+01
 9.820928e-01	 9.820928e-01	 1.139869e+01
 1.076694e+00	 8.948348e-01	 1.233556e+01
 1.060068e+00	 9.144699e-01	 1.243854e+01
 1.043073e+00	 9.338091e-01	 1.235985e+01
 1.025715e+00	 9.528421e-01	 1.215019e+01
 1.008005e+00	 9.715588e-01	 1.186684e+01
 9.899495e-01	 9.899495e-01	 1.157215e+01
 1.085239e+00	 9.019367e-01	 1.240374e+01
 1.068482e+00	 9.217276e-01	 1.252095e+01
 1.051351e+00	 9.412203e-01	 1.245231e+01
 1.033856e+00	 9.604044e-01	 1.224964e+01
 1.016005e+00	 9.792696e-01	 1.197184e+01
 9.978062e-01	 9.978062e-01	 1.168324e+01
 1.093785e+00	 9.090386e-01	 1.241535e+01
 1.076895e+00	 9.289853e-01	 1.254601e+01
 1.059629e+00	 9.486315e-01	 1.248612e+01
 1.041996e+00	 9.679666e-01	 1.228868e+01
 1.024005e+00	 9.869804e-01	 1.201427e+01
 1.005663e+00	 1.005663e+00	 1.172932e+01
 1.102330e+00	 9.161404e-01	 1.236824e+01
 1.085308e+00	 9.362430e-01	 1.251164e+01
 1.067908e+00	 9.560427e-01	 1.245922e+01
 1.050137e+00	 9.755288e-01	 1.226519e+01
 1.032005e+00	 9.946912e-01	 1.199192e+01
 1.013520e+00	 1.013520e+00	 1.170804e+01
 1.110875e+00	 9.232423e-01	 1.226060e+01
 1.093721e+00	 9.435007e-01	 1.241611e+01
 1.076186e+00	 9.634539e-01	 1.236988e+01
 1.058278e+00	 9.830911e-01	 1.217741e+01
 1.040005e+00	 1.002402e+00	 1.190290e+01
 1.021376e+00	 1.021376e+00	 1.161734e+01
 9.820928e-01	 9.820928e-01	 1.139869e+01
 9.638480e-01	 1.000005e+00	 1.090474e+01
 9.452799e-01	 1.017575e+00	 1.048614e+01
 9.263980e-01	 1.034794e+00	 1.020561e+01
 9.072122e-01	 1.051655e+00	 1.012334e+01
 8.877330e-01	 1.068149e+00	 1.029507e+01
 9.899495e-01	 9.899495e-01	 1.157215e+01
 9.715588e-01	 1.008005e+00	 1.107592e+01
 9.528421e-01	 1.025715e+00	 1.065758e+01
 9.338091e-01	 1.043073e+00	 1.038224e+01
 9.144699e-01	 1.060068e+00	 1.031251e+01
 8.948348e-01	 1.076694e+00	 1.050642e+01
 9.978062e-01	 9.978062e-01	 1.168324e+01
 9.792696e-01	 1.016005e+00	 1.118149e+01
 9.604044e-01	 1.033856e+00	 1.076024e+01
 9.412203e-01	 1.051351e+00	 1.048715e+01
 9.217276e-01	 1.068482e+00	 1.042738e+01
 9.019367e-01	 1.085239e+00	 1.064145e+01
 1.005663e+00	 1.005663e+00	 1.172932e+01
 9.869804e-01	 1.024005e+00	 1.121866e+01
 9.679666e-01	 1.041996e+00	 1.079114e+01
 9.486315e-01	 1.059629e+00	 1.051712e+01
 9.289853e-01	 1.076895e+00	 1.046451e+01
 9.090386e-01	 1.093785e+00	 1.069645e+01
 1.013520e+00	 1.013520e+00	 1.170804e+01
 9.946912e-01	 1.032005e+00	 1.118489e+01
 9.755288e-01	 1.050137e+00	 1.074752e+01
 9.560427e-01	 1.067908e+00	 1.046916e+01
 9.362430e-01	 1.085308e+00	 1.042062e+01
 9.161404e-01	 1.102330e+00	 1.066790e+01
 1.021376e+00	 1.021376e+00	 1.161734e+01
 1.002402e+00	 1.040005e+00	 1.107794e+01
 9.830911e-01	 1.058278e+00	 1.062690e+01
 9.634539e-01	 1.076186e+00	 1.034051e+01
 9.435007e-01	 1.093721e+00	 1.029269e+01
 9.232423e-01	 1.110875e+00	 1.055243e+01
 8.877330e-01	 1.068149e+00	 1.029507e+01
 8.679707e-01	 1.084269e+00	 9.313248e+00
 8.479363e-01	 1.100007e+00	 8.677804e+00
 8.276408e-01	 1.115358e+00	 8.410118e+00
 8.070953e-01	 1.130314e+00	 8.353032e+00
 7.863113e-01	 1.144870e+00	 8.404206e+00
 8.948348e-01	 1.076694e+00	 1.050642e+01
 8.749145e-01	 1.092943e+00	 9.556770e+00
 8.547198e-01	 1.108807e+00	 8.984084e+00
 8.342619e-01	 1.124281e+00	 8.738214e+00
 8.135520e-01	 1.139356e+00	 8.661759e+00
 7.926017e-01	 1.154029e+00	 8.703755e+00
 9.019367e-01	 1.085239e+00	 1.064145e+01
 8.818583e-01	 1.101617e+00	 9.727588e+00
 8.615033e-01	 1.117608e+00	 9.205057e+00
 8.408830e-01	 1.133204e+00	 8.935692e+00
 8.200088e-01	 1.148399e+00	 8.843447e+00
 7.988922e-01	 1.163188e+00	 8.879430e+00
 9.090386e-01	 1.093785e+00	 1.069645e+01
 8.888020e-01	 1.110291e+00	 9.821612e+00
 8.682868e-01	 1.126408e+00	 9.297949e+00
 8.475041e-01	 1.142126e+00	 9.006532e+00
 8.264655e-01	 1.157441e+00	 8.901737e+00
 8.051827e-01	 1.172347e+00	 8.934530e+00
 9.161404e-01	 1.102330e+00	 1.066790e+01
 8.957458e-01	 1.118966e+00	 9.816317e+00
 8.750703e-01	 1.135208e+00	 9.265028e+00
 8.541253e-01	 1.151049e+00	 8.954884e+00
 8.329223e-01	 1.166484e+00	 8.840452e+00
 8.114732e-01	 1.181506e+00	 8.872544e+00
 9.232423e-01	 1.110875e+00	 1.055243e+01
 9.026896e-01	 1.127640e+00	 9.686649e+00
 8.818538e-01	 1.144008e+00	 9.110926e+00
 8.607464e-01	 1.159972e+00	 8.785061e+00
 8.393791e-01	 1.175526e+00	 8.663582e+00
 8.177637e-01	 1.190665e+00	 8.697138e+00
 7.863113e-01	 1.144870e+00	 8.404206e+00
 7.653004e-01	 1.159020e+00	 7.853019e+00
 7.440743e-01	 1.172760e+00	 7.389000e+00
 7.226450e-01	 1.186085e+00	 6.952050e+00
 7.010244e-01	 1.198990e+00	 6.476427e+00
 6.792246e-01	 1.211473e+00	 5.918831e+00
 7.926017e-01	 1.154029e+00	 8.703755e+00
 7.714228e-01	 1.168292e+00	 8.160167e+00
 7.500269e-01	 1.182142e+00	 7.702638e+00
 7.284261e-01	 1.195573e+00	 7.275882e+00
 7.066326e-01	 1.208582e+00	 6.810935e+00
 6.846583e-01	 1.221165e+00	 6.262378e+00
 7.988922e-01	 1.163188e+00	 8.879430e+00
 7.775452e-01	 1.177564e+00	 8.344424e+00
 7.559795e-01	 1.191524e+00	 7.894135e+00
 7.342073e-01	 1.205062e+00	 7.476051e+00
 7.122408e-01	 1.218174e+00	 7.021730e+00
 6.900921e-01	 1.230856e+00	 6.481661e+00
 8.051827e-01	 1.172347e+00	 8.934530e+00
 7.836676e-01	 1.186837e+00	 8.408785e+00
 7.619321e-01	 1.200906e+00	 7.966163e+00
 7.399885e-01	 1.214551e+00	 7.555013e+00
 7.178490e-01	 1.227766e+00	 7.111069e+00
 6.955259e-01	 1.240548e+00	 6.578719e+00
 8.114732e-01	 1.181506e+00	 8.872544e+00
 7.897900e-01	 1.196109e+00	 8.356436e+00
 7.678847e-01	 1.210288e+00	 7.921597e+00
 7.457696e-01	 1.224039e+00	 7.516079e+00
 7.234571e-01	 1.237358e+00	 7.081367e+00
 7.009597e-01	 1.250240e+00	 6.555750e+00
 8.177637e-01	 1.190665e+00	 8.697138e+00
 7.959124e-01	 1.205381e+00	 8.190753e+00
 7.738373e-01	 1.219670e+00	 7.763505e+00
 7.515508e-01	 1.233528e+00	 7.363144e+00
 7.290653e-01	 1.246950e+00	 6.935189e+00
 7.063935e-01	 1.259932e+00	 6.415101e+00
 6.792246e-01	 1.211473e+00	 5.918831e+00
 6.572577e-01	 1.223530e+00	 6.026885e+00
 6.351359e-01	 1.235158e+00	 5.946096e+00
 6.128714e-01	 1.246355e+00	 5.654202e+00
 5.904765e-01	 1.257120e+00	 5.135532e+00
 5.679633e-01	 1.267450e+00	 4.380606e+00
 6.846583e-01	 1.221165e+00	 6.262378e+00
 6.625157e-01	 1.233318e+00	 6.374206e+00
 6.402170e-01	 1.245039e+00	 6.294397e+00
 6.177744e-01	 1.256326e+00	 6.001491e+00
 5.952003e-01	 1.267177e+00	 5.480877e+00
 5.725070e-01	 1.277590e+00	 4.724381e+00
 6.900921e-01	 1.230856e+00	 6.481661e+00
 6.677738e-01	 1.243106e+00	 6.595457e+00
 6.452981e-01	 1.254920e+00	 6.514479e+00
 6.226774e-01	 1.266297e+00	 6.218138e+00
 5.999241e-01	 1.277234e+00	 5.692977e+00
 5.770507e-01	 1.287729e+00	 4.932226e+00
 6.955259e-01	 1.240548e+00	 6.578719e+00
 6.730318e-01	 1.252894e+00	 6.692458e+00
 6.503791e-01	 1.264802e+00	 6.607914e+00
 6.275803e-01	 1.276268e+00	 6.305456e+00
 6.046479e-01	 1.287291e+00	 5.772865e+00
 5.815945e-01	 1.297869e+00	 5.004876e+00
 7.009597e-01	 1.250240e+00	 6.555750e+00
 6.782899e-01	 1.262683e+00	 6.667183e+00
 6.554602e-01	 1.274683e+00	 6.576438e+00
 6.324833e-01	 1.286238e+00	 6.264915e+00
 6.093718e-01	 1.297347e+00	 5.721729e+00
 5.861382e-01	 1.308009e+00	 4.943222e+00
 7.063935e-01	 1.259932e+00	 6.415101e+00
 6.835480e-01	 1.272471e+00	 6.521763e+00
 6.605413e-01	 1.284564e+00	 6.421936e+00
 6.373863e-01	 1.296209e+00	 6.098138e+00
 6.140956e-01	 1.307404e+00	 5.540910e+00
 5.906819e-01	 1.318148e+00	 4.748306e+00
 5.679633e-01	 1.267450e+00	 4.380606e+00
 5.453440e-01	 1.277346e+00	 4.426235e+00
 5.226308e-01	 1.286806e+00	 4.301091e+00
 4.998355e-01	 1.295831e+00	 4.012252e+00
 4.769703e-01	 1.304420e+00	 3.570412e+00
 4.540469e-01	 1.312575e+00	 2.989196e+00
 5.725070e-01	 1.277590e+00	 4.724381e+00
 5.497068e-01	 1.287565e+00	 4.787675e+00
 5.268118e-01	 1.297100e+00	 4.674843e+00
 5.038342e-01	 1.306197e+00	 4.394757e+00
 4.807861e-01	 1.314855e+00	 3.960053e+00
 4.576792e-01	 1.323076e+00	 3.386406e+00
 5.770507e-01	 1.287729e+00	 4.932226e+00
 5.540696e-01	 1.297783e+00	 5.008901e+00
 5.309929e-01	 1.307395e+00	 4.904383e+00
 5.078329e-01	 1.316564e+00	 4.629466e+00
 4.846018e-01	 1.325291e+00	 4.198860e+00
 4.613116e-01	 1.333576e+00	 3.630427e+00
 5.815945e-01	 1.297869e+00	 5.004876e+00
 5.584323e-01	 1.308002e+00	 5.090375e+00
 5.351739e-01	 1.317689e+00	 4.989889e+00
 5.118316e-01	 1.326930e+00	 4.716262e+00
 4.884176e-01	 1.335726e+00	 4.286411e+00
 4.649440e-01	 1.344077e+00	 3.720528e+00
 5.861382e-01	 1.308009e+00	 4.943222e+00
 5.627951e-01	 1.318221e+00	 5.032712e+00
 5.393550e-01	 1.327984e+00	 4.931685e+00
 5.158303e-01	 1.337297e+00	 4.655166e+00
 4.922333e-01	 1.346162e+00	 4.222420e+00
 4.685764e-01	 1.354578e+00	 3.656110e+00
 5.906819e-01	 1.318148e+00	 4.748306e+00
 5.671578e-01	 1.328440e+00	 4.836676e+00
 5.435360e-01	 1.338278e+00	 4.730240e+00
 5.198290e-01	 1.347664e+00	 4.446341e+00
 4.960491e-01	 1.356597e+00	 4.006733e+00
 4.722087e-01	 1.365078e+00	 3.436700e+00
 4.540469e-01	 1.312575e+00	 2.989196e+00
 4.310770e-01	 1.320297e+00	 2.982012e+00
 4.080721e-01	 1.327588e+00	 2.893638e+00
 3.850438e-01	 1.334449e+00	 2.742278e+00
 3.620032e-01	 1.340883e+00	 2.544875e+00
 3.389614e-01	 1.346892e+00	 2.312705e+00
 4.576792e-01	 1.323076e+00	 3.386406e+00
 4.345256e-01	 1.330860e+00	 3.390053e+00
 4.113367e-01	 1.338209e+00	 3.304187e+00
 3.881242e-01	 1.345124e+00	 3.149153e+00
 3.648993e-01	 1.351610e+00	 2.944610e+00
 3.416731e-01	 1.357667e+00	 2.700903e+00
 4.613116e-01	 1.333576e+00	 3.630427e+00
 4.379742e-01	 1.341422e+00	 3.641637e+00
 4.146013e-01	 1.348829e+00	 3.556186e+00
 3.912045e-01	 1.355800e+00	 3.396702e+00
 3.677953e-01	 1.362337e+00	 3.185554e+00
 3.443848e-01	 1.368442e+00	 2.933690e+00
 4.649440e-01	 1.344077e+00	 3.720528e+00
 4.414228e-01	 1.351984e+00	 3.735768e+00
 4.178659e-01	 1.359450e+00	 3.648373e+00
 3.942849e-01	 1.366476e+00	 3.483401e+00
 3.706913e-01	 1.373064e+00	 3.265781e+00
 3.470965e-01	 1.379217e+00	 3.008862e+00
 4.685764e-01	 1.354578e+00	 3.656110e+00
 4.448714e-01	 1.362547e+00	 3.671571e+00
 4.211304e-01	 1.370071e+00	 3.579601e+00
 3.973652e-01	 1.377151e+00	 3.407834e+00
 3.735873e-01	 1.383791e+00	 3.183757e+00
 3.498082e-01	 1.389992e+00	 2.924300e+00
 4.722087e-01	 1.365078e+00	 3.436700e+00
 4.483200e-01	 1.373109e+00	 3.448295e+00
 4.243950e-01	 1.380691e+00	 3.348834e+00
 4.004456e-01	 1.387827e+00	 3.168685e+00
 3.764834e-01	 1.394518e+00	 2.938050e+00
 3.525199e-01	 1.400767e+00	 2.677980e+00
 3.389614e-01	 1.346892e+00	 2.312705e+00
 3.159293e-01	 1.352480e+00	 2.016328e+00
 2.929173e-01	 1.357649e+00	 1.765727e+00
 2.699361e-01	 1.362405e+00	 1.588392e+00
 2.469957e-01	 1.366750e+00	 1.506580e+00
 2.241062e-01	 1.370689e+00	 1.537493e+00
 3.416731e-01	 1.357667e+00	 2.700903e+00
 3.184567e-01	 1.363299e+00	 2.391986e+00
 2.952607e-01	 1.368511e+00	 2.127144e+00
 2.720956e-01	 1.373304e+00	 1.933693e+00
 2.489717e-01	 1.377684e+00	 1.833250e+00
 2.258990e-01	 1.381655e+00	 1.841951e+00
 3.443848e-01	 1.368442e+00	 2.933690e+00
 3.209841e-01	 1.374119e+00	 2.617263e+00
 2.976040e-01	 1.379372e+00	 2.344931e+00
 2.742551e-01	 1.384203e+00	 2.143751e+00
 2.509477e-01	 1.388618e+00	 2.034583e+00
 2.276919e-01	 1.392620e+00	 2.032360e+00
 3.470965e-01	 1.379217e+00	 3.008862e+00
 3.235116e-01	 1.384939e+00	 2.689764e+00
 2.999474e-01	 1.390233e+00	 2.416586e+00
 2.764146e-01	 1.395103e+00	 2.216040e+00
 2.529236e-01	 1.399552e+00	 2.108107e+00
 2.294847e-01	 1.403586e+00	 2.106361e+00
 3.498082e-01	 1.389992e+00	 2.924300e+00
 3.260390e-01	 1.395759e+00	 2.607161e+00
 3.022907e-01	 1.401094e+00	 2.339658e+00
 2.785741e-01	 1.406002e+00	 2.148064e+00
 2.548996e-01	 1.410486e+00	 2.051358e+00
 2.312776e-01	 1.414551e+00	 2.061599e+00
 3.525199e-01	 1.400767e+00	 2.677980e+00
 3.285664e-01	 1.406579e+00	 2.367192e+00
 3.046340e-01	 1.411955e+00	 2.111738e+00
 2.807336e-01	 1.416901e+00	 1.937358e+00
 2.568756e-01	 1.421420e+00	 1.861891e+00
 2.330704e-01	 1.425517e+00	 1.895721e+00
 2.241062e-01	 1.370689e+00	 1.537493e+00
 2.012771e-01	 1.374227e+00	 1.395326e+00
 1.785179e-01	 1.377368e+00	 1.277042e+00
 1.558377e-01	 1.380118e+00	 1.189051e+00
 1.332455e-01	 1.382483e+00	 1.134974e+00
 1.107498e-01	 1.384466e+00	 1.116306e+00
 2.258990e-01	 1.381655e+00	 1.841951e+00
 2.028873e-01	 1.385221e+00	 1.672761e+00
 1.799460e-01	 1.388387e+00	 1.528812e+00
 1.570844e-01	 1.391159e+00	 1.414445e+00
 1.343114e-01	 1.393542e+00	 1.331019e+00
 1.116358e-01	 1.395542e+00	 1.277648e+00
 2.276919e-01	 1.392620e+00	 2.032360e+00
 2.044975e-01	 1.396215e+00	 1.849236e+00
 1.813741e-01	 1.399406e+00	 1.693597e+00
 1.583311e-01	 1.402200e+00	 1.567513e+00
 1.353774e-01	 1.404602e+00	 1.469864e+00
 1.125218e-01	 1.406618e+00	 1.397152e+00
 2.294847e-01	 1.403586e+00	 2.106361e+00
 2.061077e-01	 1.407208e+00	 1.922552e+00
 1.828023e-01	 1.410425e+00	 1.769417e+00
 1.595778e-01	 1.413241e+00	 1.646537e+00
 1.364434e-01	 1.415662e+00	 1.550087e+00
 1.134078e-01	 1.417693e+00	 1.473722e+00
 2.312776e-01	 1.414551e+00	 2.061599e+00
 2.077179e-01	 1.418202e+00	 1.890508e+00
 1.842304e-01	 1.421444e+00	 1.754280e+00
 1.608245e-01	 1.424282e+00	 1.649785e+00
 1.375093e-01	 1.426722e+00	 1.570253e+00
 1.142938e-01	 1.428769e+00	 1.506243e+00
 2.330704e-01	 1.425517e+00	 1.895721e+00
 2.093282e-01	 1.429196e+00	 1.750897e+00
 1.856586e-01	 1.432463e+00	 1.646185e+00
 1.620712e-01	 1.435323e+00	 1.575509e+00
 1.385753e-01	 1.437782e+00	 1.528908e+00
 1.151798e-01	 1.439845e+00	 1.493587e+00
 1.107498e-01	 1.384466e+00	 1.116306e+00
 8.835892e-02	 1.386075e+00	 1.088031e+00
 6.608093e-02	 1.387316e+00	 1.066395e+00
 4.392354e-02	 1.388194e+00	 1.051844e+00
 2.189418e-02	 1.388716e+00	 1.045467e+00
 0.000000e+00	 1.388889e+00	 1.049573e+00
 1.116358e-01	 1.395542e+00	 1.277648e+00
 8.906580e-02	 1.397164e+00	 1.219168e+00
 6.660958e-02	 1.398415e+00	 1.170935e+00
 4.427493e-02	 1.399300e+00	 1.130746e+00
 2.206933e-02	 1.399826e+00	 1.097155e+00
 0.000000e+00	 1.400000e+00	 1.070102e+00
 1.125218e-01	 1.406618e+00	 1.397152e+00
 8.977267e-02	 1.408253e+00	 1.323651e+00
 6.713823e-02	 1.409513e+00	 1.263562e+00
 4.462631e-02	 1.410405e+00	 1.211808e+00
 2.224449e-02	 1.410936e+00	 1.164187e+00
 0.000000e+00	 1.411111e+00	 1.118064e+00
 1.134078e-01	 1.417693e+00	 1.473722e+00
 9.047954e-02	 1.419341e+00	 1.400728e+00
 6.766687e-02	 1.420612e+00	 1.343877e+00
 4.497770e-02	 1.421511e+00	 1.294982e+00
 2.241964e-02	 1.422046e+00	 1.246857e+00
 0.000000e+00	 1.422222e+00	 1.194070e+00
 1.142938e-01	 1.428769e+00	 1.506243e+00
 9.118641e-02	 1.430430e+00	 1.449629e+00
 6.819552e-02	 1.431710e+00	 1.411465e+00
 4.532909e-02	 1.432616e+00	 1.380208e+00
 2.259479e-02	 1.433155e+00	 1.345448e+00
 0.000000e+00	 1.433333e+00	 1.298729e+00
 1.151798e-01	 1.439845e+00	 1.493587e+00
 9.189328e-02	 1.441518e+00	 1.469569e+00
 6.872417e-02	 1.442809e+00	 1.465897e+00
 4.568048e-02	 1.443722e+00	 1.467415e+00
 2.276995e-02	 1.444265e+00	 1.460237e+00
 0.000000e+00	 1.444444e+00	 1.432643e+00
 1.444444e+00	 0.000000e+00	 1.618960e+01
 1.444265e+00	 2.276995e-02	 1.618647e+01
 1.443722e+00	 4.568048e-02	 1.618722e+01
 1.442809e+00	 6.872417e-02	 1.619067e+01
 1.441518e+00	 9.189328e-02	 1.619518e+01
 1.439845e+00	 1.151798e-01	 1.619877e+01
 1.455556e+00	 0.000000e+00	 1.605748e+01
 1.455375e+00	 2.294510e-02	 1.604489e+01
 1.454827e+00	 4.603187e-02	 1.603918e+01
 1.453907e+00	 6.925282e-02	 1.603845e+01
 1.452607e+00	 9.260015e-02	 1.604026e+01
 1.450921e+00	 1.160658e-01	 1.604186e+01
 1.466667e+00	 0.000000e+00	 1.592844e+01
 1.466484e+00	 2.312025e-02	 1.590872e+01
 1.465933e+00	 4.638326e-02	 1.589908e+01
 1.465006e+00	 6.978146e-02	 1.589680e+01
 1.463696e+00	 9.330702e-02	 1.589862e+01
 1.461996e+00	 1.169518e-01	 1.590095e+01
 1.477778e+00	 0.000000e+00	 1.580103e+01
 1.477594e+00	 2.329541e-02	 1.577664e+01
 1.477039e+00	 4.673464e-02	 1.576569e+01
 1.476104e+00	 7.031011e-02	 1.576462e+01
 1.474784e+00	 9.401390e-02	 1.576927e+01
 1.473072e+00	 1.178378e-01	 1.577513e+01
 1.488889e+00	 0.000000e+00	 1.568098e+01
 1.488704e+00	 2.347056e-02	 1.565344e+01
 1.488144e+00	 4.708603e-02	 1.564237e+01
 1.487203e+00	 7.083876e-02	 1.564365e+01
 1.485873e+00	 9.472077e-02	 1.565256e+01
 1.484148e+00	 1.187238e-01	 1.566390e+01
 1.500000e+00	 0.000000e+00	 1.559090e+01
 1.499814e+00	 2.364571e-02	 1.555944e+01
 1.499250e+00	 4.743742e-02	 1.554701e+01
 1.498301e+00	 7.136741e-02	 1.554899e+01
 1.496961e+00	 9.542764e-02	 1.556017e+01
 1.495224e+00	 1.196098e-01	 1.557494e+01
 1.439845e+00	 1.151798e-01	 1.619877e+01
 1.437782e+00	 1.385753e-01	 1.618991e+01
 1.435323e+00	 1.620712e-01	 1.617759e+01
 1.432463e+00	 1.856586e-01	 1.615909e+01
 1.429196e+00	 2.093282e-01	 1.613205e+01
 1.425517e+00	 2.330704e-01	 1.609461e+01
 1.450921e+00	 1.160658e-01	 1.604186e+01
 1.448842e+00	 1.396413e-01	 1.602482e+01
 1.446364e+00	 1.633179e-01	 1.600753e+01
 1.443482e+00	 1.870867e-01	 1.598660e+01
 1.440190e+00	 2.109384e-01	 1.595904e+01
 1.436482e+00	 2.348633e-01	 1.592242e+01
 1.461996e+00	 1.169518e-01	 1.590095e+01
 1.459902e+00	 1.407072e-01	 1.587842e+01
 1.457405e+00	 1.645646e-01	 1.585870e+01
 1.454501e+00	 1.885149e-01	 1.583768e+01
 1.451184e+00	 2.125486e-01	 1.581169e+01
 1.447448e+00	 2.366561e-01	 1.577771e+01
 1.473072e+00	 1.178378e-01	 1.577513e+01
 1.470961e+00	 1.417732e-01	 1.574990e+01
 1.468446e+00	 1.658113e-01	 1.573035e+01
 1.465520e+00	 1.899430e-01	 1.571162e+01
 1.462178e+00	 2.141588e-01	 1.568931e+01
 1.458413e+00	 2.384490e-01	 1.565977e+01
 1.484148e+00	 1.187238e-01	 1.566390e+01
 1.482021e+00	 1.428392e-01	 1.563846e+01
 1.479487e+00	 1.670580e-01	 1.562174e+01
 1.476539e+00	 1.913711e-01	 1.560772e+01
 1.473171e+00	 2.157690e-01	 1.559123e+01
 1.469379e+00	 2.402418e-01	 1.556793e+01
 1.495224e+00	 1.196098e-01	 1.557494e+01
 1.493081e+00	 1.439051e-01	 1.554760e+01
 1.490528e+00	 1.683047e-01	 1.553319e+01
 1.487558e+00	 1.927993e-01	 1.552504e+01
 1.484165e+00	 2.173792e-01	 1.551657e+01
 1.480344e+00	 2.420347e-01	 1.550149e+01
 1.425517e+00	 2.330704e-01	 1.609461e+01
 1.421420e+00	 2.568756e-01	 1.612993e+01
 1.416901e+00	 2.807336e-01	 1.613290e+01
 1.411955e+00	 3.046340e-01	 1.610275e+01
 1.406579e+00	 3.285664e-01	 1.603972e+01
 1.400767e+00	 3.525199e-01	 1.594500e+01
 1.436482e+00	 2.348633e-01	 1.592242e+01
 1.432354e+00	 2.588515e-01	 1.595218e+01
 1.427800e+00	 2.828931e-01	 1.595310e+01
 1.422817e+00	 3.069774e-01	 1.592411e+01
 1.417399e+00	 3.310939e-01	 1.586518e+01
 1.411543e+00	 3.552316e-01	 1.577740e+01
 1.447448e+00	 2.366561e-01	 1.577771e+01
 1.443288e+00	 2.608275e-01	 1.580263e+01
 1.438699e+00	 2.850525e-01	 1.580187e+01
 1.433678e+00	 3.093207e-01	 1.577397e+01
 1.428218e+00	 3.336213e-01	 1.571867e+01
 1.422318e+00	 3.579433e-01	 1.563691e+01
 1.458413e+00	 2.384490e-01	 1.565977e+01
 1.454222e+00	 2.628035e-01	 1.568062e+01
 1.449599e+00	 2.872120e-01	 1.567849e+01
 1.444539e+00	 3.116641e-01	 1.565157e+01
 1.439038e+00	 3.361487e-01	 1.559933e+01
 1.433093e+00	 3.606550e-01	 1.552261e+01
 1.469379e+00	 2.402418e-01	 1.556793e+01
 1.465156e+00	 2.647794e-01	 1.558543e+01
 1.460498e+00	 2.893715e-01	 1.558224e+01
 1.455400e+00	 3.140074e-01	 1.555613e+01
 1.449858e+00	 3.386762e-01	 1.550631e+01
 1.443868e+00	 3.633667e-01	 1.543351e+01
 1.480344e+00	 2.420347e-01	 1.550149e+01
 1.476090e+00	 2.667554e-01	 1.551638e+01
 1.471397e+00	 2.915310e-01	 1.551237e+01
 1.466261e+00	 3.163507e-01	 1.548683e+01
 1.460678e+00	 3.412036e-01	 1.543871e+01
 1.454643e+00	 3.660783e-01	 1.536859e+01
 1.400767e+00	 3.525199e-01	 1.594500e+01
 1.394518e+00	 3.764834e-01	 1.593868e+01
 1.387827e+00	 4.004456e-01	 1.590981e+01
 1.380691e+00	 4.243950e-01	 1.586719e+01
 1.373109e+00	 4.483200e-01	 1.582282e+01
 1.365078e+00	 4.722087e-01	 1.579008e+01
 1.411543e+00	 3.552316e-01	 1.577740e+01
 1.405245e+00	 3.793794e-01	 1.578290e+01
 1.398502e+00	 4.035259e-01	 1.576282e+01
 1.391312e+00	 4.276596e-01	 1.572573e+01
 1.383672e+00	 4.517686e-01	 1.568428e+01
 1.375579e+00	 4.758411e-01	 1.565260e+01
 1.422318e+00	 3.579433e-01	 1.563691e+01
 1.415972e+00	 3.822754e-01	 1.565401e+01
 1.409178e+00	 4.066063e-01	 1.564144e+01
 1.401933e+00	 4.309242e-01	 1.560833e+01
 1.394234e+00	 4.552173e-01	 1.556801e+01
 1.386079e+00	 4.794735e-01	 1.553532e+01
 1.433093e+00	 3.606550e-01	 1.552261e+01
 1.426699e+00	 3.851714e-01	 1.555070e+01
 1.419854e+00	 4.096866e-01	 1.554428e+01
 1.412553e+00	 4.341888e-01	 1.551357e+01
 1.404796e+00	 4.586659e-01	 1.547256e+01
 1.396580e+00	 4.831059e-01	 1.543679e+01
 1.443868e+00	 3.633667e-01	 1.543351e+01
 1.437426e+00	 3.880675e-01	 1.547165e+01
 1.430529e+00	 4.127670e-01	 1.546997e+01
 1.423174e+00	 4.374533e-01	 1.544005e+01
 1.415359e+00	 4.621145e-01	 1.539650e+01
 1.407081e+00	 4.867382e-01	 1.535557e+01
 1.454643e+00	 3.660783e-01	 1.536859e+01
 1.448153e+00	 3.909635e-01	 1.541551e+01
 1.441205e+00	 4.158473e-01	 1.541714e+01
 1.433795e+00	 4.407179e-01	 1.538637e+01
 1.425921e+00	 4.655631e-01	 1.533845e+01
 1.417581e+00	 4.903706e-01	 1.529028e+01
 1.365078e+00	 4.722087e-01	 1.579008e+01
 1.356597e+00	 4.960491e-01	 1.559870e+01
 1.347664e+00	 5.198290e-01	 1.546895e+01
 1.338278e+00	 5.435360e-01	 1.541970e+01
 1.328440e+00	 5.671578e-01	 1.547016e+01
 1.318148e+00	 5.906819e-01	 1.563959e+01
 1.375579e+00	 4.758411e-01	 1.565260e+01
 1.367032e+00	 4.998649e-01	 1.547872e+01
 1.358030e+00	 5.238276e-01	 1.536365e+01
 1.348573e+00	 5.477171e-01	 1.532711e+01
 1.338658e+00	 5.715206e-01	 1.538934e+01
 1.328288e+00	 5.952256e-01	 1.557067e+01
 1.386079e+00	 4.794735e-01	 1.553532e+01
 1.377468e+00	 5.036806e-01	 1.537618e+01
 1.368397e+00	 5.278263e-01	 1.527278e+01
 1.358867e+00	 5.518981e-01	 1.524572e+01
 1.348877e+00	 5.758833e-01	 1.531622e+01
 1.338427e+00	 5.997693e-01	 1.550567e+01
 1.396580e+00	 4.831059e-01	 1.543679e+01
 1.387903e+00	 5.074964e-01	 1.528963e+01
 1.378764e+00	 5.318250e-01	 1.519490e+01
 1.369161e+00	 5.560791e-01	 1.517408e+01
 1.359096e+00	 5.802461e-01	 1.524934e+01
 1.348567e+00	 6.043130e-01	 1.544316e+01
 1.407081e+00	 4.867382e-01	 1.535557e+01
 1.398338e+00	 5.113122e-01	 1.521766e+01
 1.389130e+00	 5.358237e-01	 1.512862e+01
 1.379456e+00	 5.602602e-01	 1.511080e+01
 1.369315e+00	 5.846088e-01	 1.518734e+01
 1.358707e+00	 6.088567e-01	 1.538179e+01
 1.417581e+00	 4.903706e-01	 1.529028e+01
 1.408774e+00	 5.151279e-01	 1.515889e+01
 1.399497e+00	 5.398224e-01	 1.507260e+01
 1.389750e+00	 5.644412e-01	 1.505459e+01
 1.379533e+00	 5.889716e-01	 1.512895e+01
 1.368846e+00	 6.134004e-01	 1.532028e+01
 1.318148e+00	 5.906819e-01	 1.563959e+01
 1.307404e+00	 6.140956e-01	 1.517802e+01
 1.296209e+00	 6.373863e-01	 1.486202e+01
 1.284564e+00	 6.605413e-01	 1.470641e+01
 1.272471e+00	 6.835480e-01	 1.472384e+01
 1.259932e+00	 7.063935e-01	 1.492417e+01
 1.328288e+00	 5.952256e-01	 1.557067e+01
 1.317461e+00	 6.188194e-01	 1.510802e+01
 1.306180e+00	 6.422893e-01	 1.479371e+01
 1.294445e+00	 6.656224e-01	 1.464425e+01
 1.282259e+00	 6.888060e-01	 1.467408e+01
 1.269623e+00	 7.118273e-01	 1.489493e+01
 1.338427e+00	 5.997693e-01	 1.550567e+01
 1.327518e+00	 6.235432e-01	 1.504044e+01
 1.316151e+00	 6.471922e-01	 1.472610e+01
 1.304327e+00	 6.707035e-01	 1.458084e+01
 1.292047e+00	 6.940641e-01	 1.462093e+01
 1.279315e+00	 7.172611e-01	 1.485998e+01
 1.348567e+00	 6.043130e-01	 1.544316e+01
 1.337575e+00	 6.282670e-01	 1.497378e+01
 1.326122e+00	 6.520952e-01	 1.465757e+01
 1.314208e+00	 6.757846e-01	 1.451446e+01
 1.301836e+00	 6.993221e-01	 1.456255e+01
 1.289007e+00	 7.226949e-01	 1.481737e+01
 1.358707e+00	 6.088567e-01	 1.538179e+01
 1.347632e+00	 6.329908e-01	 1.490661e+01
 1.336093e+00	 6.569982e-01	 1.458666e+01
 1.324089e+00	 6.808657e-01	 1.444355e+01
 1.311624e+00	 7.045802e-01	 1.449725e+01
 1.298699e+00	 7.281287e-01	 1.476527e+01
 1.368846e+00	 6.134004e-01	 1.532028e+01
 1.357689e+00	 6.377146e-01	 1.483764e+01
 1.346063e+00	 6.619011e-01	 1.451198e+01
 1.333970e+00	 6.859468e-01	 1.436667e+01
 1.321412e+00	 7.098383e-01	 1.442352e+01
 1.308391e+00	 7.335625e-01	 1.470202e+01
 1.259932e+00	 7.063935e-01	 1.492417e+01
 1.246950e+00	 7.290653e-01	 1.460558e+01
 1.233528e+00	 7.515508e-01	 1.446176e+01
 1.219670e+00	 7.738373e-01	 1.425184e+01
 1.205381e+00	 7.959124e-01	 1.391094e+01
 1.190665e+00	 8.177637e-01	 1.341565e+01
 1.269623e+00	 7.118273e-01	 1.489493e+01
 1.256542e+00	 7.346735e-01	 1.461916e+01
 1.243017e+00	 7.573319e-01	 1.448530e+01
 1.229052e+00	 7.797899e-01	 1.426861e+01
 1.214653e+00	 8.020348e-01	 1.393388e+01
 1.199824e+00	 8.240542e-01	 1.345739e+01
 1.279315e+00	 7.172611e-01	 1.485998e+01
 1.266134e+00	 7.402817e-01	 1.462583e+01
 1.252505e+00	 7.631131e-01	 1.448364e+01
 1.238434e+00	 7.857425e-01	 1.426096e+01
 1.223925e+00	 8.081572e-01	 1.393294e+01
 1.208983e+00	 8.303447e-01	 1.347556e+01
 1.289007e+00	 7.226949e-01	 1.481737e+01
 1.275725e+00	 7.458899e-01	 1.461623e+01
 1.261994e+00	 7.688943e-01	 1.445623e+01
 1.247817e+00	 7.916951e-01	 1.422838e+01
 1.233197e+00	 8.142796e-01	 1.390769e+01
 1.218142e+00	 8.366352e-01	 1.346980e+01
 1.298699e+00	 7.281287e-01	 1.476527e+01
 1.285317e+00	 7.514981e-01	 1.457959e+01
 1.271483e+00	 7.746754e-01	 1.440283e+01
 1.257199e+00	 7.976476e-01	 1.417071e+01
 1.242470e+00	 8.204020e-01	 1.385801e+01
 1.227300e+00	 8.429257e-01	 1.344003e+01
 1.308391e+00	 7.335625e-01	 1.470202e+01
 1.294909e+00	 7.571063e-01	 1.451583e+01
 1.280971e+00	 7.804566e-01	 1.432349e+01
 1.266581e+00	 8.036002e-01	 1.408802e+01
 1.251742e+00	 8.265244e-01	 1.378403e+01
 1.236459e+00	 8.492162e-01	 1.338642e+01
 1.190665e+00	 8.177637e-01	 1.341565e+01
 1.175526e+00	 8.393791e-01	 1.369312e+01
 1.159972e+00	 8.607464e-01	 1.372965e+01
 1.144008e+00	 8.818538e-01	 1.350874e+01
 1.127640e+00	 9.026896e-01	 1.301999e+01
 1.110875e+00	 9.232423e-01	 1.226060e+01
 1.199824e+00	 8.240542e-01	 1.345739e+01
 1.184569e+00	 8.458358e-01	 1.374009e+01
 1.168895e+00	 8.673675e-01	 1.378530e+01
 1.152808e+00	 8.886373e-01	 1.357548e+01
 1.136314e+00	 9.096333e-01	 1.309931e+01
 1.119420e+00	 9.303442e-01	 1.235325e+01
 1.208983e+00	 8.303447e-01	 1.347556e+01
 1.193612e+00	 8.522926e-01	 1.375889e+01
 1.177818e+00	 8.739886e-01	 1.380798e+01
 1.161608e+00	 8.954208e-01	 1.360422e+01
 1.144988e+00	 9.165771e-01	 1.313532e+01
 1.127965e+00	 9.374460e-01	 1.239692e+01
 1.218142e+00	 8.366352e-01	 1.346980e+01
 1.202654e+00	 8.587493e-01	 1.374929e+01
 1.186741e+00	 8.806098e-01	 1.379760e+01
 1.170408e+00	 9.022043e-01	 1.359501e+01
 1.153662e+00	 9.235209e-01	 1.312819e+01
 1.136511e+00	 9.445479e-01	 1.239191e+01
 1.227300e+00	 8.429257e-01	 1.344003e+01
 1.211697e+00	 8.652061e-01	 1.371137e+01
 1.195664e+00	 8.872309e-01	 1.375438e+01
 1.179208e+00	 9.089877e-01	 1.354819e+01
 1.162336e+00	 9.304646e-01	 1.307839e+01
 1.145056e+00	 9.516498e-01	 1.233881e+01
 1.236459e+00	 8.492162e-01	 1.338642e+01
 1.220739e+00	 8.716629e-01	 1.364545e+01
 1.204586e+00	 8.938520e-01	 1.367880e+01
 1.188008e+00	 9.157712e-01	 1.346439e+01
 1.171010e+00	 9.374084e-01	 1.298668e+01
 1.153601e+00	 9.587516e-01	 1.223850e+01
 1.110875e+00	 9.232423e-01	 1.226060e+01
 1.093721e+00	 9.435007e-01	 1.241611e+01
 1.076186e+00	 9.634539e-01	 1.236988e+01
 1.058278e+00	 9.830911e-01	 1.217741e+01
 1.040005e+00	 1.002402e+00	 1.190290e+01
 1.021376e+00	 1.021376e+00	 1.161734e+01
 1.119420e+00	 9.303442e-01	 1.235325e+01
 1.102134e+00	 9.507584e-01	 1.254626e+01
 1.084464e+00	 9.708651e-01	 1.252870e+01
 1.066418e+00	 9.906533e-01	 1.235343e+01
 1.048005e+00	 1.010113e+00	 1.208640e+01
 1.029233e+00	 1.029233e+00	 1.180083e+01
 1.127965e+00	 9.374460e-01	 1.239692e+01
 1.110548e+00	 9.580161e-01	 1.261659e+01
 1.092743e+00	 9.782762e-01	 1.262489e+01
 1.074559e+00	 9.982156e-01	 1.246338e+01
 1.056005e+00	 1.017824e+00	 1.219984e+01
 1.037090e+00	 1.037090e+00	 1.190988e+01
 1.136511e+00	 9.445479e-01	 1.239191e+01
 1.118961e+00	 9.652738e-01	 1.262903e+01
 1.101021e+00	 9.856874e-01	 1.265773e+01
 1.082699e+00	 1.005778e+00	 1.250650e+01
 1.064005e+00	 1.025534e+00	 1.224236e+01
 1.044947e+00	 1.044947e+00	 1.194346e+01
 1.145056e+00	 9.516498e-01	 1.233881e+01
 1.127374e+00	 9.725315e-01	 1.258729e+01
 1.109299e+00	 9.930986e-01	 1.262693e+01
 1.090840e+00	 1.013340e+00	 1.248242e+01
 1.072005e+00	 1.033245e+00	 1.221347e+01
 1.052803e+00	 1.052803e+00	 1.190086e+01
 1.153601e+00	 9.587516e-01	 1.223850e+01
 1.135787e+00	 9.797892e-01	 1.249238e+01
 1.117578e+00	 1.000510e+00	 1.253389e+01
 1.098981e+00	 1.020902e+00	 1.239118e+01
 1.080005e+00	 1.040956e+00	 1.211306e+01
 1.060660e+00	 1.060660e+00	 1.178179e+01
 1.021376e+00	 1.021376e+00	 1.161734e+01
 1.002402e+00	 1.040005e+00	 1.107794e+01
 9.830911e-01	 1.058278e+00	 1.062690e+01
 9.634539e-01	 1.076186e+00	 1.034051e+01
 9.435007e-01	 1.093721e+00	 1.029269e+01
 9.232423e-01	 1.110875e+00	 1.055243e+01
 1.029233e+00	 1.029233e+00	 1.180083e+01
 1.010113e+00	 1.048005e+00	 1.124890e+01
 9.906533e-01	 1.066418e+00	 1.079679e+01
 9.708651e-01	 1.084464e+00	 1.052437e+01
 9.507584e-01	 1.102134e+00	 1.050917e+01
 9.303442e-01	 1.119420e+00	 1.080953e+01
 1.037090e+00	 1.037090e+00	 1.190988e+01
 1.017824e+00	 1.056005e+00	 1.134406e+01
 9.982156e-01	 1.074559e+00	 1.088925e+01
 9.782762e-01	 1.092743e+00	 1.062909e+01
 9.580161e-01	 1.110548e+00	 1.064491e+01
 9.374460e-01	 1.127965e+00	 1.096013e+01
 1.044947e+00	 1.044947e+00	 1.194346e+01
 1.025534e+00	 1.064005e+00	 1.136208e+01
 1.005778e+00	 1.082699e+00	 1.090258e+01
 9.856874e-01	 1.101021e+00	 1.065257e+01
 9.652738e-01	 1.118961e+00	 1.069052e+01
 9.445479e-01	 1.136511e+00	 1.100958e+01
 1.052803e+00	 1.052803e+00	 1.190086e+01
 1.033245e+00	 1.072005e+00	 1.130194e+01
 1.013340e+00	 1.090840e+00	 1.083540e+01
 9.930986e-01	 1.109299e+00	 1.059303e+01
 9.725315e-01	 1.127374e+00	 1.063982e+01
 9.516498e-01	 1.145056e+00	 1.096332e+01
 1.060660e+00	 1.060660e+00	 1.178179e+01
 1.040956e+00	 1.080005e+00	 1.116300e+01
 1.020902e+00	 1.098981e+00	 1.068668e+01
 1.000510e+00	 1.117578e+00	 1.044802e+01
 9.797892e-01	 1.135787e+00	 1.049851e+01
 9.587516e-01	 1.153601e+00	 1.082688e+01
 9.232423e-01	 1.110875e+00	 1.055243e+01
 9.026896e-01	 1.127640e+00	 9.686649e+00
 8.818538e-01	 1.144008e+00	 9.110926e+00
 8.607464e-01	 1.159972e+00	 8.785061e+00
 8.393791e-01	 1.175526e+00	 8.663582e+00
 8.177637e-01	 1.190665e+00	 8.697138e+00
 9.303442e-01	 1.119420e+00	 1.080953e+01
 9.096333e-01	 1.136314e+00	 9.955906e+00
 8.886373e-01	 1.152808e+00	 9.388730e+00
 8.673675e-01	 1.168895e+00	 9.067475e+00
 8.458358e-01	 1.184569e+00	 8.946179e+00
 8.240542e-01	 1.199824e+00	 8.974913e+00
 9.374460e-01	 1.127965e+00	 1.096013e+01
 9.165771e-01	 1.144988e+00	 1.011788e+01
 8.954208e-01	 1.161608e+00	 9.558282e+00
 8.739886e-01	 1.177818e+00	 9.240464e+00
 8.522926e-01	 1.193612e+00	 9.117959e+00
 8.303447e-01	 1.208983e+00	 9.140244e+00
 9.445479e-01	 1.136511e+00	 1.100958e+01
 9.235209e-01	 1.153662e+00	 1.017771e+01
 9.022043e-01	 1.170408e+00	 9.624514e+00
 8.806098e-01	 1.186741e+00	 9.308753e+00
 8.587493e-01	 1.202654e+00	 9.183434e+00
 8.366352e-01	 1.218142e+00	 9.197420e+00
 9.516498e-01	 1.145056e+00	 1.096332e+01
 9.304646e-01	 1.162336e+00	 1.014064e+01
 9.089877e-01	 1.179208e+00	 9.592462e+00
 8.872309e-01	 1.195664e+00	 9.277176e+00
 8.652061e-01	 1.211697e+00	 9.147233e+00
 8.429257e-01	 1.227300e+00	 9.150860e+00
 9.587516e-01	 1.153601e+00	 1.082688e+01
 9.374084e-01	 1.171010e+00	 1.001198e+01
 9.157712e-01	 1.188008e+00	 9.467251e+00
 8.938520e-01	 1.204586e+00	 9.150665e+00
 8.716629e-01	 1.220739e+00	 9.014095e+00
 8.492162e-01	 1.236459e+00	 9.005099e+00
 8.177637e-01	 1.190665e+00	 8.697138e+00
 7.959124e-01	 1.205381e+00	 8.190753e+00
 7.738373e-01	 1.219670e+00	 7.763505e+00
 7.515508e-01	 1.233528e+00	 7.363144e+00
 7.290653e-01	 1.246950e+00	 6.935189e+00
 7.063935e-01	 1.259932e+00	 6.415101e+00
 8.240542e-01	 1.199824e+00	 8.974913e+00
 8.020348e-01	 1.214653e+00	 8.467790e+00
 7.797899e-01	 1.229052e+00	 8.041872e+00
 7.573319e-01	 1.243017e+00	 7.644779e+00
 7.346735e-01	 1.256542e+00	 7.224562e+00
 7.118273e-01	 1.269623e+00	 6.717224e+00
 8.303447e-01	 1.208983e+00	 9.140244e+00
 8.081572e-01	 1.223925e+00	 8.633436e+00
 7.857425e-01	 1.238434e+00	 8.209519e+00
 7.631131e-01	 1.252505e+00	 7.815982e+00
 7.402817e-01	 1.266134e+00	 7.401812e+00
 7.172611e-01	 1.279315e+00	 6.906805e+00
 8.366352e-01	 1.218142e+00	 9.197420e+00
 8.142796e-01	 1.233197e+00	 8.691680e+00
 7.916951e-01	 1.247817e+00	 8.270120e+00
 7.688943e-01	 1.261994e+00	 7.880098e+00
 7.458899e-01	 1.275725e+00	 7.470627e+00
 7.226949e-01	 1.289007e+00	 6.986627e+00
 8.429257e-01	 1.227300e+00	 9.150860e+00
 8.204020e-01	 1.242470e+00	 8.646650e+00
 7.976476e-01	 1.257199e+00	 8.227503e+00
 7.746754e-01	 1.271483e+00	 7.840636e+00
 7.514981e-01	 1.285317e+00	 7.435091e+00
 7.281287e-01	 1.298699e+00	 6.959604e+00
 8.492162e-01	 1.236459e+00	 9.005099e+00
 8.265244e-01	 1.251742e+00	 8.502607e+00
 8.036002e-01	 1.266581e+00	 8.085638e+00
 7.804566e-01	 1.280971e+00	 7.701258e+00
 7.571063e-01	 1.294909e+00	 7.298541e+00
 7.335625e-01	 1.308391e+00	 6.828783e+00
 7.063935e-01	 1.259932e+00	 6.415101e+00
 6.835480e-01	 1.272471e+00	 6.521763e+00
 6.605413e-01	 1.284564e+00	 6.421936e+00
 6.373863e-01	 1.296209e+00	 6.098138e+00
 6.140956e-01	 1.307404e+00	 5.540910e+00
 5.906819e-01	 1.318148e+00	 4.748306e+00
 7.118273e-01	 1.269623e+00	 6.717224e+00
 6.888060e-01	 1.282259e+00	 6.829018e+00
 6.656224e-01	 1.294445e+00	 6.732652e+00
 6.422893e-01	 1.306180e+00	 6.411935e+00
 6.188194e-01	 1.317461e+00	 5.859006e+00
 5.952256e-01	 1.328288e+00	 5.073808e+00
 7.172611e-01	 1.279315e+00	 6.906805e+00
 6.940641e-01	 1.292047e+00	 7.021849e+00
 6.707035e-01	 1.304327e+00	 6.926553e+00
 6.471922e-01	 1.316151e+00	 6.606095e+00
 6.235432e-01	 1.327518e+00	 6.054314e+00
 5.997693e-01	 1.338427e+00	 5.273149e+00
 7.226949e-01	 1.289007e+00	 6.986627e+00
 6.993221e-01	 1.301836e+00	 7.102799e+00
 6.757846e-01	 1.314208e+00	 7.005919e+00
 6.520952e-01	 1.326122e+00	 6.682619e+00
 6.282670e-01	 1.337575e+00	 6.128530e+00
 6.043130e-01	 1.348567e+00	 5.347700e+00
 7.281287e-01	 1.298699e+00	 6.959604e+00
 7.045802e-01	 1.311624e+00	 7.074547e+00
 6.808657e-01	 1.324089e+00	 6.973170e+00
 6.569982e-01	 1.336093e+00	 6.643642e+00
 6.329908e-01	 1.347632e+00	 6.083489e+00
 6.088567e-01	 1.358707e+00	 5.298975e+00
 7.335625e-01	 1.308391e+00	 6.828783e+00
 7.098383e-01	 1.321412e+00	 6.939908e+00
 6.859468e-01	 1.333970e+00	 6.830861e+00
 6.619011e-01	 1.346063e+00	 6.491441e+00
 6.377146e-01	 1.357689e+00	 5.921163e+00
 6.134004e-01	 1.368846e+00	 5.128626e+00
 5.906819e-01	 1.318148e+00	 4.748306e+00
 5.671578e-01	 1.328440e+00	 4.836676e+00
 5.435360e-01	 1.338278e+00	 4.730240e+00
 5.198290e-01	 1.347664e+00	 4.446341e+00
 4.960491e-01	 1.356597e+00	 4.006733e+00
 4.722087e-01	 1.365078e+00	 3.436700e+00
 5.952256e-01	 1.328288e+00	 5.073808e+00
 5.715206e-01	 1.338658e+00	 5.181051e+00
 5.477171e-01	 1.348573e+00	 5.087687e+00
 5.238276e-01	 1.358030e+00	 4.813419e+00
 4.998649e-01	 1.367032e+00	 4.382547e+00
 4.758411e-01	 1.375579e+00	 3.823042e+00
 5.997693e-01	 1.338427e+00	 5.273149e+00
 5.758833e-01	 1.348877e+00	 5.392723e+00
 5.518981e-01	 1.358867e+00	 5.306131e+00
 5.278263e-01	 1.368397e+00	 5.035574e+00
 5.036806e-01	 1.377468e+00	 4.608050e+00
 4.794735e-01	 1.386079e+00	 4.054376e+00
 6.043130e-01	 1.348567e+00	 5.347700e+00
 5.802461e-01	 1.359096e+00	 5.472798e+00
 5.560791e-01	 1.369161e+00	 5.386390e+00
 5.318250e-01	 1.378764e+00	 5.113324e+00
 5.074964e-01	 1.387903e+00	 4.683449e+00
 4.831059e-01	 1.396580e+00	 4.130588e+00
 6.088567e-01	 1.358707e+00	 5.298975e+00
 5.846088e-01	 1.369315e+00	 5.422517e+00
 5.602602e-01	 1.379456e+00	 5.329416e+00
 5.358237e-01	 1.389130e+00	 5.047318e+00
 5.113122e-01	 1.398338e+00	 4.609078e+00
 4.867382e-01	 1.407081e+00	 4.051690e+00
 6.134004e-01	 1.368846e+00	 5.128626e+00
 5.889716e-01	 1.379533e+00	 5.243258e+00
 5.644412e-01	 1.389750e+00	 5.136297e+00
 5.398224e-01	 1.399497e+00	 4.838333e+00
 5.151279e-01	 1.408774e+00	 4.385392e+00
 4.903706e-01	 1.417581e+00	 3.817808e+00
 4.722087e-01	 1.365078e+00	 3.436700e+00
 4.483200e-01	 1.373109e+00	 3.448295e+00
 4.243950e-01	 1.380691e+00	 3.348834e+00
 4.004456e-01	 1.387827e+00	 3.168685e+00
 3.764834e-01	 1.394518e+00	 2.938050e+00
 3.525199e-01	 1.400767e+00	 2.677980e+00
 4.758411e-01	 1.375579e+00	 3.823042e+00
 4.517686e-01	 1.383672e+00	 3.842472e+00
 4.276596e-01	 1.391312e+00	 3.746064e+00
 4.035259e-01	 1.398502e+00	 3.567120e+00
 3.793794e-01	 1.405245e+00	 3.338753e+00
 3.552316e-01	 1.411543e+00	 3.086556e+00
 4.794735e-01	 1.386079e+00	 4.054376e+00
 4.552173e-01	 1.394234e+00	 4.077067e+00
 4.309242e-01	 1.401933e+00	 3.980342e+00
 4.066063e-01	 1.409178e+00	 3.800597e+00
 3.822754e-01	 1.415972e+00	 3.574025e+00
 3.579433e-01	 1.422318e+00	 3.330960e+00
 4.831059e-01	 1.396580e+00	 4.130588e+00
 4.586659e-01	 1.404796e+00	 4.151663e+00
 4.341888e-01	 1.412553e+00	 4.050942e+00
 4.096866e-01	 1.419854e+00	 3.868089e+00
 3.851714e-01	 1.426699e+00	 3.642541e+00
 3.606550e-01	 1.433093e+00	 3.409429e+00
 4.867382e-01	 1.407081e+00	 4.051690e+00
 4.621145e-01	 1.415359e+00	 4.065959e+00
 4.374533e-01	 1.423174e+00	 3.957252e+00
 4.127670e-01	 1.430529e+00	 3.768670e+00
 3.880675e-01	 1.437426e+00	 3.543071e+00
 3.633667e-01	 1.443868e+00	 3.320304e+00
 4.903706e-01	 1.417581e+00	 3.817808e+00
 4.655631e-01	 1.425921e+00	 3.819766e+00
 4.407179e-01	 1.433795e+00	 3.698762e+00
 4.158473e-01	 1.441205e+00	 3.501514e+00
 3.909635e-01	 1.448153e+00	 3.274478e+00
 3.660783e-01	 1.454643e+00	 3.062035e+00
 3.525199e-01	 1.400767e+00	 2.677980e+00
 3.285664e-01	 1.406579e+00	 2.367192e+00
 3.046340e-01	 1.411955e+00	 2.111738e+00
 2.807336e-01	 1.416901e+00	 1.937358e+00
 2.568756e-01	 1.421420e+00	 1.861891e+00
 2.330704e-01	 1.425517e+00	 1.895721e+00
 3.552316e-01	 1.411543e+00	 3.086556e+00
 3.310939e-01	 1.417399e+00	 2.783133e+00
 3.069774e-01	 1.422817e+00	 2.526616e+00
 2.828931e-01	 1.427800e+00	 2.342219e+00
 2.588515e-01	 1.432354e+00	 2.246659e+00
 2.348633e-01	 1.436482e+00	 2.248660e+00
 3.579433e-01	 1.422318e+00	 3.330960e+00
 3.336213e-01	 1.428218e+00	 3.037307e+00
 3.093207e-01	 1.433678e+00	 2.784554e+00
 2.850525e-01	 1.438699e+00	 2.597280e+00
 2.608275e-01	 1.443288e+00	 2.490934e+00
 2.366561e-01	 1.447448e+00	 2.472400e+00
 3.606550e-01	 1.433093e+00	 3.409429e+00
 3.361487e-01	 1.439038e+00	 3.127673e+00
 3.116641e-01	 1.444539e+00	 2.883328e+00
 2.872120e-01	 1.449599e+00	 2.700227e+00
 2.628035e-01	 1.454222e+00	 2.592394e+00
 2.384490e-01	 1.458413e+00	 2.564685e+00
 3.633667e-01	 1.443868e+00	 3.320304e+00
 3.386762e-01	 1.449858e+00	 3.052271e+00
 3.140074e-01	 1.455400e+00	 2.820773e+00
 2.893715e-01	 1.460498e+00	 2.648780e+00
 2.647794e-01	 1.465156e+00	 2.548735e+00
 2.402418e-01	 1.469379e+00	 2.523269e+00
 3.660783e-01	 1.454643e+00	 3.062035e+00
 3.412036e-01	 1.460678e+00	 2.809217e+00
 3.163507e-01	 1.466261e+00	 2.594777e+00
 2.915310e-01	 1.471397e+00	 2.440698e+00
 2.667554e-01	 1.476090e+00	 2.357676e+00
 2.420347e-01	 1.480344e+00	 2.345911e+00
 2.330704e-01	 1.425517e+00	 1.895721e+00
 2.093282e-01	 1.429196e+00	 1.750897e+00
 1.856586e-01	 1.432463e+00	 1.646185e+00
 1.620712e-01	 1.435323e+00	 1.575509e+00
 1.385753e-01	 1.437782e+00	 1.528908e+00
 1.151798e-01	 1.439845e+00	 1.493587e+00
 2.348633e-01	 1.436482e+00	 2.248660e+00
 2.109384e-01	 1.440190e+00	 2.067422e+00
 1.870867e-01	 1.443482e+00	 1.929579e+00
 1.633179e-01	 1.446364e+00	 1.825947e+00
 1.396413e-01	 1.448842e+00	 1.743200e+00
 1.160658e-01	 1.450921e+00	 1.665014e+00
 2.366561e-01	 1.447448e+00	 2.472400e+00
 2.125486e-01	 1.451184e+00	 2.268444e+00
 1.885149e-01	 1.454501e+00	 2.112401e+00
 1.645646e-01	 1.457405e+00	 1.991724e+00
 1.407072e-01	 1.459902e+00	 1.889453e+00
 1.169518e-01	 1.461996e+00	 1.785453e+00
 2.384490e-01	 1.458413e+00	 2.564685e+00
 2.141588e-01	 1.462178e+00	 2.351830e+00
 1.899430e-01	 1.465520e+00	 2.192706e+00
 1.658113e-01	 1.468446e+00	 2.071139e+00
 1.417732e-01	 1.470961e+00	 1.966253e+00
 1.178378e-01	 1.473072e+00	 1.853809e+00
 2.402418e-01	 1.469379e+00	 2.523269e+00
 2.157690e-01	 1.473171e+00	 2.315446e+00
 1.913711e-01	 1.476539e+00	 2.168541e+00
 1.670580e-01	 1.479487e+00	 2.062475e+00
 1.428392e-01	 1.482021e+00	 1.972123e+00
 1.187238e-01	 1.484148e+00	 1.867171e+00
 2.420347e-01	 1.480344e+00	 2.345911e+00
 2.173792e-01	 1.484165e+00	 2.158323e+00
 1.927993e-01	 1.487558e+00	 2.040131e+00
 1.683047e-01	 1.490528e+00	 1.960375e+00
 1.439051e-01	 1.493081e+00	 1.885877e+00
 1.196098e-01	 1.495224e+00	 1.782678e+00
 1.151798e-01	 1.439845e+00	 1.493587e+00
 9.189328e-02	 1.441518e+00	 1.469569e+00
 6.872417e-02	 1.442809e+00	 1.465897e+00
 4.568048e-02	 1.443722e+00	 1.467415e+00
 2.276995e-02	 1.444265e+00	 1.460237e+00
 0.000000e+00	 1.444444e+00	 1.432643e+00
 1.160658e-01	 1.450921e+00	 1.665014e+00
 9.260015e-02	 1.452607e+00	 1.603368e+00
 6.925282e-02	 1.453907e+00	 1.568941e+00
 4.603187e-02	 1.454827e+00	 1.542651e+00
 2.294510e-02	 1.455375e+00	 1.506821e+00
 0.000000e+00	 1.455556e+00	 1.446152e+00
 1.169518e-01	 1.461996e+00	 1.785453e+00
 9.330702e-02	 1.463696e+00	 1.703364e+00
 6.978146e-02	 1.465006e+00	 1.654903e+00
 4.638326e-02	 1.465933e+00	 1.616782e+00
 2.312025e-02	 1.466484e+00	 1.567265e+00
 0.000000e+00	 1.466667e+00	 1.487209e+00
 1.178378e-01	 1.473072e+00	 1.853809e+00
 9.401390e-02	 1.474784e+00	 1.768800e+00
 7.031011e-02	 1.476104e+00	 1.723382e+00
 4.673464e-02	 1.477039e+00	 1.689771e+00
 2.329541e-02	 1.477594e+00	 1.641884e+00
 0.000000e+00	 1.477778e+00	 1.556466e+00
 1.187238e-01	 1.484148e+00	 1.867171e+00
 9.472077e-02	 1.485873e+00	 1.792131e+00
 7.083876e-02	 1.487203e+00	 1.759376e+00
 4.708603e-02	 1.488144e+00	 1.737804e+00
 2.347056e-02	 1.488704e+00	 1.698695e+00
 0.000000e+00	 1.488889e+00	 1.616388e+00
 1.196098e-01	 1.495224e+00	 1.782678e+00
 9.542764e-02	 1.496961e+00	 1.709318e+00
 7.136741e-02	 1.498301e+00	 1.680566e+00
 4.743742e-02	 1.499250e+00	 1.663300e+00
 2.364571e-02	 1.499814e+00	 1.626753e+00
 0.000000e+00	 1.500000e+00	 1.543180e+00
 1.500000e+00	 0.000000e+00	 1.559090e+01
 1.499814e+00	 2.364571e-02	 1.555944e+01
 1.499250e+00	 4.743742e-02	 1.554701e+01
 1.498301e+00	 7.136741e-02	 1.554899e+01
 1.496961e+00	 9.542764e-02	 1.556017e+01
 1.495224e+00	 1.196098e-01	 1.557494e+01
 1.511111e+00	 0.000000e+00	 1.542326e+01
 1.510923e+00	 2.382087e-02	 1.538874e+01
 1.510355e+00	 4.778881e-02	 1.537605e+01
 1.509400e+00	 7.189605e-02	 1.538011e+01
 1.508050e+00	 9.613451e-02	 1.539529e+01
 1.506299e+00	 1.204958e-01	 1.541555e+01
 1.522222e+00	 0.000000e+00	 1.528674e+01
 1.522033e+00	 2.399602e-02	 1.524851e+01
 1.521461e+00	 4.814020e-02	 1.523466e+01
 1.520498e+00	 7.242470e-02	 1.523968e+01
 1.519139e+00	 9.684138e-02	 1.525752e+01
 1.517375e+00	 1.213818e-01	 1.528175e+01
 1.533333e+00	 0.000000e+00	 1.518138e+01
 1.533143e+00	 2.417117e-02	 1.513871e+01
 1.532566e+00	 4.849159e-02	 1.512275e+01
 1.531597e+00	 7.295335e-02	 1.512755e+01
 1.530227e+00	 9.754825e-02	 1.514666e+01
 1.528451e+00	 1.222678e-01	 1.517326e+01
 1.544444e+00	 0.000000e+00	 1.510722e+01
 1.544253e+00	 2.434633e-02	 1.505932e+01
 1.543672e+00	 4.884297e-02	 1.504023e+01
 1.542695e+00	 7.348200e-02	 1.504356e+01
 1.541316e+00	 9.825512e-02	 1.506247e+01
 1.539526e+00	 1.231538e-01	 1.508976e+01
 1.555556e+00	 0.000000e+00	 1.506431e+01
 1.555362e+00	 2.452148e-02	 1.501035e+01
 1.554777e+00	 4.919436e-02	 1.498704e+01
 1.553794e+00	 7.401064e-02	 1.498757e+01
 1.552404e+00	 9.896200e-02	 1.500473e+01
 1.550602e+00	 1.240398e-01	 1.503096e+01
 1.495224e+00	 1.196098e-01	 1.557494e+01
 1.493081e+00	 1.439051e-01	 1.554760e+01
 1.490528e+00	 1.683047e-01	 1.553319e+01
 1.487558e+00	 1.927993e-01	 1.552504e+01
 1.484165e+00	 2.173792e-01	 1.551657e+01
 1.480344e+00	 2.420347e-01	 1.550149e+01
 1.506299e+00	 1.204958e-01	 1.541555e+01
 1.504141e+00	 1.449711e-01	 1.538804e+01
 1.501569e+00	 1.695514e-01	 1.537560e+01
 1.498577e+00	 1.942274e-01	 1.537135e+01
 1.495159e+00	 2.189895e-01	 1.536851e+01
 1.491310e+00	 2.438275e-01	 1.536056e+01
 1.517375e+00	 1.213818e-01	 1.528175e+01
 1.515201e+00	 1.460370e-01	 1.525332e+01
 1.512610e+00	 1.707981e-01	 1.524189e+01
 1.509596e+00	 1.956556e-01	 1.524038e+01
 1.506153e+00	 2.205997e-01	 1.524184e+01
 1.502275e+00	 2.456204e-01	 1.523958e+01
 1.528451e+00	 1.222678e-01	 1.517326e+01
 1.526261e+00	 1.471030e-01	 1.514303e+01
 1.523651e+00	 1.720448e-01	 1.513155e+01
 1.520615e+00	 1.970837e-01	 1.513155e+01
 1.517147e+00	 2.222099e-01	 1.513589e+01
 1.513241e+00	 2.474132e-01	 1.513775e+01
 1.539526e+00	 1.231538e-01	 1.508976e+01
 1.537321e+00	 1.481690e-01	 1.505677e+01
 1.534692e+00	 1.732915e-01	 1.504409e+01
 1.531634e+00	 1.985119e-01	 1.504427e+01
 1.528140e+00	 2.238201e-01	 1.505001e+01
 1.524206e+00	 2.492061e-01	 1.505433e+01
 1.550602e+00	 1.240398e-01	 1.503096e+01
 1.548380e+00	 1.492349e-01	 1.499417e+01
 1.545733e+00	 1.745382e-01	 1.497905e+01
 1.542653e+00	 1.999400e-01	 1.497799e+01
 1.539134e+00	 2.254303e-01	 1.498355e+01
 1.535172e+00	 2.509989e-01	 1.498859e+01
 1.480344e+00	 2.420347e-01	 1.550149e+01
 1.476090e+00	 2.667554e-01	 1.551638e+01
 1.471397e+00	 2.915310e-01	 1.551237e+01
 1.466261e+00	 3.163507e-01	 1.548683e+01
 1.460678e+00	 3.412036e-01	 1.543871e+01
 1.454643e+00	 3.660783e-01	 1.536859e+01
 1.491310e+00	 2.438275e-01	 1.536056e+01
 1.487024e+00	 2.687314e-01	 1.537242e+01
 1.482296e+00	 2.936905e-01	 1.536680e+01
 1.477122e+00	 3.186941e-01	 1.533949e+01
 1.471498e+00	 3.437310e-01	 1.529105e+01
 1.465418e+00	 3.687900e-01	 1.522218e+01
 1.502275e+00	 2.456204e-01	 1.523958e+01
 1.497958e+00	 2.707073e-01	 1.524784e+01
 1.493196e+00	 2.958500e-01	 1.524430e+01
 1.487984e+00	 3.210374e-01	 1.522281e+01
 1.482318e+00	 3.462585e-01	 1.517833e+01
 1.476193e+00	 3.715017e-01	 1.511050e+01
 1.513241e+00	 2.474132e-01	 1.513775e+01
 1.508892e+00	 2.726833e-01	 1.514001e+01
 1.504095e+00	 2.980095e-01	 1.513593e+01
 1.498845e+00	 3.233808e-01	 1.511923e+01
 1.493137e+00	 3.487859e-01	 1.508473e+01
 1.486969e+00	 3.742134e-01	 1.502800e+01
 1.524206e+00	 2.492061e-01	 1.505433e+01
 1.519826e+00	 2.746593e-01	 1.504814e+01
 1.514994e+00	 3.001690e-01	 1.504084e+01
 1.509706e+00	 3.257241e-01	 1.502603e+01
 1.503957e+00	 3.513133e-01	 1.499840e+01
 1.497744e+00	 3.769251e-01	 1.495209e+01
 1.535172e+00	 2.509989e-01	 1.498859e+01
 1.530760e+00	 2.766352e-01	 1.497144e+01
 1.525893e+00	 3.023285e-01	 1.495820e+01
 1.520567e+00	 3.280674e-01	 1.494234e+01
 1.514777e+00	 3.538408e-01	 1.491844e+01
 1.508519e+00	 3.796368e-01	 1.487834e+01
 1.454643e+00	 3.660783e-01	 1.536859e+01
 1.448153e+00	 3.909635e-01	 1.541551e+01
 1.441205e+00	 4.158473e-01	 1.541714e+01
 1.433795e+00	 4.407179e-01	 1.538637e+01
 1.425921e+00	 4.655631e-01	 1.533845e+01
 1.417581e+00	 4.903706e-01	 1.529028e+01
 1.465418e+00	 3.687900e-01	 1.522218e+01
 1.458880e+00	 3.938595e-01	 1.527672e+01
 1.451880e+00	 4.189277e-01	 1.528443e+01
 1.444416e+00	 4.439825e-01	 1.525890e+01
 1.436483e+00	 4.690117e-01	 1.521566e+01
 1.428082e+00	 4.940030e-01	 1.517193e+01
 1.476193e+00	 3.715017e-01	 1.511050e+01
 1.469607e+00	 3.967555e-01	 1.516802e+01
 1.462556e+00	 4.220080e-01	 1.517734e+01
 1.455036e+00	 4.472471e-01	 1.515239e+01
 1.447046e+00	 4.724603e-01	 1.510894e+01
 1.438582e+00	 4.976354e-01	 1.506448e+01
 1.486969e+00	 3.742134e-01	 1.502800e+01
 1.480334e+00	 3.996516e-01	 1.508784e+01
 1.473231e+00	 4.250884e-01	 1.509439e+01
 1.465657e+00	 4.505116e-01	 1.506543e+01
 1.457608e+00	 4.759090e-01	 1.501696e+01
 1.449083e+00	 5.012677e-01	 1.496675e+01
 1.497744e+00	 3.769251e-01	 1.495209e+01
 1.491061e+00	 4.025476e-01	 1.502262e+01
 1.483907e+00	 4.281687e-01	 1.503325e+01
 1.476278e+00	 4.537762e-01	 1.499662e+01
 1.468171e+00	 4.793576e-01	 1.493846e+01
 1.459584e+00	 5.049001e-01	 1.487758e+01
 1.508519e+00	 3.796368e-01	 1.487834e+01
 1.501788e+00	 4.054436e-01	 1.495333e+01
 1.494583e+00	 4.312491e-01	 1.497123e+01
 1.486898e+00	 4.570408e-01	 1.494035e+01
 1.478733e+00	 4.828062e-01	 1.487218e+01
 1.470084e+00	 5.085325e-01	 1.479588e+01
 1.417581e+00	 4.903706e-01	 1.529028e+01
 1.408774e+00	 5.151279e-01	 1.515889e+01
 1.399497e+00	 5.398224e-01	 1.507260e+01
 1.389750e+00	 5.644412e-01	 1.505459e+01
 1.379533e+00	 5.889716e-01	 1.512895e+01
 1.368846e+00	 6.134004e-01	 1.532028e+01
 1.428082e+00	 4.940030e-01	 1.517193e+01
 1.419209e+00	 5.189437e-01	 1.506070e+01
 1.409864e+00	 5.438211e-01	 1.498925e+01
 1.400045e+00	 5.686223e-01	 1.498168e+01
 1.389752e+00	 5.933343e-01	 1.506306e+01
 1.378986e+00	 6.179441e-01	 1.525916e+01
 1.438582e+00	 4.976354e-01	 1.506448e+01
 1.429644e+00	 5.227594e-01	 1.497160e+01
 1.420230e+00	 5.478198e-01	 1.491298e+01
 1.410339e+00	 5.728033e-01	 1.491358e+01
 1.399971e+00	 5.976971e-01	 1.499949e+01
 1.389125e+00	 6.224878e-01	 1.519758e+01
 1.449083e+00	 5.012677e-01	 1.496675e+01
 1.440080e+00	 5.265752e-01	 1.489044e+01
 1.430597e+00	 5.518184e-01	 1.484266e+01
 1.420634e+00	 5.769844e-01	 1.484925e+01
 1.410190e+00	 6.020598e-01	 1.493724e+01
 1.399265e+00	 6.270315e-01	 1.513460e+01
 1.459584e+00	 5.049001e-01	 1.487758e+01
 1.450515e+00	 5.303910e-01	 1.481612e+01
 1.440964e+00	 5.558171e-01	 1.477729e+01
 1.430928e+00	 5.811654e-01	 1.478774e+01
 1.420408e+00	 6.064226e-01	 1.487543e+01
 1.409405e+00	 6.315752e-01	 1.506940e+01
 1.470084e+00	 5.085325e-01	 1.479588e+01
 1.460950e+00	 5.342067e-01	 1.474764e+01
 1.451330e+00	 5.598158e-01	 1.471595e+01
 1.441223e+00	 5.853465e-01	 1.472822e+01
 1.430627e+00	 6.107853e-01	 1.481331e+01
 1.419544e+00	 6.361189e-01	 1.500128e+01
 1.368846e+00	 6.134004e-01	 1.532028e+01
 1.357689e+00	 6.377146e-01	 1.483764e+01
 1.346063e+00	 6.619011e-01	 1.451198e+01
 1.333970e+00	 6.859468e-01	 1.436667e+01
 1.321412e+00	 7.098383e-01	 1.442352e+01
 1.308391e+00	 7.335625e-01	 1.470202e+01
 1.378986e+00	 6.179441e-01	 1.525916e+01
 1.367746e+00	 6.424384e-01	 1.477906e+01
 1.356034e+00	 6.668041e-01	 1.445883e+01
 1.343852e+00	 6.910278e-01	 1.432368e+01
 1.331200e+00	 7.150963e-01	 1.439739e+01
 1.318082e+00	 7.389963e-01	 1.470160e+01
 1.389125e+00	 6.224878e-01	 1.519758e+01
 1.377803e+00	 6.471623e-01	 1.471913e+01
 1.366005e+00	 6.717071e-01	 1.440311e+01
 1.353733e+00	 6.961089e-01	 1.427657e+01
 1.340988e+00	 7.203544e-01	 1.436531e+01
 1.327774e+00	 7.444301e-01	 1.469007e+01
 1.399265e+00	 6.270315e-01	 1.513460e+01
 1.387860e+00	 6.518861e-01	 1.465688e+01
 1.375976e+00	 6.766101e-01	 1.434382e+01
 1.363614e+00	 7.011900e-01	 1.422431e+01
 1.350777e+00	 7.256125e-01	 1.432613e+01
 1.337466e+00	 7.498639e-01	 1.465780e+01
 1.409405e+00	 6.315752e-01	 1.506940e+01
 1.397917e+00	 6.566099e-01	 1.459150e+01
 1.385947e+00	 6.815130e-01	 1.428013e+01
 1.373495e+00	 7.062711e-01	 1.416602e+01
 1.360565e+00	 7.308705e-01	 1.427892e+01
 1.347158e+00	 7.552977e-01	 1.460491e+01
 1.419544e+00	 6.361189e-01	 1.500128e+01
 1.407974e+00	 6.613337e-01	 1.452231e+01
 1.395918e+00	 6.864160e-01	 1.421137e+01
 1.383377e+00	 7.113522e-01	 1.410100e+01
 1.370353e+00	 7.361286e-01	 1.422294e+01
 1.356850e+00	 7.607315e-01	 1.453250e+01
 1.308391e+00	 7.335625e-01	 1.470202e+01
 1.294909e+00	 7.571063e-01	 1.451583e+01
 1.280971e+00	 7.804566e-01	 1.432349e+01
 1.266581e+00	 8.036002e-01	 1.408802e+01
 1.251742e+00	 8.265244e-01	 1.378403e+01
 1.236459e+00	 8.492162e-01	 1.338642e+01
 1.318082e+00	 7.389963e-01	 1.470160e+01
 1.304501e+00	 7.627145e-01	 1.451711e+01
 1.290460e+00	 7.862377e-01	 1.432405e+01
 1.275963e+00	 8.095528e-01	 1.409683e+01
 1.261014e+00	 8.326468e-01	 1.380963e+01
 1.245618e+00	 8.555066e-01	 1.343676e+01
 1.327774e+00	 7.444301e-01	 1.469007e+01
 1.314093e+00	 7.683227e-01	 1.449638e+01
 1.299949e+00	 7.920189e-01	 1.430240e+01
 1.285345e+00	 8.155054e-01	 1.408304e+01
 1.270286e+00	 8.387692e-01	 1.381206e+01
 1.254777e+00	 8.617971e-01	 1.346318e+01
 1.337466e+00	 7.498639e-01	 1.465780e+01
 1.323685e+00	 7.739309e-01	 1.445430e+01
 1.309437e+00	 7.978001e-01	 1.425928e+01
 1.294727e+00	 8.214580e-01	 1.404748e+01
 1.279558e+00	 8.448916e-01	 1.379223e+01
 1.263936e+00	 8.680876e-01	 1.346663e+01
 1.347158e+00	 7.552977e-01	 1.460491e+01
 1.333277e+00	 7.795391e-01	 1.439178e+01
 1.318926e+00	 8.035812e-01	 1.419568e+01
 1.304109e+00	 8.274106e-01	 1.399119e+01
 1.288830e+00	 8.510140e-01	 1.375122e+01
 1.273095e+00	 8.743781e-01	 1.344830e+01
 1.356850e+00	 7.607315e-01	 1.453250e+01
 1.342869e+00	 7.851473e-01	 1.430996e+01
 1.328415e+00	 8.093624e-01	 1.411278e+01
 1.313491e+00	 8.333632e-01	 1.391540e+01
 1.298103e+00	 8.571364e-01	 1.369036e+01
 1.282254e+00	 8.806686e-01	 1.340955e+01
 1.236459e+00	 8.492162e-01	 1.338642e+01
 1.220739e+00	 8.716629e-01	 1.364545e+01
 1.204586e+00	 8.938520e-01	 1.367880e+01
 1.188008e+00	 9.157712e-01	 1.346439e+01
 1.171010e+00	 9.374084e-01	 1.298668e+01
 1.153601e+00	 9.587516e-01	 1.223850e+01
 1.245618e+00	 8.555066e-01	 1.343676e+01
 1.229782e+00	 8.781196e-01	 1.368570e+01
 1.213509e+00	 9.004731e-01	 1.371637e+01
 1.196808e+00	 9.225547e-01	 1.350577e+01
 1.179685e+00	 9.443522e-01	 1.303746e+01
 1.162146e+00	 9.658535e-01	 1.230349e+01
 1.254777e+00	 8.617971e-01	 1.346318e+01
 1.238824e+00	 8.845764e-01	 1.370041e+01
 1.222432e+00	 9.070943e-01	 1.372651e+01
 1.205608e+00	 9.293382e-01	 1.351748e+01
 1.188359e+00	 9.512959e-01	 1.305595e+01
 1.170691e+00	 9.729553e-01	 1.233311e+01
 1.263936e+00	 8.680876e-01	 1.346663e+01
 1.247867e+00	 8.910332e-01	 1.369062e+01
 1.231355e+00	 9.137154e-01	 1.371034e+01
 1.214408e+00	 9.361217e-01	 1.350076e+01
 1.197033e+00	 9.582397e-01	 1.304348e+01
 1.179237e+00	 9.800572e-01	 1.232878e+01
 1.273095e+00	 8.743781e-01	 1.344830e+01
 1.256909e+00	 8.974899e-01	 1.365761e+01
 1.240278e+00	 9.203365e-01	 1.366923e+01
 1.223208e+00	 9.429052e-01	 1.345706e+01
 1.205707e+00	 9.651835e-01	 1.300161e+01
 1.187782e+00	 9.871591e-01	 1.229215e+01
 1.282254e+00	 8.806686e-01	 1.340955e+01
 1.265952e+00	 9.039467e-01	 1.360281e+01
 1.249201e+00	 9.269576e-01	 1.360472e+01
 1.232008e+00	 9.496887e-01	 1.338802e+01
 1.214381e+00	 9.721272e-01	 1.293208e+01
 1.196327e+00	 9.942609e-01	 1.222507e+01
 1.153601e+00	 9.587516e-01	 1.223850e+01
 1.135787e+00	 9.797892e-01	 1.249238e+01
 1.117578e+00	 1.000510e+00	 1.253389e+01
 1.098981e+00	 1.020902e+00	 1.239118e+01
 1.080005e+00	 1.040956e+00	 1.211306e+01
 1.060660e+00	 1.060660e+00	 1.178179e+01
 1.162146e+00	 9.658535e-01	 1.230349e+01
 1.144201e+00	 9.870469e-01	 1.258658e+01
 1.125856e+00	 1.007921e+00	 1.265306e+01
 1.107121e+00	 1.028465e+00	 1.253309e+01
 1.088005e+00	 1.048667e+00	 1.227026e+01
 1.068517e+00	 1.068517e+00	 1.194366e+01
 1.170691e+00	 9.729553e-01	 1.233311e+01
 1.152614e+00	 9.943046e-01	 1.263894e+01
 1.134135e+00	 1.015332e+00	 1.272341e+01
 1.115262e+00	 1.036027e+00	 1.261662e+01
 1.096005e+00	 1.056377e+00	 1.236333e+01
 1.076374e+00	 1.076374e+00	 1.203526e+01
 1.179237e+00	 9.800572e-01	 1.232878e+01
 1.161027e+00	 1.001562e+00	 1.265104e+01
 1.142413e+00	 1.022743e+00	 1.274666e+01
 1.123402e+00	 1.043589e+00	 1.264528e+01
 1.104005e+00	 1.064088e+00	 1.239329e+01
 1.084230e+00	 1.084230e+00	 1.205738e+01
 1.187782e+00	 9.871591e-01	 1.229215e+01
 1.169440e+00	 1.008820e+00	 1.262467e+01
 1.150691e+00	 1.030155e+00	 1.272474e+01
 1.131543e+00	 1.051151e+00	 1.262144e+01
 1.112005e+00	 1.071799e+00	 1.236167e+01
 1.092087e+00	 1.092087e+00	 1.201128e+01
 1.196327e+00	 9.942609e-01	 1.222507e+01
 1.177854e+00	 1.016078e+00	 1.256185e+01
 1.158970e+00	 1.037566e+00	 1.265982e+01
 1.139684e+00	 1.058713e+00	 1.254741e+01
 1.120005e+00	 1.079510e+00	 1.227138e+01
 1.099944e+00	 1.099944e+00	 1.189865e+01
 1.060660e+00	 1.060660e+00	 1.178179e+01
 1.040956e+00	 1.080005e+00	 1.116300e+01
 1.020902e+00	 1.098981e+00	 1.068668e+01
 1.000510e+00	 1.117578e+00	 1.044802e+01
 9.797892e-01	 1.135787e+00	 1.049851e+01
 9.587516e-01	 1.153601e+00	 1.082688e+01
 1.068517e+00	 1.068517e+00	 1.194366e+01
 1.048667e+00	 1.088005e+00	 1.132723e+01
 1.028465e+00	 1.107121e+00	 1.085767e+01
 1.007921e+00	 1.125856e+00	 1.063407e+01
 9.870469e-01	 1.144201e+00	 1.069683e+01
 9.658535e-01	 1.162146e+00	 1.103245e+01
 1.076374e+00	 1.076374e+00	 1.203526e+01
 1.056377e+00	 1.096005e+00	 1.141591e+01
 1.036027e+00	 1.115262e+00	 1.094833e+01
 1.015332e+00	 1.134135e+00	 1.074021e+01
 9.943046e-01	 1.152614e+00	 1.081339e+01
 9.729553e-01	 1.170691e+00	 1.115430e+01
 1.084230e+00	 1.084230e+00	 1.205738e+01
 1.064088e+00	 1.104005e+00	 1.142948e+01
 1.043589e+00	 1.123402e+00	 1.096657e+01
 1.022743e+00	 1.142413e+00	 1.077260e+01
 1.001562e+00	 1.161027e+00	 1.085415e+01
 9.800572e-01	 1.179237e+00	 1.119818e+01
 1.092087e+00	 1.092087e+00	 1.201128e+01
 1.071799e+00	 1.112005e+00	 1.136893e+01
 1.051151e+00	 1.131543e+00	 1.091939e+01
 1.030155e+00	 1.150691e+00	 1.073738e+01
 1.008820e+00	 1.169440e+00	 1.082504e+01
 9.871591e-01	 1.187782e+00	 1.116988e+01
 1.099944e+00	 1.099944e+00	 1.189865e+01
 1.079510e+00	 1.120005e+00	 1.124610e+01
 1.058713e+00	 1.139684e+00	 1.081313e+01
 1.037566e+00	 1.158970e+00	 1.064067e+01
 1.016078e+00	 1.177854e+00	 1.073200e+01
 9.942609e-01	 1.196327e+00	 1.107518e+01
 9.587516e-01	 1.153601e+00	 1.082688e+01
 9.374084e-01	 1.171010e+00	 1.001198e+01
 9.157712e-01	 1.188008e+00	 9.467251e+00
 8.938520e-01	 1.204586e+00	 9.150665e+00
 8.716629e-01	 1.220739e+00	 9.014095e+00
 8.492162e-01	 1.236459e+00	 9.005099e+00
 9.658535e-01	 1.162146e+00	 1.103245e+01
 9.443522e-01	 1.179685e+00	 1.022510e+01
 9.225547e-01	 1.196808e+00	 9.685018e+00
 9.004731e-01	 1.213509e+00	 9.369885e+00
 8.781196e-01	 1.229782e+00	 9.231100e+00
 8.555066e-01	 1.245618e+00	 9.215652e+00
 9.729553e-01	 1.170691e+00	 1.115430e+01
 9.512959e-01	 1.188359e+00	 1.035387e+01
 9.293382e-01	 1.205608e+00	 9.817617e+00
 9.070943e-01	 1.222432e+00	 9.502896e+00
 8.845764e-01	 1.238824e+00	 9.360588e+00
 8.617971e-01	 1.254777e+00	 9.337074e+00
 9.800572e-01	 1.179237e+00	 1.119818e+01
 9.582397e-01	 1.197033e+00	 1.040384e+01
 9.361217e-01	 1.214408e+00	 9.870421e+00
 9.137154e-01	 1.231355e+00	 9.554886e+00
 8.910332e-01	 1.247867e+00	 9.407563e+00
 8.680876e-01	 1.263936e+00	 9.374178e+00
 9.871591e-01	 1.187782e+00	 1.116988e+01
 9.651835e-01	 1.205707e+00	 1.038062e+01
 9.429052e-01	 1.223208e+00	 9.848838e+00
 9.203365e-01	 1.240278e+00	 9.531093e+00
 8.974899e-01	 1.256909e+00	 9.377091e+00
 8.743781e-01	 1.273095e+00	 9.331850e+00
 9.942609e-01	 1.196327e+00	 1.107518e+01
 9.721272e-01	 1.214381e+00	 1.028979e+01
 9.496887e-01	 1.232008e+00	 9.758304e+00
 9.269576e-01	 1.249201e+00	 9.436793e+00
 9.039467e-01	 1.265952e+00	 9.274289e+00
 8.806686e-01	 1.282254e+00	 9.215044e+00
 8.492162e-01	 1.236459e+00	 9.005099e+00
 8.265244e-01	 1.251742e+00	 8.502607e+00
 8.036002e-01	 1.266581e+00	 8.085638e+00
 7.804566e-01	 1.280971e+00	 7.701258e+00
 7.571063e-01	 1.294909e+00	 7.298541e+00
 7.335625e-01	 1.308391e+00	 6.828783e+00
 8.555066e-01	 1.245618e+00	 9.215652e+00
 8.326468e-01	 1.261014e+00	 8.723996e+00
 8.095528e-01	 1.275963e+00	 8.317865e+00
 7.862377e-01	 1.290460e+00	 7.944165e+00
 7.627145e-01	 1.304501e+00	 7.552008e+00
 7.389963e-01	 1.318082e+00	 7.094013e+00
 8.617971e-01	 1.254777e+00	 9.337074e+00
 8.387692e-01	 1.270286e+00	 8.855992e+00
 8.155054e-01	 1.285345e+00	 8.459984e+00
 7.920189e-01	 1.299949e+00	 8.095778e+00
 7.683227e-01	 1.314093e+00	 7.712520e+00
 7.444301e-01	 1.327774e+00	 7.263203e+00
 8.680876e-01	 1.263936e+00	 9.374178e+00
 8.448916e-01	 1.279558e+00	 8.903167e+00
 8.214580e-01	 1.294727e+00	 8.516314e+00
 7.978001e-01	 1.309437e+00	 8.160143e+00
 7.739309e-01	 1.323685e+00	 7.783830e+00
 7.498639e-01	 1.337466e+00	 7.340684e+00
 8.743781e-01	 1.273095e+00	 9.331850e+00
 8.510140e-01	 1.288830e+00	 8.870185e+00
 8.274106e-01	 1.304109e+00	 8.491278e+00
 8.035812e-01	 1.318926e+00	 8.141425e+00
 7.795391e-01	 1.333277e+00	 7.769817e+00
 7.552977e-01	 1.347158e+00	 7.330092e+00
 8.806686e-01	 1.282254e+00	 9.215044e+00
 8.571364e-01	 1.298103e+00	 8.761788e+00
 8.333632e-01	 1.313491e+00	 8.389393e+00
 8.093624e-01	 1.328415e+00	 8.043894e+00
 7.851473e-01	 1.342869e+00	 7.674482e+00
 7.607315e-01	 1.356850e+00	 7.235130e+00
 7.335625e-01	 1.308391e+00	 6.828783e+00
 7.098383e-01	 1.321412e+00	 6.939908e+00
 6.859468e-01	 1.333970e+00	 6.830861e+00
 6.619011e-01	 1.346063e+00	 6.491441e+00
 6.377146e-01	 1.357689e+00	 5.921163e+00
 6.134004e-01	 1.368846e+00	 5.128626e+00
 7.389963e-01	 1.318082e+00	 7.094013e+00
 7.150963e-01	 1.331200e+00	 7.209176e+00
 6.910278e-01	 1.343852e+00	 7.102765e+00
 6.668041e-01	 1.356034e+00	 6.766260e+00
 6.424384e-01	 1.367746e+00	 6.201230e+00
 6.179441e-01	 1.378986e+00	 5.418676e+00
 7.444301e-01	 1.327774e+00	 7.263203e+00
 7.203544e-01	 1.340988e+00	 7.379116e+00
 6.961089e-01	 1.353733e+00	 7.271673e+00
 6.717071e-01	 1.366005e+00	 6.933825e+00
 6.471623e-01	 1.377803e+00	 6.369301e+00
 6.224878e-01	 1.389125e+00	 5.591620e+00
 7.498639e-01	 1.337466e+00	 7.340684e+00
 7.256125e-01	 1.350777e+00	 7.452894e+00
 7.011900e-01	 1.363614e+00	 7.340501e+00
 6.766101e-01	 1.375976e+00	 6.996779e+00
 6.518861e-01	 1.387860e+00	 6.427721e+00
 6.270315e-01	 1.399265e+00	 5.649487e+00
 7.552977e-01	 1.347158e+00	 7.330092e+00
 7.308705e-01	 1.360565e+00	 7.433788e+00
 7.062711e-01	 1.373495e+00	 7.312282e+00
 6.815130e-01	 1.385947e+00	 6.957887e+00
 6.566099e-01	 1.397917e+00	 6.378964e+00
 6.315752e-01	 1.409405e+00	 5.594434e+00
 7.607315e-01	 1.356850e+00	 7.235130e+00
 7.361286e-01	 1.370353e+00	 7.325193e+00
 7.113522e-01	 1.383377e+00	 7.190169e+00
 6.864160e-01	 1.395918e+00	 6.820033e+00
 6.613337e-01	 1.407974e+00	 6.225621e+00
 6.361189e-01	 1.419544e+00	 5.428739e+00
 6.134004e-01	 1.368846e+00	 5.128626e+00
 5.889716e-01	 1.379533e+00	 5.243258e+00
 5.644412e-01	 1.389750e+00	 5.136297e+00
 5.398224e-01	 1.399497e+00	 4.838333e+00
 5.151279e-01	 1.408774e+00	 4.385392e+00
 4.903706e-01	 1.417581e+00	 3.817808e+00
 6.179441e-01	 1.378986e+00	 5.418676e+00
 5.933343e-01	 1.389752e+00	 5.545826e+00
 5.686223e-01	 1.400045e+00	 5.454082e+00
 5.438211e-01	 1.409864e+00	 5.177323e+00
 5.189437e-01	 1.419209e+00	 4.755061e+00
 4.940030e-01	 1.428082e+00	 4.231272e+00
 6.224878e-01	 1.389125e+00	 5.591620e+00
 5.976971e-01	 1.399971e+00	 5.725656e+00
 5.728033e-01	 1.410339e+00	 5.643526e+00
 5.478198e-01	 1.420230e+00	 5.382547e+00
 5.227594e-01	 1.429644e+00	 4.985889e+00
 4.976354e-01	 1.438582e+00	 4.501344e+00
 6.270315e-01	 1.399265e+00	 5.649487e+00
 6.020598e-01	 1.410190e+00	 5.784451e+00
 5.769844e-01	 1.420634e+00	 5.705982e+00
 5.518184e-01	 1.430597e+00	 5.454998e+00
 5.265752e-01	 1.440080e+00	 5.078496e+00
 5.012677e-01	 1.449083e+00	 4.628264e+00
 6.315752e-01	 1.409405e+00	 5.594434e+00
 6.064226e-01	 1.420408e+00	 5.724038e+00
 5.811654e-01	 1.430928e+00	 5.642930e+00
 5.558171e-01	 1.440964e+00	 5.395793e+00
 5.303910e-01	 1.450515e+00	 5.033622e+00
 5.049001e-01	 1.459584e+00	 4.612388e+00
 6.361189e-01	 1.419544e+00	 5.428739e+00
 6.107853e-01	 1.430627e+00	 5.546368e+00
 5.853465e-01	 1.441223e+00	 5.455973e+00
 5.598158e-01	 1.451330e+00	 5.206168e+00
 5.342067e-01	 1.460950e+00	 4.852128e+00
 5.085325e-01	 1.470084e+00	 4.454189e+00
 4.903706e-01	 1.417581e+00	 3.817808e+00
 4.655631e-01	 1.425921e+00	 3.819766e+00
 4.407179e-01	 1.433795e+00	 3.698762e+00
 4.158473e-01	 1.441205e+00	 3.501514e+00
 3.909635e-01	 1.448153e+00	 3.274478e+00
 3.660783e-01	 1.454643e+00	 3.062035e+00
 4.940030e-01	 1.428082e+00	 4.231272e+00
 4.690117e-01	 1.436483e+00	 4.263623e+00
 4.439825e-01	 1.444416e+00	 4.149655e+00
 4.189277e-01	 1.451880e+00	 3.939668e+00
 3.938595e-01	 1.458880e+00	 3.683757e+00
 3.687900e-01	 1.465418e+00	 3.430494e+00
 4.976354e-01	 1.438582e+00	 4.501344e+00
 4.724603e-01	 1.447046e+00	 4.553375e+00
 4.472471e-01	 1.455036e+00	 4.437289e+00
 4.220080e-01	 1.462556e+00	 4.207162e+00
 3.967555e-01	 1.469607e+00	 3.916916e+00
 3.715017e-01	 1.476193e+00	 3.619032e+00
 5.012677e-01	 1.449083e+00	 4.628264e+00
 4.759090e-01	 1.457608e+00	 4.689024e+00
 4.505116e-01	 1.465657e+00	 4.561421e+00
 4.250884e-01	 1.473231e+00	 4.303498e+00
 3.996516e-01	 1.480334e+00	 3.973199e+00
 3.742134e-01	 1.486969e+00	 3.648360e+00
 5.049001e-01	 1.459584e+00	 4.612388e+00
 4.793576e-01	 1.468171e+00	 4.670686e+00
 4.537762e-01	 1.476278e+00	 4.521910e+00
 4.281687e-01	 1.483907e+00	 4.233102e+00
 4.025476e-01	 1.491061e+00	 3.922929e+00
 3.769251e-01	 1.497744e+00	 3.642917e+00
 5.085325e-01	 1.470084e+00	 4.454189e+00
 4.828062e-01	 1.478733e+00	 4.498583e+00
 4.570408e-01	 1.486898e+00	 4.344049e+00
 4.312491e-01	 1.494583e+00	 4.123005e+00
 4.054436e-01	 1.501788e+00	 3.874034e+00
 3.796368e-01	 1.508519e+00	 3.626232e+00
 3.660783e-01	 1.454643e+00	 3.062035e+00
 3.412036e-01	 1.460678e+00	 2.809217e+00
 3.163507e-01	 1.466261e+00	 2.594777e+00
 2.915310e-01	 1.471397e+00	 2.440698e+00
 2.667554e-01	 1.476090e+00	 2.357676e+00
 2.420347e-01	 1.480344e+00	 2.345911e+00
 3.687900e-01	 1.465418e+00	 3.430494e+00
 3.437310e-01	 1.471498e+00	 3.134633e+00
 3.186941e-01	 1.477122e+00	 2.885557e+00
 2.936905e-01	 1.482296e+00	 2.704524e+00
 2.687314e-01	 1.487024e+00	 2.610751e+00
 2.438275e-01	 1.491310e+00	 2.594992e+00
 3.715017e-01	 1.476193e+00	 3.619032e+00
 3.462585e-01	 1.482318e+00	 3.282311e+00
 3.210374e-01	 1.487984e+00	 3.026235e+00
 2.958500e-01	 1.493196e+00	 2.865799e+00
 2.707073e-01	 1.497958e+00	 2.786909e+00
 2.456204e-01	 1.502275e+00	 2.767939e+00
 3.742134e-01	 1.486969e+00	 3.648360e+00
 3.487859e-01	 1.493137e+00	 3.336416e+00
 3.233808e-01	 1.498845e+00	 3.114174e+00
 2.980095e-01	 1.504095e+00	 2.974154e+00
 2.726833e-01	 1.508892e+00	 2.900077e+00
 2.474132e-01	 1.513241e+00	 2.868304e+00
 3.769251e-01	 1.497744e+00	 3.642917e+00
 3.513133e-01	 1.503957e+00	 3.363167e+00
 3.257241e-01	 1.509706e+00	 3.163584e+00
 3.001690e-01	 1.514994e+00	 3.033261e+00
 2.746593e-01	 1.519826e+00	 2.953713e+00
 2.492061e-01	 1.524206e+00	 2.899290e+00
 3.796368e-01	 1.508519e+00	 3.626232e+00
 3.538408e-01	 1.514777e+00	 3.366460e+00
 3.280674e-01	 1.520567e+00	 3.178264e+00
 3.023285e-01	 1.525893e+00	 3.046766e+00
 2.766352e-01	 1.530760e+00	 2.951258e+00
 2.509989e-01	 1.535172e+00	 2.864086e+00
 2.420347e-01	 1.480344e+00	 2.345911e+00
 2.173792e-01	 1.484165e+00	 2.158323e+00
 1.927993e-01	 1.487558e+00	 2.040131e+00
 1.683047e-01	 1.490528e+00	 1.960375e+00
 1.439051e-01	 1.493081e+00	 1.885877e+00
 1.196098e-01	 1.495224e+00	 1.782678e+00
 2.438275e-01	 1.491310e+00	 2.594992e+00
 2.189895e-01	 1.495159e+00	 2.409520e+00
 1.942274e-01	 1.498577e+00	 2.298141e+00
 1.695514e-01	 1.501569e+00	 2.227605e+00
 1.449711e-01	 1.504141e+00	 2.162847e+00
 1.204958e-01	 1.506299e+00	 2.068078e+00
 2.456204e-01	 1.502275e+00	 2.767939e+00
 2.205997e-01	 1.506153e+00	 2.577300e+00
 1.956556e-01	 1.509596e+00	 2.465272e+00
 1.707981e-01	 1.512610e+00	 2.396695e+00
 1.460370e-01	 1.515201e+00	 2.334671e+00
 1.213818e-01	 1.517375e+00	 2.241633e+00
 2.474132e-01	 1.513241e+00	 2.868304e+00
 2.222099e-01	 1.517147e+00	 2.664549e+00
 1.970837e-01	 1.520615e+00	 2.544058e+00
 1.720448e-01	 1.523651e+00	 2.469813e+00
 1.471030e-01	 1.526261e+00	 2.403138e+00
 1.222678e-01	 1.528451e+00	 2.304755e+00
 2.492061e-01	 1.524206e+00	 2.899290e+00
 2.238201e-01	 1.528140e+00	 2.674145e+00
 1.985119e-01	 1.531634e+00	 2.537034e+00
 1.732915e-01	 1.534692e+00	 2.449130e+00
 1.481690e-01	 1.537321e+00	 2.370045e+00
 1.231538e-01	 1.539526e+00	 2.258863e+00
 2.509989e-01	 1.535172e+00	 2.864086e+00
 2.254303e-01	 1.539134e+00	 2.608964e+00
 1.999400e-01	 1.542653e+00	 2.446732e+00
 1.745382e-01	 1.545733e+00	 2.336817e+00
 1.492349e-01	 1.548380e+00	 2.237191e+00
 1.240398e-01	 1.550602e+00	 2.105378e+00
 1.196098e-01	 1.495224e+00	 1.782678e+00
 9.542764e-02	 1.496961e+00	 1.709318e+00
 7.136741e-02	 1.498301e+00	 1.680566e+00
 4.743742e-02	 1.499250e+00	 1.663300e+00
 2.364571e-02	 1.499814e+00	 1.626753e+00
 0.000000e+00	 1.500000e+00	 1.543180e+00
 1.204958e-01	 1.506299e+00	 2.068078e+00
 9.613451e-02	 1.508050e+00	 2.007935e+00
 7.189605e-02	 1.509400e+00	 1.992334e+00
 4.778881e-02	 1.510355e+00	 1.986223e+00
 2.382087e-02	 1.510923e+00	 1.956881e+00
 0.000000e+00	 1.511111e+00	 1.874572e+00
 1.213818e-01	 1.517375e+00	 2.241633e+00
 9.684138e-02	 1.519139e+00	 2.187865e+00
 7.242470e-02	 1.520498e+00	 2.178938e+00
 4.814020e-02	 1.521461e+00	 2.177932e+00
 2.399602e-02	 1.522033e+00	 2.150233e+00
 0.000000e+00	 1.522222e+00	 2.064166e+00
 1.222678e-01	 1.528451e+00	 2.304755e+00
 9.754825e-02	 1.530227e+00	 2.250159e+00
 7.295335e-02	 1.531597e+00	 2.241081e+00
 4.849159e-02	 1.532566e+00	 2.238807e+00
 2.417117e-02	 1.533143e+00	 2.206893e+00
 0.000000e+00	 1.533333e+00	 2.111788e+00
 1.231538e-01	 1.539526e+00	 2.258863e+00
 9.825512e-02	 1.541316e+00	 2.195873e+00
 7.348200e-02	 1.542695e+00	 2.179472e+00
 4.884297e-02	 1.543672e+00	 2.169228e+00
 2.434633e-02	 1.544253e+00	 2.126945e+00
 0.000000e+00	 1.544444e+00	 2.017258e+00
 1.240398e-01	 1.550602e+00	 2.105378e+00
 9.896200e-02	 1.552404e+00	 2.026064e+00
 7.401064e-02	 1.553794e+00	 1.994817e+00
 4.919436e-02	 1.554777e+00	 1.969575e+00
 2.452148e-02	 1.555362e+00	 1.910467e+00
 0.000000e+00	 1.555556e+00	 1.780393e+00
 1.555556e+00	 0.000000e+00	 1.506431e+01
 1.555362e+00	 2.452148e-02	 1.501035e+01
 1.554777e+00	 4.919436e-02	 1.498704e+01
 1.553794e+00	 7.401064e-02	 1.498757e+01
 1.552404e+00	 9.896200e-02	 1.500473e+01
 1.550602e+00	 1.240398e-01	 1.503096e+01
 1.566667e+00	 0.000000e+00	 1.490781e+01
 1.566472e+00	 2.469663e-02	 1.485384e+01
 1.565883e+00	 4.954575e-02	 1.483227e+01
 1.564892e+00	 7.453929e-02	 1.483592e+01
 1.563493e+00	 9.966887e-02	 1.485720e+01
 1.561678e+00	 1.249258e-01	 1.488827e+01
 1.577778e+00	 0.000000e+00	 1.478120e+01
 1.577582e+00	 2.487179e-02	 1.472641e+01
 1.576989e+00	 4.989714e-02	 1.470550e+01
 1.575991e+00	 7.506794e-02	 1.471094e+01
 1.574582e+00	 1.003757e-01	 1.473481e+01
 1.572754e+00	 1.258118e-01	 1.476896e+01
 1.588889e+00	 0.000000e+00	 1.468461e+01
 1.588691e+00	 2.504694e-02	 1.462810e+01
 1.588094e+00	 5.024853e-02	 1.460670e+01
 1.587089e+00	 7.559659e-02	 1.461253e+01
 1.585670e+00	 1.010826e-01	 1.463736e+01
 1.583829e+00	 1.266978e-01	 1.467276e+01
 1.600000e+00	 0.000000e+00	 1.461815e+01
 1.599801e+00	 2.522209e-02	 1.455896e+01
 1.599200e+00	 5.059991e-02	 1.453585e+01
 1.598188e+00	 7.612523e-02	 1.454059e+01
 1.596759e+00	 1.017895e-01	 1.456468e+01
 1.594905e+00	 1.275838e-01	 1.459942e+01
 1.611111e+00	 0.000000e+00	 1.458197e+01
 1.610911e+00	 2.539725e-02	 1.451906e+01
 1.610305e+00	 5.095130e-02	 1.449293e+01
 1.609287e+00	 7.665388e-02	 1.449503e+01
 1.607847e+00	 1.024964e-01	 1.451660e+01
 1.605981e+00	 1.284697e-01	 1.454870e+01
 1.550602e+00	 1.240398e-01	 1.503096e+01
 1.548380e+00	 1.492349e-01	 1.499417e+01
 1.545733e+00	 1.745382e-01	 1.497905e+01
 1.542653e+00	 1.999400e-01	 1.497799e+01
 1.539134e+00	 2.254303e-01	 1.498355e+01
 1.535172e+00	 2.509989e-01	 1.498859e+01
 1.561678e+00	 1.249258e-01	 1.488827e+01
 1.559440e+00	 1.503009e-01	 1.485441e+01
 1.556774e+00	 1.757849e-01	 1.484408e+01
 1.553672e+00	 2.013681e-01	 1.484948e+01
 1.550128e+00	 2.270405e-01	 1.486298e+01
 1.546137e+00	 2.527918e-01	 1.487726e+01
 1.572754e+00	 1.258118e-01	 1.476896e+01
 1.570500e+00	 1.513669e-01	 1.473635e+01
 1.567815e+00	 1.770316e-01	 1.472895e+01
 1.564691e+00	 2.027963e-01	 1.473876e+01
 1.561122e+00	 2.286507e-01	 1.475798e+01
 1.557103e+00	 2.545846e-01	 1.477914e+01
 1.583829e+00	 1.266978e-01	 1.467276e+01
 1.581560e+00	 1.524328e-01	 1.463965e+01
 1.578856e+00	 1.782783e-01	 1.463322e+01
 1.575709e+00	 2.042244e-01	 1.464533e+01
 1.572116e+00	 2.302610e-01	 1.466800e+01
 1.568068e+00	 2.563775e-01	 1.469362e+01
 1.594905e+00	 1.275838e-01	 1.459942e+01
 1.592620e+00	 1.534988e-01	 1.456397e+01
 1.589896e+00	 1.795250e-01	 1.455650e+01
 1.586728e+00	 2.056526e-01	 1.456872e+01
 1.583110e+00	 2.318712e-01	 1.459250e+01
 1.579034e+00	 2.581703e-01	 1.462009e+01
 1.605981e+00	 1.284697e-01	 1.454870e+01
 1.603680e+00	 1.545648e-01	 1.450899e+01
 1.600937e+00	 1.807717e-01	 1.449839e+01
 1.597747e+00	 2.070807e-01	 1.450845e+01
 1.594103e+00	 2.334814e-01	 1.453094e+01
 1.589999e+00	 2.599632e-01	 1.455798e+01
 1.535172e+00	 2.509989e-01	 1.498859e+01
 1.530760e+00	 2.766352e-01	 1.497144e+01
 1.525893e+00	 3.023285e-01	 1.495820e+01
 1.520567e+00	 3.280674e-01	 1.494234e+01
 1.514777e+00	 3.538408e-01	 1.491844e+01
 1.508519e+00	 3.796368e-01	 1.487834e+01
 1.546137e+00	 2.527918e-01	 1.487726e+01
 1.541694e+00	 2.786112e-01	 1.485747e+01
 1.536793e+00	 3.044879e-01	 1.484489e+01
 1.531428e+00	 3.304108e-01	 1.483306e+01
 1.525597e+00	 3.563682e-01	 1.481660e+01
 1.519294e+00	 3.823485e-01	 1.478445e+01
 1.557103e+00	 2.545846e-01	 1.477914e+01
 1.552628e+00	 2.805872e-01	 1.475584e+01
 1.547692e+00	 3.066474e-01	 1.474289e+01
 1.542290e+00	 3.327541e-01	 1.473388e+01
 1.536417e+00	 3.588956e-01	 1.472350e+01
 1.530069e+00	 3.850602e-01	 1.469684e+01
 1.568068e+00	 2.563775e-01	 1.469362e+01
 1.563562e+00	 2.825631e-01	 1.466584e+01
 1.558591e+00	 3.088069e-01	 1.465141e+01
 1.553151e+00	 3.350974e-01	 1.464395e+01
 1.547237e+00	 3.614231e-01	 1.463823e+01
 1.540844e+00	 3.877719e-01	 1.461459e+01
 1.579034e+00	 2.581703e-01	 1.462009e+01
 1.574496e+00	 2.845391e-01	 1.458681e+01
 1.569490e+00	 3.109664e-01	 1.456971e+01
 1.564012e+00	 3.374408e-01	 1.456249e+01
 1.558056e+00	 3.639505e-01	 1.455995e+01
 1.551619e+00	 3.904836e-01	 1.453685e+01
 1.589999e+00	 2.599632e-01	 1.455798e+01
 1.585430e+00	 2.865151e-01	 1.451808e+01
 1.580390e+00	 3.131259e-01	 1.449707e+01
 1.574873e+00	 3.397841e-01	 1.448871e+01
 1.568876e+00	 3.664779e-01	 1.448783e+01
 1.562394e+00	 3.931953e-01	 1.446283e+01
 1.508519e+00	 3.796368e-01	 1.487834e+01
 1.501788e+00	 4.054436e-01	 1.495333e+01
 1.494583e+00	 4.312491e-01	 1.497123e+01
 1.486898e+00	 4.570408e-01	 1.494035e+01
 1.478733e+00	 4.828062e-01	 1.487218e+01
 1.470084e+00	 5.085325e-01	 1.479588e+01
 1.519294e+00	 3.823485e-01	 1.478445e+01
 1.512516e+00	 4.083396e-01	 1.486294e+01
 1.505258e+00	 4.343294e-01	 1.488557e+01
 1.497519e+00	 4.603054e-01	 1.486064e+01
 1.489295e+00	 4.862548e-01	 1.479845e+01
 1.480585e+00	 5.121649e-01	 1.471168e+01
 1.530069e+00	 3.850602e-01	 1.469684e+01
 1.523243e+00	 4.112357e-01	 1.477602e+01
 1.515934e+00	 4.374098e-01	 1.480080e+01
 1.508140e+00	 4.635699e-01	 1.477947e+01
 1.499858e+00	 4.897034e-01	 1.472222e+01
 1.491085e+00	 5.157972e-01	 1.464147e+01
 1.540844e+00	 3.877719e-01	 1.461459e+01
 1.533970e+00	 4.141317e-01	 1.469177e+01
 1.526609e+00	 4.404901e-01	 1.471627e+01
 1.518760e+00	 4.668345e-01	 1.469631e+01
 1.510420e+00	 4.931520e-01	 1.464199e+01
 1.501586e+00	 5.194296e-01	 1.456552e+01
 1.551619e+00	 3.904836e-01	 1.453685e+01
 1.544697e+00	 4.170277e-01	 1.460947e+01
 1.537285e+00	 4.435705e-01	 1.463137e+01
 1.529381e+00	 4.700991e-01	 1.461071e+01
 1.520983e+00	 4.966006e-01	 1.455742e+01
 1.512087e+00	 5.230620e-01	 1.448354e+01
 1.562394e+00	 3.931953e-01	 1.446283e+01
 1.555424e+00	 4.199238e-01	 1.452846e+01
 1.547961e+00	 4.466508e-01	 1.454559e+01
 1.540002e+00	 4.733637e-01	 1.452227e+01
 1.531545e+00	 5.000493e-01	 1.446828e+01
 1.522587e+00	 5.266944e-01	 1.439540e+01
 1.470084e+00	 5.085325e-01	 1.479588e+01
 1.460950e+00	 5.342067e-01	 1.474764e+01
 1.451330e+00	 5.598158e-01	 1.471595e+01
 1.441223e+00	 5.853465e-01	 1.472822e+01
 1.430627e+00	 6.107853e-01	 1.481331e+01
 1.419544e+00	 6.361189e-01	 1.500128e+01
 1.480585e+00	 5.121649e-01	 1.471168e+01
 1.471386e+00	 5.380225e-01	 1.467324e+01
 1.461697e+00	 5.638145e-01	 1.464931e+01
 1.451517e+00	 5.895275e-01	 1.466729e+01
 1.440846e+00	 6.151481e-01	 1.475614e+01
 1.429684e+00	 6.406626e-01	 1.494611e+01
 1.491085e+00	 5.157972e-01	 1.464147e+01
 1.481821e+00	 5.418382e-01	 1.461939e+01
 1.472063e+00	 5.678132e-01	 1.459578e+01
 1.461812e+00	 5.937086e-01	 1.461173e+01
 1.451065e+00	 6.195108e-01	 1.469626e+01
 1.439823e+00	 6.452063e-01	 1.487981e+01
 1.501586e+00	 5.194296e-01	 1.456552e+01
 1.492257e+00	 5.456540e-01	 1.456772e+01
 1.482430e+00	 5.718119e-01	 1.455439e+01
 1.472106e+00	 5.978896e-01	 1.456096e+01
 1.461284e+00	 6.238736e-01	 1.463337e+01
 1.449963e+00	 6.497500e-01	 1.480231e+01
 1.512087e+00	 5.230620e-01	 1.448354e+01
 1.502692e+00	 5.494698e-01	 1.450274e+01
 1.492797e+00	 5.758105e-01	 1.450593e+01
 1.482400e+00	 6.020707e-01	 1.451442e+01
 1.471502e+00	 6.282363e-01	 1.456728e+01
 1.460103e+00	 6.542938e-01	 1.471370e+01
 1.522587e+00	 5.266944e-01	 1.439540e+01
 1.513127e+00	 5.532855e-01	 1.442462e+01
 1.503163e+00	 5.798092e-01	 1.443743e+01
 1.492695e+00	 6.062517e-01	 1.445400e+01
 1.481721e+00	 6.325991e-01	 1.449799e+01
 1.470242e+00	 6.588375e-01	 1.461425e+01
 1.419544e+00	 6.361189e-01	 1.500128e+01
 1.407974e+00	 6.613337e-01	 1.452231e+01
 1.395918e+00	 6.864160e-01	 1.421137e+01
 1.383377e+00	 7.113522e-01	 1.410100e+01
 1.370353e+00	 7.361286e-01	 1.422294e+01
 1.356850e+00	 7.607315e-01	 1.453250e+01
 1.429684e+00	 6.406626e-01	 1.494611e+01
 1.418031e+00	 6.660575e-01	 1.447963e+01
 1.405889e+00	 6.913190e-01	 1.418064e+01
 1.393258e+00	 7.164333e-01	 1.408374e+01
 1.380141e+00	 7.413866e-01	 1.422285e+01
 1.366541e+00	 7.661653e-01	 1.451657e+01
 1.439823e+00	 6.452063e-01	 1.487981e+01
 1.428088e+00	 6.707813e-01	 1.442713e+01
 1.415859e+00	 6.962219e-01	 1.414101e+01
 1.403139e+00	 7.215144e-01	 1.405809e+01
 1.389930e+00	 7.466447e-01	 1.420934e+01
 1.376233e+00	 7.715991e-01	 1.448742e+01
 1.449963e+00	 6.497500e-01	 1.480231e+01
 1.438145e+00	 6.755051e-01	 1.436475e+01
 1.425830e+00	 7.011249e-01	 1.409244e+01
 1.413021e+00	 7.265954e-01	 1.402401e+01
 1.399718e+00	 7.519028e-01	 1.418036e+01
 1.385925e+00	 7.770329e-01	 1.444665e+01
 1.460103e+00	 6.542938e-01	 1.471370e+01
 1.448202e+00	 6.802289e-01	 1.429265e+01
 1.435801e+00	 7.060279e-01	 1.403510e+01
 1.422902e+00	 7.316765e-01	 1.398165e+01
 1.409506e+00	 7.571608e-01	 1.413774e+01
 1.395617e+00	 7.824667e-01	 1.439602e+01
 1.470242e+00	 6.588375e-01	 1.461425e+01
 1.458259e+00	 6.849528e-01	 1.421115e+01
 1.445772e+00	 7.109309e-01	 1.396936e+01
 1.432783e+00	 7.367576e-01	 1.393140e+01
 1.419294e+00	 7.624189e-01	 1.408346e+01
 1.405308e+00	 7.879005e-01	 1.433749e+01
 1.356850e+00	 7.607315e-01	 1.453250e+01
 1.342869e+00	 7.851473e-01	 1.430996e+01
 1.328415e+00	 8.093624e-01	 1.411278e+01
 1.313491e+00	 8.333632e-01	 1.391540e+01
 1.298103e+00	 8.571364e-01	 1.369036e+01
 1.282254e+00	 8.806686e-01	 1.340955e+01
 1.366541e+00	 7.661653e-01	 1.451657e+01
 1.352461e+00	 7.907555e-01	 1.429163e+01
 1.337903e+00	 8.151435e-01	 1.409903e+01
 1.322873e+00	 8.393158e-01	 1.391287e+01
 1.307375e+00	 8.632588e-01	 1.370510e+01
 1.291413e+00	 8.869591e-01	 1.344673e+01
 1.376233e+00	 7.715991e-01	 1.448742e+01
 1.362053e+00	 7.963637e-01	 1.425873e+01
 1.347392e+00	 8.209247e-01	 1.406915e+01
 1.332255e+00	 8.452684e-01	 1.389249e+01
 1.316647e+00	 8.693812e-01	 1.370010e+01
 1.300572e+00	 8.932496e-01	 1.346216e+01
 1.385925e+00	 7.770329e-01	 1.444665e+01
 1.371645e+00	 8.019719e-01	 1.421294e+01
 1.356881e+00	 8.267059e-01	 1.402488e+01
 1.341637e+00	 8.512210e-01	 1.385606e+01
 1.325919e+00	 8.755036e-01	 1.367725e+01
 1.309731e+00	 8.995401e-01	 1.345779e+01
 1.395617e+00	 7.824667e-01	 1.439602e+01
 1.381237e+00	 8.075801e-01	 1.415606e+01
 1.366369e+00	 8.324870e-01	 1.396809e+01
 1.351019e+00	 8.571736e-01	 1.380550e+01
 1.335191e+00	 8.816260e-01	 1.363855e+01
 1.318890e+00	 9.058306e-01	 1.343571e+01
 1.405308e+00	 7.879005e-01	 1.433749e+01
 1.390828e+00	 8.131883e-01	 1.409008e+01
 1.375858e+00	 8.382682e-01	 1.390079e+01
 1.360401e+00	 8.631262e-01	 1.374288e+01
 1.344463e+00	 8.877484e-01	 1.358610e+01
 1.328049e+00	 9.121211e-01	 1.339811e+01
 1.282254e+00	 8.806686e-01	 1.340955e+01
 1.265952e+00	 9.039467e-01	 1.360281e+01
 1.249201e+00	 9.269576e-01	 1.360472e+01
 1.232008e+00	 9.496887e-01	 1.338802e+01
 1.214381e+00	 9.721272e-01	 1.293208e+01
 1.196327e+00	 9.942609e-01	 1.222507e+01
 1.291413e+00	 8.869591e-01	 1.344673e+01
 1.274994e+00	 9.104034e-01	 1.362583e+01
 1.258124e+00	 9.335788e-01	 1.362252e+01
 1.240808e+00	 9.564722e-01	 1.340870e+01
 1.223055e+00	 9.790710e-01	 1.296283e+01
 1.204872e+00	 1.001363e+00	 1.227226e+01
 1.300572e+00	 8.932496e-01	 1.346216e+01
 1.284037e+00	 9.168602e-01	 1.362830e+01
 1.267047e+00	 9.401999e-01	 1.362068e+01
 1.249608e+00	 9.632557e-01	 1.341031e+01
 1.231730e+00	 9.860148e-01	 1.297467e+01
 1.213417e+00	 1.008465e+00	 1.230017e+01
 1.309731e+00	 8.995401e-01	 1.345779e+01
 1.293079e+00	 9.233170e-01	 1.361219e+01
 1.275969e+00	 9.468210e-01	 1.360123e+01
 1.258408e+00	 9.700392e-01	 1.339493e+01
 1.240404e+00	 9.929585e-01	 1.296974e+01
 1.221963e+00	 1.015567e+00	 1.231105e+01
 1.318890e+00	 9.058306e-01	 1.343571e+01
 1.302122e+00	 9.297737e-01	 1.357962e+01
 1.284892e+00	 9.534421e-01	 1.356632e+01
 1.267209e+00	 9.768227e-01	 1.336478e+01
 1.249078e+00	 9.999023e-01	 1.295033e+01
 1.230508e+00	 1.022668e+00	 1.230724e+01
 1.328049e+00	 9.121211e-01	 1.339811e+01
 1.311164e+00	 9.362305e-01	 1.353281e+01
 1.293815e+00	 9.600633e-01	 1.351821e+01
 1.276009e+00	 9.836061e-01	 1.332218e+01
 1.257752e+00	 1.006846e+00	 1.291884e+01
 1.239053e+00	 1.029770e+00	 1.229125e+01
 1.196327e+00	 9.942609e-01	 1.222507e+01
 1.177854e+00	 1.016078e+00	 1.256185e+01
 1.158970e+00	 1.037566e+00	 1.265982e+01
 1.139684e+00	 1.058713e+00	 1.254741e+01
 1.120005e+00	 1.079510e+00	 1.227138e+01
 1.099944e+00	 1.099944e+00	 1.189865e+01
 1.204872e+00	 1.001363e+00	 1.227226e+01
 1.186267e+00	 1.023335e+00	 1.262577e+01
 1.167248e+00	 1.044977e+00	 1.273542e+01
 1.147824e+00	 1.066276e+00	 1.262882e+01
 1.128005e+00	 1.087221e+00	 1.235239e+01
 1.107801e+00	 1.107801e+00	 1.197377e+01
 1.213417e+00	 1.008465e+00	 1.230017e+01
 1.194680e+00	 1.030593e+00	 1.266430e+01
 1.175526e+00	 1.052388e+00	 1.277892e+01
 1.155965e+00	 1.073838e+00	 1.267071e+01
 1.136005e+00	 1.094931e+00	 1.238569e+01
 1.115657e+00	 1.115657e+00	 1.199559e+01
 1.221963e+00	 1.015567e+00	 1.231105e+01
 1.203093e+00	 1.037851e+00	 1.267983e+01
 1.183805e+00	 1.059799e+00	 1.279288e+01
 1.164105e+00	 1.081400e+00	 1.267585e+01
 1.144005e+00	 1.102642e+00	 1.237419e+01
 1.123514e+00	 1.123514e+00	 1.198598e+01
 1.230508e+00	 1.022668e+00	 1.230724e+01
 1.211507e+00	 1.045108e+00	 1.267493e+01
 1.192083e+00	 1.067210e+00	 1.278007e+01
 1.172246e+00	 1.088962e+00	 1.264716e+01
 1.152005e+00	 1.110353e+00	 1.232100e+01
 1.131371e+00	 1.131371e+00	 1.195309e+01
 1.239053e+00	 1.029770e+00	 1.229125e+01
 1.219920e+00	 1.052366e+00	 1.265228e+01
 1.200361e+00	 1.074622e+00	 1.274337e+01
 1.180387e+00	 1.096525e+00	 1.258772e+01
 1.160005e+00	 1.118064e+00	 1.224027e+01
 1.139228e+00	 1.139228e+00	 1.190271e+01
 1.099944e+00	 1.099944e+00	 1.189865e+01
 1.079510e+00	 1.120005e+00	 1.124610e+01
 1.058713e+00	 1.139684e+00	 1.081313e+01
 1.037566e+00	 1.158970e+00	 1.064067e+01
 1.016078e+00	 1.177854e+00	 1.073200e+01
 9.942609e-01	 1.196327e+00	 1.107518e+01
 1.107801e+00	 1.107801e+00	 1.197377e+01
 1.087221e+00	 1.128005e+00	 1.134732e+01
 1.066276e+00	 1.147824e+00	 1.094410e+01
 1.044977e+00	 1.167248e+00	 1.078769e+01
 1.023335e+00	 1.186267e+00	 1.088222e+01
 1.001363e+00	 1.204872e+00	 1.121603e+01
 1.115657e+00	 1.115657e+00	 1.199559e+01
 1.094931e+00	 1.136005e+00	 1.140718e+01
 1.073838e+00	 1.155965e+00	 1.102884e+01
 1.052388e+00	 1.175526e+00	 1.088374e+01
 1.030593e+00	 1.194680e+00	 1.097687e+01
 1.008465e+00	 1.213417e+00	 1.129679e+01
 1.123514e+00	 1.123514e+00	 1.198598e+01
 1.102642e+00	 1.144005e+00	 1.143204e+01
 1.081400e+00	 1.164105e+00	 1.107355e+01
 1.059799e+00	 1.183805e+00	 1.093487e+01
 1.037851e+00	 1.203093e+00	 1.102184e+01
 1.015567e+00	 1.221963e+00	 1.132327e+01
 1.131371e+00	 1.131371e+00	 1.195309e+01
 1.110353e+00	 1.152005e+00	 1.142820e+01
 1.088962e+00	 1.172246e+00	 1.108434e+01
 1.067210e+00	 1.192083e+00	 1.094703e+01
 1.045108e+00	 1.211507e+00	 1.102300e+01
 1.022668e+00	 1.230508e+00	 1.130122e+01
 1.139228e+00	 1.139228e+00	 1.190271e+01
 1.118064e+00	 1.160005e+00	 1.140172e+01
 1.096525e+00	 1.180387e+00	 1.106723e+01
 1.074622e+00	 1.200361e+00	 1.092611e+01
 1.052366e+00	 1.219920e+00	 1.098610e+01
 1.029770e+00	 1.239053e+00	 1.123634e+01
 9.942609e-01	 1.196327e+00	 1.107518e+01
 9.721272e-01	 1.214381e+00	 1.028979e+01
 9.496887e-01	 1.232008e+00	 9.758304e+00
 9.269576e-01	 1.249201e+00	 9.436793e+00
 9.039467e-01	 1.265952e+00	 9.274289e+00
 8.806686e-01	 1.282254e+00	 9.215044e+00
 1.001363e+00	 1.204872e+00	 1.121603e+01
 9.790710e-01	 1.223055e+00	 1.042928e+01
 9.564722e-01	 1.240808e+00	 9.898410e+00
 9.335788e-01	 1.258124e+00	 9.579261e+00
 9.104034e-01	 1.274994e+00	 9.420429e+00
 8.869591e-01	 1.291413e+00	 9.365614e+00
 1.008465e+00	 1.213417e+00	 1.129679e+01
 9.860148e-01	 1.231730e+00	 1.050963e+01
 9.632557e-01	 1.249608e+00	 9.980093e+00
 9.401999e-01	 1.267047e+00	 9.663752e+00
 9.168602e-01	 1.284037e+00	 9.508683e+00
 8.932496e-01	 1.300572e+00	 9.457958e+00
 1.015567e+00	 1.221963e+00	 1.132327e+01
 9.929585e-01	 1.240404e+00	 1.053644e+01
 9.700392e-01	 1.258408e+00	 1.000879e+01
 9.468210e-01	 1.275969e+00	 9.695544e+00
 9.233170e-01	 1.293079e+00	 9.544167e+00
 8.995401e-01	 1.309731e+00	 9.497029e+00
 1.022668e+00	 1.230508e+00	 1.130122e+01
 9.999023e-01	 1.249078e+00	 1.051529e+01
 9.768227e-01	 1.267209e+00	 9.989931e+00
 9.534421e-01	 1.284892e+00	 9.679906e+00
 9.297737e-01	 1.302122e+00	 9.532008e+00
 9.058306e-01	 1.318890e+00	 9.487807e+00
 1.029770e+00	 1.239053e+00	 1.123634e+01
 1.006846e+00	 1.257752e+00	 1.045170e+01
 9.836061e-01	 1.276009e+00	 9.928882e+00
 9.600633e-01	 1.293815e+00	 9.622085e+00
 9.362305e-01	 1.311164e+00	 9.477327e+00
 9.121211e-01	 1.328049e+00	 9.435286e+00
 8.806686e-01	 1.282254e+00	 9.215044e+00
 8.571364e-01	 1.298103e+00	 8.761788e+00
 8.333632e-01	 1.313491e+00	 8.389393e+00
 8.093624e-01	 1.328415e+00	 8.043894e+00
 7.851473e-01	 1.342869e+00	 7.674482e+00
 7.607315e-01	 1.356850e+00	 7.235130e+00
 8.869591e-01	 1.291413e+00	 9.365614e+00
 8.632588e-01	 1.307375e+00	 8.939075e+00
 8.393158e-01	 1.322873e+00	 8.585975e+00
 8.151435e-01	 1.337903e+00	 8.251744e+00
 7.907555e-01	 1.352461e+00	 7.885265e+00
 7.661653e-01	 1.366541e+00	 7.440577e+00
 8.932496e-01	 1.300572e+00	 9.457958e+00
 8.693812e-01	 1.316647e+00	 9.054419e+00
 8.452684e-01	 1.332255e+00	 8.716445e+00
 8.209247e-01	 1.347392e+00	 8.388818e+00
 7.963637e-01	 1.362053e+00	 8.020095e+00
 7.715991e-01	 1.376233e+00	 7.564381e+00
 8.995401e-01	 1.309731e+00	 9.497029e+00
 8.755036e-01	 1.325919e+00	 9.112661e+00
 8.512210e-01	 1.341637e+00	 8.785513e+00
 8.267059e-01	 1.356881e+00	 8.459677e+00
 8.019719e-01	 1.371645e+00	 8.083350e+00
 7.770329e-01	 1.385925e+00	 7.610704e+00
 9.058306e-01	 1.318890e+00	 9.487807e+00
 8.816260e-01	 1.335191e+00	 9.118686e+00
 8.571736e-01	 1.351019e+00	 8.797950e+00
 8.324870e-01	 1.366369e+00	 8.468949e+00
 8.075801e-01	 1.381237e+00	 8.079494e+00
 7.824667e-01	 1.395617e+00	 7.583809e+00
 9.121211e-01	 1.328049e+00	 9.435286e+00
 8.877484e-01	 1.344463e+00	 9.077406e+00
 8.631262e-01	 1.360401e+00	 8.758571e+00
 8.382682e-01	 1.375858e+00	 8.421329e+00
 8.131883e-01	 1.390828e+00	 8.013067e+00
 7.879005e-01	 1.405308e+00	 7.488051e+00
 7.607315e-01	 1.356850e+00	 7.235130e+00
 7.361286e-01	 1.370353e+00	 7.325193e+00
 7.113522e-01	 1.383377e+00	 7.190169e+00
 6.864160e-01	 1.395918e+00	 6.820033e+00
 6.613337e-01	 1.407974e+00	 6.225621e+00
 6.361189e-01	 1.419544e+00	 5.428739e+00
 7.661653e-01	 1.366541e+00	 7.440577e+00
 7.413866e-01	 1.380141e+00	 7.517496e+00
 7.164333e-01	 1.393258e+00	 7.386123e+00
 6.913190e-01	 1.405889e+00	 7.033116e+00
 6.660575e-01	 1.418031e+00	 6.472329e+00
 6.406626e-01	 1.429684e+00	 5.728961e+00
 7.715991e-01	 1.376233e+00	 7.564381e+00
 7.466447e-01	 1.389930e+00	 7.627821e+00
 7.215144e-01	 1.403139e+00	 7.499252e+00
 6.962219e-01	 1.415859e+00	 7.162163e+00
 6.707813e-01	 1.428088e+00	 6.632934e+00
 6.452063e-01	 1.439823e+00	 5.940282e+00
 7.770329e-01	 1.385925e+00	 7.610704e+00
 7.519028e-01	 1.399718e+00	 7.660305e+00
 7.265954e-01	 1.413021e+00	 7.532941e+00
 7.011249e-01	 1.425830e+00	 7.210208e+00
 6.755051e-01	 1.438145e+00	 6.710100e+00
 6.497500e-01	 1.449963e+00	 6.064977e+00
 7.824667e-01	 1.395617e+00	 7.583809e+00
 7.571608e-01	 1.409506e+00	 7.618847e+00
 7.316765e-01	 1.422902e+00	 7.490674e+00
 7.060279e-01	 1.435801e+00	 7.180395e+00
 6.802289e-01	 1.448202e+00	 6.706609e+00
 6.542938e-01	 1.460103e+00	 6.105442e+00
 7.879005e-01	 1.405308e+00	 7.488051e+00
 7.624189e-01	 1.419294e+00	 7.507455e+00
 7.367576e-01	 1.432783e+00	 7.376039e+00
 7.109309e-01	 1.445772e+00	 7.075976e+00
 6.849528e-01	 1.458259e+00	 6.625352e+00
 6.588375e-01	 1.470242e+00	 6.064191e+00
 6.361189e-01	 1.419544e+00	 5.428739e+00
 6.107853e-01	 1.430627e+00	 5.546368e+00
 5.853465e-01	 1.441223e+00	 5.455973e+00
 5.598158e-01	 1.451330e+00	 5.206168e+00
 5.342067e-01	 1.460950e+00	 4.852128e+00
 5.085325e-01	 1.470084e+00	 4.454189e+00
 6.406626e-01	 1.429684e+00	 5.728961e+00
 6.151481e-01	 1.440846e+00	 5.882088e+00
 5.895275e-01	 1.451517e+00	 5.789444e+00
 5.638145e-01	 1.461697e+00	 5.503038e+00
 5.380225e-01	 1.471386e+00	 5.081838e+00
 5.121649e-01	 1.480585e+00	 4.590303e+00
 6.452063e-01	 1.439823e+00	 5.940282e+00
 6.195108e-01	 1.451065e+00	 6.112660e+00
 5.937086e-01	 1.461812e+00	 6.002043e+00
 5.678132e-01	 1.472063e+00	 5.664017e+00
 5.418382e-01	 1.481821e+00	 5.161637e+00
 5.157972e-01	 1.491085e+00	 4.647655e+00
 6.497500e-01	 1.449963e+00	 6.064977e+00
 6.238736e-01	 1.461284e+00	 6.240221e+00
 5.978896e-01	 1.472106e+00	 6.095737e+00
 5.718119e-01	 1.482430e+00	 5.691698e+00
 5.456540e-01	 1.492257e+00	 5.199882e+00
 5.194296e-01	 1.501586e+00	 4.744710e+00
 6.542938e-01	 1.460103e+00	 6.105442e+00
 6.282363e-01	 1.471502e+00	 6.267028e+00
 6.020707e-01	 1.482400e+00	 6.073375e+00
 5.758105e-01	 1.492797e+00	 5.703452e+00
 5.494698e-01	 1.502692e+00	 5.292448e+00
 5.230620e-01	 1.512087e+00	 4.884539e+00
 6.588375e-01	 1.470242e+00	 6.064191e+00
 6.325991e-01	 1.481721e+00	 6.195498e+00
 6.062517e-01	 1.492695e+00	 6.049309e+00
 5.798092e-01	 1.503163e+00	 5.782566e+00
 5.532855e-01	 1.513127e+00	 5.441167e+00
 5.266944e-01	 1.522587e+00	 5.069358e+00
 5.085325e-01	 1.470084e+00	 4.454189e+00
 4.828062e-01	 1.478733e+00	 4.498583e+00
 4.570408e-01	 1.486898e+00	 4.344049e+00
 4.312491e-01	 1.494583e+00	 4.123005e+00
 4.054436e-01	 1.501788e+00	 3.874034e+00
 3.796368e-01	 1.508519e+00	 3.626232e+00
 5.121649e-01	 1.480585e+00	 4.590303e+00
 4.862548e-01	 1.489295e+00	 4.549691e+00
 4.603054e-01	 1.497519e+00	 4.407537e+00
 4.343294e-01	 1.505258e+00	 4.199821e+00
 4.083396e-01	 1.512516e+00	 3.959278e+00
 3.823485e-01	 1.519294e+00	 3.715953e+00
 5.157972e-01	 1.491085e+00	 4.647655e+00
 4.897034e-01	 1.499858e+00	 4.624651e+00
 4.635699e-01	 1.508140e+00	 4.493802e+00
 4.374098e-01	 1.515934e+00	 4.291119e+00
 4.112357e-01	 1.523243e+00	 4.050150e+00
 3.850602e-01	 1.530069e+00	 3.801810e+00
 5.194296e-01	 1.501586e+00	 4.744710e+00
 4.931520e-01	 1.510420e+00	 4.732922e+00
 4.668345e-01	 1.518760e+00	 4.605821e+00
 4.404901e-01	 1.526609e+00	 4.400109e+00
 4.141317e-01	 1.533970e+00	 4.150067e+00
 3.877719e-01	 1.540844e+00	 3.887406e+00
 5.230620e-01	 1.512087e+00	 4.884539e+00
 4.966006e-01	 1.520983e+00	 4.877111e+00
 4.700991e-01	 1.529381e+00	 4.746455e+00
 4.435705e-01	 1.537285e+00	 4.529889e+00
 4.170277e-01	 1.544697e+00	 4.262343e+00
 3.904836e-01	 1.551619e+00	 3.976241e+00
 5.266944e-01	 1.522587e+00	 5.069358e+00
 5.000493e-01	 1.531545e+00	 5.059704e+00
 4.733637e-01	 1.540002e+00	 4.918450e+00
 4.466508e-01	 1.547961e+00	 4.683443e+00
 4.199238e-01	 1.555424e+00	 4.390184e+00
 3.931953e-01	 1.562394e+00	 4.071719e+00
 3.796368e-01	 1.508519e+00	 3.626232e+00
 3.538408e-01	 1.514777e+00	 3.366460e+00
 3.280674e-01	 1.520567e+00	 3.178264e+00
 3.023285e-01	 1.525893e+00	 3.046766e+00
 2.766352e-01	 1.530760e+00	 2.951258e+00
 2.509989e-01	 1.535172e+00	 2.864086e+00
 3.823485e-01	 1.519294e+00	 3.715953e+00
 3.563682e-01	 1.525597e+00	 3.468318e+00
 3.304108e-01	 1.531428e+00	 3.298391e+00
 3.044879e-01	 1.536793e+00	 3.186788e+00
 2.786112e-01	 1.541694e+00	 3.110474e+00
 2.527918e-01	 1.546137e+00	 3.039671e+00
 3.850602e-01	 1.530069e+00	 3.801810e+00
 3.588956e-01	 1.536417e+00	 3.555699e+00
 3.327541e-01	 1.542290e+00	 3.393892e+00
 3.066474e-01	 1.547692e+00	 3.292117e+00
 2.805872e-01	 1.552628e+00	 3.225005e+00
 2.545846e-01	 1.557103e+00	 3.160673e+00
 3.877719e-01	 1.540844e+00	 3.887406e+00
 3.614231e-01	 1.547237e+00	 3.632293e+00
 3.350974e-01	 1.553151e+00	 3.468377e+00
 3.088069e-01	 1.558591e+00	 3.366225e+00
 2.825631e-01	 1.563562e+00	 3.298132e+00
 2.563775e-01	 1.568068e+00	 3.230132e+00
 3.904836e-01	 1.551619e+00	 3.976241e+00
 3.639505e-01	 1.558056e+00	 3.701729e+00
 3.374408e-01	 1.564012e+00	 3.525409e+00
 3.109664e-01	 1.569490e+00	 3.412552e+00
 2.845391e-01	 1.574496e+00	 3.333116e+00
 2.581703e-01	 1.579034e+00	 3.251079e+00
 3.931953e-01	 1.562394e+00	 4.071719e+00
 3.664779e-01	 1.568876e+00	 3.767571e+00
 3.397841e-01	 1.574873e+00	 3.568508e+00
 3.131259e-01	 1.580390e+00	 3.434507e+00
 2.865151e-01	 1.585430e+00	 3.333197e+00
 2.599632e-01	 1.589999e+00	 3.226531e+00
 2.509989e-01	 1.535172e+00	 2.864086e+00
 2.254303e-01	 1.539134e+00	 2.608964e+00
 1.999400e-01	 1.542653e+00	 2.446732e+00
 1.745382e-01	 1.545733e+00	 2.336817e+00
 1.492349e-01	 1.548380e+00	 2.237191e+00
 1.240398e-01	 1.550602e+00	 2.105378e+00
 2.527918e-01	 1.546137e+00	 3.039671e+00
 2.270405e-01	 1.550128e+00	 2.808841e+00
 2.013681e-01	 1.553672e+00	 2.671114e+00
 1.757849e-01	 1.556774e+00	 2.584205e+00
 1.503009e-01	 1.559440e+00	 2.504505e+00
 1.249258e-01	 1.561678e+00	 2.388056e+00
 2.545846e-01	 1.557103e+00	 3.160673e+00
 2.286507e-01	 1.561122e+00	 2.944128e+00
 2.027963e-01	 1.564691e+00	 2.820997e+00
 1.770316e-01	 1.567815e+00	 2.747356e+00
 1.513669e-01	 1.570500e+00	 2.678099e+00
 1.258118e-01	 1.572754e+00	 2.567886e+00
 2.563775e-01	 1.568068e+00	 3.230132e+00
 2.302610e-01	 1.572116e+00	 3.017590e+00
 2.042244e-01	 1.575709e+00	 2.898832e+00
 1.782783e-01	 1.578856e+00	 2.828382e+00
 1.524328e-01	 1.581560e+00	 2.759733e+00
 1.266978e-01	 1.583829e+00	 2.646265e+00
 2.581703e-01	 1.579034e+00	 3.251079e+00
 2.318712e-01	 1.583110e+00	 3.031985e+00
 2.056526e-01	 1.586728e+00	 2.907073e+00
 1.795250e-01	 1.589896e+00	 2.829402e+00
 1.534988e-01	 1.592620e+00	 2.751171e+00
 1.275838e-01	 1.594905e+00	 2.624591e+00
 2.599632e-01	 1.589999e+00	 3.226531e+00
 2.334814e-01	 1.594103e+00	 2.990066e+00
 2.070807e-01	 1.597747e+00	 2.848171e+00
 1.807717e-01	 1.600937e+00	 2.752538e+00
 1.545648e-01	 1.603680e+00	 2.654182e+00
 1.284697e-01	 1.605981e+00	 2.504270e+00
 1.240398e-01	 1.550602e+00	 2.105378e+00
 9.896200e-02	 1.552404e+00	 2.026064e+00
 7.401064e-02	 1.553794e+00	 1.994817e+00
 4.919436e-02	 1.554777e+00	 1.969575e+00
 2.452148e-02	 1.555362e+00	 1.910467e+00
 0.000000e+00	 1.555556e+00	 1.780393e+00
 1.249258e-01	 1.561678e+00	 2.388056e+00
 9.966887e-02	 1.563493e+00	 2.325789e+00
 7.453929e-02	 1.564892e+00	 2.312840e+00
 4.954575e-02	 1.565883e+00	 2.305582e+00
 2.469663e-02	 1.566472e+00	 2.262537e+00
 0.000000e+00	 1.566667e+00	 2.144928e+00
 1.258118e-01	 1.572754e+00	 2.567886e+00
 1.003757e-01	 1.574582e+00	 2.513816e+00
 7.506794e-02	 1.575991e+00	 2.510750e+00
 4.989714e-02	 1.576989e+00	 2.513600e+00
 2.487179e-02	 1.577582e+00	 2.479381e+00
 0.000000e+00	 1.577778e+00	 2.367728e+00
 1.266978e-01	 1.583829e+00	 2.646265e+00
 1.010826e-01	 1.585670e+00	 2.591178e+00
 7.559659e-02	 1.587089e+00	 2.589230e+00
 5.024853e-02	 1.588094e+00	 2.593982e+00
 2.504694e-02	 1.588691e+00	 2.561048e+00
 0.000000e+00	 1.588889e+00	 2.448574e+00
 1.275838e-01	 1.594905e+00	 2.624591e+00
 1.017895e-01	 1.596759e+00	 2.558913e+00
 7.612523e-02	 1.598188e+00	 2.548964e+00
 5.059991e-02	 1.599200e+00	 2.547078e+00
 2.522209e-02	 1.599801e+00	 2.507583e+00
 0.000000e+00	 1.600000e+00	 2.387245e+00
 1.284697e-01	 1.605981e+00	 2.504270e+00
 1.024964e-01	 1.607847e+00	 2.418063e+00
 7.665388e-02	 1.609287e+00	 2.390642e+00
 5.095130e-02	 1.610305e+00	 2.373243e+00
 2.539725e-02	 1.610911e+00	 2.319033e+00
 0.000000e+00	 1.611111e+00	 2.183514e+00
 1.611111e+00	 0.000000e+00	 1.458197e+01
 1.610911e+00	 2.539725e-02	 1.451906e+01
 1.610305e+00	 5.095130e-02	 1.449293e+01
 1.609287e+00	 7.665388e-02	 1.449503e+01
 1.607847e+00	 1.024964e-01	 1.451660e+01
 1.605981e+00	 1.284697e-01	 1.454870e+01
 1.622222e+00	 0.000000e+00	 1.444119e+01
 1.622021e+00	 2.557240e-02	 1.437997e+01
 1.621411e+00	 5.130269e-02	 1.435669e+01
 1.620385e+00	 7.718253e-02	 1.436257e+01
 1.618936e+00	 1.032032e-01	 1.438856e+01
 1.617057e+00	 1.293557e-01	 1.442555e+01
 1.633333e+00	 0.000000e+00	 1.432963e+01
 1.633130e+00	 2.574755e-02	 1.426888e+01
 1.632516e+00	 5.165408e-02	 1.424698e+01
 1.631484e+00	 7.771118e-02	 1.425485e+01
 1.630025e+00	 1.039101e-01	 1.428328e+01
 1.628132e+00	 1.302417e-01	 1.432294e+01
 1.644444e+00	 0.000000e+00	 1.424749e+01
 1.644240e+00	 2.592271e-02	 1.418593e+01
 1.643622e+00	 5.200547e-02	 1.416381e+01
 1.642582e+00	 7.823982e-02	 1.417185e+01
 1.641113e+00	 1.046170e-01	 1.420064e+01
 1.639208e+00	 1.311277e-01	 1.424070e+01
 1.655556e+00	 0.000000e+00	 1.419496e+01
 1.655350e+00	 2.609786e-02	 1.413123e+01
 1.654727e+00	 5.235686e-02	 1.410724e+01
 1.653681e+00	 7.876847e-02	 1.411352e+01
 1.652202e+00	 1.053238e-01	 1.414051e+01
 1.650284e+00	 1.320137e-01	 1.417860e+01
 1.666667e+00	 0.000000e+00	 1.417225e+01
 1.666460e+00	 2.627302e-02	 1.410489e+01
 1.665833e+00	 5.270824e-02	 1.407729e+01
 1.664779e+00	 7.929712e-02	 1.407981e+01
 1.663290e+00	 1.060307e-01	 1.410277e+01
 1.661360e+00	 1.328997e-01	 1.413646e+01
 1.605981e+00	 1.284697e-01	 1.454870e+01
 1.603680e+00	 1.545648e-01	 1.450899e+01
 1.600937e+00	 1.807717e-01	 1.449839e+01
 1.597747e+00	 2.070807e-01	 1.450845e+01
 1.594103e+00	 2.334814e-01	 1.453094e+01
 1.589999e+00	 2.599632e-01	 1.455798e+01
 1.617057e+00	 1.293557e-01	 1.442555e+01
 1.614740e+00	 1.556307e-01	 1.438964e+01
 1.611978e+00	 1.820184e-01	 1.438352e+01
 1.608766e+00	 2.085089e-01	 1.439868e+01
 1.605097e+00	 2.350916e-01	 1.442682e+01
 1.600965e+00	 2.617560e-01	 1.445997e+01
 1.628132e+00	 1.302417e-01	 1.432294e+01
 1.625799e+00	 1.566967e-01	 1.428912e+01
 1.623019e+00	 1.832651e-01	 1.428561e+01
 1.619785e+00	 2.099370e-01	 1.430385e+01
 1.616091e+00	 2.367018e-01	 1.433550e+01
 1.611930e+00	 2.635489e-01	 1.437252e+01
 1.639208e+00	 1.311277e-01	 1.424070e+01
 1.636859e+00	 1.577627e-01	 1.420716e+01
 1.634060e+00	 1.845118e-01	 1.420430e+01
 1.630804e+00	 2.113652e-01	 1.422354e+01
 1.627085e+00	 2.383120e-01	 1.425649e+01
 1.622896e+00	 2.653417e-01	 1.429510e+01
 1.650284e+00	 1.320137e-01	 1.417860e+01
 1.647919e+00	 1.588286e-01	 1.414346e+01
 1.645101e+00	 1.857585e-01	 1.413923e+01
 1.641823e+00	 2.127933e-01	 1.415731e+01
 1.638079e+00	 2.399223e-01	 1.418932e+01
 1.633861e+00	 2.671346e-01	 1.422717e+01
 1.661360e+00	 1.328997e-01	 1.413646e+01
 1.658979e+00	 1.598946e-01	 1.409776e+01
 1.656142e+00	 1.870053e-01	 1.409004e+01
 1.652842e+00	 2.142214e-01	 1.410474e+01
 1.649072e+00	 2.415325e-01	 1.413349e+01
 1.644827e+00	 2.689274e-01	 1.416821e+01
 1.589999e+00	 2.599632e-01	 1.455798e+01
 1.585430e+00	 2.865151e-01	 1.451808e+01
 1.580390e+00	 3.131259e-01	 1.449707e+01
 1.574873e+00	 3.397841e-01	 1.448871e+01
 1.568876e+00	 3.664779e-01	 1.448783e+01
 1.562394e+00	 3.931953e-01	 1.446283e+01
 1.600965e+00	 2.617560e-01	 1.445997e+01
 1.596364e+00	 2.884910e-01	 1.442128e+01
 1.591289e+00	 3.152854e-01	 1.440475e+01
 1.585734e+00	 3.421275e-01	 1.440411e+01
 1.579696e+00	 3.690054e-01	 1.441415e+01
 1.573170e+00	 3.959069e-01	 1.439608e+01
 1.611930e+00	 2.635489e-01	 1.437252e+01
 1.607298e+00	 2.904670e-01	 1.433309e+01
 1.602188e+00	 3.174449e-01	 1.431896e+01
 1.596596e+00	 3.444708e-01	 1.432384e+01
 1.590516e+00	 3.715328e-01	 1.434241e+01
 1.583945e+00	 3.986186e-01	 1.432828e+01
 1.622896e+00	 2.653417e-01	 1.429510e+01
 1.618232e+00	 2.924430e-01	 1.425292e+01
 1.613087e+00	 3.196044e-01	 1.423908e+01
 1.607457e+00	 3.468141e-01	 1.424726e+01
 1.601336e+00	 3.740602e-01	 1.427142e+01
 1.594720e+00	 4.013303e-01	 1.425891e+01
 1.633861e+00	 2.671346e-01	 1.422717e+01
 1.629166e+00	 2.944189e-01	 1.418020e+01
 1.623987e+00	 3.217639e-01	 1.416451e+01
 1.618318e+00	 3.491575e-01	 1.417376e+01
 1.612156e+00	 3.765877e-01	 1.420050e+01
 1.605495e+00	 4.040420e-01	 1.418751e+01
 1.644827e+00	 2.689274e-01	 1.416821e+01
 1.640100e+00	 2.963949e-01	 1.411437e+01
 1.634886e+00	 3.239233e-01	 1.409468e+01
 1.629179e+00	 3.515008e-01	 1.410277e+01
 1.622976e+00	 3.791151e-01	 1.412913e+01
 1.616270e+00	 4.067537e-01	 1.411368e+01
 1.562394e+00	 3.931953e-01	 1.446283e+01
 1.555424e+00	 4.199238e-01	 1.452846e+01
 1.547961e+00	 4.466508e-01	 1.454559e+01
 1.540002e+00	 4.733637e-01	 1.452227e+01
 1.531545e+00	 5.000493e-01	 1.446828e+01
 1.522587e+00	 5.266944e-01	 1.439540e+01
 1.573170e+00	 3.959069e-01	 1.439608e+01
 1.566151e+00	 4.228198e-01	 1.446364e+01
 1.558636e+00	 4.497312e-01	 1.448297e+01
 1.550623e+00	 4.766283e-01	 1.446211e+01
 1.542107e+00	 5.034979e-01	 1.441078e+01
 1.533088e+00	 5.303267e-01	 1.434065e+01
 1.583945e+00	 3.986186e-01	 1.432828e+01
 1.576878e+00	 4.257158e-01	 1.439675e+01
 1.569312e+00	 4.528115e-01	 1.441755e+01
 1.561243e+00	 4.798928e-01	 1.439869e+01
 1.552670e+00	 5.069465e-01	 1.434981e+01
 1.543588e+00	 5.339591e-01	 1.428240e+01
 1.594720e+00	 4.013303e-01	 1.425891e+01
 1.587605e+00	 4.286118e-01	 1.432737e+01
 1.579987e+00	 4.558919e-01	 1.434902e+01
 1.571864e+00	 4.831574e-01	 1.433180e+01
 1.563232e+00	 5.103951e-01	 1.428525e+01
 1.554089e+00	 5.375915e-01	 1.422068e+01
 1.605495e+00	 4.040420e-01	 1.418751e+01
 1.598332e+00	 4.315079e-01	 1.425515e+01
 1.590663e+00	 4.589722e-01	 1.427712e+01
 1.582485e+00	 4.864220e-01	 1.426130e+01
 1.573794e+00	 5.138437e-01	 1.421706e+01
 1.564590e+00	 5.412239e-01	 1.415554e+01
 1.616270e+00	 4.067537e-01	 1.411368e+01
 1.609059e+00	 4.344039e-01	 1.417979e+01
 1.601339e+00	 4.620526e-01	 1.420166e+01
 1.593105e+00	 4.896866e-01	 1.418709e+01
 1.584357e+00	 5.172923e-01	 1.414527e+01
 1.575090e+00	 5.448562e-01	 1.408710e+01
 1.522587e+00	 5.266944e-01	 1.439540e+01
 1.513127e+00	 5.532855e-01	 1.442462e+01
 1.503163e+00	 5.798092e-01	 1.443743e+01
 1.492695e+00	 6.062517e-01	 1.445400e+01
 1.481721e+00	 6.325991e-01	 1.449799e+01
 1.470242e+00	 6.588375e-01	 1.461425e+01
 1.533088e+00	 5.303267e-01	 1.434065e+01
 1.523563e+00	 5.571013e-01	 1.437616e+01
 1.513530e+00	 5.838079e-01	 1.439398e+01
 1.502989e+00	 6.104327e-01	 1.441365e+01
 1.491940e+00	 6.369618e-01	 1.445815e+01
 1.480382e+00	 6.633812e-01	 1.455457e+01
 1.543588e+00	 5.339591e-01	 1.428240e+01
 1.533998e+00	 5.609171e-01	 1.432185e+01
 1.523897e+00	 5.878066e-01	 1.434246e+01
 1.513284e+00	 6.146138e-01	 1.436312e+01
 1.502159e+00	 6.413246e-01	 1.440614e+01
 1.490521e+00	 6.679249e-01	 1.449769e+01
 1.554089e+00	 5.375915e-01	 1.422068e+01
 1.544433e+00	 5.647328e-01	 1.426184e+01
 1.534263e+00	 5.918053e-01	 1.428319e+01
 1.523578e+00	 6.187948e-01	 1.430293e+01
 1.512377e+00	 6.456874e-01	 1.434264e+01
 1.500661e+00	 6.724686e-01	 1.442773e+01
 1.564590e+00	 5.412239e-01	 1.415554e+01
 1.554869e+00	 5.685486e-01	 1.419636e+01
 1.544630e+00	 5.958040e-01	 1.421656e+01
 1.533873e+00	 6.229759e-01	 1.423362e+01
 1.522596e+00	 6.500501e-01	 1.426837e+01
 1.510801e+00	 6.770123e-01	 1.434543e+01
 1.575090e+00	 5.448562e-01	 1.408710e+01
 1.565304e+00	 5.723643e-01	 1.412569e+01
 1.554997e+00	 5.998026e-01	 1.414300e+01
 1.544167e+00	 6.271569e-01	 1.415579e+01
 1.532815e+00	 6.544129e-01	 1.418410e+01
 1.520940e+00	 6.815560e-01	 1.425172e+01
 1.470242e+00	 6.588375e-01	 1.461425e+01
 1.458259e+00	 6.849528e-01	 1.421115e+01
 1.445772e+00	 7.109309e-01	 1.396936e+01
 1.432783e+00	 7.367576e-01	 1.393140e+01
 1.419294e+00	 7.624189e-01	 1.408346e+01
 1.405308e+00	 7.879005e-01	 1.433749e+01
 1.480382e+00	 6.633812e-01	 1.455457e+01
 1.468316e+00	 6.896766e-01	 1.416939e+01
 1.455743e+00	 7.158338e-01	 1.394472e+01
 1.442664e+00	 7.418387e-01	 1.392386e+01
 1.429083e+00	 7.676769e-01	 1.407082e+01
 1.415000e+00	 7.933343e-01	 1.432411e+01
 1.490521e+00	 6.679249e-01	 1.449769e+01
 1.478373e+00	 6.944004e-01	 1.413602e+01
 1.465714e+00	 7.207368e-01	 1.392255e+01
 1.452546e+00	 7.469198e-01	 1.390915e+01
 1.438871e+00	 7.729350e-01	 1.404619e+01
 1.424692e+00	 7.987681e-01	 1.429520e+01
 1.500661e+00	 6.724686e-01	 1.442773e+01
 1.488430e+00	 6.991242e-01	 1.410548e+01
 1.475684e+00	 7.256398e-01	 1.390369e+01
 1.462427e+00	 7.520009e-01	 1.388806e+01
 1.448659e+00	 7.781931e-01	 1.401210e+01
 1.434384e+00	 8.042019e-01	 1.425332e+01
 1.510801e+00	 6.770123e-01	 1.434543e+01
 1.498487e+00	 7.038480e-01	 1.406024e+01
 1.485655e+00	 7.305427e-01	 1.388718e+01
 1.472308e+00	 7.570820e-01	 1.386316e+01
 1.458447e+00	 7.834511e-01	 1.397117e+01
 1.444076e+00	 8.096357e-01	 1.420113e+01
 1.520940e+00	 6.815560e-01	 1.425172e+01
 1.508544e+00	 7.085718e-01	 1.400022e+01
 1.495626e+00	 7.354457e-01	 1.385654e+01
 1.482189e+00	 7.621631e-01	 1.383712e+01
 1.468236e+00	 7.887092e-01	 1.392612e+01
 1.453767e+00	 8.150695e-01	 1.414137e+01
 1.405308e+00	 7.879005e-01	 1.433749e+01
 1.390828e+00	 8.131883e-01	 1.409008e+01
 1.375858e+00	 8.382682e-01	 1.390079e+01
 1.360401e+00	 8.631262e-01	 1.374288e+01
 1.344463e+00	 8.877484e-01	 1.358610e+01
 1.328049e+00	 9.121211e-01	 1.339811e+01
 1.415000e+00	 7.933343e-01	 1.432411e+01
 1.400420e+00	 8.187965e-01	 1.407103e+01
 1.385347e+00	 8.440493e-01	 1.388059e+01
 1.369784e+00	 8.690788e-01	 1.372631e+01
 1.353736e+00	 8.938708e-01	 1.357783e+01
 1.337208e+00	 9.184115e-01	 1.340236e+01
 1.424692e+00	 7.987681e-01	 1.429520e+01
 1.410012e+00	 8.244047e-01	 1.403770e+01
 1.394835e+00	 8.498305e-01	 1.384717e+01
 1.379166e+00	 8.750314e-01	 1.369746e+01
 1.363008e+00	 8.999932e-01	 1.355817e+01
 1.346367e+00	 9.247020e-01	 1.339602e+01
 1.434384e+00	 8.042019e-01	 1.425332e+01
 1.419604e+00	 8.300129e-01	 1.399259e+01
 1.404324e+00	 8.556117e-01	 1.380299e+01
 1.388548e+00	 8.809840e-01	 1.365878e+01
 1.372280e+00	 9.061156e-01	 1.352953e+01
 1.355526e+00	 9.309925e-01	 1.338152e+01
 1.444076e+00	 8.096357e-01	 1.420113e+01
 1.429196e+00	 8.356210e-01	 1.393828e+01
 1.413813e+00	 8.613928e-01	 1.375058e+01
 1.397930e+00	 8.869366e-01	 1.361276e+01
 1.381552e+00	 9.122380e-01	 1.349439e+01
 1.364685e+00	 9.372830e-01	 1.336136e+01
 1.453767e+00	 8.150695e-01	 1.414137e+01
 1.438788e+00	 8.412292e-01	 1.387744e+01
 1.423301e+00	 8.671740e-01	 1.369253e+01
 1.407312e+00	 8.928892e-01	 1.356192e+01
 1.390824e+00	 9.183604e-01	 1.345526e+01
 1.373844e+00	 9.435735e-01	 1.333802e+01
 1.328049e+00	 9.121211e-01	 1.339811e+01
 1.311164e+00	 9.362305e-01	 1.353281e+01
 1.293815e+00	 9.600633e-01	 1.351821e+01
 1.276009e+00	 9.836061e-01	 1.332218e+01
 1.257752e+00	 1.006846e+00	 1.291884e+01
 1.239053e+00	 1.029770e+00	 1.229125e+01
 1.337208e+00	 9.184115e-01	 1.340236e+01
 1.320207e+00	 9.426873e-01	 1.352790e+01
 1.302738e+00	 9.666844e-01	 1.351336e+01
 1.284809e+00	 9.903896e-01	 1.332541e+01
 1.266426e+00	 1.013790e+00	 1.293687e+01
 1.247598e+00	 1.036872e+00	 1.232943e+01
 1.346367e+00	 9.247020e-01	 1.339602e+01
 1.329249e+00	 9.491440e-01	 1.351360e+01
 1.311661e+00	 9.733055e-01	 1.350009e+01
 1.293609e+00	 9.971731e-01	 1.332092e+01
 1.275100e+00	 1.020734e+00	 1.294751e+01
 1.256143e+00	 1.043974e+00	 1.236008e+01
 1.355526e+00	 9.309925e-01	 1.338152e+01
 1.338292e+00	 9.556008e-01	 1.349235e+01
 1.320584e+00	 9.799267e-01	 1.348089e+01
 1.302409e+00	 1.003957e+00	 1.331128e+01
 1.283774e+00	 1.027677e+00	 1.295342e+01
 1.264689e+00	 1.051076e+00	 1.238599e+01
 1.364685e+00	 9.372830e-01	 1.336136e+01
 1.347334e+00	 9.620575e-01	 1.346665e+01
 1.329507e+00	 9.865478e-01	 1.345832e+01
 1.311209e+00	 1.010740e+00	 1.329910e+01
 1.292449e+00	 1.034621e+00	 1.295733e+01
 1.273234e+00	 1.058178e+00	 1.241000e+01
 1.373844e+00	 9.435735e-01	 1.333802e+01
 1.356377e+00	 9.685143e-01	 1.343903e+01
 1.338429e+00	 9.931689e-01	 1.343494e+01
 1.320009e+00	 1.017524e+00	 1.328704e+01
 1.301123e+00	 1.041565e+00	 1.296198e+01
 1.281779e+00	 1.065280e+00	 1.243497e+01
 1.239053e+00	 1.029770e+00	 1.229125e+01
 1.219920e+00	 1.052366e+00	 1.265228e+01
 1.200361e+00	 1.074622e+00	 1.274337e+01
 1.180387e+00	 1.096525e+00	 1.258772e+01
 1.160005e+00	 1.118064e+00	 1.224027e+01
 1.139228e+00	 1.139228e+00	 1.190271e+01
 1.247598e+00	 1.036872e+00	 1.232943e+01
 1.228333e+00	 1.059624e+00	 1.268364e+01
 1.208640e+00	 1.082033e+00	 1.275941e+01
 1.188527e+00	 1.104087e+00	 1.257852e+01
 1.168005e+00	 1.125775e+00	 1.223353e+01
 1.147084e+00	 1.147084e+00	 1.192461e+01
 1.256143e+00	 1.043974e+00	 1.236008e+01
 1.236746e+00	 1.066882e+00	 1.270224e+01
 1.216918e+00	 1.089444e+00	 1.275688e+01
 1.196668e+00	 1.111649e+00	 1.254427e+01
 1.176005e+00	 1.133485e+00	 1.222339e+01
 1.154941e+00	 1.154941e+00	 1.193838e+01
 1.264689e+00	 1.051076e+00	 1.238599e+01
 1.245160e+00	 1.074139e+00	 1.271108e+01
 1.225196e+00	 1.096855e+00	 1.273898e+01
 1.204808e+00	 1.119211e+00	 1.250407e+01
 1.184005e+00	 1.141196e+00	 1.221434e+01
 1.162798e+00	 1.162798e+00	 1.194872e+01
 1.273234e+00	 1.058178e+00	 1.241000e+01
 1.253573e+00	 1.081397e+00	 1.271320e+01
 1.233475e+00	 1.104266e+00	 1.270901e+01
 1.212949e+00	 1.126774e+00	 1.247362e+01
 1.192006e+00	 1.148907e+00	 1.221055e+01
 1.170655e+00	 1.170655e+00	 1.195999e+01
 1.281779e+00	 1.065280e+00	 1.243497e+01
 1.261986e+00	 1.088655e+00	 1.271174e+01
 1.241753e+00	 1.111678e+00	 1.267042e+01
 1.221090e+00	 1.134336e+00	 1.245655e+01
 1.200006e+00	 1.156618e+00	 1.221584e+01
 1.178511e+00	 1.178511e+00	 1.197621e+01
 1.139228e+00	 1.139228e+00	 1.190271e+01
 1.118064e+00	 1.160005e+00	 1.140172e+01
 1.096525e+00	 1.180387e+00	 1.106723e+01
 1.074622e+00	 1.200361e+00	 1.092611e+01
 1.052366e+00	 1.219920e+00	 1.098610e+01
 1.029770e+00	 1.239053e+00	 1.123634e+01
 1.147084e+00	 1.147084e+00	 1.192461e+01
 1.125775e+00	 1.168005e+00	 1.144825e+01
 1.104087e+00	 1.188527e+00	 1.112820e+01
 1.082033e+00	 1.208640e+00	 1.099238e+01
 1.059624e+00	 1.228333e+00	 1.105048e+01
 1.036872e+00	 1.247598e+00	 1.129199e+01
 1.154941e+00	 1.154941e+00	 1.193838e+01
 1.133485e+00	 1.176005e+00	 1.148378e+01
 1.111649e+00	 1.196668e+00	 1.117566e+01
 1.089444e+00	 1.216918e+00	 1.104149e+01
 1.066882e+00	 1.236746e+00	 1.109428e+01
 1.043974e+00	 1.256143e+00	 1.132383e+01
 1.162798e+00	 1.162798e+00	 1.194872e+01
 1.141196e+00	 1.184005e+00	 1.151319e+01
 1.119211e+00	 1.204808e+00	 1.121462e+01
 1.096855e+00	 1.225196e+00	 1.107887e+01
 1.074139e+00	 1.245160e+00	 1.112282e+01
 1.051076e+00	 1.264689e+00	 1.133710e+01
 1.170655e+00	 1.170655e+00	 1.195999e+01
 1.148907e+00	 1.192006e+00	 1.154102e+01
 1.126774e+00	 1.212949e+00	 1.124956e+01
 1.104266e+00	 1.233475e+00	 1.110979e+01
 1.081397e+00	 1.253573e+00	 1.114128e+01
 1.058178e+00	 1.273234e+00	 1.133692e+01
 1.178511e+00	 1.178511e+00	 1.197621e+01
 1.156618e+00	 1.200006e+00	 1.157146e+01
 1.134336e+00	 1.221090e+00	 1.128488e+01
 1.111678e+00	 1.241753e+00	 1.113939e+01
 1.088655e+00	 1.261986e+00	 1.115470e+01
 1.065280e+00	 1.281779e+00	 1.132826e+01
 1.029770e+00	 1.239053e+00	 1.123634e+01
 1.006846e+00	 1.257752e+00	 1.045170e+01
 9.836061e-01	 1.276009e+00	 9.928882e+00
 9.600633e-01	 1.293815e+00	 9.622085e+00
 9.362305e-01	 1.311164e+00	 9.477327e+00
 9.121211e-01	 1.328049e+00	 9.435286e+00
 1.036872e+00	 1.247598e+00	 1.129199e+01
 1.013790e+00	 1.266426e+00	 1.052939e+01
 9.903896e-01	 1.284809e+00	 1.002197e+01
 9.666844e-01	 1.302738e+00	 9.722858e+00
 9.426873e-01	 1.320207e+00	 9.576771e+00
 9.184115e-01	 1.337208e+00	 9.523009e+00
 1.043974e+00	 1.256143e+00	 1.132383e+01
 1.020734e+00	 1.275100e+00	 1.058019e+01
 9.971731e-01	 1.293609e+00	 1.008509e+01
 9.733055e-01	 1.311661e+00	 9.790476e+00
 9.491440e-01	 1.329249e+00	 9.639662e+00
 9.247020e-01	 1.346367e+00	 9.570465e+00
 1.051076e+00	 1.264689e+00	 1.133710e+01
 1.027677e+00	 1.283774e+00	 1.060929e+01
 1.003957e+00	 1.302409e+00	 1.012339e+01
 9.799267e-01	 1.320584e+00	 9.830078e+00
 9.556008e-01	 1.338292e+00	 9.671131e+00
 9.309925e-01	 1.355526e+00	 9.582767e+00
 1.058178e+00	 1.273234e+00	 1.133692e+01
 1.034621e+00	 1.292449e+00	 1.062176e+01
 1.010740e+00	 1.311209e+00	 1.014195e+01
 9.865478e-01	 1.329507e+00	 9.846737e+00
 9.620575e-01	 1.347334e+00	 9.676254e+00
 9.372830e-01	 1.364685e+00	 9.564997e+00
 1.065280e+00	 1.281779e+00	 1.132826e+01
 1.041565e+00	 1.301123e+00	 1.062258e+01
 1.017524e+00	 1.320009e+00	 1.014574e+01
 9.931689e-01	 1.338429e+00	 9.845440e+00
 9.685143e-01	 1.356377e+00	 9.660046e+00
 9.435735e-01	 1.373844e+00	 9.522194e+00
 9.121211e-01	 1.328049e+00	 9.435286e+00
 8.877484e-01	 1.344463e+00	 9.077406e+00
 8.631262e-01	 1.360401e+00	 8.758571e+00
 8.382682e-01	 1.375858e+00	 8.421329e+00
 8.131883e-01	 1.390828e+00	 8.013067e+00
 7.879005e-01	 1.405308e+00	 7.488051e+00
 9.184115e-01	 1.337208e+00	 9.523009e+00
 8.938708e-01	 1.353736e+00	 9.167641e+00
 8.690788e-01	 1.369784e+00	 8.859167e+00
 8.440493e-01	 1.385347e+00	 8.539963e+00
 8.187965e-01	 1.400420e+00	 8.157580e+00
 7.933343e-01	 1.415000e+00	 7.666872e+00
 9.247020e-01	 1.346367e+00	 9.570465e+00
 8.999932e-01	 1.363008e+00	 9.219237e+00
 8.750314e-01	 1.379166e+00	 8.921956e+00
 8.498305e-01	 1.394835e+00	 8.620748e+00
 8.244047e-01	 1.410012e+00	 8.263272e+00
 7.987681e-01	 1.424692e+00	 7.804944e+00
 9.309925e-01	 1.355526e+00	 9.582767e+00
 9.061156e-01	 1.372280e+00	 9.237164e+00
 8.809840e-01	 1.388548e+00	 8.951751e+00
 8.556117e-01	 1.404324e+00	 8.668319e+00
 8.300129e-01	 1.419604e+00	 8.334575e+00
 8.042019e-01	 1.434384e+00	 7.906461e+00
 9.372830e-01	 1.364685e+00	 9.564997e+00
 9.122380e-01	 1.381552e+00	 9.226382e+00
 8.869366e-01	 1.397930e+00	 8.953376e+00
 8.613928e-01	 1.413813e+00	 8.687345e+00
 8.356210e-01	 1.429196e+00	 8.375974e+00
 8.096357e-01	 1.444076e+00	 7.975690e+00
 9.435735e-01	 1.373844e+00	 9.522194e+00
 9.183604e-01	 1.390824e+00	 9.191831e+00
 8.928892e-01	 1.407312e+00	 8.931658e+00
 8.671740e-01	 1.423301e+00	 8.682517e+00
 8.412292e-01	 1.438788e+00	 8.391994e+00
 8.150695e-01	 1.453767e+00	 8.016962e+00
 7.879005e-01	 1.405308e+00	 7.488051e+00
 7.624189e-01	 1.419294e+00	 7.507455e+00
 7.367576e-01	 1.432783e+00	 7.376039e+00
 7.109309e-01	 1.445772e+00	 7.075976e+00
 6.849528e-01	 1.458259e+00	 6.625352e+00
 6.588375e-01	 1.470242e+00	 6.064191e+00
 7.933343e-01	 1.415000e+00	 7.666872e+00
 7.676769e-01	 1.429083e+00	 7.719857e+00
 7.418387e-01	 1.442664e+00	 7.589426e+00
 7.158338e-01	 1.455743e+00	 7.259384e+00
 6.896766e-01	 1.468316e+00	 6.745111e+00
 6.633812e-01	 1.480382e+00	 6.089794e+00
 7.987681e-01	 1.424692e+00	 7.804944e+00
 7.729350e-01	 1.438871e+00	 7.878657e+00
 7.469198e-01	 1.452546e+00	 7.735868e+00
 7.207368e-01	 1.465714e+00	 7.362620e+00
 6.944004e-01	 1.478373e+00	 6.771603e+00
 6.679249e-01	 1.490521e+00	 6.079198e+00
 8.042019e-01	 1.434384e+00	 7.906461e+00
 7.781931e-01	 1.448659e+00	 7.987979e+00
 7.520009e-01	 1.462427e+00	 7.819555e+00
 7.256398e-01	 1.475684e+00	 7.389480e+00
 6.991242e-01	 1.488430e+00	 6.748239e+00
 6.724686e-01	 1.500661e+00	 6.139662e+00
 8.096357e-01	 1.444076e+00	 7.975690e+00
 7.834511e-01	 1.458447e+00	 8.052032e+00
 7.570820e-01	 1.472308e+00	 7.844584e+00
 7.305427e-01	 1.485655e+00	 7.357416e+00
 7.038480e-01	 1.498487e+00	 6.795833e+00
 6.770123e-01	 1.510801e+00	 6.272596e+00
 8.150695e-01	 1.453767e+00	 8.016962e+00
 7.887092e-01	 1.468236e+00	 8.075104e+00
 7.621631e-01	 1.482189e+00	 7.815508e+00
 7.354457e-01	 1.495626e+00	 7.384053e+00
 7.085718e-01	 1.508544e+00	 6.922330e+00
 6.815560e-01	 1.520940e+00	 6.478254e+00
 6.588375e-01	 1.470242e+00	 6.064191e+00
 6.325991e-01	 1.481721e+00	 6.195498e+00
 6.062517e-01	 1.492695e+00	 6.049309e+00
 5.798092e-01	 1.503163e+00	 5.782566e+00
 5.532855e-01	 1.513127e+00	 5.441167e+00
 5.266944e-01	 1.522587e+00	 5.069358e+00
 6.633812e-01	 1.480382e+00	 6.089794e+00
 6.369618e-01	 1.491940e+00	 6.138500e+00
 6.104327e-01	 1.502989e+00	 6.011231e+00
 5.838079e-01	 1.513530e+00	 5.756643e+00
 5.571013e-01	 1.523563e+00	 5.421195e+00
 5.303267e-01	 1.533088e+00	 5.049666e+00
 6.679249e-01	 1.490521e+00	 6.079198e+00
 6.413246e-01	 1.502159e+00	 6.149407e+00
 6.146138e-01	 1.513284e+00	 6.037126e+00
 5.878066e-01	 1.523897e+00	 5.790508e+00
 5.609171e-01	 1.533998e+00	 5.456516e+00
 5.339591e-01	 1.543588e+00	 5.080391e+00
 6.724686e-01	 1.500661e+00	 6.139662e+00
 6.456874e-01	 1.512377e+00	 6.228963e+00
 6.187948e-01	 1.523578e+00	 6.128011e+00
 5.918053e-01	 1.534263e+00	 5.885453e+00
 5.647328e-01	 1.544433e+00	 5.548695e+00
 5.375915e-01	 1.554089e+00	 5.163366e+00
 6.770123e-01	 1.510801e+00	 6.272596e+00
 6.500501e-01	 1.522596e+00	 6.377798e+00
 6.229759e-01	 1.533873e+00	 6.284787e+00
 5.958040e-01	 1.544630e+00	 6.042654e+00
 5.685486e-01	 1.554869e+00	 5.699180e+00
 5.412239e-01	 1.564590e+00	 5.300316e+00
 6.815560e-01	 1.520940e+00	 6.478254e+00
 6.544129e-01	 1.532815e+00	 6.596432e+00
 6.271569e-01	 1.544167e+00	 6.508247e+00
 5.998026e-01	 1.554997e+00	 6.263174e+00
 5.723643e-01	 1.565304e+00	 5.909312e+00
 5.448562e-01	 1.575090e+00	 5.492851e+00
 5.266944e-01	 1.522587e+00	 5.069358e+00
 5.000493e-01	 1.531545e+00	 5.059704e+00
 4.733637e-01	 1.540002e+00	 4.918450e+00
 4.466508e-01	 1.547961e+00	 4.683443e+00
 4.199238e-01	 1.555424e+00	 4.390184e+00
 3.931953e-01	 1.562394e+00	 4.071719e+00
 5.303267e-01	 1.533088e+00	 5.049666e+00
 5.034979e-01	 1.542107e+00	 5.027608e+00
 4.766283e-01	 1.550623e+00	 4.883137e+00
 4.497312e-01	 1.558636e+00	 4.654470e+00
 4.228198e-01	 1.566151e+00	 4.377459e+00
 3.959069e-01	 1.573170e+00	 4.085512e+00
 5.339591e-01	 1.543588e+00	 5.080391e+00
 5.069465e-01	 1.552670e+00	 5.041329e+00
 4.798928e-01	 1.561243e+00	 4.888310e+00
 4.528115e-01	 1.569312e+00	 4.659834e+00
 4.257158e-01	 1.576878e+00	 4.392014e+00
 3.986186e-01	 1.583945e+00	 4.118524e+00
 5.375915e-01	 1.554089e+00	 5.163366e+00
 5.103951e-01	 1.563232e+00	 5.102951e+00
 4.831574e-01	 1.571864e+00	 4.936299e+00
 4.558919e-01	 1.579987e+00	 4.702100e+00
 4.286118e-01	 1.587605e+00	 4.436636e+00
 4.013303e-01	 1.594720e+00	 4.173746e+00
 5.412239e-01	 1.564590e+00	 5.300316e+00
 5.138437e-01	 1.573794e+00	 5.214450e+00
 4.864220e-01	 1.582485e+00	 5.029328e+00
 4.589722e-01	 1.590663e+00	 4.783734e+00
 4.315079e-01	 1.598332e+00	 4.514017e+00
 4.040420e-01	 1.605495e+00	 4.254082e+00
 5.448562e-01	 1.575090e+00	 5.492851e+00
 5.172923e-01	 1.584357e+00	 5.377693e+00
 4.896866e-01	 1.593105e+00	 5.169516e+00
 4.620526e-01	 1.601339e+00	 4.907099e+00
 4.344039e-01	 1.609059e+00	 4.626753e+00
 4.067537e-01	 1.616270e+00	 4.362343e+00
 3.931953e-01	 1.562394e+00	 4.071719e+00
 3.664779e-01	 1.568876e+00	 3.767571e+00
 3.397841e-01	 1.574873e+00	 3.568508e+00
 3.131259e-01	 1.580390e+00	 3.434507e+00
 2.865151e-01	 1.585430e+00	 3.333197e+00
 2.599632e-01	 1.589999e+00	 3.226531e+00
 3.959069e-01	 1.573170e+00	 4.085512e+00
 3.690054e-01	 1.579696e+00	 3.814522e+00
 3.421275e-01	 1.585734e+00	 3.649311e+00
 3.152854e-01	 1.591289e+00	 3.544688e+00
 2.884910e-01	 1.596364e+00	 3.465937e+00
 2.617560e-01	 1.600965e+00	 3.373023e+00
 3.986186e-01	 1.583945e+00	 4.118524e+00
 3.715328e-01	 1.590516e+00	 3.870098e+00
 3.444708e-01	 1.596596e+00	 3.727568e+00
 3.174449e-01	 1.602188e+00	 3.641051e+00
 2.904670e-01	 1.607298e+00	 3.573451e+00
 2.635489e-01	 1.611930e+00	 3.482789e+00
 4.013303e-01	 1.594720e+00	 4.173746e+00
 3.740602e-01	 1.601336e+00	 3.937877e+00
 3.468141e-01	 1.607457e+00	 3.806554e+00
 3.196044e-01	 1.613087e+00	 3.726821e+00
 2.924430e-01	 1.618232e+00	 3.658845e+00
 2.653417e-01	 1.622896e+00	 3.558751e+00
 4.040420e-01	 1.605495e+00	 4.254082e+00
 3.765877e-01	 1.612156e+00	 4.021041e+00
 3.491575e-01	 1.618318e+00	 3.889495e+00
 3.217639e-01	 1.623987e+00	 3.805187e+00
 2.944189e-01	 1.629166e+00	 3.725200e+00
 2.671346e-01	 1.633861e+00	 3.603820e+00
 4.067537e-01	 1.616270e+00	 4.362343e+00
 3.791151e-01	 1.622976e+00	 4.122616e+00
 3.515008e-01	 1.629179e+00	 3.979565e+00
 3.239233e-01	 1.634886e+00	 3.879302e+00
 2.963949e-01	 1.640100e+00	 3.775576e+00
 2.689274e-01	 1.644827e+00	 3.620893e+00
 2.599632e-01	 1.589999e+00	 3.226531e+00
 2.334814e-01	 1.594103e+00	 2.990066e+00
 2.070807e-01	 1.597747e+00	 2.848171e+00
 1.807717e-01	 1.600937e+00	 2.752538e+00
 1.545648e-01	 1.603680e+00	 2.654182e+00
 1.284697e-01	 1.605981e+00	 2.504270e+00
 2.617560e-01	 1.600965e+00	 3.373023e+00
 2.350916e-01	 1.605097e+00	 3.155674e+00
 2.085089e-01	 1.608766e+00	 3.035394e+00
 1.820184e-01	 1.611978e+00	 2.962554e+00
 1.556307e-01	 1.614740e+00	 2.887042e+00
 1.293557e-01	 1.617057e+00	 2.759042e+00
 2.635489e-01	 1.611930e+00	 3.482789e+00
 2.367018e-01	 1.616091e+00	 3.273242e+00
 2.099370e-01	 1.619785e+00	 3.163137e+00
 1.832651e-01	 1.623019e+00	 3.101640e+00
 1.566967e-01	 1.625799e+00	 3.037646e+00
 1.302417e-01	 1.628132e+00	 2.920494e+00
 2.653417e-01	 1.622896e+00	 3.558751e+00
 2.383120e-01	 1.627085e+00	 3.345450e+00
 2.113652e-01	 1.630804e+00	 3.233795e+00
 1.845118e-01	 1.634060e+00	 3.171875e+00
 1.577627e-01	 1.636859e+00	 3.107725e+00
 1.311277e-01	 1.639208e+00	 2.989997e+00
 2.671346e-01	 1.633861e+00	 3.603820e+00
 2.399223e-01	 1.638079e+00	 3.374975e+00
 2.127933e-01	 1.641823e+00	 3.249766e+00
 1.857585e-01	 1.645101e+00	 3.175336e+00
 1.588286e-01	 1.647919e+00	 3.099016e+00
 1.320137e-01	 1.650284e+00	 2.968929e+00
 2.689274e-01	 1.644827e+00	 3.620893e+00
 2.415325e-01	 1.649072e+00	 3.364487e+00
 2.142214e-01	 1.652842e+00	 3.213446e+00
 1.870053e-01	 1.656142e+00	 3.114110e+00
 1.598946e-01	 1.658979e+00	 3.013263e+00
 1.328997e-01	 1.661360e+00	 2.858673e+00
 1.284697e-01	 1.605981e+00	 2.504270e+00
 1.024964e-01	 1.607847e+00	 2.418063e+00
 7.665388e-02	 1.609287e+00	 2.390642e+00
 5.095130e-02	 1.610305e+00	 2.373243e+00
 2.539725e-02	 1.610911e+00	 2.319033e+00
 0.000000e+00	 1.611111e+00	 2.183514e+00
 1.293557e-01	 1.617057e+00	 2.759042e+00
 1.032032e-01	 1.618936e+00	 2.696287e+00
 7.718253e-02	 1.620385e+00	 2.691091e+00
 5.130269e-02	 1.621411e+00	 2.693765e+00
 2.557240e-02	 1.622021e+00	 2.656496e+00
 0.000000e+00	 1.622222e+00	 2.533703e+00
 1.302417e-01	 1.628132e+00	 2.920494e+00
 1.039101e-01	 1.630025e+00	 2.870198e+00
 7.771118e-02	 1.631484e+00	 2.876776e+00
 5.165408e-02	 1.632516e+00	 2.889767e+00
 2.574755e-02	 1.633130e+00	 2.860519e+00
 0.000000e+00	 1.633333e+00	 2.742502e+00
 1.311277e-01	 1.639208e+00	 2.989997e+00
 1.046170e-01	 1.641113e+00	 2.940808e+00
 7.823982e-02	 1.642582e+00	 2.948358e+00
 5.200547e-02	 1.643622e+00	 2.961571e+00
 2.592271e-02	 1.644240e+00	 2.931112e+00
 0.000000e+00	 1.644444e+00	 2.809645e+00
 1.320137e-01	 1.650284e+00	 2.968929e+00
 1.053238e-01	 1.652202e+00	 2.909135e+00
 7.876847e-02	 1.653681e+00	 2.906499e+00
 5.235686e-02	 1.654727e+00	 2.909501e+00
 2.609786e-02	 1.655350e+00	 2.868286e+00
 0.000000e+00	 1.655556e+00	 2.734866e+00
 1.328997e-01	 1.661360e+00	 2.858673e+00
 1.060307e-01	 1.663290e+00	 2.776203e+00
 7.929712e-02	 1.664779e+00	 2.751868e+00
 5.270824e-02	 1.665833e+00	 2.733885e+00
 2.627302e-02	 1.666460e+00	 2.672053e+00
 0.000000e+00	 1.666667e+00	 2.517896e+00
 1.666667e+00	 0.000000e+00	 1.417225e+01
 1.666460e+00	 2.627302e-02	 1.410489e+01
 1.665833e+00	 5.270824e-02	 1.407729e+01
 1.664779e+00	 7.929712e-02	 1.407981e+01
 1.663290e+00	 1.060307e-01	 1.410277e+01
 1.661360e+00	 1.328997e-01	 1.413646e+01
 1.677778e+00	 0.000000e+00	 1.404158e+01
 1.677569e+00	 2.644817e-02	 1.397852e+01
 1.676939e+00	 5.305963e-02	 1.395525e+01
 1.675878e+00	 7.982577e-02	 1.396205e+01
 1.674379e+00	 1.067376e-01	 1.398916e+01
 1.672435e+00	 1.337857e-01	 1.402688e+01
 1.688889e+00	 0.000000e+00	 1.393915e+01
 1.688679e+00	 2.662332e-02	 1.387901e+01
 1.688044e+00	 5.341102e-02	 1.385842e+01
 1.686976e+00	 8.035441e-02	 1.386756e+01
 1.685468e+00	 1.074445e-01	 1.389667e+01
 1.683511e+00	 1.346717e-01	 1.393606e+01
 1.700000e+00	 0.000000e+00	 1.386522e+01
 1.699789e+00	 2.679848e-02	 1.380656e+01
 1.699150e+00	 5.376241e-02	 1.378687e+01
 1.698075e+00	 8.088306e-02	 1.379634e+01
 1.696556e+00	 1.081513e-01	 1.382521e+01
 1.694587e+00	 1.355577e-01	 1.386383e+01
 1.711111e+00	 0.000000e+00	 1.382006e+01
 1.710898e+00	 2.697363e-02	 1.376132e+01
 1.710255e+00	 5.411380e-02	 1.374070e+01
 1.709173e+00	 8.141171e-02	 1.374838e+01
 1.707645e+00	 1.088582e-01	 1.377467e+01
 1.705662e+00	 1.364437e-01	 1.381002e+01
 1.722222e+00	 0.000000e+00	 1.380394e+01
 1.722008e+00	 2.714878e-02	 1.374349e+01
 1.721361e+00	 5.446519e-02	 1.371998e+01
 1.720272e+00	 8.194036e-02	 1.372368e+01
 1.718734e+00	 1.095651e-01	 1.374498e+01
 1.716738e+00	 1.373297e-01	 1.377447e+01
 1.661360e+00	 1.328997e-01	 1.413646e+01
 1.658979e+00	 1.598946e-01	 1.409776e+01
 1.656142e+00	 1.870053e-01	 1.409004e+01
 1.652842e+00	 2.142214e-01	 1.410474e+01
 1.649072e+00	 2.415325e-01	 1.413349e+01
 1.644827e+00	 2.689274e-01	 1.416821e+01
 1.672435e+00	 1.337857e-01	 1.402688e+01
 1.670039e+00	 1.609605e-01	 1.399363e+01
 1.667183e+00	 1.882520e-01	 1.399162e+01
 1.663861e+00	 2.156496e-01	 1.401232e+01
 1.660066e+00	 2.431427e-01	 1.404737e+01
 1.655793e+00	 2.707203e-01	 1.408866e+01
 1.683511e+00	 1.346717e-01	 1.393606e+01
 1.681099e+00	 1.620265e-01	 1.390588e+01
 1.678224e+00	 1.894987e-01	 1.390708e+01
 1.674880e+00	 2.170777e-01	 1.393118e+01
 1.671060e+00	 2.447529e-01	 1.396985e+01
 1.666758e+00	 2.725131e-01	 1.401500e+01
 1.694587e+00	 1.355577e-01	 1.386383e+01
 1.692159e+00	 1.630925e-01	 1.383427e+01
 1.689265e+00	 1.907454e-01	 1.383611e+01
 1.685899e+00	 2.185059e-01	 1.386096e+01
 1.682054e+00	 2.463631e-01	 1.390055e+01
 1.677724e+00	 2.743060e-01	 1.394682e+01
 1.705662e+00	 1.364437e-01	 1.381002e+01
 1.703218e+00	 1.641584e-01	 1.377856e+01
 1.700306e+00	 1.919921e-01	 1.377842e+01
 1.696918e+00	 2.199340e-01	 1.380131e+01
 1.693048e+00	 2.479733e-01	 1.383907e+01
 1.688689e+00	 2.760988e-01	 1.388369e+01
 1.716738e+00	 1.373297e-01	 1.377447e+01
 1.714278e+00	 1.652244e-01	 1.373852e+01
 1.711347e+00	 1.932388e-01	 1.373369e+01
 1.707937e+00	 2.213622e-01	 1.375188e+01
 1.704041e+00	 2.495836e-01	 1.378504e+01
 1.699655e+00	 2.778917e-01	 1.382524e+01
 1.644827e+00	 2.689274e-01	 1.416821e+01
 1.640100e+00	 2.963949e-01	 1.411437e+01
 1.634886e+00	 3.239233e-01	 1.409468e+01
 1.629179e+00	 3.515008e-01	 1.410277e+01
 1.622976e+00	 3.791151e-01	 1.412913e+01
 1.616270e+00	 4.067537e-01	 1.411368e+01
 1.655793e+00	 2.707203e-01	 1.408866e+01
 1.651034e+00	 2.983709e-01	 1.403777e+01
 1.645785e+00	 3.260828e-01	 1.402239e+01
 1.640040e+00	 3.538442e-01	 1.403622e+01
 1.633795e+00	 3.816425e-01	 1.406718e+01
 1.627045e+00	 4.094654e-01	 1.405400e+01
 1.666758e+00	 2.725131e-01	 1.401500e+01
 1.661968e+00	 3.003468e-01	 1.396551e+01
 1.656684e+00	 3.282423e-01	 1.395288e+01
 1.650902e+00	 3.561875e-01	 1.397085e+01
 1.644615e+00	 3.841700e-01	 1.400427e+01
 1.637820e+00	 4.121771e-01	 1.399229e+01
 1.677724e+00	 2.743060e-01	 1.394682e+01
 1.672902e+00	 3.023228e-01	 1.389714e+01
 1.667583e+00	 3.304018e-01	 1.388568e+01
 1.661763e+00	 3.585308e-01	 1.390619e+01
 1.655435e+00	 3.866974e-01	 1.394005e+01
 1.648596e+00	 4.148888e-01	 1.392831e+01
 1.688689e+00	 2.760988e-01	 1.388369e+01
 1.683836e+00	 3.042988e-01	 1.383224e+01
 1.678483e+00	 3.325613e-01	 1.382033e+01
 1.672624e+00	 3.608742e-01	 1.384180e+01
 1.666255e+00	 3.892248e-01	 1.387420e+01
 1.659371e+00	 4.176005e-01	 1.386183e+01
 1.699655e+00	 2.778917e-01	 1.382524e+01
 1.694770e+00	 3.062747e-01	 1.377038e+01
 1.689382e+00	 3.347208e-01	 1.375643e+01
 1.683485e+00	 3.632175e-01	 1.377728e+01
 1.677075e+00	 3.917523e-01	 1.380645e+01
 1.670146e+00	 4.203122e-01	 1.379272e+01
 1.616270e+00	 4.067537e-01	 1.411368e+01
 1.609059e+00	 4.344039e-01	 1.417979e+01
 1.601339e+00	 4.620526e-01	 1.420166e+01
 1.593105e+00	 4.896866e-01	 1.418709e+01
 1.584357e+00	 5.172923e-01	 1.414527e+01
 1.575090e+00	 5.448562e-01	 1.408710e+01
 1.627045e+00	 4.094654e-01	 1.405400e+01
 1.619786e+00	 4.372999e-01	 1.412286e+01
 1.612014e+00	 4.651329e-01	 1.414904e+01
 1.603726e+00	 4.929511e-01	 1.414000e+01
 1.594919e+00	 5.207410e-01	 1.410453e+01
 1.585591e+00	 5.484886e-01	 1.405308e+01
 1.637820e+00	 4.121771e-01	 1.399229e+01
 1.630513e+00	 4.401959e-01	 1.406196e+01
 1.622690e+00	 4.682133e-01	 1.409079e+01
 1.614347e+00	 4.962157e-01	 1.408589e+01
 1.605482e+00	 5.241896e-01	 1.405563e+01
 1.596092e+00	 5.521210e-01	 1.400997e+01
 1.648596e+00	 4.148888e-01	 1.392831e+01
 1.641240e+00	 4.430920e-01	 1.399697e+01
 1.633365e+00	 4.712936e-01	 1.402692e+01
 1.624968e+00	 4.994803e-01	 1.402488e+01
 1.616044e+00	 5.276382e-01	 1.399881e+01
 1.606592e+00	 5.557534e-01	 1.395814e+01
 1.659371e+00	 4.176005e-01	 1.386183e+01
 1.651967e+00	 4.459880e-01	 1.392779e+01
 1.644041e+00	 4.743740e-01	 1.395745e+01
 1.635588e+00	 5.027449e-01	 1.395715e+01
 1.626606e+00	 5.310868e-01	 1.393435e+01
 1.617093e+00	 5.593857e-01	 1.389798e+01
 1.670146e+00	 4.203122e-01	 1.379272e+01
 1.662694e+00	 4.488840e-01	 1.385440e+01
 1.654717e+00	 4.774543e-01	 1.388248e+01
 1.646209e+00	 5.060094e-01	 1.388287e+01
 1.637169e+00	 5.345354e-01	 1.386256e+01
 1.627593e+00	 5.630181e-01	 1.382993e+01
 1.575090e+00	 5.448562e-01	 1.408710e+01
 1.565304e+00	 5.723643e-01	 1.412569e+01
 1.554997e+00	 5.998026e-01	 1.414300e+01
 1.544167e+00	 6.271569e-01	 1.415579e+01
 1.532815e+00	 6.544129e-01	 1.418410e+01
 1.520940e+00	 6.815560e-01	 1.425172e+01
 1.585591e+00	 5.484886e-01	 1.405308e+01
 1.575739e+00	 5.761801e-01	 1.409128e+01
 1.565363e+00	 6.038013e-01	 1.410598e+01
 1.554462e+00	 6.313380e-01	 1.411355e+01
 1.543034e+00	 6.587756e-01	 1.413359e+01
 1.531080e+00	 6.860997e-01	 1.418945e+01
 1.596092e+00	 5.521210e-01	 1.400997e+01
 1.586175e+00	 5.799959e-01	 1.404888e+01
 1.575730e+00	 6.078000e-01	 1.406228e+01
 1.564756e+00	 6.355190e-01	 1.406611e+01
 1.553252e+00	 6.631384e-01	 1.407952e+01
 1.541219e+00	 6.906434e-01	 1.412535e+01
 1.606592e+00	 5.557534e-01	 1.395814e+01
 1.596610e+00	 5.838116e-01	 1.399896e+01
 1.586097e+00	 6.117987e-01	 1.401246e+01
 1.575050e+00	 6.397001e-01	 1.401413e+01
 1.563471e+00	 6.675011e-01	 1.402262e+01
 1.551359e+00	 6.951871e-01	 1.406026e+01
 1.617093e+00	 5.593857e-01	 1.389798e+01
 1.607046e+00	 5.876274e-01	 1.394200e+01
 1.596463e+00	 6.157974e-01	 1.395708e+01
 1.585345e+00	 6.438811e-01	 1.395825e+01
 1.573690e+00	 6.718639e-01	 1.396365e+01
 1.561499e+00	 6.997308e-01	 1.399503e+01
 1.627593e+00	 5.630181e-01	 1.382993e+01
 1.617481e+00	 5.914432e-01	 1.387851e+01
 1.606830e+00	 6.197961e-01	 1.389675e+01
 1.595639e+00	 6.480622e-01	 1.389917e+01
 1.583909e+00	 6.762266e-01	 1.390338e+01
 1.571638e+00	 7.042745e-01	 1.393053e+01
 1.520940e+00	 6.815560e-01	 1.425172e+01
 1.508544e+00	 7.085718e-01	 1.400022e+01
 1.495626e+00	 7.354457e-01	 1.385654e+01
 1.482189e+00	 7.621631e-01	 1.383712e+01
 1.468236e+00	 7.887092e-01	 1.392612e+01
 1.453767e+00	 8.150695e-01	 1.414137e+01
 1.531080e+00	 6.860997e-01	 1.418945e+01
 1.518601e+00	 7.132956e-01	 1.396549e+01
 1.505597e+00	 7.403487e-01	 1.384462e+01
 1.492071e+00	 7.672441e-01	 1.383191e+01
 1.478024e+00	 7.939673e-01	 1.390698e+01
 1.463459e+00	 8.205033e-01	 1.409911e+01
 1.541219e+00	 6.906434e-01	 1.412535e+01
 1.528658e+00	 7.180194e-01	 1.392576e+01
 1.515568e+00	 7.452517e-01	 1.382375e+01
 1.501952e+00	 7.723252e-01	 1.381598e+01
 1.487812e+00	 7.992253e-01	 1.389210e+01
 1.473151e+00	 8.259371e-01	 1.406159e+01
 1.551359e+00	 6.951871e-01	 1.406026e+01
 1.538714e+00	 7.227432e-01	 1.388207e+01
 1.525539e+00	 7.501546e-01	 1.379462e+01
 1.511833e+00	 7.774063e-01	 1.379145e+01
 1.497600e+00	 8.044834e-01	 1.386947e+01
 1.482843e+00	 8.313708e-01	 1.403137e+01
 1.561499e+00	 6.997308e-01	 1.399503e+01
 1.548771e+00	 7.274671e-01	 1.383548e+01
 1.535509e+00	 7.550576e-01	 1.375924e+01
 1.521714e+00	 7.824874e-01	 1.376031e+01
 1.507388e+00	 8.097414e-01	 1.383984e+01
 1.492534e+00	 8.368046e-01	 1.400015e+01
 1.571638e+00	 7.042745e-01	 1.393053e+01
 1.558828e+00	 7.321909e-01	 1.378705e+01
 1.545480e+00	 7.599606e-01	 1.371950e+01
 1.531596e+00	 7.875685e-01	 1.372443e+01
 1.517177e+00	 8.149995e-01	 1.380506e+01
 1.502226e+00	 8.422384e-01	 1.396335e+01
 1.453767e+00	 8.150695e-01	 1.414137e+01
 1.438788e+00	 8.412292e-01	 1.387744e+01
 1.423301e+00	 8.671740e-01	 1.369253e+01
 1.407312e+00	 8.928892e-01	 1.356192e+01
 1.390824e+00	 9.183604e-01	 1.345526e+01
 1.373844e+00	 9.435735e-01	 1.333802e+01
 1.463459e+00	 8.205033e-01	 1.409911e+01
 1.448380e+00	 8.468374e-01	 1.382984e+01
 1.432790e+00	 8.729551e-01	 1.364512e+01
 1.416694e+00	 8.988418e-01	 1.352053e+01
 1.400096e+00	 9.244828e-01	 1.342554e+01
 1.383003e+00	 9.498640e-01	 1.332489e+01
 1.473151e+00	 8.259371e-01	 1.406159e+01
 1.457972e+00	 8.524456e-01	 1.378560e+01
 1.442279e+00	 8.787363e-01	 1.359955e+01
 1.426076e+00	 9.047943e-01	 1.347945e+01
 1.409369e+00	 9.306052e-01	 1.339458e+01
 1.392162e+00	 9.561545e-01	 1.330904e+01
 1.482843e+00	 8.313708e-01	 1.403137e+01
 1.467564e+00	 8.580538e-01	 1.374740e+01
 1.451768e+00	 8.845175e-01	 1.355846e+01
 1.435458e+00	 9.107469e-01	 1.344124e+01
 1.418641e+00	 9.367276e-01	 1.336496e+01
 1.401321e+00	 9.624450e-01	 1.329306e+01
 1.492534e+00	 8.368046e-01	 1.400015e+01
 1.477156e+00	 8.636620e-01	 1.371792e+01
 1.461256e+00	 8.902986e-01	 1.352443e+01
 1.444840e+00	 9.166995e-01	 1.340845e+01
 1.427913e+00	 9.428500e-01	 1.333920e+01
 1.410480e+00	 9.687355e-01	 1.327950e+01
 1.502226e+00	 8.422384e-01	 1.396335e+01
 1.486748e+00	 8.692702e-01	 1.369750e+01
 1.470745e+00	 8.960798e-01	 1.350007e+01
 1.454222e+00	 9.226521e-01	 1.338362e+01
 1.437185e+00	 9.489724e-01	 1.331980e+01
 1.419639e+00	 9.750260e-01	 1.327086e+01
 1.373844e+00	 9.435735e-01	 1.333802e+01
 1.356377e+00	 9.685143e-01	 1.343903e+01
 1.338429e+00	 9.931689e-01	 1.343494e+01
 1.320009e+00	 1.017524e+00	 1.328704e+01
 1.301123e+00	 1.041565e+00	 1.296198e+01
 1.281779e+00	 1.065280e+00	 1.243497e+01
 1.383003e+00	 9.498640e-01	 1.332489e+01
 1.365419e+00	 9.749711e-01	 1.342257e+01
 1.347352e+00	 9.997900e-01	 1.342046e+01
 1.328809e+00	 1.024307e+00	 1.327829e+01
 1.309797e+00	 1.048509e+00	 1.296088e+01
 1.290324e+00	 1.072381e+00	 1.244145e+01
 1.392162e+00	 9.561545e-01	 1.330904e+01
 1.374462e+00	 9.814278e-01	 1.340424e+01
 1.356275e+00	 1.006411e+00	 1.340496e+01
 1.337609e+00	 1.031091e+00	 1.326926e+01
 1.318471e+00	 1.055452e+00	 1.296003e+01
 1.298869e+00	 1.079483e+00	 1.244842e+01
 1.401321e+00	 9.624450e-01	 1.329306e+01
 1.383504e+00	 9.878846e-01	 1.338665e+01
 1.365198e+00	 1.013032e+00	 1.339108e+01
 1.346409e+00	 1.037874e+00	 1.326268e+01
 1.327145e+00	 1.062396e+00	 1.296232e+01
 1.307415e+00	 1.086585e+00	 1.245892e+01
 1.410480e+00	 9.687355e-01	 1.327950e+01
 1.392547e+00	 9.943413e-01	 1.337237e+01
 1.374121e+00	 1.019653e+00	 1.338144e+01
 1.355209e+00	 1.044658e+00	 1.326126e+01
 1.335819e+00	 1.069340e+00	 1.297057e+01
 1.315960e+00	 1.093687e+00	 1.247594e+01
 1.419639e+00	 9.750260e-01	 1.327086e+01
 1.401589e+00	 1.000798e+00	 1.336390e+01
 1.383044e+00	 1.026275e+00	 1.337861e+01
 1.364009e+00	 1.051441e+00	 1.326766e+01
 1.344493e+00	 1.076284e+00	 1.298756e+01
 1.324505e+00	 1.100789e+00	 1.250243e+01
 1.281779e+00	 1.065280e+00	 1.243497e+01
 1.261986e+00	 1.088655e+00	 1.271174e+01
 1.241753e+00	 1.111678e+00	 1.267042e+01
 1.221090e+00	 1.134336e+00	 1.245655e+01
 1.200006e+00	 1.156618e+00	 1.221584e+01
 1.178511e+00	 1.178511e+00	 1.197621e+01
 1.290324e+00	 1.072381e+00	 1.244145e+01
 1.270399e+00	 1.095912e+00	 1.267536e+01
 1.250031e+00	 1.119089e+00	 1.259853e+01
 1.229230e+00	 1.141898e+00	 1.240838e+01
 1.208006e+00	 1.164328e+00	 1.218518e+01
 1.186368e+00	 1.186368e+00	 1.195613e+01
 1.298869e+00	 1.079483e+00	 1.244842e+01
 1.278813e+00	 1.103170e+00	 1.263714e+01
 1.258310e+00	 1.126500e+00	 1.254765e+01
 1.237371e+00	 1.149460e+00	 1.237869e+01
 1.216006e+00	 1.172039e+00	 1.217064e+01
 1.194225e+00	 1.194225e+00	 1.194996e+01
 1.307415e+00	 1.086585e+00	 1.245892e+01
 1.287226e+00	 1.110428e+00	 1.260032e+01
 1.266588e+00	 1.133911e+00	 1.252038e+01
 1.245511e+00	 1.157023e+00	 1.237022e+01
 1.224006e+00	 1.179750e+00	 1.217509e+01
 1.202082e+00	 1.202082e+00	 1.196075e+01
 1.315960e+00	 1.093687e+00	 1.247594e+01
 1.295639e+00	 1.117685e+00	 1.257768e+01
 1.274867e+00	 1.141322e+00	 1.251901e+01
 1.253652e+00	 1.164585e+00	 1.238539e+01
 1.232006e+00	 1.187461e+00	 1.220113e+01
 1.209938e+00	 1.209938e+00	 1.199122e+01
 1.324505e+00	 1.100789e+00	 1.250243e+01
 1.304052e+00	 1.124943e+00	 1.258521e+01
 1.283145e+00	 1.148733e+00	 1.254557e+01
 1.261793e+00	 1.172147e+00	 1.242636e+01
 1.240006e+00	 1.195172e+00	 1.225106e+01
 1.217795e+00	 1.217795e+00	 1.204384e+01
 1.178511e+00	 1.178511e+00	 1.197621e+01
 1.156618e+00	 1.200006e+00	 1.157146e+01
 1.134336e+00	 1.221090e+00	 1.128488e+01
 1.111678e+00	 1.241753e+00	 1.113939e+01
 1.088655e+00	 1.261986e+00	 1.115470e+01
 1.065280e+00	 1.281779e+00	 1.132826e+01
 1.186368e+00	 1.186368e+00	 1.195613e+01
 1.164328e+00	 1.208006e+00	 1.156889e+01
 1.141898e+00	 1.229230e+00	 1.129124e+01
 1.119089e+00	 1.250031e+00	 1.114520e+01
 1.095912e+00	 1.270399e+00	 1.114875e+01
 1.072381e+00	 1.290324e+00	 1.130494e+01
 1.194225e+00	 1.194225e+00	 1.194996e+01
 1.172039e+00	 1.216006e+00	 1.157842e+01
 1.149460e+00	 1.237371e+00	 1.130799e+01
 1.126500e+00	 1.258310e+00	 1.115981e+01
 1.103170e+00	 1.278813e+00	 1.114982e+01
 1.079483e+00	 1.298869e+00	 1.128527e+01
 1.202082e+00	 1.202082e+00	 1.196075e+01
 1.179750e+00	 1.224006e+00	 1.160324e+01
 1.157023e+00	 1.245511e+00	 1.133852e+01
 1.133911e+00	 1.266588e+00	 1.118681e+01
 1.110428e+00	 1.287226e+00	 1.116236e+01
 1.086585e+00	 1.307415e+00	 1.127372e+01
 1.209938e+00	 1.209938e+00	 1.199122e+01
 1.187461e+00	 1.232006e+00	 1.164627e+01
 1.164585e+00	 1.253652e+00	 1.138594e+01
 1.141322e+00	 1.274867e+00	 1.122949e+01
 1.117685e+00	 1.295639e+00	 1.119003e+01
 1.093687e+00	 1.315960e+00	 1.127455e+01
 1.217795e+00	 1.217795e+00	 1.204384e+01
 1.195172e+00	 1.240006e+00	 1.171014e+01
 1.172147e+00	 1.261793e+00	 1.145303e+01
 1.148733e+00	 1.283145e+00	 1.129084e+01
 1.124943e+00	 1.304052e+00	 1.123553e+01
 1.100789e+00	 1.324505e+00	 1.129183e+01
 1.065280e+00	 1.281779e+00	 1.132826e+01
 1.041565e+00	 1.301123e+00	 1.062258e+01
 1.017524e+00	 1.320009e+00	 1.014574e+01
 9.931689e-01	 1.338429e+00	 9.845440e+00
 9.685143e-01	 1.356377e+00	 9.660046e+00
 9.435735e-01	 1.373844e+00	 9.522194e+00
 1.072381e+00	 1.290324e+00	 1.130494e+01
 1.048509e+00	 1.309797e+00	 1.061757e+01
 1.024307e+00	 1.328809e+00	 1.015828e+01
 9.997900e-01	 1.347352e+00	 9.873305e+00
 9.749711e-01	 1.365419e+00	 9.699263e+00
 9.498640e-01	 1.383003e+00	 9.566960e+00
 1.079483e+00	 1.298869e+00	 1.128527e+01
 1.055452e+00	 1.318471e+00	 1.061463e+01
 1.031091e+00	 1.337609e+00	 1.017135e+01
 1.006411e+00	 1.356275e+00	 9.900045e+00
 9.814278e-01	 1.374462e+00	 9.735446e+00
 9.561545e-01	 1.392162e+00	 9.606373e+00
 1.086585e+00	 1.307415e+00	 1.127372e+01
 1.062396e+00	 1.327145e+00	 1.061821e+01
 1.037874e+00	 1.346409e+00	 1.018943e+01
 1.013032e+00	 1.365198e+00	 9.930192e+00
 9.878846e-01	 1.383504e+00	 9.773188e+00
 9.624450e-01	 1.401321e+00	 9.645083e+00
 1.093687e+00	 1.315960e+00	 1.127455e+01
 1.069340e+00	 1.335819e+00	 1.063261e+01
 1.044658e+00	 1.355209e+00	 1.021685e+01
 1.019653e+00	 1.374121e+00	 9.968153e+00
 9.943413e-01	 1.392547e+00	 9.816976e+00
 9.687355e-01	 1.410480e+00	 9.687663e+00
 1.100789e+00	 1.324505e+00	 1.129183e+01
 1.076284e+00	 1.344493e+00	 1.066191e+01
 1.051441e+00	 1.364009e+00	 1.025778e+01
 1.026275e+00	 1.383044e+00	 1.001820e+01
 1.000798e+00	 1.401589e+00	 9.871184e+00
 9.750260e-01	 1.419639e+00	 9.738590e+00
 9.435735e-01	 1.373844e+00	 9.522194e+00
 9.183604e-01	 1.390824e+00	 9.191831e+00
 8.928892e-01	 1.407312e+00	 8.931658e+00
 8.671740e-01	 1.423301e+00	 8.682517e+00
 8.412292e-01	 1.438788e+00	 8.391994e+00
 8.150695e-01	 1.453767e+00	 8.016962e+00
 9.498640e-01	 1.383003e+00	 9.566960e+00
 9.244828e-01	 1.400096e+00	 9.271586e+00
 8.988418e-01	 1.416694e+00	 9.029809e+00
 8.729551e-01	 1.432790e+00	 8.781158e+00
 8.468374e-01	 1.448380e+00	 8.472437e+00
 8.205033e-01	 1.463459e+00	 8.060371e+00
 9.561545e-01	 1.392162e+00	 9.606373e+00
 9.306052e-01	 1.409369e+00	 9.341594e+00
 9.047943e-01	 1.426076e+00	 9.113231e+00
 8.787363e-01	 1.442279e+00	 8.859393e+00
 8.524456e-01	 1.457972e+00	 8.526015e+00
 8.259371e-01	 1.473151e+00	 8.069625e+00
 9.624450e-01	 1.401321e+00	 9.645083e+00
 9.367276e-01	 1.418641e+00	 9.406586e+00
 9.107469e-01	 1.435458e+00	 9.186716e+00
 8.845175e-01	 1.451768e+00	 8.922044e+00
 8.580538e-01	 1.467564e+00	 8.557544e+00
 8.313708e-01	 1.482843e+00	 8.050601e+00
 9.687355e-01	 1.410480e+00	 9.687663e+00
 9.428500e-01	 1.427913e+00	 9.471237e+00
 9.166995e-01	 1.444840e+00	 9.255018e+00
 8.902986e-01	 1.461256e+00	 8.973916e+00
 8.636620e-01	 1.477156e+00	 8.571846e+00
 8.368046e-01	 1.492534e+00	 8.076692e+00
 9.750260e-01	 1.419639e+00	 9.738590e+00
 9.489724e-01	 1.437185e+00	 9.540149e+00
 9.226521e-01	 1.454222e+00	 9.322846e+00
 8.960798e-01	 1.470745e+00	 9.019791e+00
 8.692702e-01	 1.486748e+00	 8.588240e+00
 8.422384e-01	 1.502226e+00	 8.189014e+00
 8.150695e-01	 1.453767e+00	 8.016962e+00
 7.887092e-01	 1.468236e+00	 8.075104e+00
 7.621631e-01	 1.482189e+00	 7.815508e+00
 7.354457e-01	 1.495626e+00	 7.384053e+00
 7.085718e-01	 1.508544e+00	 6.922330e+00
 6.815560e-01	 1.520940e+00	 6.478254e+00
 8.205033e-01	 1.463459e+00	 8.060371e+00
 7.939673e-01	 1.478024e+00	 8.019358e+00
 7.672441e-01	 1.492071e+00	 7.706380e+00
 7.403487e-01	 1.505597e+00	 7.318482e+00
 7.132956e-01	 1.518601e+00	 6.884382e+00
 6.860997e-01	 1.531080e+00	 6.448214e+00
 8.259371e-01	 1.473151e+00	 8.069625e+00
 7.992253e-01	 1.487812e+00	 7.944150e+00
 7.723252e-01	 1.501952e+00	 7.675675e+00
 7.452517e-01	 1.515568e+00	 7.325842e+00
 7.180194e-01	 1.528658e+00	 6.914809e+00
 6.906434e-01	 1.541219e+00	 6.482204e+00
 8.313708e-01	 1.482843e+00	 8.050601e+00
 8.044834e-01	 1.497600e+00	 7.944022e+00
 7.774063e-01	 1.511833e+00	 7.722806e+00
 7.501546e-01	 1.525539e+00	 7.405992e+00
 7.227432e-01	 1.538714e+00	 7.013450e+00
 6.951871e-01	 1.551359e+00	 6.580351e+00
 8.368046e-01	 1.492534e+00	 8.076692e+00
 8.097414e-01	 1.507388e+00	 8.026091e+00
 7.824874e-01	 1.521714e+00	 7.847116e+00
 7.550576e-01	 1.535509e+00	 7.558520e+00
 7.274671e-01	 1.548771e+00	 7.180052e+00
 6.997308e-01	 1.561499e+00	 6.742685e+00
 8.422384e-01	 1.502226e+00	 8.189014e+00
 8.149995e-01	 1.517177e+00	 8.189387e+00
 7.875685e-01	 1.531596e+00	 8.047875e+00
 7.599606e-01	 1.545480e+00	 7.782937e+00
 7.321909e-01	 1.558828e+00	 7.414274e+00
 7.042745e-01	 1.571638e+00	 6.969143e+00
 6.815560e-01	 1.520940e+00	 6.478254e+00
 6.544129e-01	 1.532815e+00	 6.596432e+00
 6.271569e-01	 1.544167e+00	 6.508247e+00
 5.998026e-01	 1.554997e+00	 6.263174e+00
 5.723643e-01	 1.565304e+00	 5.909312e+00
 5.448562e-01	 1.575090e+00	 5.492851e+00
 6.860997e-01	 1.531080e+00	 6.448214e+00
 6.587756e-01	 1.543034e+00	 6.524804e+00
 6.313380e-01	 1.554462e+00	 6.410118e+00
 6.038013e-01	 1.565363e+00	 6.154213e+00
 5.761801e-01	 1.575739e+00	 5.805611e+00
 5.484886e-01	 1.585591e+00	 5.410772e+00
 6.906434e-01	 1.541219e+00	 6.482204e+00
 6.631384e-01	 1.553252e+00	 6.518494e+00
 6.355190e-01	 1.564756e+00	 6.378096e+00
 6.078000e-01	 1.575730e+00	 6.111589e+00
 5.799959e-01	 1.586175e+00	 5.767849e+00
 5.521210e-01	 1.596092e+00	 5.393526e+00
 6.951871e-01	 1.551359e+00	 6.580351e+00
 6.675011e-01	 1.563471e+00	 6.577815e+00
 6.397001e-01	 1.575050e+00	 6.412689e+00
 6.117987e-01	 1.586097e+00	 6.136020e+00
 5.838116e-01	 1.596610e+00	 5.796965e+00
 5.557534e-01	 1.606592e+00	 5.442281e+00
 6.997308e-01	 1.561499e+00	 6.742685e+00
 6.718639e-01	 1.573690e+00	 6.702978e+00
 6.438811e-01	 1.585345e+00	 6.514307e+00
 6.157974e-01	 1.596463e+00	 6.228123e+00
 5.876274e-01	 1.607046e+00	 5.893797e+00
 5.593857e-01	 1.617093e+00	 5.558106e+00
 7.042745e-01	 1.571638e+00	 6.969143e+00
 6.762266e-01	 1.583909e+00	 6.894099e+00
 6.480622e-01	 1.595639e+00	 6.683258e+00
 6.197961e-01	 1.606830e+00	 6.388418e+00
 5.914432e-01	 1.617481e+00	 6.059086e+00
 5.630181e-01	 1.627593e+00	 5.741972e+00
 5.448562e-01	 1.575090e+00	 5.492851e+00
 5.172923e-01	 1.584357e+00	 5.377693e+00
 4.896866e-01	 1.593105e+00	 5.169516e+00
 4.620526e-01	 1.601339e+00	 4.907099e+00
 4.344039e-01	 1.609059e+00	 4.626753e+00
 4.067537e-01	 1.616270e+00	 4.362343e+00
 5.484886e-01	 1.585591e+00	 5.410772e+00
 5.207410e-01	 1.594919e+00	 5.313168e+00
 4.929511e-01	 1.603726e+00	 5.122235e+00
 4.651329e-01	 1.612014e+00	 4.876563e+00
 4.372999e-01	 1.619786e+00	 4.612250e+00
 4.094654e-01	 1.627045e+00	 4.362958e+00
 5.521210e-01	 1.596092e+00	 5.393526e+00
 5.241896e-01	 1.605482e+00	 5.309070e+00
 4.962157e-01	 1.614347e+00	 5.130309e+00
 4.682133e-01	 1.622690e+00	 4.895536e+00
 4.401959e-01	 1.630513e+00	 4.640525e+00
 4.121771e-01	 1.637820e+00	 4.398618e+00
 5.557534e-01	 1.606592e+00	 5.442281e+00
 5.276382e-01	 1.616044e+00	 5.366850e+00
 4.994803e-01	 1.624968e+00	 5.195469e+00
 4.712936e-01	 1.633365e+00	 4.966025e+00
 4.430920e-01	 1.641240e+00	 4.713846e+00
 4.148888e-01	 1.648596e+00	 4.471837e+00
 5.593857e-01	 1.617093e+00	 5.558106e+00
 5.310868e-01	 1.626606e+00	 5.487861e+00
 5.027449e-01	 1.635588e+00	 5.319353e+00
 4.743740e-01	 1.644041e+00	 5.089942e+00
 4.459880e-01	 1.651967e+00	 4.834396e+00
 4.176005e-01	 1.659371e+00	 4.585048e+00
 5.630181e-01	 1.627593e+00	 5.741972e+00
 5.345354e-01	 1.637169e+00	 5.673362e+00
 5.060094e-01	 1.646209e+00	 5.503501e+00
 4.774543e-01	 1.654717e+00	 5.269110e+00
 4.488840e-01	 1.662694e+00	 5.004264e+00
 4.203122e-01	 1.670146e+00	 4.740599e+00
 4.067537e-01	 1.616270e+00	 4.362343e+00
 3.791151e-01	 1.622976e+00	 4.122616e+00
 3.515008e-01	 1.629179e+00	 3.979565e+00
 3.239233e-01	 1.634886e+00	 3.879302e+00
 2.963949e-01	 1.640100e+00	 3.775576e+00
 2.689274e-01	 1.644827e+00	 3.620893e+00
 4.094654e-01	 1.627045e+00	 4.362958e+00
 3.816425e-01	 1.633795e+00	 4.136682e+00
 3.538442e-01	 1.640040e+00	 4.010060e+00
 3.260828e-01	 1.645785e+00	 3.931041e+00
 2.983709e-01	 1.651034e+00	 3.849797e+00
 2.707203e-01	 1.655793e+00	 3.717013e+00
 4.121771e-01	 1.637820e+00	 4.398618e+00
 3.841700e-01	 1.644615e+00	 4.177565e+00
 3.561875e-01	 1.650902e+00	 4.057186e+00
 3.282423e-01	 1.656684e+00	 3.988622e+00
 3.003468e-01	 1.661968e+00	 3.918441e+00
 2.725131e-01	 1.666758e+00	 3.795576e+00
 4.148888e-01	 1.648596e+00	 4.471837e+00
 3.866974e-01	 1.655435e+00	 4.247996e+00
 3.585308e-01	 1.661763e+00	 4.123883e+00
 3.304018e-01	 1.667583e+00	 4.055005e+00
 3.023228e-01	 1.672902e+00	 3.984401e+00
 2.743060e-01	 1.677724e+00	 3.859342e+00
 4.176005e-01	 1.659371e+00	 4.585048e+00
 3.892248e-01	 1.666255e+00	 4.350623e+00
 3.608742e-01	 1.672624e+00	 4.213035e+00
 3.325613e-01	 1.678483e+00	 4.133107e+00
 3.042988e-01	 1.683836e+00	 4.050548e+00
 2.760988e-01	 1.688689e+00	 3.911054e+00
 4.203122e-01	 1.670146e+00	 4.740599e+00
 3.917523e-01	 1.677075e+00	 4.488021e+00
 3.632175e-01	 1.683485e+00	 4.327467e+00
 3.347208e-01	 1.689382e+00	 4.225804e+00
 3.062747e-01	 1.694770e+00	 4.119723e+00
 2.778917e-01	 1.699655e+00	 3.953443e+00
 2.689274e-01	 1.644827e+00	 3.620893e+00
 2.415325e-01	 1.649072e+00	 3.364487e+00
 2.142214e-01	 1.652842e+00	 3.213446e+00
 1.870053e-01	 1.656142e+00	 3.114110e+00
 1.598946e-01	 1.658979e+00	 3.013263e+00
 1.328997e-01	 1.661360e+00	 2.858673e+00
 2.707203e-01	 1.655793e+00	 3.717013e+00
 2.431427e-01	 1.660066e+00	 3.491409e+00
 2.156496e-01	 1.663861e+00	 3.370614e+00
 1.882520e-01	 1.667183e+00	 3.300253e+00
 1.609605e-01	 1.670039e+00	 3.226671e+00
 1.337857e-01	 1.672435e+00	 3.097410e+00
 2.725131e-01	 1.666758e+00	 3.795576e+00
 2.447529e-01	 1.671060e+00	 3.587740e+00
 2.170777e-01	 1.674880e+00	 3.483822e+00
 1.894987e-01	 1.678224e+00	 3.428887e+00
 1.620265e-01	 1.681099e+00	 3.369028e+00
 1.346717e-01	 1.683511e+00	 3.251753e+00
 2.743060e-01	 1.677724e+00	 3.859342e+00
 2.463631e-01	 1.682054e+00	 3.656053e+00
 2.185059e-01	 1.685899e+00	 3.555393e+00
 1.907454e-01	 1.689265e+00	 3.502049e+00
 1.630925e-01	 1.692159e+00	 3.442046e+00
 1.355577e-01	 1.694587e+00	 3.323065e+00
 2.760988e-01	 1.688689e+00	 3.911054e+00
 2.479733e-01	 1.693048e+00	 3.698909e+00
 2.199340e-01	 1.696918e+00	 3.587655e+00
 1.919921e-01	 1.700306e+00	 3.521778e+00
 1.641584e-01	 1.703218e+00	 3.447442e+00
 1.364437e-01	 1.705662e+00	 3.312718e+00
 2.778917e-01	 1.699655e+00	 3.953443e+00
 2.495836e-01	 1.704041e+00	 3.718867e+00
 2.213622e-01	 1.707937e+00	 3.582932e+00
 1.932388e-01	 1.711347e+00	 3.490117e+00
 1.652244e-01	 1.714278e+00	 3.386941e+00
 1.373297e-01	 1.716738e+00	 3.222092e+00
 1.328997e-01	 1.661360e+00	 2.858673e+00
 1.060307e-01	 1.663290e+00	 2.776203e+00
 7.929712e-02	 1.664779e+00	 2.751868e+00
 5.270824e-02	 1.665833e+00	 2.733885e+00
 2.627302e-02	 1.666460e+00	 2.672053e+00
 0.000000e+00	 1.666667e+00	 2.517896e+00
 1.337857e-01	 1.672435e+00	 3.097410e+00
 1.067376e-01	 1.674379e+00	 3.040069e+00
 7.982577e-02	 1.675878e+00	 3.040033e+00
 5.305963e-02	 1.676939e+00	 3.045458e+00
 2.644817e-02	 1.677569e+00	 3.005996e+00
 0.000000e+00	 1.677778e+00	 2.872879e+00
 1.346717e-01	 1.683511e+00	 3.251753e+00
 1.074445e-01	 1.685468e+00	 3.206655e+00
 8.035441e-02	 1.686976e+00	 3.218621e+00
 5.341102e-02	 1.688044e+00	 3.235949e+00
 2.662332e-02	 1.688679e+00	 3.208342e+00
 0.000000e+00	 1.688889e+00	 3.086922e+00
 1.355577e-01	 1.694587e+00	 3.323065e+00
 1.081513e-01	 1.696556e+00	 3.276964e+00
 8.088306e-02	 1.698075e+00	 3.288277e+00
 5.376241e-02	 1.699150e+00	 3.305658e+00
 2.679848e-02	 1.699789e+00	 3.279067e+00
 0.000000e+00	 1.700000e+00	 3.159717e+00
 1.364437e-01	 1.705662e+00	 3.312718e+00
 1.088582e-01	 1.707645e+00	 3.252009e+00
 8.141171e-02	 1.709173e+00	 3.249652e+00
 5.411380e-02	 1.710255e+00	 3.254886e+00
 2.697363e-02	 1.710898e+00	 3.218149e+00
 0.000000e+00	 1.711111e+00	 3.090951e+00
 1.373297e-01	 1.716738e+00	 3.222092e+00
 1.095651e-01	 1.718734e+00	 3.132807e+00
 8.194036e-02	 1.720272e+00	 3.103404e+00
 5.446519e-02	 1.721361e+00	 3.083940e+00
 2.714878e-02	 1.722008e+00	 3.025568e+00
 0.000000e+00	 1.722222e+00	 2.880311e+00
 1.722222e+00	 0.000000e+00	 1.380394e+01
 1.722008e+00	 2.714878e-02	 1.374349e+01
 1.721361e+00	 5.446519e-02	 1.371998e+01
 1.720272e+00	 8.194036e-02	 1.372368e+01
 1.718734e+00	 1.095651e-01	 1.374498e+01
 1.716738e+00	 1.373297e-01	 1.377447e+01
 1.733333e+00	 0.000000e+00	 1.368450e+01
 1.733118e+00	 2.732394e-02	 1.362991e+01
 1.732466e+00	 5.481657e-02	 1.361175e+01
 1.731370e+00	 8.246900e-02	 1.362037e+01
 1.729822e+00	 1.102719e-01	 1.364633e+01
 1.727814e+00	 1.382157e-01	 1.368038e+01
 1.744444e+00	 0.000000e+00	 1.359359e+01
 1.744228e+00	 2.749909e-02	 1.354291e+01
 1.743572e+00	 5.516796e-02	 1.352783e+01
 1.742469e+00	 8.299765e-02	 1.353886e+01
 1.740911e+00	 1.109788e-01	 1.356674e+01
 1.738890e+00	 1.391017e-01	 1.360244e+01
 1.755556e+00	 0.000000e+00	 1.353151e+01
 1.755337e+00	 2.767424e-02	 1.348270e+01
 1.754677e+00	 5.551935e-02	 1.346835e+01
 1.753567e+00	 8.352630e-02	 1.347917e+01
 1.751999e+00	 1.116857e-01	 1.350615e+01
 1.749965e+00	 1.399877e-01	 1.354052e+01
 1.766667e+00	 0.000000e+00	 1.349857e+01
 1.766447e+00	 2.784940e-02	 1.344949e+01
 1.765783e+00	 5.587074e-02	 1.343343e+01
 1.764666e+00	 8.405495e-02	 1.344134e+01
 1.763088e+00	 1.123926e-01	 1.346451e+01
 1.761041e+00	 1.408737e-01	 1.349450e+01
 1.777778e+00	 0.000000e+00	 1.349507e+01
 1.777557e+00	 2.802455e-02	 1.344350e+01
 1.776889e+00	 5.622213e-02	 1.342319e+01
 1.775764e+00	 8.458359e-02	 1.342540e+01
 1.774177e+00	 1.130994e-01	 1.344178e+01
 1.772117e+00	 1.417597e-01	 1.346426e+01
 1.716738e+00	 1.373297e-01	 1.377447e+01
 1.714278e+00	 1.652244e-01	 1.373852e+01
 1.711347e+00	 1.932388e-01	 1.373369e+01
 1.707937e+00	 2.213622e-01	 1.375188e+01
 1.704041e+00	 2.495836e-01	 1.378504e+01
 1.699655e+00	 2.778917e-01	 1.382524e+01
 1.727814e+00	 1.382157e-01	 1.368038e+01
 1.725338e+00	 1.662904e-01	 1.365075e+01
 1.722388e+00	 1.944855e-01	 1.365150e+01
 1.718956e+00	 2.227903e-01	 1.367472e+01
 1.715035e+00	 2.511938e-01	 1.371254e+01
 1.710620e+00	 2.796845e-01	 1.375716e+01
 1.738890e+00	 1.391017e-01	 1.360244e+01
 1.736398e+00	 1.673563e-01	 1.357656e+01
 1.733429e+00	 1.957322e-01	 1.358026e+01
 1.729975e+00	 2.242184e-01	 1.360587e+01
 1.726029e+00	 2.528040e-01	 1.364571e+01
 1.721586e+00	 2.814773e-01	 1.369215e+01
 1.749965e+00	 1.399877e-01	 1.354052e+01
 1.747458e+00	 1.684223e-01	 1.351576e+01
 1.744470e+00	 1.969789e-01	 1.351973e+01
 1.740994e+00	 2.256466e-01	 1.354503e+01
 1.737023e+00	 2.544142e-01	 1.358424e+01
 1.732551e+00	 2.832702e-01	 1.362990e+01
 1.761041e+00	 1.408737e-01	 1.349450e+01
 1.758518e+00	 1.694883e-01	 1.346816e+01
 1.755511e+00	 1.982256e-01	 1.346965e+01
 1.752013e+00	 2.270747e-01	 1.349192e+01
 1.748017e+00	 2.560244e-01	 1.352781e+01
 1.743517e+00	 2.850630e-01	 1.357008e+01
 1.772117e+00	 1.417597e-01	 1.346426e+01
 1.769578e+00	 1.705542e-01	 1.343357e+01
 1.766552e+00	 1.994723e-01	 1.342979e+01
 1.763032e+00	 2.285029e-01	 1.344625e+01
 1.759011e+00	 2.576346e-01	 1.347612e+01
 1.754482e+00	 2.868559e-01	 1.351241e+01
 1.699655e+00	 2.778917e-01	 1.382524e+01
 1.694770e+00	 3.062747e-01	 1.377038e+01
 1.689382e+00	 3.347208e-01	 1.375643e+01
 1.683485e+00	 3.632175e-01	 1.377728e+01
 1.677075e+00	 3.917523e-01	 1.380645e+01
 1.670146e+00	 4.203122e-01	 1.379272e+01
 1.710620e+00	 2.796845e-01	 1.375716e+01
 1.705704e+00	 3.082507e-01	 1.370788e+01
 1.700281e+00	 3.368803e-01	 1.370001e+01
 1.694346e+00	 3.655608e-01	 1.372740e+01
 1.687895e+00	 3.942797e-01	 1.375935e+01
 1.680921e+00	 4.230239e-01	 1.375006e+01
 1.721586e+00	 2.814773e-01	 1.369215e+01
 1.716638e+00	 3.102267e-01	 1.364636e+01
 1.711180e+00	 3.390398e-01	 1.364253e+01
 1.705208e+00	 3.679042e-01	 1.367452e+01
 1.698714e+00	 3.968071e-01	 1.370738e+01
 1.691696e+00	 4.257356e-01	 1.370157e+01
 1.732551e+00	 2.832702e-01	 1.362990e+01
 1.727572e+00	 3.122026e-01	 1.358549e+01
 1.722080e+00	 3.411993e-01	 1.358371e+01
 1.716069e+00	 3.702475e-01	 1.361839e+01
 1.709534e+00	 3.993346e-01	 1.365046e+01
 1.702471e+00	 4.284472e-01	 1.364728e+01
 1.743517e+00	 2.850630e-01	 1.357008e+01
 1.738506e+00	 3.141786e-01	 1.352498e+01
 1.732979e+00	 3.433587e-01	 1.352329e+01
 1.726930e+00	 3.725909e-01	 1.355862e+01
 1.720354e+00	 4.018620e-01	 1.358856e+01
 1.713246e+00	 4.311589e-01	 1.358727e+01
 1.754482e+00	 2.868559e-01	 1.351241e+01
 1.749440e+00	 3.161546e-01	 1.346456e+01
 1.743878e+00	 3.455182e-01	 1.346102e+01
 1.737791e+00	 3.749342e-01	 1.349483e+01
 1.731174e+00	 4.043894e-01	 1.352170e+01
 1.724021e+00	 4.338706e-01	 1.352164e+01
 1.670146e+00	 4.203122e-01	 1.379272e+01
 1.662694e+00	 4.488840e-01	 1.385440e+01
 1.654717e+00	 4.774543e-01	 1.388248e+01
 1.646209e+00	 5.060094e-01	 1.388287e+01
 1.637169e+00	 5.345354e-01	 1.386256e+01
 1.627593e+00	 5.630181e-01	 1.382993e+01
 1.680921e+00	 4.230239e-01	 1.375006e+01
 1.673421e+00	 4.517800e-01	 1.381142e+01
 1.665392e+00	 4.805347e-01	 1.384017e+01
 1.656830e+00	 5.092740e-01	 1.384185e+01
 1.647731e+00	 5.379840e-01	 1.382305e+01
 1.638094e+00	 5.666505e-01	 1.379166e+01
 1.691696e+00	 4.257356e-01	 1.370157e+01
 1.684148e+00	 4.546761e-01	 1.376196e+01
 1.676068e+00	 4.836150e-01	 1.379103e+01
 1.667450e+00	 5.125386e-01	 1.379395e+01
 1.658293e+00	 5.414327e-01	 1.377686e+01
 1.648595e+00	 5.702829e-01	 1.374714e+01
 1.702471e+00	 4.284472e-01	 1.364728e+01
 1.694876e+00	 4.575721e-01	 1.370616e+01
 1.686743e+00	 4.866954e-01	 1.373530e+01
 1.678071e+00	 5.158032e-01	 1.373949e+01
 1.668856e+00	 5.448813e-01	 1.372438e+01
 1.659095e+00	 5.739152e-01	 1.369687e+01
 1.713246e+00	 4.311589e-01	 1.358727e+01
 1.705603e+00	 4.604681e-01	 1.364419e+01
 1.697419e+00	 4.897757e-01	 1.367325e+01
 1.688692e+00	 5.190678e-01	 1.367881e+01
 1.679418e+00	 5.483299e-01	 1.366607e+01
 1.669596e+00	 5.775476e-01	 1.364137e+01
 1.724021e+00	 4.338706e-01	 1.352164e+01
 1.716330e+00	 4.633641e-01	 1.357625e+01
 1.708094e+00	 4.928561e-01	 1.360516e+01
 1.699312e+00	 5.223323e-01	 1.361229e+01
 1.689981e+00	 5.517785e-01	 1.360237e+01
 1.680096e+00	 5.811800e-01	 1.358117e+01
 1.627593e+00	 5.630181e-01	 1.382993e+01
 1.617481e+00	 5.914432e-01	 1.387851e+01
 1.606830e+00	 6.197961e-01	 1.389675e+01
 1.595639e+00	 6.480622e-01	 1.389917e+01
 1.583909e+00	 6.762266e-01	 1.390338e+01
 1.571638e+00	 7.042745e-01	 1.393053e+01
 1.638094e+00	 5.666505e-01	 1.379166e+01
 1.627916e+00	 5.952589e-01	 1.384251e+01
 1.617197e+00	 6.237948e-01	 1.386234e+01
 1.605934e+00	 6.522432e-01	 1.386493e+01
 1.594128e+00	 6.805894e-01	 1.386709e+01
 1.581778e+00	 7.088182e-01	 1.388913e+01
 1.648595e+00	 5.702829e-01	 1.374714e+01
 1.638352e+00	 5.990747e-01	 1.380026e+01
 1.627563e+00	 6.277934e-01	 1.382186e+01
 1.616228e+00	 6.564243e-01	 1.382498e+01
 1.604346e+00	 6.849521e-01	 1.382560e+01
 1.591917e+00	 7.133619e-01	 1.384317e+01
 1.659095e+00	 5.739152e-01	 1.369687e+01
 1.648787e+00	 6.028904e-01	 1.375234e+01
 1.637930e+00	 6.317921e-01	 1.377600e+01
 1.626523e+00	 6.606053e-01	 1.378010e+01
 1.614565e+00	 6.893149e-01	 1.377980e+01
 1.602057e+00	 7.179056e-01	 1.379365e+01
 1.669596e+00	 5.775476e-01	 1.364137e+01
 1.659222e+00	 6.067062e-01	 1.369938e+01
 1.648296e+00	 6.357908e-01	 1.372547e+01
 1.636817e+00	 6.647863e-01	 1.373111e+01
 1.624784e+00	 6.936776e-01	 1.373059e+01
 1.612197e+00	 7.224494e-01	 1.374157e+01
 1.680096e+00	 5.811800e-01	 1.358117e+01
 1.669658e+00	 6.105220e-01	 1.364198e+01
 1.658663e+00	 6.397895e-01	 1.367096e+01
 1.647112e+00	 6.689674e-01	 1.367878e+01
 1.635003e+00	 6.980404e-01	 1.367886e+01
 1.622336e+00	 7.269931e-01	 1.368792e+01
 1.571638e+00	 7.042745e-01	 1.393053e+01
 1.558828e+00	 7.321909e-01	 1.378705e+01
 1.545480e+00	 7.599606e-01	 1.371950e+01
 1.531596e+00	 7.875685e-01	 1.372443e+01
 1.517177e+00	 8.149995e-01	 1.380506e+01
 1.502226e+00	 8.422384e-01	 1.396335e+01
 1.581778e+00	 7.088182e-01	 1.388913e+01
 1.568885e+00	 7.369147e-01	 1.375680e+01
 1.555451e+00	 7.648635e-01	 1.369087e+01
 1.541477e+00	 7.926496e-01	 1.369167e+01
 1.526965e+00	 8.202576e-01	 1.376346e+01
 1.511918e+00	 8.476722e-01	 1.390824e+01
 1.591917e+00	 7.133619e-01	 1.384317e+01
 1.578942e+00	 7.416385e-01	 1.372237e+01
 1.565422e+00	 7.697665e-01	 1.365946e+01
 1.551358e+00	 7.977307e-01	 1.365837e+01
 1.536753e+00	 8.255156e-01	 1.372357e+01
 1.521610e+00	 8.531060e-01	 1.385714e+01
 1.602057e+00	 7.179056e-01	 1.379365e+01
 1.588999e+00	 7.463623e-01	 1.368476e+01
 1.575393e+00	 7.746695e-01	 1.362683e+01
 1.561239e+00	 8.028118e-01	 1.362601e+01
 1.546541e+00	 8.307737e-01	 1.368680e+01
 1.531302e+00	 8.585398e-01	 1.381137e+01
 1.612197e+00	 7.224494e-01	 1.374157e+01
 1.599056e+00	 7.510861e-01	 1.364530e+01
 1.585364e+00	 7.795725e-01	 1.359442e+01
 1.571121e+00	 8.078928e-01	 1.359594e+01
 1.556330e+00	 8.360317e-01	 1.365444e+01
 1.540993e+00	 8.639736e-01	 1.377215e+01
 1.622336e+00	 7.269931e-01	 1.368792e+01
 1.609113e+00	 7.558099e-01	 1.360542e+01
 1.595334e+00	 7.844754e-01	 1.356354e+01
 1.581002e+00	 8.129739e-01	 1.356940e+01
 1.566118e+00	 8.412898e-01	 1.362764e+01
 1.550685e+00	 8.694074e-01	 1.374058e+01
 1.502226e+00	 8.422384e-01	 1.396335e+01
 1.486748e+00	 8.692702e-01	 1.369750e+01
 1.470745e+00	 8.960798e-01	 1.350007e+01
 1.454222e+00	 9.226521e-01	 1.338362e+01
 1.437185e+00	 9.489724e-01	 1.331980e+01
 1.419639e+00	 9.750260e-01	 1.327086e+01
 1.511918e+00	 8.476722e-01	 1.390824e+01
 1.496340e+00	 8.748784e-01	 1.365050e+01
 1.480234e+00	 9.018609e-01	 1.345349e+01
 1.463604e+00	 9.286047e-01	 1.333002e+01
 1.446457e+00	 9.550948e-01	 1.326848e+01
 1.428798e+00	 9.813164e-01	 1.323044e+01
 1.521610e+00	 8.531060e-01	 1.385714e+01
 1.505932e+00	 8.804866e-01	 1.360832e+01
 1.489722e+00	 9.076421e-01	 1.342059e+01
 1.472986e+00	 9.345573e-01	 1.329217e+01
 1.455729e+00	 9.612172e-01	 1.323002e+01
 1.437957e+00	 9.876069e-01	 1.320019e+01
 1.531302e+00	 8.585398e-01	 1.381137e+01
 1.515523e+00	 8.860948e-01	 1.357227e+01
 1.499211e+00	 9.134233e-01	 1.339470e+01
 1.482369e+00	 9.405099e-01	 1.327228e+01
 1.465001e+00	 9.673396e-01	 1.320664e+01
 1.447115e+00	 9.938974e-01	 1.318234e+01
 1.540993e+00	 8.639736e-01	 1.377215e+01
 1.525115e+00	 8.917030e-01	 1.354351e+01
 1.508700e+00	 9.192044e-01	 1.337687e+01
 1.491751e+00	 9.464625e-01	 1.326573e+01
 1.474274e+00	 9.734620e-01	 1.320047e+01
 1.456274e+00	 1.000188e+00	 1.317900e+01
 1.550685e+00	 8.694074e-01	 1.374058e+01
 1.534707e+00	 8.973112e-01	 1.352312e+01
 1.518188e+00	 9.249856e-01	 1.336813e+01
 1.501133e+00	 9.524151e-01	 1.326902e+01
 1.483546e+00	 9.795844e-01	 1.321328e+01
 1.465433e+00	 1.006478e+00	 1.319218e+01
 1.419639e+00	 9.750260e-01	 1.327086e+01
 1.401589e+00	 1.000798e+00	 1.336390e+01
 1.383044e+00	 1.026275e+00	 1.337861e+01
 1.364009e+00	 1.051441e+00	 1.326766e+01
 1.344493e+00	 1.076284e+00	 1.298756e+01
 1.324505e+00	 1.100789e+00	 1.250243e+01
 1.428798e+00	 9.813164e-01	 1.323044e+01
 1.410632e+00	 1.007255e+00	 1.332504e+01
 1.391967e+00	 1.032896e+00	 1.334218e+01
 1.372809e+00	 1.058225e+00	 1.323232e+01
 1.353168e+00	 1.083227e+00	 1.294932e+01
 1.333050e+00	 1.107891e+00	 1.245439e+01
 1.437957e+00	 9.876069e-01	 1.320019e+01
 1.419674e+00	 1.013712e+00	 1.329532e+01
 1.400889e+00	 1.039517e+00	 1.331413e+01
 1.381609e+00	 1.065008e+00	 1.320475e+01
 1.361842e+00	 1.090171e+00	 1.291832e+01
 1.341595e+00	 1.114993e+00	 1.241590e+01
 1.447115e+00	 9.938974e-01	 1.318234e+01
 1.428717e+00	 1.020168e+00	 1.327701e+01
 1.409812e+00	 1.046138e+00	 1.329679e+01
 1.390409e+00	 1.071792e+00	 1.318743e+01
 1.370516e+00	 1.097115e+00	 1.289722e+01
 1.350140e+00	 1.122094e+00	 1.240360e+01
 1.456274e+00	 1.000188e+00	 1.317900e+01
 1.437759e+00	 1.026625e+00	 1.327225e+01
 1.418735e+00	 1.052759e+00	 1.329239e+01
 1.399209e+00	 1.078575e+00	 1.318270e+01
 1.379190e+00	 1.104059e+00	 1.288854e+01
 1.358686e+00	 1.129196e+00	 1.242045e+01
 1.465433e+00	 1.006478e+00	 1.319218e+01
 1.446802e+00	 1.033082e+00	 1.328307e+01
 1.427658e+00	 1.059380e+00	 1.330301e+01
 1.408009e+00	 1.085359e+00	 1.319279e+01
 1.387864e+00	 1.111003e+00	 1.289467e+01
 1.367231e+00	 1.136298e+00	 1.246713e+01
 1.324505e+00	 1.100789e+00	 1.250243e+01
 1.304052e+00	 1.124943e+00	 1.258521e+01
 1.283145e+00	 1.148733e+00	 1.254557e+01
 1.261793e+00	 1.172147e+00	 1.242636e+01
 1.240006e+00	 1.195172e+00	 1.225106e+01
 1.217795e+00	 1.217795e+00	 1.204384e+01
 1.333050e+00	 1.107891e+00	 1.245439e+01
 1.312465e+00	 1.132201e+00	 1.251875e+01
 1.291423e+00	 1.156145e+00	 1.248135e+01
 1.269933e+00	 1.179709e+00	 1.236479e+01
 1.248006e+00	 1.202882e+00	 1.219202e+01
 1.225652e+00	 1.225652e+00	 1.198675e+01
 1.341595e+00	 1.114993e+00	 1.241590e+01
 1.320879e+00	 1.139459e+00	 1.247932e+01
 1.299702e+00	 1.163556e+00	 1.244431e+01
 1.278074e+00	 1.187272e+00	 1.233071e+01
 1.256006e+00	 1.210593e+00	 1.216094e+01
 1.233508e+00	 1.233508e+00	 1.195823e+01
 1.350140e+00	 1.122094e+00	 1.240360e+01
 1.329292e+00	 1.146716e+00	 1.246816e+01
 1.307980e+00	 1.170967e+00	 1.243576e+01
 1.286214e+00	 1.194834e+00	 1.232554e+01
 1.264006e+00	 1.218304e+00	 1.215933e+01
 1.241365e+00	 1.241365e+00	 1.195989e+01
 1.358686e+00	 1.129196e+00	 1.242045e+01
 1.337705e+00	 1.153974e+00	 1.248624e+01
 1.316258e+00	 1.178378e+00	 1.245679e+01
 1.294355e+00	 1.202396e+00	 1.235045e+01
 1.272006e+00	 1.226015e+00	 1.218848e+01
 1.249222e+00	 1.249222e+00	 1.199312e+01
 1.367231e+00	 1.136298e+00	 1.246713e+01
 1.346118e+00	 1.161232e+00	 1.253435e+01
 1.324537e+00	 1.185789e+00	 1.250825e+01
 1.302496e+00	 1.209958e+00	 1.240639e+01
 1.280006e+00	 1.233726e+00	 1.224942e+01
 1.257079e+00	 1.257079e+00	 1.205907e+01
 1.217795e+00	 1.217795e+00	 1.204384e+01
 1.195172e+00	 1.240006e+00	 1.171014e+01
 1.172147e+00	 1.261793e+00	 1.145303e+01
 1.148733e+00	 1.283145e+00	 1.129084e+01
 1.124943e+00	 1.304052e+00	 1.123553e+01
 1.100789e+00	 1.324505e+00	 1.129183e+01
 1.225652e+00	 1.225652e+00	 1.198675e+01
 1.202882e+00	 1.248006e+00	 1.166623e+01
 1.179709e+00	 1.269933e+00	 1.141531e+01
 1.156145e+00	 1.291423e+00	 1.125135e+01
 1.132201e+00	 1.312465e+00	 1.118513e+01
 1.107891e+00	 1.333050e+00	 1.121917e+01
 1.233508e+00	 1.233508e+00	 1.195823e+01
 1.210593e+00	 1.256006e+00	 1.164991e+01
 1.187272e+00	 1.278074e+00	 1.140436e+01
 1.163556e+00	 1.299702e+00	 1.123801e+01
 1.139459e+00	 1.320879e+00	 1.116043e+01
 1.114993e+00	 1.341595e+00	 1.117254e+01
 1.241365e+00	 1.241365e+00	 1.195989e+01
 1.218304e+00	 1.264006e+00	 1.166293e+01
 1.194834e+00	 1.286214e+00	 1.142213e+01
 1.170967e+00	 1.307980e+00	 1.125294e+01
 1.146716e+00	 1.329292e+00	 1.116375e+01
 1.122094e+00	 1.350140e+00	 1.115396e+01
 1.249222e+00	 1.249222e+00	 1.199312e+01
 1.226015e+00	 1.272006e+00	 1.170684e+01
 1.202396e+00	 1.294355e+00	 1.147030e+01
 1.178378e+00	 1.316258e+00	 1.129801e+01
 1.153974e+00	 1.337705e+00	 1.119715e+01
 1.129196e+00	 1.358686e+00	 1.116560e+01
 1.257079e+00	 1.257079e+00	 1.205907e+01
 1.233726e+00	 1.280006e+00	 1.178292e+01
 1.209958e+00	 1.302496e+00	 1.155033e+01
 1.185789e+00	 1.324537e+00	 1.137484e+01
 1.161232e+00	 1.346118e+00	 1.126245e+01
 1.136298e+00	 1.367231e+00	 1.120950e+01
 1.100789e+00	 1.324505e+00	 1.129183e+01
 1.076284e+00	 1.344493e+00	 1.066191e+01
 1.051441e+00	 1.364009e+00	 1.025778e+01
 1.026275e+00	 1.383044e+00	 1.001820e+01
 1.000798e+00	 1.401589e+00	 9.871184e+00
 9.750260e-01	 1.419639e+00	 9.738590e+00
 1.107891e+00	 1.333050e+00	 1.121917e+01
 1.083227e+00	 1.353168e+00	 1.060730e+01
 1.058225e+00	 1.372809e+00	 1.022187e+01
 1.032896e+00	 1.391967e+00	 9.999388e+00
 1.007255e+00	 1.410632e+00	 9.865325e+00
 9.813164e-01	 1.428798e+00	 9.738887e+00
 1.114993e+00	 1.341595e+00	 1.117254e+01
 1.090171e+00	 1.361842e+00	 1.057797e+01
 1.065008e+00	 1.381609e+00	 1.021050e+01
 1.039517e+00	 1.400889e+00	 1.000436e+01
 1.013712e+00	 1.419674e+00	 9.882293e+00
 9.876069e-01	 1.437957e+00	 9.760633e+00
 1.122094e+00	 1.350140e+00	 1.115396e+01
 1.097115e+00	 1.370516e+00	 1.057734e+01
 1.071792e+00	 1.390409e+00	 1.022721e+01
 1.046138e+00	 1.409812e+00	 1.003684e+01
 1.020168e+00	 1.428717e+00	 9.925967e+00
 9.938974e-01	 1.447115e+00	 9.807879e+00
 1.129196e+00	 1.358686e+00	 1.116560e+01
 1.104059e+00	 1.379190e+00	 1.060862e+01
 1.078575e+00	 1.399209e+00	 1.027537e+01
 1.052759e+00	 1.418735e+00	 1.010034e+01
 1.026625e+00	 1.437759e+00	 1.000007e+01
 1.000188e+00	 1.456274e+00	 9.884545e+00
 1.136298e+00	 1.367231e+00	 1.120950e+01
 1.111003e+00	 1.387864e+00	 1.067475e+01
 1.085359e+00	 1.408009e+00	 1.035809e+01
 1.059380e+00	 1.427658e+00	 1.019820e+01
 1.033082e+00	 1.446802e+00	 1.010815e+01
 1.006478e+00	 1.465433e+00	 9.994405e+00
 9.750260e-01	 1.419639e+00	 9.738590e+00
 9.489724e-01	 1.437185e+00	 9.540149e+00
 9.226521e-01	 1.454222e+00	 9.322846e+00
 8.960798e-01	 1.470745e+00	 9.019791e+00
 8.692702e-01	 1.486748e+00	 8.588240e+00
 8.422384e-01	 1.502226e+00	 8.189014e+00
 9.813164e-01	 1.428798e+00	 9.738887e+00
 9.550948e-01	 1.446457e+00	 9.554203e+00
 9.286047e-01	 1.463604e+00	 9.311661e+00
 9.018609e-01	 1.480234e+00	 8.941805e+00
 8.748784e-01	 1.496340e+00	 8.498501e+00
 8.476722e-01	 1.511918e+00	 8.123033e+00
 9.876069e-01	 1.437957e+00	 9.760633e+00
 9.612172e-01	 1.455729e+00	 9.580916e+00
 9.345573e-01	 1.472986e+00	 9.303909e+00
 9.076421e-01	 1.489722e+00	 8.887581e+00
 8.804866e-01	 1.505932e+00	 8.479510e+00
 8.531060e-01	 1.521610e+00	 8.122615e+00
 9.938974e-01	 1.447115e+00	 9.807879e+00
 9.673396e-01	 1.465001e+00	 9.624633e+00
 9.405099e-01	 1.482369e+00	 9.304495e+00
 9.134233e-01	 1.499211e+00	 8.907336e+00
 8.860948e-01	 1.515523e+00	 8.529974e+00
 8.585398e-01	 1.531302e+00	 8.186705e+00
 1.000188e+00	 1.456274e+00	 9.884545e+00
 9.734620e-01	 1.474274e+00	 9.689585e+00
 9.464625e-01	 1.491751e+00	 9.355450e+00
 9.192044e-01	 1.508700e+00	 9.000191e+00
 8.917030e-01	 1.525115e+00	 8.648539e+00
 8.639736e-01	 1.540993e+00	 8.314190e+00
 1.006478e+00	 1.465433e+00	 9.994405e+00
 9.795844e-01	 1.483546e+00	 9.781155e+00
 9.524151e-01	 1.501133e+00	 9.482907e+00
 9.249856e-01	 1.518188e+00	 9.164503e+00
 8.973112e-01	 1.534707e+00	 8.833801e+00
 8.694074e-01	 1.550685e+00	 8.503894e+00
 8.422384e-01	 1.502226e+00	 8.189014e+00
 8.149995e-01	 1.517177e+00	 8.189387e+00
 7.875685e-01	 1.531596e+00	 8.047875e+00
 7.599606e-01	 1.545480e+00	 7.782937e+00
 7.321909e-01	 1.558828e+00	 7.414274e+00
 7.042745e-01	 1.571638e+00	 6.969143e+00
 8.476722e-01	 1.511918e+00	 8.123033e+00
 8.202576e-01	 1.526965e+00	 8.095229e+00
 7.926496e-01	 1.541477e+00	 7.936726e+00
 7.648635e-01	 1.555451e+00	 7.666349e+00
 7.369147e-01	 1.568885e+00	 7.304312e+00
 7.088182e-01	 1.581778e+00	 6.875383e+00
 8.531060e-01	 1.521610e+00	 8.122615e+00
 8.255156e-01	 1.536753e+00	 8.068024e+00
 7.977307e-01	 1.551358e+00	 7.893816e+00
 7.697665e-01	 1.565422e+00	 7.619166e+00
 7.416385e-01	 1.578942e+00	 7.264662e+00
 7.133619e-01	 1.591917e+00	 6.853534e+00
 8.585398e-01	 1.531302e+00	 8.186705e+00
 8.307737e-01	 1.546541e+00	 8.106839e+00
 8.028118e-01	 1.561239e+00	 7.918339e+00
 7.746695e-01	 1.575393e+00	 7.640715e+00
 7.463623e-01	 1.588999e+00	 7.294848e+00
 7.179056e-01	 1.602057e+00	 6.903117e+00
 8.639736e-01	 1.540993e+00	 8.314190e+00
 8.360317e-01	 1.556330e+00	 8.210676e+00
 8.078928e-01	 1.571121e+00	 8.009422e+00
 7.795725e-01	 1.585364e+00	 7.730254e+00
 7.510861e-01	 1.599056e+00	 7.394326e+00
 7.224494e-01	 1.612197e+00	 7.023579e+00
 8.694074e-01	 1.550685e+00	 8.503894e+00
 8.412898e-01	 1.566118e+00	 8.378478e+00
 8.129739e-01	 1.581002e+00	 8.166130e+00
 7.844754e-01	 1.595334e+00	 7.886980e+00
 7.558099e-01	 1.609113e+00	 7.562431e+00
 7.269931e-01	 1.622336e+00	 7.214294e+00
 7.042745e-01	 1.571638e+00	 6.969143e+00
 6.762266e-01	 1.583909e+00	 6.894099e+00
 6.480622e-01	 1.595639e+00	 6.683258e+00
 6.197961e-01	 1.606830e+00	 6.388418e+00
 5.914432e-01	 1.617481e+00	 6.059086e+00
 5.630181e-01	 1.627593e+00	 5.741972e+00
 7.088182e-01	 1.581778e+00	 6.875383e+00
 6.805894e-01	 1.594128e+00	 6.799128e+00
 6.522432e-01	 1.605934e+00	 6.589944e+00
 6.237948e-01	 1.617197e+00	 6.299660e+00
 5.952589e-01	 1.627916e+00	 5.977629e+00
 5.666505e-01	 1.638094e+00	 5.670228e+00
 7.133619e-01	 1.591917e+00	 6.853534e+00
 6.849521e-01	 1.604346e+00	 6.775801e+00
 6.564243e-01	 1.616228e+00	 6.567717e+00
 6.277934e-01	 1.627563e+00	 6.281085e+00
 5.990747e-01	 1.638352e+00	 5.965029e+00
 5.702829e-01	 1.648595e+00	 5.665500e+00
 7.179056e-01	 1.602057e+00	 6.903117e+00
 6.893149e-01	 1.614565e+00	 6.823854e+00
 6.606053e-01	 1.626523e+00	 6.616546e+00
 6.317921e-01	 1.637930e+00	 6.332910e+00
 6.028904e-01	 1.648787e+00	 6.021761e+00
 5.739152e-01	 1.659095e+00	 5.728531e+00
 7.224494e-01	 1.612197e+00	 7.023579e+00
 6.936776e-01	 1.624784e+00	 6.942944e+00
 6.647863e-01	 1.636817e+00	 6.736317e+00
 6.357908e-01	 1.648296e+00	 6.455263e+00
 6.067062e-01	 1.659222e+00	 6.148210e+00
 5.775476e-01	 1.669596e+00	 5.859976e+00
 7.269931e-01	 1.622336e+00	 7.214294e+00
 6.980404e-01	 1.635003e+00	 7.132653e+00
 6.689674e-01	 1.647112e+00	 6.926834e+00
 6.397895e-01	 1.658663e+00	 6.648187e+00
 6.105220e-01	 1.669658e+00	 6.344674e+00
 5.811800e-01	 1.680096e+00	 6.060399e+00
 5.630181e-01	 1.627593e+00	 5.741972e+00
 5.345354e-01	 1.637169e+00	 5.673362e+00
 5.060094e-01	 1.646209e+00	 5.503501e+00
 4.774543e-01	 1.654717e+00	 5.269110e+00
 4.488840e-01	 1.662694e+00	 5.004264e+00
 4.203122e-01	 1.670146e+00	 4.740599e+00
 5.666505e-01	 1.638094e+00	 5.670228e+00
 5.379840e-01	 1.647731e+00	 5.593414e+00
 5.092740e-01	 1.656830e+00	 5.422858e+00
 4.805347e-01	 1.665392e+00	 5.194606e+00
 4.517800e-01	 1.673421e+00	 4.941967e+00
 4.230239e-01	 1.680921e+00	 4.695763e+00
 5.702829e-01	 1.648595e+00	 5.665500e+00
 5.414327e-01	 1.658293e+00	 5.579296e+00
 5.125386e-01	 1.667450e+00	 5.406042e+00
 4.836150e-01	 1.676068e+00	 5.180978e+00
 4.546761e-01	 1.684148e+00	 4.936514e+00
 4.257356e-01	 1.691696e+00	 4.702514e+00
 5.739152e-01	 1.659095e+00	 5.728531e+00
 5.448813e-01	 1.668856e+00	 5.632006e+00
 5.158032e-01	 1.678071e+00	 5.454306e+00
 4.866954e-01	 1.686743e+00	 5.229740e+00
 4.575721e-01	 1.694876e+00	 4.989672e+00
 4.284472e-01	 1.702471e+00	 4.762866e+00
 5.775476e-01	 1.669596e+00	 5.859976e+00
 5.483299e-01	 1.679418e+00	 5.752449e+00
 5.190678e-01	 1.688692e+00	 5.568816e+00
 4.897757e-01	 1.697419e+00	 5.342317e+00
 4.604681e-01	 1.705603e+00	 5.103128e+00
 4.311589e-01	 1.713246e+00	 4.878753e+00
 5.811800e-01	 1.680096e+00	 6.060399e+00
 5.517785e-01	 1.689981e+00	 5.941444e+00
 5.223323e-01	 1.699312e+00	 5.750654e+00
 4.928561e-01	 1.708094e+00	 5.520055e+00
 4.633641e-01	 1.716330e+00	 5.278484e+00
 4.338706e-01	 1.724021e+00	 5.052034e+00
 4.203122e-01	 1.670146e+00	 4.740599e+00
 3.917523e-01	 1.677075e+00	 4.488021e+00
 3.632175e-01	 1.683485e+00	 4.327467e+00
 3.347208e-01	 1.689382e+00	 4.225804e+00
 3.062747e-01	 1.694770e+00	 4.119723e+00
 2.778917e-01	 1.699655e+00	 3.953443e+00
 4.230239e-01	 1.680921e+00	 4.695763e+00
 3.942797e-01	 1.687895e+00	 4.463435e+00
 3.655608e-01	 1.694346e+00	 4.320891e+00
 3.368803e-01	 1.700281e+00	 4.241387e+00
 3.082507e-01	 1.705704e+00	 4.158884e+00
 2.796845e-01	 1.710620e+00	 4.016082e+00
 4.257356e-01	 1.691696e+00	 4.702514e+00
 3.968071e-01	 1.698714e+00	 4.483075e+00
 3.679042e-01	 1.705208e+00	 4.349292e+00
 3.390398e-01	 1.711180e+00	 4.281057e+00
 3.102267e-01	 1.716638e+00	 4.210124e+00
 2.814773e-01	 1.721586e+00	 4.077788e+00
 4.284472e-01	 1.702471e+00	 4.762866e+00
 3.993346e-01	 1.709534e+00	 4.549196e+00
 3.702475e-01	 1.716069e+00	 4.415229e+00
 3.411993e-01	 1.722080e+00	 4.347483e+00
 3.122026e-01	 1.727572e+00	 4.276131e+00
 2.832702e-01	 1.732551e+00	 4.141184e+00
 4.311589e-01	 1.713246e+00	 4.878753e+00
 4.018620e-01	 1.720354e+00	 4.663984e+00
 3.725909e-01	 1.726930e+00	 4.521315e+00
 3.433587e-01	 1.732979e+00	 4.443293e+00
 3.141786e-01	 1.738506e+00	 4.359566e+00
 2.850630e-01	 1.743517e+00	 4.208874e+00
 4.338706e-01	 1.724021e+00	 5.052034e+00
 4.043894e-01	 1.731174e+00	 4.829549e+00
 3.749342e-01	 1.737791e+00	 4.670069e+00
 3.455182e-01	 1.743878e+00	 4.571064e+00
 3.161546e-01	 1.749440e+00	 4.463059e+00
 2.868559e-01	 1.754482e+00	 4.283444e+00
 2.778917e-01	 1.699655e+00	 3.953443e+00
 2.495836e-01	 1.704041e+00	 3.718867e+00
 2.213622e-01	 1.707937e+00	 3.582932e+00
 1.932388e-01	 1.711347e+00	 3.490117e+00
 1.652244e-01	 1.714278e+00	 3.386941e+00
 1.373297e-01	 1.716738e+00	 3.222092e+00
 2.796845e-01	 1.710620e+00	 4.016082e+00
 2.511938e-01	 1.715035e+00	 3.811500e+00
 2.227903e-01	 1.718956e+00	 3.705052e+00
 1.944855e-01	 1.722388e+00	 3.641353e+00
 1.662904e-01	 1.725338e+00	 3.567433e+00
 1.382157e-01	 1.727814e+00	 3.432767e+00
 2.814773e-01	 1.721586e+00	 4.077788e+00
 2.528040e-01	 1.726029e+00	 3.889391e+00
 2.242184e-01	 1.729975e+00	 3.797948e+00
 1.957322e-01	 1.733429e+00	 3.748427e+00
 1.673563e-01	 1.736398e+00	 3.688607e+00
 1.391017e-01	 1.738890e+00	 3.569005e+00
 2.832702e-01	 1.732551e+00	 4.141184e+00
 2.544142e-01	 1.737023e+00	 3.955015e+00
 2.256466e-01	 1.740994e+00	 3.863882e+00
 1.969789e-01	 1.744470e+00	 3.813333e+00
 1.684223e-01	 1.747458e+00	 3.752146e+00
 1.399877e-01	 1.749965e+00	 3.632147e+00
 2.850630e-01	 1.743517e+00	 4.208874e+00
 2.560244e-01	 1.748017e+00	 4.010841e+00
 2.270747e-01	 1.752013e+00	 3.905118e+00
 1.982256e-01	 1.755511e+00	 3.838071e+00
 1.694883e-01	 1.758518e+00	 3.759741e+00
 1.408737e-01	 1.761041e+00	 3.623544e+00
 2.868559e-01	 1.754482e+00	 4.283444e+00
 2.576346e-01	 1.759011e+00	 4.059329e+00
 2.285029e-01	 1.763032e+00	 3.923917e+00
 1.994723e-01	 1.766552e+00	 3.824643e+00
 1.705542e-01	 1.769578e+00	 3.713089e+00
 1.417597e-01	 1.772117e+00	 3.544553e+00
 1.373297e-01	 1.716738e+00	 3.222092e+00
 1.095651e-01	 1.718734e+00	 3.132807e+00
 8.194036e-02	 1.720272e+00	 3.103404e+00
 5.446519e-02	 1.721361e+00	 3.083940e+00
 2.714878e-02	 1.722008e+00	 3.025568e+00
 0.000000e+00	 1.722222e+00	 2.880311e+00
 1.382157e-01	 1.727814e+00	 3.432767e+00
 1.102719e-01	 1.729822e+00	 3.373690e+00
 8.246900e-02	 1.731370e+00	 3.371231e+00
 5.481657e-02	 1.732466e+00	 3.376532e+00
 2.732394e-02	 1.733118e+00	 3.341720e+00
 0.000000e+00	 1.733333e+00	 3.219601e+00
 1.391017e-01	 1.738890e+00	 3.569005e+00
 1.109788e-01	 1.740911e+00	 3.524883e+00
 8.299765e-02	 1.742469e+00	 3.534767e+00
 5.516796e-02	 1.743572e+00	 3.551145e+00
 2.749909e-02	 1.744228e+00	 3.527376e+00
 0.000000e+00	 1.744444e+00	 3.417292e+00
 1.399877e-01	 1.749965e+00	 3.632147e+00
 1.116857e-01	 1.751999e+00	 3.587379e+00
 8.352630e-02	 1.753567e+00	 3.594647e+00
 5.551935e-02	 1.754677e+00	 3.608066e+00
 2.767424e-02	 1.755337e+00	 3.582498e+00
 0.000000e+00	 1.755556e+00	 3.473054e+00
 1.408737e-01	 1.761041e+00	 3.623544e+00
 1.123926e-01	 1.763088e+00	 3.562176e+00
 8.405495e-02	 1.764666e+00	 3.551513e+00
 5.587074e-02	 1.765783e+00	 3.547587e+00
 2.784940e-02	 1.766447e+00	 3.507046e+00
 0.000000e+00	 1.766667e+00	 3.386553e+00
 1.417597e-01	 1.772117e+00	 3.544553e+00
 1.130994e-01	 1.774177e+00	 3.450279e+00
 8.458359e-02	 1.775764e+00	 3.406011e+00
 5.622213e-02	 1.776889e+00	 3.370004e+00
 2.802455e-02	 1.777557e+00	 3.300986e+00
 0.000000e+00	 1.777778e+00	 3.157458e+00
 1.777778e+00	 0.000000e+00	 1.349507e+01
 1.777557e+00	 2.802455e-02	 1.344350e+01
 1.776889e+00	 5.622213e-02	 1.342319e+01
 1.775764e+00	 8.458359e-02	 1.342540e+01
 1.774177e+00	 1.130994e-01	 1.344178e+01
 1.772117e+00	 1.417597e-01	 1.346426e+01
 1.788889e+00	 0.000000e+00	 1.337689e+01
 1.788667e+00	 2.819970e-02	 1.333326e+01
 1.787994e+00	 5.657352e-02	 1.331963e+01
 1.786863e+00	 8.511224e-02	 1.332770e+01
 1.785265e+00	 1.138063e-01	 1.334958e+01
 1.783193e+00	 1.426457e-01	 1.337771e+01
 1.800000e+00	 0.000000e+00	 1.328589e+01
 1.799776e+00	 2.837486e-02	 1.324817e+01
 1.799100e+00	 5.692490e-02	 1.323890e+01
 1.797962e+00	 8.564089e-02	 1.325025e+01
 1.796354e+00	 1.145132e-01	 1.327487e+01
 1.794268e+00	 1.435317e-01	 1.330575e+01
 1.811111e+00	 0.000000e+00	 1.322243e+01
 1.810886e+00	 2.855001e-02	 1.318850e+01
 1.810205e+00	 5.727629e-02	 1.318116e+01
 1.809060e+00	 8.616954e-02	 1.319311e+01
 1.807442e+00	 1.152200e-01	 1.321761e+01
 1.805344e+00	 1.444177e-01	 1.324828e+01
 1.822222e+00	 0.000000e+00	 1.318691e+01
 1.821996e+00	 2.872516e-02	 1.315453e+01
 1.821311e+00	 5.762768e-02	 1.314656e+01
 1.820159e+00	 8.669818e-02	 1.315635e+01
 1.818531e+00	 1.159269e-01	 1.317780e+01
 1.816420e+00	 1.453037e-01	 1.320522e+01
 1.833333e+00	 0.000000e+00	 1.317969e+01
 1.833106e+00	 2.890032e-02	 1.314651e+01
 1.832416e+00	 5.797907e-02	 1.313529e+01
 1.831257e+00	 8.722683e-02	 1.314003e+01
 1.829620e+00	 1.166338e-01	 1.315540e+01
 1.827495e+00	 1.461897e-01	 1.317645e+01
 1.772117e+00	 1.417597e-01	 1.346426e+01
 1.769578e+00	 1.705542e-01	 1.343357e+01
 1.766552e+00	 1.994723e-01	 1.342979e+01
 1.763032e+00	 2.285029e-01	 1.344625e+01
 1.759011e+00	 2.576346e-01	 1.347612e+01
 1.754482e+00	 2.868559e-01	 1.351241e+01
 1.783193e+00	 1.426457e-01	 1.337771e+01
 1.780638e+00	 1.716202e-01	 1.335604e+01
 1.777593e+00	 2.007190e-01	 1.335960e+01
 1.774051e+00	 2.299310e-01	 1.338209e+01
 1.770004e+00	 2.592449e-01	 1.341701e+01
 1.765448e+00	 2.886487e-01	 1.345760e+01
 1.794268e+00	 1.435317e-01	 1.330575e+01
 1.791697e+00	 1.726861e-01	 1.329001e+01
 1.788634e+00	 2.019657e-01	 1.329785e+01
 1.785069e+00	 2.313592e-01	 1.332338e+01
 1.780998e+00	 2.608551e-01	 1.336048e+01
 1.776413e+00	 2.904416e-01	 1.340265e+01
 1.805344e+00	 1.444177e-01	 1.324828e+01
 1.802757e+00	 1.737521e-01	 1.323534e+01
 1.799674e+00	 2.032124e-01	 1.324435e+01
 1.796088e+00	 2.327873e-01	 1.326990e+01
 1.791992e+00	 2.624653e-01	 1.330629e+01
 1.787379e+00	 2.922344e-01	 1.334735e+01
 1.816420e+00	 1.453037e-01	 1.320522e+01
 1.813817e+00	 1.748181e-01	 1.319187e+01
 1.810715e+00	 2.044591e-01	 1.319889e+01
 1.807107e+00	 2.342154e-01	 1.322144e+01
 1.802986e+00	 2.640755e-01	 1.325425e+01
 1.798344e+00	 2.940273e-01	 1.329151e+01
 1.827495e+00	 1.461897e-01	 1.317645e+01
 1.824877e+00	 1.758840e-01	 1.315944e+01
 1.821756e+00	 2.057058e-01	 1.316130e+01
 1.818126e+00	 2.356436e-01	 1.317779e+01
 1.813980e+00	 2.656857e-01	 1.320414e+01
 1.809310e+00	 2.958201e-01	 1.323496e+01
 1.754482e+00	 2.868559e-01	 1.351241e+01
 1.749440e+00	 3.161546e-01	 1.346456e+01
 1.743878e+00	 3.455182e-01	 1.346102e+01
 1.737791e+00	 3.749342e-01	 1.349483e+01
 1.731174e+00	 4.043894e-01	 1.352170e+01
 1.724021e+00	 4.338706e-01	 1.352164e+01
 1.765448e+00	 2.886487e-01	 1.345760e+01
 1.760374e+00	 3.181305e-01	 1.341636e+01
 1.754777e+00	 3.476777e-01	 1.341837e+01
 1.748652e+00	 3.772775e-01	 1.345578e+01
 1.741994e+00	 4.069169e-01	 1.348364e+01
 1.734797e+00	 4.365823e-01	 1.348694e+01
 1.776413e+00	 2.904416e-01	 1.340265e+01
 1.771308e+00	 3.201065e-01	 1.336591e+01
 1.765677e+00	 3.498372e-01	 1.337158e+01
 1.759514e+00	 3.796209e-01	 1.341068e+01
 1.752814e+00	 4.094443e-01	 1.343878e+01
 1.745572e+00	 4.392940e-01	 1.344500e+01
 1.787379e+00	 2.922344e-01	 1.334735e+01
 1.782242e+00	 3.220825e-01	 1.331304e+01
 1.776576e+00	 3.519967e-01	 1.332055e+01
 1.770375e+00	 3.819642e-01	 1.335961e+01
 1.763633e+00	 4.119717e-01	 1.338729e+01
 1.756347e+00	 4.420057e-01	 1.339608e+01
 1.798344e+00	 2.940273e-01	 1.329151e+01
 1.793176e+00	 3.240584e-01	 1.325762e+01
 1.787475e+00	 3.541562e-01	 1.326520e+01
 1.781236e+00	 3.843076e-01	 1.330266e+01
 1.774453e+00	 4.144992e-01	 1.332936e+01
 1.767122e+00	 4.447174e-01	 1.334046e+01
 1.809310e+00	 2.958201e-01	 1.323496e+01
 1.804110e+00	 3.260344e-01	 1.319952e+01
 1.798374e+00	 3.563157e-01	 1.320549e+01
 1.792097e+00	 3.866509e-01	 1.323996e+01
 1.785273e+00	 4.170266e-01	 1.326523e+01
 1.777897e+00	 4.474291e-01	 1.327846e+01
 1.724021e+00	 4.338706e-01	 1.352164e+01
 1.716330e+00	 4.633641e-01	 1.357625e+01
 1.708094e+00	 4.928561e-01	 1.360516e+01
 1.699312e+00	 5.223323e-01	 1.361229e+01
 1.689981e+00	 5.517785e-01	 1.360237e+01
 1.680096e+00	 5.811800e-01	 1.358117e+01
 1.734797e+00	 4.365823e-01	 1.348694e+01
 1.727057e+00	 4.662602e-01	 1.354000e+01
 1.718770e+00	 4.959364e-01	 1.356894e+01
 1.709933e+00	 5.255969e-01	 1.357720e+01
 1.700543e+00	 5.552271e-01	 1.356896e+01
 1.690597e+00	 5.848124e-01	 1.354942e+01
 1.745572e+00	 4.392940e-01	 1.344500e+01
 1.737784e+00	 4.691562e-01	 1.349618e+01
 1.729446e+00	 4.990168e-01	 1.352510e+01
 1.720554e+00	 5.288615e-01	 1.353470e+01
 1.711105e+00	 5.586757e-01	 1.352860e+01
 1.701098e+00	 5.884447e-01	 1.351141e+01
 1.756347e+00	 4.420057e-01	 1.339608e+01
 1.748511e+00	 4.720522e-01	 1.344513e+01
 1.740121e+00	 5.020971e-01	 1.347405e+01
 1.731175e+00	 5.321261e-01	 1.348527e+01
 1.721668e+00	 5.621243e-01	 1.348185e+01
 1.711598e+00	 5.920771e-01	 1.346776e+01
 1.767122e+00	 4.447174e-01	 1.334046e+01
 1.759238e+00	 4.749482e-01	 1.338722e+01
 1.750797e+00	 5.051775e-01	 1.341624e+01
 1.741795e+00	 5.353906e-01	 1.342943e+01
 1.732230e+00	 5.655730e-01	 1.342925e+01
 1.722099e+00	 5.957095e-01	 1.341908e+01
 1.777897e+00	 4.474291e-01	 1.327846e+01
 1.769965e+00	 4.778443e-01	 1.332284e+01
 1.761472e+00	 5.082578e-01	 1.335212e+01
 1.752416e+00	 5.386552e-01	 1.336767e+01
 1.742792e+00	 5.690216e-01	 1.337139e+01
 1.732599e+00	 5.993419e-01	 1.336600e+01
 1.680096e+00	 5.811800e-01	 1.358117e+01
 1.669658e+00	 6.105220e-01	 1.364198e+01
 1.658663e+00	 6.397895e-01	 1.367096e+01
 1.647112e+00	 6.689674e-01	 1.367878e+01
 1.635003e+00	 6.980404e-01	 1.367886e+01
 1.622336e+00	 7.269931e-01	 1.368792e+01
 1.690597e+00	 5.848124e-01	 1.354942e+01
 1.680093e+00	 6.143377e-01	 1.361010e+01
 1.669030e+00	 6.437882e-01	 1.363850e+01
 1.657406e+00	 6.731484e-01	 1.364448e+01
 1.645221e+00	 7.024031e-01	 1.364065e+01
 1.632476e+00	 7.315368e-01	 1.364282e+01
 1.701098e+00	 5.884447e-01	 1.351141e+01
 1.690528e+00	 6.181535e-01	 1.357272e+01
 1.679396e+00	 6.477869e-01	 1.360148e+01
 1.667700e+00	 6.773295e-01	 1.360677e+01
 1.655440e+00	 7.067659e-01	 1.360034e+01
 1.642615e+00	 7.360805e-01	 1.359709e+01
 1.711598e+00	 5.920771e-01	 1.346776e+01
 1.700964e+00	 6.219693e-01	 1.353050e+01
 1.689763e+00	 6.517855e-01	 1.356063e+01
 1.677995e+00	 6.815105e-01	 1.356643e+01
 1.665659e+00	 7.111286e-01	 1.355880e+01
 1.652755e+00	 7.406242e-01	 1.355169e+01
 1.722099e+00	 5.957095e-01	 1.341908e+01
 1.711399e+00	 6.257850e-01	 1.348412e+01
 1.700130e+00	 6.557842e-01	 1.351668e+01
 1.688289e+00	 6.856916e-01	 1.352425e+01
 1.675878e+00	 7.154914e-01	 1.351685e+01
 1.662895e+00	 7.451679e-01	 1.350771e+01
 1.732599e+00	 5.993419e-01	 1.336600e+01
 1.721834e+00	 6.296008e-01	 1.343423e+01
 1.710496e+00	 6.597829e-01	 1.347033e+01
 1.698584e+00	 6.898726e-01	 1.348099e+01
 1.686096e+00	 7.198541e-01	 1.347532e+01
 1.673034e+00	 7.497116e-01	 1.346630e+01
 1.622336e+00	 7.269931e-01	 1.368792e+01
 1.609113e+00	 7.558099e-01	 1.360542e+01
 1.595334e+00	 7.844754e-01	 1.356354e+01
 1.581002e+00	 8.129739e-01	 1.356940e+01
 1.566118e+00	 8.412898e-01	 1.362764e+01
 1.550685e+00	 8.694074e-01	 1.374058e+01
 1.632476e+00	 7.315368e-01	 1.364282e+01
 1.619170e+00	 7.605337e-01	 1.356848e+01
 1.605305e+00	 7.893784e-01	 1.353010e+01
 1.590883e+00	 8.180550e-01	 1.353435e+01
 1.575906e+00	 8.465479e-01	 1.358578e+01
 1.560377e+00	 8.748412e-01	 1.368671e+01
 1.642615e+00	 7.360805e-01	 1.359709e+01
 1.629227e+00	 7.652576e-01	 1.353181e+01
 1.615276e+00	 7.942814e-01	 1.349790e+01
 1.600764e+00	 8.231361e-01	 1.350155e+01
 1.585694e+00	 8.518059e-01	 1.354725e+01
 1.570069e+00	 8.802750e-01	 1.363729e+01
 1.652755e+00	 7.406242e-01	 1.355169e+01
 1.639284e+00	 7.699814e-01	 1.349652e+01
 1.625247e+00	 7.991843e-01	 1.346799e+01
 1.610646e+00	 8.282172e-01	 1.347200e+01
 1.595483e+00	 8.570640e-01	 1.351297e+01
 1.579761e+00	 8.857088e-01	 1.359319e+01
 1.662895e+00	 7.451679e-01	 1.350771e+01
 1.649341e+00	 7.747052e-01	 1.346361e+01
 1.635218e+00	 8.040873e-01	 1.344131e+01
 1.620527e+00	 8.332983e-01	 1.344658e+01
 1.605271e+00	 8.623220e-01	 1.348380e+01
 1.589452e+00	 8.911426e-01	 1.355520e+01
 1.673034e+00	 7.497116e-01	 1.346630e+01
 1.659398e+00	 7.794290e-01	 1.343400e+01
 1.645189e+00	 8.089903e-01	 1.341872e+01
 1.630408e+00	 8.383794e-01	 1.342611e+01
 1.615059e+00	 8.675801e-01	 1.346045e+01
 1.599144e+00	 8.965764e-01	 1.352402e+01
 1.550685e+00	 8.694074e-01	 1.374058e+01
 1.534707e+00	 8.973112e-01	 1.352312e+01
 1.518188e+00	 9.249856e-01	 1.336813e+01
 1.501133e+00	 9.524151e-01	 1.326902e+01
 1.483546e+00	 9.795844e-01	 1.321328e+01
 1.465433e+00	 1.006478e+00	 1.319218e+01
 1.560377e+00	 8.748412e-01	 1.368671e+01
 1.544299e+00	 9.029194e-01	 1.347220e+01
 1.527677e+00	 9.307667e-01	 1.332001e+01
 1.510515e+00	 9.583677e-01	 1.322373e+01
 1.492818e+00	 9.857069e-01	 1.317097e+01
 1.474592e+00	 1.012769e+00	 1.314431e+01
 1.570069e+00	 8.802750e-01	 1.363729e+01
 1.553891e+00	 9.085276e-01	 1.342780e+01
 1.537166e+00	 9.365479e-01	 1.328053e+01
 1.519897e+00	 9.643203e-01	 1.318923e+01
 1.502090e+00	 9.918293e-01	 1.314168e+01
 1.483751e+00	 1.019059e+00	 1.311844e+01
 1.579761e+00	 8.857088e-01	 1.359319e+01
 1.563483e+00	 9.141358e-01	 1.339075e+01
 1.546654e+00	 9.423291e-01	 1.325044e+01
 1.529279e+00	 9.702729e-01	 1.316624e+01
 1.511362e+00	 9.979517e-01	 1.312606e+01
 1.492910e+00	 1.025350e+00	 1.311059e+01
 1.589452e+00	 8.911426e-01	 1.355520e+01
 1.573075e+00	 9.197440e-01	 1.336177e+01
 1.556143e+00	 9.481102e-01	 1.323041e+01
 1.538661e+00	 9.762255e-01	 1.315533e+01
 1.520634e+00	 1.004074e+00	 1.312467e+01
 1.502069e+00	 1.031640e+00	 1.311919e+01
 1.599144e+00	 8.965764e-01	 1.352402e+01
 1.582667e+00	 9.253522e-01	 1.334148e+01
 1.565632e+00	 9.538914e-01	 1.322099e+01
 1.548043e+00	 9.821781e-01	 1.315703e+01
 1.529907e+00	 1.010196e+00	 1.313794e+01
 1.511228e+00	 1.037931e+00	 1.314464e+01
 1.465433e+00	 1.006478e+00	 1.319218e+01
 1.446802e+00	 1.033082e+00	 1.328307e+01
 1.427658e+00	 1.059380e+00	 1.330301e+01
 1.408009e+00	 1.085359e+00	 1.319279e+01
 1.387864e+00	 1.111003e+00	 1.289467e+01
 1.367231e+00	 1.136298e+00	 1.246713e+01
 1.474592e+00	 1.012769e+00	 1.314431e+01
 1.455844e+00	 1.039539e+00	 1.322123e+01
 1.436581e+00	 1.066001e+00	 1.323070e+01
 1.416810e+00	 1.092142e+00	 1.311073e+01
 1.396538e+00	 1.117946e+00	 1.280726e+01
 1.375776e+00	 1.143400e+00	 1.241821e+01
 1.483751e+00	 1.019059e+00	 1.311844e+01
 1.464887e+00	 1.045995e+00	 1.317961e+01
 1.445504e+00	 1.072622e+00	 1.317711e+01
 1.425610e+00	 1.098925e+00	 1.304635e+01
 1.405213e+00	 1.124890e+00	 1.274997e+01
 1.384321e+00	 1.150502e+00	 1.239655e+01
 1.492910e+00	 1.025350e+00	 1.311059e+01
 1.473929e+00	 1.052452e+00	 1.315969e+01
 1.454427e+00	 1.079244e+00	 1.314380e+01
 1.434410e+00	 1.105709e+00	 1.300135e+01
 1.413887e+00	 1.131834e+00	 1.272276e+01
 1.392866e+00	 1.157604e+00	 1.240226e+01
 1.502069e+00	 1.031640e+00	 1.311919e+01
 1.482972e+00	 1.058909e+00	 1.316264e+01
 1.463349e+00	 1.085865e+00	 1.313213e+01
 1.443210e+00	 1.112492e+00	 1.297745e+01
 1.422561e+00	 1.138778e+00	 1.272542e+01
 1.401412e+00	 1.164706e+00	 1.243525e+01
 1.511228e+00	 1.037931e+00	 1.314464e+01
 1.492014e+00	 1.065366e+00	 1.318562e+01
 1.472272e+00	 1.092486e+00	 1.314322e+01
 1.452010e+00	 1.119276e+00	 1.298232e+01
 1.431235e+00	 1.145721e+00	 1.275752e+01
 1.409957e+00	 1.171808e+00	 1.249528e+01
 1.367231e+00	 1.136298e+00	 1.246713e+01
 1.346118e+00	 1.161232e+00	 1.253435e+01
 1.324537e+00	 1.185789e+00	 1.250825e+01
 1.302496e+00	 1.209958e+00	 1.240639e+01
 1.280006e+00	 1.233726e+00	 1.224942e+01
 1.257079e+00	 1.257079e+00	 1.205907e+01
 1.375776e+00	 1.143400e+00	 1.241821e+01
 1.354532e+00	 1.168489e+00	 1.247921e+01
 1.332815e+00	 1.193201e+00	 1.244812e+01
 1.310636e+00	 1.217520e+00	 1.234174e+01
 1.288006e+00	 1.241436e+00	 1.218011e+01
 1.264935e+00	 1.264935e+00	 1.198453e+01
 1.384321e+00	 1.150502e+00	 1.239655e+01
 1.362945e+00	 1.175747e+00	 1.245192e+01
 1.341093e+00	 1.200612e+00	 1.241668e+01
 1.318777e+00	 1.225083e+00	 1.230681e+01
 1.296006e+00	 1.249147e+00	 1.214175e+01
 1.272792e+00	 1.272792e+00	 1.194232e+01
 1.392866e+00	 1.157604e+00	 1.240226e+01
 1.371358e+00	 1.183005e+00	 1.245269e+01
 1.349372e+00	 1.208023e+00	 1.241422e+01
 1.326917e+00	 1.232645e+00	 1.230198e+01
 1.304006e+00	 1.256858e+00	 1.213479e+01
 1.280649e+00	 1.280649e+00	 1.193299e+01
 1.401412e+00	 1.164706e+00	 1.243525e+01
 1.379771e+00	 1.190262e+00	 1.248153e+01
 1.357650e+00	 1.215434e+00	 1.244083e+01
 1.335058e+00	 1.240207e+00	 1.232743e+01
 1.312006e+00	 1.264569e+00	 1.215950e+01
 1.288506e+00	 1.288506e+00	 1.195691e+01
 1.409957e+00	 1.171808e+00	 1.249528e+01
 1.388185e+00	 1.197520e+00	 1.253828e+01
 1.365928e+00	 1.222845e+00	 1.249646e+01
 1.343199e+00	 1.247769e+00	 1.238317e+01
 1.320006e+00	 1.272279e+00	 1.221597e+01
 1.296362e+00	 1.296362e+00	 1.201424e+01
 1.257079e+00	 1.257079e+00	 1.205907e+01
 1.233726e+00	 1.280006e+00	 1.178292e+01
 1.209958e+00	 1.302496e+00	 1.155033e+01
 1.185789e+00	 1.324537e+00	 1.137484e+01
 1.161232e+00	 1.346118e+00	 1.126245e+01
 1.136298e+00	 1.367231e+00	 1.120950e+01
 1.264935e+00	 1.264935e+00	 1.198453e+01
 1.241436e+00	 1.288006e+00	 1.170950e+01
 1.217520e+00	 1.310636e+00	 1.147688e+01
 1.193201e+00	 1.332815e+00	 1.129952e+01
 1.168489e+00	 1.354532e+00	 1.118247e+01
 1.143400e+00	 1.375776e+00	 1.112077e+01
 1.272792e+00	 1.272792e+00	 1.194232e+01
 1.249147e+00	 1.296006e+00	 1.166982e+01
 1.225083e+00	 1.318777e+00	 1.143875e+01
 1.200612e+00	 1.341093e+00	 1.126128e+01
 1.175747e+00	 1.362945e+00	 1.114155e+01
 1.150502e+00	 1.384321e+00	 1.107328e+01
 1.280649e+00	 1.280649e+00	 1.193299e+01
 1.256858e+00	 1.304006e+00	 1.166452e+01
 1.232645e+00	 1.326917e+00	 1.143669e+01
 1.208023e+00	 1.349372e+00	 1.126102e+01
 1.183005e+00	 1.371358e+00	 1.114072e+01
 1.157604e+00	 1.392866e+00	 1.106822e+01
 1.288506e+00	 1.288506e+00	 1.195691e+01
 1.264569e+00	 1.312006e+00	 1.169405e+01
 1.240207e+00	 1.335058e+00	 1.147126e+01
 1.215434e+00	 1.357650e+00	 1.129942e+01
 1.190262e+00	 1.379771e+00	 1.118080e+01
 1.164706e+00	 1.401412e+00	 1.110656e+01
 1.296362e+00	 1.296362e+00	 1.201424e+01
 1.272279e+00	 1.320006e+00	 1.175869e+01
 1.247769e+00	 1.343199e+00	 1.154284e+01
 1.222845e+00	 1.365928e+00	 1.137694e+01
 1.197520e+00	 1.388185e+00	 1.126239e+01
 1.171808e+00	 1.409957e+00	 1.118905e+01
 1.136298e+00	 1.367231e+00	 1.120950e+01
 1.111003e+00	 1.387864e+00	 1.067475e+01
 1.085359e+00	 1.408009e+00	 1.035809e+01
 1.059380e+00	 1.427658e+00	 1.019820e+01
 1.033082e+00	 1.446802e+00	 1.010815e+01
 1.006478e+00	 1.465433e+00	 9.994405e+00
 1.143400e+00	 1.375776e+00	 1.112077e+01
 1.117946e+00	 1.396538e+00	 1.061822e+01
 1.092142e+00	 1.416810e+00	 1.031460e+01
 1.066001e+00	 1.436581e+00	 1.015411e+01
 1.039539e+00	 1.455844e+00	 1.004630e+01
 1.012769e+00	 1.474592e+00	 9.893385e+00
 1.150502e+00	 1.384321e+00	 1.107328e+01
 1.124890e+00	 1.405213e+00	 1.060215e+01
 1.098925e+00	 1.425610e+00	 1.031011e+01
 1.072622e+00	 1.445504e+00	 1.014614e+01
 1.045995e+00	 1.464887e+00	 1.001768e+01
 1.019059e+00	 1.483751e+00	 9.823631e+00
 1.157604e+00	 1.392866e+00	 1.106822e+01
 1.131834e+00	 1.413887e+00	 1.062797e+01
 1.105709e+00	 1.434410e+00	 1.034705e+01
 1.079244e+00	 1.454427e+00	 1.017703e+01
 1.052452e+00	 1.473929e+00	 1.002540e+01
 1.025350e+00	 1.492910e+00	 9.812886e+00
 1.164706e+00	 1.401412e+00	 1.110656e+01
 1.138778e+00	 1.422561e+00	 1.069691e+01
 1.112492e+00	 1.443210e+00	 1.042751e+01
 1.085865e+00	 1.463349e+00	 1.024928e+01
 1.058909e+00	 1.482972e+00	 1.007269e+01
 1.031640e+00	 1.502069e+00	 9.870016e+00
 1.171808e+00	 1.409957e+00	 1.118905e+01
 1.145721e+00	 1.431235e+00	 1.080995e+01
 1.119276e+00	 1.452010e+00	 1.055262e+01
 1.092486e+00	 1.472272e+00	 1.036513e+01
 1.065366e+00	 1.492014e+00	 1.017728e+01
 1.037931e+00	 1.511228e+00	 9.992721e+00
 1.006478e+00	 1.465433e+00	 9.994405e+00
 9.795844e-01	 1.483546e+00	 9.781155e+00
 9.524151e-01	 1.501133e+00	 9.482907e+00
 9.249856e-01	 1.518188e+00	 9.164503e+00
 8.973112e-01	 1.534707e+00	 8.833801e+00
 8.694074e-01	 1.550685e+00	 8.503894e+00
 1.012769e+00	 1.474592e+00	 9.893385e+00
 9.857069e-01	 1.492818e+00	 9.649853e+00
 9.583677e-01	 1.510515e+00	 9.370101e+00
 9.307667e-01	 1.527677e+00	 9.066119e+00
 9.029194e-01	 1.544299e+00	 8.745398e+00
 8.748412e-01	 1.560377e+00	 8.420809e+00
 1.019059e+00	 1.483751e+00	 9.823631e+00
 9.918293e-01	 1.502090e+00	 9.589054e+00
 9.643203e-01	 1.519897e+00	 9.325999e+00
 9.365479e-01	 1.537166e+00	 9.034762e+00
 9.085276e-01	 1.553891e+00	 8.722476e+00
 8.802750e-01	 1.570069e+00	 8.401791e+00
 1.025350e+00	 1.492910e+00	 9.812886e+00
 9.979517e-01	 1.511362e+00	 9.596672e+00
 9.702729e-01	 1.529279e+00	 9.348685e+00
 9.423291e-01	 1.546654e+00	 9.068684e+00
 9.141358e-01	 1.563483e+00	 8.763452e+00
 8.857088e-01	 1.579761e+00	 8.445425e+00
 1.031640e+00	 1.502069e+00	 9.870016e+00
 1.004074e+00	 1.520634e+00	 9.670595e+00
 9.762255e-01	 1.538661e+00	 9.436213e+00
 9.481102e-01	 1.556143e+00	 9.166101e+00
 9.197440e-01	 1.573075e+00	 8.866703e+00
 8.911426e-01	 1.589452e+00	 8.550251e+00
 1.037931e+00	 1.511228e+00	 9.992721e+00
 1.010196e+00	 1.529907e+00	 9.808690e+00
 9.821781e-01	 1.548043e+00	 9.586608e+00
 9.538914e-01	 1.565632e+00	 9.325195e+00
 9.253522e-01	 1.582667e+00	 9.030568e+00
 8.965764e-01	 1.599144e+00	 8.714766e+00
 8.694074e-01	 1.550685e+00	 8.503894e+00
 8.412898e-01	 1.566118e+00	 8.378478e+00
 8.129739e-01	 1.581002e+00	 8.166130e+00
 7.844754e-01	 1.595334e+00	 7.886980e+00
 7.558099e-01	 1.609113e+00	 7.562431e+00
 7.269931e-01	 1.622336e+00	 7.214294e+00
 8.748412e-01	 1.560377e+00	 8.420809e+00
 8.465479e-01	 1.575906e+00	 8.282259e+00
 8.180550e-01	 1.590883e+00	 8.063298e+00
 7.893784e-01	 1.605305e+00	 7.784146e+00
 7.605337e-01	 1.619170e+00	 7.466255e+00
 7.315368e-01	 1.632476e+00	 7.131341e+00
 8.802750e-01	 1.570069e+00	 8.401791e+00
 8.518059e-01	 1.585694e+00	 8.250554e+00
 8.231361e-01	 1.600764e+00	 8.025413e+00
 7.942814e-01	 1.615276e+00	 7.746669e+00
 7.652576e-01	 1.629227e+00	 7.435805e+00
 7.360805e-01	 1.642615e+00	 7.114528e+00
 8.857088e-01	 1.579761e+00	 8.445425e+00
 8.570640e-01	 1.595483e+00	 8.282084e+00
 8.282172e-01	 1.610646e+00	 8.051341e+00
 7.991843e-01	 1.625247e+00	 7.773567e+00
 7.699814e-01	 1.639284e+00	 7.470256e+00
 7.406242e-01	 1.652755e+00	 7.163085e+00
 8.911426e-01	 1.589452e+00	 8.550251e+00
 8.623220e-01	 1.605271e+00	 8.375524e+00
 8.332983e-01	 1.620527e+00	 8.139898e+00
 8.040873e-01	 1.635218e+00	 7.863803e+00
 7.747052e-01	 1.649341e+00	 7.568729e+00
 7.451679e-01	 1.662895e+00	 7.276255e+00
 8.965764e-01	 1.599144e+00	 8.714766e+00
 8.675801e-01	 1.615059e+00	 8.529500e+00
 8.383794e-01	 1.630408e+00	 8.289846e+00
 8.089903e-01	 1.645189e+00	 8.016287e+00
 7.794290e-01	 1.659398e+00	 7.730287e+00
 7.497116e-01	 1.673034e+00	 7.453306e+00
 7.269931e-01	 1.622336e+00	 7.214294e+00
 6.980404e-01	 1.635003e+00	 7.132653e+00
 6.689674e-01	 1.647112e+00	 6.926834e+00
 6.397895e-01	 1.658663e+00	 6.648187e+00
 6.105220e-01	 1.669658e+00	 6.344674e+00
 5.811800e-01	 1.680096e+00	 6.060399e+00
 7.315368e-01	 1.632476e+00	 7.131341e+00
 7.024031e-01	 1.645221e+00	 7.038561e+00
 6.731484e-01	 1.657406e+00	 6.826559e+00
 6.437882e-01	 1.669030e+00	 6.546517e+00
 6.143377e-01	 1.680093e+00	 6.245943e+00
 5.848124e-01	 1.690597e+00	 5.968217e+00
 7.360805e-01	 1.642615e+00	 7.114528e+00
 7.067659e-01	 1.655440e+00	 7.012344e+00
 6.773295e-01	 1.667700e+00	 6.795650e+00
 6.477869e-01	 1.679396e+00	 6.515394e+00
 6.181535e-01	 1.690528e+00	 6.218546e+00
 5.884447e-01	 1.701098e+00	 5.947656e+00
 7.406242e-01	 1.652755e+00	 7.163085e+00
 7.111286e-01	 1.665659e+00	 7.053403e+00
 6.815105e-01	 1.677995e+00	 6.833699e+00
 6.517855e-01	 1.689763e+00	 6.554621e+00
 6.219693e-01	 1.700964e+00	 6.262515e+00
 5.920771e-01	 1.711598e+00	 5.998996e+00
 7.451679e-01	 1.662895e+00	 7.276255e+00
 7.154914e-01	 1.675878e+00	 7.161072e+00
 6.856916e-01	 1.688289e+00	 6.940227e+00
 6.557842e-01	 1.700130e+00	 6.663927e+00
 6.257850e-01	 1.711399e+00	 6.377807e+00
 5.957095e-01	 1.722099e+00	 6.122440e+00
 7.497116e-01	 1.673034e+00	 7.453306e+00
 7.198541e-01	 1.686096e+00	 7.334626e+00
 6.898726e-01	 1.698584e+00	 7.114688e+00
 6.597829e-01	 1.710496e+00	 6.842969e+00
 6.296008e-01	 1.721834e+00	 6.564304e+00
 5.993419e-01	 1.732599e+00	 6.318111e+00
 5.811800e-01	 1.680096e+00	 6.060399e+00
 5.517785e-01	 1.689981e+00	 5.941444e+00
 5.223323e-01	 1.699312e+00	 5.750654e+00
 4.928561e-01	 1.708094e+00	 5.520055e+00
 4.633641e-01	 1.716330e+00	 5.278484e+00
 4.338706e-01	 1.724021e+00	 5.052034e+00
 5.848124e-01	 1.690597e+00	 5.968217e+00
 5.552271e-01	 1.700543e+00	 5.844144e+00
 5.255969e-01	 1.709933e+00	 5.654993e+00
 4.959364e-01	 1.718770e+00	 5.431380e+00
 4.662602e-01	 1.727057e+00	 5.200588e+00
 4.365823e-01	 1.734797e+00	 4.987062e+00
 5.884447e-01	 1.701098e+00	 5.947656e+00
 5.586757e-01	 1.711105e+00	 5.818539e+00
 5.288615e-01	 1.720554e+00	 5.630278e+00
 4.990168e-01	 1.729446e+00	 5.411934e+00
 4.691562e-01	 1.737784e+00	 5.189071e+00
 4.392940e-01	 1.745572e+00	 4.984321e+00
 5.920771e-01	 1.711598e+00	 5.998996e+00
 5.621243e-01	 1.721668e+00	 5.865161e+00
 5.321261e-01	 1.731175e+00	 5.677308e+00
 5.020971e-01	 1.740121e+00	 5.462784e+00
 4.720522e-01	 1.748511e+00	 5.245275e+00
 4.420057e-01	 1.756347e+00	 5.045421e+00
 5.957095e-01	 1.722099e+00	 6.122440e+00
 5.655730e-01	 1.732230e+00	 5.984466e+00
 5.353906e-01	 1.741795e+00	 5.796801e+00
 5.051775e-01	 1.750797e+00	 5.584922e+00
 4.749482e-01	 1.759238e+00	 5.370465e+00
 4.447174e-01	 1.767122e+00	 5.171899e+00
 5.993419e-01	 1.732599e+00	 6.318111e+00
 5.690216e-01	 1.742792e+00	 6.176828e+00
 5.386552e-01	 1.752416e+00	 5.989397e+00
 5.082578e-01	 1.761472e+00	 5.779263e+00
 4.778443e-01	 1.769965e+00	 5.565833e+00
 4.474291e-01	 1.777897e+00	 5.365221e+00
 4.338706e-01	 1.724021e+00	 5.052034e+00
 4.043894e-01	 1.731174e+00	 4.829549e+00
 3.749342e-01	 1.737791e+00	 4.670069e+00
 3.455182e-01	 1.743878e+00	 4.571064e+00
 3.161546e-01	 1.749440e+00	 4.463059e+00
 2.868559e-01	 1.754482e+00	 4.283444e+00
 4.365823e-01	 1.734797e+00	 4.987062e+00
 4.069169e-01	 1.741994e+00	 4.777078e+00
 3.772775e-01	 1.748652e+00	 4.630010e+00
 3.476777e-01	 1.754777e+00	 4.547096e+00
 3.181305e-01	 1.760374e+00	 4.460832e+00
 2.886487e-01	 1.765448e+00	 4.307146e+00
 4.392940e-01	 1.745572e+00	 4.984321e+00
 4.094443e-01	 1.752814e+00	 4.781535e+00
 3.796209e-01	 1.759514e+00	 4.639907e+00
 3.498372e-01	 1.765677e+00	 4.563426e+00
 3.201065e-01	 1.771308e+00	 4.487543e+00
 2.904416e-01	 1.776413e+00	 4.346831e+00
 4.420057e-01	 1.756347e+00	 5.045421e+00
 4.119717e-01	 1.763633e+00	 4.844779e+00
 3.819642e-01	 1.770375e+00	 4.701856e+00
 3.519967e-01	 1.776576e+00	 4.622424e+00
 3.220825e-01	 1.782242e+00	 4.545655e+00
 2.922344e-01	 1.787379e+00	 4.404951e+00
 4.447174e-01	 1.767122e+00	 5.171899e+00
 4.144992e-01	 1.774453e+00	 4.968604e+00
 3.843076e-01	 1.781236e+00	 4.817888e+00
 3.541562e-01	 1.787475e+00	 4.726408e+00
 3.240584e-01	 1.793176e+00	 4.637593e+00
 2.940273e-01	 1.798344e+00	 4.483940e+00
 4.474291e-01	 1.777897e+00	 5.365221e+00
 4.170266e-01	 1.785273e+00	 5.154734e+00
 3.866509e-01	 1.792097e+00	 4.989974e+00
 3.563157e-01	 1.798374e+00	 4.877644e+00
 3.260344e-01	 1.804110e+00	 4.765751e+00
 2.958201e-01	 1.809310e+00	 4.586211e+00
 2.868559e-01	 1.754482e+00	 4.283444e+00
 2.576346e-01	 1.759011e+00	 4.059329e+00
 2.285029e-01	 1.763032e+00	 3.923917e+00
 1.994723e-01	 1.766552e+00	 3.824643e+00
 1.705542e-01	 1.769578e+00	 3.713089e+00
 1.417597e-01	 1.772117e+00	 3.544553e+00
 2.886487e-01	 1.765448e+00	 4.307146e+00
 2.592449e-01	 1.770004e+00	 4.117682e+00
 2.299310e-01	 1.774051e+00	 4.016599e+00
 2.007190e-01	 1.777593e+00	 3.952525e+00
 1.716202e-01	 1.780638e+00	 3.878717e+00
 1.426457e-01	 1.783193e+00	 3.752506e+00
 2.904416e-01	 1.776413e+00	 4.346831e+00
 2.608551e-01	 1.780998e+00	 4.177344e+00
 2.313592e-01	 1.785069e+00	 4.094833e+00
 2.019657e-01	 1.788634e+00	 4.049390e+00
 1.726861e-01	 1.791697e+00	 3.996255e+00
 1.435317e-01	 1.794268e+00	 3.895115e+00
 2.922344e-01	 1.787379e+00	 4.404951e+00
 2.624653e-01	 1.791992e+00	 4.240679e+00
 2.327873e-01	 1.796088e+00	 4.160810e+00
 2.032124e-01	 1.799674e+00	 4.117194e+00
 1.737521e-01	 1.802757e+00	 4.067370e+00
 1.444177e-01	 1.805344e+00	 3.973719e+00
 2.940273e-01	 1.798344e+00	 4.483940e+00
 2.640755e-01	 1.802986e+00	 4.310038e+00
 2.342154e-01	 1.807107e+00	 4.216719e+00
 2.044591e-01	 1.810715e+00	 4.157894e+00
 1.748181e-01	 1.813817e+00	 4.093733e+00
 1.453037e-01	 1.816420e+00	 3.989662e+00
 2.958201e-01	 1.809310e+00	 4.586211e+00
 2.656857e-01	 1.813980e+00	 4.387764e+00
 2.356436e-01	 1.818126e+00	 4.264747e+00
 2.057058e-01	 1.821756e+00	 4.173452e+00
 1.758840e-01	 1.824877e+00	 4.077024e+00
 1.461897e-01	 1.827495e+00	 3.944301e+00
 1.417597e-01	 1.772117e+00	 3.544553e+00
 1.130994e-01	 1.774177e+00	 3.450279e+00
 8.458359e-02	 1.775764e+00	 3.406011e+00
 5.622213e-02	 1.776889e+00	 3.370004e+00
 2.802455e-02	 1.777557e+00	 3.300986e+00
 0.000000e+00	 1.777778e+00	 3.157458e+00
 1.426457e-01	 1.783193e+00	 3.752506e+00
 1.138063e-01	 1.785265e+00	 3.699069e+00
 8.511224e-02	 1.786863e+00	 3.690024e+00
 5.657352e-02	 1.787994e+00	 3.686233e+00
 2.819970e-02	 1.788667e+00	 3.648899e+00
 0.000000e+00	 1.788889e+00	 3.538740e+00
 1.435317e-01	 1.794268e+00	 3.895115e+00
 1.145132e-01	 1.796354e+00	 3.865475e+00
 8.564089e-02	 1.797962e+00	 3.875285e+00
 5.692490e-02	 1.799100e+00	 3.888354e+00
 2.837486e-02	 1.799776e+00	 3.868680e+00
 0.000000e+00	 1.800000e+00	 3.779510e+00
 1.444177e-01	 1.805344e+00	 3.973719e+00
 1.152200e-01	 1.807442e+00	 3.950482e+00
 8.616954e-02	 1.809060e+00	 3.962420e+00
 5.727629e-02	 1.810205e+00	 3.976631e+00
 2.855001e-02	 1.810886e+00	 3.960252e+00
 0.000000e+00	 1.811111e+00	 3.879381e+00
 1.453037e-01	 1.816420e+00	 3.989662e+00
 1.159269e-01	 1.818531e+00	 3.955086e+00
 8.669818e-02	 1.820159e+00	 3.952058e+00
 5.762768e-02	 1.821311e+00	 3.951334e+00
 2.872516e-02	 1.821996e+00	 3.923541e+00
 0.000000e+00	 1.822222e+00	 3.837971e+00
 1.461897e-01	 1.827495e+00	 3.944301e+00
 1.166338e-01	 1.829620e+00	 3.880290e+00
 8.722683e-02	 1.831257e+00	 3.844838e+00
 5.797907e-02	 1.832416e+00	 3.812738e+00
 2.890032e-02	 1.833106e+00	 3.758478e+00
 0.000000e+00	 1.833333e+00	 3.654896e+00
 1.833333e+00	 0.000000e+00	 1.317969e+01
 1.833106e+00	 2.890032e-02	 1.314651e+01
 1.832416e+00	 5.797907e-02	 1.313529e+01
 1.831257e+00	 8.722683e-02	 1.314003e+01
 1.829620e+00	 1.166338e-01	 1.315540e+01
 1.827495e+00	 1.461897e-01	 1.317645e+01
 1.844444e+00	 0.000000e+00	 1.311037e+01
 1.844215e+00	 2.907547e-02	 1.308163e+01
 1.843522e+00	 5.833046e-02	 1.307286e+01
 1.842356e+00	 8.775548e-02	 1.307883e+01
 1.840708e+00	 1.173407e-01	 1.309497e+01
 1.838571e+00	 1.470757e-01	 1.311717e+01
 1.855556e+00	 0.000000e+00	 1.306702e+01
 1.855325e+00	 2.925062e-02	 1.304042e+01
 1.854627e+00	 5.868185e-02	 1.303191e+01
 1.853454e+00	 8.828412e-02	 1.303667e+01
 1.851797e+00	 1.180475e-01	 1.305056e+01
 1.849647e+00	 1.479617e-01	 1.307046e+01
 1.866667e+00	 0.000000e+00	 1.301815e+01
 1.866435e+00	 2.942578e-02	 1.299378e+01
 1.865733e+00	 5.903323e-02	 1.298669e+01
 1.864553e+00	 8.881277e-02	 1.299245e+01
 1.862885e+00	 1.187544e-01	 1.300729e+01
 1.860723e+00	 1.488477e-01	 1.302792e+01
 1.877778e+00	 0.000000e+00	 1.295405e+01
 1.877544e+00	 2.960093e-02	 1.293208e+01
 1.876839e+00	 5.938462e-02	 1.292668e+01
 1.875651e+00	 8.934142e-02	 1.293382e+01
 1.873974e+00	 1.194613e-01	 1.295007e+01
 1.871798e+00	 1.497337e-01	 1.297249e+01
 1.888889e+00	 0.000000e+00	 1.287476e+01
 1.888654e+00	 2.977608e-02	 1.285538e+01
 1.887944e+00	 5.973601e-02	 1.285196e+01
 1.886750e+00	 8.987007e-02	 1.286086e+01
 1.885063e+00	 1.201681e-01	 1.287902e+01
 1.882874e+00	 1.506197e-01	 1.290382e+01
 1.827495e+00	 1.461897e-01	 1.317645e+01
 1.824877e+00	 1.758840e-01	 1.315944e+01
 1.821756e+00	 2.057058e-01	 1.316130e+01
 1.818126e+00	 2.356436e-01	 1.317779e+01
 1.813980e+00	 2.656857e-01	 1.320414e+01
 1.809310e+00	 2.958201e-01	 1.323496e+01
 1.838571e+00	 1.470757e-01	 1.311717e+01
 1.835937e+00	 1.769500e-01	 1.310437e+01
 1.832797e+00	 2.069525e-01	 1.310929e+01
 1.829145e+00	 2.370717e-01	 1.312829e+01
 1.824973e+00	 2.672959e-01	 1.315716e+01
 1.820275e+00	 2.976130e-01	 1.319088e+01
 1.849647e+00	 1.479617e-01	 1.307046e+01
 1.846997e+00	 1.780160e-01	 1.305822e+01
 1.843838e+00	 2.081992e-01	 1.306266e+01
 1.840164e+00	 2.384999e-01	 1.308083e+01
 1.835967e+00	 2.689062e-01	 1.310908e+01
 1.831241e+00	 2.994058e-01	 1.314285e+01
 1.860723e+00	 1.488477e-01	 1.302792e+01
 1.858057e+00	 1.790819e-01	 1.301746e+01
 1.854879e+00	 2.094459e-01	 1.302064e+01
 1.851183e+00	 2.399280e-01	 1.303528e+01
 1.846961e+00	 2.705164e-01	 1.305980e+01
 1.842206e+00	 3.011987e-01	 1.309081e+01
 1.871798e+00	 1.497337e-01	 1.297249e+01
 1.869116e+00	 1.801479e-01	 1.296587e+01
 1.865920e+00	 2.106926e-01	 1.297091e+01
 1.862202e+00	 2.413562e-01	 1.298563e+01
 1.857955e+00	 2.721266e-01	 1.300778e+01
 1.853172e+00	 3.029915e-01	 1.303469e+01
 1.882874e+00	 1.506197e-01	 1.290382e+01
 1.880176e+00	 1.812139e-01	 1.290153e+01
 1.876961e+00	 2.119393e-01	 1.290904e+01
 1.873221e+00	 2.427843e-01	 1.292458e+01
 1.868949e+00	 2.737368e-01	 1.294611e+01
 1.864137e+00	 3.047844e-01	 1.297113e+01
 1.809310e+00	 2.958201e-01	 1.323496e+01
 1.804110e+00	 3.260344e-01	 1.319952e+01
 1.798374e+00	 3.563157e-01	 1.320549e+01
 1.792097e+00	 3.866509e-01	 1.323996e+01
 1.785273e+00	 4.170266e-01	 1.326523e+01
 1.777897e+00	 4.474291e-01	 1.327846e+01
 1.820275e+00	 2.976130e-01	 1.319088e+01
 1.815044e+00	 3.280104e-01	 1.316286e+01
 1.809274e+00	 3.584752e-01	 1.317389e+01
 1.802958e+00	 3.889942e-01	 1.320977e+01
 1.796093e+00	 4.195541e-01	 1.323618e+01
 1.788672e+00	 4.501408e-01	 1.325172e+01
 1.831241e+00	 2.994058e-01	 1.314285e+01
 1.825978e+00	 3.299863e-01	 1.312051e+01
 1.820173e+00	 3.606347e-01	 1.313522e+01
 1.813820e+00	 3.913376e-01	 1.317164e+01
 1.806913e+00	 4.220815e-01	 1.319911e+01
 1.799447e+00	 4.528525e-01	 1.321716e+01
 1.842206e+00	 3.011987e-01	 1.309081e+01
 1.836912e+00	 3.319623e-01	 1.307247e+01
 1.831072e+00	 3.627941e-01	 1.308959e+01
 1.824681e+00	 3.936809e-01	 1.312585e+01
 1.817733e+00	 4.246089e-01	 1.315438e+01
 1.810223e+00	 4.555642e-01	 1.317523e+01
 1.853172e+00	 3.029915e-01	 1.303469e+01
 1.847846e+00	 3.339383e-01	 1.301878e+01
 1.841971e+00	 3.649536e-01	 1.303714e+01
 1.835542e+00	 3.960243e-01	 1.307270e+01
 1.828552e+00	 4.271364e-01	 1.310237e+01
 1.820998e+00	 4.582759e-01	 1.312636e+01
 1.864137e+00	 3.047844e-01	 1.297113e+01
 1.858780e+00	 3.359142e-01	 1.295908e+01
 1.852871e+00	 3.671131e-01	 1.297805e+01
 1.846403e+00	 3.983676e-01	 1.301254e+01
 1.839372e+00	 4.296638e-01	 1.304349e+01
 1.831773e+00	 4.609875e-01	 1.307102e+01
 1.777897e+00	 4.474291e-01	 1.327846e+01
 1.769965e+00	 4.778443e-01	 1.332284e+01
 1.761472e+00	 5.082578e-01	 1.335212e+01
 1.752416e+00	 5.386552e-01	 1.336767e+01
 1.742792e+00	 5.690216e-01	 1.337139e+01
 1.732599e+00	 5.993419e-01	 1.336600e+01
 1.788672e+00	 4.501408e-01	 1.325172e+01
 1.780692e+00	 4.807403e-01	 1.329217e+01
 1.772148e+00	 5.113382e-01	 1.331970e+01
 1.763037e+00	 5.419198e-01	 1.333513e+01
 1.753355e+00	 5.724702e-01	 1.333975e+01
 1.743100e+00	 6.029742e-01	 1.333568e+01
 1.799447e+00	 4.528525e-01	 1.321716e+01
 1.791419e+00	 4.836363e-01	 1.325378e+01
 1.782824e+00	 5.144185e-01	 1.327989e+01
 1.773657e+00	 5.451844e-01	 1.329575e+01
 1.763917e+00	 5.759188e-01	 1.330208e+01
 1.753601e+00	 6.066066e-01	 1.330032e+01
 1.810223e+00	 4.555642e-01	 1.317523e+01
 1.802146e+00	 4.865323e-01	 1.320817e+01
 1.793499e+00	 5.174989e-01	 1.323324e+01
 1.784278e+00	 5.484490e-01	 1.325013e+01
 1.774480e+00	 5.793674e-01	 1.325897e+01
 1.764101e+00	 6.102390e-01	 1.326056e+01
 1.820998e+00	 4.582759e-01	 1.312636e+01
 1.812873e+00	 4.894284e-01	 1.315583e+01
 1.804175e+00	 5.205792e-01	 1.318028e+01
 1.794899e+00	 5.517135e-01	 1.319885e+01
 1.785042e+00	 5.828160e-01	 1.321103e+01
 1.774602e+00	 6.138714e-01	 1.321702e+01
 1.831773e+00	 4.609875e-01	 1.307102e+01
 1.823600e+00	 4.923244e-01	 1.309728e+01
 1.814850e+00	 5.236596e-01	 1.312159e+01
 1.805519e+00	 5.549781e-01	 1.314248e+01
 1.795604e+00	 5.862647e-01	 1.315887e+01
 1.785102e+00	 6.175037e-01	 1.317031e+01
 1.732599e+00	 5.993419e-01	 1.336600e+01
 1.721834e+00	 6.296008e-01	 1.343423e+01
 1.710496e+00	 6.597829e-01	 1.347033e+01
 1.698584e+00	 6.898726e-01	 1.348099e+01
 1.686096e+00	 7.198541e-01	 1.347532e+01
 1.673034e+00	 7.497116e-01	 1.346630e+01
 1.743100e+00	 6.029742e-01	 1.333568e+01
 1.732270e+00	 6.334165e-01	 1.340298e+01
 1.720863e+00	 6.637816e-01	 1.343805e+01
 1.708878e+00	 6.940537e-01	 1.344675e+01
 1.696315e+00	 7.242169e-01	 1.343732e+01
 1.683174e+00	 7.542553e-01	 1.342301e+01
 1.753601e+00	 6.066066e-01	 1.330032e+01
 1.742705e+00	 6.372323e-01	 1.336769e+01
 1.731230e+00	 6.677803e-01	 1.340291e+01
 1.719173e+00	 6.982347e-01	 1.341105e+01
 1.706534e+00	 7.285796e-01	 1.339946e+01
 1.693313e+00	 7.587990e-01	 1.338219e+01
 1.764101e+00	 6.102390e-01	 1.326056e+01
 1.753141e+00	 6.410481e-01	 1.332900e+01
 1.741596e+00	 6.717790e-01	 1.336560e+01
 1.729467e+00	 7.024158e-01	 1.337460e+01
 1.716753e+00	 7.329424e-01	 1.336248e+01
 1.703453e+00	 7.633427e-01	 1.334457e+01
 1.774602e+00	 6.138714e-01	 1.321702e+01
 1.763576e+00	 6.448638e-01	 1.328756e+01
 1.751963e+00	 6.757776e-01	 1.332677e+01
 1.739762e+00	 7.065968e-01	 1.333807e+01
 1.726971e+00	 7.373052e-01	 1.332706e+01
 1.713593e+00	 7.678864e-01	 1.331078e+01
 1.785102e+00	 6.175037e-01	 1.317031e+01
 1.774011e+00	 6.486796e-01	 1.324399e+01
 1.762330e+00	 6.797763e-01	 1.328704e+01
 1.750056e+00	 7.107779e-01	 1.330208e+01
 1.737190e+00	 7.416679e-01	 1.329385e+01
 1.723732e+00	 7.724301e-01	 1.328137e+01
 1.673034e+00	 7.497116e-01	 1.346630e+01
 1.659398e+00	 7.794290e-01	 1.343400e+01
 1.645189e+00	 8.089903e-01	 1.341872e+01
 1.630408e+00	 8.383794e-01	 1.342611e+01
 1.615059e+00	 8.675801e-01	 1.346045e+01
 1.599144e+00	 8.965764e-01	 1.352402e+01
 1.683174e+00	 7.542553e-01	 1.342301e+01
 1.669455e+00	 7.841528e-01	 1.339572e+01
 1.655160e+00	 8.138933e-01	 1.338185e+01
 1.640290e+00	 8.434605e-01	 1.338693e+01
 1.624847e+00	 8.728382e-01	 1.341520e+01
 1.608836e+00	 9.020102e-01	 1.346894e+01
 1.693313e+00	 7.587990e-01	 1.338219e+01
 1.679512e+00	 7.888766e-01	 1.336059e+01
 1.665130e+00	 8.187962e-01	 1.334887e+01
 1.650171e+00	 8.485415e-01	 1.335242e+01
 1.634636e+00	 8.780962e-01	 1.337544e+01
 1.618528e+00	 9.074440e-01	 1.342025e+01
 1.703453e+00	 7.633427e-01	 1.334457e+01
 1.689569e+00	 7.936004e-01	 1.332926e+01
 1.675101e+00	 8.236992e-01	 1.332037e+01
 1.660052e+00	 8.536226e-01	 1.332312e+01
 1.644424e+00	 8.833543e-01	 1.334169e+01
 1.628219e+00	 9.128778e-01	 1.337840e+01
 1.713593e+00	 7.678864e-01	 1.331078e+01
 1.699626e+00	 7.983242e-01	 1.330232e+01
 1.685072e+00	 8.286022e-01	 1.329686e+01
 1.669933e+00	 8.587037e-01	 1.329951e+01
 1.654212e+00	 8.886124e-01	 1.331435e+01
 1.637911e+00	 9.183116e-01	 1.334376e+01
 1.723732e+00	 7.724301e-01	 1.328137e+01
 1.709683e+00	 8.030481e-01	 1.328024e+01
 1.695043e+00	 8.335051e-01	 1.327879e+01
 1.679815e+00	 8.637848e-01	 1.328196e+01
 1.664000e+00	 8.938704e-01	 1.329378e+01
 1.647603e+00	 9.237454e-01	 1.331664e+01
 1.599144e+00	 8.965764e-01	 1.352402e+01
 1.582667e+00	 9.253522e-01	 1.334148e+01
 1.565632e+00	 9.538914e-01	 1.322099e+01
 1.548043e+00	 9.821781e-01	 1.315703e+01
 1.529907e+00	 1.010196e+00	 1.313794e+01
 1.511228e+00	 1.037931e+00	 1.314464e+01
 1.608836e+00	 9.020102e-01	 1.346894e+01
 1.592259e+00	 9.309604e-01	 1.329488e+01
 1.575120e+00	 9.596725e-01	 1.317971e+01
 1.557425e+00	 9.881307e-01	 1.311805e+01
 1.539179e+00	 1.016319e+00	 1.309835e+01
 1.520387e+00	 1.044221e+00	 1.310164e+01
 1.618528e+00	 9.074440e-01	 1.342025e+01
 1.601851e+00	 9.365686e-01	 1.325574e+01
 1.584609e+00	 9.654537e-01	 1.314703e+01
 1.566807e+00	 9.940833e-01	 1.308890e+01
 1.548451e+00	 1.022441e+00	 1.306997e+01
 1.529546e+00	 1.050512e+00	 1.307135e+01
 1.628219e+00	 9.128778e-01	 1.337840e+01
 1.611443e+00	 9.421768e-01	 1.322447e+01
 1.594098e+00	 9.712349e-01	 1.312331e+01
 1.576189e+00	 1.000036e+00	 1.306991e+01
 1.557723e+00	 1.028564e+00	 1.305306e+01
 1.538705e+00	 1.056802e+00	 1.305401e+01
 1.637911e+00	 9.183116e-01	 1.334376e+01
 1.621035e+00	 9.477849e-01	 1.320138e+01
 1.603586e+00	 9.770160e-01	 1.310883e+01
 1.585571e+00	 1.005988e+00	 1.306130e+01
 1.566995e+00	 1.034686e+00	 1.304780e+01
 1.547864e+00	 1.063093e+00	 1.304975e+01
 1.647603e+00	 9.237454e-01	 1.331664e+01
 1.630626e+00	 9.533931e-01	 1.318673e+01
 1.613075e+00	 9.827972e-01	 1.310379e+01
 1.594953e+00	 1.011941e+00	 1.306323e+01
 1.576267e+00	 1.040808e+00	 1.305430e+01
 1.557023e+00	 1.069383e+00	 1.305862e+01
 1.511228e+00	 1.037931e+00	 1.314464e+01
 1.492014e+00	 1.065366e+00	 1.318562e+01
 1.472272e+00	 1.092486e+00	 1.314322e+01
 1.452010e+00	 1.119276e+00	 1.298232e+01
 1.431235e+00	 1.145721e+00	 1.275752e+01
 1.409957e+00	 1.171808e+00	 1.249528e+01
 1.520387e+00	 1.044221e+00	 1.310164e+01
 1.501057e+00	 1.071822e+00	 1.312406e+01
 1.481195e+00	 1.099107e+00	 1.306080e+01
 1.460810e+00	 1.126059e+00	 1.289040e+01
 1.439909e+00	 1.152665e+00	 1.268239e+01
 1.418502e+00	 1.178909e+00	 1.244161e+01
 1.529546e+00	 1.050512e+00	 1.307135e+01
 1.510099e+00	 1.078279e+00	 1.307764e+01
 1.490118e+00	 1.105728e+00	 1.299842e+01
 1.469610e+00	 1.132843e+00	 1.282822e+01
 1.448583e+00	 1.159609e+00	 1.263570e+01
 1.427047e+00	 1.186011e+00	 1.241543e+01
 1.538705e+00	 1.056802e+00	 1.305401e+01
 1.519142e+00	 1.084736e+00	 1.304651e+01
 1.499041e+00	 1.112349e+00	 1.295400e+01
 1.478410e+00	 1.139626e+00	 1.279474e+01
 1.457257e+00	 1.166553e+00	 1.261657e+01
 1.435592e+00	 1.193113e+00	 1.241597e+01
 1.547864e+00	 1.063093e+00	 1.304975e+01
 1.528184e+00	 1.091193e+00	 1.303074e+01
 1.507964e+00	 1.118970e+00	 1.293142e+01
 1.487210e+00	 1.146410e+00	 1.278809e+01
 1.465932e+00	 1.173496e+00	 1.262397e+01
 1.444138e+00	 1.200215e+00	 1.244237e+01
 1.557023e+00	 1.069383e+00	 1.305862e+01
 1.537227e+00	 1.097650e+00	 1.303034e+01
 1.516887e+00	 1.125591e+00	 1.293157e+01
 1.496010e+00	 1.153193e+00	 1.280457e+01
 1.474606e+00	 1.180440e+00	 1.265675e+01
 1.452683e+00	 1.207317e+00	 1.249361e+01
 1.409957e+00	 1.171808e+00	 1.249528e+01
 1.388185e+00	 1.197520e+00	 1.253828e+01
 1.365928e+00	 1.222845e+00	 1.249646e+01
 1.343199e+00	 1.247769e+00	 1.238317e+01
 1.320006e+00	 1.272279e+00	 1.221597e+01
 1.296362e+00	 1.296362e+00	 1.201424e+01
 1.418502e+00	 1.178909e+00	 1.244161e+01
 1.396598e+00	 1.204778e+00	 1.247880e+01
 1.374207e+00	 1.230256e+00	 1.243280e+01
 1.351339e+00	 1.255332e+00	 1.231597e+01
 1.328006e+00	 1.279990e+00	 1.214510e+01
 1.304219e+00	 1.304219e+00	 1.193905e+01
 1.427047e+00	 1.186011e+00	 1.241543e+01
 1.405011e+00	 1.212036e+00	 1.244737e+01
 1.382485e+00	 1.237668e+00	 1.239799e+01
 1.359480e+00	 1.262894e+00	 1.227857e+01
 1.336006e+00	 1.287701e+00	 1.210520e+01
 1.312076e+00	 1.312076e+00	 1.189617e+01
 1.435592e+00	 1.193113e+00	 1.241597e+01
 1.413424e+00	 1.219293e+00	 1.244335e+01
 1.390763e+00	 1.245079e+00	 1.239145e+01
 1.367620e+00	 1.270456e+00	 1.227053e+01
 1.344006e+00	 1.295412e+00	 1.209589e+01
 1.319933e+00	 1.319933e+00	 1.188533e+01
 1.444138e+00	 1.200215e+00	 1.244237e+01
 1.421838e+00	 1.226551e+00	 1.246596e+01
 1.399042e+00	 1.252490e+00	 1.241253e+01
 1.375761e+00	 1.278018e+00	 1.229125e+01
 1.352006e+00	 1.303123e+00	 1.211667e+01
 1.327789e+00	 1.327789e+00	 1.190608e+01
 1.452683e+00	 1.207317e+00	 1.249361e+01
 1.430251e+00	 1.233809e+00	 1.251431e+01
 1.407320e+00	 1.259901e+00	 1.246043e+01
 1.383902e+00	 1.285581e+00	 1.234002e+01
 1.360006e+00	 1.310833e+00	 1.216690e+01
 1.335646e+00	 1.335646e+00	 1.195785e+01
 1.296362e+00	 1.296362e+00	 1.201424e+01
 1.272279e+00	 1.320006e+00	 1.175869e+01
 1.247769e+00	 1.343199e+00	 1.154284e+01
 1.222845e+00	 1.365928e+00	 1.137694e+01
 1.197520e+00	 1.388185e+00	 1.126239e+01
 1.171808e+00	 1.409957e+00	 1.118905e+01
 1.304219e+00	 1.304219e+00	 1.193905e+01
 1.279990e+00	 1.328006e+00	 1.168463e+01
 1.255332e+00	 1.351339e+00	 1.146851e+01
 1.230256e+00	 1.374207e+00	 1.130030e+01
 1.204778e+00	 1.396598e+00	 1.118050e+01
 1.178909e+00	 1.418502e+00	 1.109769e+01
 1.312076e+00	 1.312076e+00	 1.189617e+01
 1.287701e+00	 1.336006e+00	 1.164445e+01
 1.262894e+00	 1.359480e+00	 1.142987e+01
 1.237668e+00	 1.382485e+00	 1.126144e+01
 1.212036e+00	 1.405011e+00	 1.113876e+01
 1.186011e+00	 1.427047e+00	 1.104916e+01
 1.319933e+00	 1.319933e+00	 1.188533e+01
 1.295412e+00	 1.344006e+00	 1.163795e+01
 1.270456e+00	 1.367620e+00	 1.142680e+01
 1.245079e+00	 1.390763e+00	 1.126031e+01
 1.219293e+00	 1.413424e+00	 1.113724e+01
 1.193113e+00	 1.435592e+00	 1.104369e+01
 1.327789e+00	 1.327789e+00	 1.190608e+01
 1.303123e+00	 1.352006e+00	 1.166477e+01
 1.278018e+00	 1.375761e+00	 1.145902e+01
 1.252490e+00	 1.399042e+00	 1.129673e+01
 1.226551e+00	 1.421838e+00	 1.117587e+01
 1.200215e+00	 1.444138e+00	 1.108129e+01
 1.335646e+00	 1.335646e+00	 1.195785e+01
 1.310833e+00	 1.360006e+00	 1.172441e+01
 1.285581e+00	 1.383902e+00	 1.152611e+01
 1.259901e+00	 1.407320e+00	 1.137036e+01
 1.233809e+00	 1.430251e+00	 1.125437e+01
 1.207317e+00	 1.452683e+00	 1.116184e+01
 1.171808e+00	 1.409957e+00	 1.118905e+01
 1.145721e+00	 1.431235e+00	 1.080995e+01
 1.119276e+00	 1.452010e+00	 1.055262e+01
 1.092486e+00	 1.472272e+00	 1.036513e+01
 1.065366e+00	 1.492014e+00	 1.017728e+01
 1.037931e+00	 1.511228e+00	 9.992721e+00
 1.178909e+00	 1.418502e+00	 1.109769e+01
 1.152665e+00	 1.439909e+00	 1.073538e+01
 1.126059e+00	 1.460810e+00	 1.047645e+01
 1.099107e+00	 1.481195e+00	 1.026521e+01
 1.071822e+00	 1.501057e+00	 1.006989e+01
 1.044221e+00	 1.520387e+00	 9.887187e+00
 1.186011e+00	 1.427047e+00	 1.104916e+01
 1.159609e+00	 1.448583e+00	 1.070412e+01
 1.132843e+00	 1.469610e+00	 1.044448e+01
 1.105728e+00	 1.490118e+00	 1.021714e+01
 1.078279e+00	 1.510099e+00	 1.002246e+01
 1.050512e+00	 1.529546e+00	 9.840847e+00
 1.193113e+00	 1.435592e+00	 1.104369e+01
 1.166553e+00	 1.457257e+00	 1.071657e+01
 1.139626e+00	 1.478410e+00	 1.045736e+01
 1.112349e+00	 1.499041e+00	 1.022721e+01
 1.084736e+00	 1.519142e+00	 1.003254e+01
 1.056802e+00	 1.538705e+00	 9.851406e+00
 1.200215e+00	 1.444138e+00	 1.108129e+01
 1.173496e+00	 1.465932e+00	 1.077296e+01
 1.146410e+00	 1.487210e+00	 1.051691e+01
 1.118970e+00	 1.507964e+00	 1.029231e+01
 1.091193e+00	 1.528184e+00	 1.009770e+01
 1.063093e+00	 1.547864e+00	 9.916564e+00
 1.207317e+00	 1.452683e+00	 1.116184e+01
 1.180440e+00	 1.474606e+00	 1.087331e+01
 1.153193e+00	 1.496010e+00	 1.062674e+01
 1.125591e+00	 1.516887e+00	 1.040931e+01
 1.097650e+00	 1.537227e+00	 1.021549e+01
 1.069383e+00	 1.557023e+00	 1.003402e+01
 1.037931e+00	 1.511228e+00	 9.992721e+00
 1.010196e+00	 1.529907e+00	 9.808690e+00
 9.821781e-01	 1.548043e+00	 9.586608e+00
 9.538914e-01	 1.565632e+00	 9.325195e+00
 9.253522e-01	 1.582667e+00	 9.030568e+00
 8.965764e-01	 1.599144e+00	 8.714766e+00
 1.044221e+00	 1.520387e+00	 9.887187e+00
 1.016319e+00	 1.539179e+00	 9.704615e+00
 9.881307e-01	 1.557425e+00	 9.485581e+00
 9.596725e-01	 1.575120e+00	 9.228430e+00
 9.309604e-01	 1.592259e+00	 8.939077e+00
 9.020102e-01	 1.608836e+00	 8.629473e+00
 1.050512e+00	 1.529546e+00	 9.840847e+00
 1.022441e+00	 1.548451e+00	 9.659580e+00
 9.940833e-01	 1.566807e+00	 9.443472e+00
 9.654537e-01	 1.584609e+00	 9.190514e+00
 9.365686e-01	 1.601851e+00	 8.906434e+00
 9.074440e-01	 1.618528e+00	 8.603109e+00
 1.056802e+00	 1.538705e+00	 9.851406e+00
 1.028564e+00	 1.557723e+00	 9.671419e+00
 1.000036e+00	 1.576189e+00	 9.458243e+00
 9.712349e-01	 1.594098e+00	 9.209534e+00
 9.421768e-01	 1.611443e+00	 8.930852e+00
 9.128778e-01	 1.628219e+00	 8.634018e+00
 1.063093e+00	 1.547864e+00	 9.916564e+00
 1.034686e+00	 1.566995e+00	 9.737959e+00
 1.005988e+00	 1.585571e+00	 9.527845e+00
 9.770160e-01	 1.603586e+00	 9.283560e+00
 9.477849e-01	 1.621035e+00	 9.010524e+00
 9.183116e-01	 1.637911e+00	 8.720515e+00
 1.069383e+00	 1.557023e+00	 1.003402e+01
 1.040808e+00	 1.576267e+00	 9.857025e+00
 1.011941e+00	 1.594953e+00	 9.650215e+00
 9.827972e-01	 1.613075e+00	 9.410647e+00
 9.533931e-01	 1.630626e+00	 9.143617e+00
 9.237454e-01	 1.647603e+00	 8.860888e+00
 8.965764e-01	 1.599144e+00	 8.714766e+00
 8.675801e-01	 1.615059e+00	 8.529500e+00
 8.383794e-01	 1.630408e+00	 8.289846e+00
 8.089903e-01	 1.645189e+00	 8.016287e+00
 7.794290e-01	 1.659398e+00	 7.730287e+00
 7.497116e-01	 1.673034e+00	 7.453306e+00
 9.020102e-01	 1.608836e+00	 8.629473e+00
 8.728382e-01	 1.624847e+00	 8.440704e+00
 8.434605e-01	 1.640290e+00	 8.200078e+00
 8.138933e-01	 1.655160e+00	 7.928025e+00
 7.841528e-01	 1.669455e+00	 7.645892e+00
 7.542553e-01	 1.683174e+00	 7.374922e+00
 9.074440e-01	 1.618528e+00	 8.603109e+00
 8.780962e-01	 1.634636e+00	 8.411102e+00
 8.485415e-01	 1.650171e+00	 8.169841e+00
 8.187962e-01	 1.665130e+00	 7.899702e+00
 7.888766e-01	 1.679512e+00	 7.621899e+00
 7.587990e-01	 1.693313e+00	 7.357433e+00
 9.128778e-01	 1.628219e+00	 8.634018e+00
 8.833543e-01	 1.644424e+00	 8.439170e+00
 8.536226e-01	 1.660052e+00	 8.197754e+00
 8.236992e-01	 1.675101e+00	 7.930086e+00
 7.936004e-01	 1.689569e+00	 7.657231e+00
 7.633427e-01	 1.703453e+00	 7.399929e+00
 9.183116e-01	 1.637911e+00	 8.720515e+00
 8.886124e-01	 1.654212e+00	 8.523351e+00
 8.587037e-01	 1.669933e+00	 8.282394e+00
 8.286022e-01	 1.685072e+00	 8.017896e+00
 7.983242e-01	 1.699626e+00	 7.750765e+00
 7.678864e-01	 1.713593e+00	 7.501451e+00
 9.237454e-01	 1.647603e+00	 8.860888e+00
 8.938704e-01	 1.664000e+00	 8.662056e+00
 8.637848e-01	 1.679815e+00	 8.422303e+00
 8.335051e-01	 1.695043e+00	 8.161816e+00
 8.030481e-01	 1.709683e+00	 7.901331e+00
 7.724301e-01	 1.723732e+00	 7.660989e+00
 7.497116e-01	 1.673034e+00	 7.453306e+00
 7.198541e-01	 1.686096e+00	 7.334626e+00
 6.898726e-01	 1.698584e+00	 7.114688e+00
 6.597829e-01	 1.710496e+00	 6.842969e+00
 6.296008e-01	 1.721834e+00	 6.564304e+00
 5.993419e-01	 1.732599e+00	 6.318111e+00
 7.542553e-01	 1.683174e+00	 7.374922e+00
 7.242169e-01	 1.696315e+00	 7.243283e+00
 6.940537e-01	 1.708878e+00	 7.016233e+00
 6.637816e-01	 1.720863e+00	 6.742160e+00
 6.334165e-01	 1.732270e+00	 6.465033e+00
 6.029742e-01	 1.743100e+00	 6.223028e+00
 7.587990e-01	 1.693313e+00	 7.357433e+00
 7.285796e-01	 1.706534e+00	 7.215193e+00
 6.982347e-01	 1.719173e+00	 6.983675e+00
 6.677803e-01	 1.731230e+00	 6.709678e+00
 6.372323e-01	 1.742705e+00	 6.436215e+00
 6.066066e-01	 1.753601e+00	 6.200106e+00
 7.633427e-01	 1.703453e+00	 7.399929e+00
 7.329424e-01	 1.716753e+00	 7.249485e+00
 7.024158e-01	 1.729467e+00	 7.016297e+00
 6.717790e-01	 1.741596e+00	 6.744990e+00
 6.410481e-01	 1.753141e+00	 6.477527e+00
 6.102390e-01	 1.764101e+00	 6.249252e+00
 7.678864e-01	 1.713593e+00	 7.501451e+00
 7.373052e-01	 1.726971e+00	 7.345236e+00
 7.065968e-01	 1.739762e+00	 7.113327e+00
 6.757776e-01	 1.751963e+00	 6.847501e+00
 6.448638e-01	 1.763576e+00	 6.588577e+00
 6.138714e-01	 1.774602e+00	 6.370303e+00
 7.724301e-01	 1.723732e+00	 7.660989e+00
 7.416679e-01	 1.737190e+00	 7.501482e+00
 7.107779e-01	 1.750056e+00	 7.273941e+00
 6.797763e-01	 1.762330e+00	 7.016559e+00
 6.486796e-01	 1.774011e+00	 6.768909e+00
 6.175037e-01	 1.785102e+00	 6.563028e+00
 5.993419e-01	 1.732599e+00	 6.318111e+00
 5.690216e-01	 1.742792e+00	 6.176828e+00
 5.386552e-01	 1.752416e+00	 5.989397e+00
 5.082578e-01	 1.761472e+00	 5.779263e+00
 4.778443e-01	 1.769965e+00	 5.565833e+00
 4.474291e-01	 1.777897e+00	 5.365221e+00
 6.029742e-01	 1.743100e+00	 6.223028e+00
 5.724702e-01	 1.753355e+00	 6.075461e+00
 5.419198e-01	 1.763037e+00	 5.887507e+00
 5.113382e-01	 1.772148e+00	 5.680401e+00
 4.807403e-01	 1.780692e+00	 5.471122e+00
 4.501408e-01	 1.788672e+00	 5.273211e+00
 6.066066e-01	 1.753601e+00	 6.200106e+00
 5.759188e-01	 1.763917e+00	 6.047801e+00
 5.451844e-01	 1.773657e+00	 5.860080e+00
 5.144185e-01	 1.782824e+00	 5.655795e+00
 4.836363e-01	 1.791419e+00	 5.449312e+00
 4.528525e-01	 1.799447e+00	 5.251401e+00
 6.102390e-01	 1.764101e+00	 6.249252e+00
 5.793674e-01	 1.774480e+00	 6.093999e+00
 5.484490e-01	 1.784278e+00	 5.907527e+00
 5.174989e-01	 1.793499e+00	 5.706128e+00
 4.865323e-01	 1.802146e+00	 5.501367e+00
 4.555642e-01	 1.810223e+00	 5.301035e+00
 6.138714e-01	 1.774602e+00	 6.370303e+00
 5.828160e-01	 1.785042e+00	 6.214132e+00
 5.517135e-01	 1.794899e+00	 6.030185e+00
 5.205792e-01	 1.804175e+00	 5.832014e+00
 4.894284e-01	 1.812873e+00	 5.628181e+00
 4.582759e-01	 1.820998e+00	 5.423291e+00
 6.175037e-01	 1.785102e+00	 6.563028e+00
 5.862647e-01	 1.795604e+00	 6.408210e+00
 5.549781e-01	 1.805519e+00	 6.228324e+00
 5.236596e-01	 1.814850e+00	 6.033995e+00
 4.923244e-01	 1.823600e+00	 5.830579e+00
 4.609875e-01	 1.831773e+00	 5.619280e+00
 4.474291e-01	 1.777897e+00	 5.365221e+00
 4.170266e-01	 1.785273e+00	 5.154734e+00
 3.866509e-01	 1.792097e+00	 4.989974e+00
 3.563157e-01	 1.798374e+00	 4.877644e+00
 3.260344e-01	 1.804110e+00	 4.765751e+00
 2.958201e-01	 1.809310e+00	 4.586211e+00
 4.501408e-01	 1.788672e+00	 5.273211e+00
 4.195541e-01	 1.796093e+00	 5.067833e+00
 3.889942e-01	 1.802958e+00	 4.913105e+00
 3.584752e-01	 1.809274e+00	 4.814935e+00
 3.280104e-01	 1.815044e+00	 4.725880e+00
 2.976130e-01	 1.820275e+00	 4.577498e+00
 4.528525e-01	 1.799447e+00	 5.251401e+00
 4.220815e-01	 1.806913e+00	 5.048166e+00
 3.913376e-01	 1.813820e+00	 4.898598e+00
 3.606347e-01	 1.820173e+00	 4.807114e+00
 3.299863e-01	 1.825978e+00	 4.730720e+00
 2.994058e-01	 1.831241e+00	 4.601030e+00
 4.555642e-01	 1.810223e+00	 5.301035e+00
 4.246089e-01	 1.817733e+00	 5.097231e+00
 3.936809e-01	 1.824681e+00	 4.948190e+00
 3.627941e-01	 1.831072e+00	 4.856223e+00
 3.319623e-01	 1.836912e+00	 4.782484e+00
 3.011987e-01	 1.842206e+00	 4.659076e+00
 4.582759e-01	 1.820998e+00	 5.423291e+00
 4.271364e-01	 1.828552e+00	 5.216462e+00
 3.960243e-01	 1.835542e+00	 5.063562e+00
 3.649536e-01	 1.841971e+00	 4.964248e+00
 3.339383e-01	 1.847846e+00	 4.883348e+00
 3.029915e-01	 1.853172e+00	 4.754076e+00
 4.609875e-01	 1.831773e+00	 5.619280e+00
 4.296638e-01	 1.839372e+00	 5.407228e+00
 3.983676e-01	 1.846403e+00	 5.246335e+00
 3.671131e-01	 1.852871e+00	 5.133072e+00
 3.359142e-01	 1.858780e+00	 5.036814e+00
 3.047844e-01	 1.864137e+00	 4.903683e+00
 2.958201e-01	 1.809310e+00	 4.586211e+00
 2.656857e-01	 1.813980e+00	 4.387764e+00
 2.356436e-01	 1.818126e+00	 4.264747e+00
 2.057058e-01	 1.821756e+00	 4.173452e+00
 1.758840e-01	 1.824877e+00	 4.077024e+00
 1.461897e-01	 1.827495e+00	 3.944301e+00
 2.976130e-01	 1.820275e+00	 4.577498e+00
 2.672959e-01	 1.824973e+00	 4.414403e+00
 2.370717e-01	 1.829145e+00	 4.317724e+00
 2.069525e-01	 1.832797e+00	 4.246411e+00
 1.769500e-01	 1.835937e+00	 4.166906e+00
 1.470757e-01	 1.838571e+00	 4.051808e+00
 2.994058e-01	 1.831241e+00	 4.601030e+00
 2.689062e-01	 1.835967e+00	 4.457812e+00
 2.384999e-01	 1.840164e+00	 4.370515e+00
 2.081992e-01	 1.843838e+00	 4.301094e+00
 1.780160e-01	 1.846997e+00	 4.219662e+00
 1.479617e-01	 1.849647e+00	 4.102976e+00
 3.011987e-01	 1.842206e+00	 4.659076e+00
 2.705164e-01	 1.846961e+00	 4.520232e+00
 2.399280e-01	 1.851183e+00	 4.425240e+00
 2.094459e-01	 1.854879e+00	 4.342894e+00
 1.790819e-01	 1.858057e+00	 4.255092e+00
 1.488477e-01	 1.860723e+00	 4.143454e+00
 3.029915e-01	 1.853172e+00	 4.754076e+00
 2.721266e-01	 1.857955e+00	 4.611155e+00
 2.413562e-01	 1.862202e+00	 4.514403e+00
 2.106926e-01	 1.865920e+00	 4.437578e+00
 1.801479e-01	 1.869116e+00	 4.359926e+00
 1.497337e-01	 1.871798e+00	 4.264624e+00
 3.047844e-01	 1.864137e+00	 4.903683e+00
 2.737368e-01	 1.868949e+00	 4.766629e+00
 2.427843e-01	 1.873221e+00	 4.676490e+00
 2.119393e-01	 1.876961e+00	 4.608816e+00
 1.812139e-01	 1.880176e+00	 4.544578e+00
 1.506197e-01	 1.882874e+00	 4.468612e+00
 1.461897e-01	 1.827495e+00	 3.944301e+00
 1.166338e-01	 1.829620e+00	 3.880290e+00
 8.722683e-02	 1.831257e+00	 3.844838e+00
 5.797907e-02	 1.832416e+00	 3.812738e+00
 2.890032e-02	 1.833106e+00	 3.758478e+00
 0.000000e+00	 1.833333e+00	 3.654896e+00
 1.470757e-01	 1.838571e+00	 4.051808e+00
 1.173407e-01	 1.840708e+00	 4.001033e+00
 8.775548e-02	 1.842356e+00	 3.971819e+00
 5.833046e-02	 1.843522e+00	 3.943393e+00
 2.907547e-02	 1.844215e+00	 3.894504e+00
 0.000000e+00	 1.844444e+00	 3.801933e+00
 1.479617e-01	 1.849647e+00	 4.102976e+00
 1.180475e-01	 1.851797e+00	 4.046142e+00
 8.828412e-02	 1.853454e+00	 4.006431e+00
 5.868185e-02	 1.854627e+00	 3.968531e+00
 2.925062e-02	 1.855325e+00	 3.913383e+00
 0.000000e+00	 1.855556e+00	 3.819966e+00
 1.488477e-01	 1.860723e+00	 4.143454e+00
 1.187544e-01	 1.862885e+00	 4.096061e+00
 8.881277e-02	 1.864553e+00	 4.062725e+00
 5.903323e-02	 1.865733e+00	 4.027285e+00
 2.942578e-02	 1.866435e+00	 3.972589e+00
 0.000000e+00	 1.866667e+00	 3.879546e+00
 1.497337e-01	 1.871798e+00	 4.264624e+00
 1.194613e-01	 1.873974e+00	 4.231853e+00
 8.934142e-02	 1.875651e+00	 4.207201e+00
 5.938462e-02	 1.876839e+00	 4.176377e+00
 2.960093e-02	 1.877544e+00	 4.124113e+00
 0.000000e+00	 1.877778e+00	 4.033226e+00
 1.506197e-01	 1.882874e+00	 4.468612e+00
 1.201681e-01	 1.885063e+00	 4.453051e+00
 8.987007e-02	 1.886750e+00	 4.439536e+00
 5.973601e-02	 1.887944e+00	 4.415618e+00
 2.977608e-02	 1.888654e+00	 4.367882e+00
 0.000000e+00	 1.888889e+00	 4.281026e+00
 1.888889e+00	 0.000000e+00	 1.287476e+01
 1.888654e+00	 2.977608e-02	 1.285538e+01
 1.887944e+00	 5.973601e-02	 1.285196e+01
 1.886750e+00	 8.987007e-02	 1.286086e+01
 1.885063e+00	 1.201681e-01	 1.287902e+01
 1.882874e+00	 1.506197e-01	 1.290382e+01
 1.900000e+00	 0.000000e+00	 1.286928e+01
 1.899764e+00	 2.995124e-02	 1.284929e+01
 1.899050e+00	 6.008740e-02	 1.284431e+01
 1.897848e+00	 9.039871e-02	 1.285108e+01
 1.896151e+00	 1.208750e-01	 1.286689e+01
 1.893950e+00	 1.515057e-01	 1.288947e+01
 1.911111e+00	 0.000000e+00	 1.284786e+01
 1.910874e+00	 3.012639e-02	 1.282757e+01
 1.910155e+00	 6.043879e-02	 1.282147e+01
 1.908947e+00	 9.092736e-02	 1.282664e+01
 1.907240e+00	 1.215819e-01	 1.284076e+01
 1.905026e+00	 1.523917e-01	 1.286186e+01
 1.922222e+00	 0.000000e+00	 1.281055e+01
 1.921983e+00	 3.030154e-02	 1.279030e+01
 1.921261e+00	 6.079018e-02	 1.278352e+01
 1.920045e+00	 9.145601e-02	 1.278767e+01
 1.918328e+00	 1.222888e-01	 1.280076e+01
 1.916101e+00	 1.532777e-01	 1.282116e+01
 1.933333e+00	 0.000000e+00	 1.275740e+01
 1.933093e+00	 3.047670e-02	 1.273754e+01
 1.932366e+00	 6.114156e-02	 1.273057e+01
 1.931144e+00	 9.198466e-02	 1.273429e+01
 1.929417e+00	 1.229956e-01	 1.274705e+01
 1.927177e+00	 1.541637e-01	 1.276754e+01
 1.944444e+00	 0.000000e+00	 1.268846e+01
 1.944203e+00	 3.065185e-02	 1.266938e+01
 1.943472e+00	 6.149295e-02	 1.266270e+01
 1.942242e+00	 9.251330e-02	 1.266661e+01
 1.940506e+00	 1.237025e-01	 1.267977e+01
 1.938253e+00	 1.550497e-01	 1.270118e+01
 1.882874e+00	 1.506197e-01	 1.290382e+01
 1.880176e+00	 1.812139e-01	 1.290153e+01
 1.876961e+00	 2.119393e-01	 1.290904e+01
 1.873221e+00	 2.427843e-01	 1.292458e+01
 1.868949e+00	 2.737368e-01	 1.294611e+01
 1.864137e+00	 3.047844e-01	 1.297113e+01
 1.893950e+00	 1.515057e-01	 1.288947e+01
 1.891236e+00	 1.822798e-01	 1.288679e+01
 1.888002e+00	 2.131860e-01	 1.289275e+01
 1.884240e+00	 2.442124e-01	 1.290576e+01
 1.879943e+00	 2.753470e-01	 1.292398e+01
 1.875103e+00	 3.065772e-01	 1.294509e+01
 1.905026e+00	 1.523917e-01	 1.286186e+01
 1.902296e+00	 1.833458e-01	 1.285928e+01
 1.899043e+00	 2.144327e-01	 1.286426e+01
 1.895259e+00	 2.456406e-01	 1.287542e+01
 1.890936e+00	 2.769572e-01	 1.289111e+01
 1.886068e+00	 3.083701e-01	 1.290919e+01
 1.916101e+00	 1.532777e-01	 1.282116e+01
 1.913356e+00	 1.844117e-01	 1.281919e+01
 1.910084e+00	 2.156794e-01	 1.282380e+01
 1.906278e+00	 2.470687e-01	 1.283384e+01
 1.901930e+00	 2.785675e-01	 1.284781e+01
 1.897034e+00	 3.101629e-01	 1.286375e+01
 1.927177e+00	 1.541637e-01	 1.276754e+01
 1.924416e+00	 1.854777e-01	 1.276672e+01
 1.921125e+00	 2.169261e-01	 1.277163e+01
 1.917297e+00	 2.484969e-01	 1.278127e+01
 1.912924e+00	 2.801777e-01	 1.279436e+01
 1.907999e+00	 3.119558e-01	 1.280909e+01
 1.938253e+00	 1.550497e-01	 1.270118e+01
 1.935476e+00	 1.865437e-01	 1.270209e+01
 1.932166e+00	 2.181728e-01	 1.270796e+01
 1.928316e+00	 2.499250e-01	 1.271798e+01
 1.923918e+00	 2.817879e-01	 1.273105e+01
 1.918965e+00	 3.137486e-01	 1.274552e+01
 1.864137e+00	 3.047844e-01	 1.297113e+01
 1.858780e+00	 3.359142e-01	 1.295908e+01
 1.852871e+00	 3.671131e-01	 1.297805e+01
 1.846403e+00	 3.983676e-01	 1.301254e+01
 1.839372e+00	 4.296638e-01	 1.304349e+01
 1.831773e+00	 4.609875e-01	 1.307102e+01
 1.875103e+00	 3.065772e-01	 1.294509e+01
 1.869714e+00	 3.378902e-01	 1.293605e+01
 1.863770e+00	 3.692726e-01	 1.295494e+01
 1.857264e+00	 4.007109e-01	 1.298632e+01
 1.850192e+00	 4.321912e-01	 1.301702e+01
 1.842548e+00	 4.636992e-01	 1.304736e+01
 1.886068e+00	 3.083701e-01	 1.290919e+01
 1.880648e+00	 3.398661e-01	 1.290390e+01
 1.874669e+00	 3.714321e-01	 1.292355e+01
 1.868126e+00	 4.030543e-01	 1.295262e+01
 1.861012e+00	 4.347187e-01	 1.298124e+01
 1.853323e+00	 4.664109e-01	 1.301192e+01
 1.897034e+00	 3.101629e-01	 1.286375e+01
 1.891582e+00	 3.418421e-01	 1.286297e+01
 1.885568e+00	 3.735916e-01	 1.288419e+01
 1.878987e+00	 4.053976e-01	 1.291225e+01
 1.871832e+00	 4.372461e-01	 1.293994e+01
 1.864098e+00	 4.691226e-01	 1.296952e+01
 1.907999e+00	 3.119558e-01	 1.280909e+01
 1.902516e+00	 3.438181e-01	 1.281361e+01
 1.896467e+00	 3.757511e-01	 1.283724e+01
 1.889848e+00	 4.077409e-01	 1.286557e+01
 1.882652e+00	 4.397735e-01	 1.289351e+01
 1.874873e+00	 4.718343e-01	 1.292308e+01
 1.918965e+00	 3.137486e-01	 1.274552e+01
 1.913450e+00	 3.457940e-01	 1.275615e+01
 1.907367e+00	 3.779106e-01	 1.278308e+01
 1.900709e+00	 4.100843e-01	 1.281293e+01
 1.893471e+00	 4.423010e-01	 1.284227e+01
 1.885649e+00	 4.745460e-01	 1.287288e+01
 1.831773e+00	 4.609875e-01	 1.307102e+01
 1.823600e+00	 4.923244e-01	 1.309728e+01
 1.814850e+00	 5.236596e-01	 1.312159e+01
 1.805519e+00	 5.549781e-01	 1.314248e+01
 1.795604e+00	 5.862647e-01	 1.315887e+01
 1.785102e+00	 6.175037e-01	 1.317031e+01
 1.842548e+00	 4.636992e-01	 1.304736e+01
 1.834327e+00	 4.952204e-01	 1.306992e+01
 1.825526e+00	 5.267399e-01	 1.309217e+01
 1.816140e+00	 5.582427e-01	 1.311224e+01
 1.806167e+00	 5.897133e-01	 1.312863e+01
 1.795603e+00	 6.211361e-01	 1.314045e+01
 1.853323e+00	 4.664109e-01	 1.301192e+01
 1.845054e+00	 4.981164e-01	 1.303230e+01
 1.836202e+00	 5.298203e-01	 1.305427e+01
 1.826761e+00	 5.615073e-01	 1.307551e+01
 1.816729e+00	 5.931619e-01	 1.309407e+01
 1.806104e+00	 6.247685e-01	 1.310864e+01
 1.864098e+00	 4.691226e-01	 1.296952e+01
 1.855781e+00	 5.010125e-01	 1.298560e+01
 1.846877e+00	 5.329006e-01	 1.300854e+01
 1.837382e+00	 5.647718e-01	 1.303289e+01
 1.827291e+00	 5.966105e-01	 1.305577e+01
 1.816604e+00	 6.284009e-01	 1.307543e+01
 1.874873e+00	 4.718343e-01	 1.292308e+01
 1.866509e+00	 5.039085e-01	 1.293617e+01
 1.857553e+00	 5.359810e-01	 1.295684e+01
 1.848002e+00	 5.680364e-01	 1.298501e+01
 1.837854e+00	 6.000591e-01	 1.301430e+01
 1.827105e+00	 6.320332e-01	 1.304133e+01
 1.885649e+00	 4.745460e-01	 1.287288e+01
 1.877236e+00	 5.068045e-01	 1.288587e+01
 1.868228e+00	 5.390613e-01	 1.290611e+01
 1.858623e+00	 5.713010e-01	 1.293428e+01
 1.848416e+00	 6.035077e-01	 1.297022e+01
 1.837605e+00	 6.356656e-01	 1.300684e+01
 1.785102e+00	 6.175037e-01	 1.317031e+01
 1.774011e+00	 6.486796e-01	 1.324399e+01
 1.762330e+00	 6.797763e-01	 1.328704e+01
 1.750056e+00	 7.107779e-01	 1.330208e+01
 1.737190e+00	 7.416679e-01	 1.329385e+01
 1.723732e+00	 7.724301e-01	 1.328137e+01
 1.795603e+00	 6.211361e-01	 1.314045e+01
 1.784447e+00	 6.524954e-01	 1.321108e+01
 1.772696e+00	 6.837750e-01	 1.325229e+01
 1.760350e+00	 7.149589e-01	 1.326585e+01
 1.747409e+00	 7.460307e-01	 1.325594e+01
 1.733872e+00	 7.769738e-01	 1.324274e+01
 1.806104e+00	 6.247685e-01	 1.310864e+01
 1.794882e+00	 6.563111e-01	 1.317697e+01
 1.783063e+00	 6.877737e-01	 1.321727e+01
 1.770645e+00	 7.191399e-01	 1.323050e+01
 1.757628e+00	 7.503934e-01	 1.322066e+01
 1.744011e+00	 7.815175e-01	 1.320795e+01
 1.816604e+00	 6.284009e-01	 1.307543e+01
 1.805317e+00	 6.601269e-01	 1.314220e+01
 1.793429e+00	 6.917724e-01	 1.318252e+01
 1.780939e+00	 7.233210e-01	 1.319654e+01
 1.767847e+00	 7.547562e-01	 1.318842e+01
 1.754151e+00	 7.860612e-01	 1.317731e+01
 1.827105e+00	 6.320332e-01	 1.304133e+01
 1.815753e+00	 6.639426e-01	 1.310726e+01
 1.803796e+00	 6.957711e-01	 1.314849e+01
 1.791234e+00	 7.275020e-01	 1.316440e+01
 1.778065e+00	 7.591189e-01	 1.315951e+01
 1.764291e+00	 7.906050e-01	 1.315108e+01
 1.837605e+00	 6.356656e-01	 1.300684e+01
 1.826188e+00	 6.677584e-01	 1.307261e+01
 1.814163e+00	 6.997698e-01	 1.311562e+01
 1.801528e+00	 7.316831e-01	 1.313448e+01
 1.788284e+00	 7.634817e-01	 1.313419e+01
 1.774430e+00	 7.951487e-01	 1.312943e+01
 1.723732e+00	 7.724301e-01	 1.328137e+01
 1.709683e+00	 8.030481e-01	 1.328024e+01
 1.695043e+00	 8.335051e-01	 1.327879e+01
 1.679815e+00	 8.637848e-01	 1.328196e+01
 1.664000e+00	 8.938704e-01	 1.329378e+01
 1.647603e+00	 9.237454e-01	 1.331664e+01
 1.733872e+00	 7.769738e-01	 1.324274e+01
 1.719740e+00	 8.077719e-01	 1.324388e+01
 1.705014e+00	 8.384081e-01	 1.324215e+01
 1.689696e+00	 8.688659e-01	 1.324240e+01
 1.673789e+00	 8.991285e-01	 1.324865e+01
 1.657295e+00	 9.291792e-01	 1.326336e+01
 1.744011e+00	 7.815175e-01	 1.320795e+01
 1.729797e+00	 8.124957e-01	 1.321208e+01
 1.714985e+00	 8.433111e-01	 1.321091e+01
 1.699577e+00	 8.739470e-01	 1.320912e+01
 1.683577e+00	 9.043865e-01	 1.321072e+01
 1.666987e+00	 9.346130e-01	 1.321828e+01
 1.754151e+00	 7.860612e-01	 1.317731e+01
 1.739854e+00	 8.172195e-01	 1.318513e+01
 1.724955e+00	 8.482141e-01	 1.318526e+01
 1.709458e+00	 8.790281e-01	 1.318228e+01
 1.693365e+00	 9.096446e-01	 1.318014e+01
 1.676678e+00	 9.400468e-01	 1.318148e+01
 1.764291e+00	 7.906050e-01	 1.315108e+01
 1.749911e+00	 8.219433e-01	 1.316320e+01
 1.734926e+00	 8.531170e-01	 1.316538e+01
 1.719340e+00	 8.841091e-01	 1.316198e+01
 1.703153e+00	 9.149027e-01	 1.315695e+01
 1.686370e+00	 9.454806e-01	 1.315297e+01
 1.774430e+00	 7.951487e-01	 1.312943e+01
 1.759968e+00	 8.266671e-01	 1.314643e+01
 1.744897e+00	 8.580200e-01	 1.315132e+01
 1.729221e+00	 8.891902e-01	 1.314827e+01
 1.712941e+00	 9.201607e-01	 1.314115e+01
 1.696062e+00	 9.509144e-01	 1.313272e+01
 1.647603e+00	 9.237454e-01	 1.331664e+01
 1.630626e+00	 9.533931e-01	 1.318673e+01
 1.613075e+00	 9.827972e-01	 1.310379e+01
 1.594953e+00	 1.011941e+00	 1.306323e+01
 1.576267e+00	 1.040808e+00	 1.305430e+01
 1.557023e+00	 1.069383e+00	 1.305862e+01
 1.657295e+00	 9.291792e-01	 1.326336e+01
 1.640218e+00	 9.590013e-01	 1.314360e+01
 1.622564e+00	 9.885783e-01	 1.306636e+01
 1.604336e+00	 1.017894e+00	 1.302714e+01
 1.585540e+00	 1.046931e+00	 1.301532e+01
 1.566182e+00	 1.075674e+00	 1.301258e+01
 1.666987e+00	 9.346130e-01	 1.321828e+01
 1.649810e+00	 9.646095e-01	 1.310860e+01
 1.632052e+00	 9.943595e-01	 1.303708e+01
 1.613718e+00	 1.023846e+00	 1.299935e+01
 1.594812e+00	 1.053053e+00	 1.298489e+01
 1.575341e+00	 1.081964e+00	 1.297555e+01
 1.676678e+00	 9.400468e-01	 1.318148e+01
 1.659402e+00	 9.702177e-01	 1.308179e+01
 1.641541e+00	 1.000141e+00	 1.301598e+01
 1.623100e+00	 1.029799e+00	 1.297983e+01
 1.604084e+00	 1.059176e+00	 1.296298e+01
 1.584500e+00	 1.088255e+00	 1.294743e+01
 1.686370e+00	 9.454806e-01	 1.315297e+01
 1.668994e+00	 9.758259e-01	 1.306315e+01
 1.651030e+00	 1.005922e+00	 1.300303e+01
 1.632482e+00	 1.035751e+00	 1.296853e+01
 1.613356e+00	 1.065298e+00	 1.294949e+01
 1.593659e+00	 1.094545e+00	 1.292810e+01
 1.696062e+00	 9.509144e-01	 1.313272e+01
 1.678586e+00	 9.814341e-01	 1.305263e+01
 1.660518e+00	 1.011703e+00	 1.299814e+01
 1.641864e+00	 1.041704e+00	 1.296531e+01
 1.622628e+00	 1.071420e+00	 1.294425e+01
 1.602818e+00	 1.100836e+00	 1.291734e+01
 1.557023e+00	 1.069383e+00	 1.305862e+01
 1.537227e+00	 1.097650e+00	 1.303034e+01
 1.516887e+00	 1.125591e+00	 1.293157e+01
 1.496010e+00	 1.153193e+00	 1.280457e+01
 1.474606e+00	 1.180440e+00	 1.265675e+01
 1.452683e+00	 1.207317e+00	 1.249361e+01
 1.566182e+00	 1.075674e+00	 1.301258e+01
 1.546269e+00	 1.104106e+00	 1.296621e+01
 1.525810e+00	 1.132213e+00	 1.286324e+01
 1.504810e+00	 1.159977e+00	 1.274223e+01
 1.483280e+00	 1.187384e+00	 1.260307e+01
 1.461228e+00	 1.214419e+00	 1.244856e+01
 1.575341e+00	 1.081964e+00	 1.297555e+01
 1.555312e+00	 1.110563e+00	 1.291402e+01
 1.534732e+00	 1.138834e+00	 1.281265e+01
 1.513610e+00	 1.166760e+00	 1.269868e+01
 1.491954e+00	 1.194328e+00	 1.256992e+01
 1.469773e+00	 1.221521e+00	 1.242616e+01
 1.584500e+00	 1.088255e+00	 1.294743e+01
 1.564354e+00	 1.117020e+00	 1.287500e+01
 1.543655e+00	 1.145455e+00	 1.277862e+01
 1.522410e+00	 1.173544e+00	 1.267270e+01
 1.500628e+00	 1.201272e+00	 1.255534e+01
 1.478318e+00	 1.228622e+00	 1.242511e+01
 1.593659e+00	 1.094545e+00	 1.292810e+01
 1.573397e+00	 1.123477e+00	 1.285031e+01
 1.552578e+00	 1.152076e+00	 1.275999e+01
 1.531210e+00	 1.180327e+00	 1.266314e+01
 1.509302e+00	 1.208215e+00	 1.255814e+01
 1.486864e+00	 1.235724e+00	 1.244372e+01
 1.602818e+00	 1.100836e+00	 1.291734e+01
 1.582440e+00	 1.129933e+00	 1.283888e+01
 1.561501e+00	 1.158697e+00	 1.275565e+01
 1.540010e+00	 1.187111e+00	 1.266887e+01
 1.517977e+00	 1.215159e+00	 1.257718e+01
 1.495409e+00	 1.242826e+00	 1.247959e+01
 1.452683e+00	 1.207317e+00	 1.249361e+01
 1.430251e+00	 1.233809e+00	 1.251431e+01
 1.407320e+00	 1.259901e+00	 1.246043e+01
 1.383902e+00	 1.285581e+00	 1.234002e+01
 1.360006e+00	 1.310833e+00	 1.216690e+01
 1.335646e+00	 1.335646e+00	 1.195785e+01
 1.461228e+00	 1.214419e+00	 1.244856e+01
 1.438664e+00	 1.241066e+00	 1.245849e+01
 1.415599e+00	 1.267312e+00	 1.239780e+01
 1.392042e+00	 1.293143e+00	 1.227341e+01
 1.368006e+00	 1.318544e+00	 1.209842e+01
 1.343503e+00	 1.343503e+00	 1.188913e+01
 1.469773e+00	 1.221521e+00	 1.242616e+01
 1.447077e+00	 1.248324e+00	 1.242647e+01
 1.423877e+00	 1.274724e+00	 1.236024e+01
 1.400183e+00	 1.300705e+00	 1.223328e+01
 1.376006e+00	 1.326255e+00	 1.205793e+01
 1.351360e+00	 1.351360e+00	 1.185006e+01
 1.478318e+00	 1.228622e+00	 1.242511e+01
 1.455491e+00	 1.255582e+00	 1.241704e+01
 1.432155e+00	 1.282135e+00	 1.234666e+01
 1.408323e+00	 1.308267e+00	 1.221859e+01
 1.384006e+00	 1.333966e+00	 1.204448e+01
 1.359216e+00	 1.359216e+00	 1.183976e+01
 1.486864e+00	 1.235724e+00	 1.244372e+01
 1.463904e+00	 1.262839e+00	 1.242895e+01
 1.440434e+00	 1.289546e+00	 1.235587e+01
 1.416464e+00	 1.315830e+00	 1.222826e+01
 1.392006e+00	 1.341676e+00	 1.205703e+01
 1.367073e+00	 1.367073e+00	 1.185723e+01
 1.495409e+00	 1.242826e+00	 1.247959e+01
 1.472317e+00	 1.270097e+00	 1.246085e+01
 1.448712e+00	 1.296957e+00	 1.238664e+01
 1.424605e+00	 1.323392e+00	 1.226110e+01
 1.400006e+00	 1.349387e+00	 1.209446e+01
 1.374930e+00	 1.374930e+00	 1.190141e+01
 1.335646e+00	 1.335646e+00	 1.195785e+01
 1.310833e+00	 1.360006e+00	 1.172441e+01
 1.285581e+00	 1.383902e+00	 1.152611e+01
 1.259901e+00	 1.407320e+00	 1.137036e+01
 1.233809e+00	 1.430251e+00	 1.125437e+01
 1.207317e+00	 1.452683e+00	 1.116184e+01
 1.343503e+00	 1.343503e+00	 1.188913e+01
 1.318544e+00	 1.368006e+00	 1.166058e+01
 1.293143e+00	 1.392042e+00	 1.146365e+01
 1.267312e+00	 1.415599e+00	 1.130519e+01
 1.241066e+00	 1.438664e+00	 1.118155e+01
 1.214419e+00	 1.461228e+00	 1.107518e+01
 1.351360e+00	 1.351360e+00	 1.185006e+01
 1.326255e+00	 1.376006e+00	 1.162742e+01
 1.300705e+00	 1.400183e+00	 1.143317e+01
 1.274724e+00	 1.423877e+00	 1.127365e+01
 1.248324e+00	 1.447077e+00	 1.114442e+01
 1.221521e+00	 1.469773e+00	 1.102672e+01
 1.359216e+00	 1.359216e+00	 1.183976e+01
 1.333966e+00	 1.384006e+00	 1.162410e+01
 1.308267e+00	 1.408323e+00	 1.143390e+01
 1.282135e+00	 1.432155e+00	 1.127504e+01
 1.255582e+00	 1.455491e+00	 1.114235e+01
 1.228622e+00	 1.478318e+00	 1.101593e+01
 1.367073e+00	 1.367073e+00	 1.185723e+01
 1.341676e+00	 1.392006e+00	 1.164969e+01
 1.315830e+00	 1.416464e+00	 1.146497e+01
 1.289546e+00	 1.440434e+00	 1.130854e+01
 1.262839e+00	 1.463904e+00	 1.117460e+01
 1.235724e+00	 1.486864e+00	 1.104160e+01
 1.374930e+00	 1.374930e+00	 1.190141e+01
 1.349387e+00	 1.400006e+00	 1.170317e+01
 1.323392e+00	 1.424605e+00	 1.152540e+01
 1.296957e+00	 1.448712e+00	 1.137324e+01
 1.270097e+00	 1.472317e+00	 1.124030e+01
 1.242826e+00	 1.495409e+00	 1.110034e+01
 1.207317e+00	 1.452683e+00	 1.116184e+01
 1.180440e+00	 1.474606e+00	 1.087331e+01
 1.153193e+00	 1.496010e+00	 1.062674e+01
 1.125591e+00	 1.516887e+00	 1.040931e+01
 1.097650e+00	 1.537227e+00	 1.021549e+01
 1.069383e+00	 1.557023e+00	 1.003402e+01
 1.214419e+00	 1.461228e+00	 1.107518e+01
 1.187384e+00	 1.483280e+00	 1.078968e+01
 1.159977e+00	 1.504810e+00	 1.054277e+01
 1.132213e+00	 1.525810e+00	 1.032390e+01
 1.104106e+00	 1.546269e+00	 1.012672e+01
 1.075674e+00	 1.566182e+00	 9.944043e+00
 1.221521e+00	 1.469773e+00	 1.102672e+01
 1.194328e+00	 1.491954e+00	 1.074718e+01
 1.166760e+00	 1.513610e+00	 1.050262e+01
 1.138834e+00	 1.534732e+00	 1.028452e+01
 1.110563e+00	 1.555312e+00	 1.008651e+01
 1.081964e+00	 1.575341e+00	 9.903601e+00
 1.228622e+00	 1.478318e+00	 1.101593e+01
 1.201272e+00	 1.500628e+00	 1.074396e+01
 1.173544e+00	 1.522410e+00	 1.050377e+01
 1.145455e+00	 1.543655e+00	 1.028856e+01
 1.117020e+00	 1.564354e+00	 1.009223e+01
 1.088255e+00	 1.584500e+00	 9.910398e+00
 1.235724e+00	 1.486864e+00	 1.104160e+01
 1.208215e+00	 1.509302e+00	 1.077768e+01
 1.180327e+00	 1.531210e+00	 1.054378e+01
 1.152076e+00	 1.552578e+00	 1.033353e+01
 1.123477e+00	 1.573397e+00	 1.014106e+01
 1.094545e+00	 1.593659e+00	 9.962152e+00
 1.242826e+00	 1.495409e+00	 1.110034e+01
 1.215159e+00	 1.517977e+00	 1.084607e+01
 1.187111e+00	 1.540010e+00	 1.062034e+01
 1.158697e+00	 1.561501e+00	 1.041701e+01
 1.129933e+00	 1.582440e+00	 1.023051e+01
 1.100836e+00	 1.602818e+00	 1.005660e+01
 1.069383e+00	 1.557023e+00	 1.003402e+01
 1.040808e+00	 1.576267e+00	 9.857025e+00
 1.011941e+00	 1.594953e+00	 9.650215e+00
 9.827972e-01	 1.613075e+00	 9.410647e+00
 9.533931e-01	 1.630626e+00	 9.143617e+00
 9.237454e-01	 1.647603e+00	 8.860888e+00
 1.075674e+00	 1.566182e+00	 9.944043e+00
 1.046931e+00	 1.585540e+00	 9.769527e+00
 1.017894e+00	 1.604336e+00	 9.566079e+00
 9.885783e-01	 1.622564e+00	 9.330422e+00
 9.590013e-01	 1.640218e+00	 9.067691e+00
 9.291792e-01	 1.657295e+00	 8.789589e+00
 1.081964e+00	 1.575341e+00	 9.903601e+00
 1.053053e+00	 1.594812e+00	 9.731553e+00
 1.023846e+00	 1.613718e+00	 9.531476e+00
 9.943595e-01	 1.632052e+00	 9.299795e+00
 9.646095e-01	 1.649810e+00	 9.041515e+00
 9.346130e-01	 1.666987e+00	 8.768307e+00
 1.088255e+00	 1.584500e+00	 9.910398e+00
 1.059176e+00	 1.604084e+00	 9.740912e+00
 1.029799e+00	 1.623100e+00	 9.544321e+00
 1.000141e+00	 1.641541e+00	 9.316784e+00
 9.702177e-01	 1.659402e+00	 9.063213e+00
 9.400468e-01	 1.676678e+00	 8.795273e+00
 1.094545e+00	 1.593659e+00	 9.962152e+00
 1.065298e+00	 1.613356e+00	 9.795426e+00
 1.035751e+00	 1.632482e+00	 9.602532e+00
 1.005922e+00	 1.651030e+00	 9.379406e+00
 9.758259e-01	 1.668994e+00	 9.130896e+00
 9.454806e-01	 1.686370e+00	 8.868700e+00
 1.100836e+00	 1.602818e+00	 1.005660e+01
 1.071420e+00	 1.622628e+00	 9.892932e+00
 1.041704e+00	 1.641864e+00	 9.704038e+00
 1.011703e+00	 1.660518e+00	 9.485676e+00
 9.814341e-01	 1.678586e+00	 9.242674e+00
 9.509144e-01	 1.696062e+00	 8.986793e+00
 9.237454e-01	 1.647603e+00	 8.860888e+00
 8.938704e-01	 1.664000e+00	 8.662056e+00
 8.637848e-01	 1.679815e+00	 8.422303e+00
 8.335051e-01	 1.695043e+00	 8.161816e+00
 8.030481e-01	 1.709683e+00	 7.901331e+00
 7.724301e-01	 1.723732e+00	 7.660989e+00
 9.291792e-01	 1.657295e+00	 8.789589e+00
 8.991285e-01	 1.673789e+00	 8.585966e+00
 8.688659e-01	 1.689696e+00	 8.343659e+00
 8.384081e-01	 1.705014e+00	 8.082819e+00
 8.077719e-01	 1.719740e+00	 7.824025e+00
 7.769738e-01	 1.733872e+00	 7.587115e+00
 9.346130e-01	 1.666987e+00	 8.768307e+00
 9.043865e-01	 1.683577e+00	 8.560867e+00
 8.739470e-01	 1.699577e+00	 8.317103e+00
 8.433111e-01	 1.714985e+00	 8.057129e+00
 8.124957e-01	 1.729797e+00	 7.801361e+00
 7.815175e-01	 1.744011e+00	 7.569310e+00
 9.400468e-01	 1.676678e+00	 8.795273e+00
 9.096446e-01	 1.693365e+00	 8.585094e+00
 8.790281e-01	 1.709458e+00	 8.341082e+00
 8.482141e-01	 1.724955e+00	 8.083317e+00
 8.172195e-01	 1.739854e+00	 7.832044e+00
 7.860612e-01	 1.754151e+00	 7.606426e+00
 9.454806e-01	 1.686370e+00	 8.868700e+00
 9.149027e-01	 1.703153e+00	 8.656959e+00
 8.841091e-01	 1.719340e+00	 8.414016e+00
 8.531170e-01	 1.734926e+00	 8.159924e+00
 8.219433e-01	 1.749911e+00	 7.914746e+00
 7.906050e-01	 1.764291e+00	 7.697278e+00
 9.509144e-01	 1.696062e+00	 8.986793e+00
 9.201607e-01	 1.712941e+00	 8.774758e+00
 8.891902e-01	 1.729221e+00	 8.534303e+00
 8.580200e-01	 1.744897e+00	 8.285457e+00
 8.266671e-01	 1.759968e+00	 8.048100e+00
 7.951487e-01	 1.774430e+00	 7.840638e+00
 7.724301e-01	 1.723732e+00	 7.660989e+00
 7.416679e-01	 1.737190e+00	 7.501482e+00
 7.107779e-01	 1.750056e+00	 7.273941e+00
 6.797763e-01	 1.762330e+00	 7.016559e+00
 6.486796e-01	 1.774011e+00	 6.768909e+00
 6.175037e-01	 1.785102e+00	 6.563028e+00
 7.769738e-01	 1.733872e+00	 7.587115e+00
 7.460307e-01	 1.747409e+00	 7.417759e+00
 7.149589e-01	 1.760350e+00	 7.185162e+00
 6.837750e-01	 1.772696e+00	 6.923278e+00
 6.524954e-01	 1.784447e+00	 6.670199e+00
 6.211361e-01	 1.795603e+00	 6.456069e+00
 7.815175e-01	 1.744011e+00	 7.569310e+00
 7.503934e-01	 1.757628e+00	 7.392073e+00
 7.191399e-01	 1.770645e+00	 7.156861e+00
 6.877737e-01	 1.783063e+00	 6.893067e+00
 6.563111e-01	 1.794882e+00	 6.637031e+00
 6.247685e-01	 1.806104e+00	 6.416877e+00
 7.860612e-01	 1.754151e+00	 7.606426e+00
 7.547562e-01	 1.767847e+00	 7.423430e+00
 7.233210e-01	 1.780939e+00	 7.188096e+00
 6.917724e-01	 1.793429e+00	 6.925148e+00
 6.601269e-01	 1.805317e+00	 6.668819e+00
 6.284009e-01	 1.816604e+00	 6.445088e+00
 7.906050e-01	 1.764291e+00	 7.697278e+00
 7.591189e-01	 1.778065e+00	 7.510790e+00
 7.275020e-01	 1.791234e+00	 7.277882e+00
 6.957711e-01	 1.803796e+00	 7.018691e+00
 6.639426e-01	 1.815753e+00	 6.764921e+00
 6.320332e-01	 1.827105e+00	 6.540277e+00
 7.951487e-01	 1.774430e+00	 7.840638e+00
 7.634817e-01	 1.788284e+00	 7.653072e+00
 7.316831e-01	 1.801528e+00	 7.425196e+00
 6.997698e-01	 1.814163e+00	 7.172821e+00
 6.677584e-01	 1.826188e+00	 6.924644e+00
 6.356656e-01	 1.837605e+00	 6.701962e+00
 6.175037e-01	 1.785102e+00	 6.563028e+00
 5.862647e-01	 1.795604e+00	 6.408210e+00
 5.549781e-01	 1.805519e+00	 6.228324e+00
 5.236596e-01	 1.814850e+00	 6.033995e+00
 4.923244e-01	 1.823600e+00	 5.830579e+00
 4.609875e-01	 1.831773e+00	 5.619280e+00
 6.211361e-01	 1.795603e+00	 6.456069e+00
 5.897133e-01	 1.806167e+00	 6.286864e+00
 5.582427e-01	 1.816140e+00	 6.105976e+00
 5.267399e-01	 1.825526e+00	 5.921008e+00
 4.952204e-01	 1.834327e+00	 5.733965e+00
 4.636992e-01	 1.842548e+00	 5.542453e+00
 6.247685e-01	 1.806104e+00	 6.416877e+00
 5.931619e-01	 1.816729e+00	 6.237698e+00
 5.615073e-01	 1.826761e+00	 6.059388e+00
 5.298203e-01	 1.836202e+00	 5.886336e+00
 4.981164e-01	 1.845054e+00	 5.716978e+00
 4.664109e-01	 1.853323e+00	 5.544673e+00
 6.284009e-01	 1.816604e+00	 6.445088e+00
 5.966105e-01	 1.827291e+00	 6.260548e+00
 5.647718e-01	 1.837382e+00	 6.088628e+00
 5.329006e-01	 1.846877e+00	 5.930293e+00
 5.010125e-01	 1.855781e+00	 5.776669e+00
 4.691226e-01	 1.864098e+00	 5.598285e+00
 6.320332e-01	 1.827105e+00	 6.540277e+00
 6.000591e-01	 1.837854e+00	 6.355192e+00
 5.680364e-01	 1.848002e+00	 6.193696e+00
 5.359810e-01	 1.857553e+00	 6.044927e+00
 5.039085e-01	 1.866509e+00	 5.874544e+00
 4.718343e-01	 1.874873e+00	 5.685368e+00
 6.356656e-01	 1.837605e+00	 6.701962e+00
 6.035077e-01	 1.848416e+00	 6.521343e+00
 5.713010e-01	 1.858623e+00	 6.362244e+00
 5.390613e-01	 1.868228e+00	 6.186885e+00
 5.068045e-01	 1.877236e+00	 5.999036e+00
 4.745460e-01	 1.885649e+00	 5.804698e+00
 4.609875e-01	 1.831773e+00	 5.619280e+00
 4.296638e-01	 1.839372e+00	 5.407228e+00
 3.983676e-01	 1.846403e+00	 5.246335e+00
 3.671131e-01	 1.852871e+00	 5.133072e+00
 3.359142e-01	 1.858780e+00	 5.036814e+00
 3.047844e-01	 1.864137e+00	 4.903683e+00
 4.636992e-01	 1.842548e+00	 5.542453e+00
 4.321912e-01	 1.850192e+00	 5.351570e+00
 4.007109e-01	 1.857264e+00	 5.195859e+00
 3.692726e-01	 1.863770e+00	 5.070938e+00
 3.378902e-01	 1.869714e+00	 4.964645e+00
 3.065772e-01	 1.875103e+00	 4.828847e+00
 4.664109e-01	 1.853323e+00	 5.544673e+00
 4.347187e-01	 1.861012e+00	 5.359444e+00
 4.030543e-01	 1.868126e+00	 5.194854e+00
 3.714321e-01	 1.874669e+00	 5.060827e+00
 3.398661e-01	 1.880648e+00	 4.949522e+00
 3.083701e-01	 1.886068e+00	 4.815783e+00
 4.691226e-01	 1.864098e+00	 5.598285e+00
 4.372461e-01	 1.871832e+00	 5.407514e+00
 4.053976e-01	 1.878987e+00	 5.238929e+00
 3.735916e-01	 1.885568e+00	 5.101373e+00
 3.418421e-01	 1.891582e+00	 4.990079e+00
 3.101629e-01	 1.897034e+00	 4.863206e+00
 4.718343e-01	 1.874873e+00	 5.685368e+00
 4.397735e-01	 1.882652e+00	 5.494025e+00
 4.077409e-01	 1.889848e+00	 5.326688e+00
 3.757511e-01	 1.896467e+00	 5.191146e+00
 3.438181e-01	 1.902516e+00	 5.084961e+00
 3.119558e-01	 1.907999e+00	 4.969841e+00
 4.745460e-01	 1.885649e+00	 5.804698e+00
 4.423010e-01	 1.893471e+00	 5.617674e+00
 4.100843e-01	 1.900709e+00	 5.456762e+00
 3.779106e-01	 1.907367e+00	 5.328726e+00
 3.457940e-01	 1.913450e+00	 5.232826e+00
 3.137486e-01	 1.918965e+00	 5.134419e+00
 3.047844e-01	 1.864137e+00	 4.903683e+00
 2.737368e-01	 1.868949e+00	 4.766629e+00
 2.427843e-01	 1.873221e+00	 4.676490e+00
 2.119393e-01	 1.876961e+00	 4.608816e+00
 1.812139e-01	 1.880176e+00	 4.544578e+00
 1.506197e-01	 1.882874e+00	 4.468612e+00
 3.065772e-01	 1.875103e+00	 4.828847e+00
 2.753470e-01	 1.879943e+00	 4.691114e+00
 2.442124e-01	 1.884240e+00	 4.596743e+00
 2.131860e-01	 1.888002e+00	 4.523147e+00
 1.822798e-01	 1.891236e+00	 4.453092e+00
 1.515057e-01	 1.893950e+00	 4.373149e+00
 3.083701e-01	 1.886068e+00	 4.815783e+00
 2.769572e-01	 1.890936e+00	 4.681553e+00
 2.456406e-01	 1.895259e+00	 4.586999e+00
 2.144327e-01	 1.899043e+00	 4.511378e+00
 1.833458e-01	 1.902296e+00	 4.439227e+00
 1.523917e-01	 1.905026e+00	 4.358819e+00
 3.101629e-01	 1.897034e+00	 4.863206e+00
 2.785675e-01	 1.901930e+00	 4.736772e+00
 2.470687e-01	 1.906278e+00	 4.646207e+00
 2.156794e-01	 1.910084e+00	 4.572597e+00
 1.844117e-01	 1.913356e+00	 4.502215e+00
 1.532777e-01	 1.916101e+00	 4.425003e+00
 3.119558e-01	 1.907999e+00	 4.969841e+00
 2.801777e-01	 1.912924e+00	 4.855600e+00
 2.484969e-01	 1.917297e+00	 4.773321e+00
 2.169261e-01	 1.921125e+00	 4.705891e+00
 1.854777e-01	 1.924416e+00	 4.641289e+00
 1.541637e-01	 1.927177e+00	 4.571083e+00
 3.137486e-01	 1.918965e+00	 5.134419e+00
 2.817879e-01	 1.923918e+00	 5.036872e+00
 2.499250e-01	 1.928316e+00	 4.967295e+00
 2.181728e-01	 1.932166e+00	 4.910348e+00
 1.865437e-01	 1.935476e+00	 4.855680e+00
 1.550497e-01	 1.938253e+00	 4.796438e+00
 1.506197e-01	 1.882874e+00	 4.468612e+00
 1.201681e-01	 1.885063e+00	 4.453051e+00
 8.987007e-02	 1.886750e+00	 4.439536e+00
 5.973601e-02	 1.887944e+00	 4.415618e+00
 2.977608e-02	 1.888654e+00	 4.367882e+00
 0.000000e+00	 1.888889e+00	 4.281026e+00
 1.515057e-01	 1.893950e+00	 4.373149e+00
 1.208750e-01	 1.896151e+00	 4.350471e+00
 9.039871e-02	 1.897848e+00	 4.326279e+00
 6.008740e-02	 1.899050e+00	 4.289897e+00
 2.995124e-02	 1.899764e+00	 4.229702e+00
 0.000000e+00	 1.900000e+00	 4.132205e+00
 1.523917e-01	 1.905026e+00	 4.358819e+00
 1.215819e-01	 1.907240e+00	 4.332028e+00
 9.092736e-02	 1.908947e+00	 4.299984e+00
 6.043879e-02	 1.910155e+00	 4.253748e+00
 3.012639e-02	 1.910874e+00	 4.183447e+00
 0.000000e+00	 1.911111e+00	 4.077375e+00
 1.532777e-01	 1.916101e+00	 4.425003e+00
 1.222888e-01	 1.918328e+00	 4.397257e+00
 9.145601e-02	 1.920045e+00	 4.360332e+00
 6.079018e-02	 1.921261e+00	 4.306984e+00
 3.030154e-02	 1.921983e+00	 4.229048e+00
 0.000000e+00	 1.922222e+00	 4.116563e+00
 1.541637e-01	 1.927177e+00	 4.571083e+00
 1.229956e-01	 1.929417e+00	 4.545690e+00
 9.198466e-02	 1.931144e+00	 4.507002e+00
 6.114156e-02	 1.932366e+00	 4.449418e+00
 3.047670e-02	 1.933093e+00	 4.366438e+00
 0.000000e+00	 1.933333e+00	 4.249800e+00
 1.550497e-01	 1.938253e+00	 4.796438e+00
 1.237025e-01	 1.940506e+00	 4.776861e+00
 9.251330e-02	 1.942242e+00	 4.739673e+00
 6.149295e-02	 1.943472e+00	 4.680864e+00
 3.065185e-02	 1.944203e+00	 4.595546e+00
 0.000000e+00	 1.944444e+00	 4.477113e+00
 1.944444e+00	 0.000000e+00	 1.268846e+01
 1.944203e+00	 3.065185e-02	 1.266938e+01
 1.943472e+00	 6.149295e-02	 1.266270e+01
 1.942242e+00	 9.251330e-02	 1.266661e+01
 1.940506e+00	 1.237025e-01	 1.267977e+01
 1.938253e+00	 1.550497e-01	 1.270118e+01
 1.955556e+00	 0.000000e+00	 1.269272e+01
 1.955313e+00	 3.082700e-02	 1.266990e+01
 1.954577e+00	 6.184434e-02	 1.265988e+01
 1.953341e+00	 9.304195e-02	 1.266103e+01
 1.951594e+00	 1.244094e-01	 1.267217e+01
 1.949328e+00	 1.559357e-01	 1.269243e+01
 1.966667e+00	 0.000000e+00	 1.268449e+01
 1.966422e+00	 3.100216e-02	 1.265711e+01
 1.965683e+00	 6.219573e-02	 1.264304e+01
 1.964439e+00	 9.357060e-02	 1.264083e+01
 1.962683e+00	 1.251162e-01	 1.264945e+01
 1.960404e+00	 1.568217e-01	 1.266815e+01
 1.977778e+00	 0.000000e+00	 1.266375e+01
 1.977532e+00	 3.117731e-02	 1.263105e+01
 1.976789e+00	 6.254712e-02	 1.261227e+01
 1.975538e+00	 9.409925e-02	 1.260616e+01
 1.973771e+00	 1.258231e-01	 1.261181e+01
 1.971480e+00	 1.577077e-01	 1.262858e+01
 1.988889e+00	 0.000000e+00	 1.263052e+01
 1.988642e+00	 3.135246e-02	 1.259175e+01
 1.987894e+00	 6.289851e-02	 1.256767e+01
 1.986636e+00	 9.462789e-02	 1.255714e+01
 1.984860e+00	 1.265300e-01	 1.255942e+01
 1.982556e+00	 1.585937e-01	 1.257395e+01
 2.000000e+00	 0.000000e+00	 1.258479e+01
 1.999751e+00	 3.152762e-02	 1.253929e+01
 1.999000e+00	 6.324989e-02	 1.250932e+01
 1.997735e+00	 9.515654e-02	 1.249393e+01
 1.995949e+00	 1.272369e-01	 1.249247e+01
 1.993631e+00	 1.594797e-01	 1.250448e+01
 1.938253e+00	 1.550497e-01	 1.270118e+01
 1.935476e+00	 1.865437e-01	 1.270209e+01
 1.932166e+00	 2.181728e-01	 1.270796e+01
 1.928316e+00	 2.499250e-01	 1.271798e+01
 1.923918e+00	 2.817879e-01	 1.273105e+01
 1.918965e+00	 3.137486e-01	 1.274552e+01
 1.949328e+00	 1.559357e-01	 1.269243e+01
 1.946535e+00	 1.876096e-01	 1.269340e+01
 1.943207e+00	 2.194195e-01	 1.269761e+01
 1.939335e+00	 2.513532e-01	 1.270457e+01
 1.934912e+00	 2.833981e-01	 1.271346e+01
 1.929930e+00	 3.155415e-01	 1.272293e+01
 1.960404e+00	 1.568217e-01	 1.266815e+01
 1.957595e+00	 1.886756e-01	 1.267076e+01
 1.954248e+00	 2.206662e-01	 1.267502e+01
 1.950354e+00	 2.527813e-01	 1.268071e+01
 1.945905e+00	 2.850083e-01	 1.268730e+01
 1.940896e+00	 3.173343e-01	 1.269376e+01
 1.971480e+00	 1.577077e-01	 1.262858e+01
 1.968655e+00	 1.897416e-01	 1.263442e+01
 1.965289e+00	 2.219129e-01	 1.264042e+01
 1.961373e+00	 2.542094e-01	 1.264665e+01
 1.956899e+00	 2.866185e-01	 1.265286e+01
 1.951861e+00	 3.191272e-01	 1.265828e+01
 1.982556e+00	 1.585937e-01	 1.257395e+01
 1.979715e+00	 1.908075e-01	 1.258463e+01
 1.976330e+00	 2.231596e-01	 1.259409e+01
 1.972392e+00	 2.556376e-01	 1.260267e+01
 1.967893e+00	 2.882288e-01	 1.261038e+01
 1.962827e+00	 3.209200e-01	 1.261676e+01
 1.993631e+00	 1.594797e-01	 1.250448e+01
 1.990775e+00	 1.918735e-01	 1.252162e+01
 1.987371e+00	 2.244063e-01	 1.253628e+01
 1.983411e+00	 2.570657e-01	 1.254902e+01
 1.978887e+00	 2.898390e-01	 1.256015e+01
 1.973792e+00	 3.227129e-01	 1.256946e+01
 1.918965e+00	 3.137486e-01	 1.274552e+01
 1.913450e+00	 3.457940e-01	 1.275615e+01
 1.907367e+00	 3.779106e-01	 1.278308e+01
 1.900709e+00	 4.100843e-01	 1.281293e+01
 1.893471e+00	 4.423010e-01	 1.284227e+01
 1.885649e+00	 4.745460e-01	 1.287288e+01
 1.929930e+00	 3.155415e-01	 1.272293e+01
 1.924384e+00	 3.477700e-01	 1.273400e+01
 1.918266e+00	 3.800701e-01	 1.275945e+01
 1.911570e+00	 4.124276e-01	 1.278700e+01
 1.904291e+00	 4.448284e-01	 1.281435e+01
 1.896424e+00	 4.772577e-01	 1.284292e+01
 1.940896e+00	 3.173343e-01	 1.269376e+01
 1.935318e+00	 3.497460e-01	 1.270531e+01
 1.929165e+00	 3.822295e-01	 1.272942e+01
 1.922431e+00	 4.147710e-01	 1.275500e+01
 1.915111e+00	 4.473558e-01	 1.278057e+01
 1.907199e+00	 4.799694e-01	 1.280723e+01
 1.951861e+00	 3.191272e-01	 1.265828e+01
 1.946252e+00	 3.517219e-01	 1.267037e+01
 1.940064e+00	 3.843890e-01	 1.269331e+01
 1.933293e+00	 4.171143e-01	 1.271724e+01
 1.925931e+00	 4.498833e-01	 1.274124e+01
 1.917974e+00	 4.826811e-01	 1.276608e+01
 1.962827e+00	 3.209200e-01	 1.261676e+01
 1.957186e+00	 3.536979e-01	 1.262947e+01
 1.950964e+00	 3.865485e-01	 1.265144e+01
 1.944154e+00	 4.194576e-01	 1.267403e+01
 1.936751e+00	 4.524107e-01	 1.269664e+01
 1.928749e+00	 4.853928e-01	 1.271973e+01
 1.973792e+00	 3.227129e-01	 1.256946e+01
 1.968120e+00	 3.556739e-01	 1.258290e+01
 1.961863e+00	 3.887080e-01	 1.260413e+01
 1.955015e+00	 4.218010e-01	 1.262566e+01
 1.947571e+00	 4.549381e-01	 1.264704e+01
 1.939524e+00	 4.881045e-01	 1.266842e+01
 1.885649e+00	 4.745460e-01	 1.287288e+01
 1.877236e+00	 5.068045e-01	 1.288587e+01
 1.868228e+00	 5.390613e-01	 1.290611e+01
 1.858623e+00	 5.713010e-01	 1.293428e+01
 1.848416e+00	 6.035077e-01	 1.297022e+01
 1.837605e+00	 6.356656e-01	 1.300684e+01
 1.896424e+00	 4.772577e-01	 1.284292e+01
 1.887963e+00	 5.097006e-01	 1.285468e+01
 1.878904e+00	 5.421417e-01	 1.287327e+01
 1.869244e+00	 5.745656e-01	 1.289939e+01
 1.858979e+00	 6.069563e-01	 1.293340e+01
 1.848106e+00	 6.392980e-01	 1.297476e+01
 1.907199e+00	 4.799694e-01	 1.280723e+01
 1.898690e+00	 5.125966e-01	 1.281944e+01
 1.889580e+00	 5.452220e-01	 1.283799e+01
 1.879864e+00	 5.778301e-01	 1.286359e+01
 1.869541e+00	 6.104050e-01	 1.289662e+01
 1.858607e+00	 6.429304e-01	 1.293720e+01
 1.917974e+00	 4.826811e-01	 1.276608e+01
 1.909417e+00	 5.154926e-01	 1.278038e+01
 1.900255e+00	 5.483024e-01	 1.280045e+01
 1.890485e+00	 5.810947e-01	 1.282699e+01
 1.880103e+00	 6.138536e-01	 1.286043e+01
 1.869107e+00	 6.465627e-01	 1.290098e+01
 1.928749e+00	 4.853928e-01	 1.271973e+01
 1.920144e+00	 5.183886e-01	 1.273771e+01
 1.910931e+00	 5.513827e-01	 1.276080e+01
 1.901106e+00	 5.843593e-01	 1.278971e+01
 1.890666e+00	 6.173022e-01	 1.282491e+01
 1.879608e+00	 6.501951e-01	 1.286670e+01
 1.939524e+00	 4.881045e-01	 1.266842e+01
 1.930871e+00	 5.212847e-01	 1.269164e+01
 1.921606e+00	 5.544631e-01	 1.271920e+01
 1.911726e+00	 5.876239e-01	 1.275184e+01
 1.901228e+00	 6.207508e-01	 1.279011e+01
 1.890108e+00	 6.538275e-01	 1.283436e+01
 1.837605e+00	 6.356656e-01	 1.300684e+01
 1.826188e+00	 6.677584e-01	 1.307261e+01
 1.814163e+00	 6.997698e-01	 1.311562e+01
 1.801528e+00	 7.316831e-01	 1.313448e+01
 1.788284e+00	 7.634817e-01	 1.313419e+01
 1.774430e+00	 7.951487e-01	 1.312943e+01
 1.848106e+00	 6.392980e-01	 1.297476e+01
 1.836623e+00	 6.715742e-01	 1.303709e+01
 1.824529e+00	 7.037684e-01	 1.307836e+01
 1.811823e+00	 7.358641e-01	 1.309681e+01
 1.798503e+00	 7.678444e-01	 1.309829e+01
 1.784570e+00	 7.996924e-01	 1.309480e+01
 1.858607e+00	 6.429304e-01	 1.293720e+01
 1.847059e+00	 6.753899e-01	 1.299705e+01
 1.834896e+00	 7.077671e-01	 1.303957e+01
 1.822117e+00	 7.400452e-01	 1.306080e+01
 1.808722e+00	 7.722072e-01	 1.306733e+01
 1.794709e+00	 8.042361e-01	 1.306824e+01
 1.869107e+00	 6.465627e-01	 1.290098e+01
 1.857494e+00	 6.792057e-01	 1.295416e+01
 1.845263e+00	 7.117658e-01	 1.299956e+01
 1.832412e+00	 7.442262e-01	 1.302674e+01
 1.818940e+00	 7.765699e-01	 1.304133e+01
 1.804849e+00	 8.087798e-01	 1.304965e+01
 1.879608e+00	 6.501951e-01	 1.286670e+01
 1.867930e+00	 6.830215e-01	 1.291508e+01
 1.855629e+00	 7.157645e-01	 1.295913e+01
 1.842706e+00	 7.484073e-01	 1.299485e+01
 1.829159e+00	 7.809327e-01	 1.302021e+01
 1.814989e+00	 8.133235e-01	 1.303890e+01
 1.890108e+00	 6.538275e-01	 1.283436e+01
 1.878365e+00	 6.868372e-01	 1.288063e+01
 1.865996e+00	 7.197632e-01	 1.292431e+01
 1.853000e+00	 7.525883e-01	 1.296513e+01
 1.839378e+00	 7.852954e-01	 1.300387e+01
 1.825128e+00	 8.178672e-01	 1.303577e+01
 1.774430e+00	 7.951487e-01	 1.312943e+01
 1.759968e+00	 8.266671e-01	 1.314643e+01
 1.744897e+00	 8.580200e-01	 1.315132e+01
 1.729221e+00	 8.891902e-01	 1.314827e+01
 1.712941e+00	 9.201607e-01	 1.314115e+01
 1.696062e+00	 9.509144e-01	 1.313272e+01
 1.784570e+00	 7.996924e-01	 1.309480e+01
 1.770024e+00	 8.313909e-01	 1.311317e+01
 1.754868e+00	 8.629230e-01	 1.311799e+01
 1.739102e+00	 8.942713e-01	 1.311306e+01
 1.722730e+00	 9.254188e-01	 1.310202e+01
 1.705754e+00	 9.563482e-01	 1.308752e+01
 1.794709e+00	 8.042361e-01	 1.306824e+01
 1.780081e+00	 8.361147e-01	 1.308757e+01
 1.764839e+00	 8.678259e-01	 1.309200e+01
 1.748983e+00	 8.993524e-01	 1.308497e+01
 1.732518e+00	 9.306768e-01	 1.306983e+01
 1.715445e+00	 9.617820e-01	 1.304911e+01
 1.804849e+00	 8.087798e-01	 1.304965e+01
 1.790138e+00	 8.408386e-01	 1.306951e+01
 1.774810e+00	 8.727289e-01	 1.307324e+01
 1.758865e+00	 9.044335e-01	 1.306385e+01
 1.742306e+00	 9.359349e-01	 1.304441e+01
 1.725137e+00	 9.672158e-01	 1.301733e+01
 1.814989e+00	 8.133235e-01	 1.303890e+01
 1.800195e+00	 8.455624e-01	 1.305883e+01
 1.784780e+00	 8.776319e-01	 1.306152e+01
 1.768746e+00	 9.095146e-01	 1.304951e+01
 1.752094e+00	 9.411930e-01	 1.302557e+01
 1.734829e+00	 9.726496e-01	 1.299195e+01
 1.825128e+00	 8.178672e-01	 1.303577e+01
 1.810252e+00	 8.502862e-01	 1.305532e+01
 1.794751e+00	 8.825349e-01	 1.305662e+01
 1.778627e+00	 9.145957e-01	 1.304172e+01
 1.761883e+00	 9.464510e-01	 1.301306e+01
 1.744521e+00	 9.780834e-01	 1.297273e+01
 1.696062e+00	 9.509144e-01	 1.313272e+01
 1.678586e+00	 9.814341e-01	 1.305263e+01
 1.660518e+00	 1.011703e+00	 1.299814e+01
 1.641864e+00	 1.041704e+00	 1.296531e+01
 1.622628e+00	 1.071420e+00	 1.294425e+01
 1.602818e+00	 1.100836e+00	 1.291734e+01
 1.705754e+00	 9.563482e-01	 1.308752e+01
 1.688178e+00	 9.870423e-01	 1.301483e+01
 1.670007e+00	 1.017484e+00	 1.296312e+01
 1.651246e+00	 1.047657e+00	 1.292870e+01
 1.631900e+00	 1.077543e+00	 1.290190e+01
 1.611977e+00	 1.107126e+00	 1.286542e+01
 1.715445e+00	 9.617820e-01	 1.304911e+01
 1.697770e+00	 9.926505e-01	 1.298372e+01
 1.679496e+00	 1.023265e+00	 1.293479e+01
 1.660628e+00	 1.053609e+00	 1.289884e+01
 1.641173e+00	 1.083665e+00	 1.286650e+01
 1.621136e+00	 1.113417e+00	 1.282091e+01
 1.725137e+00	 9.672158e-01	 1.301733e+01
 1.707362e+00	 9.982587e-01	 1.295912e+01
 1.688984e+00	 1.029046e+00	 1.291291e+01
 1.670010e+00	 1.059562e+00	 1.287548e+01
 1.650445e+00	 1.089788e+00	 1.283776e+01
 1.630295e+00	 1.119707e+00	 1.278448e+01
 1.734829e+00	 9.726496e-01	 1.299195e+01
 1.716954e+00	 1.003867e+00	 1.294079e+01
 1.698473e+00	 1.034828e+00	 1.289724e+01
 1.679392e+00	 1.065514e+00	 1.285833e+01
 1.659717e+00	 1.095910e+00	 1.281536e+01
 1.639454e+00	 1.125998e+00	 1.275560e+01
 1.744521e+00	 9.780834e-01	 1.297273e+01
 1.726546e+00	 1.009475e+00	 1.292845e+01
 1.707962e+00	 1.040609e+00	 1.288747e+01
 1.688774e+00	 1.071467e+00	 1.284707e+01
 1.668989e+00	 1.102033e+00	 1.279892e+01
 1.648613e+00	 1.132288e+00	 1.273341e+01
 1.602818e+00	 1.100836e+00	 1.291734e+01
 1.582440e+00	 1.129933e+00	 1.283888e+01
 1.561501e+00	 1.158697e+00	 1.275565e+01
 1.540010e+00	 1.187111e+00	 1.266887e+01
 1.517977e+00	 1.215159e+00	 1.257718e+01
 1.495409e+00	 1.242826e+00	 1.247959e+01
 1.611977e+00	 1.107126e+00	 1.286542e+01
 1.591482e+00	 1.136390e+00	 1.278508e+01
 1.570424e+00	 1.165318e+00	 1.270415e+01
 1.548810e+00	 1.193894e+00	 1.262179e+01
 1.526651e+00	 1.222103e+00	 1.253694e+01
 1.503954e+00	 1.249928e+00	 1.244891e+01
 1.621136e+00	 1.113417e+00	 1.282091e+01
 1.600525e+00	 1.142847e+00	 1.274175e+01
 1.579347e+00	 1.171939e+00	 1.266415e+01
 1.557611e+00	 1.200678e+00	 1.258721e+01
 1.535325e+00	 1.229047e+00	 1.251015e+01
 1.512499e+00	 1.257030e+00	 1.243258e+01
 1.630295e+00	 1.119707e+00	 1.278448e+01
 1.609567e+00	 1.149304e+00	 1.270795e+01
 1.588270e+00	 1.178560e+00	 1.263470e+01
 1.566411e+00	 1.207461e+00	 1.256414e+01
 1.543999e+00	 1.235990e+00	 1.249580e+01
 1.521044e+00	 1.264132e+00	 1.242958e+01
 1.639454e+00	 1.125998e+00	 1.275560e+01
 1.618610e+00	 1.155760e+00	 1.268276e+01
 1.597192e+00	 1.185182e+00	 1.261487e+01
 1.575211e+00	 1.214245e+00	 1.255165e+01
 1.552673e+00	 1.242934e+00	 1.249294e+01
 1.529590e+00	 1.271234e+00	 1.243894e+01
 1.648613e+00	 1.132288e+00	 1.273341e+01
 1.627652e+00	 1.162217e+00	 1.266533e+01
 1.606115e+00	 1.191803e+00	 1.260379e+01
 1.584011e+00	 1.221028e+00	 1.254885e+01
 1.561347e+00	 1.249878e+00	 1.250065e+01
 1.538135e+00	 1.278335e+00	 1.245972e+01
 1.495409e+00	 1.242826e+00	 1.247959e+01
 1.472317e+00	 1.270097e+00	 1.246085e+01
 1.448712e+00	 1.296957e+00	 1.238664e+01
 1.424605e+00	 1.323392e+00	 1.226110e+01
 1.400006e+00	 1.349387e+00	 1.209446e+01
 1.374930e+00	 1.374930e+00	 1.190141e+01
 1.503954e+00	 1.249928e+00	 1.244891e+01
 1.480730e+00	 1.277355e+00	 1.242029e+01
 1.456990e+00	 1.304368e+00	 1.233845e+01
 1.432745e+00	 1.330954e+00	 1.220884e+01
 1.408007e+00	 1.357098e+00	 1.204097e+01
 1.382787e+00	 1.382787e+00	 1.184922e+01
 1.512499e+00	 1.257030e+00	 1.243258e+01
 1.489144e+00	 1.284613e+00	 1.239583e+01
 1.465269e+00	 1.311780e+00	 1.230838e+01
 1.440886e+00	 1.338516e+00	 1.217636e+01
 1.416007e+00	 1.364809e+00	 1.200897e+01
 1.390643e+00	 1.390643e+00	 1.182031e+01
 1.521044e+00	 1.264132e+00	 1.242958e+01
 1.497557e+00	 1.291870e+00	 1.238575e+01
 1.473547e+00	 1.319191e+00	 1.229505e+01
 1.449026e+00	 1.346079e+00	 1.216236e+01
 1.424007e+00	 1.372520e+00	 1.199722e+01
 1.398500e+00	 1.398500e+00	 1.181347e+01
 1.529590e+00	 1.271234e+00	 1.243894e+01
 1.505970e+00	 1.299128e+00	 1.238906e+01
 1.481825e+00	 1.326602e+00	 1.229709e+01
 1.457167e+00	 1.353641e+00	 1.216553e+01
 1.432007e+00	 1.380230e+00	 1.200441e+01
 1.406357e+00	 1.406357e+00	 1.182742e+01
 1.538135e+00	 1.278335e+00	 1.245972e+01
 1.514383e+00	 1.306386e+00	 1.240479e+01
 1.490104e+00	 1.334013e+00	 1.231283e+01
 1.465308e+00	 1.361203e+00	 1.218451e+01
 1.440007e+00	 1.387941e+00	 1.202925e+01
 1.414214e+00	 1.414214e+00	 1.186086e+01
 1.374930e+00	 1.374930e+00	 1.190141e+01
 1.349387e+00	 1.400006e+00	 1.170317e+01
 1.323392e+00	 1.424605e+00	 1.152540e+01
 1.296957e+00	 1.448712e+00	 1.137324e+01
 1.270097e+00	 1.472317e+00	 1.124030e+01
 1.242826e+00	 1.495409e+00	 1.110034e+01
 1.382787e+00	 1.382787e+00	 1.184922e+01
 1.357098e+00	 1.408007e+00	 1.165442e+01
 1.330954e+00	 1.432745e+00	 1.147799e+01
 1.304368e+00	 1.456990e+00	 1.132485e+01
 1.277355e+00	 1.480730e+00	 1.118813e+01
 1.249928e+00	 1.503954e+00	 1.103249e+01
 1.390643e+00	 1.390643e+00	 1.182031e+01
 1.364809e+00	 1.416007e+00	 1.163032e+01
 1.338516e+00	 1.440886e+00	 1.145686e+01
 1.311780e+00	 1.465269e+00	 1.130473e+01
 1.284613e+00	 1.489144e+00	 1.116467e+01
 1.257030e+00	 1.512499e+00	 1.099285e+01
 1.398500e+00	 1.398500e+00	 1.181347e+01
 1.372520e+00	 1.424007e+00	 1.162966e+01
 1.346079e+00	 1.449026e+00	 1.146082e+01
 1.319191e+00	 1.473547e+00	 1.131171e+01
 1.291870e+00	 1.497557e+00	 1.116557e+01
 1.264132e+00	 1.521044e+00	 1.097952e+01
 1.406357e+00	 1.406357e+00	 1.182742e+01
 1.380230e+00	 1.432007e+00	 1.165119e+01
 1.353641e+00	 1.457167e+00	 1.148862e+01
 1.326602e+00	 1.481825e+00	 1.134453e+01
 1.299128e+00	 1.505970e+00	 1.118908e+01
 1.271234e+00	 1.529590e+00	 1.099071e+01
 1.414214e+00	 1.414214e+00	 1.186086e+01
 1.387941e+00	 1.440007e+00	 1.169362e+01
 1.361203e+00	 1.465308e+00	 1.153898e+01
 1.334013e+00	 1.490104e+00	 1.139897e+01
 1.306386e+00	 1.514383e+00	 1.123358e+01
 1.278335e+00	 1.538135e+00	 1.102471e+01
 1.242826e+00	 1.495409e+00	 1.110034e+01
 1.215159e+00	 1.517977e+00	 1.084607e+01
 1.187111e+00	 1.540010e+00	 1.062034e+01
 1.158697e+00	 1.561501e+00	 1.041701e+01
 1.129933e+00	 1.582440e+00	 1.023051e+01
 1.100836e+00	 1.602818e+00	 1.005660e+01
 1.249928e+00	 1.503954e+00	 1.103249e+01
 1.222103e+00	 1.526651e+00	 1.078210e+01
 1.193894e+00	 1.548810e+00	 1.055829e+01
 1.165318e+00	 1.570424e+00	 1.035514e+01
 1.136390e+00	 1.591482e+00	 1.016736e+01
 1.107126e+00	 1.611977e+00	 9.990732e+00
 1.257030e+00	 1.512499e+00	 1.099285e+01
 1.229047e+00	 1.535325e+00	 1.074770e+01
 1.200678e+00	 1.557611e+00	 1.052726e+01
 1.171939e+00	 1.579347e+00	 1.032585e+01
 1.142847e+00	 1.600525e+00	 1.013846e+01
 1.113417e+00	 1.621136e+00	 9.961173e+00
 1.264132e+00	 1.521044e+00	 1.097952e+01
 1.235990e+00	 1.543999e+00	 1.074091e+01
 1.207461e+00	 1.566411e+00	 1.052521e+01
 1.178560e+00	 1.588270e+00	 1.032702e+01
 1.149304e+00	 1.609567e+00	 1.014163e+01
 1.119707e+00	 1.630295e+00	 9.965502e+00
 1.271234e+00	 1.529590e+00	 1.099071e+01
 1.242934e+00	 1.552673e+00	 1.075987e+01
 1.214245e+00	 1.575211e+00	 1.055022e+01
 1.185182e+00	 1.597192e+00	 1.035665e+01
 1.155760e+00	 1.618610e+00	 1.017479e+01
 1.125998e+00	 1.639454e+00	 1.000148e+01
 1.278335e+00	 1.538135e+00	 1.102471e+01
 1.249878e+00	 1.561347e+00	 1.080279e+01
 1.221028e+00	 1.584011e+00	 1.060044e+01
 1.191803e+00	 1.606115e+00	 1.041282e+01
 1.162217e+00	 1.627652e+00	 1.023593e+01
 1.132288e+00	 1.648613e+00	 1.006702e+01
 1.100836e+00	 1.602818e+00	 1.005660e+01
 1.071420e+00	 1.622628e+00	 9.892932e+00
 1.041704e+00	 1.641864e+00	 9.704038e+00
 1.011703e+00	 1.660518e+00	 9.485676e+00
 9.814341e-01	 1.678586e+00	 9.242674e+00
 9.509144e-01	 1.696062e+00	 8.986793e+00
 1.107126e+00	 1.611977e+00	 9.990732e+00
 1.077543e+00	 1.631900e+00	 9.822206e+00
 1.047657e+00	 1.651246e+00	 9.632278e+00
 1.017484e+00	 1.670007e+00	 9.416717e+00
 9.870423e-01	 1.688178e+00	 9.180519e+00
 9.563482e-01	 1.705754e+00	 8.935683e+00
 1.113417e+00	 1.621136e+00	 9.961173e+00
 1.083665e+00	 1.641173e+00	 9.789277e+00
 1.053609e+00	 1.660628e+00	 9.599739e+00
 1.023265e+00	 1.679496e+00	 9.388415e+00
 9.926505e-01	 1.697770e+00	 9.160517e+00
 9.617820e-01	 1.715445e+00	 8.928316e+00
 1.119707e+00	 1.630295e+00	 9.965502e+00
 1.089788e+00	 1.650445e+00	 9.792064e+00
 1.059562e+00	 1.670010e+00	 9.604392e+00
 1.029046e+00	 1.688984e+00	 9.398795e+00
 9.982587e-01	 1.707362e+00	 9.180743e+00
 9.672158e-01	 1.725137e+00	 8.962830e+00
 1.125998e+00	 1.639454e+00	 1.000148e+01
 1.095910e+00	 1.659717e+00	 9.828514e+00
 1.065514e+00	 1.679392e+00	 9.644232e+00
 1.034828e+00	 1.698473e+00	 9.445892e+00
 1.003867e+00	 1.716954e+00	 9.239281e+00
 9.726496e-01	 1.734829e+00	 9.037357e+00
 1.132288e+00	 1.648613e+00	 1.006702e+01
 1.102033e+00	 1.668989e+00	 9.896609e+00
 1.071467e+00	 1.688774e+00	 9.717275e+00
 1.040609e+00	 1.707962e+00	 9.527761e+00
 1.009475e+00	 1.726546e+00	 9.334224e+00
 9.780834e-01	 1.744521e+00	 9.150038e+00
 9.509144e-01	 1.696062e+00	 8.986793e+00
 9.201607e-01	 1.712941e+00	 8.774758e+00
 8.891902e-01	 1.729221e+00	 8.534303e+00
 8.580200e-01	 1.744897e+00	 8.285457e+00
 8.266671e-01	 1.759968e+00	 8.048100e+00
 7.951487e-01	 1.774430e+00	 7.840638e+00
 9.563482e-01	 1.705754e+00	 8.935683e+00
 9.254188e-01	 1.722730e+00	 8.726148e+00
 8.942713e-01	 1.739102e+00	 8.484913e+00
 8.629230e-01	 1.754868e+00	 8.231773e+00
 8.313909e-01	 1.770024e+00	 7.986213e+00
 7.996924e-01	 1.784570e+00	 7.766058e+00
 9.617820e-01	 1.715445e+00	 8.928316e+00
 9.306768e-01	 1.732518e+00	 8.721026e+00
 8.993524e-01	 1.748983e+00	 8.479003e+00
 8.678259e-01	 1.764839e+00	 8.221817e+00
 8.361147e-01	 1.780081e+00	 7.968561e+00
 8.042361e-01	 1.794709e+00	 7.736457e+00
 9.672158e-01	 1.725137e+00	 8.962830e+00
 9.359349e-01	 1.742306e+00	 8.757629e+00
 9.044335e-01	 1.758865e+00	 8.514918e+00
 8.727289e-01	 1.774810e+00	 8.254057e+00
 8.408386e-01	 1.790138e+00	 7.993745e+00
 8.087798e-01	 1.804849e+00	 7.750587e+00
 9.726496e-01	 1.734829e+00	 9.037357e+00
 9.411930e-01	 1.752094e+00	 8.834185e+00
 9.095146e-01	 1.768746e+00	 8.590991e+00
 8.776319e-01	 1.784780e+00	 8.326940e+00
 8.455624e-01	 1.800195e+00	 8.060341e+00
 8.133235e-01	 1.814989e+00	 7.807167e+00
 9.780834e-01	 1.744521e+00	 9.150038e+00
 9.464510e-01	 1.761883e+00	 8.948918e+00
 9.145957e-01	 1.778627e+00	 8.705540e+00
 8.825349e-01	 1.794751e+00	 8.438893e+00
 8.502862e-01	 1.810252e+00	 8.166898e+00
 8.178672e-01	 1.825128e+00	 7.904884e+00
 7.951487e-01	 1.774430e+00	 7.840638e+00
 7.634817e-01	 1.788284e+00	 7.653072e+00
 7.316831e-01	 1.801528e+00	 7.425196e+00
 6.997698e-01	 1.814163e+00	 7.172821e+00
 6.677584e-01	 1.826188e+00	 6.924644e+00
 6.356656e-01	 1.837605e+00	 6.701962e+00
 7.996924e-01	 1.784570e+00	 7.766058e+00
 7.678444e-01	 1.798503e+00	 7.559610e+00
 7.358641e-01	 1.811823e+00	 7.331015e+00
 7.037684e-01	 1.824529e+00	 7.092425e+00
 6.715742e-01	 1.836623e+00	 6.869225e+00
 6.392980e-01	 1.848106e+00	 6.680342e+00
 8.042361e-01	 1.794709e+00	 7.736457e+00
 7.722072e-01	 1.808722e+00	 7.516219e+00
 7.400452e-01	 1.822117e+00	 7.291900e+00
 7.077671e-01	 1.834896e+00	 7.072535e+00
 6.753899e-01	 1.847059e+00	 6.879651e+00
 6.429304e-01	 1.858607e+00	 6.717004e+00
 8.087798e-01	 1.804849e+00	 7.750587e+00
 7.765699e-01	 1.818940e+00	 7.521743e+00
 7.442262e-01	 1.832412e+00	 7.306757e+00
 7.117658e-01	 1.845263e+00	 7.112121e+00
 6.792057e-01	 1.857494e+00	 6.946317e+00
 6.465627e-01	 1.869107e+00	 6.766628e+00
 8.133235e-01	 1.814989e+00	 7.807167e+00
 7.809327e-01	 1.829159e+00	 7.574991e+00
 7.484073e-01	 1.842706e+00	 7.374520e+00
 7.157645e-01	 1.855629e+00	 7.206345e+00
 6.830215e-01	 1.867930e+00	 7.023934e+00
 6.501951e-01	 1.879608e+00	 6.824731e+00
 8.178672e-01	 1.825128e+00	 7.904884e+00
 7.852954e-01	 1.839378e+00	 7.674735e+00
 7.525883e-01	 1.853000e+00	 7.493738e+00
 7.197632e-01	 1.865996e+00	 7.312785e+00
 6.868372e-01	 1.878365e+00	 7.105772e+00
 6.538275e-01	 1.890108e+00	 6.890756e+00
 6.356656e-01	 1.837605e+00	 6.701962e+00
 6.035077e-01	 1.848416e+00	 6.521343e+00
 5.713010e-01	 1.858623e+00	 6.362244e+00
 5.390613e-01	 1.868228e+00	 6.186885e+00
 5.068045e-01	 1.877236e+00	 5.999036e+00
 4.745460e-01	 1.885649e+00	 5.804698e+00
 6.392980e-01	 1.848106e+00	 6.680342e+00
 6.069563e-01	 1.858979e+00	 6.525297e+00
 5.745656e-01	 1.869244e+00	 6.353058e+00
 5.421417e-01	 1.878904e+00	 6.167867e+00
 5.097006e-01	 1.887963e+00	 5.975970e+00
 4.772577e-01	 1.896424e+00	 5.782526e+00
 6.429304e-01	 1.858607e+00	 6.717004e+00
 6.104050e-01	 1.869541e+00	 6.545692e+00
 5.778301e-01	 1.879864e+00	 6.360743e+00
 5.452220e-01	 1.889580e+00	 6.169601e+00
 5.125966e-01	 1.898690e+00	 5.977753e+00
 4.799694e-01	 1.907199e+00	 5.789545e+00
 6.465627e-01	 1.869107e+00	 6.766628e+00
 6.138536e-01	 1.880103e+00	 6.578546e+00
 5.810947e-01	 1.890485e+00	 6.384466e+00
 5.483024e-01	 1.900255e+00	 6.191150e+00
 5.154926e-01	 1.909417e+00	 6.003352e+00
 4.826811e-01	 1.917974e+00	 5.824632e+00
 6.501951e-01	 1.879608e+00	 6.824731e+00
 6.173022e-01	 1.890666e+00	 6.623166e+00
 5.843593e-01	 1.901106e+00	 6.423423e+00
 5.513827e-01	 1.910931e+00	 6.231609e+00
 5.183886e-01	 1.920144e+00	 6.051766e+00
 4.853928e-01	 1.928749e+00	 5.886695e+00
 6.538275e-01	 1.890108e+00	 6.890756e+00
 6.207508e-01	 1.901228e+00	 6.678884e+00
 5.876239e-01	 1.911726e+00	 6.476844e+00
 5.544631e-01	 1.921606e+00	 6.290104e+00
 5.212847e-01	 1.930871e+00	 6.122022e+00
 4.881045e-01	 1.939524e+00	 5.974673e+00
 4.745460e-01	 1.885649e+00	 5.804698e+00
 4.423010e-01	 1.893471e+00	 5.617674e+00
 4.100843e-01	 1.900709e+00	 5.456762e+00
 3.779106e-01	 1.907367e+00	 5.328726e+00
 3.457940e-01	 1.913450e+00	 5.232826e+00
 3.137486e-01	 1.918965e+00	 5.134419e+00
 4.772577e-01	 1.896424e+00	 5.782526e+00
 4.448284e-01	 1.904291e+00	 5.597722e+00
 4.124276e-01	 1.911570e+00	 5.433708e+00
 3.800701e-01	 1.918266e+00	 5.296295e+00
 3.477700e-01	 1.924384e+00	 5.185978e+00
 3.155415e-01	 1.929930e+00	 5.071838e+00
 4.799694e-01	 1.907199e+00	 5.789545e+00
 4.473558e-01	 1.915111e+00	 5.611098e+00
 4.147710e-01	 1.922431e+00	 5.448521e+00
 3.822295e-01	 1.929165e+00	 5.306704e+00
 3.497460e-01	 1.935318e+00	 5.186932e+00
 3.173343e-01	 1.940896e+00	 5.061917e+00
 4.826811e-01	 1.917974e+00	 5.824632e+00
 4.498833e-01	 1.925931e+00	 5.656610e+00
 4.171143e-01	 1.933293e+00	 5.499948e+00
 3.843890e-01	 1.940064e+00	 5.358649e+00
 3.517219e-01	 1.946252e+00	 5.234429e+00
 3.191272e-01	 1.951861e+00	 5.103462e+00
 4.853928e-01	 1.928749e+00	 5.886695e+00
 4.524107e-01	 1.936751e+00	 5.733093e+00
 4.194576e-01	 1.944154e+00	 5.586761e+00
 3.865485e-01	 1.950964e+00	 5.450852e+00
 3.536979e-01	 1.957186e+00	 5.327223e+00
 3.209200e-01	 1.962827e+00	 5.195286e+00
 4.881045e-01	 1.939524e+00	 5.974673e+00
 4.549381e-01	 1.947571e+00	 5.839410e+00
 4.218010e-01	 1.955015e+00	 5.707760e+00
 3.887080e-01	 1.961863e+00	 5.582058e+00
 3.556739e-01	 1.968120e+00	 5.464081e+00
 3.227129e-01	 1.973792e+00	 5.336212e+00
 3.137486e-01	 1.918965e+00	 5.134419e+00
 2.817879e-01	 1.923918e+00	 5.036872e+00
 2.499250e-01	 1.928316e+00	 4.967295e+00
 2.181728e-01	 1.932166e+00	 4.910348e+00
 1.865437e-01	 1.935476e+00	 4.855680e+00
 1.550497e-01	 1.938253e+00	 4.796438e+00
 3.155415e-01	 1.929930e+00	 5.071838e+00
 2.833981e-01	 1.934912e+00	 4.958487e+00
 2.513532e-01	 1.939335e+00	 4.875849e+00
 2.194195e-01	 1.943207e+00	 4.810391e+00
 1.876096e-01	 1.946535e+00	 4.753436e+00
 1.559357e-01	 1.949328e+00	 4.699693e+00
 3.173343e-01	 1.940896e+00	 5.061917e+00
 2.850083e-01	 1.945905e+00	 4.938697e+00
 2.527813e-01	 1.950354e+00	 4.848805e+00
 2.206662e-01	 1.954248e+00	 4.780481e+00
 1.886756e-01	 1.957595e+00	 4.726673e+00
 1.568217e-01	 1.960404e+00	 4.683595e+00
 3.191272e-01	 1.951861e+00	 5.103462e+00
 2.866185e-01	 1.956899e+00	 4.976377e+00
 2.542094e-01	 1.961373e+00	 4.885132e+00
 2.219129e-01	 1.965289e+00	 4.819696e+00
 1.897416e-01	 1.968655e+00	 4.774591e+00
 1.577077e-01	 1.971480e+00	 4.747480e+00
 3.209200e-01	 1.962827e+00	 5.195286e+00
 2.882288e-01	 1.967893e+00	 5.070410e+00
 2.556376e-01	 1.972392e+00	 4.983802e+00
 2.231596e-01	 1.976330e+00	 4.927117e+00
 1.908075e-01	 1.979715e+00	 4.896395e+00
 1.585937e-01	 1.982556e+00	 4.890679e+00
 3.227129e-01	 1.973792e+00	 5.336212e+00
 2.898390e-01	 1.978887e+00	 5.219680e+00
 2.570657e-01	 1.983411e+00	 5.143789e+00
 2.244063e-01	 1.987371e+00	 5.101826e+00
 1.918735e-01	 1.990775e+00	 5.091288e+00
 1.594797e-01	 1.993631e+00	 5.112528e+00
 1.550497e-01	 1.938253e+00	 4.796438e+00
 1.237025e-01	 1.940506e+00	 4.776861e+00
 9.251330e-02	 1.942242e+00	 4.739673e+00
 6.149295e-02	 1.943472e+00	 4.680864e+00
 3.065185e-02	 1.944203e+00	 4.595546e+00
 0.000000e+00	 1.944444e+00	 4.477113e+00
 1.559357e-01	 1.949328e+00	 4.699693e+00
 1.244094e-01	 1.951594e+00	 4.680836e+00
 9.304195e-02	 1.953341e+00	 4.636918e+00
 6.184434e-02	 1.954577e+00	 4.565328e+00
 3.082700e-02	 1.955313e+00	 4.462611e+00
 0.000000e+00	 1.955556e+00	 4.323653e+00
 1.568217e-01	 1.960404e+00	 4.683595e+00
 1.251162e-01	 1.962683e+00	 4.667745e+00
 9.357060e-02	 1.964439e+00	 4.619219e+00
 6.219573e-02	 1.965683e+00	 4.536740e+00
 3.100216e-02	 1.966422e+00	 4.418226e+00
 0.000000e+00	 1.966667e+00	 4.260002e+00
 1.577077e-01	 1.971480e+00	 4.747480e+00
 1.258231e-01	 1.973771e+00	 4.737099e+00
 9.409925e-02	 1.975538e+00	 4.686256e+00
 6.254712e-02	 1.976789e+00	 4.594939e+00
 3.117731e-02	 1.977532e+00	 4.462375e+00
 0.000000e+00	 1.977778e+00	 4.286264e+00
 1.585937e-01	 1.982556e+00	 4.890679e+00
 1.265300e-01	 1.984860e+00	 4.888408e+00
 9.462789e-02	 1.986636e+00	 4.837710e+00
 6.289851e-02	 1.987894e+00	 4.739765e+00
 3.135246e-02	 1.988642e+00	 4.595039e+00
 0.000000e+00	 1.988889e+00	 4.402544e+00
 1.594797e-01	 1.993631e+00	 5.112528e+00
 1.272369e-01	 1.995949e+00	 5.121183e+00
 9.515654e-02	 1.997735e+00	 5.073261e+00
 6.324989e-02	 1.999000e+00	 4.971057e+00
 3.152762e-02	 1.999751e+00	 4.816200e+00
 0.000000e+00	 2.000000e+00	 4.608944e+00
