x	y	stress_xx
 1.0000000000e+00	 0.0000000000e+00	-4.2036524542e+00
 9.9986064260e-01	 1.6694172137e-02	 5.0820071215e+00
 9.9943881383e-01	 3.3497125286e-02	 9.8924155631e+00
 9.9872897451e-01	 5.0402732834e-02	 1.1401664258e+01
 9.9772572376e-01	 6.7404600309e-02	 1.1083312616e+01
 9.9642381276e-01	 8.4496067130e-02	 1.0716934760e+01
 1.0117647059e+00	 0.0000000000e+00	 1.3690366890e+00
 1.0116237090e+00	 1.6890574162e-02	 5.7778752505e+00
 1.0111969175e+00	 3.3891209113e-02	 7.9424576492e+00
 1.0104787271e+00	 5.0995706161e-02	 8.7783620083e+00
 1.0094636735e+00	 6.8197595607e-02	 9.3906859302e+00
 1.0081464459e+00	 8.5490138508e-02	 1.1076982692e+01
 1.0235294118e+00	 0.0000000000e+00	 4.1393861548e+00
 1.0233867754e+00	 1.7086976187e-02	 5.5294397315e+00
 1.0229550212e+00	 3.4285292940e-02	 6.2741868065e+00
 1.0222284798e+00	 5.1588679489e-02	 7.0148930940e+00
 1.0212016231e+00	 6.8990590905e-02	 8.4946061163e+00
 1.0198690789e+00	 8.6484209886e-02	 1.1558549333e+01
 1.0352941176e+00	 0.0000000000e+00	 5.1793431993e+00
 1.0351498417e+00	 1.7283378212e-02	 4.6254087187e+00
 1.0347131249e+00	 3.4679376767e-02	 4.6276811518e+00
 1.0339782324e+00	 5.2181652816e-02	 5.5387346694e+00
 1.0329395728e+00	 6.9783586202e-02	 7.7468727610e+00
 1.0315917120e+00	 8.7478281264e-02	 1.1675025715e+01
 1.0470588235e+00	 0.0000000000e+00	 5.5126776741e+00
 1.0469129081e+00	 1.7479780237e-02	 3.3415118921e+00
 1.0464712286e+00	 3.5073460594e-02	 2.7546948041e+00
 1.0457279851e+00	 5.2774626143e-02	 3.8030860939e+00
 1.0446775225e+00	 7.0576581500e-02	 6.5284053966e+00
 1.0433143451e+00	 8.8472352642e-02	 1.0961656563e+01
 1.0588235294e+00	 0.0000000000e+00	 6.1176585482e+00
 1.0586759745e+00	 1.7676182262e-02	 1.9412214839e+00
 1.0582293323e+00	 3.5467544421e-02	 4.1800921738e-01
 1.0574777377e+00	 5.3367599471e-02	 1.2854399209e+00
 1.0564154722e+00	 7.1369576798e-02	 4.2476257256e+00
 1.0550369782e+00	 8.9466424020e-02	 8.9743261978e+00
 9.9642381276e-01	 8.4496067130e-02	 1.0716934760e+01
 9.9481815855e-01	 1.0167020908e-01	 1.1069440717e+01
 9.9290385803e-01	 1.1891984155e-01	 1.1498979205e+01
 9.9067620198e-01	 1.3623752361e-01	 1.1871247979e+01
 9.8813068916e-01	 1.5361556282e-01	 1.2006991038e+01
 9.8526304037e-01	 1.7104602093e-01	 1.1681953658e+01
 1.0081464459e+00	 8.5490138508e-02	 1.1076982692e+01
 1.0065219016e+00	 1.0286632918e-01	 1.3024263234e+01
 1.0045850799e+00	 1.2031889851e-01	 1.3674158075e+01
 1.0023312161e+00	 1.3784031801e-01	 1.3344625262e+01
 9.9975575609e-01	 1.5542280473e-01	 1.2343130016e+01
 9.9685437026e-01	 1.7305832706e-01	 1.0965561925e+01
 1.0198690789e+00	 8.6484209886e-02	 1.1558549333e+01
 1.0182256446e+00	 1.0406244929e-01	 1.4396653114e+01
 1.0162663017e+00	 1.2171795547e-01	 1.5004001166e+01
 1.0139862303e+00	 1.3944311240e-01	 1.4022294253e+01
 1.0113808230e+00	 1.5723004665e-01	 1.2108048346e+01
 1.0084457001e+00	 1.7507063319e-01	 9.9307638701e+00
 1.0315917120e+00	 8.7478281264e-02	 1.1675025715e+01
 1.0299293877e+00	 1.0525856940e-01	 1.4947407922e+01
 1.0279475236e+00	 1.2311701243e-01	 1.5433895262e+01
 1.0256412444e+00	 1.4104590680e-01	 1.3975742100e+01
 1.0230058900e+00	 1.5903728857e-01	 1.1445403799e+01
 1.0200370300e+00	 1.7708293932e-01	 8.7442430092e+00
 1.0433143451e+00	 8.8472352642e-02	 1.0961656563e+01
 1.0416331307e+00	 1.0645468951e-01	 1.4448055595e+01
 1.0396287455e+00	 1.2451606939e-01	 1.4911657238e+01
 1.0372962585e+00	 1.4264870119e-01	 1.3273214274e+01
 1.0346309569e+00	 1.6084453048e-01	 1.0492364326e+01
 1.0316283599e+00	 1.7909524545e-01	 7.5651534695e+00
 1.0550369782e+00	 8.9466424020e-02	 8.9743261978e+00
 1.0533368738e+00	 1.0765080961e-01	 1.2680258305e+01
 1.0513099673e+00	 1.2591512635e-01	 1.3387399053e+01
 1.0489512727e+00	 1.4425149559e-01	 1.1979894667e+01
 1.0462560238e+00	 1.6265177240e-01	 9.3799686056e+00
 1.0432196898e+00	 1.8110755158e-01	 6.5455382887e+00
 9.8526304037e-01	 1.7104602093e-01	 1.1681953658e+01
 9.8206921241e-01	 1.8852072043e-01	 1.1428975384e+01
 9.7854541195e-01	 2.0603125189e-01	 1.1884685488e+01
 9.7468810918e-01	 2.2356898224e-01	 1.2924494853e+01
 9.7049405128e-01	 2.4112506387e-01	 1.4393405695e+01
 9.6596027552e-01	 2.5869044459e-01	 1.6105384923e+01
 9.9685437026e-01	 1.7305832706e-01	 1.0965561925e+01
 9.9362296785e-01	 1.9073861126e-01	 1.0176417503e+01
 9.9005771091e-01	 2.0845514897e-01	 1.0527003874e+01
 9.8615502811e-01	 2.2619920556e-01	 1.1661057162e+01
 9.8191162836e-01	 2.4396182932e-01	 1.3191971541e+01
 9.7732451405e-01	 2.6173386159e-01	 1.4703436917e+01
 1.0084457001e+00	 1.7507063319e-01	 9.9307638701e+00
 1.0051767233e+00	 1.9295650209e-01	 8.7133328889e+00
 1.0015700099e+00	 2.1087904605e-01	 8.9075886308e+00
 9.9762194704e-01	 2.2882942888e-01	 1.0012417771e+01
 9.9332920543e-01	 2.4679859478e-01	 1.1497635934e+01
 9.8868875259e-01	 2.6477727858e-01	 1.2805479518e+01
 1.0200370300e+00	 1.7708293932e-01	 8.7442430092e+00
 1.0167304787e+00	 1.9517439291e-01	 7.2058199717e+00
 1.0130823088e+00	 2.1330294313e-01	 7.1885743757e+00
 1.0090888660e+00	 2.3145965220e-01	 8.1303353941e+00
 1.0047467825e+00	 2.4963536024e-01	 9.4423008220e+00
 1.0000529911e+00	 2.6782069558e-01	 1.0510980824e+01
 1.0316283599e+00	 1.7909524545e-01	 7.5651534695e+00
 1.0282842342e+00	 1.9739228374e-01	 5.8124692140e+00
 1.0245946078e+00	 2.1572684021e-01	 5.5247608720e+00
 1.0205557849e+00	 2.3408987552e-01	 6.1596950367e+00
 1.0161643596e+00	 2.5247212569e-01	 7.1518815688e+00
 1.0114172297e+00	 2.7086411257e-01	 7.9148746058e+00
 1.0432196898e+00	 1.8110755158e-01	 6.5455382887e+00
 1.0398379896e+00	 1.9961017457e-01	 4.6847802197e+00
 1.0361069068e+00	 2.1815073729e-01	 4.0640205196e+00
 1.0320227038e+00	 2.3672009884e-01	 4.2388898725e+00
 1.0275819367e+00	 2.5530889115e-01	 4.7466395390e+00
 1.0227814682e+00	 2.7390752957e-01	 5.1078122145e+00
 9.6596027552e-01	 2.5869044459e-01	 1.6105384923e+01
 9.6108412201e-01	 2.7625587852e-01	 1.7551300742e+01
 9.5586324611e-01	 2.9381193771e-01	 1.8434634680e+01
 9.5029563021e-01	 3.1134902473e-01	 1.8880191062e+01
 9.4437959512e-01	 3.2885738599e-01	 1.9033586593e+01
 9.3811381073e-01	 3.4632712587e-01	 1.9061336774e+01
 9.7732451405e-01	 2.6173386159e-01	 1.4703436917e+01
 9.7239099404e-01	 2.7950594768e-01	 1.5689489805e+01
 9.6710869606e-01	 2.9726854874e-01	 1.6082516980e+01
 9.6147557880e-01	 3.1501195444e-01	 1.6115549216e+01
 9.5548994330e-01	 3.3272629641e-01	 1.6039382383e+01
 9.4915044380e-01	 3.5040156264e-01	 1.6121985860e+01
 9.8868875259e-01	 2.6477727858e-01	 1.2805479518e+01
 9.8369786606e-01	 2.8275601684e-01	 1.3450073517e+01
 9.7835414602e-01	 3.0072515978e-01	 1.3520133213e+01
 9.7265552739e-01	 3.1867488414e-01	 1.3311454001e+01
 9.6660029148e-01	 3.3659520684e-01	 1.3134219828e+01
 9.6018707687e-01	 3.5447599942e-01	 1.3311960912e+01
 1.0000529911e+00	 2.6782069558e-01	 1.0510980824e+01
 9.9500473808e-01	 2.8600608600e-01	 1.0893911315e+01
 9.8959959597e-01	 3.0418177081e-01	 1.0773050079e+01
 9.8383547598e-01	 3.2233781384e-01	 1.0463025898e+01
 9.7771063965e-01	 3.4046411726e-01	 1.0289159958e+01
 9.7122370994e-01	 3.5855043619e-01	 1.0458886214e+01
 1.0114172297e+00	 2.7086411257e-01	 7.9148746058e+00
 1.0063116101e+00	 2.8925615515e-01	 8.0790579844e+00
 1.0008450459e+00	 3.0763838184e-01	 7.8656101811e+00
 9.9501542457e-01	 3.2600074355e-01	 7.5655239472e+00
 9.8882098783e-01	 3.4433302768e-01	 7.4764779146e+00
 9.8226034300e-01	 3.6262487297e-01	 7.4844200492e+00
 1.0227814682e+00	 2.7390752957e-01	 5.1078122145e+00
 1.0176184821e+00	 2.9250622431e-01	 5.0609194714e+00
 1.0120904959e+00	 3.1109499287e-01	 4.8210000266e+00
 1.0061953732e+00	 3.2966367325e-01	 4.6143380446e+00
 9.9993133601e-01	 3.4820193811e-01	 4.6695954948e+00
 9.9329697607e-01	 3.6669930974e-01	 4.6358558243e+00
 9.3811381073e-01	 3.4632712587e-01	 1.9061336774e+01
 9.3149730609e-01	 3.6374822164e-01	 1.8446608893e+01
 9.2452947869e-01	 3.8111053912e-01	 1.6790071493e+01
 9.1721010304e-01	 3.9840384897e-01	 1.5576501233e+01
 9.0953933834e-01	 4.1561784371e-01	 1.4899491059e+01
 9.0151773529e-01	 4.3274215528e-01	 1.4842902937e+01
 9.4915044380e-01	 3.5040156264e-01	 1.6121985860e+01
 9.4245609793e-01	 3.6802761248e-01	 1.5340887324e+01
 9.3540629609e-01	 3.8559419252e-01	 1.4158838931e+01
 9.2800081014e-01	 4.0309095307e-01	 1.3379822113e+01
 9.2023980115e-01	 4.2050746540e-01	 1.3014543300e+01
 9.1212382629e-01	 4.3783323946e-01	 1.3064208293e+01
 9.6018707687e-01	 3.5447599942e-01	 1.3311960912e+01
 9.5341488976e-01	 3.7230700333e-01	 1.2419142341e+01
 9.4628311349e-01	 3.9007784592e-01	 1.1625216099e+01
 9.3879151723e-01	 4.0777805718e-01	 1.1173467072e+01
 9.3094026395e-01	 4.2539708709e-01	 1.1022398319e+01
 9.2272991730e-01	 4.4292432364e-01	 1.1122816853e+01
 9.7122370994e-01	 3.5855043619e-01	 1.0458886214e+01
 9.6437368160e-01	 3.7658639417e-01	 9.6424306442e+00
 9.5715993088e-01	 3.9456149932e-01	 9.1554527712e+00
 9.4958222433e-01	 4.1246516128e-01	 8.9386530169e+00
 9.4164072676e-01	 4.3028670878e-01	 8.9280199098e+00
 9.3333600830e-01	 4.4801540782e-01	 9.0551876438e+00
 9.8226034300e-01	 3.6262487297e-01	 7.4844200492e+00
 9.7533247344e-01	 3.8086578501e-01	 6.9740040952e+00
 9.6803674828e-01	 3.9904515272e-01	 6.7177725638e+00
 9.6037293142e-01	 4.1715226539e-01	 6.6579089026e+00
 9.5234118956e-01	 4.3517633047e-01	 6.7366262939e+00
 9.4394209931e-01	 4.5310649200e-01	 6.8966270162e+00
 9.9329697607e-01	 3.6669930974e-01	 4.6358558243e+00
 9.8629126527e-01	 3.8514517586e-01	 4.3791877656e+00
 9.7891356568e-01	 4.0352880613e-01	 4.2822632804e+00
 9.7116363852e-01	 4.2183936950e-01	 4.3150028397e+00
 9.6304165236e-01	 4.4006595216e-01	 4.4536759904e+00
 9.5454819031e-01	 4.5819757618e-01	 4.6813526843e+00
 9.0151773529e-01	 4.3274215528e-01	 1.4842902937e+01
 8.9314624197e-01	 4.4976637320e-01	 1.4900810563e+01
 8.8442620870e-01	 4.6668006318e-01	 1.4498950759e+01
 8.7535939192e-01	 4.8347278617e-01	 1.3625564591e+01
 8.6594795698e-01	 5.0013411782e-01	 1.2288769062e+01
 8.5619447978e-01	 5.1665366814e-01	 1.0517062256e+01
 9.1212382629e-01	 4.3783323946e-01	 1.3064208293e+01
 9.0365384481e-01	 4.5505774230e-01	 1.3082910473e+01
 8.9483122292e-01	 4.7217041686e-01	 1.2643433679e+01
 8.8565773771e-01	 4.8916070131e-01	 1.1784107785e+01
 8.7613558000e-01	 5.0601804862e-01	 1.0565301697e+01
 8.6626735601e-01	 5.2273194659e-01	 9.0696855958e+00
 9.2272991730e-01	 4.4292432364e-01	 1.1122816853e+01
 9.1416144766e-01	 4.6034911139e-01	 1.1107225047e+01
 9.0523623714e-01	 4.7766077055e-01	 1.0678686667e+01
 8.9595608350e-01	 4.9484861644e-01	 9.9046796021e+00
 8.8632320302e-01	 5.1190197941e-01	 8.8748503677e+00
 8.7634023224e-01	 5.2881022504e-01	 7.7011164326e+00
 9.3333600830e-01	 4.4801540782e-01	 9.0551876438e+00
 9.2466905051e-01	 4.6564048049e-01	 9.0376492847e+00
 9.1564125136e-01	 4.8315112423e-01	 8.6813189144e+00
 9.0625442929e-01	 5.0053653157e-01	 8.0625779197e+00
 8.9651082605e-01	 5.1778591021e-01	 7.2781198768e+00
 8.8641310847e-01	 5.3488850348e-01	 6.4449744026e+00
 9.4394209931e-01	 4.5310649200e-01	 6.8966270162e+00
 9.3517665335e-01	 4.7093184959e-01	 6.9356995706e+00
 9.2604626558e-01	 4.8864147792e-01	 6.7249954264e+00
 9.1655277507e-01	 5.0622444670e-01	 6.3302199251e+00
 9.0669844907e-01	 5.2366984101e-01	 5.8335934606e+00
 8.9648598471e-01	 5.4096678193e-01	 5.3338768357e+00
 9.5454819031e-01	 4.5819757618e-01	 4.6813526843e+00
 9.4568425620e-01	 4.7622321868e-01	 4.8606458222e+00
 9.3645127980e-01	 4.9413183160e-01	 4.8806005928e+00
 9.2685112086e-01	 5.1191236183e-01	 4.7773021531e+00
 9.1688607209e-01	 5.2955377181e-01	 4.5976562079e+00
 9.0655886094e-01	 5.4704506038e-01	 4.3994944391e+00
 8.5619447978e-01	 5.1665366814e-01	 1.0517062256e+01
 8.4610194737e-01	 5.3302110150e-01	 8.6089880347e+00
 8.3567375738e-01	 5.4922615672e-01	 6.8919632834e+00
 8.2491371619e-01	 5.6525866720e-01	 5.4485592119e+00
 8.1382603605e-01	 5.8110858111e-01	 4.3546519778e+00
 8.0241533094e-01	 5.9676598150e-01	 3.6790129058e+00
 8.6626735601e-01	 5.2273194659e-01	 9.0696855958e+00
 8.5605608793e-01	 5.3929193799e-01	 7.5257195291e+00
 8.4550521335e-01	 5.5568764092e-01	 6.1506450615e+00
 8.3461858344e-01	 5.7190876916e-01	 5.0195198198e+00
 8.2340046000e-01	 5.8794515266e-01	 4.1969152427e+00
 8.1185551130e-01	 6.0378675776e-01	 3.7365088985e+00
 8.7634023224e-01	 5.2881022504e-01	 7.7011164326e+00
 8.6601022849e-01	 5.4556277448e-01	 6.5120962293e+00
 8.5533666932e-01	 5.6214912511e-01	 5.4128926193e+00
 8.4432345069e-01	 5.7855887113e-01	 4.4884049244e+00
 8.3297488396e-01	 5.9478172420e-01	 3.8118664983e+00
 8.2129569166e-01	 6.1080753401e-01	 3.4443651091e+00
 8.8641310847e-01	 5.3488850348e-01	 6.4449744026e+00
 8.7596436905e-01	 5.5183361097e-01	 5.5785978910e+00
 8.6516812529e-01	 5.6861060931e-01	 4.6855354130e+00
 8.5402831794e-01	 5.8520897310e-01	 3.8773210870e+00
 8.4254930791e-01	 6.0161829574e-01	 3.2551946800e+00
 8.3073587203e-01	 6.1782831026e-01	 2.9094773121e+00
 8.9648598471e-01	 5.4096678193e-01	 5.3338768357e+00
 8.8591850960e-01	 5.5810444746e-01	 4.7357426103e+00
 8.7499958126e-01	 5.7507209351e-01	 3.9756046599e+00
 8.6373318519e-01	 5.9185907507e-01	 3.2078881080e+00
 8.5212373187e-01	 6.0845486729e-01	 2.5805894762e+00
 8.4017605239e-01	 6.2484908651e-01	 2.2344362115e+00
 9.0655886094e-01	 5.4704506038e-01	 4.3994944391e+00
 8.9587265016e-01	 5.6437528395e-01	 3.9940846934e+00
 8.8483103723e-01	 5.8153357770e-01	 3.2903221298e+00
 8.7343805244e-01	 5.9850917703e-01	 2.5012660682e+00
 8.6169815582e-01	 6.1529143883e-01	 1.8398523982e+00
 8.4961623276e-01	 6.3186986277e-01	 1.5177666114e+00
 8.0241533094e-01	 5.9676598150e-01	 3.6790129058e+00
 7.9068661123e-01	 6.1222110615e-01	 3.2559630569e+00
 7.7864527726e-01	 6.2746436728e-01	 2.9298719440e+00
 7.6629711160e-01	 6.4248637087e-01	 2.7706359882e+00
 7.5364827034e-01	 6.5727793559e-01	 2.8364167308e+00
 7.4070527310e-01	 6.7183011127e-01	 3.1729813103e+00
 8.1185551130e-01	 6.0378675776e-01	 3.7365088985e+00
 7.9998880666e-01	 6.1942370740e-01	 3.4704688850e+00
 7.8780580993e-01	 6.3484630101e-01	 3.2526437400e+00
 7.7531237174e-01	 6.5004503405e-01	 3.1594591553e+00
 7.6251472058e-01	 6.6501061719e-01	 3.2649634449e+00
 7.4941945278e-01	 6.7973399493e-01	 3.6401453347e+00
 8.2129569166e-01	 6.1080753401e-01	 3.4443651091e+00
 8.0929100209e-01	 6.2662630865e-01	 3.2709044841e+00
 7.9696634261e-01	 6.4222823474e-01	 3.1768451286e+00
 7.8432763188e-01	 6.5760369724e-01	 3.2172506091e+00
 7.7138117082e-01	 6.7274329878e-01	 3.4505221911e+00
 7.5813363247e-01	 6.8763787859e-01	 3.9378467275e+00
 8.3073587203e-01	 6.1782831026e-01	 2.9094773121e+00
 8.1859319751e-01	 6.3382890990e-01	 2.8095835181e+00
 8.0612687528e-01	 6.4961016848e-01	 2.8720799302e+00
 7.9334289201e-01	 6.6516236043e-01	 3.1037304804e+00
 7.8024762106e-01	 6.8047598038e-01	 3.5167952304e+00
 7.6684781215e-01	 6.9554176225e-01	 4.1287583244e+00
 8.4017605239e-01	 6.2484908651e-01	 2.2344362115e+00
 8.2789539294e-01	 6.4103151115e-01	 2.2324677377e+00
 8.1528740795e-01	 6.5699210221e-01	 2.5008162147e+00
 8.0235815215e-01	 6.7272102361e-01	 2.9719194896e+00
 7.8911407130e-01	 6.8820866197e-01	 3.5823952482e+00
 7.7556199183e-01	 7.0344564591e-01	 4.2731963092e+00
 8.4961623276e-01	 6.3186986277e-01	 1.5177666114e+00
 8.3719758836e-01	 6.4823411239e-01	 1.6795198639e+00
 8.2444794063e-01	 6.6437403594e-01	 2.2187827329e+00
 8.1137341229e-01	 6.8027968680e-01	 2.9685111361e+00
 7.9798052153e-01	 6.9594134357e-01	 3.7611281079e+00
 7.8427617152e-01	 7.1134952958e-01	 4.4292511395e+00
 7.4070527310e-01	 6.7183011127e-01	 3.1729813103e+00
 7.2747499208e-01	 6.8613419671e-01	 4.4204092617e+00
 7.1396463999e-01	 7.0018175700e-01	 7.1988066684e+00
 7.0018175700e-01	 7.1396463999e-01	 9.9672455321e+00
 6.8613419671e-01	 7.2747499208e-01	 1.4835395415e+01
 6.7183011127e-01	 7.4070527310e-01	 1.9330551612e+01
 7.4941945278e-01	 6.7973399493e-01	 3.6401453347e+00
 7.3603352140e-01	 6.9420636373e-01	 4.9439210277e+00
 7.2236422399e-01	 7.0841918944e-01	 7.7615236009e+00
 7.0841918944e-01	 7.2236422399e-01	 1.2668116855e+01
 6.9420636373e-01	 7.3603352140e-01	 1.7366539242e+01
 6.7973399493e-01	 7.4941945278e-01	 2.1263980440e+01
 7.5813363247e-01	 6.8763787859e-01	 3.9378467275e+00
 7.4459205072e-01	 7.0227853075e-01	 5.3012891906e+00
 7.3076380799e-01	 7.1665662187e-01	 8.5902774773e+00
 7.1665662187e-01	 7.3076380799e-01	 1.5065971960e+01
 7.0227853075e-01	 7.4459205072e-01	 1.9779162385e+01
 6.8763787859e-01	 7.5813363247e-01	 2.3158233353e+01
 7.6684781215e-01	 6.9554176225e-01	 4.1287583244e+00
 7.5315058004e-01	 7.1035069777e-01	 5.4915246374e+00
 7.3916339199e-01	 7.2489405431e-01	 1.0611575475e+01
 7.2489405431e-01	 7.3916339199e-01	 1.6709830602e+01
 7.1035069777e-01	 7.5315058004e-01	 2.1976736140e+01
 6.9554176225e-01	 7.6684781215e-01	 2.4912238314e+01
 7.7556199183e-01	 7.0344564591e-01	 4.2731963092e+00
 7.6170910936e-01	 7.1842286479e-01	 6.7136089001e+00
 7.4756297599e-01	 7.3313148674e-01	 1.2568292766e+01
 7.3313148674e-01	 7.4756297599e-01	 1.8171999494e+01
 7.1842286479e-01	 7.6170910936e-01	 2.3361667797e+01
 7.0344564591e-01	 7.7556199183e-01	 2.6429724425e+01
 7.8427617152e-01	 7.1134952958e-01	 4.4292511395e+00
 7.7026763867e-01	 7.2649503181e-01	 9.0759849418e+00
 7.5596255999e-01	 7.4136891918e-01	 1.4401898840e+01
 7.4136891918e-01	 7.5596255999e-01	 1.9366982590e+01
 7.2649503181e-01	 7.7026763867e-01	 2.3921961262e+01
 7.1134952958e-01	 7.8427617152e-01	 2.7618955194e+01
 6.7183011127e-01	 7.4070527310e-01	 1.9330551612e+01
 6.5727793559e-01	 7.5364827034e-01	 2.3154978957e+01
 6.4248637087e-01	 7.6629711160e-01	 2.6068350793e+01
 6.2746436728e-01	 7.7864527726e-01	 2.8136364651e+01
 6.1222110615e-01	 7.9068661123e-01	 2.9470094446e+01
 5.9676598150e-01	 8.0241533094e-01	 3.0224924149e+01
 6.7973399493e-01	 7.4941945278e-01	 2.1263980440e+01
 6.6501061719e-01	 7.6251472058e-01	 2.4236057492e+01
 6.5004503405e-01	 7.7531237174e-01	 2.6333007957e+01
 6.3484630101e-01	 7.8780580993e-01	 2.7762377386e+01
 6.1942370740e-01	 7.9998880666e-01	 2.8767354798e+01
 6.0378675776e-01	 8.1185551130e-01	 2.9625015366e+01
 6.8763787859e-01	 7.5813363247e-01	 2.3158233353e+01
 6.7274329878e-01	 7.7138117082e-01	 2.5466673475e+01
 6.5760369724e-01	 7.8432763188e-01	 2.6972341698e+01
 6.4222823474e-01	 7.9696634261e-01	 2.7966526949e+01
 6.2662630865e-01	 8.0929100209e-01	 2.8766688269e+01
 6.1080753401e-01	 8.2129569166e-01	 2.9714323394e+01
 6.9554176225e-01	 7.6684781215e-01	 2.4912238314e+01
 6.8047598038e-01	 7.8024762106e-01	 2.6745482460e+01
 6.6516236043e-01	 7.9334289201e-01	 2.7884142609e+01
 6.4961016848e-01	 8.0612687528e-01	 2.8647131617e+01
 6.3382890990e-01	 8.1859319751e-01	 2.9370307862e+01
 6.1782831026e-01	 8.3073587203e-01	 3.0404280413e+01
 7.0344564591e-01	 7.7556199183e-01	 2.6429724425e+01
 6.8820866197e-01	 7.8911407130e-01	 2.7975938386e+01
 6.7272102361e-01	 8.0235815215e-01	 2.8971023233e+01
 6.5699210221e-01	 8.1528740795e-01	 2.9707292370e+01
 6.4103151115e-01	 8.2789539294e-01	 3.0485018553e+01
 6.2484908651e-01	 8.4017605239e-01	 3.1610480478e+01
 7.1134952958e-01	 7.8427617152e-01	 2.7618955194e+01
 6.9594134357e-01	 7.9798052153e-01	 2.9066026991e+01
 6.8027968680e-01	 8.1137341229e-01	 3.0140150177e+01
 6.6437403594e-01	 8.2444794063e-01	 3.1054627184e+01
 6.4823411239e-01	 8.3719758836e-01	 3.2021962184e+01
 6.3186986277e-01	 8.4961623276e-01	 3.3252448298e+01
 5.9676598150e-01	 8.0241533094e-01	 3.0224924149e+01
 5.8110858111e-01	 8.1382603605e-01	 3.0146138982e+01
 5.6525866720e-01	 8.2491371619e-01	 2.9000040948e+01
 5.4922615672e-01	 8.3567375738e-01	 2.6992143680e+01
 5.3302110150e-01	 8.4610194737e-01	 2.4308780559e+01
 5.1665366814e-01	 8.5619447978e-01	 2.1116349026e+01
 6.0378675776e-01	 8.1185551130e-01	 2.9625015366e+01
 5.8794515266e-01	 8.2340046000e-01	 2.9951852081e+01
 5.7190876916e-01	 8.3461858344e-01	 2.9237235807e+01
 5.5568764092e-01	 8.4550521335e-01	 2.7582667341e+01
 5.3929193799e-01	 8.5605608793e-01	 2.5077119059e+01
 5.2273194659e-01	 8.6626735601e-01	 2.1796715224e+01
 6.1080753401e-01	 8.2129569166e-01	 2.9714323394e+01
 5.9478172420e-01	 8.3297488396e-01	 3.0318609547e+01
 5.7855887113e-01	 8.4432345069e-01	 2.9880088511e+01
 5.6214912511e-01	 8.5533666932e-01	 2.8439561869e+01
 5.4556277448e-01	 8.6601022849e-01	 2.6031799219e+01
 5.2881022504e-01	 8.7634023224e-01	 2.2685423669e+01
 6.1782831026e-01	 8.3073587203e-01	 3.0404280413e+01
 6.0161829574e-01	 8.4254930791e-01	 3.1171851860e+01
 5.8520897310e-01	 8.5402831794e-01	 3.0870038589e+01
 5.6861060931e-01	 8.6516812529e-01	 2.9520806078e+01
 5.5183361097e-01	 8.7596436905e-01	 2.7146436394e+01
 5.3488850348e-01	 8.8641310847e-01	 2.3769392495e+01
 6.2484908651e-01	 8.4017605239e-01	 3.1610480478e+01
 6.0845486729e-01	 8.5212373187e-01	 3.2440536026e+01
 5.9185907507e-01	 8.6373318519e-01	 3.2151307357e+01
 5.7507209351e-01	 8.7499958126e-01	 3.0786401690e+01
 5.5810444746e-01	 8.8591850960e-01	 2.8395950766e+01
 5.4096678193e-01	 8.9648598471e-01	 2.5036231759e+01
 6.3186986277e-01	 8.4961623276e-01	 3.3252448298e+01
 6.1529143883e-01	 8.6169815582e-01	 3.4056940213e+01
 5.9850917703e-01	 8.7343805244e-01	 3.3670743367e+01
 5.8153357770e-01	 8.8483103723e-01	 3.2198260950e+01
 5.6437528395e-01	 8.9587265016e-01	 2.9756494849e+01
 5.4704506038e-01	 9.0655886094e-01	 2.6474205001e+01
 5.1665366814e-01	 8.5619447978e-01	 2.1116349026e+01
 5.0013411782e-01	 8.6594795698e-01	 1.7375461447e+01
 4.8347278617e-01	 8.7535939192e-01	 1.2768391956e+01
 4.6668006318e-01	 8.8442620870e-01	 7.0560828368e+00
 4.4976637320e-01	 8.9314624197e-01	 3.6453911383e-02
 4.3274215528e-01	 9.0151773529e-01	-8.4551993435e+00
 5.2273194659e-01	 8.6626735601e-01	 2.1796715224e+01
 5.0601804862e-01	 8.7613558000e-01	 1.7831755140e+01
 4.8916070131e-01	 8.8565773771e-01	 1.3162692880e+01
 4.7217041686e-01	 8.9483122292e-01	 7.7076552601e+00
 4.5505774230e-01	 9.0365384481e-01	 1.4068355466e+00
 4.3783323946e-01	 9.1212382629e-01	-5.7776075162e+00
 5.2881022504e-01	 8.7634023224e-01	 2.2685423669e+01
 5.1190197941e-01	 8.8632320302e-01	 1.8574790167e+01
 4.9484861644e-01	 8.9595608350e-01	 1.3873066700e+01
 4.7766077055e-01	 9.0523623714e-01	 8.6092511931e+00
 4.6034911139e-01	 9.1416144766e-01	 2.8211295149e+00
 4.4292432364e-01	 9.2272991730e-01	-3.4451153329e+00
 5.3488850348e-01	 8.8641310847e-01	 2.3769392495e+01
 5.1778591021e-01	 8.9651082605e-01	 1.9606895842e+01
 5.0053653157e-01	 9.0625442929e-01	 1.4925835506e+01
 4.8315112423e-01	 9.1564125136e-01	 9.8213638040e+00
 4.6564048049e-01	 9.2466905051e-01	 4.3857311434e+00
 4.4801540782e-01	 9.3333600830e-01	-1.2921894265e+00
 5.4096678193e-01	 8.9648598471e-01	 2.5036231759e+01
 5.2366984101e-01	 9.0669844907e-01	 2.0930386099e+01
 5.0622444670e-01	 9.1655277507e-01	 1.6346213440e+01
 4.8864147792e-01	 9.2604626558e-01	 1.1401828778e+01
 4.7093184959e-01	 9.3517665335e-01	 6.2023020517e+00
 4.5310649200e-01	 9.4394209931e-01	 8.3929936933e-01
 5.4704506038e-01	 9.0655886094e-01	 2.6474205001e+01
 5.2955377181e-01	 9.1688607209e-01	 2.2547560346e+01
 5.1191236183e-01	 9.2685112086e-01	 1.8158368248e+01
 4.9413183160e-01	 9.3645127980e-01	 1.3405971957e+01
 4.7622321868e-01	 9.4568425620e-01	 8.3680331353e+00
 4.5819757618e-01	 9.5454819031e-01	 3.1004873643e+00
 4.3274215528e-01	 9.0151773529e-01	-8.4551993435e+00
 4.1561784371e-01	 9.0953933834e-01	-1.7756291314e+01
 3.9840384897e-01	 9.1721010304e-01	-2.6699158347e+01
 3.8111053912e-01	 9.2452947869e-01	-3.4734108707e+01
 3.6374822164e-01	 9.3149730609e-01	-4.1406936009e+01
 3.4632712587e-01	 9.3811381073e-01	-4.5004724316e+01
 4.3783323946e-01	 9.1212382629e-01	-5.7776075162e+00
 4.2050746540e-01	 9.2023980115e-01	-1.3535806511e+01
 4.0309095307e-01	 9.2800081014e-01	-2.1269885564e+01
 3.8559419252e-01	 9.3540629609e-01	-2.8620541091e+01
 3.6802761248e-01	 9.4245609793e-01	-3.5296859613e+01
 3.5040156264e-01	 9.4915044380e-01	-4.0221533690e+01
 4.4292432364e-01	 9.2272991730e-01	-3.4451153329e+00
 4.2539708709e-01	 9.3094026395e-01	-1.0112673579e+01
 4.0777805718e-01	 9.3879151723e-01	-1.6969512314e+01
 3.9007784592e-01	 9.4628311349e-01	-2.3794966040e+01
 3.7230700333e-01	 9.5341488976e-01	-3.0414234366e+01
 3.5447599942e-01	 9.6018707687e-01	-3.6354190870e+01
 4.4801540782e-01	 9.3333600830e-01	-1.2921894265e+00
 4.3028670878e-01	 9.4164072676e-01	-7.2703013021e+00
 4.1246516128e-01	 9.4958222433e-01	-1.3561912185e+01
 3.9456149932e-01	 9.5715993088e-01	-2.0034884023e+01
 3.7658639417e-01	 9.6437368160e-01	-2.6584875461e+01
 3.5855043619e-01	 9.7122370994e-01	-3.3135231474e+01
 4.5310649200e-01	 9.4394209931e-01	 8.3929936933e-01
 4.3517633047e-01	 9.5234118956e-01	-4.8018093477e+00
 4.1715226539e-01	 9.6037293142e-01	-1.0821558879e+01
 3.9904515272e-01	 9.6803674828e-01	-1.7127793668e+01
 3.8086578501e-01	 9.7533247344e-01	-2.3642434504e+01
 3.6262487297e-01	 9.8226034300e-01	-3.0301604813e+01
 4.5819757618e-01	 9.5454819031e-01	 3.1004873643e+00
 4.4006595216e-01	 9.6304165236e-01	-2.5094887730e+00
 4.2183936950e-01	 9.7116363852e-01	-8.5329373148e+00
 4.0352880613e-01	 9.7891356568e-01	-1.4870636306e+01
 3.8514517586e-01	 9.8629126527e-01	-2.1427964153e+01
 3.6669930974e-01	 9.9329697607e-01	-2.8115383512e+01
 3.4632712587e-01	 9.3811381073e-01	-4.5004724316e+01
 3.2885738599e-01	 9.4437959512e-01	-4.6285281444e+01
 3.1134902473e-01	 9.5029563021e-01	-4.6877448187e+01
 2.9381193771e-01	 9.5586324611e-01	-4.7343538144e+01
 2.7625587852e-01	 9.6108412201e-01	-4.8181893117e+01
 2.5869044459e-01	 9.6596027552e-01	-4.9826451367e+01
 3.5040156264e-01	 9.4915044380e-01	-4.0221533690e+01
 3.3272629641e-01	 9.5548994330e-01	-4.2683266088e+01
 3.1501195444e-01	 9.6147557880e-01	-4.4251353363e+01
 2.9726854874e-01	 9.6710869606e-01	-4.5320195250e+01
 2.7950594768e-01	 9.7239099404e-01	-4.6249758103e+01
 2.6173386159e-01	 9.7732451405e-01	-4.7364887173e+01
 3.5447599942e-01	 9.6018707687e-01	-3.6354190870e+01
 3.3659520684e-01	 9.6660029148e-01	-3.9570834272e+01
 3.1867488414e-01	 9.7265552739e-01	-4.1831816353e+01
 3.0072515978e-01	 9.7835414602e-01	-4.3407469026e+01
 2.8275601684e-01	 9.8369786606e-01	-4.4556592976e+01
 2.6477727858e-01	 9.8868875259e-01	-4.5525536305e+01
 3.5855043619e-01	 9.7122370994e-01	-3.3135231474e+01
 3.4046411726e-01	 9.7771063965e-01	-3.6943613107e+01
 3.2233781384e-01	 9.8383547598e-01	-3.9641291865e+01
 3.0418177081e-01	 9.8959959597e-01	-4.1602687363e+01
 2.8600608600e-01	 9.9500473808e-01	-4.3021546634e+01
 2.6782069558e-01	 1.0000529911e+00	-4.4095378004e+01
 3.6262487297e-01	 9.8226034300e-01	-3.0301604813e+01
 3.4433302768e-01	 9.8882098783e-01	-3.4797782998e+01
 3.2600074355e-01	 9.9501542457e-01	-3.7701567457e+01
 3.0763838184e-01	 1.0008450459e+00	-3.9903624858e+01
 2.8925615515e-01	 1.0063116101e+00	-4.1567712225e+01
 2.7086411257e-01	 1.0114172297e+00	-4.2871259223e+01
 3.6669930974e-01	 9.9329697607e-01	-2.8115383512e+01
 3.4820193811e-01	 9.9993133601e-01	-3.3130046902e+01
 3.2966367325e-01	 1.0061953732e+00	-3.6033800596e+01
 3.1109499287e-01	 1.0120904959e+00	-3.8308477999e+01
 2.9250622431e-01	 1.0176184821e+00	-4.0121908027e+01
 2.7390752957e-01	 1.0227814682e+00	-4.1659346414e+01
 2.5869044459e-01	 9.6596027552e-01	-4.9826451367e+01
 2.4112506387e-01	 9.7049405128e-01	-5.1031211792e+01
 2.2356898224e-01	 9.7468810918e-01	-4.9917594138e+01
 2.0603125189e-01	 9.7854541195e-01	-4.6014870228e+01
 1.8852072043e-01	 9.8206921241e-01	-3.8973926991e+01
 1.7104602093e-01	 9.8526304037e-01	-2.8564529591e+01
 2.6173386159e-01	 9.7732451405e-01	-4.7364887173e+01
 2.4396182932e-01	 9.8191162836e-01	-4.7974349982e+01
 2.2619920556e-01	 9.8615502811e-01	-4.6903968826e+01
 2.0845514897e-01	 9.9005771091e-01	-4.3792193028e+01
 1.9073861126e-01	 9.9362296785e-01	-3.8362583038e+01
 1.7305832706e-01	 9.9685437026e-01	-3.0422094070e+01
 2.6477727858e-01	 9.8868875259e-01	-4.5525536305e+01
 2.4679859478e-01	 9.9332920543e-01	-4.5951711066e+01
 2.2882942888e-01	 9.9762194704e-01	-4.5110973001e+01
 2.1087904605e-01	 1.0015700099e+00	-4.2739719216e+01
 1.9295650209e-01	 1.0051767233e+00	-3.8630066580e+01
 1.7507063319e-01	 1.0084457001e+00	-3.2628904434e+01
 2.6782069558e-01	 1.0000529911e+00	-4.4095378004e+01
 2.4963536024e-01	 1.0047467825e+00	-4.4622832676e+01
 2.3145965220e-01	 1.0090888660e+00	-4.4134786948e+01
 2.1330294313e-01	 1.0130823088e+00	-4.2454363193e+01
 1.9517439291e-01	 1.0167304787e+00	-3.9437956653e+01
 1.7708293932e-01	 1.0200370300e+00	-3.4974811286e+01
 2.7086411257e-01	 1.0114172297e+00	-4.2871259223e+01
 2.5247212569e-01	 1.0161643596e+00	-4.3662830524e+01
 2.3408987552e-01	 1.0205557849e+00	-4.3589998672e+01
 2.1572684021e-01	 1.0245946078e+00	-4.2551395726e+01
 1.9739228374e-01	 1.0282842342e+00	-4.0463263584e+01
 1.7909524545e-01	 1.0316283599e+00	-3.7259312309e+01
 2.7390752957e-01	 1.0227814682e+00	-4.1659346414e+01
 2.5530889115e-01	 1.0275819367e+00	-4.2761532954e+01
 2.3672009884e-01	 1.0320227038e+00	-4.3108581254e+01
 2.1815073729e-01	 1.0361069068e+00	-4.2663424149e+01
 1.9961017457e-01	 1.0398379896e+00	-4.1397571689e+01
 1.8110755158e-01	 1.0432196898e+00	-3.9291016324e+01
 1.7104602093e-01	 9.8526304037e-01	-2.8564529591e+01
 1.5361556282e-01	 9.8813068916e-01	-1.6490858694e+01
 1.3623752361e-01	 9.9067620198e-01	-5.0236682436e+00
 1.1891984155e-01	 9.9290385803e-01	 5.1237568113e+00
 1.0167020908e-01	 9.9481815855e-01	 1.3232013962e+01
 8.4496067130e-02	 9.9642381276e-01	 1.8578518888e+01
 1.7305832706e-01	 9.9685437026e-01	-3.0422094070e+01
 1.5542280473e-01	 9.9975575609e-01	-2.1323795274e+01
 1.3784031801e-01	 1.0023312161e+00	-1.3039999618e+01
 1.2031889851e-01	 1.0045850799e+00	-6.3472929359e+00
 1.0286632918e-01	 1.0065219016e+00	-1.9932653023e+00
 8.5490138508e-02	 1.0081464459e+00	-6.9473294648e-01
 1.7507063319e-01	 1.0084457001e+00	-3.2628904434e+01
 1.5723004665e-01	 1.0113808230e+00	-2.5737748366e+01
 1.3944311240e-01	 1.0139862303e+00	-1.9589038175e+01
 1.2171795547e-01	 1.0162663017e+00	-1.4976992382e+01
 1.0406244929e-01	 1.0182256446e+00	-1.2642342996e+01
 8.6484209886e-02	 1.0198690789e+00	-1.3271473540e+01
 1.7708293932e-01	 1.0200370300e+00	-3.4974811286e+01
 1.5903728857e-01	 1.0230058900e+00	-2.9728035872e+01
 1.4104590680e-01	 1.0256412444e+00	-2.4963735475e+01
 1.2311701243e-01	 1.0279475236e+00	-2.1449528764e+01
 1.0525856940e-01	 1.0299293877e+00	-1.9885423524e+01
 8.7478281264e-02	 1.0315917120e+00	-2.0903634711e+01
 1.7909524545e-01	 1.0316283599e+00	-3.7259312309e+01
 1.6084453048e-01	 1.0346309569e+00	-3.3290368763e+01
 1.4264870119e-01	 1.0372962585e+00	-2.9444039548e+01
 1.2451606939e-01	 1.0396287455e+00	-2.6418482119e+01
 1.0645468951e-01	 1.0416331307e+00	-2.4840240394e+01
 8.8472352642e-02	 1.0433143451e+00	-2.5264511962e+01
 1.8110755158e-01	 1.0432196898e+00	-3.9291016324e+01
 1.6265177240e-01	 1.0462560238e+00	-3.6420829251e+01
 1.4425149559e-01	 1.0489512727e+00	-3.3297617314e+01
 1.2591512635e-01	 1.0513099673e+00	-3.0508525683e+01
 1.0765080961e-01	 1.0533368738e+00	-2.8574971266e+01
 8.9466424020e-02	 1.0550369782e+00	-2.7953133169e+01
 8.4496067130e-02	 9.9642381276e-01	 1.8578518888e+01
 6.7404600309e-02	 9.9772572376e-01	 1.7076750457e+01
 5.0402732834e-02	 9.9872897451e-01	 5.9695362782e+00
 3.3497125286e-02	 9.9943881383e-01	-1.2884677020e+01
 1.6694172137e-02	 9.9986064260e-01	-3.6879535794e+01
 0.0000000000e+00	 1.0000000000e+00	-6.2706487723e+01
 8.5490138508e-02	 1.0081464459e+00	-6.9473294648e-01
 6.8197595607e-02	 1.0094636735e+00	-3.2465398680e+00
 5.0995706161e-02	 1.0104787271e+00	-9.2830889505e+00
 3.3891209113e-02	 1.0111969175e+00	-1.7415414690e+01
 1.6890574162e-02	 1.0116237090e+00	-2.5821367584e+01
 0.0000000000e+00	 1.0117647059e+00	-3.2273217278e+01
 8.6484209886e-02	 1.0198690789e+00	-1.3271473540e+01
 6.8990590905e-02	 1.0212016231e+00	-1.5997632126e+01
 5.1588679489e-02	 1.0222284798e+00	-1.8933677900e+01
 3.4285292940e-02	 1.0229550212e+00	-2.1042471617e+01
 1.7086976187e-02	 1.0233867754e+00	-2.1095239042e+01
 0.0000000000e+00	 1.0235294118e+00	-1.7685263862e+01
 8.7478281264e-02	 1.0315917120e+00	-2.0903634711e+01
 6.9783586202e-02	 1.0329395728e+00	-2.3154263452e+01
 5.2181652816e-02	 1.0339782324e+00	-2.4382134165e+01
 3.4679376767e-02	 1.0347131249e+00	-2.3792212326e+01
 1.7283378212e-02	 1.0351498417e+00	-2.0567887872e+01
 0.0000000000e+00	 1.0352941176e+00	-1.3874863834e+01
 8.8472352642e-02	 1.0433143451e+00	-2.5264511962e+01
 7.0576581500e-02	 1.0446775225e+00	-2.6605365666e+01
 5.2774626143e-02	 1.0457279851e+00	-2.6965505579e+01
 3.5073460594e-02	 1.0464712286e+00	-2.5689857191e+01
 1.7479780237e-02	 1.0469129081e+00	-2.2201949076e+01
 0.0000000000e+00	 1.0470588235e+00	-1.6002018213e+01
 8.9466424020e-02	 1.0550369782e+00	-2.7953133169e+01
 7.1369576798e-02	 1.0564154722e+00	-2.8155998897e+01
 5.3367599471e-02	 1.0574777377e+00	-2.7961476203e+01
 3.5467544421e-02	 1.0582293323e+00	-2.6759545997e+01
 1.7676182262e-02	 1.0586759745e+00	-2.4050627320e+01
 0.0000000000e+00	 1.0588235294e+00	-1.9441839083e+01
 1.0588235294e+00	 0.0000000000e+00	 6.1176585482e+00
 1.0586759745e+00	 1.7676182262e-02	 1.9412214839e+00
 1.0582293323e+00	 3.5467544421e-02	 4.1800921738e-01
 1.0574777377e+00	 5.3367599471e-02	 1.2854399209e+00
 1.0564154722e+00	 7.1369576798e-02	 4.2476257256e+00
 1.0550369782e+00	 8.9466424020e-02	 8.9743261978e+00
 1.0705882353e+00	 0.0000000000e+00	 6.4985651006e+00
 1.0704390409e+00	 1.7872584288e-02	 4.0005430342e-01
 1.0699874360e+00	 3.5861628248e-02	-2.1197359060e+00
 1.0692274904e+00	 5.3960572798e-02	-1.5829652447e+00
 1.0681534219e+00	 7.2162572096e-02	 1.4441909777e+00
 1.0667596113e+00	 9.0460495398e-02	 6.3513680290e+00
 1.0823529412e+00	 0.0000000000e+00	 9.4169908957e+00
 1.0822021073e+00	 1.8068986313e-02	 1.9828748971e+00
 1.0817455397e+00	 3.6255712075e-02	-1.4626284672e+00
 1.0809772430e+00	 5.4553546126e-02	-1.5631996028e+00
 1.0798913716e+00	 7.2955567393e-02	 9.8860694821e-01
 1.0784822444e+00	 9.1454566776e-02	 5.4517762152e+00
 1.0941176471e+00	 0.0000000000e+00	 1.1560718069e+01
 1.0939651737e+00	 1.8265388338e-02	 3.6433363449e+00
 1.0935036434e+00	 3.6649795902e-02	-2.0302862053e-01
 1.0927269956e+00	 5.5146519453e-02	-6.5361848371e-01
 1.0916293213e+00	 7.3748562691e-02	 1.5693405570e+00
 1.0902048775e+00	 9.2448638154e-02	 5.6973337158e+00
 1.1058823529e+00	 0.0000000000e+00	 1.2784357098e+01
 1.1057282400e+00	 1.8461790363e-02	 5.1034666767e+00
 1.1052617471e+00	 3.7043879729e-02	 1.2009279215e+00
 1.1044767483e+00	 5.5739492781e-02	 4.7854626534e-01
 1.1033672710e+00	 7.4541557989e-02	 2.2991477898e+00
 1.1019275106e+00	 9.3442709532e-02	 5.9872687081e+00
 1.1176470588e+00	 0.0000000000e+00	 1.3226396349e+01
 1.1174913064e+00	 1.8658192388e-02	 6.3976511852e+00
 1.1170198508e+00	 3.7437963555e-02	 2.7106983974e+00
 1.1162265009e+00	 5.6332466108e-02	 1.7495405453e+00
 1.1151052207e+00	 7.5334553287e-02	 3.0731830283e+00
 1.1136501437e+00	 9.4436780910e-02	 6.2160329389e+00
 1.0550369782e+00	 8.9466424020e-02	 8.9743261978e+00
 1.0533368738e+00	 1.0765080961e-01	 1.2680258305e+01
 1.0513099673e+00	 1.2591512635e-01	 1.3387399053e+01
 1.0489512727e+00	 1.4425149559e-01	 1.1979894667e+01
 1.0462560238e+00	 1.6265177240e-01	 9.3799686056e+00
 1.0432196898e+00	 1.8110755158e-01	 6.5455382887e+00
 1.0667596113e+00	 9.0460495398e-02	 6.3513680290e+00
 1.0650406168e+00	 1.0884692972e-01	 1.0303371373e+01
 1.0629911892e+00	 1.2731418331e-01	 1.1403357618e+01
 1.0606062868e+00	 1.4585428998e-01	 1.0441321198e+01
 1.0578810907e+00	 1.6445901431e-01	 8.2403563032e+00
 1.0548110197e+00	 1.8311985770e-01	 5.6545117544e+00
 1.0784822444e+00	 9.1454566776e-02	 5.4517762152e+00
 1.0767443598e+00	 1.1004304983e-01	 9.0550052802e+00
 1.0746724110e+00	 1.2871324027e-01	 1.0006339562e+01
 1.0722613010e+00	 1.4745708438e-01	 9.0196315955e+00
 1.0695061577e+00	 1.6626625623e-01	 7.0684246541e+00
 1.0664023496e+00	 1.8513216383e-01	 4.7191243958e+00
 1.0902048775e+00	 9.2448638154e-02	 5.6973337158e+00
 1.0884481029e+00	 1.1123916993e-01	 9.0833551219e+00
 1.0863536329e+00	 1.3011229723e-01	 1.0014377999e+01
 1.0839163151e+00	 1.4905987878e-01	 9.1065952824e+00
 1.0811312246e+00	 1.6807349814e-01	 6.9989675831e+00
 1.0779936795e+00	 1.8714446996e-01	 4.3516949519e+00
 1.1019275106e+00	 9.3442709532e-02	 5.9872687081e+00
 1.1001518459e+00	 1.1243529004e-01	 9.0898510629e+00
 1.0980348548e+00	 1.3151135419e-01	 9.9583802371e+00
 1.0955713292e+00	 1.5066267317e-01	 9.1100125614e+00
 1.0927562915e+00	 1.6988074006e-01	 7.0796694986e+00
 1.0895850094e+00	 1.8915677609e-01	 4.4188034820e+00
 1.1136501437e+00	 9.4436780910e-02	 6.2160329389e+00
 1.1118555890e+00	 1.1363141015e-01	 8.9775210372e+00
 1.1097160766e+00	 1.3291041115e-01	 9.7507184932e+00
 1.1072263434e+00	 1.5226546757e-01	 8.9524377867e+00
 1.1043813585e+00	 1.7168798197e-01	 7.0122620748e+00
 1.1011763392e+00	 1.9116908222e-01	 4.3716215144e+00
 1.0432196898e+00	 1.8110755158e-01	 6.5455382887e+00
 1.0398379896e+00	 1.9961017457e-01	 4.6847802197e+00
 1.0361069068e+00	 2.1815073729e-01	 4.0640205196e+00
 1.0320227038e+00	 2.3672009884e-01	 4.2388898725e+00
 1.0275819367e+00	 2.5530889115e-01	 4.7466395390e+00
 1.0227814682e+00	 2.7390752957e-01	 5.1078122145e+00
 1.0548110197e+00	 1.8311985770e-01	 5.6545117544e+00
 1.0513917451e+00	 2.0182806540e-01	 3.7457101423e+00
 1.0476192057e+00	 2.2057463438e-01	 2.7876299709e+00
 1.0434896228e+00	 2.3935032216e-01	 2.4630241642e+00
 1.0389995137e+00	 2.5814565661e-01	 2.4412069896e+00
 1.0341457067e+00	 2.7695094656e-01	 2.3792377214e+00
 1.0664023496e+00	 1.8513216383e-01	 4.7191243958e+00
 1.0629455005e+00	 2.0404595623e-01	 2.7846833986e+00
 1.0591315047e+00	 2.2299853146e-01	 1.5522795143e+00
 1.0549565417e+00	 2.4198054548e-01	 8.1415784435e-01
 1.0504170908e+00	 2.6098242207e-01	 3.5352072387e-01
 1.0455099453e+00	 2.7999436356e-01	-5.4708031968e-02
 1.0779936795e+00	 1.8714446996e-01	 4.3516949519e+00
 1.0744992559e+00	 2.0626384706e-01	 2.0002546817e+00
 1.0706438037e+00	 2.2542242854e-01	 3.1538145319e-01
 1.0664234606e+00	 2.4461076880e-01	-7.4241732355e-01
 1.0618346679e+00	 2.6381918752e-01	-1.5443649037e+00
 1.0568741838e+00	 2.8303778055e-01	-2.2157217363e+00
 1.0895850094e+00	 1.8915677609e-01	 4.4188034820e+00
 1.0860530114e+00	 2.0848173789e-01	 1.8603701571e+00
 1.0821561026e+00	 2.2784632562e-01	-2.5210460825e-01
 1.0778903796e+00	 2.4724099212e-01	-1.9411427603e+00
 1.0732522449e+00	 2.6665595298e-01	-3.2309463212e+00
 1.0682384223e+00	 2.8608119755e-01	-4.1246372725e+00
 1.1011763392e+00	 1.9116908222e-01	 4.3716215144e+00
 1.0976067668e+00	 2.1069962871e-01	 1.6722906917e+00
 1.0936684016e+00	 2.3027022270e-01	-7.2001709904e-01
 1.0893572985e+00	 2.4987121544e-01	-2.7688719121e+00
 1.0846698220e+00	 2.6949271844e-01	-4.4367078711e+00
 1.0796026609e+00	 2.8912461454e-01	-5.6847428206e+00
 1.0227814682e+00	 2.7390752957e-01	 5.1078122145e+00
 1.0176184821e+00	 2.9250622431e-01	 5.0609194714e+00
 1.0120904959e+00	 3.1109499287e-01	 4.8210000266e+00
 1.0061953732e+00	 3.2966367325e-01	 4.6143380446e+00
 9.9993133601e-01	 3.4820193811e-01	 4.6695954948e+00
 9.9329697607e-01	 3.6669930974e-01	 4.6358558243e+00
 1.0341457067e+00	 2.7695094656e-01	 2.3792377214e+00
 1.0289253542e+00	 2.9575629347e-01	 2.1279313434e+00
 1.0233359458e+00	 3.1455160390e-01	 1.8711393581e+00
 1.0173753218e+00	 3.3332660295e-01	 1.7562421695e+00
 1.0110416842e+00	 3.5207084853e-01	 1.9289326539e+00
 1.0043336091e+00	 3.7077374652e-01	 1.9255502481e+00
 1.0455099453e+00	 2.7999436356e-01	-5.4708031968e-02
 1.0402322262e+00	 2.9900636263e-01	-4.7602278180e-01
 1.0345813958e+00	 3.1800821493e-01	-7.6642571415e-01
 1.0285552703e+00	 3.3698953265e-01	-8.4589256056e-01
 1.0221520324e+00	 3.5593975896e-01	-6.3938257750e-01
 1.0153702422e+00	 3.7484818329e-01	-5.6084778181e-01
 1.0568741838e+00	 2.8303778055e-01	-2.2157217363e+00
 1.0515390982e+00	 3.0225643179e-01	-2.7638833368e+00
 1.0458268457e+00	 3.2146482597e-01	-3.0909772483e+00
 1.0397352189e+00	 3.4065246236e-01	-3.1731279208e+00
 1.0332623805e+00	 3.5980866938e-01	-2.9868153452e+00
 1.0264068753e+00	 3.7892262007e-01	-2.7440623939e+00
 1.0682384223e+00	 2.8608119755e-01	-4.1246372725e+00
 1.0628459702e+00	 3.0550650095e-01	-4.7481058030e+00
 1.0570722957e+00	 3.2492143700e-01	-5.1018988970e+00
 1.0509151675e+00	 3.4431539206e-01	-5.2074080212e+00
 1.0443727287e+00	 3.6367757980e-01	-4.9483005120e+00
 1.0374435083e+00	 3.8299705684e-01	-4.5477824556e+00
 1.0796026609e+00	 2.8912461454e-01	-5.6847428206e+00
 1.0741528422e+00	 3.0875657011e-01	-6.4527401347e+00
 1.0683177456e+00	 3.2837804803e-01	-6.7986705604e+00
 1.0620951161e+00	 3.4797832176e-01	-6.9315128682e+00
 1.0554830769e+00	 3.6754649023e-01	-6.4554129041e+00
 1.0484801414e+00	 3.8707149362e-01	-5.8985055341e+00
 9.9329697607e-01	 3.6669930974e-01	 4.6358558243e+00
 9.8629126527e-01	 3.8514517586e-01	 4.3791877656e+00
 9.7891356568e-01	 4.0352880613e-01	 4.2822632804e+00
 9.7116363852e-01	 4.2183936950e-01	 4.3150028397e+00
 9.6304165236e-01	 4.4006595216e-01	 4.4536759904e+00
 9.5454819031e-01	 4.5819757618e-01	 4.6813526843e+00
 1.0043336091e+00	 3.7077374652e-01	 1.9255502481e+00
 9.9725005711e-01	 3.8942456670e-01	 1.8578288550e+00
 9.8979038307e-01	 4.0801245953e-01	 1.8744750216e+00
 9.8195434561e-01	 4.2652647360e-01	 1.9829807320e+00
 9.7374211517e-01	 4.4495557385e-01	 2.2032012632e+00
 9.6515428131e-01	 4.6328866036e-01	 2.5677345644e+00
 1.0153702422e+00	 3.7484818329e-01	-5.6084778181e-01
 1.0082088489e+00	 3.9370395754e-01	-4.9965237333e-01
 1.0006672005e+00	 4.1249611293e-01	-3.8957410478e-01
 9.9274505271e-01	 4.3121357771e-01	-1.9147790437e-01
 9.8444257797e-01	 4.4984519554e-01	 1.5001641698e-01
 9.7576037232e-01	 4.6837974454e-01	 7.0682260100e-01
 1.0264068753e+00	 3.7892262007e-01	-2.7440623939e+00
 1.0191676408e+00	 3.9798334838e-01	-2.5935780778e+00
 1.0115440179e+00	 4.1697976633e-01	-2.4058859628e+00
 1.0035357598e+00	 4.3590068181e-01	-2.1159986282e+00
 9.9514304078e-01	 4.5473481723e-01	-1.6408869801e+00
 9.8636646332e-01	 4.7347082872e-01	-8.7930130420e-01
 1.0374435083e+00	 3.8299705684e-01	-4.5477824556e+00
 1.0301264326e+00	 4.0226273923e-01	-4.3280907902e+00
 1.0224208353e+00	 4.2146341973e-01	-4.0744551968e+00
 1.0143264669e+00	 4.4058778592e-01	-3.7016948487e+00
 1.0058435036e+00	 4.5962443892e-01	-3.1068308360e+00
 9.9697255432e-01	 4.7856191290e-01	-2.1690348198e+00
 1.0484801414e+00	 3.8707149362e-01	-5.8985055341e+00
 1.0410852245e+00	 4.0654213007e-01	-5.6109523435e+00
 1.0332976527e+00	 4.2594707313e-01	-5.2990590848e+00
 1.0251171740e+00	 4.4527489002e-01	-4.8629842545e+00
 1.0165439664e+00	 4.6451406061e-01	-4.1873287729e+00
 1.0075786453e+00	 4.8365299708e-01	-3.1412299443e+00
 9.5454819031e-01	 4.5819757618e-01	 4.6813526843e+00
 9.4568425620e-01	 4.7622321868e-01	 4.8606458222e+00
 9.3645127980e-01	 4.9413183160e-01	 4.8806005928e+00
 9.2685112086e-01	 5.1191236183e-01	 4.7773021531e+00
 9.1688607209e-01	 5.2955377181e-01	 4.5976562079e+00
 9.0655886094e-01	 5.4704506038e-01	 4.3994944391e+00
 9.6515428131e-01	 4.6328866036e-01	 2.5677345644e+00
 9.5619185905e-01	 4.8151458778e-01	 2.9674318406e+00
 9.4685629402e-01	 4.9962218529e-01	 3.2636124351e+00
 9.3714946665e-01	 5.1760027696e-01	 3.4583349248e+00
 9.2707369512e-01	 5.3543770260e-01	 3.5592099626e+00
 9.1663173717e-01	 5.5312333883e-01	 3.5796193670e+00
 9.7576037232e-01	 4.6837974454e-01	 7.0682260100e-01
 9.6669946189e-01	 4.8680595688e-01	 1.3594351119e+00
 9.5726130824e-01	 5.0511253897e-01	 1.9157490684e+00
 9.4744781244e-01	 5.2328819209e-01	 2.3533195135e+00
 9.3726131814e-01	 5.4132163340e-01	 2.6526661775e+00
 9.2670461341e-01	 5.5920161728e-01	 2.7975958270e+00
 9.8636646332e-01	 4.7347082872e-01	-8.7930130420e-01
 9.7720706474e-01	 4.9209732597e-01	 1.7955157805e-02
 9.6766632246e-01	 5.1060289266e-01	 7.9696706522e-01
 9.5774615822e-01	 5.2897610723e-01	 1.4200203502e+00
 9.4744894116e-01	 5.4720556420e-01	 1.8524006528e+00
 9.3677748964e-01	 5.6527989573e-01	 2.0628086445e+00
 9.9697255432e-01	 4.7856191290e-01	-2.1690348198e+00
 9.8771466759e-01	 4.9738869507e-01	-1.0744458896e+00
 9.7807133668e-01	 5.1609324634e-01	-1.3060063877e-01
 9.6804450401e-01	 5.3466402236e-01	 6.1847582743e-01
 9.5763656419e-01	 5.5308949500e-01	 1.1343593641e+00
 9.4685036587e-01	 5.7135817418e-01	 1.3847249213e+00
 1.0075786453e+00	 4.8365299708e-01	-3.1412299443e+00
 9.9822227043e-01	 5.0268006417e-01	-1.9340097411e+00
 9.8847635090e-01	 5.2158360002e-01	-9.0275928953e-01
 9.7834284980e-01	 5.4035193749e-01	-8.9121383978e-02
 9.6782418721e-01	 5.5897342580e-01	 4.7597582159e-01
 9.5692324210e-01	 5.7743645262e-01	 7.7288970527e-01
 9.0655886094e-01	 5.4704506038e-01	 4.3994944391e+00
 8.9587265016e-01	 5.6437528395e-01	 3.9940846934e+00
 8.8483103723e-01	 5.8153357770e-01	 3.2903221298e+00
 8.7343805244e-01	 5.9850917703e-01	 2.5012660682e+00
 8.6169815582e-01	 6.1529143883e-01	 1.8398523982e+00
 8.4961623276e-01	 6.3186986277e-01	 1.5177666114e+00
 9.1663173717e-01	 5.5312333883e-01	 3.5796193670e+00
 9.0582679072e-01	 5.7064612043e-01	 3.2783411249e+00
 8.9466249320e-01	 5.8799506190e-01	 2.5787335764e+00
 8.8314291969e-01	 6.0515927900e-01	 1.7508732054e+00
 8.7127257977e-01	 6.2212801037e-01	 1.0709405951e+00
 8.5905641312e-01	 6.3889063902e-01	 8.1981168137e-01
 9.2670461341e-01	 5.5920161728e-01	 2.7975958270e+00
 9.1578093128e-01	 5.7691695692e-01	 2.5363712925e+00
 9.0449394916e-01	 5.9445654610e-01	 1.8266692654e+00
 8.9284778694e-01	 6.1180938097e-01	 9.7733837373e-01
 8.8084700373e-01	 6.2896458191e-01	 3.0703822941e-01
 8.6849659348e-01	 6.4591141527e-01	 1.4262693098e-01
 9.3677748964e-01	 5.6527989573e-01	 2.0628086445e+00
 9.2573507183e-01	 5.8318779341e-01	 1.8123735409e+00
 9.1432540513e-01	 6.0091803029e-01	 1.0950121538e+00
 9.0255265418e-01	 6.1845948293e-01	 2.4068326083e-01
 8.9042142768e-01	 6.3580115346e-01	-4.0960080111e-01
 8.7793677385e-01	 6.5293219153e-01	-5.0551375071e-01
 9.4685036587e-01	 5.7135817418e-01	 1.3847249213e+00
 9.3568921239e-01	 5.8945862990e-01	 1.1491476821e+00
 9.2415686110e-01	 6.0737951449e-01	 4.4253607875e-01
 9.1225752143e-01	 6.2510958490e-01	-4.0114472517e-01
 8.9999585163e-01	 6.4263772500e-01	-1.0380437987e+00
 8.8737695421e-01	 6.5995296778e-01	-1.1162158759e+00
 9.5692324210e-01	 5.7743645262e-01	 7.7288970527e-01
 9.4564335295e-01	 5.9572946639e-01	 5.8816860261e-01
 9.3398831707e-01	 6.1384099869e-01	-7.3983235692e-02
 9.2196238868e-01	 6.3175968687e-01	-8.9216328311e-01
 9.0957027559e-01	 6.4947429654e-01	-1.5386097288e+00
 8.9681713458e-01	 6.6697374403e-01	-1.6809707054e+00
 8.4961623276e-01	 6.3186986277e-01	 1.5177666114e+00
 8.3719758836e-01	 6.4823411239e-01	 1.6795198639e+00
 8.2444794063e-01	 6.6437403594e-01	 2.2187827329e+00
 8.1137341229e-01	 6.8027968680e-01	 2.9685111361e+00
 7.9798052153e-01	 6.9594134357e-01	 3.7611281079e+00
 7.8427617152e-01	 7.1134952958e-01	 4.4292511395e+00
 8.5905641312e-01	 6.3889063902e-01	 8.1981168137e-01
 8.4649978379e-01	 6.5543671364e-01	 1.1814562421e+00
 8.3360847330e-01	 6.7175596967e-01	 1.9781742045e+00
 8.2038867242e-01	 6.8783834999e-01	 2.9461230414e+00
 8.0684697177e-01	 7.0367402516e-01	 3.8160045385e+00
 7.9299035120e-01	 7.1925341324e-01	 6.0393443079e+00
 8.6849659348e-01	 6.4591141527e-01	 1.4262693098e-01
 8.5580197922e-01	 6.6263931489e-01	 6.6251804736e-01
 8.4276900597e-01	 6.7913790341e-01	 1.6073315668e+00
 8.2940393256e-01	 6.9539701317e-01	 2.6457440014e+00
 8.1571342201e-01	 7.1140670676e-01	 3.4389358578e+00
 8.0170453088e-01	 7.2715729690e-01	 8.2521652519e+00
 8.7793677385e-01	 6.5293219153e-01	-5.0551375071e-01
 8.6510417464e-01	 6.6984191614e-01	 9.9786034602e-02
 8.5192953865e-01	 6.8651983714e-01	 1.0728477332e+00
 8.3841919270e-01	 7.0295567636e-01	 2.0432492040e+00
 8.2457987225e-01	 7.1913938835e-01	 4.5371344088e+00
 8.1041871057e-01	 7.3506118056e-01	 1.0114423193e+01
 8.8737695421e-01	 6.5995296778e-01	-1.1162158759e+00
 8.7440637007e-01	 6.7704451739e-01	-5.2821636744e-01
 8.6109007132e-01	 6.9390177087e-01	 3.4319819006e-01
 8.4743445283e-01	 7.1051433955e-01	 1.1159939671e+00
 8.3344632249e-01	 7.2687206995e-01	 6.4401121459e+00
 8.1913289025e-01	 7.4296506422e-01	 1.1656516631e+01
 8.9681713458e-01	 6.6697374403e-01	-1.6809707054e+00
 8.8370856550e-01	 6.8424711864e-01	-1.2415989865e+00
 8.7025060399e-01	 7.0128370460e-01	-6.1135808585e-01
 8.5644971297e-01	 7.1807300273e-01	 1.4485758328e+00
 8.4231277273e-01	 7.3460475154e-01	 8.0303197977e+00
 8.2784706993e-01	 7.5086894789e-01	 1.2907253279e+01
 7.8427617152e-01	 7.1134952958e-01	 4.4292511395e+00
 7.7026763867e-01	 7.2649503181e-01	 9.0759849418e+00
 7.5596255999e-01	 7.4136891918e-01	 1.4401898840e+01
 7.4136891918e-01	 7.5596255999e-01	 1.9366982590e+01
 7.2649503181e-01	 7.7026763867e-01	 2.3921961262e+01
 7.1134952958e-01	 7.8427617152e-01	 2.7618955194e+01
 7.9299035120e-01	 7.1925341324e-01	 6.0393443079e+00
 7.7882616799e-01	 7.3456719883e-01	 1.1229807355e+01
 7.6436214399e-01	 7.4960635161e-01	 1.5951653992e+01
 7.4960635161e-01	 7.6436214399e-01	 2.0266716720e+01
 7.3456719883e-01	 7.7882616799e-01	 2.4248213269e+01
 7.1925341324e-01	 7.9299035120e-01	 2.7980582473e+01
 8.0170453088e-01	 7.2715729690e-01	 8.2521652519e+00
 7.8738469731e-01	 7.4263936585e-01	 1.2972826345e+01
 7.7276172799e-01	 7.5784378405e-01	 1.7157484520e+01
 7.5784378405e-01	 7.7276172799e-01	 2.0956205478e+01
 7.4263936585e-01	 7.8738469731e-01	 2.4533069414e+01
 7.2715729690e-01	 8.0170453088e-01	 2.8065490000e+01
 8.1041871057e-01	 7.3506118056e-01	 1.0114423193e+01
 7.9594322663e-01	 7.5071153287e-01	 1.4379069419e+01
 7.8116131199e-01	 7.6608121648e-01	 1.8110324911e+01
 7.6608121648e-01	 7.8116131199e-01	 2.1519178517e+01
 7.5071153287e-01	 7.9594322663e-01	 2.4829946728e+01
 7.3506118056e-01	 8.1041871057e-01	 2.8279242370e+01
 8.1913289025e-01	 7.4296506422e-01	 1.1656516631e+01
 8.0450175595e-01	 7.5878369989e-01	 1.5519111725e+01
 7.8956089599e-01	 7.7431864892e-01	 1.8896950392e+01
 7.7431864892e-01	 7.8956089599e-01	 2.2035525934e+01
 7.5878369989e-01	 8.0450175595e-01	 2.5189726207e+01
 7.4296506422e-01	 8.1913289025e-01	 2.8622615578e+01
 8.2784706993e-01	 7.5086894789e-01	 1.2907253279e+01
 8.1306028527e-01	 7.6685586691e-01	 1.6460257757e+01
 7.9796047999e-01	 7.8255608135e-01	 1.9600195838e+01
 7.8255608135e-01	 7.9796047999e-01	 2.2581500350e+01
 7.6685586691e-01	 8.1306028527e-01	 2.5660886284e+01
 7.5086894789e-01	 8.2784706993e-01	 2.9096106649e+01
 7.1134952958e-01	 7.8427617152e-01	 2.7618955194e+01
 6.9594134357e-01	 7.9798052153e-01	 2.9066026991e+01
 6.8027968680e-01	 8.1137341229e-01	 3.0140150177e+01
 6.6437403594e-01	 8.2444794063e-01	 3.1054627184e+01
 6.4823411239e-01	 8.3719758836e-01	 3.2021962184e+01
 6.3186986277e-01	 8.4961623276e-01	 3.3252448298e+01
 7.1925341324e-01	 7.9299035120e-01	 2.7980582473e+01
 7.0367402516e-01	 8.0684697177e-01	 3.0149062641e+01
 6.8783834999e-01	 8.2038867242e-01	 3.1424368809e+01
 6.7175596967e-01	 8.3360847330e-01	 3.2589346903e+01
 6.5543671364e-01	 8.4649978379e-01	 3.3755668362e+01
 6.3889063902e-01	 8.5905641312e-01	 3.5026482071e+01
 7.2715729690e-01	 8.0170453088e-01	 2.8065490000e+01
 7.1140670676e-01	 8.1571342201e-01	 3.1391323221e+01
 6.9539701317e-01	 8.2940393256e-01	 3.2872951531e+01
 6.7913790341e-01	 8.4276900597e-01	 3.4227979144e+01
 6.6263931489e-01	 8.5580197922e-01	 3.5491587728e+01
 6.4591141527e-01	 8.6849659348e-01	 3.6687369670e+01
 7.3506118056e-01	 8.1041871057e-01	 2.8279242370e+01
 7.1913938835e-01	 8.2457987225e-01	 3.2071983947e+01
 7.0295567636e-01	 8.3841919270e-01	 3.4423227574e+01
 6.8651983714e-01	 8.5192953865e-01	 3.5908093037e+01
 6.6984191614e-01	 8.6510417464e-01	 3.7191763154e+01
 6.5293219153e-01	 8.7793677385e-01	 3.8244992364e+01
 7.4296506422e-01	 8.1913289025e-01	 2.8622615578e+01
 7.2687206995e-01	 8.3344632249e-01	 3.2476182607e+01
 7.1051433955e-01	 8.4743445283e-01	 3.6015409139e+01
 6.9390177087e-01	 8.6109007132e-01	 3.7570115765e+01
 6.7704451739e-01	 8.7440637007e-01	 3.8820039280e+01
 6.5995296778e-01	 8.8737695421e-01	 3.9708982598e+01
 7.5086894789e-01	 8.2784706993e-01	 2.9096106649e+01
 7.3460475154e-01	 8.4231277273e-01	 3.2975062344e+01
 7.1807300273e-01	 8.5644971297e-01	 3.7051006543e+01
 7.0128370460e-01	 8.7025060399e-01	 3.9157182143e+01
 6.8424711864e-01	 8.8370856550e-01	 4.0341967687e+01
 6.6697374403e-01	 8.9681713458e-01	 4.1088737084e+01
 6.3186986277e-01	 8.4961623276e-01	 3.3252448298e+01
 6.1529143883e-01	 8.6169815582e-01	 3.4056940213e+01
 5.9850917703e-01	 8.7343805244e-01	 3.3670743367e+01
 5.8153357770e-01	 8.8483103723e-01	 3.2198260950e+01
 5.6437528395e-01	 8.9587265016e-01	 2.9756494849e+01
 5.4704506038e-01	 9.0655886094e-01	 2.6474205001e+01
 6.3889063902e-01	 8.5905641312e-01	 3.5026482071e+01
 6.2212801037e-01	 8.7127257977e-01	 3.5710936212e+01
 6.0515927900e-01	 8.8314291969e-01	 3.5162028462e+01
 5.8799506190e-01	 8.9466249320e-01	 3.3555218667e+01
 5.7064612043e-01	 9.0582679072e-01	 3.1082790894e+01
 5.5312333883e-01	 9.1663173717e-01	 2.7952523893e+01
 6.4591141527e-01	 8.6849659348e-01	 3.6687369670e+01
 6.2896458191e-01	 8.8084700373e-01	 3.7174014385e+01
 6.1180938097e-01	 8.9284778694e-01	 3.6443766674e+01
 5.9445654610e-01	 9.0449394916e-01	 3.4725800472e+01
 5.7691695692e-01	 9.1578093128e-01	 3.2266823013e+01
 5.5920161728e-01	 9.2670461341e-01	 2.9329415194e+01
 6.5293219153e-01	 8.7793677385e-01	 3.8244992364e+01
 6.3580115346e-01	 8.9042142768e-01	 3.8501538249e+01
 6.1845948293e-01	 9.0255265418e-01	 3.7589724928e+01
 6.0091803029e-01	 9.1432540513e-01	 3.5775732784e+01
 5.8318779341e-01	 9.2573507183e-01	 3.3340542893e+01
 5.6527989573e-01	 9.3677748964e-01	 3.0578103043e+01
 6.5995296778e-01	 8.8737695421e-01	 3.9708982598e+01
 6.4263772500e-01	 8.9999585163e-01	 3.9746672157e+01
 6.2510958490e-01	 9.1225752143e-01	 3.8670673011e+01
 6.0737951449e-01	 9.2415686110e-01	 3.6768072327e+01
 5.8945862990e-01	 9.3568921239e-01	 3.4334655244e+01
 5.7135817418e-01	 9.4685036587e-01	 3.1673049422e+01
 6.6697374403e-01	 8.9681713458e-01	 4.1088737084e+01
 6.4947429654e-01	 9.0957027559e-01	 4.0960497045e+01
 6.3175968687e-01	 9.2196238868e-01	 3.9754541317e+01
 6.1384099869e-01	 9.3398831707e-01	 3.7763346634e+01
 5.9572946639e-01	 9.4564335295e-01	 3.5278683430e+01
 5.7743645262e-01	 9.5692324210e-01	 3.2589889003e+01
 5.4704506038e-01	 9.0655886094e-01	 2.6474205001e+01
 5.2955377181e-01	 9.1688607209e-01	 2.2547560346e+01
 5.1191236183e-01	 9.2685112086e-01	 1.8158368248e+01
 4.9413183160e-01	 9.3645127980e-01	 1.3405971957e+01
 4.7622321868e-01	 9.4568425620e-01	 8.3680331353e+00
 4.5819757618e-01	 9.5454819031e-01	 3.1004873643e+00
 5.5312333883e-01	 9.1663173717e-01	 2.7952523893e+01
 5.3543770260e-01	 9.2707369512e-01	 2.4286751658e+01
 5.1760027696e-01	 9.3714946665e-01	 2.0122281056e+01
 4.9962218529e-01	 9.4685629402e-01	 1.5528681676e+01
 4.8151458778e-01	 9.5619185905e-01	 1.0548009215e+01
 4.6328866036e-01	 9.6515428131e-01	 5.1950699686e+00
 5.5920161728e-01	 9.2670461341e-01	 2.9329415194e+01
 5.4132163340e-01	 9.3726131814e-01	 2.5918776624e+01
 5.2328819209e-01	 9.4744781244e-01	 2.1911265166e+01
 5.0511253897e-01	 9.5726130824e-01	 1.7364985699e+01
 4.8680595688e-01	 9.6669946189e-01	 1.2308765041e+01
 4.6837974454e-01	 9.7576037232e-01	 6.7425221931e+00
 5.6527989573e-01	 9.3677748964e-01	 3.0578103043e+01
 5.4720556420e-01	 9.4744894116e-01	 2.7362422837e+01
 5.2897610723e-01	 9.5774615822e-01	 2.3422228733e+01
 5.1060289266e-01	 9.6766632246e-01	 1.8821769576e+01
 4.9209732597e-01	 9.7720706474e-01	 1.3598233632e+01
 4.7347082872e-01	 9.8636646332e-01	 7.7620251613e+00
 5.7135817418e-01	 9.4685036587e-01	 3.1673049422e+01
 5.5308949500e-01	 9.5763656419e-01	 2.8540018293e+01
 5.3466402236e-01	 9.6804450401e-01	 2.4556537873e+01
 5.1609324634e-01	 9.7807133668e-01	 1.9809939225e+01
 4.9738869507e-01	 9.8771466759e-01	 1.4366609165e+01
 4.7856191290e-01	 9.9697255432e-01	 8.2719773910e+00
 5.7743645262e-01	 9.5692324210e-01	 3.2589889003e+01
 5.5897342580e-01	 9.6782418721e-01	 2.9377245055e+01
 5.4035193749e-01	 9.7834284980e-01	 2.5219782032e+01
 5.2158360002e-01	 9.8847635090e-01	 2.0244209333e+01
 5.0268006417e-01	 9.9822227043e-01	 1.4566227975e+01
 4.8365299708e-01	 1.0075786453e+00	 8.2900359847e+00
 4.5819757618e-01	 9.5454819031e-01	 3.1004873643e+00
 4.4006595216e-01	 9.6304165236e-01	-2.5094887730e+00
 4.2183936950e-01	 9.7116363852e-01	-8.5329373148e+00
 4.0352880613e-01	 9.7891356568e-01	-1.4870636306e+01
 3.8514517586e-01	 9.8629126527e-01	-2.1427964153e+01
 3.6669930974e-01	 9.9329697607e-01	-2.8115383512e+01
 4.6328866036e-01	 9.6515428131e-01	 5.1950699686e+00
 4.4495557385e-01	 9.7374211517e-01	-5.8207379531e-01
 4.2652647360e-01	 9.8195434561e-01	-6.7551209092e+00
 4.0801245953e-01	 9.8979038307e-01	-1.3207770987e+01
 3.8942456670e-01	 9.9725005711e-01	-1.9822589276e+01
 3.7077374652e-01	 1.0043336091e+00	-2.6481784524e+01
 4.6837974454e-01	 9.7576037232e-01	 6.7425221931e+00
 4.4984519554e-01	 9.8444257797e-01	 7.2659617933e-01
 4.3121357771e-01	 9.9274505271e-01	-5.5945200507e+00
 4.1249611293e-01	 1.0006672005e+00	-1.2112836036e+01
 3.9370395754e-01	 1.0082088489e+00	-1.8716750810e+01
 3.7484818329e-01	 1.0153702422e+00	-2.5291880981e+01
 4.7347082872e-01	 9.8636646332e-01	 7.7620251613e+00
 4.5473481723e-01	 9.9514304078e-01	 1.5070009577e+00
 4.3590068181e-01	 1.0035357598e+00	-4.9182211385e+00
 4.1697976633e-01	 1.0115440179e+00	-1.1438372903e+01
 3.9798334838e-01	 1.0191676408e+00	-1.7975290717e+01
 3.7892262007e-01	 1.0264068753e+00	-2.4448554636e+01
 4.7856191290e-01	 9.9697255432e-01	 8.2719773910e+00
 4.5962443892e-01	 1.0058435036e+00	 1.8457924431e+00
 4.4058778592e-01	 1.0143264669e+00	-4.5989548128e+00
 4.2146341973e-01	 1.0224208353e+00	-1.1043196149e+01
 4.0226273923e-01	 1.0301264326e+00	-1.7468809826e+01
 3.8299705684e-01	 1.0374435083e+00	-2.3858835792e+01
 4.8365299708e-01	 1.0075786453e+00	 8.2900359847e+00
 4.6451406061e-01	 1.0165439664e+00	 1.8259961033e+00
 4.4527489002e-01	 1.0251171740e+00	-4.5147988896e+00
 4.2594707313e-01	 1.0332976527e+00	-1.0792063281e+01
 4.0654213007e-01	 1.0410852245e+00	-1.7073364732e+01
 3.8707149362e-01	 1.0484801414e+00	-2.3433684957e+01
 3.6669930974e-01	 9.9329697607e-01	-2.8115383512e+01
 3.4820193811e-01	 9.9993133601e-01	-3.3130046902e+01
 3.2966367325e-01	 1.0061953732e+00	-3.6033800596e+01
 3.1109499287e-01	 1.0120904959e+00	-3.8308477999e+01
 2.9250622431e-01	 1.0176184821e+00	-4.0121908027e+01
 2.7390752957e-01	 1.0227814682e+00	-4.1659346414e+01
 3.7077374652e-01	 1.0043336091e+00	-2.6481784524e+01
 3.5207084853e-01	 1.0110416842e+00	-3.1952634240e+01
 3.3332660295e-01	 1.0173753218e+00	-3.4767507122e+01
 3.1455160390e-01	 1.0233359458e+00	-3.7050743384e+01
 2.9575629347e-01	 1.0289253542e+00	-3.8979203699e+01
 2.7695094656e-01	 1.0341457067e+00	-4.0747202779e+01
 3.7484818329e-01	 1.0153702422e+00	-2.5291880981e+01
 3.5593975896e-01	 1.0221520324e+00	-3.1246881951e+01
 3.3698953265e-01	 1.0285552703e+00	-3.4003417607e+01
 3.1800821493e-01	 1.0345813958e+00	-3.6357376246e+01
 2.9900636263e-01	 1.0402322262e+00	-3.8471714900e+01
 2.7999436356e-01	 1.0455099453e+00	-4.0525499457e+01
 3.7892262007e-01	 1.0264068753e+00	-2.4448554636e+01
 3.5980866938e-01	 1.0332623805e+00	-3.0563304851e+01
 3.4065246236e-01	 1.0397352189e+00	-3.3720030462e+01
 3.2146482597e-01	 1.0458268457e+00	-3.6217662743e+01
 3.0225643179e-01	 1.0515390982e+00	-3.8585203461e+01
 2.8303778055e-01	 1.0568741838e+00	-4.0963002769e+01
 3.8299705684e-01	 1.0374435083e+00	-2.3858835792e+01
 3.6367757980e-01	 1.0443727287e+00	-3.0036289430e+01
 3.4431539206e-01	 1.0509151675e+00	-3.3897082913e+01
 3.2492143700e-01	 1.0570722957e+00	-3.6621654180e+01
 3.0550650095e-01	 1.0628459702e+00	-3.9306331071e+01
 2.8608119755e-01	 1.0682384223e+00	-4.2030086245e+01
 3.8707149362e-01	 1.0484801414e+00	-2.3433684957e+01
 3.6754649023e-01	 1.0554830769e+00	-2.9790262706e+01
 3.4797832176e-01	 1.0620951161e+00	-3.4515485802e+01
 3.2837804803e-01	 1.0683177456e+00	-3.7560126738e+01
 3.0875657011e-01	 1.0741528422e+00	-3.9742107118e+01
 2.8912461454e-01	 1.0796026609e+00	-4.1295565319e+01
 2.7390752957e-01	 1.0227814682e+00	-4.1659346414e+01
 2.5530889115e-01	 1.0275819367e+00	-4.2761532954e+01
 2.3672009884e-01	 1.0320227038e+00	-4.3108581254e+01
 2.1815073729e-01	 1.0361069068e+00	-4.2663424149e+01
 1.9961017457e-01	 1.0398379896e+00	-4.1397571689e+01
 1.8110755158e-01	 1.0432196898e+00	-3.9291016324e+01
 2.7695094656e-01	 1.0341457067e+00	-4.0747202779e+01
 2.5814565661e-01	 1.0389995137e+00	-4.2155990032e+01
 2.3935032216e-01	 1.0434896228e+00	-4.2880062817e+01
 2.2057463438e-01	 1.0476192057e+00	-4.2938455763e+01
 2.0182806540e-01	 1.0513917451e+00	-4.2353697613e+01
 1.8311985770e-01	 1.0548110197e+00	-4.1151629841e+01
 2.7999436356e-01	 1.0455099453e+00	-4.0525499457e+01
 2.6098242207e-01	 1.0504170908e+00	-4.2248777013e+01
 2.4198054548e-01	 1.0549565417e+00	-4.3291442480e+01
 2.2299853146e-01	 1.0591315047e+00	-4.3723516384e+01
 2.0404595623e-01	 1.0629455005e+00	-4.3614777862e+01
 1.8513216383e-01	 1.0664023496e+00	-4.3034462694e+01
 2.8303778055e-01	 1.0568741838e+00	-4.0963002769e+01
 2.6381918752e-01	 1.0618346679e+00	-4.2990408592e+01
 2.4461076880e-01	 1.0664234606e+00	-4.4285459553e+01
 2.2542242854e-01	 1.0706438037e+00	-4.4964158689e+01
 2.0626384706e-01	 1.0744992559e+00	-4.4591659595e+01
 1.8714446996e-01	 1.0779936795e+00	-4.3952806222e+01
 2.8608119755e-01	 1.0682384223e+00	-4.2030086245e+01
 2.6665595298e-01	 1.0732522449e+00	-4.3850280142e+01
 2.4724099212e-01	 1.0778903796e+00	-4.4288209522e+01
 2.2784632562e-01	 1.0821561026e+00	-4.4416963054e+01
 2.0848173789e-01	 1.0860530114e+00	-4.4363775172e+01
 1.8915677609e-01	 1.0895850094e+00	-4.4248304791e+01
 2.8912461454e-01	 1.0796026609e+00	-4.1295565319e+01
 2.6949271844e-01	 1.0846698220e+00	-4.2742906452e+01
 2.4987121544e-01	 1.0893572985e+00	-4.3640364699e+01
 2.3027022270e-01	 1.0936684016e+00	-4.4156136878e+01
 2.1069962871e-01	 1.0976067668e+00	-4.4450953265e+01
 1.9116908222e-01	 1.1011763392e+00	-4.4677791635e+01
 1.8110755158e-01	 1.0432196898e+00	-3.9291016324e+01
 1.6265177240e-01	 1.0462560238e+00	-3.6420829251e+01
 1.4425149559e-01	 1.0489512727e+00	-3.3297617314e+01
 1.2591512635e-01	 1.0513099673e+00	-3.0508525683e+01
 1.0765080961e-01	 1.0533368738e+00	-2.8574971266e+01
 8.9466424020e-02	 1.0550369782e+00	-2.7953133169e+01
 1.8311985770e-01	 1.0548110197e+00	-4.1151629841e+01
 1.6445901431e-01	 1.0578810907e+00	-3.9185789171e+01
 1.4585428998e-01	 1.0606062868e+00	-3.6628739506e+01
 1.2731418331e-01	 1.0629911892e+00	-3.3945644537e+01
 1.0884692972e-01	 1.0650406168e+00	-3.1546502438e+01
 9.0460495398e-02	 1.0667596113e+00	-2.9786715220e+01
 1.8513216383e-01	 1.0664023496e+00	-4.3034462694e+01
 1.6626625623e-01	 1.0695061577e+00	-4.1663020100e+01
 1.4745708438e-01	 1.0722613010e+00	-3.9319681087e+01
 1.2871324027e-01	 1.0746724110e+00	-3.6393911979e+01
 1.1004304983e-01	 1.0767443598e+00	-3.3412625379e+01
 9.1454566776e-02	 1.0784822444e+00	-3.0616930769e+01
 1.8714446996e-01	 1.0779936795e+00	-4.3952806222e+01
 1.6807349814e-01	 1.0811312246e+00	-4.2735319270e+01
 1.4905987878e-01	 1.0839163151e+00	-4.0590943040e+01
 1.3011229723e-01	 1.0863536329e+00	-3.7763091384e+01
 1.1123916993e-01	 1.0884481029e+00	-3.4458983885e+01
 9.2448638154e-02	 1.0902048775e+00	-3.0850637799e+01
 1.8915677609e-01	 1.0895850094e+00	-4.4248304791e+01
 1.6988074006e-01	 1.0927562915e+00	-4.3504368272e+01
 1.5066267317e-01	 1.0955713292e+00	-4.1618098097e+01
 1.3151135419e-01	 1.0980348548e+00	-3.8761376908e+01
 1.1243529004e-01	 1.1001518459e+00	-3.5079366261e+01
 9.3442709532e-02	 1.1019275106e+00	-3.0691405518e+01
 1.9116908222e-01	 1.1011763392e+00	-4.4677791635e+01
 1.7168798197e-01	 1.1043813585e+00	-4.4216179582e+01
 1.5226546757e-01	 1.1072263434e+00	-4.2434717163e+01
 1.3291041115e-01	 1.1097160766e+00	-3.9450419964e+01
 1.1363141015e-01	 1.1118555890e+00	-3.5362716884e+01
 9.4436780910e-02	 1.1136501437e+00	-3.0254194425e+01
 8.9466424020e-02	 1.0550369782e+00	-2.7953133169e+01
 7.1369576798e-02	 1.0564154722e+00	-2.8155998897e+01
 5.3367599471e-02	 1.0574777377e+00	-2.7961476203e+01
 3.5467544421e-02	 1.0582293323e+00	-2.6759545997e+01
 1.7676182262e-02	 1.0586759745e+00	-2.4050627320e+01
 0.0000000000e+00	 1.0588235294e+00	-1.9441839083e+01
 9.0460495398e-02	 1.0667596113e+00	-2.9786715220e+01
 7.2162572096e-02	 1.0681534219e+00	-2.8795320090e+01
 5.3960572798e-02	 1.0692274904e+00	-2.8037300849e+01
 3.5861628248e-02	 1.0699874360e+00	-2.6913515447e+01
 1.7872584288e-02	 1.0704390409e+00	-2.4931520724e+01
 0.0000000000e+00	 1.0705882353e+00	-2.1701978324e+01
 9.1454566776e-02	 1.0784822444e+00	-3.0616930769e+01
 7.2955567393e-02	 1.0798913716e+00	-2.8676119057e+01
 5.4553546126e-02	 1.0809772430e+00	-2.7671435405e+01
 3.6255712075e-02	 1.0817455397e+00	-2.7005640119e+01
 1.8068986313e-02	 1.0822021073e+00	-2.6181623381e+01
 0.0000000000e+00	 1.0823529412e+00	-2.4799350309e+01
 9.2448638154e-02	 1.0902048775e+00	-3.0850637799e+01
 7.3748562691e-02	 1.0916293213e+00	-2.8117730177e+01
 5.5146519453e-02	 1.0927269956e+00	-2.6932468470e+01
 3.6649795902e-02	 1.0935036434e+00	-2.6748214183e+01
 1.8265388338e-02	 1.0939651737e+00	-2.7107400500e+01
 0.0000000000e+00	 1.0941176471e+00	-2.7638807319e+01
 9.3442709532e-02	 1.1019275106e+00	-3.0691405518e+01
 7.4541557989e-02	 1.1033672710e+00	-2.7216057713e+01
 5.5739492781e-02	 1.1044767483e+00	-2.5849671554e+01
 3.7043879729e-02	 1.1052617471e+00	-2.6116567261e+01
 1.8461790363e-02	 1.1057282400e+00	-2.7615495040e+01
 0.0000000000e+00	 1.1058823529e+00	-3.0017323941e+01
 9.4436780910e-02	 1.1136501437e+00	-3.0254194425e+01
 7.5334553287e-02	 1.1151052207e+00	-2.6098214771e+01
 5.6332466108e-02	 1.1162265009e+00	-2.4535815210e+01
 3.7437963555e-02	 1.1170198508e+00	-2.5182140281e+01
 1.8658192388e-02	 1.1174913064e+00	-2.7708611800e+01
 0.0000000000e+00	 1.1176470588e+00	-3.1841113804e+01
 1.1176470588e+00	 0.0000000000e+00	 1.3226396349e+01
 1.1174913064e+00	 1.8658192388e-02	 6.3976511852e+00
 1.1170198508e+00	 3.7437963555e-02	 2.7106983974e+00
 1.1162265009e+00	 5.6332466108e-02	 1.7495405453e+00
 1.1151052207e+00	 7.5334553287e-02	 3.0731830283e+00
 1.1136501437e+00	 9.4436780910e-02	 6.2160329389e+00
 1.1294117647e+00	 0.0000000000e+00	 1.3677235913e+01
 1.1292543728e+00	 1.8854594413e-02	 7.7042763963e+00
 1.1287779544e+00	 3.7832047382e-02	 4.2086508564e+00
 1.1279762536e+00	 5.6925439436e-02	 2.9770845859e+00
 1.1268431704e+00	 7.6127548585e-02	 3.7856486166e+00
 1.1253727768e+00	 9.5430852288e-02	 6.3997648538e+00
 1.1411764706e+00	 0.0000000000e+00	 1.4695967403e+01
 1.1410174392e+00	 1.9050996438e-02	 9.1113566765e+00
 1.1405360581e+00	 3.8226131209e-02	 5.5849116902e+00
 1.1397260062e+00	 5.7518412763e-02	 4.0454475803e+00
 1.1385811201e+00	 7.6920543882e-02	 4.4203788696e+00
 1.1370954099e+00	 9.6424923666e-02	 6.6354052850e+00
 1.1529411765e+00	 0.0000000000e+00	 1.6076258900e+01
 1.1527805056e+00	 1.9247398464e-02	 1.0519785256e+01
 1.1522941618e+00	 3.8620215036e-02	 6.8146227701e+00
 1.1514757588e+00	 5.8111386091e-02	 4.9728366727e+00
 1.1503190697e+00	 7.7713539180e-02	 5.0093677208e+00
 1.1488180429e+00	 9.7418995044e-02	 6.9414721897e+00
 1.1647058824e+00	 0.0000000000e+00	 1.7620115126e+01
 1.1645435720e+00	 1.9443800489e-02	 1.1834473969e+01
 1.1640522655e+00	 3.9014298863e-02	 7.8739591153e+00
 1.1632255115e+00	 5.8704359418e-02	 5.7767667984e+00
 1.1620570194e+00	 7.8506534478e-02	 5.5833746454e+00
 1.1605406760e+00	 9.8413066422e-02	 7.3358084495e+00
 1.1764705882e+00	 0.0000000000e+00	 1.9137460614e+01
 1.1763066384e+00	 1.9640202514e-02	 1.2964152327e+01
 1.1758103692e+00	 3.9408382690e-02	 8.7400772352e+00
 1.1749752641e+00	 5.9297332745e-02	 6.4740952945e+00
 1.1737949691e+00	 7.9299529776e-02	 6.1719863829e+00
 1.1722633091e+00	 9.9407137800e-02	 7.8356156242e+00
 1.1136501437e+00	 9.4436780910e-02	 6.2160329389e+00
 1.1118555890e+00	 1.1363141015e-01	 8.9775210372e+00
 1.1097160766e+00	 1.3291041115e-01	 9.7507184932e+00
 1.1072263434e+00	 1.5226546757e-01	 8.9524377867e+00
 1.1043813585e+00	 1.7168798197e-01	 7.0122620748e+00
 1.1011763392e+00	 1.9116908222e-01	 4.3716215144e+00
 1.1253727768e+00	 9.5430852288e-02	 6.3997648538e+00
 1.1235593320e+00	 1.1482753025e-01	 8.8449514169e+00
 1.1213972985e+00	 1.3430946811e-01	 9.5220736769e+00
 1.1188813575e+00	 1.5386826196e-01	 8.7583644511e+00
 1.1160064254e+00	 1.7349522389e-01	 6.8895912636e+00
 1.1127676691e+00	 1.9318138835e-01	 4.2594243687e+00
 1.1370954099e+00	 9.6424923666e-02	 6.6354052850e+00
 1.1352630751e+00	 1.1602365036e-01	 8.8509379248e+00
 1.1330785203e+00	 1.3570852507e-01	 9.4481929014e+00
 1.1305363717e+00	 1.5547105636e-01	 8.6871531359e+00
 1.1276314923e+00	 1.7530246580e-01	 6.8335873831e+00
 1.1243589990e+00	 1.9519369448e-01	 4.1586567311e+00
 1.1488180429e+00	 9.7418995044e-02	 6.9414721897e+00
 1.1469668181e+00	 1.1721977047e-01	 8.9921283658e+00
 1.1447597422e+00	 1.3710758203e-01	 9.5124995371e+00
 1.1421913858e+00	 1.5707385075e-01	 8.7169783643e+00
 1.1392565593e+00	 1.7710970772e-01	 6.8244486133e+00
 1.1359503289e+00	 1.9720600060e-01	 4.0580777589e+00
 1.1605406760e+00	 9.8413066422e-02	 7.3358084495e+00
 1.1586705611e+00	 1.1841589057e-01	 9.2653940853e+00
 1.1564409641e+00	 1.3850663899e-01	 9.6991898292e+00
 1.1538463999e+00	 1.5867664515e-01	 8.8270146285e+00
 1.1508816262e+00	 1.7891694964e-01	 6.8433063293e+00
 1.1475416588e+00	 1.9921830673e-01	 3.9470488304e+00
 1.1722633091e+00	 9.9407137800e-02	 7.8356156242e+00
 1.1703743042e+00	 1.1961201068e-01	 9.6678187915e+00
 1.1681221859e+00	 1.3990569595e-01	 9.9931942536e+00
 1.1655014141e+00	 1.6027943954e-01	 8.9973863913e+00
 1.1625066931e+00	 1.8072419155e-01	 6.8721784416e+00
 1.1591329887e+00	 2.0123061286e-01	 3.8155034333e+00
 1.1011763392e+00	 1.9116908222e-01	 4.3716215144e+00
 1.0976067668e+00	 2.1069962871e-01	 1.6722906917e+00
 1.0936684016e+00	 2.3027022270e-01	-7.2001709904e-01
 1.0893572985e+00	 2.4987121544e-01	-2.7688719121e+00
 1.0846698220e+00	 2.6949271844e-01	-4.4367078711e+00
 1.0796026609e+00	 2.8912461454e-01	-5.6847428206e+00
 1.1127676691e+00	 1.9318138835e-01	 4.2594243687e+00
 1.1091605223e+00	 2.1291751954e-01	 1.4394714946e+00
 1.1051807006e+00	 2.3269411978e-01	-1.1790014010e+00
 1.1008242174e+00	 2.5250143876e-01	-3.5148095821e+00
 1.0960873991e+00	 2.7232948390e-01	-5.4834832219e+00
 1.0909668994e+00	 2.9216803154e-01	-6.9973508586e+00
 1.1243589990e+00	 1.9519369448e-01	 4.1586567311e+00
 1.1207142777e+00	 2.1513541037e-01	 1.1914093103e+00
 1.1166929995e+00	 2.3511801686e-01	-1.6491264799e+00
 1.1122911364e+00	 2.5513166209e-01	-4.2494554635e+00
 1.1075049762e+00	 2.7516624935e-01	-6.4914735772e+00
 1.1023311379e+00	 2.9521144853e-01	-8.2526798493e+00
 1.1359503289e+00	 1.9720600060e-01	 4.0580777589e+00
 1.1322680331e+00	 2.1735330120e-01	 9.2590196736e-01
 1.1282052985e+00	 2.3754191394e-01	-2.1283983378e+00
 1.1237580553e+00	 2.5776188541e-01	-4.9710975531e+00
 1.1189225532e+00	 2.7800301481e-01	-7.4633446708e+00
 1.1136953765e+00	 2.9825486553e-01	-9.4614690655e+00
 1.1475416588e+00	 1.9921830673e-01	 3.9470488304e+00
 1.1438217886e+00	 2.1957119203e-01	 6.4099913539e-01
 1.1397175974e+00	 2.3996581102e-01	-2.6147260010e+00
 1.1352249742e+00	 2.6039210873e-01	-5.6779009821e+00
 1.1303401303e+00	 2.8083978027e-01	-8.4014482170e+00
 1.1250596150e+00	 3.0129828252e-01	-1.0633803540e+01
 1.1591329887e+00	 2.0123061286e-01	 3.8155034333e+00
 1.1553755440e+00	 2.2178908286e-01	 3.3498973291e-01
 1.1512298964e+00	 2.4238970811e-01	-3.1059263690e+00
 1.1466918932e+00	 2.6302233205e-01	-6.3679141593e+00
 1.1417577074e+00	 2.8367654572e-01	-9.3078376115e+00
 1.1364238535e+00	 3.0434169952e-01	-1.1779146780e+01
 1.0796026609e+00	 2.8912461454e-01	-5.6847428206e+00
 1.0741528422e+00	 3.0875657011e-01	-6.4527401347e+00
 1.0683177456e+00	 3.2837804803e-01	-6.7986705604e+00
 1.0620951161e+00	 3.4797832176e-01	-6.9315128682e+00
 1.0554830769e+00	 3.6754649023e-01	-6.4554129041e+00
 1.0484801414e+00	 3.8707149362e-01	-5.8985055341e+00
 1.0909668994e+00	 2.9216803154e-01	-6.9973508586e+00
 1.0854597143e+00	 3.1200663927e-01	-7.9982068693e+00
 1.0795631956e+00	 3.3183465906e-01	-8.5251732972e+00
 1.0732750647e+00	 3.5164125147e-01	-8.6417254586e+00
 1.0665934251e+00	 3.7141540065e-01	-7.7347887497e+00
 1.0595167745e+00	 3.9114593039e-01	-7.0149875169e+00
 1.1023311379e+00	 2.9521144853e-01	-8.2526798493e+00
 1.0967665863e+00	 3.1525670843e-01	-9.4889012272e+00
 1.0908086456e+00	 3.3529127009e-01	-1.0287961093e+01
 1.0844550133e+00	 3.5530418117e-01	-1.0729588608e+01
 1.0777037733e+00	 3.7528431107e-01	-9.3180378407e+00
 1.0705534075e+00	 3.9522036717e-01	-8.1739618690e+00
 1.1136953765e+00	 2.9825486553e-01	-9.4614690655e+00
 1.1080734583e+00	 3.1850677759e-01	-1.0943459618e+01
 1.1020540955e+00	 3.3874788113e-01	-1.2038669041e+01
 1.0956349619e+00	 3.5896711087e-01	-1.2612978064e+01
 1.0888141214e+00	 3.7915322150e-01	-1.1033032320e+01
 1.0815900406e+00	 3.9929480394e-01	-9.9095620939e+00
 1.1250596150e+00	 3.0129828252e-01	-1.0633803540e+01
 1.1193803303e+00	 3.2175684674e-01	-1.2379531419e+01
 1.1132995455e+00	 3.4220449216e-01	-1.3799066821e+01
 1.1068149105e+00	 3.6263004057e-01	-1.4206301445e+01
 1.0999244696e+00	 3.8302213192e-01	-1.2675781817e+01
 1.0926266737e+00	 4.0336924072e-01	-1.1636676160e+01
 1.1364238535e+00	 3.0434169952e-01	-1.1779146780e+01
 1.1306872024e+00	 3.2500691590e-01	-1.3813828323e+01
 1.1245449954e+00	 3.4566110319e-01	-1.5589808375e+01
 1.1179948591e+00	 3.6629297028e-01	-1.5729537830e+01
 1.1110348178e+00	 3.8689104234e-01	-1.4280380639e+01
 1.1036633067e+00	 4.0744367749e-01	-1.3335300411e+01
 1.0484801414e+00	 3.8707149362e-01	-5.8985055341e+00
 1.0410852245e+00	 4.0654213007e-01	-5.6109523435e+00
 1.0332976527e+00	 4.2594707313e-01	-5.2990590848e+00
 1.0251171740e+00	 4.4527489002e-01	-4.8629842545e+00
 1.0165439664e+00	 4.6451406061e-01	-4.1873287729e+00
 1.0075786453e+00	 4.8365299708e-01	-3.1412299443e+00
 1.0595167745e+00	 3.9114593039e-01	-7.0149875169e+00
 1.0520440163e+00	 4.1082152091e-01	-6.6523156415e+00
 1.0441744701e+00	 4.3043072653e-01	-6.2889153693e+00
 1.0359078811e+00	 4.4996199413e-01	-5.8162491505e+00
 1.0272444292e+00	 4.6940368230e-01	-5.1131324539e+00
 1.0181847363e+00	 4.8874408126e-01	-4.0459558183e+00
 1.0705534075e+00	 3.9522036717e-01	-8.1739618690e+00
 1.0630028081e+00	 4.1510091176e-01	-7.7266512965e+00
 1.0550512874e+00	 4.3491437994e-01	-7.3108991614e+00
 1.0466985882e+00	 4.5464909823e-01	-6.8157908957e+00
 1.0379448920e+00	 4.7429330399e-01	-6.1200551949e+00
 1.0287908273e+00	 4.9383516544e-01	-5.0923629384e+00
 1.0815900406e+00	 3.9929480394e-01	-9.9095620939e+00
 1.0739616000e+00	 4.1938030260e-01	-9.0071489484e+00
 1.0659281048e+00	 4.3939803334e-01	-8.3578949289e+00
 1.0574892953e+00	 4.5933620234e-01	-7.8357669678e+00
 1.0486453548e+00	 4.7918292568e-01	-7.1580234195e+00
 1.0393969183e+00	 4.9892624962e-01	-6.2004370710e+00
 1.0926266737e+00	 4.0336924072e-01	-1.1636676160e+01
 1.0849203918e+00	 4.2365969344e-01	-1.0824242409e+01
 1.0768049222e+00	 4.4388168674e-01	-9.8220965227e+00
 1.0682800024e+00	 4.6402330645e-01	-8.8509583825e+00
 1.0593458176e+00	 4.8407254737e-01	-8.1785574379e+00
 1.0500030093e+00	 5.0401733379e-01	-7.2929600321e+00
 1.1036633067e+00	 4.0744367749e-01	-1.3335300411e+01
 1.0958791836e+00	 4.2793908428e-01	-1.2601761645e+01
 1.0876817396e+00	 4.4836534014e-01	-1.1655819188e+01
 1.0790707095e+00	 4.6871041055e-01	-1.0466878516e+01
 1.0700462804e+00	 4.8896216907e-01	-9.1346917532e+00
 1.0606091003e+00	 5.0910841797e-01	-8.2953698851e+00
 1.0075786453e+00	 4.8365299708e-01	-3.1412299443e+00
 9.9822227043e-01	 5.0268006417e-01	-1.9340097411e+00
 9.8847635090e-01	 5.2158360002e-01	-9.0275928953e-01
 9.7834284980e-01	 5.4035193749e-01	-8.9121383978e-02
 9.6782418721e-01	 5.5897342580e-01	 4.7597582159e-01
 9.5692324210e-01	 5.7743645262e-01	 7.7288970527e-01
 1.0181847363e+00	 4.8874408126e-01	-4.0459558183e+00
 1.0087298733e+00	 5.0797143326e-01	-2.8209496423e+00
 9.9888136512e-01	 5.2707395371e-01	-1.7687035841e+00
 9.8864119558e-01	 5.4603985262e-01	-9.2140627936e-01
 9.7801181023e-01	 5.6485735659e-01	-2.9522766436e-01
 9.6699611834e-01	 5.8351473107e-01	 1.1028703709e-01
 1.0287908273e+00	 4.9383516544e-01	-5.0923629384e+00
 1.0192374761e+00	 5.1326280236e-01	-3.9129452370e+00
 1.0092863793e+00	 5.3256430739e-01	-2.8753241361e+00
 9.9893954137e-01	 5.5172776775e-01	-1.9967472715e+00
 9.8819943326e-01	 5.7074128739e-01	-1.2752071064e+00
 9.7706899457e-01	 5.8959300952e-01	-6.8886427839e-01
 1.0393969183e+00	 4.9892624962e-01	-6.2004370710e+00
 1.0297450790e+00	 5.1855417145e-01	-5.1045615661e+00
 1.0196913936e+00	 5.3805466108e-01	-4.1067958850e+00
 1.0092378872e+00	 5.5741568288e-01	-3.2041552906e+00
 9.9838705628e-01	 5.7662521819e-01	-2.3731883065e+00
 9.8714187080e-01	 5.9567128797e-01	-1.5694927280e+00
 1.0500030093e+00	 5.0401733379e-01	-7.2929600321e+00
 1.0402526818e+00	 5.2384554055e-01	-6.2941804013e+00
 1.0300964078e+00	 5.4354501476e-01	-5.3515250405e+00
 1.0195362329e+00	 5.6310359801e-01	-4.4366730471e+00
 1.0085746793e+00	 5.8250914899e-01	-3.5016091584e+00
 9.9721474703e-01	 6.0174956642e-01	-2.4782946043e+00
 1.0606091003e+00	 5.0910841797e-01	-8.2953698851e+00
 1.0507602847e+00	 5.2913690965e-01	-7.3838094090e+00
 1.0405014220e+00	 5.4903536845e-01	-6.5019375195e+00
 1.0298345787e+00	 5.6879151315e-01	-5.5911734424e+00
 1.0187623023e+00	 5.8839307979e-01	-4.5759590435e+00
 1.0072876233e+00	 6.0782784487e-01	-3.3636456148e+00
 9.5692324210e-01	 5.7743645262e-01	 7.7288970527e-01
 9.4564335295e-01	 5.9572946639e-01	 5.8816860261e-01
 9.3398831707e-01	 6.1384099869e-01	-7.3983235692e-02
 9.2196238868e-01	 6.3175968687e-01	-8.9216328311e-01
 9.0957027559e-01	 6.4947429654e-01	-1.5386097288e+00
 8.9681713458e-01	 6.6697374403e-01	-1.6809707054e+00
 9.6699611834e-01	 5.8351473107e-01	 1.1028703709e-01
 9.5559749351e-01	 6.0200030287e-01	 5.9337609736e-02
 9.4381977304e-01	 6.2030248288e-01	-4.9831094482e-01
 9.3166725593e-01	 6.3840978883e-01	-1.2680451606e+00
 9.1914469954e-01	 6.5631086808e-01	-1.9525053149e+00
 9.0625731494e-01	 6.7399452029e-01	-2.2532518425e+00
 9.7706899457e-01	 5.8959300952e-01	-6.8886427839e-01
 9.6555163406e-01	 6.0827113936e-01	-5.2169762388e-01
 9.5365122901e-01	 6.2676396708e-01	-9.1299113335e-01
 9.4137212318e-01	 6.4505989080e-01	-1.6069006875e+00
 9.2871912349e-01	 6.6314743963e-01	-2.3463261896e+00
 9.1569749530e-01	 6.8101529654e-01	-2.8743881594e+00
 9.8714187080e-01	 5.9567128797e-01	-1.5694927280e+00
 9.7550577462e-01	 6.1454197585e-01	-1.1360335924e+00
 9.6348268498e-01	 6.3322545128e-01	-1.3204188928e+00
 9.5107699043e-01	 6.5170999277e-01	-1.9171923852e+00
 9.3829354745e-01	 6.6998401117e-01	-2.7190522525e+00
 9.2513767567e-01	 6.8803607279e-01	-3.5180523502e+00
 9.9721474703e-01	 6.0174956642e-01	-2.4782946043e+00
 9.8545991518e-01	 6.2081281234e-01	-1.7650726759e+00
 9.7331414095e-01	 6.3968693547e-01	-1.7224352243e+00
 9.6078185768e-01	 6.5836009474e-01	-2.2065852543e+00
 9.4786797140e-01	 6.7682058271e-01	-3.0692518638e+00
 9.3457785603e-01	 6.9505684904e-01	-4.1585320325e+00
 1.0072876233e+00	 6.0782784487e-01	-3.3636456148e+00
 9.9541405574e-01	 6.2708364883e-01	-2.3905078463e+00
 9.8314559692e-01	 6.4614841967e-01	-2.1203547431e+00
 9.7048672493e-01	 6.6501019670e-01	-2.4819866503e+00
 9.5744239535e-01	 6.8365715425e-01	-3.3951024213e+00
 9.4401803640e-01	 7.0207762530e-01	-4.7706990004e+00
 8.9681713458e-01	 6.6697374403e-01	-1.6809707054e+00
 8.8370856550e-01	 6.8424711864e-01	-1.2415989865e+00
 8.7025060399e-01	 7.0128370460e-01	-6.1135808585e-01
 8.5644971297e-01	 7.1807300273e-01	 1.4485758328e+00
 8.4231277273e-01	 7.3460475154e-01	 8.0303197977e+00
 8.2784706993e-01	 7.5086894789e-01	 1.2907253279e+01
 9.0625731494e-01	 6.7399452029e-01	-2.2532518425e+00
 8.9301076092e-01	 6.9144971989e-01	-2.0946785027e+00
 8.7941113667e-01	 7.0866563834e-01	-1.8236946616e+00
 8.6546497310e-01	 7.2563166592e-01	 3.0945612182e+00
 8.5117922297e-01	 7.4233743314e-01	 9.3472924535e+00
 8.3656124962e-01	 7.5877283155e-01	 1.3959968290e+01
 9.1569749530e-01	 6.8101529654e-01	-2.8743881594e+00
 9.0231295635e-01	 6.9865232114e-01	-3.0932426240e+00
 8.8857166934e-01	 7.1604757207e-01	-2.4850088433e+00
 8.7448023324e-01	 7.3319032911e-01	 4.5177865473e+00
 8.6004567321e-01	 7.5007011473e-01	 1.0453856037e+01
 8.4527542930e-01	 7.6667671521e-01	 1.4878875593e+01
 9.2513767567e-01	 6.8803607279e-01	-3.5180523502e+00
 9.1161515177e-01	 7.0585492239e-01	-4.1849324121e+00
 8.9773220202e-01	 7.2342950580e-01	-8.1302273303e-01
 8.8349549338e-01	 7.4074899229e-01	 5.7587826700e+00
 8.6891212345e-01	 7.5780279633e-01	 1.1370609221e+01
 8.5398960898e-01	 7.7458059887e-01	 1.5648222519e+01
 9.3457785603e-01	 6.9505684904e-01	-4.1585320325e+00
 9.2091734720e-01	 7.1305752363e-01	-5.3190606602e+00
 9.0689273469e-01	 7.3081143954e-01	 7.6119487025e-01
 8.9251075351e-01	 7.4830765548e-01	 6.8561239670e+00
 8.7777857369e-01	 7.6553547792e-01	 1.2117009472e+01
 8.6270378867e-01	 7.8248448253e-01	 1.6252594575e+01
 9.4401803640e-01	 7.0207762530e-01	-4.7706990004e+00
 9.3021954263e-01	 7.2026012488e-01	-3.7921598127e+00
 9.1605326736e-01	 7.3819337327e-01	 2.2780079807e+00
 9.0152601365e-01	 7.5586631867e-01	 7.8465261728e+00
 8.8664502393e-01	 7.7326815952e-01	 1.2711430114e+01
 8.7141796835e-01	 7.9038836620e-01	 1.6676898541e+01
 8.2784706993e-01	 7.5086894789e-01	 1.2907253279e+01
 8.1306028527e-01	 7.6685586691e-01	 1.6460257757e+01
 7.9796047999e-01	 7.8255608135e-01	 1.9600195838e+01
 7.8255608135e-01	 7.9796047999e-01	 2.2581500350e+01
 7.6685586691e-01	 8.1306028527e-01	 2.5660886284e+01
 7.5086894789e-01	 8.2784706993e-01	 2.9096106649e+01
 8.3656124962e-01	 7.5877283155e-01	 1.3959968290e+01
 8.2161881459e-01	 7.7492803393e-01	 1.7330263593e+01
 8.0636006399e-01	 7.9079351379e-01	 2.0350395773e+01
 7.9079351379e-01	 8.0636006399e-01	 2.3263401636e+01
 7.7492803393e-01	 8.2161881459e-01	 2.6307229050e+01
 7.5877283155e-01	 8.3656124962e-01	 2.9713583561e+01
 8.4527542930e-01	 7.6667671521e-01	 1.4878875593e+01
 8.3017734391e-01	 7.8300020095e-01	 1.8178034287e+01
 8.1475964799e-01	 7.9903094622e-01	 2.1176110507e+01
 7.9903094622e-01	 8.1475964799e-01	 2.4089389446e+01
 7.8300020095e-01	 8.3017734391e-01	 2.7124277600e+01
 7.6667671521e-01	 8.4527542930e-01	 3.0476314255e+01
 8.5398960898e-01	 7.7458059887e-01	 1.5648222519e+01
 8.3873587322e-01	 7.9107236797e-01	 1.8951662960e+01
 8.2315923199e-01	 8.0726837866e-01	 2.2006698556e+01
 8.0726837866e-01	 8.2315923199e-01	 2.4987946037e+01
 7.9107236797e-01	 8.3873587322e-01	 2.8057880710e+01
 7.7458059887e-01	 8.5398960898e-01	 3.1366085709e+01
 8.6270378867e-01	 7.8248448253e-01	 1.6252594575e+01
 8.4729440254e-01	 7.9914453499e-01	 1.9601052991e+01
 8.3155881599e-01	 8.1550581110e-01	 2.2774097563e+01
 8.1550581110e-01	 8.3155881599e-01	 2.5890180650e+01
 7.9914453499e-01	 8.4729440254e-01	 2.9055825392e+01
 7.8248448253e-01	 8.6270378867e-01	 3.2365184433e+01
 8.7141796835e-01	 7.9038836620e-01	 1.6676898541e+01
 8.5585293186e-01	 8.0721670201e-01	 2.0077827512e+01
 8.3995839999e-01	 8.2374324353e-01	 2.3412695337e+01
 8.2374324353e-01	 8.3995839999e-01	 2.6729698160e+01
 8.0721670201e-01	 8.5585293186e-01	 3.0067739985e+01
 7.9038836620e-01	 8.7141796835e-01	 3.3456371496e+01
 7.5086894789e-01	 8.2784706993e-01	 2.9096106649e+01
 7.3460475154e-01	 8.4231277273e-01	 3.2975062344e+01
 7.1807300273e-01	 8.5644971297e-01	 3.7051006543e+01
 7.0128370460e-01	 8.7025060399e-01	 3.9157182143e+01
 6.8424711864e-01	 8.8370856550e-01	 4.0341967687e+01
 6.6697374403e-01	 8.9681713458e-01	 4.1088737084e+01
 7.5877283155e-01	 8.3656124962e-01	 2.9713583561e+01
 7.4233743314e-01	 8.5117922297e-01	 3.3549950331e+01
 7.2563166592e-01	 8.6546497310e-01	 3.7560125926e+01
 7.0866563834e-01	 8.7941113667e-01	 4.0681553906e+01
 6.9144971989e-01	 8.9301076092e-01	 4.1807416841e+01
 6.7399452029e-01	 9.0625731494e-01	 4.2474546389e+01
 7.6667671521e-01	 8.4527542930e-01	 3.0476314255e+01
 7.5007011473e-01	 8.6004567321e-01	 3.4223246388e+01
 7.3319032911e-01	 8.7448023324e-01	 3.8141309294e+01
 7.1604757207e-01	 8.8857166934e-01	 4.1970246969e+01
 6.9865232114e-01	 9.0231295635e-01	 4.3293604867e+01
 6.8101529654e-01	 9.1569749530e-01	 4.3922576739e+01
 7.7458059887e-01	 8.5398960898e-01	 3.1366085709e+01
 7.5780279633e-01	 8.6891212345e-01	 3.5011884438e+01
 7.4074899229e-01	 8.8349549338e-01	 3.8826150458e+01
 7.2342950580e-01	 8.9773220202e-01	 4.2551111900e+01
 7.0585492239e-01	 9.1161515177e-01	 4.4808229509e+01
 6.8803607279e-01	 9.2513767567e-01	 4.5392276927e+01
 7.8248448253e-01	 8.6270378867e-01	 3.2365184433e+01
 7.6553547792e-01	 8.7777857369e-01	 3.5931891547e+01
 7.4830765548e-01	 8.9251075351e-01	 3.9644758023e+01
 7.3081143954e-01	 9.0689273469e-01	 4.3254643917e+01
 7.1305752363e-01	 9.2091734720e-01	 4.6358854639e+01
 6.9505684904e-01	 9.3457785603e-01	 4.6844897158e+01
 7.9038836620e-01	 8.7141796835e-01	 3.3456371496e+01
 7.7326815952e-01	 8.8664502393e-01	 3.6998433272e+01
 7.5586631867e-01	 9.0152601365e-01	 4.0625829650e+01
 7.3819337327e-01	 9.1605326736e-01	 4.4104047805e+01
 7.2026012488e-01	 9.3021954263e-01	 4.7199052662e+01
 7.0207762530e-01	 9.4401803640e-01	 4.8243398984e+01
 6.6697374403e-01	 8.9681713458e-01	 4.1088737084e+01
 6.4947429654e-01	 9.0957027559e-01	 4.0960497045e+01
 6.3175968687e-01	 9.2196238868e-01	 3.9754541317e+01
 6.1384099869e-01	 9.3398831707e-01	 3.7763346634e+01
 5.9572946639e-01	 9.4564335295e-01	 3.5278683430e+01
 5.7743645262e-01	 9.5692324210e-01	 3.2589889003e+01
 6.7399452029e-01	 9.0625731494e-01	 4.2474546389e+01
 6.5631086808e-01	 9.1914469954e-01	 4.2251088707e+01
 6.3840978883e-01	 9.3166725593e-01	 4.0934658029e+01
 6.2030248288e-01	 9.4381977304e-01	 3.8819101970e+01
 6.0200030287e-01	 9.5559749351e-01	 3.6188603469e+01
 5.8351473107e-01	 9.6699611834e-01	 3.3316098273e+01
 6.8101529654e-01	 9.1569749530e-01	 4.3922576739e+01
 6.6314743963e-01	 9.2871912349e-01	 4.3635249819e+01
 6.4505989080e-01	 9.4137212318e-01	 4.2192024142e+01
 6.2676396708e-01	 9.5365122901e-01	 3.9895031658e+01
 6.0827113936e-01	 9.6555163406e-01	 3.7031872107e+01
 5.8959300952e-01	 9.7706899457e-01	 3.3874059328e+01
 6.8803607279e-01	 9.2513767567e-01	 4.5392276927e+01
 6.6998401117e-01	 9.3829354745e-01	 4.5028440844e+01
 6.5170999277e-01	 9.5107699043e-01	 4.3427282276e+01
 6.3322545128e-01	 9.6348268498e-01	 4.0905854266e+01
 6.1454197585e-01	 9.7550577462e-01	 3.7765816269e+01
 5.9567128797e-01	 9.8714187080e-01	 3.4291795847e+01
 6.9505684904e-01	 9.3457785603e-01	 4.6844897158e+01
 6.7682058271e-01	 9.4786797140e-01	 4.6349686803e+01
 6.5836009474e-01	 9.6078185768e-01	 4.4545224209e+01
 6.3968693547e-01	 9.7331414095e-01	 4.1769854825e+01
 6.2081281234e-01	 9.8545991518e-01	 3.8349594026e+01
 6.0174956642e-01	 9.9721474703e-01	 3.4596292708e+01
 7.0207762530e-01	 9.4401803640e-01	 4.8243398984e+01
 6.8365715425e-01	 9.5744239535e-01	 4.7521399040e+01
 6.6501019670e-01	 9.7048672493e-01	 4.5454583411e+01
 6.4614841967e-01	 9.8314559692e-01	 4.2408706505e+01
 6.2708364883e-01	 9.9541405574e-01	 3.8744103034e+01
 6.0782784487e-01	 1.0072876233e+00	 3.4813547932e+01
 5.7743645262e-01	 9.5692324210e-01	 3.2589889003e+01
 5.5897342580e-01	 9.6782418721e-01	 2.9377245055e+01
 5.4035193749e-01	 9.7834284980e-01	 2.5219782032e+01
 5.2158360002e-01	 9.8847635090e-01	 2.0244209333e+01
 5.0268006417e-01	 9.9822227043e-01	 1.4566227975e+01
 4.8365299708e-01	 1.0075786453e+00	 8.2900359847e+00
 5.8351473107e-01	 9.6699611834e-01	 3.3316098273e+01
 5.6485735659e-01	 9.7801181023e-01	 2.9876744198e+01
 5.4603985262e-01	 9.8864119558e-01	 2.5476365523e+01
 5.2707395371e-01	 9.9888136512e-01	 2.0273949561e+01
 5.0797143326e-01	 1.0087298733e+00	 1.4426893797e+01
 4.8874408126e-01	 1.0181847363e+00	 8.0900773526e+00
 5.8959300952e-01	 9.7706899457e-01	 3.3874059328e+01
 5.7074128739e-01	 9.8819943326e-01	 3.0153545086e+01
 5.5172776775e-01	 9.9893954137e-01	 2.5535838746e+01
 5.3256430739e-01	 1.0092863793e+00	 2.0182835207e+01
 5.1326280236e-01	 1.0192374761e+00	 1.4259521012e+01
 4.9383516544e-01	 1.0287908273e+00	 7.9328940764e+00
 5.9567128797e-01	 9.8714187080e-01	 3.4291795847e+01
 5.7662521819e-01	 9.9838705628e-01	 3.0301423265e+01
 5.5741568288e-01	 1.0092378872e+00	 2.5520727902e+01
 5.3805466108e-01	 1.0196913936e+00	 2.0086177391e+01
 5.1855417145e-01	 1.0297450790e+00	 1.4137371168e+01
 4.9892624962e-01	 1.0393969183e+00	 7.8160856174e+00
 6.0174956642e-01	 9.9721474703e-01	 3.4596292708e+01
 5.8250914899e-01	 1.0085746793e+00	 3.0410445658e+01
 5.6310359801e-01	 1.0195362329e+00	 2.5548676119e+01
 5.4354501476e-01	 1.0300964078e+00	 2.0094683317e+01
 5.2384554055e-01	 1.0402526818e+00	 1.4130788994e+01
 5.0401733379e-01	 1.0500030093e+00	 7.7373803433e+00
 6.0782784487e-01	 1.0072876233e+00	 3.4813547932e+01
 5.8839307979e-01	 1.0187623023e+00	 3.0567155992e+01
 5.6879151315e-01	 1.0298345787e+00	 2.5732687613e+01
 5.4903536845e-01	 1.0405014220e+00	 2.0314686469e+01
 5.2913690965e-01	 1.0507602847e+00	 1.4307348243e+01
 5.0910841797e-01	 1.0606091003e+00	 7.6946290833e+00
 4.8365299708e-01	 1.0075786453e+00	 8.2900359847e+00
 4.6451406061e-01	 1.0165439664e+00	 1.8259961033e+00
 4.4527489002e-01	 1.0251171740e+00	-4.5147988896e+00
 4.2594707313e-01	 1.0332976527e+00	-1.0792063281e+01
 4.0654213007e-01	 1.0410852245e+00	-1.7073364732e+01
 3.8707149362e-01	 1.0484801414e+00	-2.3433684957e+01
 4.8874408126e-01	 1.0181847363e+00	 8.0900773526e+00
 4.6940368230e-01	 1.0272444292e+00	 1.6892069312e+00
 4.4996199413e-01	 1.0359078811e+00	-4.5291180634e+00
 4.3043072653e-01	 1.0441744701e+00	-1.0692243758e+01
 4.1082152091e-01	 1.0520440163e+00	-1.6941602513e+01
 3.9114593039e-01	 1.0595167745e+00	-2.3431691508e+01
 4.9383516544e-01	 1.0287908273e+00	 7.9328940764e+00
 4.7429330399e-01	 1.0379448920e+00	 1.5716698656e+00
 4.5464909823e-01	 1.0466985882e+00	-4.6600092359e+00
 4.3491437994e-01	 1.0550512874e+00	-1.0913837613e+01
 4.1510091176e-01	 1.0630028081e+00	-1.7357513306e+01
 3.9522036717e-01	 1.0705534075e+00	-2.4173502853e+01
 4.9892624962e-01	 1.0393969183e+00	 7.8160856174e+00
 4.7918292568e-01	 1.0486453548e+00	 1.3981716905e+00
 4.5933620234e-01	 1.0574892953e+00	-5.0179913358e+00
 4.3939803334e-01	 1.0659281048e+00	-1.1566648971e+01
 4.1938030260e-01	 1.0739616000e+00	-1.7252019379e+01
 3.9929480394e-01	 1.0815900406e+00	-2.1228826109e+01
 5.0401733379e-01	 1.0500030093e+00	 7.7373803433e+00
 4.8407254737e-01	 1.0593458176e+00	 1.0965592822e+00
 4.6402330645e-01	 1.0682800024e+00	-5.7091068125e+00
 4.4388168674e-01	 1.0768049222e+00	-1.0255325339e+01
 4.2365969344e-01	 1.0849203918e+00	-1.3975686183e+01
 4.0336924072e-01	 1.0926266737e+00	-1.8559868763e+01
 5.0910841797e-01	 1.0606091003e+00	 7.6946290833e+00
 4.8896216907e-01	 1.0700462804e+00	 5.9758660467e-01
 4.6871041055e-01	 1.0790707095e+00	-3.2242137928e+00
 4.4836534014e-01	 1.0876817396e+00	-6.9544319445e+00
 4.2793908428e-01	 1.0958791836e+00	-1.1361986543e+01
 4.0744367749e-01	 1.1036633067e+00	-1.6547973796e+01
 3.8707149362e-01	 1.0484801414e+00	-2.3433684957e+01
 3.6754649023e-01	 1.0554830769e+00	-2.9790262706e+01
 3.4797832176e-01	 1.0620951161e+00	-3.4515485802e+01
 3.2837804803e-01	 1.0683177456e+00	-3.7560126738e+01
 3.0875657011e-01	 1.0741528422e+00	-3.9742107118e+01
 2.8912461454e-01	 1.0796026609e+00	-4.1295565319e+01
 3.9114593039e-01	 1.0595167745e+00	-2.3431691508e+01
 3.7141540065e-01	 1.0665934251e+00	-3.0107610128e+01
 3.5164125147e-01	 1.0732750647e+00	-3.5103245042e+01
 3.3183465906e-01	 1.0795631956e+00	-3.6275423972e+01
 3.1200663927e-01	 1.0854597143e+00	-3.7961073746e+01
 2.9216803154e-01	 1.0909668994e+00	-4.0067496387e+01
 3.9522036717e-01	 1.0705534075e+00	-2.4173502853e+01
 3.7528431107e-01	 1.0777037733e+00	-2.8675462550e+01
 3.5530418117e-01	 1.0844550133e+00	-3.2919942801e+01
 3.3529127009e-01	 1.0908086456e+00	-3.4527381101e+01
 3.1525670843e-01	 1.0967665863e+00	-3.6622579007e+01
 2.9521144853e-01	 1.1023311379e+00	-3.9070307802e+01
 3.9929480394e-01	 1.0815900406e+00	-2.1228826109e+01
 3.7915322150e-01	 1.0888141214e+00	-2.5941694415e+01
 3.5896711087e-01	 1.0956349619e+00	-3.1049379992e+01
 3.3874788113e-01	 1.1020540955e+00	-3.3272351356e+01
 3.1850677759e-01	 1.1080734583e+00	-3.5593282999e+01
 2.9825486553e-01	 1.1136953765e+00	-3.8195606391e+01
 4.0336924072e-01	 1.0926266737e+00	-1.8559868763e+01
 3.8302213192e-01	 1.0999244696e+00	-2.3810395699e+01
 3.6263004057e-01	 1.1068149105e+00	-2.9339920922e+01
 3.4220449216e-01	 1.1132995455e+00	-3.2379489185e+01
 3.2175684674e-01	 1.1193803303e+00	-3.4745022421e+01
 3.0129828252e-01	 1.1250596150e+00	-3.7339178482e+01
 4.0744367749e-01	 1.1036633067e+00	-1.6547973796e+01
 3.8689104234e-01	 1.1110348178e+00	-2.2219474167e+01
 3.6629297028e-01	 1.1179948591e+00	-2.8003890987e+01
 3.4566110319e-01	 1.1245449954e+00	-3.1722963855e+01
 3.2500691590e-01	 1.1306872024e+00	-3.3954551749e+01
 3.0434169952e-01	 1.1364238535e+00	-3.6400780933e+01
 2.8912461454e-01	 1.0796026609e+00	-4.1295565319e+01
 2.6949271844e-01	 1.0846698220e+00	-4.2742906452e+01
 2.4987121544e-01	 1.0893572985e+00	-4.3640364699e+01
 2.3027022270e-01	 1.0936684016e+00	-4.4156136878e+01
 2.1069962871e-01	 1.0976067668e+00	-4.4450953265e+01
 1.9116908222e-01	 1.1011763392e+00	-4.4677791635e+01
 2.9216803154e-01	 1.0909668994e+00	-4.0067496387e+01
 2.7232948390e-01	 1.0960873991e+00	-4.1961942126e+01
 2.5250143876e-01	 1.1008242174e+00	-4.3207960563e+01
 2.3269411978e-01	 1.1051807006e+00	-4.3997924044e+01
 2.1291751954e-01	 1.1091605223e+00	-4.4517480695e+01
 1.9318138835e-01	 1.1127676691e+00	-4.4945090668e+01
 2.9521144853e-01	 1.1023311379e+00	-3.9070307802e+01
 2.7516624935e-01	 1.1075049762e+00	-4.1226117608e+01
 2.5513166209e-01	 1.1122911364e+00	-4.2677977044e+01
 2.3511801686e-01	 1.1166929995e+00	-4.3628978248e+01
 2.1513541037e-01	 1.1207142777e+00	-4.4276433345e+01
 1.9519369448e-01	 1.1243589990e+00	-4.4811295365e+01
 2.9825486553e-01	 1.1136953765e+00	-3.8195606391e+01
 2.7800301481e-01	 1.1189225532e+00	-4.0462033546e+01
 2.5776188541e-01	 1.1237580553e+00	-4.2011056475e+01
 2.3754191394e-01	 1.1282052985e+00	-4.3043482394e+01
 2.1735330120e-01	 1.1322680331e+00	-4.3755478132e+01
 1.9720600060e-01	 1.1359503289e+00	-4.4337937098e+01
 3.0129828252e-01	 1.1250596150e+00	-3.7339178482e+01
 2.8083978027e-01	 1.1303401303e+00	-3.9599067515e+01
 2.6039210873e-01	 1.1352249742e+00	-4.1169254448e+01
 2.3996581102e-01	 1.1397175974e+00	-4.2235689627e+01
 2.1957119203e-01	 1.1438217886e+00	-4.2981011848e+01
 1.9921830673e-01	 1.1475416588e+00	-4.3583921714e+01
 3.0434169952e-01	 1.1364238535e+00	-3.6400780933e+01
 2.8367654572e-01	 1.1417577074e+00	-3.8569235175e+01
 2.6302233205e-01	 1.1466918932e+00	-4.0115969150e+01
 2.4238970811e-01	 1.1512298964e+00	-4.1199919821e+01
 2.2178908286e-01	 1.1553755440e+00	-4.1978224669e+01
 2.0123061286e-01	 1.1591329887e+00	-4.2605660810e+01
 1.9116908222e-01	 1.1011763392e+00	-4.4677791635e+01
 1.7168798197e-01	 1.1043813585e+00	-4.4216179582e+01
 1.5226546757e-01	 1.1072263434e+00	-4.2434717163e+01
 1.3291041115e-01	 1.1097160766e+00	-3.9450419964e+01
 1.1363141015e-01	 1.1118555890e+00	-3.5362716884e+01
 9.4436780910e-02	 1.1136501437e+00	-3.0254194425e+01
 1.9318138835e-01	 1.1127676691e+00	-4.4945090668e+01
 1.7349522389e-01	 1.1160064254e+00	-4.4631592784e+01
 1.5386826196e-01	 1.1188813575e+00	-4.2868982150e+01
 1.3430946811e-01	 1.1213972985e+00	-3.9734092434e+01
 1.1482753025e-01	 1.1235593320e+00	-3.5293919136e+01
 9.5430852288e-02	 1.1253727768e+00	-2.9606204770e+01
 1.9519369448e-01	 1.1243589990e+00	-4.4811295365e+01
 1.7530246580e-01	 1.1276314923e+00	-4.4567971249e+01
 1.5547105636e-01	 1.1305363717e+00	-4.2792389894e+01
 1.3570852507e-01	 1.1330785203e+00	-3.9534040282e+01
 1.1602365036e-01	 1.1352630751e+00	-3.4837916415e+01
 9.6424923666e-02	 1.1370954099e+00	-2.8744994525e+01
 1.9720600060e-01	 1.1359503289e+00	-4.4337937098e+01
 1.7710970772e-01	 1.1392565593e+00	-4.4112199458e+01
 1.5707385075e-01	 1.1421913858e+00	-4.2299268415e+01
 1.3710758203e-01	 1.1447597422e+00	-3.8933835051e+01
 1.1721977047e-01	 1.1469668181e+00	-3.4049083885e+01
 9.7418995044e-02	 1.1488180429e+00	-2.7677112186e+01
 1.9921830673e-01	 1.1475416588e+00	-4.3583921714e+01
 1.7891694964e-01	 1.1508816262e+00	-4.3347525160e+01
 1.5867664515e-01	 1.1538463999e+00	-4.1480021677e+01
 1.3850663899e-01	 1.1564409641e+00	-3.8013572489e+01
 1.1841589057e-01	 1.1586705611e+00	-3.2979514417e+01
 9.8413066422e-02	 1.1605406760e+00	-2.6408770362e+01
 2.0123061286e-01	 1.1591329887e+00	-4.2605660810e+01
 1.8072419155e-01	 1.1625066931e+00	-4.2353741209e+01
 1.6027943954e-01	 1.1655014141e+00	-4.0421325794e+01
 1.3990569595e-01	 1.1681221859e+00	-3.6850046341e+01
 1.1961201068e-01	 1.1703743042e+00	-3.1679132708e+01
 9.9407137800e-02	 1.1722633091e+00	-2.4945862572e+01
 9.4436780910e-02	 1.1136501437e+00	-3.0254194425e+01
 7.5334553287e-02	 1.1151052207e+00	-2.6098214771e+01
 5.6332466108e-02	 1.1162265009e+00	-2.4535815210e+01
 3.7437963555e-02	 1.1170198508e+00	-2.5182140281e+01
 1.8658192388e-02	 1.1174913064e+00	-2.7708611800e+01
 0.0000000000e+00	 1.1176470588e+00	-3.1841113804e+01
 9.5430852288e-02	 1.1253727768e+00	-2.9606204770e+01
 7.6127548585e-02	 1.1268431704e+00	-2.4901334371e+01
 5.6925439436e-02	 1.1279762536e+00	-2.3156917185e+01
 3.7832047382e-02	 1.1287779544e+00	-2.4074851405e+01
 1.8854594413e-02	 1.1292543728e+00	-2.7395908248e+01
 0.0000000000e+00	 1.1294117647e+00	-3.2898391734e+01
 9.6424923666e-02	 1.1370954099e+00	-2.8744994525e+01
 7.6920543882e-02	 1.1385811201e+00	-2.3658672277e+01
 5.7518412763e-02	 1.1397260062e+00	-2.1784220894e+01
 3.8226131209e-02	 1.1405360581e+00	-2.2883021826e+01
 1.9050996438e-02	 1.1410174392e+00	-2.6742815418e+01
 0.0000000000e+00	 1.1411764706e+00	-3.3176713580e+01
 9.7418995044e-02	 1.1488180429e+00	-2.7677112186e+01
 7.7713539180e-02	 1.1503190697e+00	-2.2338426530e+01
 5.8111386091e-02	 1.1514757588e+00	-2.0385717903e+01
 3.8620215036e-02	 1.1522941618e+00	-2.1613189748e+01
 1.9247398464e-02	 1.1527805056e+00	-2.5833677179e+01
 0.0000000000e+00	 1.1529411765e+00	-3.2877893108e+01
 9.8413066422e-02	 1.1605406760e+00	-2.6408770362e+01
 7.8506534478e-02	 1.1620570194e+00	-2.0910022940e+01
 5.8704359418e-02	 1.1632255115e+00	-1.8930650118e+01
 3.9014298863e-02	 1.1640522655e+00	-2.0271600570e+01
 1.9443800489e-02	 1.1645435720e+00	-2.4749415251e+01
 0.0000000000e+00	 1.1647058824e+00	-3.2195589993e+01
 9.9407137800e-02	 1.1722633091e+00	-2.4945862572e+01
 7.9299529776e-02	 1.1737949691e+00	-1.9344053690e+01
 5.9297332745e-02	 1.1749752641e+00	-1.7389447270e+01
 3.9408382690e-02	 1.1758103692e+00	-1.8864221524e+01
 1.9640202514e-02	 1.1763066384e+00	-2.3567700309e+01
 0.0000000000e+00	 1.1764705882e+00	-3.1315717524e+01
 1.1764705882e+00	 0.0000000000e+00	 1.9137460614e+01
 1.1763066384e+00	 1.9640202514e-02	 1.2964152327e+01
 1.1758103692e+00	 3.9408382690e-02	 8.7400772352e+00
 1.1749752641e+00	 5.9297332745e-02	 6.4740952945e+00
 1.1737949691e+00	 7.9299529776e-02	 6.1719863829e+00
 1.1722633091e+00	 9.9407137800e-02	 7.8356156242e+00
 1.1882352941e+00	 0.0000000000e+00	 2.0522417834e+01
 1.1880697047e+00	 1.9836604539e-02	 1.4021853069e+01
 1.1875684729e+00	 3.9802466517e-02	 9.6145828144e+00
 1.1867250168e+00	 5.9890306073e-02	 7.2590011752e+00
 1.1855329188e+00	 8.0092525073e-02	 6.9037614537e+00
 1.1839859422e+00	 1.0040120918e-01	 8.4868919356e+00
 1.2000000000e+00	 0.0000000000e+00	 2.1841060034e+01
 1.1998327711e+00	 2.0033006564e-02	 1.5194153545e+01
 1.1993265766e+00	 4.0196550344e-02	 1.0704483143e+01
 1.1984747694e+00	 6.0483279400e-02	 8.2919053369e+00
 1.1972708685e+00	 8.0885520371e-02	 7.8619484718e+00
 1.1957085753e+00	 1.0139528056e-01	 9.3049111185e+00
 1.2117647059e+00	 0.0000000000e+00	 2.3164797860e+01
 1.2115958375e+00	 2.0229408589e-02	 1.6502224401e+01
 1.2110846803e+00	 4.0590634171e-02	 1.1996173327e+01
 1.2102245221e+00	 6.1076252728e-02	 9.5395834488e+00
 1.2090088182e+00	 8.1678515669e-02	 9.0085093239e+00
 1.2074312084e+00	 1.0238935193e-01	 1.0261233729e+01
 1.2235294118e+00	 0.0000000000e+00	 2.4562295394e+01
 1.2233589039e+00	 2.0425810614e-02	 1.7966435629e+01
 1.2228427840e+00	 4.0984717998e-02	 1.3476599133e+01
 1.2219742747e+00	 6.1669226055e-02	 1.0970130384e+01
 1.2207467679e+00	 8.2471510967e-02	 1.0306924328e+01
 1.2191538415e+00	 1.0338342331e-01	 1.1328583756e+01
 1.2352941176e+00	 0.0000000000e+00	 2.6099600943e+01
 1.2351219703e+00	 2.0622212639e-02	 1.9606394700e+01
 1.2346008877e+00	 4.1378801824e-02	 1.5133230767e+01
 1.2337240273e+00	 6.2262199383e-02	 1.2552897401e+01
 1.2324847176e+00	 8.3264506264e-02	 1.1722119925e+01
 1.2308764746e+00	 1.0437749469e-01	 1.2480793221e+01
 1.1722633091e+00	 9.9407137800e-02	 7.8356156242e+00
 1.1703743042e+00	 1.1961201068e-01	 9.6678187915e+00
 1.1681221859e+00	 1.3990569595e-01	 9.9931942536e+00
 1.1655014141e+00	 1.6027943954e-01	 8.9973863913e+00
 1.1625066931e+00	 1.8072419155e-01	 6.8721784416e+00
 1.1591329887e+00	 2.0123061286e-01	 3.8155034333e+00
 1.1839859422e+00	 1.0040120918e-01	 8.4868919356e+00
 1.1820780472e+00	 1.2080813079e-01	 1.0192167295e+01
 1.1798034078e+00	 1.4130475290e-01	 1.0373345907e+01
 1.1771564282e+00	 1.6188223394e-01	 9.2209161461e+00
 1.1741317601e+00	 1.8253143347e-01	 6.9334130643e+00
 1.1707243186e+00	 2.0324291899e-01	 3.7174815856e+00
 1.1957085753e+00	 1.0139528056e-01	 9.3049111185e+00
 1.1937817903e+00	 1.2200425089e-01	 1.0823384010e+01
 1.1914846296e+00	 1.4270380986e-01	 1.0825362530e+01
 1.1888114424e+00	 1.6348502833e-01	 9.5042471046e+00
 1.1857568270e+00	 1.8433867538e-01	 7.0628038661e+00
 1.1823156484e+00	 2.0525522512e-01	 3.7132675058e+00
 1.2074312084e+00	 1.0238935193e-01	 1.0261233729e+01
 1.2054855333e+00	 1.2320037100e-01	 1.1547460612e+01
 1.2031658515e+00	 1.4410286682e-01	 1.1345227277e+01
 1.2004664565e+00	 1.6508782273e-01	 9.8489591043e+00
 1.1973818939e+00	 1.8614591730e-01	 7.2631890911e+00
 1.1939069783e+00	 2.0726753125e-01	 3.8026880201e+00
 1.2191538415e+00	 1.0338342331e-01	 1.1328583756e+01
 1.2171892763e+00	 1.2439649111e-01	 1.2351011421e+01
 1.2148470734e+00	 1.4550192378e-01	 1.1929175954e+01
 1.2121214707e+00	 1.6669061713e-01	 1.0256683672e+01
 1.2090069609e+00	 1.8795315921e-01	 7.5374245418e+00
 1.2054983082e+00	 2.0927983738e-01	 3.9857175428e+00
 1.2308764746e+00	 1.0437749469e-01	 1.2480793221e+01
 1.2288930194e+00	 1.2559261121e-01	 1.3221243751e+01
 1.2265282952e+00	 1.4690098074e-01	 1.2573684981e+01
 1.2237764848e+00	 1.6829341152e-01	 1.0729101562e+01
 1.2206320278e+00	 1.8976040113e-01	 7.8883827428e+00
 1.2170896381e+00	 2.1129214350e-01	 4.2624710483e+00
 1.1591329887e+00	 2.0123061286e-01	 3.8155034333e+00
 1.1553755440e+00	 2.2178908286e-01	 3.3498973291e-01
 1.1512298964e+00	 2.4238970811e-01	-3.1059263690e+00
 1.1466918932e+00	 2.6302233205e-01	-6.3679141593e+00
 1.1417577074e+00	 2.8367654572e-01	-9.3078376115e+00
 1.1364238535e+00	 3.0434169952e-01	-1.1779146780e+01
 1.1707243186e+00	 2.0324291899e-01	 3.7174815856e+00
 1.1669292995e+00	 2.2400697369e-01	 8.1204463347e-02
 1.1627421954e+00	 2.4481360519e-01	-3.5237447172e+00
 1.1581588121e+00	 2.6565255537e-01	-6.9671113260e+00
 1.1531752845e+00	 2.8651331118e-01	-1.0116120646e+01
 1.1477880921e+00	 3.0738511652e-01	-1.2835870366e+01
 1.1823156484e+00	 2.0525522512e-01	 3.7132675058e+00
 1.1784830549e+00	 2.2622486451e-01	-4.8929502864e-02
 1.1742544943e+00	 2.4723750227e-01	-3.7955002603e+00
 1.1696257310e+00	 2.6828277869e-01	-7.4064235865e+00
 1.1645928615e+00	 2.8935007664e-01	-1.0760161801e+01
 1.1591523306e+00	 3.1042853351e-01	-1.3734038061e+01
 1.1939069783e+00	 2.0726753125e-01	 3.8026880201e+00
 1.1900368103e+00	 2.2844275534e-01	-5.9560898602e-02
 1.1857667933e+00	 2.4966139935e-01	-3.9269984858e+00
 1.1810926499e+00	 2.7091300201e-01	-7.6909548986e+00
 1.1760104386e+00	 2.9218684210e-01	-1.1241971222e+01
 1.1705165692e+00	 3.1347195051e-01	-1.4470145670e+01
 1.2054983082e+00	 2.0927983738e-01	 3.9857175428e+00
 1.2015905658e+00	 2.3066064617e-01	 4.5476144287e-02
 1.1972790923e+00	 2.5208529643e-01	-3.9236525874e+00
 1.1925595689e+00	 2.7354322533e-01	-7.8254301093e+00
 1.1874280157e+00	 2.9502360755e-01	-1.1563285346e+01
 1.1818808077e+00	 3.1651536750e-01	-1.5040614036e+01
 1.2170896381e+00	 2.1129214350e-01	 4.2624710483e+00
 1.2131443212e+00	 2.3287853700e-01	 2.6264711399e-01
 1.2087913912e+00	 2.5450919351e-01	-3.7905021458e+00
 1.2040264878e+00	 2.7617344865e-01	-7.8142130075e+00
 1.1988455928e+00	 2.9786037301e-01	-1.1725579940e+01
 1.1932450462e+00	 3.1955878450e-01	-1.5441792616e+01
 1.1364238535e+00	 3.0434169952e-01	-1.1779146780e+01
 1.1306872024e+00	 3.2500691590e-01	-1.3813828323e+01
 1.1245449954e+00	 3.4566110319e-01	-1.5589808375e+01
 1.1179948591e+00	 3.6629297028e-01	-1.5729537830e+01
 1.1110348178e+00	 3.8689104234e-01	-1.4280380639e+01
 1.1036633067e+00	 4.0744367749e-01	-1.3335300411e+01
 1.1477880921e+00	 3.0738511652e-01	-1.2835870366e+01
 1.1419940744e+00	 3.2825698506e-01	-1.5179530031e+01
 1.1357904454e+00	 3.4911771422e-01	-1.7329226381e+01
 1.1291748077e+00	 3.6995589998e-01	-1.7095115686e+01
 1.1221451660e+00	 3.9075995277e-01	-1.5740571346e+01
 1.1146999398e+00	 4.1151811427e-01	-1.4886650456e+01
 1.1591523306e+00	 3.1042853351e-01	-1.3734038061e+01
 1.1533009464e+00	 3.3150705422e-01	-1.6393188269e+01
 1.1470358953e+00	 3.5257432525e-01	-1.8914794027e+01
 1.1403547563e+00	 3.7361882968e-01	-1.8194283765e+01
 1.1332555141e+00	 3.9462886319e-01	-1.6932317136e+01
 1.1257365729e+00	 4.1559255104e-01	-1.6161079585e+01
 1.1705165692e+00	 3.1347195051e-01	-1.4470145670e+01
 1.1646078184e+00	 3.3475712338e-01	-1.7445988306e+01
 1.1582813453e+00	 3.5603093629e-01	-2.0335227484e+01
 1.1515347048e+00	 3.7728175938e-01	-1.9029926156e+01
 1.1443658623e+00	 3.9849777361e-01	-1.7862279521e+01
 1.1367732059e+00	 4.1966698782e-01	-1.7171784708e+01
 1.1818808077e+00	 3.1651536750e-01	-1.5040614036e+01
 1.1759146905e+00	 3.3800719254e-01	-1.8329231640e+01
 1.1695267952e+00	 3.5948754732e-01	-2.1048841193e+01
 1.1627146534e+00	 3.8094468909e-01	-1.9605099084e+01
 1.1554762105e+00	 4.0236668404e-01	-1.8537157979e+01
 1.1478098390e+00	 4.2374142459e-01	-1.7931759718e+01
 1.1932450462e+00	 3.1955878450e-01	-1.5441792616e+01
 1.1872215625e+00	 3.4125726170e-01	-1.9034330469e+01
 1.1807722452e+00	 3.6294415835e-01	-2.1258711251e+01
 1.1738946020e+00	 3.8460761879e-01	-1.9923022709e+01
 1.1665865587e+00	 4.0623559446e-01	-1.8963688147e+01
 1.1588464721e+00	 4.2781586137e-01	-1.8453805160e+01
 1.1036633067e+00	 4.0744367749e-01	-1.3335300411e+01
 1.0958791836e+00	 4.2793908428e-01	-1.2601761645e+01
 1.0876817396e+00	 4.4836534014e-01	-1.1655819188e+01
 1.0790707095e+00	 4.6871041055e-01	-1.0466878516e+01
 1.0700462804e+00	 4.8896216907e-01	-9.1346917532e+00
 1.0606091003e+00	 5.0910841797e-01	-8.2953698851e+00
 1.1146999398e+00	 4.1151811427e-01	-1.4886650456e+01
 1.1068379755e+00	 4.3221847513e-01	-1.4217738595e+01
 1.0985585570e+00	 4.5284899354e-01	-1.3311148565e+01
 1.0898614166e+00	 4.7339751466e-01	-1.2152678549e+01
 1.0807467432e+00	 4.9385179076e-01	-1.0733956103e+01
 1.0712151913e+00	 5.1419950215e-01	-9.0733460331e+00
 1.1257365729e+00	 4.1559255104e-01	-1.6161079585e+01
 1.1177967673e+00	 4.3649786597e-01	-1.5548937026e+01
 1.1094353744e+00	 4.5733264694e-01	-1.4679149882e+01
 1.1006521237e+00	 4.7808461876e-01	-1.3551936107e+01
 1.0914472060e+00	 4.9874141245e-01	-1.2173735683e+01
 1.0818212823e+00	 5.1929058633e-01	-1.0557632912e+01
 1.1367732059e+00	 4.1966698782e-01	-1.7171784708e+01
 1.1287555591e+00	 4.4077725681e-01	-1.6615754642e+01
 1.1203121918e+00	 4.6181630034e-01	-1.5786054126e+01
 1.1114428307e+00	 4.8277172287e-01	-1.4695407201e+01
 1.1021476688e+00	 5.0363103414e-01	-1.3362946944e+01
 1.0924273734e+00	 5.2438167051e-01	-1.1814577819e+01
 1.1478098390e+00	 4.2374142459e-01	-1.7931759718e+01
 1.1397143510e+00	 4.4505664766e-01	-1.7438118786e+01
 1.1311890092e+00	 4.6629995375e-01	-1.6657406381e+01
 1.1222335378e+00	 4.8745882697e-01	-1.5612995890e+01
 1.1128481316e+00	 5.0852065583e-01	-1.4334655353e+01
 1.1030334644e+00	 5.2947275469e-01	-1.2858855591e+01
 1.1588464721e+00	 4.2781586137e-01	-1.8453805160e+01
 1.1506731428e+00	 4.4933603850e-01	-1.8035508839e+01
 1.1420658266e+00	 4.7078360715e-01	-1.7318098489e+01
 1.1330242449e+00	 4.9214593108e-01	-1.6333794853e+01
 1.1235485944e+00	 5.1341027752e-01	-1.5121001637e+01
 1.1136395554e+00	 5.3456383887e-01	-1.3724565064e+01
 1.0606091003e+00	 5.0910841797e-01	-8.2953698851e+00
 1.0507602847e+00	 5.2913690965e-01	-7.3838094090e+00
 1.0405014220e+00	 5.4903536845e-01	-6.5019375195e+00
 1.0298345787e+00	 5.6879151315e-01	-5.5911734424e+00
 1.0187623023e+00	 5.8839307979e-01	-4.5759590435e+00
 1.0072876233e+00	 6.0782784487e-01	-3.3636456148e+00
 1.0712151913e+00	 5.1419950215e-01	-9.0733460331e+00
 1.0612678875e+00	 5.3442827874e-01	-8.2366184932e+00
 1.0509064362e+00	 5.5452572213e-01	-7.4300366265e+00
 1.0401329245e+00	 5.7447942828e-01	-6.5637966610e+00
 1.0289499254e+00	 5.9427701058e-01	-5.5343976725e+00
 1.0173604995e+00	 6.1390612332e-01	-4.2247604393e+00
 1.0818212823e+00	 5.1929058633e-01	-1.0557632912e+01
 1.0717754904e+00	 5.3971964784e-01	-8.8244095422e+00
 1.0613114504e+00	 5.6001607582e-01	-8.0833528006e+00
 1.0504312703e+00	 5.8016734341e-01	-7.3148183286e+00
 1.0391375484e+00	 6.0016094138e-01	-6.3548053839e+00
 1.0274333757e+00	 6.1998440177e-01	-5.0630194905e+00
 1.0924273734e+00	 5.2438167051e-01	-1.1814577819e+01
 1.0822830932e+00	 5.4501101694e-01	-1.0167096935e+01
 1.0717164647e+00	 5.6550642950e-01	-8.4993256640e+00
 1.0607296161e+00	 5.8585525854e-01	-7.8398673051e+00
 1.0493251714e+00	 6.0604487218e-01	-7.0147832915e+00
 1.0375062520e+00	 6.2606268021e-01	-5.8323003764e+00
 1.1030334644e+00	 5.2947275469e-01	-1.2858855591e+01
 1.0927906961e+00	 5.5030238603e-01	-1.1304348267e+01
 1.0821214789e+00	 5.7099678318e-01	-9.7301565673e+00
 1.0710279619e+00	 5.9154317367e-01	-8.1343097053e+00
 1.0595127944e+00	 6.1192880298e-01	-7.4923603535e+00
 1.0475791282e+00	 6.3214095866e-01	-6.4878193230e+00
 1.1136395554e+00	 5.3456383887e-01	-1.3724565064e+01
 1.1032982989e+00	 5.5559375513e-01	-1.2269201763e+01
 1.0925264931e+00	 5.7648713687e-01	-1.0801717287e+01
 1.0813263077e+00	 5.9723108880e-01	-9.2604621146e+00
 1.0697004174e+00	 6.1781273377e-01	-7.7659729995e+00
 1.0576520044e+00	 6.3821923711e-01	-6.9860674305e+00
 1.0072876233e+00	 6.0782784487e-01	-3.3636456148e+00
 9.9541405574e-01	 6.2708364883e-01	-2.3905078463e+00
 9.8314559692e-01	 6.4614841967e-01	-2.1203547431e+00
 9.7048672493e-01	 6.6501019670e-01	-2.4819866503e+00
 9.5744239535e-01	 6.8365715425e-01	-3.3951024213e+00
 9.4401803640e-01	 7.0207762530e-01	-4.7706990004e+00
 1.0173604995e+00	 6.1390612332e-01	-4.2247604393e+00
 1.0053681963e+00	 6.3335448532e-01	-3.0798337815e+00
 9.9297705289e-01	 6.5260990387e-01	-2.6380708679e+00
 9.8019159218e-01	 6.7166029867e-01	-2.9021865255e+00
 9.6701681931e-01	 6.9049372580e-01	-3.8609118346e+00
 9.5345821676e-01	 7.0909840155e-01	-5.4889366198e+00
 1.0274333757e+00	 6.1998440177e-01	-5.0630194905e+00
 1.0153223368e+00	 6.3962532180e-01	-3.8662461282e+00
 1.0028085089e+00	 6.5907138806e-01	-3.3443635353e+00
 9.8989645943e-01	 6.7831040064e-01	-3.5660705518e+00
 9.7659124326e-01	 6.9733029734e-01	-4.5826447193e+00
 9.6289839712e-01	 7.1611917780e-01	-5.6387639628e+00
 1.0375062520e+00	 6.2606268021e-01	-5.8323003764e+00
 1.0252764774e+00	 6.4589615829e-01	-4.6818940761e+00
 1.0126399648e+00	 6.6553287226e-01	-4.1595490895e+00
 9.9960132668e-01	 6.8496050260e-01	-4.3922476104e+00
 9.8616566721e-01	 7.0416686888e-01	-5.4875290293e+00
 9.7233857749e-01	 7.2313995406e-01	-3.7851314126e+00
 1.0475791282e+00	 6.3214095866e-01	-6.4878193230e+00
 1.0352306180e+00	 6.5216699478e-01	-5.4611005838e+00
 1.0224714208e+00	 6.7199435646e-01	-5.0065732985e+00
 1.0093061939e+00	 6.9161060457e-01	-5.3020233136e+00
 9.9574009117e-01	 7.1100344042e-01	-6.5051606548e+00
 9.8177875785e-01	 7.3016073031e-01	-2.1582185170e+00
 1.0576520044e+00	 6.3821923711e-01	-6.9860674305e+00
 1.0451847585e+00	 6.5843783127e-01	-6.1402588655e+00
 1.0323028768e+00	 6.7845584065e-01	-5.8108861426e+00
 1.0190110612e+00	 6.9826070654e-01	-6.2192715883e+00
 1.0053145151e+00	 7.1784001197e-01	-6.1812715711e+00
 9.9121893822e-01	 7.3718150656e-01	-7.2718216542e-01
 9.4401803640e-01	 7.0207762530e-01	-4.7706990004e+00
 9.3021954263e-01	 7.2026012488e-01	-3.7921598127e+00
 9.1605326736e-01	 7.3819337327e-01	 2.2780079807e+00
 9.0152601365e-01	 7.5586631867e-01	 7.8465261728e+00
 8.8664502393e-01	 7.7326815952e-01	 1.2711430114e+01
 8.7141796835e-01	 7.9038836620e-01	 1.6676898541e+01
 9.5345821676e-01	 7.0909840155e-01	-5.4889366198e+00
 9.3952173805e-01	 7.2746272613e-01	-1.8316468874e+00
 9.2521380004e-01	 7.4557530700e-01	 3.7036941414e+00
 9.1054127379e-01	 7.6342498185e-01	 8.7522432024e+00
 8.9551147417e-01	 7.8100084112e-01	 1.3213499414e+01
 8.8013214804e-01	 7.9829224986e-01	 1.6989706875e+01
 9.6289839712e-01	 7.1611917780e-01	-5.6387639628e+00
 9.4882393348e-01	 7.3466532738e-01	-9.2528488369e-02
 9.3437433271e-01	 7.5295724073e-01	 4.9785528554e+00
 9.1955653392e-01	 7.7098364504e-01	 9.5675450716e+00
 9.0437792441e-01	 7.8873352271e-01	 1.3667519068e+01
 8.8884632772e-01	 8.0619613352e-01	 1.7272001164e+01
 9.7233857749e-01	 7.2313995406e-01	-3.7851314126e+00
 9.5812612891e-01	 7.4186792863e-01	 1.4385421433e+00
 9.4353486538e-01	 7.6033917447e-01	 6.1022918311e+00
 9.2857179406e-01	 7.7854230823e-01	 1.0285795768e+01
 9.1324437465e-01	 7.9646620431e-01	 1.4068026445e+01
 8.9756050740e-01	 8.1410001718e-01	 1.7527208885e+01
 9.8177875785e-01	 7.3016073031e-01	-2.1582185170e+00
 9.6742832433e-01	 7.4907052988e-01	 2.7740782627e+00
 9.5269539806e-01	 7.6772110820e-01	 7.0743177791e+00
 9.3758705420e-01	 7.8610097141e-01	 1.0900310982e+01
 9.2211082488e-01	 8.0419888590e-01	 1.4409474936e+01
 9.0627468709e-01	 8.2200390084e-01	 1.7758341735e+01
 9.9121893822e-01	 7.3718150656e-01	-7.2718216542e-01
 9.7673051976e-01	 7.5627313113e-01	 3.9257993122e+00
 9.6185593073e-01	 7.7510304193e-01	 7.8937507449e+00
 9.4660231433e-01	 7.9365963460e-01	 1.1404360403e+01
 9.3097727512e-01	 8.1193156750e-01	 1.4686237945e+01
 9.1498886677e-01	 8.2990778450e-01	 1.7968015435e+01
 8.7141796835e-01	 7.9038836620e-01	 1.6676898541e+01
 8.5585293186e-01	 8.0721670201e-01	 2.0077827512e+01
 8.3995839999e-01	 8.2374324353e-01	 2.3412695337e+01
 8.2374324353e-01	 8.3995839999e-01	 2.6729698160e+01
 8.0721670201e-01	 8.5585293186e-01	 3.0067739985e+01
 7.9038836620e-01	 8.7141796835e-01	 3.3456371496e+01
 8.8013214804e-01	 7.9829224986e-01	 1.6989706875e+01
 8.6441146118e-01	 8.1528886903e-01	 2.0436743427e+01
 8.4835798399e-01	 8.3198067597e-01	 2.3957584627e+01
 8.3198067597e-01	 8.4835798399e-01	 2.7523010295e+01
 8.1528886903e-01	 8.6441146118e-01	 3.1097701832e+01
 7.9829224986e-01	 8.8013214804e-01	 3.4640602885e+01
 8.8884632772e-01	 8.0619613352e-01	 1.7272001164e+01
 8.7296999050e-01	 8.2336103605e-01	 2.0772455612e+01
 8.5675756799e-01	 8.4021810840e-01	 2.4495222893e+01
 8.4021810840e-01	 8.5675756799e-01	 2.8333181819e+01
 8.2336103605e-01	 8.7296999050e-01	 3.2175044548e+01
 8.0619613352e-01	 8.8884632772e-01	 3.5906152595e+01
 8.9756050740e-01	 8.1410001718e-01	 1.7527208885e+01
 8.8152851982e-01	 8.3143320307e-01	 2.1097095352e+01
 8.6515715199e-01	 8.4845554084e-01	 2.5038226406e+01
 8.4845554084e-01	 8.6515715199e-01	 2.9165102340e+01
 8.3143320307e-01	 8.8152851982e-01	 3.3288751733e+01
 8.1410001718e-01	 8.9756050740e-01	 3.7217976236e+01
 9.0627468709e-01	 8.2200390084e-01	 1.7758341735e+01
 8.9008704914e-01	 8.3950537009e-01	 2.1422054153e+01
 8.7355673599e-01	 8.5669297327e-01	 2.5598464346e+01
 8.5669297327e-01	 8.7355673599e-01	 3.0023223406e+01
 8.3950537009e-01	 8.9008704914e-01	 3.4427993010e+01
 8.2200390084e-01	 9.0627468709e-01	 3.8542152293e+01
 9.1498886677e-01	 8.2990778450e-01	 1.7968015435e+01
 8.9864557845e-01	 8.4757753711e-01	 2.1758018974e+01
 8.8195631999e-01	 8.6493040571e-01	 2.6187094377e+01
 8.6493040571e-01	 8.8195631999e-01	 3.0911579370e+01
 8.4757753711e-01	 8.9864557845e-01	 3.5582115164e+01
 8.2990778450e-01	 9.1498886677e-01	 3.9845828660e+01
 7.9038836620e-01	 8.7141796835e-01	 3.3456371496e+01
 7.7326815952e-01	 8.8664502393e-01	 3.6998433272e+01
 7.5586631867e-01	 9.0152601365e-01	 4.0625829650e+01
 7.3819337327e-01	 9.1605326736e-01	 4.4104047805e+01
 7.2026012488e-01	 9.3021954263e-01	 4.7199052662e+01
 7.0207762530e-01	 9.4401803640e-01	 4.8243398984e+01
 7.9829224986e-01	 8.8013214804e-01	 3.4640602885e+01
 7.8100084112e-01	 8.9551147417e-01	 3.8207696585e+01
 7.6342498185e-01	 9.1054127379e-01	 4.1748313433e+01
 7.4557530700e-01	 9.2521380004e-01	 4.5052513089e+01
 7.2746272613e-01	 9.3952173805e-01	 4.7905168037e+01
 7.0909840155e-01	 9.5345821676e-01	 4.9501015824e+01
 8.0619613352e-01	 8.8884632772e-01	 3.5906152595e+01
 7.8873352271e-01	 9.0437792441e-01	 3.9508625936e+01
 7.7098364504e-01	 9.1955653392e-01	 4.2932738792e+01
 7.5295724073e-01	 9.3437433271e-01	 4.6006828715e+01
 7.3466532738e-01	 9.4882393348e-01	 4.8550757411e+01
 7.1611917780e-01	 9.6289839712e-01	 5.0377348104e+01
 8.1410001718e-01	 8.9756050740e-01	 3.7217976236e+01
 7.9646620431e-01	 9.1324437465e-01	 4.0846382648e+01
 7.7854230823e-01	 9.2857179406e-01	 4.4120755069e+01
 7.6033917447e-01	 9.4353486538e-01	 4.6920993643e+01
 7.4186792863e-01	 9.5812612891e-01	 4.9117563436e+01
 7.2313995406e-01	 9.7233857749e-01	 5.0572666340e+01
 8.2200390084e-01	 9.0627468709e-01	 3.8542152293e+01
 8.0419888590e-01	 9.2211082488e-01	 4.2168025275e+01
 7.8610097141e-01	 9.3758705420e-01	 4.5256057204e+01
 7.6772110820e-01	 9.5269539806e-01	 4.7750590943e+01
 7.4907052988e-01	 9.6742832433e-01	 4.9587859441e+01
 7.3016073031e-01	 9.8177875785e-01	 5.0696788299e+01
 8.2990778450e-01	 9.1498886677e-01	 3.9845828660e+01
 8.1193156750e-01	 9.3097727512e-01	 4.3422419252e+01
 7.9365963460e-01	 9.4660231433e-01	 4.6284288330e+01
 7.7510304193e-01	 9.6185593073e-01	 4.8452712363e+01
 7.5627313113e-01	 9.7673051976e-01	 4.9944424157e+01
 7.3718150656e-01	 9.9121893822e-01	 5.0771943800e+01
 7.0207762530e-01	 9.4401803640e-01	 4.8243398984e+01
 6.8365715425e-01	 9.5744239535e-01	 4.7521399040e+01
 6.6501019670e-01	 9.7048672493e-01	 4.5454583411e+01
 6.4614841967e-01	 9.8314559692e-01	 4.2408706505e+01
 6.2708364883e-01	 9.9541405574e-01	 3.8744103034e+01
 6.0782784487e-01	 1.0072876233e+00	 3.4813547932e+01
 7.0909840155e-01	 9.5345821676e-01	 4.9501015824e+01
 6.9049372580e-01	 9.6701681931e-01	 4.8465074722e+01
 6.7166029867e-01	 9.8019159218e-01	 4.6118884324e+01
 6.5260990387e-01	 9.9297705289e-01	 4.2843244319e+01
 6.3335448532e-01	 1.0053681963e+00	 3.9020458511e+01
 6.1390612332e-01	 1.0173604995e+00	 3.5031954659e+01
 7.1611917780e-01	 9.6289839712e-01	 5.0377348104e+01
 6.9733029734e-01	 9.7659124326e-01	 4.9198888912e+01
 6.7831040064e-01	 9.8989645943e-01	 4.6613046407e+01
 6.5907138806e-01	 1.0028085089e+00	 4.3185371164e+01
 6.3962532180e-01	 1.0153223368e+00	 3.9286377897e+01
 6.1998440177e-01	 1.0274333757e+00	 3.5288905694e+01
 7.2313995406e-01	 9.7233857749e-01	 5.0572666340e+01
 7.0416686888e-01	 9.8616566721e-01	 4.9790780289e+01
 6.8496050260e-01	 9.9960132668e-01	 4.7013539616e+01
 6.6553287226e-01	 1.0126399648e+00	 4.3494120157e+01
 6.4589615829e-01	 1.0252764774e+00	 3.9558495097e+01
 6.2606268021e-01	 1.0375062520e+00	 3.5534747045e+01
 7.3016073031e-01	 9.8177875785e-01	 5.0696788299e+01
 7.1100344042e-01	 9.9574009117e-01	 5.0306216168e+01
 6.9161060457e-01	 1.0093061939e+00	 4.7394020989e+01
 6.7199435646e-01	 1.0224714208e+00	 4.3826368852e+01
 6.5216699478e-01	 1.0352306180e+00	 3.9852906087e+01
 6.3214095866e-01	 1.0475791282e+00	 3.5721823462e+01
 7.3718150656e-01	 9.9121893822e-01	 5.0771943800e+01
 7.1784001197e-01	 1.0053145151e+00	 5.0526322688e+01
 6.9826070654e-01	 1.0190110612e+00	 4.7825468600e+01
 6.7845584065e-01	 1.0323028768e+00	 4.4236941887e+01
 6.5843783127e-01	 1.0451847585e+00	 4.0185194527e+01
 6.3821923711e-01	 1.0576520044e+00	 3.5804383266e+01
 6.0782784487e-01	 1.0072876233e+00	 3.4813547932e+01
 5.8839307979e-01	 1.0187623023e+00	 3.0567155992e+01
 5.6879151315e-01	 1.0298345787e+00	 2.5732687613e+01
 5.4903536845e-01	 1.0405014220e+00	 2.0314686469e+01
 5.2913690965e-01	 1.0507602847e+00	 1.4307348243e+01
 5.0910841797e-01	 1.0606091003e+00	 7.6946290833e+00
 6.1390612332e-01	 1.0173604995e+00	 3.5031954659e+01
 5.9427701058e-01	 1.0289499254e+00	 3.0806197629e+01
 5.7447942828e-01	 1.0401329245e+00	 2.5984586192e+01
 5.5452572213e-01	 1.0509064362e+00	 2.0501373381e+01
 5.3442827874e-01	 1.0612678875e+00	 1.4271962271e+01
 5.1419950215e-01	 1.0712151913e+00	 7.1936286531e+00
 6.1998440177e-01	 1.0274333757e+00	 3.5288905694e+01
 6.0016094138e-01	 1.0391375484e+00	 3.1032631249e+01
 5.8016734341e-01	 1.0504312703e+00	 2.6057529053e+01
 5.6001607582e-01	 1.0613114504e+00	 2.0270132682e+01
 5.3971964784e-01	 1.0717754904e+00	 1.3711496341e+01
 5.1929058633e-01	 1.0818212823e+00	 1.0628148069e+01
 6.2606268021e-01	 1.0375062520e+00	 3.5534747045e+01
 6.0604487218e-01	 1.0493251714e+00	 3.1139362306e+01
 5.8585525854e-01	 1.0607296161e+00	 2.5826967050e+01
 5.6550642950e-01	 1.0717164647e+00	 1.9641644536e+01
 5.4501101694e-01	 1.0822830932e+00	 1.7031332549e+01
 5.2438167051e-01	 1.0924273734e+00	 1.3350637166e+01
 6.3214095866e-01	 1.0475791282e+00	 3.5721823462e+01
 6.1192880298e-01	 1.0595127944e+00	 3.1023491699e+01
 5.9154317367e-01	 1.0710279619e+00	 2.5173205631e+01
 5.7099678318e-01	 1.0821214789e+00	 2.2762118881e+01
 5.5030238603e-01	 1.0927906961e+00	 1.9621421160e+01
 5.2947275469e-01	 1.1030334644e+00	 1.5310492634e+01
 6.3821923711e-01	 1.0576520044e+00	 3.5804383266e+01
 6.1781273377e-01	 1.0697004174e+00	 3.0586115995e+01
 5.9723108880e-01	 1.0813263077e+00	 2.7962924238e+01
 5.7648713687e-01	 1.0925264931e+00	 2.5186664937e+01
 5.5559375513e-01	 1.1032982989e+00	 2.1441129051e+01
 5.3456383887e-01	 1.1136395554e+00	 1.6554417592e+01
 5.0910841797e-01	 1.0606091003e+00	 7.6946290833e+00
 4.8896216907e-01	 1.0700462804e+00	 5.9758660467e-01
 4.6871041055e-01	 1.0790707095e+00	-3.2242137928e+00
 4.4836534014e-01	 1.0876817396e+00	-6.9544319445e+00
 4.2793908428e-01	 1.0958791836e+00	-1.1361986543e+01
 4.0744367749e-01	 1.1036633067e+00	-1.6547973796e+01
 5.1419950215e-01	 1.0712151913e+00	 7.1936286531e+00
 4.9385179076e-01	 1.0807467432e+00	 3.8236527690e+00
 4.7339751466e-01	 1.0898614166e+00	 1.0151662435e-02
 4.5284899354e-01	 1.0985585570e+00	-4.3909920823e+00
 4.3221847513e-01	 1.1068379755e+00	-9.3963298624e+00
 4.1151811427e-01	 1.1146999398e+00	-1.4994543744e+01
 5.1929058633e-01	 1.0818212823e+00	 1.0628148069e+01
 4.9874141245e-01	 1.0914472060e+00	 6.7394020279e+00
 4.7808461876e-01	 1.1006521237e+00	 2.3409309821e+00
 4.5733264694e-01	 1.1094353744e+00	-2.5554918824e+00
 4.3649786597e-01	 1.1177967673e+00	-7.9043600416e+00
 4.1559255104e-01	 1.1257365729e+00	-1.3627536335e+01
 5.2438167051e-01	 1.0924273734e+00	 1.3350637166e+01
 5.0363103414e-01	 1.1021476688e+00	 8.8362386008e+00
 4.8277172287e-01	 1.1114428307e+00	 3.9585548018e+00
 4.6181630034e-01	 1.1203121918e+00	-1.2480762929e+00
 4.4077725681e-01	 1.1287555591e+00	-6.7154791148e+00
 4.1966698782e-01	 1.1367732059e+00	-1.2342871805e+01
 5.2947275469e-01	 1.1030334644e+00	 1.5310492634e+01
 5.0852065583e-01	 1.1128481316e+00	 1.0249822683e+01
 4.8745882697e-01	 1.1222335378e+00	 5.0462204824e+00
 4.6629995375e-01	 1.1311890092e+00	-2.7648249014e-01
 4.4505664766e-01	 1.1397143510e+00	-5.6655532351e+00
 4.2374142459e-01	 1.1478098390e+00	-1.1040373978e+01
 5.3456383887e-01	 1.1136395554e+00	 1.6554417592e+01
 5.1341027752e-01	 1.1235485944e+00	 1.1110732420e+01
 4.9214593108e-01	 1.1330242449e+00	 5.7802365516e+00
 4.7078360715e-01	 1.1420658266e+00	 5.4432165578e-01
 4.4933603850e-01	 1.1506731428e+00	-4.5966048597e+00
 4.2781586137e-01	 1.1588464721e+00	-9.6235843844e+00
 4.0744367749e-01	 1.1036633067e+00	-1.6547973796e+01
 3.8689104234e-01	 1.1110348178e+00	-2.2219474167e+01
 3.6629297028e-01	 1.1179948591e+00	-2.8003890987e+01
 3.4566110319e-01	 1.1245449954e+00	-3.1722963855e+01
 3.2500691590e-01	 1.1306872024e+00	-3.3954551749e+01
 3.0434169952e-01	 1.1364238535e+00	-3.6400780933e+01
 4.1151811427e-01	 1.1146999398e+00	-1.4994543744e+01
 3.9075995277e-01	 1.1221451660e+00	-2.0863646728e+01
 3.6995589998e-01	 1.1291748077e+00	-2.6714522056e+01
 3.4911771422e-01	 1.1357904454e+00	-3.1013944702e+01
 3.2825698506e-01	 1.1419940744e+00	-3.3010813345e+01
 3.0738511652e-01	 1.1477880921e+00	-3.5256070075e+01
 4.1559255104e-01	 1.1257365729e+00	-1.3627536335e+01
 3.9462886319e-01	 1.1332555141e+00	-1.9457250500e+01
 3.7361882968e-01	 1.1403547563e+00	-2.5228175713e+01
 3.5257432525e-01	 1.1470358953e+00	-3.0081787421e+01
 3.3150705422e-01	 1.1533009464e+00	-3.1828703290e+01
 3.1042853351e-01	 1.1591523306e+00	-3.3888353579e+01
 4.1966698782e-01	 1.1367732059e+00	-1.2342871805e+01
 3.9849777361e-01	 1.1443658623e+00	-1.7970230567e+01
 3.7728175938e-01	 1.1515347048e+00	-2.3567980419e+01
 3.5603093629e-01	 1.1582813453e+00	-2.8979788342e+01
 3.3475712338e-01	 1.1646078184e+00	-3.0475279136e+01
 3.1347195051e-01	 1.1705165692e+00	-3.2359713130e+01
 4.2374142459e-01	 1.1478098390e+00	-1.1040373978e+01
 4.0236668404e-01	 1.1554762105e+00	-1.6373587067e+01
 3.8094468909e-01	 1.1627146534e+00	-2.1756073465e+01
 3.5948754732e-01	 1.1695267952e+00	-2.7263377078e+01
 3.3800719254e-01	 1.1759146905e+00	-2.9014818569e+01
 3.1651536750e-01	 1.1818808077e+00	-3.0729652249e+01
 4.2781586137e-01	 1.1588464721e+00	-9.6235843844e+00
 4.0623559446e-01	 1.1665865587e+00	-1.4639324954e+01
 3.8460761879e-01	 1.1738946020e+00	-1.9813648177e+01
 3.6294415835e-01	 1.1807722452e+00	-2.5209897185e+01
 3.4125726170e-01	 1.1872215625e+00	-2.7508951784e+01
 3.1955878450e-01	 1.1932450462e+00	-2.9055219071e+01
 3.0434169952e-01	 1.1364238535e+00	-3.6400780933e+01
 2.8367654572e-01	 1.1417577074e+00	-3.8569235175e+01
 2.6302233205e-01	 1.1466918932e+00	-4.0115969150e+01
 2.4238970811e-01	 1.1512298964e+00	-4.1199919821e+01
 2.2178908286e-01	 1.1553755440e+00	-4.1978224669e+01
 2.0123061286e-01	 1.1591329887e+00	-4.2605660810e+01
 3.0738511652e-01	 1.1477880921e+00	-3.5256070075e+01
 2.8651331118e-01	 1.1531752845e+00	-3.7314138639e+01
 2.6565255537e-01	 1.1581588121e+00	-3.8834131293e+01
 2.4481360519e-01	 1.1627421954e+00	-3.9945152377e+01
 2.2400697369e-01	 1.1669292995e+00	-4.0776130752e+01
 2.0324291899e-01	 1.1707243186e+00	-4.1455337031e+01
 3.1042853351e-01	 1.1591523306e+00	-3.3888353579e+01
 2.8935007664e-01	 1.1645928615e+00	-3.5852999442e+01
 2.6828277869e-01	 1.1696257310e+00	-3.7355757131e+01
 2.4723750227e-01	 1.1742544943e+00	-3.8502008492e+01
 2.2622486451e-01	 1.1784830549e+00	-3.9398628756e+01
 2.0525522512e-01	 1.1823156484e+00	-4.0153548246e+01
 3.1347195051e-01	 1.1705165692e+00	-3.2359713130e+01
 2.9218684210e-01	 1.1760104386e+00	-3.4234559430e+01
 2.7091300201e-01	 1.1810926499e+00	-3.5717605684e+01
 2.4966139935e-01	 1.1857667933e+00	-3.6896418510e+01
 2.2844275534e-01	 1.1900368103e+00	-3.7861772176e+01
 2.0726753125e-01	 1.1939069783e+00	-3.8707221712e+01
 3.1651536750e-01	 1.1818808077e+00	-3.0729652249e+01
 2.9502360755e-01	 1.1874280157e+00	-3.2505506128e+01
 2.7354322533e-01	 1.1925595689e+00	-3.3954853717e+01
 2.5208529643e-01	 1.1972790923e+00	-3.5153158583e+01
 2.3066064617e-01	 1.2015905658e+00	-3.6180852120e+01
 2.0927983738e-01	 1.2054983082e+00	-3.7122885545e+01
 3.1955878450e-01	 1.1932450462e+00	-2.9055219071e+01
 2.9786037301e-01	 1.1988455928e+00	-3.0710570573e+01
 2.7617344865e-01	 1.2040264878e+00	-3.2101171094e+01
 2.5450919351e-01	 1.2087913912e+00	-3.3295905633e+01
 2.3287853700e-01	 1.2131443212e+00	-3.4370433610e+01
 2.1129214350e-01	 1.2170896381e+00	-3.5406687731e+01
 2.0123061286e-01	 1.1591329887e+00	-4.2605660810e+01
 1.8072419155e-01	 1.1625066931e+00	-4.2353741209e+01
 1.6027943954e-01	 1.1655014141e+00	-4.0421325794e+01
 1.3990569595e-01	 1.1681221859e+00	-3.6850046341e+01
 1.1961201068e-01	 1.1703743042e+00	-3.1679132708e+01
 9.9407137800e-02	 1.1722633091e+00	-2.4945862572e+01
 2.0324291899e-01	 1.1707243186e+00	-4.1455337031e+01
 1.8253143347e-01	 1.1741317601e+00	-4.1209012455e+01
 1.6188223394e-01	 1.1771564282e+00	-3.9217957791e+01
 1.4130475290e-01	 1.1798034078e+00	-3.5537758229e+01
 1.2080813079e-01	 1.1820780472e+00	-3.0219393292e+01
 1.0040120918e-01	 1.1839859422e+00	-2.3309733552e+01
 2.0525522512e-01	 1.1823156484e+00	-4.0153548246e+01
 1.8433867538e-01	 1.1857568270e+00	-3.9941223930e+01
 1.6348502833e-01	 1.1888114424e+00	-3.7911399665e+01
 1.4270380986e-01	 1.1914846296e+00	-3.4130781699e+01
 1.2200425089e-01	 1.1937817903e+00	-2.8660230947e+01
 1.0139528056e-01	 1.1957085753e+00	-2.1555275043e+01
 2.0726753125e-01	 1.1939069783e+00	-3.8707221712e+01
 1.8614591730e-01	 1.1973818939e+00	-3.8552115303e+01
 1.6508782273e-01	 1.2004664565e+00	-3.6505501652e+01
 1.4410286682e-01	 1.2031658515e+00	-3.2642418269e+01
 1.2320037100e-01	 1.2054855333e+00	-2.7031762785e+01
 1.0238935193e-01	 1.2074312084e+00	-1.9736789303e+01
 2.0927983738e-01	 1.2054983082e+00	-3.7122885545e+01
 1.8795315921e-01	 1.2090069609e+00	-3.7043239157e+01
 1.6669061713e-01	 1.2121214707e+00	-3.5003858507e+01
 1.4550192378e-01	 1.2148470734e+00	-3.1085363459e+01
 1.2439649111e-01	 1.2171892763e+00	-2.5362866357e+01
 1.0338342331e-01	 1.2191538415e+00	-1.7906422171e+01
 2.1129214350e-01	 1.2170896381e+00	-3.5406687731e+01
 1.8976040113e-01	 1.2206320278e+00	-3.5415969895e+01
 1.6829341152e-01	 1.2237764848e+00	-3.3409821666e+01
 1.4690098074e-01	 1.2265282952e+00	-2.9471735655e+01
 1.2559261121e-01	 1.2288930194e+00	-2.3681238677e+01
 1.0437749469e-01	 1.2308764746e+00	-1.6114265750e+01
 9.9407137800e-02	 1.1722633091e+00	-2.4945862572e+01
 7.9299529776e-02	 1.1737949691e+00	-1.9344053690e+01
 5.9297332745e-02	 1.1749752641e+00	-1.7389447270e+01
 3.9408382690e-02	 1.1758103692e+00	-1.8864221524e+01
 1.9640202514e-02	 1.1763066384e+00	-2.3567700309e+01
 0.0000000000e+00	 1.1764705882e+00	-3.1315717524e+01
 1.0040120918e-01	 1.1839859422e+00	-2.3309733552e+01
 8.0092525073e-02	 1.1855329188e+00	-1.7604232140e+01
 5.9890306073e-02	 1.1867250168e+00	-1.5694340307e+01
 3.9802466517e-02	 1.1875684729e+00	-1.7333411279e+01
 1.9836604539e-02	 1.1880697047e+00	-2.2294684794e+01
 0.0000000000e+00	 1.1882352941e+00	-3.0370640934e+01
 1.0139528056e-01	 1.1957085753e+00	-2.1555275043e+01
 8.0885520371e-02	 1.1972708685e+00	-1.5723909910e+01
 6.0483279400e-02	 1.1984747694e+00	-1.3848817252e+01
 4.0196550344e-02	 1.1993265766e+00	-1.5659542130e+01
 2.0033006564e-02	 1.1998327711e+00	-2.0906128755e+01
 0.0000000000e+00	 1.2000000000e+00	-2.9358551102e+01
 1.0238935193e-01	 1.2074312084e+00	-1.9736789303e+01
 8.1678515669e-02	 1.2090088182e+00	-1.3776724797e+01
 6.1076252728e-02	 1.2102245221e+00	-1.1928740920e+01
 4.0590634171e-02	 1.2110846803e+00	-1.3903552064e+01
 2.0229408589e-02	 1.2115958375e+00	-1.9430896957e+01
 0.0000000000e+00	 1.2117647059e+00	-2.8259131873e+01
 1.0338342331e-01	 1.2191538415e+00	-1.7906422171e+01
 8.2471510967e-02	 1.2207467679e+00	-1.1833427959e+01
 6.1669226055e-02	 1.2219742747e+00	-1.0007015458e+01
 4.0984717998e-02	 1.2228427840e+00	-1.2124008039e+01
 2.0425810614e-02	 1.2233589039e+00	-1.7896730355e+01
 0.0000000000e+00	 1.2235294118e+00	-2.7052848480e+01
 1.0437749469e-01	 1.2308764746e+00	-1.6114265750e+01
 8.3264506264e-02	 1.2324847176e+00	-9.9620213764e+00
 6.2262199383e-02	 1.2337240273e+00	-8.1537272378e+00
 4.1378801824e-02	 1.2346008877e+00	-1.0377218891e+01
 2.0622212639e-02	 1.2351219703e+00	-1.6330299604e+01
 0.0000000000e+00	 1.2352941176e+00	-2.5720910340e+01
 1.2352941176e+00	 0.0000000000e+00	 2.6099600943e+01
 1.2351219703e+00	 2.0622212639e-02	 1.9606394700e+01
 1.2346008877e+00	 4.1378801824e-02	 1.5133230767e+01
 1.2337240273e+00	 6.2262199383e-02	 1.2552897401e+01
 1.2324847176e+00	 8.3264506264e-02	 1.1722119925e+01
 1.2308764746e+00	 1.0437749469e-01	 1.2480793221e+01
 1.2470588235e+00	 0.0000000000e+00	 2.7800001130e+01
 1.2468850367e+00	 2.0818614665e-02	 2.1386360021e+01
 1.2463589914e+00	 4.1772885651e-02	 1.6905221239e+01
 1.2454737800e+00	 6.2855172710e-02	 1.4228678846e+01
 1.2442226673e+00	 8.4057501562e-02	 1.3214683155e+01
 1.2425991077e+00	 1.0537156607e-01	 1.3706352309e+01
 1.2588235294e+00	 0.0000000000e+00	 2.9617501036e+01
 1.2586481030e+00	 2.1015016690e-02	 2.3246790723e+01
 1.2581170951e+00	 4.2166969478e-02	 1.8739783321e+01
 1.2572235326e+00	 6.3448146038e-02	 1.5964793187e+01
 1.2559606170e+00	 8.4850496860e-02	 1.4777059706e+01
 1.2543217408e+00	 1.0636563745e-01	 1.5018116361e+01
 1.2705882353e+00	 0.0000000000e+00	 3.1513444035e+01
 1.2704111694e+00	 2.1211418715e-02	 2.5171517346e+01
 1.2698751988e+00	 4.2561053305e-02	 2.0636876707e+01
 1.2689732853e+00	 6.4041119365e-02	 1.7771035127e+01
 1.2676985667e+00	 8.5643492158e-02	 1.6422665151e+01
 1.2660443739e+00	 1.0735970882e-01	 1.6427004240e+01
 1.2823529412e+00	 0.0000000000e+00	 3.3450592095e+01
 1.2821742358e+00	 2.1407820740e-02	 2.7144976786e+01
 1.2816333024e+00	 4.2955137132e-02	 2.2596488711e+01
 1.2807230379e+00	 6.4634092693e-02	 1.9656879379e+01
 1.2794365164e+00	 8.6436487455e-02	 1.8164475626e+01
 1.2777670070e+00	 1.0835378020e-01	 1.7943600534e+01
 1.2941176471e+00	 0.0000000000e+00	 3.5393061295e+01
 1.2939373022e+00	 2.1604222765e-02	 2.9152184730e+01
 1.2933914061e+00	 4.3349220959e-02	 2.4618633009e+01
 1.2924727905e+00	 6.5227066020e-02	 2.1631495209e+01
 1.2911744660e+00	 8.7229482753e-02	 2.0015047815e+01
 1.2894896400e+00	 1.0934785158e-01	 1.9578170750e+01
 1.2308764746e+00	 1.0437749469e-01	 1.2480793221e+01
 1.2288930194e+00	 1.2559261121e-01	 1.3221243751e+01
 1.2265282952e+00	 1.4690098074e-01	 1.2573684981e+01
 1.2237764848e+00	 1.6829341152e-01	 1.0729101562e+01
 1.2206320278e+00	 1.8976040113e-01	 7.8883827428e+00
 1.2170896381e+00	 2.1129214350e-01	 4.2624710483e+00
 1.2425991077e+00	 1.0537156607e-01	 1.3706352309e+01
 1.2405967624e+00	 1.2678873132e-01	 1.4167358382e+01
 1.2382095171e+00	 1.4830003770e-01	 1.3295018267e+01
 1.2354314989e+00	 1.6989620592e-01	 1.1278331986e+01
 1.2322570947e+00	 1.9156764304e-01	 8.3156808981e+00
 1.2286809680e+00	 2.1330444963e-01	 4.6149708855e+00
 1.2543217408e+00	 1.0636563745e-01	 1.5018116361e+01
 1.2523005055e+00	 1.2798485143e-01	 1.5210988498e+01
 1.2498907389e+00	 1.4969909466e-01	 1.4113617965e+01
 1.2470865131e+00	 1.7149900031e-01	 1.1916012528e+01
 1.2438821616e+00	 1.9337488496e-01	 8.8172941928e+00
 1.2402722979e+00	 2.1531675576e-01	 5.0258310653e+00
 1.2660443739e+00	 1.0735970882e-01	 1.6427004240e+01
 1.2640042485e+00	 1.2918097153e-01	 1.6358303845e+01
 1.2615719608e+00	 1.5109815162e-01	 1.5032391306e+01
 1.2587415272e+00	 1.7310179471e-01	 1.2643190627e+01
 1.2555072286e+00	 1.9518212688e-01	 9.3937239990e+00
 1.2518636278e+00	 2.1732906189e-01	 5.4962265769e+00
 1.2777670070e+00	 1.0835378020e-01	 1.7943600534e+01
 1.2757079916e+00	 1.3037709164e-01	 1.7615327773e+01
 1.2732531826e+00	 1.5249720858e-01	 1.6054232487e+01
 1.2703965414e+00	 1.7470458910e-01	 1.3460982578e+01
 1.2671322955e+00	 1.9698936879e-01	 1.0045574199e+01
 1.2634549577e+00	 2.1934136802e-01	 6.0274237535e+00
 1.2894896400e+00	 1.0934785158e-01	 1.9578170750e+01
 1.2874117346e+00	 1.3157321175e-01	 1.8987943888e+01
 1.2849344045e+00	 1.5389626554e-01	 1.7182023260e+01
 1.2820515555e+00	 1.7630738350e-01	 1.4370570401e+01
 1.2787573624e+00	 1.9879661071e-01	 1.0773546524e+01
 1.2750462875e+00	 2.2135367415e-01	 6.6207761208e+00
 1.2170896381e+00	 2.1129214350e-01	 4.2624710483e+00
 1.2131443212e+00	 2.3287853700e-01	 2.6264711399e-01
 1.2087913912e+00	 2.5450919351e-01	-3.7905021458e+00
 1.2040264878e+00	 2.7617344865e-01	-7.8142130075e+00
 1.1988455928e+00	 2.9786037301e-01	-1.1725579940e+01
 1.1932450462e+00	 3.1955878450e-01	-1.5441792616e+01
 1.2286809680e+00	 2.1330444963e-01	 4.6149708855e+00
 1.2246980767e+00	 2.3509642783e-01	 5.5668407870e-01
 1.2203036902e+00	 2.5693309059e-01	-3.5765549256e+00
 1.2154934067e+00	 2.7880367197e-01	-7.7162511454e+00
 1.2102631698e+00	 3.0069713847e-01	-1.1793829463e+01
 1.2046092848e+00	 3.2260220149e-01	-1.5740799651e+01
 1.2402722979e+00	 2.1531675576e-01	 5.0258310653e+00
 1.2362518321e+00	 2.3731431866e-01	 8.9612458351e-01
 1.2318159892e+00	 2.5935698767e-01	-3.3251678400e+00
 1.2269603257e+00	 2.8143389529e-01	-7.5843772112e+00
 1.2216807469e+00	 3.0353390393e-01	-1.1827820427e+01
 1.2159735233e+00	 3.2564561849e-01	-1.6001889355e+01
 1.2518636278e+00	 2.1732906189e-01	 5.4962265769e+00
 1.2478055875e+00	 2.3953220949e-01	 1.2834040708e+00
 1.2433282881e+00	 2.6178088475e-01	-3.0326155488e+00
 1.2384272446e+00	 2.8406411861e-01	-7.4135310000e+00
 1.2330983240e+00	 3.0637066938e-01	-1.1821097169e+01
 1.2273377618e+00	 3.2868903548e-01	-1.6217134322e+01
 1.2634549577e+00	 2.1934136802e-01	 6.0274237535e+00
 1.2593593430e+00	 2.4175010031e-01	 1.7210165316e+00
 1.2548405871e+00	 2.6420478183e-01	-2.6951481680e+00
 1.2498941635e+00	 2.8669434193e-01	-7.1986635834e+00
 1.2445159011e+00	 3.0920743484e-01	-1.1767253546e+01
 1.2387020004e+00	 3.3173245248e-01	-1.6378697944e+01
 1.2750462875e+00	 2.2135367415e-01	 6.6207761208e+00
 1.2709130984e+00	 2.4396799114e-01	 2.2115118443e+00
 1.2663528861e+00	 2.6662867892e-01	-2.3089923861e+00
 1.2613610825e+00	 2.8932456525e-01	-6.9347367966e+00
 1.2559334781e+00	 3.1204420030e-01	-1.1659930684e+01
 1.2500662389e+00	 3.3477586947e-01	-1.6478830284e+01
 1.1932450462e+00	 3.1955878450e-01	-1.5441792616e+01
 1.1872215625e+00	 3.4125726170e-01	-1.9034330469e+01
 1.1807722452e+00	 3.6294415835e-01	-2.1258711251e+01
 1.1738946020e+00	 3.8460761879e-01	-1.9923022709e+01
 1.1665865587e+00	 4.0623559446e-01	-1.8963688147e+01
 1.1588464721e+00	 4.2781586137e-01	-1.8453805160e+01
 1.2046092848e+00	 3.2260220149e-01	-1.5740799651e+01
 1.1985284345e+00	 3.4450733086e-01	-1.9628810123e+01
 1.1920176951e+00	 3.6640076938e-01	-2.1284295307e+01
 1.1850745506e+00	 3.8827054849e-01	-2.0067878577e+01
 1.1776969069e+00	 4.1010450488e-01	-1.9229376214e+01
 1.1698831051e+00	 4.3189029814e-01	-1.8829388965e+01
 1.2159735233e+00	 3.2564561849e-01	-1.6001889355e+01
 1.2098353065e+00	 3.4775740002e-01	-2.0179303280e+01
 1.2032631451e+00	 3.6985738041e-01	-2.1206254853e+01
 1.1962544992e+00	 3.9193347820e-01	-2.0120517947e+01
 1.1888072550e+00	 4.1397341531e-01	-1.9413955152e+01
 1.1809197382e+00	 4.3596473492e-01	-1.9135600410e+01
 1.2273377618e+00	 3.2868903548e-01	-1.6217134322e+01
 1.2211421786e+00	 3.5100746918e-01	-2.0676075641e+01
 1.2145085951e+00	 3.7331399145e-01	-2.1025615832e+01
 1.2074344478e+00	 3.9559640790e-01	-2.0079534281e+01
 1.1999176032e+00	 4.1784232573e-01	-1.9512875376e+01
 1.1919563713e+00	 4.4003917169e-01	-1.9363999946e+01
 1.2387020004e+00	 3.3173245248e-01	-1.6378697944e+01
 1.2324490506e+00	 3.5425753833e-01	-2.1109537554e+01
 1.2257540450e+00	 3.7677060248e-01	-2.0743625333e+01
 1.2186143964e+00	 3.9925933760e-01	-1.9943842732e+01
 1.2110279514e+00	 4.2171123615e-01	-1.9522034941e+01
 1.2029930044e+00	 4.4411360847e-01	-1.9506748317e+01
 1.2500662389e+00	 3.3477586947e-01	-1.6478830284e+01
 1.2437559226e+00	 3.5750760749e-01	-2.1369171190e+01
 1.2369994950e+00	 3.8022721351e-01	-2.0361741537e+01
 1.2297943450e+00	 4.0292226730e-01	-1.9712665525e+01
 1.2221382996e+00	 4.2558014658e-01	-1.9437759197e+01
 1.2140296374e+00	 4.4818804524e-01	-1.9556579278e+01
 1.1588464721e+00	 4.2781586137e-01	-1.8453805160e+01
 1.1506731428e+00	 4.4933603850e-01	-1.8035508839e+01
 1.1420658266e+00	 4.7078360715e-01	-1.7318098489e+01
 1.1330242449e+00	 4.9214593108e-01	-1.6333794853e+01
 1.1235485944e+00	 5.1341027752e-01	-1.5121001637e+01
 1.1136395554e+00	 5.3456383887e-01	-1.3724565064e+01
 1.1698831051e+00	 4.3189029814e-01	-1.8829388965e+01
 1.1616319347e+00	 4.5361542934e-01	-1.8502106993e+01
 1.1529426440e+00	 4.7526726055e-01	-1.7861090268e+01
 1.1438149520e+00	 4.9683303518e-01	-1.6944219204e+01
 1.1342490572e+00	 5.1829989921e-01	-1.5795440602e+01
 1.1242456464e+00	 5.3965492305e-01	-1.4464998352e+01
 1.1809197382e+00	 4.3596473492e-01	-1.9135600410e+01
 1.1725907265e+00	 4.5789482018e-01	-1.8911354896e+01
 1.1638194614e+00	 4.7975091395e-01	-1.8354931747e+01
 1.1546056591e+00	 5.0152013929e-01	-1.7505353251e+01
 1.1449495200e+00	 5.2318952090e-01	-1.6407971988e+01
 1.1348517374e+00	 5.4474600723e-01	-1.5114706217e+01
 1.1919563713e+00	 4.4003917169e-01	-1.9363999946e+01
 1.1835495183e+00	 4.6217421103e-01	-1.9251856910e+01
 1.1746962788e+00	 4.8423456735e-01	-1.8788000803e+01
 1.1653963662e+00	 5.0620724339e-01	-1.8008210716e+01
 1.1556499828e+00	 5.2807914259e-01	-1.6955234019e+01
 1.1454578284e+00	 5.4983709141e-01	-1.5679059450e+01
 1.2029930044e+00	 4.4411360847e-01	-1.9506748317e+01
 1.1945083102e+00	 4.6645360187e-01	-1.9512935342e+01
 1.1855730962e+00	 4.8871822075e-01	-1.9149409980e+01
 1.1761870733e+00	 5.1089434750e-01	-1.8444450884e+01
 1.1663504456e+00	 5.3296876428e-01	-1.7434310900e+01
 1.1560639194e+00	 5.5492817559e-01	-1.6163560359e+01
 1.2140296374e+00	 4.4818804524e-01	-1.9556579278e+01
 1.2054671020e+00	 4.7073299271e-01	-1.9684597808e+01
 1.1964499136e+00	 4.9320187415e-01	-1.9428973092e+01
 1.1869777804e+00	 5.1558145161e-01	-1.8806349258e+01
 1.1770509084e+00	 5.3785838597e-01	-1.7842712541e+01
 1.1666700104e+00	 5.6001925977e-01	-1.6573836791e+01
 1.1136395554e+00	 5.3456383887e-01	-1.3724565064e+01
 1.1032982989e+00	 5.5559375513e-01	-1.2269201763e+01
 1.0925264931e+00	 5.7648713687e-01	-1.0801717287e+01
 1.0813263077e+00	 5.9723108880e-01	-9.2604621146e+00
 1.0697004174e+00	 6.1781273377e-01	-7.7659729995e+00
 1.0576520044e+00	 6.3821923711e-01	-6.9860674305e+00
 1.1242456464e+00	 5.3965492305e-01	-1.4464998352e+01
 1.1138059017e+00	 5.6088512423e-01	-1.3086042251e+01
 1.1029315073e+00	 5.8197749055e-01	-1.1703466616e+01
 1.0916246535e+00	 6.0291900393e-01	-1.0245602261e+01
 1.0798880405e+00	 6.2369666457e-01	-8.6488394536e+00
 1.0677248807e+00	 6.4429751556e-01	-7.2161128182e+00
 1.1348517374e+00	 5.4474600723e-01	-1.5114706217e+01
 1.1243135046e+00	 5.6617649332e-01	-1.3767438753e+01
 1.1133365215e+00	 5.8746784424e-01	-1.2421399794e+01
 1.1019229992e+00	 6.0860691907e-01	-1.1009241363e+01
 1.0900756635e+00	 6.2958059537e-01	-9.4717179178e+00
 1.0777977569e+00	 6.5037579401e-01	-7.7583197304e+00
 1.1454578284e+00	 5.4983709141e-01	-1.5679059450e+01
 1.1348211074e+00	 5.7146786242e-01	-1.4327867931e+01
 1.1237415358e+00	 5.9295819792e-01	-1.2976395748e+01
 1.1122213450e+00	 6.1429483420e-01	-1.1575560733e+01
 1.1002632865e+00	 6.3546452617e-01	-1.0084114954e+01
 1.0878706331e+00	 6.5645407246e-01	-8.4691825705e+00
 1.1560639194e+00	 5.5492817559e-01	-1.6163560359e+01
 1.1453287103e+00	 5.7675923152e-01	-1.4781608963e+01
 1.1341465500e+00	 5.9844855161e-01	-1.3388905281e+01
 1.1225196908e+00	 6.1998274933e-01	-1.1968195825e+01
 1.1104509095e+00	 6.4134845697e-01	-1.0509486877e+01
 1.0979435094e+00	 6.6253235091e-01	-9.0104051387e+00
 1.1666700104e+00	 5.6001925977e-01	-1.6573836791e+01
 1.1558363131e+00	 5.8205060061e-01	-1.5142752521e+01
 1.1445515642e+00	 6.0393890529e-01	-1.3678970537e+01
 1.1328180366e+00	 6.2567066446e-01	-1.2210261044e+01
 1.1206385326e+00	 6.4723238776e-01	-1.0770778031e+01
 1.1080163856e+00	 6.6861062935e-01	-9.4011622393e+00
 1.0576520044e+00	 6.3821923711e-01	-6.9860674305e+00
 1.0451847585e+00	 6.5843783127e-01	-6.1402588655e+00
 1.0323028768e+00	 6.7845584065e-01	-5.8108861426e+00
 1.0190110612e+00	 6.9826070654e-01	-6.2192715883e+00
 1.0053145151e+00	 7.1784001197e-01	-6.1812715711e+00
 9.9121893822e-01	 7.3718150656e-01	-7.2718216542e-01
 1.0677248807e+00	 6.4429751556e-01	-7.2161128182e+00
 1.0551388991e+00	 6.6470866776e-01	-6.6148661921e+00
 1.0421343327e+00	 6.8491732485e-01	-6.4960628103e+00
 1.0287159284e+00	 7.0491080850e-01	-7.1069993606e+00
 1.0148889391e+00	 7.2467658351e-01	-4.7480995149e+00
 1.0006591186e+00	 7.4420228281e-01	 4.5766117286e-01
 1.0777977569e+00	 6.5037579401e-01	-7.7583197304e+00
 1.0650930396e+00	 6.7097950425e-01	-6.8167297275e+00
 1.0519657887e+00	 6.9137880905e-01	-7.0236365964e+00
 1.0384207957e+00	 7.1156091047e-01	-7.9615832789e+00
 1.0244633630e+00	 7.3151315505e-01	-3.5669953862e+00
 1.0100992989e+00	 7.5122305907e-01	 1.3389082027e+00
 1.0878706331e+00	 6.5645407246e-01	-8.4691825705e+00
 1.0750471802e+00	 6.7725034073e-01	-7.0920962579e+00
 1.0617972447e+00	 6.9784029324e-01	-7.3779259074e+00
 1.0481256629e+00	 7.1821101244e-01	-7.4837425380e+00
 1.0340377870e+00	 7.3834972659e-01	-2.6263054591e+00
 1.0195394793e+00	 7.5824383532e-01	 1.9348808571e+00
 1.0979435094e+00	 6.6253235091e-01	-9.0104051387e+00
 1.0850013208e+00	 6.8352117722e-01	-7.8246936461e+00
 1.0716287006e+00	 7.0430177744e-01	-7.5610264648e+00
 1.0578305302e+00	 7.2486111441e-01	-6.2208559175e+00
 1.0436122109e+00	 7.4518629814e-01	-1.9151218652e+00
 1.0289796597e+00	 7.6526461157e-01	 2.2629164513e+00
 1.1080163856e+00	 6.6861062935e-01	-9.4011622393e+00
 1.0949554613e+00	 6.8979201371e-01	-8.4618310513e+00
 1.0814601566e+00	 7.1076326164e-01	-8.4905307339e+00
 1.0675353974e+00	 7.3151121637e-01	-5.0992219896e+00
 1.0531866349e+00	 7.5202286968e-01	-1.4232486911e+00
 1.0384198400e+00	 7.7228538783e-01	 2.3394124379e+00
 9.9121893822e-01	 7.3718150656e-01	-7.2718216542e-01
 9.7673051976e-01	 7.5627313113e-01	 3.9257993122e+00
 9.6185593073e-01	 7.7510304193e-01	 7.8937507449e+00
 9.4660231433e-01	 7.9365963460e-01	 1.1404360403e+01
 9.3097727512e-01	 8.1193156750e-01	 1.4686237945e+01
 9.1498886677e-01	 8.2990778450e-01	 1.7968015435e+01
 1.0006591186e+00	 7.4420228281e-01	 4.5766117286e-01
 9.8603271519e-01	 7.6347573238e-01	 4.8420432871e+00
 9.7101646340e-01	 7.8248497566e-01	 8.5326994512e+00
 9.5561757447e-01	 8.0121829779e-01	 1.1806616603e+01
 9.3984372536e-01	 8.1966424909e-01	 1.4943115526e+01
 9.2370304645e-01	 8.3781166817e-01	 1.8222655007e+01
 1.0100992989e+00	 7.5122305907e-01	 1.3389082027e+00
 9.9533491061e-01	 7.7067833362e-01	 5.4785689643e+00
 9.8017699608e-01	 7.8986690940e-01	 8.9776682011e+00
 9.6463283461e-01	 8.0877696097e-01	 1.2130053845e+01
 9.4871017560e-01	 8.2739693069e-01	 1.5232533844e+01
 9.3241722614e-01	 8.4571555183e-01	 1.8583562750e+01
 1.0195394793e+00	 7.5824383532e-01	 1.9348808571e+00
 1.0046371060e+00	 7.7788093487e-01	 5.8568042160e+00
 9.8933752875e-01	 7.9724884313e-01	 9.2483684687e+00
 9.7364809474e-01	 8.1633562416e-01	 1.2388733931e+01
 9.5757662584e-01	 8.3512961228e-01	 1.5559875513e+01
 9.4113140582e-01	 8.5361943549e-01	 1.9045328272e+01
 1.0289796597e+00	 7.6526461157e-01	 2.2629164513e+00
 1.0139393015e+00	 7.8508353612e-01	 5.9970850901e+00
 9.9849806143e-01	 8.0463077686e-01	 9.3634904540e+00
 9.8266335488e-01	 8.2389428735e-01	 1.2595913025e+01
 9.6644307608e-01	 8.4286229388e-01	 1.5930045030e+01
 9.4984558550e-01	 8.6152331915e-01	 1.9602468801e+01
 1.0384198400e+00	 7.7228538783e-01	 2.3394124379e+00
 1.0232414969e+00	 7.9228613737e-01	 5.9187054391e+00
 1.0076585941e+00	 8.1201271059e-01	 9.3407495047e+00
 9.9167861502e-01	 8.3145295053e-01	 1.2764078278e+01
 9.7530952632e-01	 8.5059497547e-01	 1.6347490502e+01
 9.5855976519e-01	 8.6942720281e-01	 2.0249432476e+01
 9.1498886677e-01	 8.2990778450e-01	 1.7968015435e+01
 8.9864557845e-01	 8.4757753711e-01	 2.1758018974e+01
 8.8195631999e-01	 8.6493040571e-01	 2.6187094377e+01
 8.6493040571e-01	 8.8195631999e-01	 3.0911579370e+01
 8.4757753711e-01	 8.9864557845e-01	 3.5582115164e+01
 8.2990778450e-01	 9.1498886677e-01	 3.9845828660e+01
 9.2370304645e-01	 8.3781166817e-01	 1.8222655007e+01
 9.0720410777e-01	 8.5564970413e-01	 2.2163186133e+01
 8.9035590399e-01	 8.7316783814e-01	 2.6827797949e+01
 8.7316783814e-01	 8.9035590399e-01	 3.1807632208e+01
 8.5564970413e-01	 9.0720410777e-01	 3.6686308157e+01
 8.3781166817e-01	 9.2370304645e-01	 4.1042505204e+01
 9.3241722614e-01	 8.4571555183e-01	 1.8583562750e+01
 9.1576263709e-01	 8.6372187115e-01	 2.2679853557e+01
 8.9875548799e-01	 8.8140527058e-01	 2.7526903318e+01
 8.8140527058e-01	 8.9875548799e-01	 3.2678811219e+01
 8.6372187115e-01	 9.1576263709e-01	 3.7681252855e+01
 8.4571555183e-01	 9.3241722614e-01	 4.2074302164e+01
 9.4113140582e-01	 8.5361943549e-01	 1.9045328272e+01
 9.2432116641e-01	 8.7179403817e-01	 2.3294534726e+01
 9.0715507199e-01	 8.8964270301e-01	 2.8269263301e+01
 8.8964270301e-01	 9.0715507199e-01	 3.3513934532e+01
 8.7179403817e-01	 9.2432116641e-01	 3.8564552136e+01
 8.5361943549e-01	 9.4113140582e-01	 4.2951605621e+01
 9.4984558550e-01	 8.6152331915e-01	 1.9602468801e+01
 9.3287969573e-01	 8.7986620519e-01	 2.3993977381e+01
 9.1555465599e-01	 8.9788013545e-01	 2.9040036741e+01
 8.9788013545e-01	 9.1555465599e-01	 3.4301992088e+01
 8.7986620519e-01	 9.3287969573e-01	 3.9333670063e+01
 8.6152331915e-01	 9.4984558550e-01	 4.3684205850e+01
 9.5855976519e-01	 8.6942720281e-01	 2.0249432476e+01
 9.4143822505e-01	 8.8793837221e-01	 2.4765152876e+01
 9.2395423999e-01	 9.0611756788e-01	 2.9824674586e+01
 9.0611756788e-01	 9.2395423999e-01	 3.5032137837e+01
 8.8793837221e-01	 9.4143822505e-01	 3.9985938192e+01
 8.6942720281e-01	 9.5855976519e-01	 4.4281324405e+01
 8.2990778450e-01	 9.1498886677e-01	 3.9845828660e+01
 8.1193156750e-01	 9.3097727512e-01	 4.3422419252e+01
 7.9365963460e-01	 9.4660231433e-01	 4.6284288330e+01
 7.7510304193e-01	 9.6185593073e-01	 4.8452712363e+01
 7.5627313113e-01	 9.7673051976e-01	 4.9944424157e+01
 7.3718150656e-01	 9.9121893822e-01	 5.0771943800e+01
 8.3781166817e-01	 9.2370304645e-01	 4.1042505204e+01
 8.1966424909e-01	 9.3984372536e-01	 4.4541344417e+01
 8.0121829779e-01	 9.5561757447e-01	 4.7190564564e+01
 7.8248497566e-01	 9.7101646340e-01	 4.9080207237e+01
 7.6347573238e-01	 9.8603271519e-01	 5.0299652128e+01
 7.4420228281e-01	 1.0006591186e+00	 5.0937512204e+01
 8.4571555183e-01	 9.3241722614e-01	 4.2074302164e+01
 8.2739693069e-01	 9.4871017560e-01	 4.5503002537e+01
 8.0877696097e-01	 9.6463283461e-01	 4.8006871053e+01
 7.8986690940e-01	 9.8017699608e-01	 4.9716670187e+01
 7.7067833362e-01	 9.9533491061e-01	 5.0764820025e+01
 7.5122305907e-01	 1.0100992989e+00	 5.1285028767e+01
 8.5361943549e-01	 9.4113140582e-01	 4.2951605621e+01
 8.3512961228e-01	 9.5757662584e-01	 4.6326492359e+01
 8.1633562416e-01	 9.7364809474e-01	 4.8749934485e+01
 7.9724884313e-01	 9.8933752875e-01	 5.0366146181e+01
 7.7788093487e-01	 1.0046371060e+00	 5.1321785314e+01
 7.5824383532e-01	 1.0195394793e+00	 5.1765487673e+01
 8.6152331915e-01	 9.4984558550e-01	 4.3684205850e+01
 8.4286229388e-01	 9.6644307608e-01	 4.7030009530e+01
 8.2389428735e-01	 9.8266335488e-01	 4.9435678179e+01
 8.0463077686e-01	 9.9849806143e-01	 5.1032355078e+01
 7.8508353612e-01	 1.0139393015e+00	 5.1952907578e+01
 7.6526461157e-01	 1.0289796597e+00	 5.2331530888e+01
 8.6942720281e-01	 9.5855976519e-01	 4.4281324405e+01
 8.5059497547e-01	 9.7530952632e-01	 4.7630887646e+01
 8.3145295053e-01	 9.9167861502e-01	 5.0079258606e+01
 8.1201271059e-01	 1.0076585941e+00	 5.1718706413e+01
 7.9228613737e-01	 1.0232414969e+00	 5.2641025695e+01
 7.7228538783e-01	 1.0384198400e+00	 5.2937373257e+01
 7.3718150656e-01	 9.9121893822e-01	 5.0771943800e+01
 7.1784001197e-01	 1.0053145151e+00	 5.0526322688e+01
 6.9826070654e-01	 1.0190110612e+00	 4.7825468600e+01
 6.7845584065e-01	 1.0323028768e+00	 4.4236941887e+01
 6.5843783127e-01	 1.0451847585e+00	 4.0185194527e+01
 6.3821923711e-01	 1.0576520044e+00	 3.5804383266e+01
 7.4420228281e-01	 1.0006591186e+00	 5.0937512204e+01
 7.2467658351e-01	 1.0148889391e+00	 5.0625799038e+01
 7.0491080850e-01	 1.0287159284e+00	 4.8325028431e+01
 6.8491732485e-01	 1.0421343327e+00	 4.4621632613e+01
 6.6470866776e-01	 1.0551388991e+00	 4.0335949990e+01
 6.4429751556e-01	 1.0677248807e+00	 3.5490745219e+01
 7.5122305907e-01	 1.0100992989e+00	 5.1285028767e+01
 7.3151315505e-01	 1.0244633630e+00	 5.0897877394e+01
 7.1156091047e-01	 1.0384207957e+00	 4.8819158853e+01
 6.9137880905e-01	 1.0519657887e+00	 4.4811035901e+01
 6.7097950425e-01	 1.0650930396e+00	 4.0075666434e+01
 6.5037579401e-01	 1.0777977569e+00	 3.6584361653e+01
 7.5824383532e-01	 1.0195394793e+00	 5.1765487673e+01
 7.3834972659e-01	 1.0340377870e+00	 5.1270547832e+01
 7.1821101244e-01	 1.0481256629e+00	 4.9086993725e+01
 6.9784029324e-01	 1.0617972447e+00	 4.4762015485e+01
 6.7725034073e-01	 1.0750471802e+00	 4.0350788857e+01
 6.5645407246e-01	 1.0878706331e+00	 3.8257630591e+01
 7.6526461157e-01	 1.0289796597e+00	 5.2331530888e+01
 7.4518629814e-01	 1.0436122109e+00	 5.1674305462e+01
 7.2486111441e-01	 1.0578305302e+00	 4.9162214024e+01
 7.0430177744e-01	 1.0716287006e+00	 4.4472386092e+01
 6.8352117722e-01	 1.0850013208e+00	 4.1813715028e+01
 6.6253235091e-01	 1.0979435094e+00	 3.9385255178e+01
 7.7228538783e-01	 1.0384198400e+00	 5.2937373257e+01
 7.5202286968e-01	 1.0531866349e+00	 5.2042036563e+01
 7.3151121637e-01	 1.0675353974e+00	 4.9099564150e+01
 7.1076326164e-01	 1.0814601566e+00	 4.5692196251e+01
 6.8979201371e-01	 1.0949554613e+00	 4.2779476852e+01
 6.6861062935e-01	 1.1080163856e+00	 4.0025560989e+01
 6.3821923711e-01	 1.0576520044e+00	 3.5804383266e+01
 6.1781273377e-01	 1.0697004174e+00	 3.0586115995e+01
 5.9723108880e-01	 1.0813263077e+00	 2.7962924238e+01
 5.7648713687e-01	 1.0925264931e+00	 2.5186664937e+01
 5.5559375513e-01	 1.1032982989e+00	 2.1441129051e+01
 5.3456383887e-01	 1.1136395554e+00	 1.6554417592e+01
 6.4429751556e-01	 1.0677248807e+00	 3.5490745219e+01
 6.2369666457e-01	 1.0798880405e+00	 3.2635235423e+01
 6.0291900393e-01	 1.0916246535e+00	 3.0210117180e+01
 5.8197749055e-01	 1.1029315073e+00	 2.6922030862e+01
 5.6088512423e-01	 1.1138059017e+00	 2.2687545276e+01
 5.3965492305e-01	 1.1242456464e+00	 1.7447500556e+01
 6.5037579401e-01	 1.0777977569e+00	 3.6584361653e+01
 6.2958059537e-01	 1.0900756635e+00	 3.4566616525e+01
 6.0860691907e-01	 1.1019229992e+00	 3.1763749187e+01
 5.8746784424e-01	 1.1133365215e+00	 2.8129614632e+01
 5.6617649332e-01	 1.1243135046e+00	 2.3650125417e+01
 5.4474600723e-01	 1.1348517374e+00	 1.8342830271e+01
 6.5645407246e-01	 1.0878706331e+00	 3.8257630591e+01
 6.3546452617e-01	 1.1002632865e+00	 3.5868356082e+01
 6.1429483420e-01	 1.1122213450e+00	 3.2767835156e+01
 5.9295819792e-01	 1.1237415358e+00	 2.8945289104e+01
 5.7146786242e-01	 1.1348211074e+00	 2.4425305389e+01
 5.4983709141e-01	 1.1454578284e+00	 1.9267133934e+01
 6.6253235091e-01	 1.0979435094e+00	 3.9385255178e+01
 6.4134845697e-01	 1.1104509095e+00	 3.6656027829e+01
 6.1998274933e-01	 1.1225196908e+00	 3.3361165851e+01
 5.9844855161e-01	 1.1341465500e+00	 2.9500008138e+01
 5.7675923152e-01	 1.1453287103e+00	 2.5106055132e+01
 5.5492817559e-01	 1.1560639194e+00	 2.0246236108e+01
 6.6861062935e-01	 1.1080163856e+00	 4.0025560989e+01
 6.4723238776e-01	 1.1206385326e+00	 3.7041056286e+01
 6.2567066446e-01	 1.1328180366e+00	 3.3677545362e+01
 6.0393890529e-01	 1.1445515642e+00	 2.9920030186e+01
 5.8205060061e-01	 1.1558363131e+00	 2.5782036155e+01
 5.6001925977e-01	 1.1666700104e+00	 2.1305099752e+01
 5.3456383887e-01	 1.1136395554e+00	 1.6554417592e+01
 5.1341027752e-01	 1.1235485944e+00	 1.1110732420e+01
 4.9214593108e-01	 1.1330242449e+00	 5.7802365516e+00
 4.7078360715e-01	 1.1420658266e+00	 5.4432165578e-01
 4.4933603850e-01	 1.1506731428e+00	-4.5966048597e+00
 4.2781586137e-01	 1.1588464721e+00	-9.6235843844e+00
 5.3965492305e-01	 1.1242456464e+00	 1.7447500556e+01
 5.1829989921e-01	 1.1342490572e+00	 1.1870446947e+01
 4.9683303518e-01	 1.1438149520e+00	 6.6019836437e+00
 4.7526726055e-01	 1.1529426440e+00	 1.5730573375e+00
 4.5361542934e-01	 1.1616319347e+00	-3.2767668735e+00
 4.3189029814e-01	 1.1698831051e+00	-7.9991525662e+00
 5.4474600723e-01	 1.1348517374e+00	 1.8342830271e+01
 5.2318952090e-01	 1.1449495200e+00	 1.2865720509e+01
 5.0152013929e-01	 1.1546056591e+00	 7.7789265346e+00
 4.7975091395e-01	 1.1638194614e+00	 2.9777527678e+00
 4.5789482018e-01	 1.1725907265e+00	-1.6404549178e+00
 4.3596473492e-01	 1.1809197382e+00	-6.1757400198e+00
 5.4983709141e-01	 1.1454578284e+00	 1.9267133934e+01
 5.2807914259e-01	 1.1556499828e+00	 1.4052695137e+01
 5.0620724339e-01	 1.1653963662e+00	 9.2240829572e+00
 4.8423456735e-01	 1.1746962788e+00	 4.6552030910e+00
 4.6217421103e-01	 1.1835495183e+00	 2.1917693779e-01
 4.4003917169e-01	 1.1919563713e+00	-4.2108708245e+00
 5.5492817559e-01	 1.1560639194e+00	 2.0246236108e+01
 5.3296876428e-01	 1.1663504456e+00	 1.5389205136e+01
 5.1089434750e-01	 1.1761870733e+00	 1.0853749461e+01
 4.8871822075e-01	 1.1855730962e+00	 6.5060809552e+00
 4.6645360187e-01	 1.1945083102e+00	 2.2124859977e+00
 4.4411360847e-01	 1.2029930044e+00	-2.1598631695e+00
 5.6001925977e-01	 1.1666700104e+00	 2.1305099752e+01
 5.3785838597e-01	 1.1770509084e+00	 1.6834700158e+01
 5.1558145161e-01	 1.1869777804e+00	 1.2587352375e+01
 4.9320187415e-01	 1.1964499136e+00	 8.4347602620e+00
 4.7073299271e-01	 1.2054671020e+00	 4.2531813325e+00
 4.4818804524e-01	 1.2140296374e+00	-7.5929622478e-02
 4.2781586137e-01	 1.1588464721e+00	-9.6235843844e+00
 4.0623559446e-01	 1.1665865587e+00	-1.4639324954e+01
 3.8460761879e-01	 1.1738946020e+00	-1.9813648177e+01
 3.6294415835e-01	 1.1807722452e+00	-2.5209897185e+01
 3.4125726170e-01	 1.1872215625e+00	-2.7508951784e+01
 3.1955878450e-01	 1.1932450462e+00	-2.9055219071e+01
 4.3189029814e-01	 1.1698831051e+00	-7.9991525662e+00
 4.1010450488e-01	 1.1776969069e+00	-1.2777810379e+01
 3.8827054849e-01	 1.1850745506e+00	-1.7803293249e+01
 3.6640076938e-01	 1.1920176951e+00	-2.3122105434e+01
 3.4450733086e-01	 1.1985284345e+00	-2.6013262894e+01
 3.2260220149e-01	 1.2046092848e+00	-2.7363665843e+01
 4.3596473492e-01	 1.1809197382e+00	-6.1757400198e+00
 4.1397341531e-01	 1.1888072550e+00	-1.0828976449e+01
 3.9193347820e-01	 1.1962544992e+00	-1.5766948313e+01
 3.6985738041e-01	 1.2032631451e+00	-2.1024984463e+01
 3.4775740002e-01	 1.2098353065e+00	-2.4526626489e+01
 3.2564561849e-01	 1.2159735233e+00	-2.5638409884e+01
 4.4003917169e-01	 1.1919563713e+00	-4.2108708245e+00
 4.1784232573e-01	 1.1999176032e+00	-8.8093561184e+00
 3.9559640790e-01	 1.2074344478e+00	-1.3694369303e+01
 3.7331399145e-01	 1.2145085951e+00	-1.8895477721e+01
 3.5100746918e-01	 1.2211421786e+00	-2.3024257532e+01
 3.2868903548e-01	 1.2273377618e+00	-2.3869129027e+01
 4.4411360847e-01	 1.2029930044e+00	-2.1598631695e+00
 4.2171123615e-01	 1.2110279514e+00	-6.7347793543e+00
 3.9925933760e-01	 1.2186143964e+00	-1.1575591128e+01
 3.7677060248e-01	 1.2257540450e+00	-1.6711277833e+01
 3.5425753833e-01	 1.2324490506e+00	-2.1482089008e+01
 3.3173245248e-01	 1.2387020004e+00	-2.2045698228e+01
 4.4818804524e-01	 1.2140296374e+00	-7.5929622478e-02
 4.2558014658e-01	 1.2221382996e+00	-4.6204050900e+00
 4.0292226730e-01	 1.2297943450e+00	-9.4009150002e+00
 3.8022721351e-01	 1.2369994950e+00	-1.4450792546e+01
 3.5750760749e-01	 1.2437559226e+00	-1.9790001959e+01
 3.3477586947e-01	 1.2500662389e+00	-2.0158180612e+01
 3.1955878450e-01	 1.1932450462e+00	-2.9055219071e+01
 2.9786037301e-01	 1.1988455928e+00	-3.0710570573e+01
 2.7617344865e-01	 1.2040264878e+00	-3.2101171094e+01
 2.5450919351e-01	 1.2087913912e+00	-3.3295905633e+01
 2.3287853700e-01	 1.2131443212e+00	-3.4370433610e+01
 2.1129214350e-01	 1.2170896381e+00	-3.5406687731e+01
 3.2260220149e-01	 1.2046092848e+00	-2.7363665843e+01
 3.0069713847e-01	 1.2102631698e+00	-2.8855045886e+01
 2.7880367197e-01	 1.2154934067e+00	-3.0151597368e+01
 2.5693309059e-01	 1.2203036902e+00	-3.1316931025e+01
 2.3509642783e-01	 1.2246980767e+00	-3.2422942914e+01
 2.1330444963e-01	 1.2286809680e+00	-3.3549265804e+01
 3.2564561849e-01	 1.2159735233e+00	-2.5638409884e+01
 3.0353390393e-01	 1.2216807469e+00	-2.6921011131e+01
 2.8143389529e-01	 1.2269603257e+00	-2.8094284306e+01
 2.5935698767e-01	 1.2318159892e+00	-2.9213850065e+01
 2.3731431866e-01	 1.2362518321e+00	-3.0344494703e+01
 2.1531675576e-01	 1.2402722979e+00	-3.1559616572e+01
 3.2868903548e-01	 1.2273377618e+00	-2.3869129027e+01
 3.0637066938e-01	 1.2330983240e+00	-2.4916598988e+01
 2.8406411861e-01	 1.2384272446e+00	-2.5950743227e+01
 2.6178088475e-01	 1.2433282881e+00	-2.7016590948e+01
 2.3953220949e-01	 1.2478055875e+00	-2.8168597715e+01
 2.1732906189e-01	 1.2518636278e+00	-2.9470128716e+01
 3.3173245248e-01	 1.2387020004e+00	-2.2045698228e+01
 3.0920743484e-01	 1.2445159011e+00	-2.2849472298e+01
 2.8669434193e-01	 1.2498941635e+00	-2.3741535331e+01
 2.6420478183e-01	 1.2548405871e+00	-2.4753833915e+01
 2.4175010031e-01	 1.2593593430e+00	-2.5927392711e+01
 2.1934136802e-01	 1.2634549577e+00	-2.7311875723e+01
 3.3477586947e-01	 1.2500662389e+00	-2.0158180612e+01
 3.1204420030e-01	 1.2559334781e+00	-2.0726845422e+01
 2.8932456525e-01	 1.2613610825e+00	-2.1486314882e+01
 2.6662867892e-01	 1.2663528861e+00	-2.2453067972e+01
 2.4396799114e-01	 1.2709130984e+00	-2.3651714655e+01
 2.2135367415e-01	 1.2750462875e+00	-2.5114675670e+01
 2.1129214350e-01	 1.2170896381e+00	-3.5406687731e+01
 1.8976040113e-01	 1.2206320278e+00	-3.5415969895e+01
 1.6829341152e-01	 1.2237764848e+00	-3.3409821666e+01
 1.4690098074e-01	 1.2265282952e+00	-2.9471735655e+01
 1.2559261121e-01	 1.2288930194e+00	-2.3681238677e+01
 1.0437749469e-01	 1.2308764746e+00	-1.6114265750e+01
 2.1330444963e-01	 1.2286809680e+00	-3.3549265804e+01
 1.9156764304e-01	 1.2322570947e+00	-3.3656382494e+01
 1.6989620592e-01	 1.2354314989e+00	-3.1707040235e+01
 1.4830003770e-01	 1.2382095171e+00	-2.7787983502e+01
 1.2678873132e-01	 1.2405967624e+00	-2.1983850284e+01
 1.0537156607e-01	 1.2425991077e+00	-1.4377452048e+01
 2.1531675576e-01	 1.2402722979e+00	-3.1559616572e+01
 1.9337488496e-01	 1.2438821616e+00	-3.1769183617e+01
 1.7149900031e-01	 1.2470865131e+00	-2.9892729781e+01
 1.4969909466e-01	 1.2498907389e+00	-2.6023627327e+01
 1.2798485143e-01	 1.2523005055e+00	-2.0254742301e+01
 1.0636563745e-01	 1.2543217408e+00	-1.2678614378e+01
 2.1732906189e-01	 1.2518636278e+00	-2.9470128716e+01
 1.9518212688e-01	 1.2555072286e+00	-2.9782668921e+01
 1.7310179471e-01	 1.2587415272e+00	-2.7989684835e+01
 1.5109815162e-01	 1.2615719608e+00	-2.4194455446e+01
 1.2918097153e-01	 1.2640042485e+00	-1.8501100322e+01
 1.0735970882e-01	 1.2660443739e+00	-1.1014653307e+01
 2.1934136802e-01	 1.2634549577e+00	-2.7311875723e+01
 1.9698936879e-01	 1.2671322955e+00	-2.7723981027e+01
 1.7470458910e-01	 1.2703965414e+00	-2.6019760962e+01
 1.5249720858e-01	 1.2732531826e+00	-2.2315586719e+01
 1.3037709164e-01	 1.2757079916e+00	-1.6729768760e+01
 1.0835378020e-01	 1.2777670070e+00	-9.3825183848e+00
 2.2135367415e-01	 1.2750462875e+00	-2.5114675670e+01
 1.9879661071e-01	 1.2787573624e+00	-2.5619161929e+01
 1.7630738350e-01	 1.2820515555e+00	-2.4003917440e+01
 1.5389626554e-01	 1.2849344045e+00	-2.0401500983e+01
 1.3157321175e-01	 1.2874117346e+00	-1.4947266357e+01
 1.0934785158e-01	 1.2894896400e+00	-7.7792059129e+00
 1.0437749469e-01	 1.2308764746e+00	-1.6114265750e+01
 8.3264506264e-02	 1.2324847176e+00	-9.9620213764e+00
 6.2262199383e-02	 1.2337240273e+00	-8.1537272378e+00
 4.1378801824e-02	 1.2346008877e+00	-1.0377218891e+01
 2.0622212639e-02	 1.2351219703e+00	-1.6330299604e+01
 0.0000000000e+00	 1.2352941176e+00	-2.5720910340e+01
 1.0537156607e-01	 1.2425991077e+00	-1.4377452048e+01
 8.4057501562e-02	 1.2442226673e+00	-8.2013295142e+00
 6.2855172710e-02	 1.2454737800e+00	-6.4174285096e+00
 4.1772885651e-02	 1.2463589914e+00	-8.7042280018e+00
 2.0818614665e-02	 1.2468850367e+00	-1.4744340725e+01
 0.0000000000e+00	 1.2470588235e+00	-2.4225033059e+01
 1.0636563745e-01	 1.2543217408e+00	-1.2678614378e+01
 8.4850496860e-02	 1.2559606170e+00	-6.5399088659e+00
 6.3448146038e-02	 1.2572235326e+00	-4.7979191043e+00
 4.2166969478e-02	 1.2581170951e+00	-7.1162180294e+00
 2.1015016690e-02	 1.2586481030e+00	-1.3158045768e+01
 0.0000000000e+00	 1.2588235294e+00	-2.2587138066e+01
 1.0735970882e-01	 1.2660443739e+00	-1.1014653307e+01
 8.5643492158e-02	 1.2676985667e+00	-4.9685974694e+00
 6.4041119365e-02	 1.2689732853e+00	-3.2902353979e+00
 4.2561053305e-02	 1.2698751988e+00	-5.6227832747e+00
 2.1211418715e-02	 1.2704111694e+00	-1.1605999048e+01
 0.0000000000e+00	 1.2705882353e+00	-2.0877278860e+01
 1.0835378020e-01	 1.2777670070e+00	-9.3825183848e+00
 8.6436487455e-02	 1.2794365164e+00	-3.4785176640e+00
 6.4634092693e-02	 1.2807230379e+00	-1.8895569267e+00
 4.2955137132e-02	 1.2816333024e+00	-4.2331399444e+00
 2.1407820740e-02	 1.2821742358e+00	-1.0121502728e+01
 0.0000000000e+00	 1.2823529412e+00	-1.9162938170e+01
 1.0934785158e-01	 1.2894896400e+00	-7.7792059129e+00
 8.7229482753e-02	 1.2911744660e+00	-2.0610631668e+00
 6.5227066020e-02	 1.2924727905e+00	-5.9119987994e-01
 4.3349220959e-02	 1.2933914061e+00	-2.9561433375e+00
 2.1604222765e-02	 1.2939373022e+00	-8.7366351004e+00
 0.0000000000e+00	 1.2941176471e+00	-1.7509144807e+01
 1.2941176471e+00	 0.0000000000e+00	 3.5393061295e+01
 1.2939373022e+00	 2.1604222765e-02	 2.9152184730e+01
 1.2933914061e+00	 4.3349220959e-02	 2.4618633009e+01
 1.2924727905e+00	 6.5227066020e-02	 2.1631495209e+01
 1.2911744660e+00	 8.7229482753e-02	 2.0015047815e+01
 1.2894896400e+00	 1.0934785158e-01	 1.9578170750e+01
 1.3058823529e+00	 0.0000000000e+00	 3.7338088451e+01
 1.3057003686e+00	 2.1800624790e-02	 3.1214025506e+01
 1.3051495098e+00	 4.3743304786e-02	 2.6729342016e+01
 1.3042225432e+00	 6.5820039347e-02	 2.3712396009e+01
 1.3029124157e+00	 8.8022478051e-02	 2.1975163709e+01
 1.3012122731e+00	 1.1034192296e-01	 2.1312632947e+01
 1.3176470588e+00	 0.0000000000e+00	 3.9320397397e+01
 1.3174634350e+00	 2.1997026815e-02	 3.3369682759e+01
 1.3169076135e+00	 4.4137388613e-02	 2.8959051744e+01
 1.3159722958e+00	 6.6413012675e-02	 2.5912734345e+01
 1.3146503654e+00	 8.8815473349e-02	 2.4037435202e+01
 1.3129349062e+00	 1.1133599434e-01	 2.3121689201e+01
 1.3294117647e+00	 0.0000000000e+00	 4.1360747227e+01
 1.3292265013e+00	 2.2193428841e-02	 3.5631706836e+01
 1.3286657172e+00	 4.4531472440e-02	 3.1314242994e+01
 1.3277220485e+00	 6.7005986002e-02	 2.8234882123e+01
 1.3263883151e+00	 8.9608468646e-02	 2.6201898981e+01
 1.3246575393e+00	 1.1233006571e-01	 2.5004619433e+01
 1.3411764706e+00	 0.0000000000e+00	 4.3479168646e+01
 1.3409895677e+00	 2.2389830866e-02	 3.8012220129e+01
 1.3404238209e+00	 4.4925556267e-02	 3.3801194160e+01
 1.3394718011e+00	 6.7598959330e-02	 3.0681165744e+01
 1.3381262648e+00	 9.0401463944e-02	 2.8468641013e+01
 1.3363801724e+00	 1.1332413709e-01	 2.6960792332e+01
 1.3529411765e+00	 0.0000000000e+00	 4.5694995638e+01
 1.3527526341e+00	 2.2586232891e-02	 4.0522935687e+01
 1.3521819246e+00	 4.5319640093e-02	 3.6425990033e+01
 1.3512215537e+00	 6.8191932657e-02	 3.3253868081e+01
 1.3498642145e+00	 9.1194459242e-02	 3.0837794398e+01
 1.3481028055e+00	 1.1431820847e-01	 2.8989661496e+01
 1.2894896400e+00	 1.0934785158e-01	 1.9578170750e+01
 1.2874117346e+00	 1.3157321175e-01	 1.8987943888e+01
 1.2849344045e+00	 1.5389626554e-01	 1.7182023260e+01
 1.2820515555e+00	 1.7630738350e-01	 1.4370570401e+01
 1.2787573624e+00	 1.9879661071e-01	 1.0773546524e+01
 1.2750462875e+00	 2.2135367415e-01	 6.6207761208e+00
 1.3012122731e+00	 1.1034192296e-01	 2.1312632947e+01
 1.2991154776e+00	 1.3276933186e-01	 2.0445141740e+01
 1.2966156264e+00	 1.5529532250e-01	 1.8380610312e+01
 1.2937065696e+00	 1.7791017789e-01	 1.5340101726e+01
 1.2903824294e+00	 2.0060385262e-01	 1.1555108982e+01
 1.2866376174e+00	 2.2336598028e-01	 7.2675886357e+00
 1.3129349062e+00	 1.1133599434e-01	 2.3121689201e+01
 1.3108192207e+00	 1.3396545196e-01	 2.1951680594e+01
 1.3082968482e+00	 1.5669437946e-01	 1.9613064014e+01
 1.3053615838e+00	 1.7951297229e-01	 1.6337920943e+01
 1.3020074963e+00	 2.0241109454e-01	 1.2369471496e+01
 1.2982289473e+00	 2.2537828640e-01	 7.9620803902e+00
 1.3246575393e+00	 1.1233006571e-01	 2.5004619433e+01
 1.3225229637e+00	 1.3516157207e-01	 2.3507070463e+01
 1.3199780701e+00	 1.5809343642e-01	 2.0879654875e+01
 1.3170165979e+00	 1.8111576668e-01	 1.7365589863e+01
 1.3136325632e+00	 2.0421833645e-01	 1.3220016981e+01
 1.3098202772e+00	 2.2739059253e-01	 8.7099827487e+00
 1.3363801724e+00	 1.1332413709e-01	 2.6960792332e+01
 1.3342267068e+00	 1.3635769218e-01	 2.5110915060e+01
 1.3316592919e+00	 1.5949249338e-01	 2.2180733458e+01
 1.3286716121e+00	 1.8271856108e-01	 1.8424718087e+01
 1.3252576302e+00	 2.0602557837e-01	 1.4110125260e+01
 1.3214116071e+00	 2.2940289866e-01	 9.5169545406e+00
 1.3481028055e+00	 1.1431820847e-01	 2.8989661496e+01
 1.3459304498e+00	 1.3755381228e-01	 2.6762907720e+01
 1.3433405138e+00	 1.6089155034e-01	 2.3516726896e+01
 1.3403266262e+00	 1.8432135548e-01	 1.9516960924e+01
 1.3368826971e+00	 2.0783282028e-01	 1.5043173198e+01
 1.3330029370e+00	 2.3141520479e-01	 1.0388585214e+01
 1.2750462875e+00	 2.2135367415e-01	 6.6207761208e+00
 1.2709130984e+00	 2.4396799114e-01	 2.2115118443e+00
 1.2663528861e+00	 2.6662867892e-01	-2.3089923861e+00
 1.2613610825e+00	 2.8932456525e-01	-6.9347367966e+00
 1.2559334781e+00	 3.1204420030e-01	-1.1659930684e+01
 1.2500662389e+00	 3.3477586947e-01	-1.6478830284e+01
 1.2866376174e+00	 2.2336598028e-01	 7.2675886357e+00
 1.2824668539e+00	 2.4618588197e-01	 2.7623536346e+00
 1.2778651850e+00	 2.6905257600e-01	-1.8508688332e+00
 1.2728280014e+00	 2.9195478857e-01	-6.5853303539e+00
 1.2673510552e+00	 3.1488096575e-01	-1.1454657968e+01
 1.2614304774e+00	 3.3781928647e-01	-1.6472591116e+01
 1.2982289473e+00	 2.2537828640e-01	 7.9620803902e+00
 1.2940206093e+00	 2.4840377280e-01	 3.3846985120e+00
 1.2893774840e+00	 2.7147647308e-01	-1.2934248557e+00
 1.2842949203e+00	 2.9458501189e-01	-6.1098877036e+00
 1.2787686323e+00	 3.1771773121e-01	-1.1102999293e+01
 1.2727947160e+00	 3.4086270346e-01	-1.6311393537e+01
 1.3098202772e+00	 2.2739059253e-01	 8.7099827487e+00
 1.3055743647e+00	 2.5062166363e-01	 4.0865674028e+00
 1.3008897829e+00	 2.7390037016e-01	-6.2690646174e-01
 1.2957618393e+00	 2.9721523521e-01	-5.4973461462e+00
 1.2901862094e+00	 3.2055449667e-01	-1.0592871977e+01
 1.2841589545e+00	 3.4390612046e-01	-1.5982284772e+01
 1.3214116071e+00	 2.2940289866e-01	 9.5169545406e+00
 1.3171281202e+00	 2.5283955446e-01	 4.8758412320e+00
 1.3124020819e+00	 2.7632426724e-01	 1.5825227586e-01
 1.3072287582e+00	 2.9984545853e-01	-4.7368643782e+00
 1.3016037864e+00	 3.2339126213e-01	-9.9124381261e+00
 1.2955231930e+00	 3.4694953745e-01	-1.5472575191e+01
 1.3330029370e+00	 2.3141520479e-01	 1.0388585214e+01
 1.3286818756e+00	 2.5505744529e-01	 5.7602670108e+00
 1.3239143809e+00	 2.7874816432e-01	 1.0714373963e+00
 1.3186956771e+00	 3.0247568185e-01	-3.8178128655e+00
 1.3130213635e+00	 3.2622802758e-01	-9.0500939902e+00
 1.3068874316e+00	 3.4999295445e-01	-1.4769826866e+01
 1.2500662389e+00	 3.3477586947e-01	-1.6478830284e+01
 1.2437559226e+00	 3.5750760749e-01	-2.1369171190e+01
 1.2369994950e+00	 3.8022721351e-01	-2.0361741537e+01
 1.2297943450e+00	 4.0292226730e-01	-1.9712665525e+01
 1.2221382996e+00	 4.2558014658e-01	-1.9437759197e+01
 1.2140296374e+00	 4.4818804524e-01	-1.9556579278e+01
 1.2614304774e+00	 3.3781928647e-01	-1.6472591116e+01
 1.2550627946e+00	 3.6075767665e-01	-2.0709597273e+01
 1.2482449449e+00	 3.8368382454e-01	-1.9869938217e+01
 1.2409742936e+00	 4.0658519701e-01	-1.9390498421e+01
 1.2332486477e+00	 4.2944905700e-01	-1.9274817795e+01
 1.2250662705e+00	 4.5226248202e-01	-1.9529654463e+01
 1.2727947160e+00	 3.4086270346e-01	-1.6311393537e+01
 1.2663696667e+00	 3.6400774581e-01	-1.9891232999e+01
 1.2594903949e+00	 3.8714043557e-01	-1.9256578963e+01
 1.2521542422e+00	 4.1024812671e-01	-1.8982487308e+01
 1.2443589959e+00	 4.3331796742e-01	-1.9051950680e+01
 1.2361029036e+00	 4.5633691879e-01	-1.9450659433e+01
 1.2841589545e+00	 3.4390612046e-01	-1.5982284772e+01
 1.2776765387e+00	 3.6725781497e-01	-1.8912983031e+01
 1.2707358448e+00	 3.9059704660e-01	-1.8521067826e+01
 1.2633341908e+00	 4.1391105641e-01	-1.8489235777e+01
 1.2554693441e+00	 4.3718687785e-01	-1.8771881768e+01
 1.2471395366e+00	 4.6041135557e-01	-1.9325580655e+01
 1.2955231930e+00	 3.4694953745e-01	-1.5472575191e+01
 1.2889834107e+00	 3.7050788413e-01	-1.7774026506e+01
 1.2819812948e+00	 3.9405365764e-01	-1.7663077214e+01
 1.2745141393e+00	 4.1757398611e-01	-1.7911584474e+01
 1.2665796923e+00	 4.4105578827e-01	-1.8437507775e+01
 1.2581761697e+00	 4.6448579234e-01	-1.9160472381e+01
 1.3068874316e+00	 3.4999295445e-01	-1.4769826866e+01
 1.3002902827e+00	 3.7375795329e-01	-1.6473805106e+01
 1.2932267447e+00	 3.9751026867e-01	-1.6682536222e+01
 1.2856940879e+00	 4.2123691582e-01	-1.7250600788e+01
 1.2776900405e+00	 4.4492469869e-01	-1.8051890698e+01
 1.2692128028e+00	 4.6856022912e-01	-1.8961453709e+01
 1.2140296374e+00	 4.4818804524e-01	-1.9556579278e+01
 1.2054671020e+00	 4.7073299271e-01	-1.9684597808e+01
 1.1964499136e+00	 4.9320187415e-01	-1.9428973092e+01
 1.1869777804e+00	 5.1558145161e-01	-1.8806349258e+01
 1.1770509084e+00	 5.3785838597e-01	-1.7842712541e+01
 1.1666700104e+00	 5.6001925977e-01	-1.6573836791e+01
 1.2250662705e+00	 4.5226248202e-01	-1.9529654463e+01
 1.2164258938e+00	 4.7501238356e-01	-1.9773903033e+01
 1.2073267310e+00	 4.9768552755e-01	-1.9620421846e+01
 1.1977684875e+00	 5.2026855571e-01	-1.9077129167e+01
 1.1877513712e+00	 5.4274800766e-01	-1.8162717059e+01
 1.1772761014e+00	 5.6511034395e-01	-1.6907185198e+01
 1.2361029036e+00	 4.5633691879e-01	-1.9450659433e+01
 1.2273846857e+00	 4.7929177440e-01	-1.9800175018e+01
 1.2182035484e+00	 5.0216918096e-01	-1.9730342848e+01
 1.2085591946e+00	 5.2495565982e-01	-1.9250043462e+01
 1.1984518341e+00	 5.4763762935e-01	-1.8380134881e+01
 1.1878821924e+00	 5.7020142813e-01	-1.7154015767e+01
 1.2471395366e+00	 4.6041135557e-01	-1.9325580655e+01
 1.2383434775e+00	 4.8357116524e-01	-1.9772295141e+01
 1.2290803658e+00	 5.0665283436e-01	-1.9768307076e+01
 1.2193499017e+00	 5.2964276392e-01	-1.9332879597e+01
 1.2091522969e+00	 5.5252725104e-01	-1.8498232722e+01
 1.1984882834e+00	 5.7529251231e-01	-1.7310077820e+01
 1.2581761697e+00	 4.6448579234e-01	-1.9160472381e+01
 1.2493022693e+00	 4.8785055608e-01	-1.9699119763e+01
 1.2399571832e+00	 5.1113648776e-01	-1.9743844337e+01
 1.2301406088e+00	 5.3432986803e-01	-1.9333453718e+01
 1.2198527597e+00	 5.5741687273e-01	-1.8520471136e+01
 1.2090943744e+00	 5.8038359649e-01	-1.7371584018e+01
 1.2692128028e+00	 4.6856022912e-01	-1.8961453709e+01
 1.2602610612e+00	 4.9212994693e-01	-1.9589481310e+01
 1.2508340006e+00	 5.1562014116e-01	-1.9666445049e+01
 1.2409313159e+00	 5.3901697213e-01	-1.9259609423e+01
 1.2305532225e+00	 5.6230649443e-01	-1.8450496091e+01
 1.2197004654e+00	 5.8547468067e-01	-1.7335190223e+01
 1.1666700104e+00	 5.6001925977e-01	-1.6573836791e+01
 1.1558363131e+00	 5.8205060061e-01	-1.5142752521e+01
 1.1445515642e+00	 6.0393890529e-01	-1.3678970537e+01
 1.1328180366e+00	 6.2567066446e-01	-1.2210261044e+01
 1.1206385326e+00	 6.4723238776e-01	-1.0770778031e+01
 1.1080163856e+00	 6.6861062935e-01	-9.4011622393e+00
 1.1772761014e+00	 5.6511034395e-01	-1.6907185198e+01
 1.1663439160e+00	 5.8734196971e-01	-1.5440866911e+01
 1.1549565784e+00	 6.0942925898e-01	-1.3913935374e+01
 1.1431163824e+00	 6.3135857959e-01	-1.2399190990e+01
 1.1308261556e+00	 6.5311631856e-01	-1.0975045885e+01
 1.1180892618e+00	 6.7468890780e-01	-9.7253680345e+00
 1.1878821924e+00	 5.7020142813e-01	-1.7154015767e+01
 1.1768515188e+00	 5.9263333881e-01	-1.5688052072e+01
 1.1653615926e+00	 6.1491961266e-01	-1.4137168607e+01
 1.1534147282e+00	 6.3704649472e-01	-1.2606486663e+01
 1.1410137786e+00	 6.5900024936e-01	-1.1206467901e+01
 1.1281621381e+00	 6.8076718625e-01	-1.0052576206e+01
 1.1984882834e+00	 5.7529251231e-01	-1.7310077820e+01
 1.1873591217e+00	 5.9792470790e-01	-1.5872626514e+01
 1.1757666069e+00	 6.2040996634e-01	-1.4333129553e+01
 1.1637130740e+00	 6.4273440985e-01	-1.2816661664e+01
 1.1512014016e+00	 6.6488418016e-01	-1.1453859167e+01
 1.1382350143e+00	 6.8684546470e-01	-1.0380474964e+01
 1.2090943744e+00	 5.8038359649e-01	-1.7371584018e+01
 1.1978667245e+00	 6.0321607700e-01	-1.5983637753e+01
 1.1861716211e+00	 6.2590032003e-01	-1.4487146064e+01
 1.1740114198e+00	 6.4842232499e-01	-1.3015099522e+01
 1.1613890247e+00	 6.7076811095e-01	-1.1706756244e+01
 1.1483078905e+00	 6.9292374315e-01	-1.0707164296e+01
 1.2197004654e+00	 5.8547468067e-01	-1.7335190223e+01
 1.2083743274e+00	 6.0850744609e-01	-1.6010830616e+01
 1.1965766353e+00	 6.3139067371e-01	-1.4585376767e+01
 1.1843097655e+00	 6.5411024012e-01	-1.3188015875e+01
 1.1715766477e+00	 6.7665204175e-01	-1.1955385797e+01
 1.1583807668e+00	 6.9900202160e-01	-1.1031138060e+01
 1.1080163856e+00	 6.6861062935e-01	-9.4011622393e+00
 1.0949554613e+00	 6.8979201371e-01	-8.4618310513e+00
 1.0814601566e+00	 7.1076326164e-01	-8.4905307339e+00
 1.0675353974e+00	 7.3151121637e-01	-5.0992219896e+00
 1.0531866349e+00	 7.5202286968e-01	-1.4232486911e+00
 1.0384198400e+00	 7.7228538783e-01	 2.3394124379e+00
 1.1180892618e+00	 6.7468890780e-01	-9.7253680345e+00
 1.1049096019e+00	 6.9606285020e-01	-9.0255731945e+00
 1.0912916126e+00	 7.1722474583e-01	-8.6491905908e+00
 1.0772402647e+00	 7.3816131834e-01	-4.4681334971e+00
 1.0627610588e+00	 7.5885944122e-01	-9.3849619973e-01
 1.0478600204e+00	 7.7930616408e-01	 2.3988696198e+00
 1.1281621381e+00	 6.8076718625e-01	-1.0052576206e+01
 1.1148637424e+00	 7.0233368669e-01	-9.5348131639e+00
 1.1011230685e+00	 7.2368623003e-01	-8.0142785082e+00
 1.0869451319e+00	 7.4481142031e-01	-4.1769999390e+00
 1.0723354828e+00	 7.6569601276e-01	-3.3814009519e-01
 1.0573002008e+00	 7.8632694033e-01	 2.6510333310e+00
 1.1382350143e+00	 6.8684546470e-01	-1.0380474964e+01
 1.1248178830e+00	 7.0860452318e-01	-9.9975154374e+00
 1.1109545245e+00	 7.3014771423e-01	-7.4946810383e+00
 1.0966499992e+00	 7.5146152227e-01	-3.9409239726e+00
 1.0819099068e+00	 7.7253258431e-01	-3.1654020980e-01
 1.0667403811e+00	 7.9334771659e-01	 3.0748311971e+00
 1.1483078905e+00	 6.9292374315e-01	-1.0707164296e+01
 1.1347720235e+00	 7.1487535966e-01	-1.0329253478e+01
 1.1207859805e+00	 7.3660919842e-01	-7.0950218941e+00
 1.1063548664e+00	 7.5811162424e-01	-3.7696454626e+00
 1.0914843307e+00	 7.7936915585e-01	-3.1873726180e-01
 1.0761805615e+00	 8.0036849284e-01	 3.2956008869e+00
 1.1583807668e+00	 6.9900202160e-01	-1.1031138060e+01
 1.1447261641e+00	 7.2114619615e-01	-9.8478148784e+00
 1.1306174365e+00	 7.4307068262e-01	-6.8197060357e+00
 1.1160597337e+00	 7.6476172621e-01	-3.6725076071e+00
 1.1010587547e+00	 7.8620572739e-01	-3.5609140216e-01
 1.0856207419e+00	 8.0738926909e-01	 3.1839170011e+00
 1.0384198400e+00	 7.7228538783e-01	 2.3394124379e+00
 1.0232414969e+00	 7.9228613737e-01	 5.9187054391e+00
 1.0076585941e+00	 8.1201271059e-01	 9.3407495047e+00
 9.9167861502e-01	 8.3145295053e-01	 1.2764078278e+01
 9.7530952632e-01	 8.5059497547e-01	 1.6347490502e+01
 9.5855976519e-01	 8.6942720281e-01	 2.0249432476e+01
 1.0478600204e+00	 7.7930616408e-01	 2.3988696198e+00
 1.0325436923e+00	 7.9948873862e-01	 5.8211564498e+00
 1.0168191268e+00	 8.1939464433e-01	 9.3022811790e+00
 1.0006938752e+00	 8.3901161372e-01	 1.2920247126e+01
 9.8417597656e-01	 8.5832765707e-01	 1.6751412317e+01
 9.6727394487e-01	 8.7733108648e-01	 2.0870310883e+01
 1.0573002008e+00	 7.8632694033e-01	 2.6510333310e+00
 1.0418458877e+00	 8.0669133987e-01	 5.8802696839e+00
 1.0259796594e+00	 8.2677657806e-01	 9.3514796416e+00
 1.0097091353e+00	 8.4657027691e-01	 1.3080569771e+01
 9.9304242680e-01	 8.6606033866e-01	 1.7080095534e+01
 9.7598812455e-01	 8.8523497014e-01	 2.1359422778e+01
 1.0667403811e+00	 7.9334771659e-01	 3.0748311971e+00
 1.0511480832e+00	 8.1389394112e-01	 6.0793253009e+00
 1.0351401921e+00	 8.3415851179e-01	 9.4773227942e+00
 1.0187243954e+00	 8.5412894009e-01	 1.3240583206e+01
 1.0019088770e+00	 8.7379302026e-01	 1.7336009550e+01
 9.8470230424e-01	 8.9313885380e-01	 2.1726052568e+01
 1.0761805615e+00	 8.0036849284e-01	 3.2956008869e+00
 1.0604502786e+00	 8.2109654237e-01	 6.4018980394e+00
 1.0443007248e+00	 8.4154044553e-01	 9.6688904284e+00
 1.0277396556e+00	 8.6168760328e-01	 1.3395704118e+01
 1.0107753273e+00	 8.8152570185e-01	 1.7521268829e+01
 9.9341648392e-01	 9.0104273746e-01	 2.1978899845e+01
 1.0856207419e+00	 8.0738926909e-01	 3.1839170011e+00
 1.0697524740e+00	 8.2829914362e-01	 6.8318444093e+00
 1.0534612575e+00	 8.4892237926e-01	 9.9153597956e+00
 1.0367549157e+00	 8.6924626647e-01	 1.3541234119e+01
 1.0196417775e+00	 8.8925838345e-01	 1.7637648335e+01
 1.0021306636e+00	 9.0894662112e-01	 2.2126104818e+01
 9.5855976519e-01	 8.6942720281e-01	 2.0249432476e+01
 9.4143822505e-01	 8.8793837221e-01	 2.4765152876e+01
 9.2395423999e-01	 9.0611756788e-01	 2.9824674586e+01
 9.0611756788e-01	 9.2395423999e-01	 3.5032137837e+01
 8.8793837221e-01	 9.4143822505e-01	 3.9985938192e+01
 8.6942720281e-01	 9.5855976519e-01	 4.4281324405e+01
 9.6727394487e-01	 8.7733108648e-01	 2.0870310883e+01
 9.4999675437e-01	 8.9601053923e-01	 2.5490443407e+01
 9.3235382399e-01	 9.1435500032e-01	 3.0546811146e+01
 9.1435500032e-01	 9.3235382399e-01	 3.5690465640e+01
 8.9601053923e-01	 9.4999675437e-01	 4.0568605310e+01
 8.7733108648e-01	 9.6727394487e-01	 4.4826916185e+01
 9.7598812455e-01	 8.8523497014e-01	 2.1359422778e+01
 9.5855528368e-01	 9.0408270625e-01	 2.6070323985e+01
 9.4075340799e-01	 9.2259243275e-01	 3.1149398096e+01
 9.2259243275e-01	 9.4075340799e-01	 3.6277747545e+01
 9.0408270625e-01	 9.5855528368e-01	 4.1133890562e+01
 8.8523497014e-01	 9.7598812455e-01	 4.5395940302e+01
 9.8470230424e-01	 8.9313885380e-01	 2.1726052568e+01
 9.6711381300e-01	 9.1215487327e-01	 2.6518499318e+01
 9.4915299199e-01	 9.3082986519e-01	 3.1646504189e+01
 9.3082986519e-01	 9.4915299199e-01	 3.6804801019e+01
 9.1215487327e-01	 9.6711381300e-01	 4.1686196658e+01
 8.9313885380e-01	 9.8470230424e-01	 4.5983682633e+01
 9.9341648392e-01	 9.0104273746e-01	 2.1978899845e+01
 9.7567234232e-01	 9.2022704029e-01	 2.6847944022e+01
 9.5755257599e-01	 9.3906729763e-01	 3.2051465658e+01
 9.3906729763e-01	 9.5755257599e-01	 3.7281835901e+01
 9.2022704029e-01	 9.7567234232e-01	 4.2229554992e+01
 9.0104273746e-01	 9.9341648392e-01	 4.6585389213e+01
 1.0021306636e+00	 9.0894662112e-01	 2.2126104818e+01
 9.8423087164e-01	 9.2829920731e-01	 2.7070934363e+01
 9.6595215999e-01	 9.4730473006e-01	 3.2376918061e+01
 9.4730473006e-01	 9.6595215999e-01	 3.7718480821e+01
 9.2829920731e-01	 9.8423087164e-01	 4.2767641785e+01
 9.0894662112e-01	 1.0021306636e+00	 4.7196267970e+01
 8.6942720281e-01	 9.5855976519e-01	 4.4281324405e+01
 8.5059497547e-01	 9.7530952632e-01	 4.7630887646e+01
 8.3145295053e-01	 9.9167861502e-01	 5.0079258606e+01
 8.1201271059e-01	 1.0076585941e+00	 5.1718706413e+01
 7.9228613737e-01	 1.0232414969e+00	 5.2641025695e+01
 7.7228538783e-01	 1.0384198400e+00	 5.2937373257e+01
 8.7733108648e-01	 9.6727394487e-01	 4.4826916185e+01
 8.5832765707e-01	 9.8417597656e-01	 4.8203925485e+01
 8.3901161372e-01	 1.0006938752e+00	 5.0707487307e+01
 8.1939464433e-01	 1.0168191268e+00	 5.2385327355e+01
 7.9948873862e-01	 1.0325436923e+00	 5.3282266367e+01
 7.7930616408e-01	 1.0478600204e+00	 5.3440326655e+01
 8.8523497014e-01	 9.7598812455e-01	 4.5395940302e+01
 8.6606033866e-01	 9.9304242680e-01	 4.8804904545e+01
 8.4657027691e-01	 1.0097091353e+00	 5.1329271059e+01
 8.2677657806e-01	 1.0259796594e+00	 5.2985963275e+01
 8.0669133987e-01	 1.0418458877e+00	 5.3787555136e+01
 7.8632694033e-01	 1.0573002008e+00	 5.3742560672e+01
 8.9313885380e-01	 9.8470230424e-01	 4.5983682633e+01
 8.7379302026e-01	 1.0019088770e+00	 4.9422176854e+01
 8.5412894009e-01	 1.0187243954e+00	 5.1932543195e+01
 8.3415851179e-01	 1.0351401921e+00	 5.3514268491e+01
 8.1389394112e-01	 1.0511480832e+00	 5.4162014206e+01
 7.9334771659e-01	 1.0667403811e+00	 5.3866003529e+01
 9.0104273746e-01	 9.9341648392e-01	 4.6585389213e+01
 8.8152570185e-01	 1.0107753273e+00	 5.0044309783e+01
 8.6168760328e-01	 1.0277396556e+00	 5.2505479210e+01
 8.4154044553e-01	 1.0443007248e+00	 5.3963951058e+01
 8.2109654237e-01	 1.0604502786e+00	 5.4410429567e+01
 8.0036849284e-01	 1.0761805615e+00	 5.3752386251e+01
 9.0894662112e-01	 1.0021306636e+00	 4.7196267970e+01
 8.8925838345e-01	 1.0196417775e+00	 5.0660076683e+01
 8.6924626647e-01	 1.0367549157e+00	 5.3036486234e+01
 8.4892237926e-01	 1.0534612575e+00	 5.4328770436e+01
 8.2829914362e-01	 1.0697524740e+00	 5.4537265616e+01
 8.0738926909e-01	 1.0856207419e+00	 5.3337211671e+01
 7.7228538783e-01	 1.0384198400e+00	 5.2937373257e+01
 7.5202286968e-01	 1.0531866349e+00	 5.2042036563e+01
 7.3151121637e-01	 1.0675353974e+00	 4.9099564150e+01
 7.1076326164e-01	 1.0814601566e+00	 4.5692196251e+01
 6.8979201371e-01	 1.0949554613e+00	 4.2779476852e+01
 6.6861062935e-01	 1.1080163856e+00	 4.0025560989e+01
 7.7930616408e-01	 1.0478600204e+00	 5.3440326655e+01
 7.5885944122e-01	 1.0627610588e+00	 5.2244713474e+01
 7.3816131834e-01	 1.0772402647e+00	 4.9520299339e+01
 7.1722474583e-01	 1.0912916126e+00	 4.6542126628e+01
 6.9606285020e-01	 1.1049096019e+00	 4.3395697558e+01
 6.7468890780e-01	 1.1180892618e+00	 4.0420313545e+01
 7.8632694033e-01	 1.0573002008e+00	 5.3742560672e+01
 7.6569601276e-01	 1.0723354828e+00	 5.2267460836e+01
 7.4481142031e-01	 1.0869451319e+00	 5.0103808633e+01
 7.2368623003e-01	 1.1011230685e+00	 4.7161757400e+01
 7.0233368669e-01	 1.1148637424e+00	 4.3824297976e+01
 6.8076718625e-01	 1.1281621381e+00	 4.0768862957e+01
 7.9334771659e-01	 1.0667403811e+00	 5.3866003529e+01
 7.7253258431e-01	 1.0819099068e+00	 5.2472200183e+01
 7.5146152227e-01	 1.0966499992e+00	 5.0404456476e+01
 7.3014771423e-01	 1.1109545245e+00	 4.7565687969e+01
 7.0860452318e-01	 1.1248178830e+00	 4.4085010581e+01
 6.8684546470e-01	 1.1382350143e+00	 4.1064571303e+01
 8.0036849284e-01	 1.0761805615e+00	 5.3752386251e+01
 7.7936915585e-01	 1.0914843307e+00	 5.2399151918e+01
 7.5811162424e-01	 1.1063548664e+00	 5.0458993976e+01
 7.3660919842e-01	 1.1207859805e+00	 4.7783764754e+01
 7.1487535966e-01	 1.1347720235e+00	 4.4227254208e+01
 6.9292374315e-01	 1.1483078905e+00	 4.1301078136e+01
 8.0738926909e-01	 1.0856207419e+00	 5.3337211671e+01
 7.8620572739e-01	 1.1010587547e+00	 5.2080785949e+01
 7.6476172621e-01	 1.1160597337e+00	 5.0302736094e+01
 7.4307068262e-01	 1.1306174365e+00	 4.7844636406e+01
 7.2114619615e-01	 1.1447261641e+00	 4.4549745749e+01
 6.9900202160e-01	 1.1583807668e+00	 4.1472288419e+01
 6.6861062935e-01	 1.1080163856e+00	 4.0025560989e+01
 6.4723238776e-01	 1.1206385326e+00	 3.7041056286e+01
 6.2567066446e-01	 1.1328180366e+00	 3.3677545362e+01
 6.0393890529e-01	 1.1445515642e+00	 2.9920030186e+01
 5.8205060061e-01	 1.1558363131e+00	 2.5782036155e+01
 5.6001925977e-01	 1.1666700104e+00	 2.1305099752e+01
 6.7468890780e-01	 1.1180892618e+00	 4.0420313545e+01
 6.5311631856e-01	 1.1308261556e+00	 3.7306984356e+01
 6.3135857959e-01	 1.1431163824e+00	 3.3977845951e+01
 6.0942925898e-01	 1.1549565784e+00	 3.0394484636e+01
 5.8734196971e-01	 1.1663439160e+00	 2.6540143832e+01
 5.6511034395e-01	 1.1772761014e+00	 2.2419515833e+01
 6.8076718625e-01	 1.1281621381e+00	 4.0768862957e+01
 6.5900024936e-01	 1.1410137786e+00	 3.7643527964e+01
 6.3704649472e-01	 1.1534147282e+00	 3.4406119143e+01
 6.1491961266e-01	 1.1653615926e+00	 3.1000453080e+01
 5.9263333881e-01	 1.1768515188e+00	 2.7387039486e+01
 5.7020142813e-01	 1.1878821924e+00	 2.3543098596e+01
 6.8684546470e-01	 1.1382350143e+00	 4.1064571303e+01
 6.6488418016e-01	 1.1512014016e+00	 3.8019269353e+01
 6.4273440985e-01	 1.1637130740e+00	 3.4918573430e+01
 6.2040996634e-01	 1.1757666069e+00	 3.1693977544e+01
 5.9792470790e-01	 1.1873591217e+00	 2.8290573494e+01
 5.7529251231e-01	 1.1984882834e+00	 2.4667216712e+01
 6.9292374315e-01	 1.1483078905e+00	 4.1301078136e+01
 6.7076811095e-01	 1.1613890247e+00	 3.8403944730e+01
 6.4842232499e-01	 1.1740114198e+00	 3.5473011996e+01
 6.2590032003e-01	 1.1861716211e+00	 3.2432706652e+01
 6.0321607700e-01	 1.1978667245e+00	 2.9219794045e+01
 5.8038359649e-01	 1.2090943744e+00	 2.5783616459e+01
 6.9900202160e-01	 1.1583807668e+00	 4.1472288419e+01
 6.7665204175e-01	 1.1715766477e+00	 3.8768394098e+01
 6.5411024012e-01	 1.1843097655e+00	 3.6028763385e+01
 6.3139067371e-01	 1.1965766353e+00	 3.3175825777e+01
 6.0850744609e-01	 1.2083743274e+00	 3.0144895069e+01
 5.8547468067e-01	 1.2197004654e+00	 2.6884405303e+01
 5.6001925977e-01	 1.1666700104e+00	 2.1305099752e+01
 5.3785838597e-01	 1.1770509084e+00	 1.6834700158e+01
 5.1558145161e-01	 1.1869777804e+00	 1.2587352375e+01
 4.9320187415e-01	 1.1964499136e+00	 8.4347602620e+00
 4.7073299271e-01	 1.2054671020e+00	 4.2531813325e+00
 4.4818804524e-01	 1.2140296374e+00	-7.5929622478e-02
 5.6511034395e-01	 1.1772761014e+00	 2.2419515833e+01
 5.4274800766e-01	 1.1877513712e+00	 1.8283759937e+01
 5.2026855571e-01	 1.1977684875e+00	 1.4287038767e+01
 4.9768552755e-01	 1.2073267310e+00	 1.0311651495e+01
 4.7501238356e-01	 1.2164258938e+00	 6.2499005465e+00
 4.5226248202e-01	 1.2250662705e+00	 2.0045055410e+00
 5.7020142813e-01	 1.1878821924e+00	 2.3543098596e+01
 5.4763762935e-01	 1.1984518341e+00	 1.9667595777e+01
 5.2495565982e-01	 1.2085591946e+00	 1.5886466437e+01
 5.0216918096e-01	 1.2182035484e+00	 1.2090043673e+01
 4.7929177440e-01	 1.2273846857e+00	 8.1824953561e+00
 4.5633691879e-01	 1.2361029036e+00	 4.0820732569e+00
 5.7529251231e-01	 1.1984882834e+00	 2.4667216712e+01
 5.5252725104e-01	 1.2091522969e+00	 2.1001418831e+01
 5.2964276392e-01	 1.2193499017e+00	 1.7413883890e+01
 5.0665283436e-01	 1.2290803658e+00	 1.3800535991e+01
 4.8357116524e-01	 1.2383434775e+00	 1.0073376242e+01
 4.6041135557e-01	 1.2471395366e+00	 6.1606309031e+00
 5.8038359649e-01	 1.2090943744e+00	 2.5783616459e+01
 5.5741687273e-01	 1.2198527597e+00	 2.2299985705e+01
 5.3432986803e-01	 1.2301406088e+00	 1.8896631454e+01
 5.1113648776e-01	 1.2399571832e+00	 1.5472740198e+01
 4.8785055608e-01	 1.2493022693e+00	 1.1944256156e+01
 4.6448579234e-01	 1.2581761697e+00	 8.2439912624e+00
 5.8547468067e-01	 1.2197004654e+00	 2.6884405303e+01
 5.6230649443e-01	 1.2305532225e+00	 2.3577618210e+01
 5.3901697213e-01	 1.2409313159e+00	 2.0361180770e+01
 5.1562014116e-01	 1.2508340006e+00	 1.7135323538e+01
 4.9212994693e-01	 1.2602610612e+00	 1.3816180846e+01
 4.6856022912e-01	 1.2692128028e+00	 1.0335924461e+01
 4.4818804524e-01	 1.2140296374e+00	-7.5929622478e-02
 4.2558014658e-01	 1.2221382996e+00	-4.6204050900e+00
 4.0292226730e-01	 1.2297943450e+00	-9.4009150002e+00
 3.8022721351e-01	 1.2369994950e+00	-1.4450792546e+01
 3.5750760749e-01	 1.2437559226e+00	-1.9790001959e+01
 3.3477586947e-01	 1.2500662389e+00	-2.0158180612e+01
 4.5226248202e-01	 1.2250662705e+00	 2.0045055410e+00
 4.2944905700e-01	 1.2332486477e+00	-2.4566319310e+00
 4.0658519701e-01	 1.2409742936e+00	-7.1375085820e+00
 3.8368382454e-01	 1.2482449449e+00	-1.2077069807e+01
 3.6075767665e-01	 1.2550627946e+00	-1.7303526712e+01
 3.3781928647e-01	 1.2614304774e+00	-1.8194433561e+01
 4.5633691879e-01	 1.2361029036e+00	 4.0820732569e+00
 4.3331796742e-01	 1.2443589959e+00	-2.3512873506e-01
 4.1024812671e-01	 1.2521542422e+00	-4.7784918871e+00
 3.8714043557e-01	 1.2594903949e+00	-9.5903715074e+00
 3.6400774581e-01	 1.2663696667e+00	-1.4703953812e+01
 3.4086270346e-01	 1.2727947160e+00	-1.6162846348e+01
 4.6041135557e-01	 1.2471395366e+00	 6.1606309031e+00
 4.3718687785e-01	 1.2554693441e+00	 2.0280349698e+00
 4.1391105641e-01	 1.2633341908e+00	-2.3524358548e+00
 3.9059704660e-01	 1.2707358448e+00	-7.0244505811e+00
 3.6725781497e-01	 1.2776765387e+00	-1.2023023245e+01
 3.4390612046e-01	 1.2841589545e+00	-1.4083727061e+01
 4.6448579234e-01	 1.2581761697e+00	 8.2439912624e+00
 4.4105578827e-01	 1.2665796923e+00	 4.3174455507e+00
 4.1757398611e-01	 1.2745141393e+00	 1.1318376217e-01
 3.9405365764e-01	 1.2819812948e+00	-4.4117829630e+00
 3.7050788413e-01	 1.2889834107e+00	-9.2912693038e+00
 3.4694953745e-01	 1.2955231930e+00	-1.1976497519e+01
 4.6856022912e-01	 1.2692128028e+00	 1.0335924461e+01
 4.4492469869e-01	 1.2776900405e+00	 6.6183167523e+00
 4.2123691582e-01	 1.2856940879e+00	 2.5919387803e+00
 3.9751026867e-01	 1.2932267447e+00	-1.7836231125e+00
 3.7375795329e-01	 1.3002902827e+00	-6.5380730082e+00
 3.4999295445e-01	 1.3068874316e+00	-9.8597318136e+00
 3.3477586947e-01	 1.2500662389e+00	-2.0158180612e+01
 3.1204420030e-01	 1.2559334781e+00	-2.0726845422e+01
 2.8932456525e-01	 1.2613610825e+00	-2.1486314882e+01
 2.6662867892e-01	 1.2663528861e+00	-2.2453067972e+01
 2.4396799114e-01	 1.2709130984e+00	-2.3651714655e+01
 2.2135367415e-01	 1.2750462875e+00	-2.5114675670e+01
 3.3781928647e-01	 1.2614304774e+00	-1.8194433561e+01
 3.1488096575e-01	 1.2673510552e+00	-1.8549770534e+01
 2.9195478857e-01	 1.2728280014e+00	-1.9190123318e+01
 2.6905257600e-01	 1.2778651850e+00	-2.0117462390e+01
 2.4618588197e-01	 1.2824668539e+00	-2.1340841875e+01
 2.2336598028e-01	 1.2866376174e+00	-2.2876198667e+01
 3.4086270346e-01	 1.2727947160e+00	-1.6162846348e+01
 3.1771773121e-01	 1.2787686323e+00	-1.6321480950e+01
 2.9458501189e-01	 1.2842949203e+00	-1.6847255916e+01
 2.7147647308e-01	 1.2893774840e+00	-1.7731773020e+01
 2.4840377280e-01	 1.2940206093e+00	-1.8973057705e+01
 2.2537828640e-01	 1.2982289473e+00	-2.0575439497e+01
 3.4390612046e-01	 1.2841589545e+00	-1.4083727061e+01
 3.2055449667e-01	 1.2901862094e+00	-1.4051744838e+01
 2.9721523521e-01	 1.2957618393e+00	-1.4460399516e+01
 2.7390037016e-01	 1.3008897829e+00	-1.5294925854e+01
 2.5062166363e-01	 1.3055743647e+00	-1.6546703347e+01
 2.2739059253e-01	 1.3098202772e+00	-1.8213180494e+01
 3.4694953745e-01	 1.2955231930e+00	-1.1976497519e+01
 3.2339126213e-01	 1.3016037864e+00	-1.1749823749e+01
 2.9984545853e-01	 1.3072287582e+00	-1.2031993016e+01
 2.7632426724e-01	 1.3124020819e+00	-1.2805741457e+01
 2.5283955446e-01	 1.3171281202e+00	-1.4060045974e+01
 2.2940289866e-01	 1.3214116071e+00	-1.5790055472e+01
 3.4999295445e-01	 1.3068874316e+00	-9.8597318136e+00
 3.2622802758e-01	 1.3130213635e+00	-9.4244946463e+00
 3.0247568185e-01	 1.3186956771e+00	-9.5642381518e+00
 2.7874816432e-01	 1.3239143809e+00	-1.0262939555e+01
 2.5505744529e-01	 1.3286818756e+00	-1.1511281947e+01
 2.3141520479e-01	 1.3330029370e+00	-1.3306556190e+01
 2.2135367415e-01	 1.2750462875e+00	-2.5114675670e+01
 1.9879661071e-01	 1.2787573624e+00	-2.5619161929e+01
 1.7630738350e-01	 1.2820515555e+00	-2.4003917440e+01
 1.5389626554e-01	 1.2849344045e+00	-2.0401500983e+01
 1.3157321175e-01	 1.2874117346e+00	-1.4947266357e+01
 1.0934785158e-01	 1.2894896400e+00	-7.7792059129e+00
 2.2336598028e-01	 1.2866376174e+00	-2.2876198667e+01
 2.0060385262e-01	 1.2903824294e+00	-2.3470610762e+01
 1.7791017789e-01	 1.2937065696e+00	-2.1953269524e+01
 1.5529532250e-01	 1.2966156264e+00	-1.8471222574e+01
 1.3276933186e-01	 1.2991154776e+00	-1.3175191391e+01
 1.1034192296e-01	 1.3012122731e+00	-6.2193028186e+00
 2.2537828640e-01	 1.2982289473e+00	-2.0575439497e+01
 2.0241109454e-01	 1.3020074963e+00	-2.1267389462e+01
 1.7951297229e-01	 1.3053615838e+00	-1.9872314323e+01
 1.5669437946e-01	 1.3082968482e+00	-1.6545428788e+01
 1.3396545196e-01	 1.3108192207e+00	-1.1446782273e+01
 1.1133599434e-01	 1.3129349062e+00	-4.7408960978e+00
 2.2739059253e-01	 1.3098202772e+00	-1.8213180494e+01
 2.0421833645e-01	 1.3136325632e+00	-1.9014516680e+01
 1.8111576668e-01	 1.3170165979e+00	-1.7771086298e+01
 1.5809343642e-01	 1.3199780701e+00	-1.4640113914e+01
 1.3516157207e-01	 1.3225229637e+00	-9.7850961609e+00
 1.1233006571e-01	 1.3246575393e+00	-3.3753621005e+00
 2.2940289866e-01	 1.3214116071e+00	-1.5790055472e+01
 2.0602557837e-01	 1.3252576302e+00	-1.6716725340e+01
 1.8271856108e-01	 1.3286716121e+00	-1.5659169849e+01
 1.5949249338e-01	 1.3316592919e+00	-1.2770624918e+01
 1.3635769218e-01	 1.3342267068e+00	-8.2123071017e+00
 1.1332413709e-01	 1.3363801724e+00	-2.1529143324e+00
 2.3141520479e-01	 1.3330029370e+00	-1.3306556190e+01
 2.0783282028e-01	 1.3368826971e+00	-1.4378475058e+01
 1.8432135548e-01	 1.3403266262e+00	-1.3545718881e+01
 1.6089155034e-01	 1.3433405138e+00	-1.0951689594e+01
 1.3755381228e-01	 1.3459304498e+00	-6.7497444260e+00
 1.1431820847e-01	 1.3481028055e+00	-1.1026540133e+00
 1.0934785158e-01	 1.2894896400e+00	-7.7792059129e+00
 8.7229482753e-02	 1.2911744660e+00	-2.0610631668e+00
 6.5227066020e-02	 1.2924727905e+00	-5.9119987994e-01
 4.3349220959e-02	 1.2933914061e+00	-2.9561433375e+00
 2.1604222765e-02	 1.2939373022e+00	-8.7366351004e+00
 0.0000000000e+00	 1.2941176471e+00	-1.7509144807e+01
 1.1034192296e-01	 1.3012122731e+00	-6.2193028186e+00
 8.8022478051e-02	 1.3029124157e+00	-7.1608646893e-01
 6.5820039347e-02	 1.3042225432e+00	 6.1683480833e-01
 4.3743304786e-02	 1.3051495098e+00	-1.7788349973e+00
 2.1800624790e-02	 1.3057003686e+00	-7.4549753409e+00
 0.0000000000e+00	 1.3058823529e+00	-1.5958746645e+01
 1.1133599434e-01	 1.3129349062e+00	-4.7408960978e+00
 8.8815473349e-02	 1.3146503654e+00	 5.2633809470e-01
 6.6413012675e-02	 1.3159722958e+00	 1.7220124518e+00
 4.4137388613e-02	 1.3169076135e+00	-6.9447805625e-01
 2.1997026815e-02	 1.3174634350e+00	-6.2552077293e+00
 0.0000000000e+00	 1.3176470588e+00	-1.4485628764e+01
 1.1233006571e-01	 1.3246575393e+00	-3.3753621005e+00
 8.9608468646e-02	 1.3263883151e+00	 1.6303057153e+00
 6.7005986002e-02	 1.3277220485e+00	 2.6930009589e+00
 4.4531472440e-02	 1.3286657172e+00	 2.7949539290e-01
 2.2193428841e-02	 1.3292265013e+00	-5.1313375136e+00
 0.0000000000e+00	 1.3294117647e+00	-1.3050669235e+01
 1.1332413709e-01	 1.3363801724e+00	-2.1529143324e+00
 9.0401463944e-02	 1.3381262648e+00	 2.5612210426e+00
 6.7598959330e-02	 1.3394718011e+00	 3.4996048904e+00
 4.4925556267e-02	 1.3404238209e+00	 1.1262897785e+00
 2.2389830866e-02	 1.3409895677e+00	-4.0775678511e+00
 0.0000000000e+00	 1.3411764706e+00	-1.1616118824e+01
 1.1431820847e-01	 1.3481028055e+00	-1.1026540133e+00
 9.1194459242e-02	 1.3498642145e+00	 3.2857412519e+00
 6.8191932657e-02	 1.3512215537e+00	 4.1127160401e+00
 4.5319640093e-02	 1.3521819246e+00	 1.8297183754e+00
 2.2586232891e-02	 1.3527526341e+00	-3.0882912037e+00
 0.0000000000e+00	 1.3529411765e+00	-1.0145541317e+01
 1.3529411765e+00	 0.0000000000e+00	 4.5694995638e+01
 1.3527526341e+00	 2.2586232891e-02	 4.0522935687e+01
 1.3521819246e+00	 4.5319640093e-02	 3.6425990033e+01
 1.3512215537e+00	 6.8191932657e-02	 3.3253868081e+01
 1.3498642145e+00	 9.1194459242e-02	 3.0837794398e+01
 1.3481028055e+00	 1.1431820847e-01	 2.8989661496e+01
 1.3647058824e+00	 0.0000000000e+00	 4.7934043412e+01
 1.3645157005e+00	 2.2782634916e-02	 4.3096159250e+01
 1.3639400283e+00	 4.5713723920e-02	 3.9128682818e+01
 1.3629713064e+00	 6.8784905985e-02	 3.5902558975e+01
 1.3616021642e+00	 9.1987454540e-02	 3.3270479313e+01
 1.3598254386e+00	 1.1531227985e-01	 3.1065924050e+01
 1.3764705882e+00	 0.0000000000e+00	 5.0109768968e+01
 1.3762787669e+00	 2.2979036941e-02	 4.5662387991e+01
 1.3756981320e+00	 4.6107807747e-02	 4.1855406729e+01
 1.3747210590e+00	 6.9377879312e-02	 3.8588096504e+01
 1.3733401139e+00	 9.2780449837e-02	 3.5741606463e+01
 1.3715480717e+00	 1.1630635123e-01	 3.3177852375e+01
 1.3882352941e+00	 0.0000000000e+00	 5.2222457183e+01
 1.3880418333e+00	 2.3175438966e-02	 4.8230113482e+01
 1.3874562357e+00	 4.6501891574e-02	 4.4620864454e+01
 1.3864708117e+00	 6.9970852640e-02	 4.1329204000e+01
 1.3850780636e+00	 9.3573445135e-02	 3.8271535335e+01
 1.3832707048e+00	 1.1730042260e-01	 3.5344865067e+01
 1.4000000000e+00	 0.0000000000e+00	 5.4272383360e+01
 1.3998048996e+00	 2.3371840991e-02	 5.0807553752e+01
 1.3992143394e+00	 4.6895975401e-02	 4.7439288417e+01
 1.3982205643e+00	 7.0563825967e-02	 4.4144011572e+01
 1.3968160133e+00	 9.4366440433e-02	 4.0879989502e+01
 1.3949933379e+00	 1.1829449398e-01	 3.7585788828e+01
 1.4117647059e+00	 0.0000000000e+00	 5.6259813624e+01
 1.4115679660e+00	 2.3568243017e-02	 5.3402664688e+01
 1.4109724431e+00	 4.7290059228e-02	 5.0324460368e+01
 1.4099703170e+00	 7.1156799295e-02	 4.7050080823e+01
 1.4085539630e+00	 9.5159435731e-02	 4.3586083120e+01
 1.4067159710e+00	 1.1928856536e-01	 3.9918883135e+01
 1.3481028055e+00	 1.1431820847e-01	 2.8989661496e+01
 1.3459304498e+00	 1.3755381228e-01	 2.6762907720e+01
 1.3433405138e+00	 1.6089155034e-01	 2.3516726896e+01
 1.3403266262e+00	 1.8432135548e-01	 1.9516960924e+01
 1.3368826971e+00	 2.0783282028e-01	 1.5043173198e+01
 1.3330029370e+00	 2.3141520479e-01	 1.0388585214e+01
 1.3598254386e+00	 1.1531227985e-01	 3.1065924050e+01
 1.3576341928e+00	 1.3874993239e-01	 2.8452481621e+01
 1.3550217357e+00	 1.6229060730e-01	 2.4890229814e+01
 1.3519816403e+00	 1.8592414987e-01	 2.0653350545e+01
 1.3485077640e+00	 2.0964006220e-01	 1.6030583270e+01
 1.3445942669e+00	 2.3342751092e-01	 1.1325151561e+01
 1.3715480717e+00	 1.1630635123e-01	 3.3177852375e+01
 1.3693379359e+00	 1.3994605250e-01	 3.0180532881e+01
 1.3667029575e+00	 1.6368966426e-01	 2.6312178836e+01
 1.3636366545e+00	 1.8752694427e-01	 2.1849227796e+01
 1.3601328310e+00	 2.1144730412e-01	 1.7083241487e+01
 1.3561855967e+00	 2.3543981705e-01	 1.2320841724e+01
 1.3832707048e+00	 1.1730042260e-01	 3.5344865067e+01
 1.3810416789e+00	 1.4114217260e-01	 3.1963638569e+01
 1.3783841794e+00	 1.6508872122e-01	 2.7795304021e+01
 1.3752916686e+00	 1.8912973866e-01	 2.3112611188e+01
 1.3717578979e+00	 2.1325454603e-01	 1.8203736301e+01
 1.3677769266e+00	 2.3745212318e-01	 1.3372246470e+01
 1.3949933379e+00	 1.1829449398e-01	 3.7585788828e+01
 1.3927454220e+00	 1.4233829271e-01	 3.3817891831e+01
 1.3900654012e+00	 1.6648777818e-01	 2.9351993306e+01
 1.3869466828e+00	 1.9073253306e-01	 2.4451347977e+01
 1.3833829648e+00	 2.1506178795e-01	 1.9394679907e+01
 1.3793682565e+00	 2.3946442930e-01	 1.4476194324e+01
 1.4067159710e+00	 1.1928856536e-01	 3.9918883135e+01
 1.4044491650e+00	 1.4353441282e-01	 3.5758922058e+01
 1.4017466231e+00	 1.6788683513e-01	 3.0994306767e+01
 1.3986016969e+00	 1.9233532745e-01	 2.5873121304e+01
 1.3950080318e+00	 2.1686902986e-01	 2.0658707251e+01
 1.3909595864e+00	 2.4147673543e-01	 1.5629741666e+01
 1.3330029370e+00	 2.3141520479e-01	 1.0388585214e+01
 1.3286818756e+00	 2.5505744529e-01	 5.7602670108e+00
 1.3239143809e+00	 2.7874816432e-01	 1.0714373963e+00
 1.3186956771e+00	 3.0247568185e-01	-3.8178128655e+00
 1.3130213635e+00	 3.2622802758e-01	-9.0500939902e+00
 1.3068874316e+00	 3.4999295445e-01	-1.4769826866e+01
 1.3445942669e+00	 2.3342751092e-01	 1.1325151561e+01
 1.3402356311e+00	 2.5727533612e-01	 6.7155611082e+00
 1.3354266798e+00	 2.8117206140e-01	 2.0561131340e+00
 1.3301625961e+00	 3.0510590517e-01	-2.8285386134e+00
 1.3244389406e+00	 3.2906479304e-01	-8.1169954680e+00
 1.3182516701e+00	 3.5303637144e-01	-1.3990040171e+01
 1.3561855967e+00	 2.3543981705e-01	 1.2320841724e+01
 1.3517893865e+00	 2.5949322694e-01	 7.7068190509e+00
 1.3469389788e+00	 2.8359595848e-01	 3.0430920921e+00
 1.3416295150e+00	 3.0773612849e-01	-1.8698385601e+00
 1.3358565176e+00	 3.3190155850e-01	-7.2345937983e+00
 1.3296159087e+00	 3.5607978844e-01	-1.3255693116e+01
 1.3677769266e+00	 2.3745212318e-01	 1.3372246470e+01
 1.3633431419e+00	 2.6171111777e-01	 8.7260726639e+00
 1.3584512778e+00	 2.8601985556e-01	 4.0230115149e+00
 1.3530964339e+00	 3.1036635181e-01	-9.4958209617e-01
 1.3472740947e+00	 3.3473832395e-01	-6.4066660031e+00
 1.3409801472e+00	 3.5912320543e-01	-1.2048752335e+01
 1.3793682565e+00	 2.3946442930e-01	 1.4476194324e+01
 1.3748968974e+00	 2.6392900860e-01	 9.7657571019e+00
 1.3699635767e+00	 2.8844375265e-01	 4.9869710640e+00
 1.3645633529e+00	 3.1299657514e-01	-7.5214332501e-02
 1.3586916718e+00	 3.3757508941e-01	-5.6366905073e+00
 1.3523443857e+00	 3.6216662243e-01	-1.0646424446e+01
 1.3909595864e+00	 2.4147673543e-01	 1.5629741666e+01
 1.3864506528e+00	 2.6614689943e-01	 1.0818694044e+01
 1.3814758757e+00	 2.9086764973e-01	 5.9265135504e+00
 1.3760302718e+00	 3.1562679846e-01	 7.4622622099e-01
 1.3701092489e+00	 3.4041185487e-01	-4.9278595795e+00
 1.3637086243e+00	 3.6521003942e-01	-9.3417652575e+00
 1.3068874316e+00	 3.4999295445e-01	-1.4769826866e+01
 1.3002902827e+00	 3.7375795329e-01	-1.6473805106e+01
 1.2932267447e+00	 3.9751026867e-01	-1.6682536222e+01
 1.2856940879e+00	 4.2123691582e-01	-1.7250600788e+01
 1.2776900405e+00	 4.4492469869e-01	-1.8051890698e+01
 1.2692128028e+00	 4.6856022912e-01	-1.8961453709e+01
 1.3182516701e+00	 3.5303637144e-01	-1.3990040171e+01
 1.3115971547e+00	 3.7700802245e-01	-1.5122082129e+01
 1.3044721947e+00	 4.0096687970e-01	-1.5654671563e+01
 1.2968740365e+00	 4.2489984552e-01	-1.6540695481e+01
 1.2888003886e+00	 4.4879360912e-01	-1.7612787414e+01
 1.2802494358e+00	 4.7263466589e-01	-1.8704443108e+01
 1.3296159087e+00	 3.5607978844e-01	-1.3255693116e+01
 1.3229040268e+00	 3.8025809161e-01	-1.3831132313e+01
 1.3157176446e+00	 4.0442349073e-01	-1.4654192533e+01
 1.3080539851e+00	 4.2856277522e-01	-1.5813318600e+01
 1.2999107368e+00	 4.5266251954e-01	-1.7112777721e+01
 1.2912860689e+00	 4.7670910267e-01	-1.8357827931e+01
 1.3409801472e+00	 3.5912320543e-01	-1.2048752335e+01
 1.3342108988e+00	 3.8350816077e-01	-1.2604439178e+01
 1.3269630946e+00	 4.0788010176e-01	-1.3680634016e+01
 1.3192339337e+00	 4.3222570493e-01	-1.5065529316e+01
 1.3110210850e+00	 4.5653142996e-01	-1.6547588652e+01
 1.3023227020e+00	 4.8078353944e-01	-1.7916809300e+01
 1.3523443857e+00	 3.6216662243e-01	-1.0646424446e+01
 1.3455177708e+00	 3.8675822993e-01	-1.1445595279e+01
 1.3382085445e+00	 4.1133671280e-01	-1.2733783581e+01
 1.3304138823e+00	 4.3588863463e-01	-1.4294733031e+01
 1.3221314332e+00	 4.6040034039e-01	-1.5913347967e+01
 1.3133593350e+00	 4.8485797622e-01	-1.7377015810e+01
 1.3637086243e+00	 3.6521003942e-01	-9.3417652575e+00
 1.3568246428e+00	 3.9000829908e-01	-1.0358297658e+01
 1.3494539945e+00	 4.1479332383e-01	-1.1813670948e+01
 1.3415938309e+00	 4.3955156433e-01	-1.3498666952e+01
 1.3332417813e+00	 4.6426925081e-01	-1.5206567455e+01
 1.3243959681e+00	 4.8893241299e-01	-1.6734485719e+01
 1.2692128028e+00	 4.6856022912e-01	-1.8961453709e+01
 1.2602610612e+00	 4.9212994693e-01	-1.9589481310e+01
 1.2508340006e+00	 5.1562014116e-01	-1.9666445049e+01
 1.2409313159e+00	 5.3901697213e-01	-1.9259609423e+01
 1.2305532225e+00	 5.6230649443e-01	-1.8450496091e+01
 1.2197004654e+00	 5.8547468067e-01	-1.7335190223e+01
 1.2802494358e+00	 4.7263466589e-01	-1.8704443108e+01
 1.2712198530e+00	 4.9640933777e-01	-1.9418589904e+01
 1.2617108180e+00	 5.2010379456e-01	-1.9525008154e+01
 1.2517220230e+00	 5.4370407624e-01	-1.9119629900e+01
 1.2412536853e+00	 5.6719611612e-01	-1.8313126598e+01
 1.2303065564e+00	 5.9056576485e-01	-1.7231068873e+01
 1.2912860689e+00	 4.7670910267e-01	-1.8357827931e+01
 1.2821786449e+00	 5.0068872861e-01	-1.9152501836e+01
 1.2725876354e+00	 5.2458744796e-01	-1.9299708971e+01
 1.2625127301e+00	 5.4839118034e-01	-1.8915866609e+01
 1.2519541481e+00	 5.7208573781e-01	-1.8132709279e+01
 1.2409126474e+00	 5.9565684903e-01	-1.7097348602e+01
 1.3023227020e+00	 4.8078353944e-01	-1.7916809300e+01
 1.2931374367e+00	 5.0496811946e-01	-1.8786634107e+01
 1.2834644528e+00	 5.2907110136e-01	-1.8987229602e+01
 1.2733034372e+00	 5.5307828445e-01	-1.8647530492e+01
 1.2626546109e+00	 5.7697535950e-01	-1.7912461150e+01
 1.2515187384e+00	 6.0074793321e-01	-1.6942941503e+01
 1.3133593350e+00	 4.8485797622e-01	-1.7377015810e+01
 1.3040962285e+00	 5.0924751030e-01	-1.8316832334e+01
 1.2943412702e+00	 5.3355475477e-01	-1.8584645941e+01
 1.2840941443e+00	 5.5776538856e-01	-1.8314148269e+01
 1.2733550737e+00	 5.8186498119e-01	-1.7655786592e+01
 1.2621248294e+00	 6.0583901739e-01	-1.6776761100e+01
 1.3243959681e+00	 4.8893241299e-01	-1.6734485719e+01
 1.3150550204e+00	 5.1352690114e-01	-1.7739352894e+01
 1.3052180876e+00	 5.3803840817e-01	-1.8089411269e+01
 1.2948848514e+00	 5.6245249266e-01	-1.7915549276e+01
 1.2840555365e+00	 5.8675460288e-01	-1.7366269548e+01
 1.2727309204e+00	 6.1093010157e-01	-1.6607722284e+01
 1.2197004654e+00	 5.8547468067e-01	-1.7335190223e+01
 1.2083743274e+00	 6.0850744609e-01	-1.6010830616e+01
 1.1965766353e+00	 6.3139067371e-01	-1.4585376767e+01
 1.1843097655e+00	 6.5411024012e-01	-1.3188015875e+01
 1.1715766477e+00	 6.7665204175e-01	-1.1955385797e+01
 1.1583807668e+00	 6.9900202160e-01	-1.1031138060e+01
 1.2303065564e+00	 5.9056576485e-01	-1.7231068873e+01
 1.2188819302e+00	 6.1379881519e-01	-1.5975104965e+01
 1.2069816495e+00	 6.3688102740e-01	-1.4631934395e+01
 1.1946081113e+00	 6.5979815525e-01	-1.3322564169e+01
 1.1817642707e+00	 6.8253597255e-01	-1.2176612138e+01
 1.1684536430e+00	 7.0508030005e-01	-1.1331935169e+01
 1.2409126474e+00	 5.9565684903e-01	-1.7097348602e+01
 1.2293895331e+00	 6.1909018429e-01	-1.5913249504e+01
 1.2173866637e+00	 6.4237138108e-01	-1.4650415426e+01
 1.2049064571e+00	 6.6548607038e-01	-1.3424379674e+01
 1.1919518937e+00	 6.8841990335e-01	-1.2359934574e+01
 1.1785265192e+00	 7.1115857850e-01	-1.1590801696e+01
 1.2515187384e+00	 6.0074793321e-01	-1.6942941503e+01
 1.2398971359e+00	 6.2438155338e-01	-1.5839220311e+01
 1.2277916780e+00	 6.4786173477e-01	-1.4656633318e+01
 1.2152048029e+00	 6.7117398551e-01	-1.3507870059e+01
 1.2021395167e+00	 6.9430383415e-01	-1.2515024162e+01
 1.1885993955e+00	 7.1723685694e-01	-1.1589128874e+01
 1.2621248294e+00	 6.0583901739e-01	-1.6776761100e+01
 1.2504047388e+00	 6.2967292248e-01	-1.5766810073e+01
 1.2381966922e+00	 6.5335208845e-01	-1.4666179656e+01
 1.2255031487e+00	 6.7686190064e-01	-1.3587271528e+01
 1.2123271398e+00	 7.0018776494e-01	-1.2651542081e+01
 1.1986722717e+00	 7.2331513539e-01	-1.1428939337e+01
 1.2727309204e+00	 6.1093010157e-01	-1.6607722284e+01
 1.2609123416e+00	 6.3496429158e-01	-1.5709654891e+01
 1.2486017064e+00	 6.5884244214e-01	-1.4694433388e+01
 1.2358014945e+00	 6.8254981578e-01	-1.3676655967e+01
 1.2225147628e+00	 7.0607169574e-01	-1.2779140033e+01
 1.2087451479e+00	 7.2939341384e-01	-1.1375653881e+01
 1.1583807668e+00	 6.9900202160e-01	-1.1031138060e+01
 1.1447261641e+00	 7.2114619615e-01	-9.8478148784e+00
 1.1306174365e+00	 7.4307068262e-01	-6.8197060357e+00
 1.1160597337e+00	 7.6476172621e-01	-3.6725076071e+00
 1.1010587547e+00	 7.8620572739e-01	-3.5609140216e-01
 1.0856207419e+00	 8.0738926909e-01	 3.1839170011e+00
 1.1684536430e+00	 7.0508030005e-01	-1.1331935169e+01
 1.1546803047e+00	 7.2741703264e-01	-9.5221148862e+00
 1.1404488924e+00	 7.4953216682e-01	-6.6771643803e+00
 1.1257646009e+00	 7.7141182818e-01	-3.6782284073e+00
 1.1106331786e+00	 7.9304229893e-01	-4.6683336955e-01
 1.0950609222e+00	 8.1441004534e-01	 3.0203127724e+00
 1.1785265192e+00	 7.1115857850e-01	-1.1590801696e+01
 1.1646344452e+00	 7.3368786913e-01	-9.3277217447e+00
 1.1502803484e+00	 7.5599365101e-01	-6.6583623627e+00
 1.1354694682e+00	 7.7806193014e-01	-3.7948499639e+00
 1.1202076026e+00	 7.9987887048e-01	-6.6993448552e-01
 1.1045011026e+00	 8.2143082160e-01	 2.7883222270e+00
 1.1885993955e+00	 7.1723685694e-01	-1.1589128874e+01
 1.1745885858e+00	 7.3995870562e-01	-9.2471787519e+00
 1.1601118044e+00	 7.6245513521e-01	-6.7418641132e+00
 1.1451743354e+00	 7.8471203211e-01	-4.0009304068e+00
 1.1297820265e+00	 8.0671544202e-01	-9.4793824078e-01
 1.1139412829e+00	 8.2845159785e-01	 2.4974187869e+00
 1.1986722717e+00	 7.2331513539e-01	-1.1428939337e+01
 1.1845427263e+00	 7.4622954211e-01	-9.2635601022e+00
 1.1699432603e+00	 7.6891661941e-01	-6.9068983151e+00
 1.1548792027e+00	 7.9136213408e-01	-4.2756926578e+00
 1.1393564505e+00	 8.1355201356e-01	-1.2839191261e+00
 1.1233814633e+00	 8.3547237410e-01	 2.1568129123e+00
 1.2087451479e+00	 7.2939341384e-01	-1.1375653881e+01
 1.1944968669e+00	 7.5250037859e-01	-9.3604487656e+00
 1.1797747163e+00	 7.7537810361e-01	-7.1333305147e+00
 1.1645840699e+00	 7.9801223604e-01	-4.5989967310e+00
 1.1489308744e+00	 8.2038858510e-01	-1.6614605074e+00
 1.1328216437e+00	 8.4249315036e-01	 1.7754630584e+00
 1.0856207419e+00	 8.0738926909e-01	 3.1839170011e+00
 1.0697524740e+00	 8.2829914362e-01	 6.8318444093e+00
 1.0534612575e+00	 8.4892237926e-01	 9.9153597956e+00
 1.0367549157e+00	 8.6924626647e-01	 1.3541234119e+01
 1.0196417775e+00	 8.8925838345e-01	 1.7637648335e+01
 1.0021306636e+00	 9.0894662112e-01	 2.2126104818e+01
 1.0950609222e+00	 8.1441004534e-01	 3.0203127724e+00
 1.0790546694e+00	 8.3550174486e-01	 6.7811253711e+00
 1.0626217901e+00	 8.5630431299e-01	 1.0251189303e+01
 1.0457701758e+00	 8.7680492965e-01	 1.3754796638e+01
 1.0285082278e+00	 8.9699106504e-01	 1.7793640174e+01
 1.0108448433e+00	 9.1685050479e-01	 2.2282626946e+01
 1.1045011026e+00	 8.2143082160e-01	 2.7883222270e+00
 1.0883568649e+00	 8.4270434611e-01	 6.5738658691e+00
 1.0717823228e+00	 8.6368624672e-01	 1.0681598541e+01
 1.0547854360e+00	 8.8436359284e-01	 1.4103614654e+01
 1.0373746780e+00	 9.0472374664e-01	 1.8082060003e+01
 1.0195590230e+00	 9.2475438845e-01	 2.2544404497e+01
 1.1139412829e+00	 8.2845159785e-01	 2.4974187869e+00
 1.0976590603e+00	 8.4990694736e-01	 6.3251007532e+00
 1.0809428555e+00	 8.7106818046e-01	 1.0511394025e+01
 1.0638006961e+00	 8.9192225603e-01	 1.4567623348e+01
 1.0462411282e+00	 9.1245642823e-01	 1.8481286895e+01
 1.0282732027e+00	 9.3265827211e-01	 2.2890981969e+01
 1.1233814633e+00	 8.3547237410e-01	 2.1568129123e+00
 1.1069612557e+00	 8.5710954861e-01	 6.0354004818e+00
 1.0901033882e+00	 8.7845011419e-01	 1.0308231650e+01
 1.0728159562e+00	 8.9948091921e-01	 1.5017414302e+01
 1.0551075785e+00	 9.2018910983e-01	 1.8970169669e+01
 1.0369873823e+00	 9.4056215577e-01	 2.3302343281e+01
 1.1328216437e+00	 8.4249315036e-01	 1.7754630584e+00
 1.1162634512e+00	 8.6431214986e-01	 5.7053710828e+00
 1.0992639208e+00	 8.8583204792e-01	 1.0066420410e+01
 1.0818312164e+00	 9.0703958240e-01	 1.4873139608e+01
 1.0639740287e+00	 9.2792179142e-01	 1.9528007306e+01
 1.0457015620e+00	 9.4846603943e-01	 2.3758893464e+01
 1.0021306636e+00	 9.0894662112e-01	 2.2126104818e+01
 9.8423087164e-01	 9.2829920731e-01	 2.7070934363e+01
 9.6595215999e-01	 9.4730473006e-01	 3.2376918061e+01
 9.4730473006e-01	 9.6595215999e-01	 3.7718480821e+01
 9.2829920731e-01	 9.8423087164e-01	 4.2767641785e+01
 9.0894662112e-01	 1.0021306636e+00	 4.7196267970e+01
 1.0108448433e+00	 9.1685050479e-01	 2.2282626946e+01
 9.9278940096e-01	 9.3637137433e-01	 2.7275636566e+01
 9.7435174399e-01	 9.5554216250e-01	 3.2660439980e+01
 9.5554216250e-01	 9.7435174399e-01	 3.8093888930e+01
 9.3637137433e-01	 9.9278940096e-01	 4.3229775275e+01
 9.1685050479e-01	 1.0108448433e+00	 4.7721201405e+01
 1.0195590230e+00	 9.2475438845e-01	 2.2544404497e+01
 1.0013479303e+00	 9.4444354135e-01	 2.7531146920e+01
 9.8275132799e-01	 9.6377959493e-01	 3.2924531976e+01
 9.6377959493e-01	 9.8275132799e-01	 3.8379630681e+01
 9.4444354135e-01	 1.0013479303e+00	 4.3548141760e+01
 9.2475438845e-01	 1.0195590230e+00	 4.8080789309e+01
 1.0282732027e+00	 9.3265827211e-01	 2.2890981969e+01
 1.0099064596e+00	 9.5251570837e-01	 2.7820878653e+01
 9.9115091199e-01	 9.7201702737e-01	 3.3158798925e+01
 9.7201702737e-01	 9.9115091199e-01	 3.8573429732e+01
 9.5251570837e-01	 1.0099064596e+00	 4.3730109019e+01
 9.3265827211e-01	 1.0282732027e+00	 4.8293162391e+01
 1.0369873823e+00	 9.4056215577e-01	 2.3302343281e+01
 1.0184649889e+00	 9.6058787539e-01	 2.8128563778e+01
 9.9955049599e-01	 9.8025445980e-01	 3.3352966274e+01
 9.8025445980e-01	 9.9955049599e-01	 3.8672867773e+01
 9.6058787539e-01	 1.0184649889e+00	 4.3782589449e+01
 9.4056215577e-01	 1.0369873823e+00	 4.8375645303e+01
 1.0457015620e+00	 9.4846603943e-01	 2.3758893464e+01
 1.0270235182e+00	 9.6866004241e-01	 2.8438239812e+01
 1.0079500800e+00	 9.8849189224e-01	 3.3496875021e+01
 9.8849189224e-01	 1.0079500800e+00	 3.8675390443e+01
 9.6866004241e-01	 1.0270235182e+00	 4.3712059042e+01
 9.4846603943e-01	 1.0457015620e+00	 4.8344790218e+01
 9.0894662112e-01	 1.0021306636e+00	 4.7196267970e+01
 8.8925838345e-01	 1.0196417775e+00	 5.0660076683e+01
 8.6924626647e-01	 1.0367549157e+00	 5.3036486234e+01
 8.4892237926e-01	 1.0534612575e+00	 5.4328770436e+01
 8.2829914362e-01	 1.0697524740e+00	 5.4537265616e+01
 8.0738926909e-01	 1.0856207419e+00	 5.3337211671e+01
 9.1685050479e-01	 1.0108448433e+00	 4.7721201405e+01
 8.9699106504e-01	 1.0285082278e+00	 5.1189908565e+01
 8.7680492965e-01	 1.0457701758e+00	 5.3494706072e+01
 8.5630431299e-01	 1.0626217901e+00	 5.4643890829e+01
 8.3550174486e-01	 1.0790546694e+00	 5.4057955213e+01
 8.1441004534e-01	 1.0950609222e+00	 5.2821181412e+01
 9.2475438845e-01	 1.0195590230e+00	 4.8080789309e+01
 9.0472374664e-01	 1.0373746780e+00	 5.1579537392e+01
 8.8436359284e-01	 1.0547854360e+00	 5.3875964746e+01
 8.6368624672e-01	 1.0717823228e+00	 5.4920906323e+01
 8.4270434611e-01	 1.0883568649e+00	 5.3444638400e+01
 8.2143082160e-01	 1.1045011026e+00	 5.2342259392e+01
 9.3265827211e-01	 1.0282732027e+00	 4.8293162391e+01
 9.1245642823e-01	 1.0462411282e+00	 5.1855013716e+01
 8.9192225603e-01	 1.0638006961e+00	 5.4208004927e+01
 8.7106818046e-01	 1.0809428555e+00	 5.4085536142e+01
 8.4990694736e-01	 1.0976590603e+00	 5.2831333596e+01
 8.2845159785e-01	 1.1139412829e+00	 5.1900376406e+01
 9.4056215577e-01	 1.0369873823e+00	 4.8375645303e+01
 9.2018910983e-01	 1.0551075785e+00	 5.2041327203e+01
 8.9948091921e-01	 1.0728159562e+00	 5.4282930176e+01
 8.7845011419e-01	 1.0901033882e+00	 5.3212527169e+01
 8.5710954861e-01	 1.1069612557e+00	 5.2231895461e+01
 8.3547237410e-01	 1.1233814633e+00	 5.1495317741e+01
 9.4846603943e-01	 1.0457015620e+00	 4.8344790218e+01
 9.2792179142e-01	 1.0639740287e+00	 5.2162450842e+01
 9.0703958240e-01	 1.0818312164e+00	 5.3028330476e+01
 8.8583204792e-01	 1.0992639208e+00	 5.2324282145e+01
 8.6431214986e-01	 1.1162634512e+00	 5.1659573137e+01
 8.4249315036e-01	 1.1328216437e+00	 5.1126729234e+01
 8.0738926909e-01	 1.0856207419e+00	 5.3337211671e+01
 7.8620572739e-01	 1.1010587547e+00	 5.2080785949e+01
 7.6476172621e-01	 1.1160597337e+00	 5.0302736094e+01
 7.4307068262e-01	 1.1306174365e+00	 4.7844636406e+01
 7.2114619615e-01	 1.1447261641e+00	 4.4549745749e+01
 6.9900202160e-01	 1.1583807668e+00	 4.1472288419e+01
 8.1441004534e-01	 1.0950609222e+00	 5.2821181412e+01
 7.9304229893e-01	 1.1106331786e+00	 5.1680945235e+01
 7.7141182818e-01	 1.1257646009e+00	 5.0077046008e+01
 7.4953216682e-01	 1.1404488924e+00	 4.7842682726e+01
 7.2741703264e-01	 1.1546803047e+00	 4.4812240342e+01
 7.0508030005e-01	 1.1684536430e+00	 4.1561647925e+01
 8.2143082160e-01	 1.1045011026e+00	 5.2342259392e+01
 7.9987887048e-01	 1.1202076026e+00	 5.1333347436e+01
 7.7806193014e-01	 1.1354694682e+00	 4.9886652770e+01
 7.5599365101e-01	 1.1502803484e+00	 4.7839572202e+01
 7.3368786913e-01	 1.1646344452e+00	 4.5031196985e+01
 7.1115857850e-01	 1.1785265192e+00	 4.1557273347e+01
 8.2845159785e-01	 1.1139412829e+00	 5.1900376406e+01
 8.0671544202e-01	 1.1297820265e+00	 5.1024544849e+01
 7.8471203211e-01	 1.1451743354e+00	 4.9711290801e+01
 7.6245513521e-01	 1.1601118044e+00	 4.7814443899e+01
 7.3995870562e-01	 1.1745885858e+00	 4.5191027481e+01
 7.1723685694e-01	 1.1885993955e+00	 4.1701945298e+01
 8.3547237410e-01	 1.1233814633e+00	 5.1495317741e+01
 8.1355201356e-01	 1.1393564505e+00	 5.0741391409e+01
 7.9136213408e-01	 1.1548792027e+00	 4.9531223183e+01
 7.6891661941e-01	 1.1699432603e+00	 4.7746983817e+01
 7.4622954211e-01	 1.1845427263e+00	 4.5276512033e+01
 7.2331513539e-01	 1.1986722717e+00	 4.2013803947e+01
 8.4249315036e-01	 1.1328216437e+00	 5.1126729234e+01
 8.2038858510e-01	 1.1489308744e+00	 5.0471030118e+01
 7.9801223604e-01	 1.1645840699e+00	 4.9327219630e+01
 7.7537810361e-01	 1.1797747163e+00	 4.7617402105e+01
 7.5250037859e-01	 1.1944968669e+00	 4.5272783884e+01
 7.2939341384e-01	 1.2087451479e+00	 4.2233879528e+01
 6.9900202160e-01	 1.1583807668e+00	 4.1472288419e+01
 6.7665204175e-01	 1.1715766477e+00	 3.8768394098e+01
 6.5411024012e-01	 1.1843097655e+00	 3.6028763385e+01
 6.3139067371e-01	 1.1965766353e+00	 3.3175825777e+01
 6.0850744609e-01	 1.2083743274e+00	 3.0144895069e+01
 5.8547468067e-01	 1.2197004654e+00	 2.6884405303e+01
 7.0508030005e-01	 1.1684536430e+00	 4.1561647925e+01
 6.8253597255e-01	 1.1817642707e+00	 3.9058773582e+01
 6.5979815525e-01	 1.1946081113e+00	 3.6521664429e+01
 6.3688102740e-01	 1.2069816495e+00	 3.3871056949e+01
 6.1379881519e-01	 1.2188819302e+00	 3.1041522192e+01
 5.9056576485e-01	 1.2303065564e+00	 2.7981686639e+01
 7.1115857850e-01	 1.1785265192e+00	 4.1557273347e+01
 6.8841990335e-01	 1.1919518937e+00	 3.9248103325e+01
 6.6548607038e-01	 1.2049064571e+00	 3.6924975661e+01
 6.4237138108e-01	 1.2173866637e+00	 3.4502678916e+01
 6.1909018429e-01	 1.2293895331e+00	 3.1909822137e+01
 5.9565684903e-01	 1.2409126474e+00	 2.9089088771e+01
 7.1723685694e-01	 1.1885993955e+00	 4.1701945298e+01
 6.9430383415e-01	 1.2021395167e+00	 3.9348052350e+01
 6.7117398551e-01	 1.2152048029e+00	 3.7254886307e+01
 6.4786173477e-01	 1.2277916780e+00	 3.5085486393e+01
 6.2438155338e-01	 1.2398971359e+00	 3.2757422766e+01
 6.0074793321e-01	 1.2515187384e+00	 3.0201458017e+01
 7.2331513539e-01	 1.1986722717e+00	 4.2013803947e+01
 7.0018776494e-01	 1.2123271398e+00	 3.9369946864e+01
 6.7686190064e-01	 1.2255031487e+00	 3.7527097123e+01
 6.5335208845e-01	 1.2381966922e+00	 3.5633838310e+01
 6.2967292248e-01	 1.2504047388e+00	 3.3591762367e+01
 6.0583901739e-01	 1.2621248294e+00	 3.1313885537e+01
 7.2939341384e-01	 1.2087451479e+00	 4.2233879528e+01
 7.0607169574e-01	 1.2225147628e+00	 3.9324784545e+01
 6.8254981578e-01	 1.2358014945e+00	 3.7756840747e+01
 6.5884244214e-01	 1.2486017064e+00	 3.6161675972e+01
 6.3496429158e-01	 1.2609123416e+00	 3.4420097559e+01
 6.1093010157e-01	 1.2727309204e+00	 3.2421697136e+01
 5.8547468067e-01	 1.2197004654e+00	 2.6884405303e+01
 5.6230649443e-01	 1.2305532225e+00	 2.3577618210e+01
 5.3901697213e-01	 1.2409313159e+00	 2.0361180770e+01
 5.1562014116e-01	 1.2508340006e+00	 1.7135323538e+01
 4.9212994693e-01	 1.2602610612e+00	 1.3816180846e+01
 4.6856022912e-01	 1.2692128028e+00	 1.0335924461e+01
 5.9056576485e-01	 1.2303065564e+00	 2.7981686639e+01
 5.6719611612e-01	 1.2412536853e+00	 2.4876782783e+01
 5.4370407624e-01	 1.2517220230e+00	 2.1865371674e+01
 5.2010379456e-01	 1.2617108180e+00	 1.8847649870e+01
 4.9640933777e-01	 1.2712198530e+00	 1.5738636751e+01
 4.7263466589e-01	 1.2802494358e+00	 1.2468345404e+01
 5.9565684903e-01	 1.2409126474e+00	 2.9089088771e+01
 5.7208573781e-01	 1.2519541481e+00	 2.6218589267e+01
 5.4839118034e-01	 1.2625127301e+00	 2.3433675498e+01
 5.2458744796e-01	 1.2725876354e+00	 2.0634478949e+01
 5.0068872861e-01	 1.2821786449e+00	 1.7735924319e+01
 4.7670910267e-01	 1.2912860689e+00	 1.4667903900e+01
 6.0074793321e-01	 1.2515187384e+00	 3.0201458017e+01
 5.7697535950e-01	 1.2626546109e+00	 2.7585525540e+01
 5.5307828445e-01	 1.2733034372e+00	 2.5042557911e+01
 5.2907110136e-01	 1.2834644528e+00	 2.2472558785e+01
 5.0496811946e-01	 1.2931374367e+00	 1.9791329363e+01
 4.8078353944e-01	 1.3023227020e+00	 1.6930613025e+01
 6.0583901739e-01	 1.2621248294e+00	 3.1313885537e+01
 5.8186498119e-01	 1.2733550737e+00	 2.8960743972e+01
 5.5776538856e-01	 1.2840941443e+00	 2.6669355164e+01
 5.3355475477e-01	 1.2943412702e+00	 2.4339501561e+01
 5.0924751030e-01	 1.3040962285e+00	 2.1888784586e+01
 4.8485797622e-01	 1.3133593350e+00	 1.9252706814e+01
 6.1093010157e-01	 1.2727309204e+00	 3.2421697136e+01
 5.8675460288e-01	 1.2840555365e+00	 3.0328033732e+01
 5.6245249266e-01	 1.2948848514e+00	 2.8292237819e+01
 5.3803840817e-01	 1.3052180876e+00	 2.6213747624e+01
 5.1352690114e-01	 1.3150550204e+00	 2.4012842633e+01
 4.8893241299e-01	 1.3243959681e+00	 2.1630631042e+01
 4.6856022912e-01	 1.2692128028e+00	 1.0335924461e+01
 4.4492469869e-01	 1.2776900405e+00	 6.6183167523e+00
 4.2123691582e-01	 1.2856940879e+00	 2.5919387803e+00
 3.9751026867e-01	 1.2932267447e+00	-1.7836231125e+00
 3.7375795329e-01	 1.3002902827e+00	-6.5380730082e+00
 3.4999295445e-01	 1.3068874316e+00	-9.8597318136e+00
 4.7263466589e-01	 1.2802494358e+00	 1.2468345404e+01
 4.4879360912e-01	 1.2888003886e+00	 8.9467135816e+00
 4.2489984552e-01	 1.2968740365e+00	 5.0914973649e+00
 4.0096687970e-01	 1.3044721947e+00	 8.6504064838e-01
 3.7700802245e-01	 1.3115971547e+00	-3.7580901702e+00
 3.5303637144e-01	 1.3182516701e+00	-7.7261393014e+00
 4.7670910267e-01	 1.2912860689e+00	 1.4667903900e+01
 4.5266251954e-01	 1.2999107368e+00	 1.1333932289e+01
 4.2856277522e-01	 1.3080539851e+00	 7.6460816779e+00
 4.0442349073e-01	 1.3157176446e+00	 3.5680368917e+00
 3.8025809161e-01	 1.3229040268e+00	-9.2381986944e-01
 3.5607978844e-01	 1.3296159087e+00	-5.5616969645e+00
 4.8078353944e-01	 1.3023227020e+00	 1.6930613025e+01
 4.5653142996e-01	 1.3110210850e+00	 1.3788337874e+01
 4.3222570493e-01	 1.3192339337e+00	 1.0269560017e+01
 4.0788010176e-01	 1.3269630946e+00	 6.3379610734e+00
 3.8350816077e-01	 1.3342108988e+00	 1.9693743029e+00
 3.5912320543e-01	 1.3409801472e+00	-2.8485305770e+00
 4.8485797622e-01	 1.3133593350e+00	 1.9252706814e+01
 4.6040034039e-01	 1.3221314332e+00	 1.6318102342e+01
 4.3588863463e-01	 1.3304138823e+00	 1.2975423322e+01
 4.1133671280e-01	 1.3382085445e+00	 9.1870740624e+00
 3.8675822993e-01	 1.3455177708e+00	 4.9260610556e+00
 3.6216662243e-01	 1.3523443857e+00	 1.7574302026e-01
 4.8893241299e-01	 1.3243959681e+00	 2.1630631042e+01
 4.6426925081e-01	 1.3332417813e+00	 1.8931212749e+01
 4.3955156433e-01	 1.3415938309e+00	 1.5776800894e+01
 4.1479332383e-01	 1.3494539945e+00	 1.2127316082e+01
 3.9000829908e-01	 1.3568246428e+00	 7.9507442178e+00
 3.6521003942e-01	 1.3637086243e+00	 3.2229964407e+00
 3.4999295445e-01	 1.3068874316e+00	-9.8597318136e+00
 3.2622802758e-01	 1.3130213635e+00	-9.4244946463e+00
 3.0247568185e-01	 1.3186956771e+00	-9.5642381518e+00
 2.7874816432e-01	 1.3239143809e+00	-1.0262939555e+01
 2.5505744529e-01	 1.3286818756e+00	-1.1511281947e+01
 2.3141520479e-01	 1.3330029370e+00	-1.3306556190e+01
 3.5303637144e-01	 1.3182516701e+00	-7.7261393014e+00
 3.2906479304e-01	 1.3244389406e+00	-7.0759423430e+00
 3.0510590517e-01	 1.3301625961e+00	-7.0718196340e+00
 2.8117206140e-01	 1.3354266798e+00	-7.6979809470e+00
 2.5727533612e-01	 1.3402356311e+00	-8.9457064579e+00
 2.3342751092e-01	 1.3445942669e+00	-1.0813228721e+01
 3.5607978844e-01	 1.3296159087e+00	-5.5616969645e+00
 3.3190155850e-01	 1.3358565176e+00	-4.7146877109e+00
 3.0773612849e-01	 1.3416295150e+00	-4.5915981482e+00
 2.8359595848e-01	 1.3469389788e+00	-5.1713180769e+00
 2.5949322694e-01	 1.3517893865e+00	-6.4396116966e+00
 2.3543981705e-01	 1.3561855967e+00	-8.3890338592e+00
 3.5912320543e-01	 1.3409801472e+00	-2.8485305770e+00
 3.3473832395e-01	 1.3472740947e+00	-2.3639338676e+00
 3.1036635181e-01	 1.3530964339e+00	-2.1578590614e+00
 2.8601985556e-01	 1.3584512778e+00	-2.7239102327e+00
 2.6171111777e-01	 1.3633431419e+00	-4.0364075157e+00
 2.3745212318e-01	 1.3677769266e+00	-6.0758013909e+00
 3.6216662243e-01	 1.3523443857e+00	 1.7574302026e-01
 3.3757508941e-01	 1.3586916718e+00	-4.5947005895e-02
 3.1299657514e-01	 1.3645633529e+00	 1.9641191842e-01
 2.8844375265e-01	 1.3699635767e+00	-3.9520282317e-01
 2.6392900860e-01	 1.3748968974e+00	-1.7779179365e+00
 2.3946442930e-01	 1.3793682565e+00	-3.9138390796e+00
 3.6521003942e-01	 1.3637086243e+00	 3.2229964407e+00
 3.4041185487e-01	 1.3701092489e+00	 2.2179045667e+00
 3.1562679846e-01	 1.3760302718e+00	 2.4394745903e+00
 2.9086764973e-01	 1.3814758757e+00	 1.7768095446e+00
 2.6614689943e-01	 1.3864506528e+00	 2.9555277461e-01
 2.4147673543e-01	 1.3909595864e+00	-1.9419960856e+00
 2.3141520479e-01	 1.3330029370e+00	-1.3306556190e+01
 2.0783282028e-01	 1.3368826971e+00	-1.4378475058e+01
 1.8432135548e-01	 1.3403266262e+00	-1.3545718881e+01
 1.6089155034e-01	 1.3433405138e+00	-1.0951689594e+01
 1.3755381228e-01	 1.3459304498e+00	-6.7497444260e+00
 1.1431820847e-01	 1.3481028055e+00	-1.1026540133e+00
 2.3342751092e-01	 1.3445942669e+00	-1.0813228721e+01
 2.0964006220e-01	 1.3485077640e+00	-1.2042509509e+01
 1.8592414987e-01	 1.3519816403e+00	-1.1457131024e+01
 1.6229060730e-01	 1.3550217357e+00	-9.1920008383e+00
 1.3874993239e-01	 1.3576341928e+00	-5.3937402071e+00
 1.1531227985e-01	 1.3598254386e+00	-2.2010287345e-01
 2.3543981705e-01	 1.3561855967e+00	-8.3890338592e+00
 2.1144730412e-01	 1.3601328310e+00	-9.7738889398e+00
 1.8752694427e-01	 1.3636366545e+00	-9.4332601710e+00
 1.6368966426e-01	 1.3667029575e+00	-7.5018458615e+00
 1.3994605250e-01	 1.3693379359e+00	-4.1271298072e+00
 1.1630635123e-01	 1.3715480717e+00	 5.3124935463e-01
 2.3745212318e-01	 1.3677769266e+00	-6.0758013909e+00
 2.1325454603e-01	 1.3717578979e+00	-7.6093111303e+00
 1.8912973866e-01	 1.3752916686e+00	-7.5023240146e+00
 1.6508872122e-01	 1.3783841794e+00	-5.8974094533e+00
 1.4114217260e-01	 1.3810416789e+00	-2.9503202883e+00
 1.1730042260e-01	 1.3832707048e+00	 1.1706973420e+00
 2.3946442930e-01	 1.3793682565e+00	-3.9138390796e+00
 2.1506178795e-01	 1.3833829648e+00	-5.5841352930e+00
 1.9073253306e-01	 1.3869466828e+00	-5.6914978948e+00
 1.6648777818e-01	 1.3900654012e+00	-4.3942498781e+00
 1.4233829271e-01	 1.3927454220e+00	-1.8636340537e+00
 1.1829449398e-01	 1.3949933379e+00	 1.7169465173e+00
 2.4147673543e-01	 1.3909595864e+00	-1.9419960856e+00
 2.1686902986e-01	 1.3950080318e+00	-3.7324378459e+00
 1.9233532745e-01	 1.3986016969e+00	-4.0269582289e+00
 1.6788683513e-01	 1.4017466231e+00	-3.0073249794e+00
 1.4353441282e-01	 1.4044491650e+00	-8.6731237637e-01
 1.1928856536e-01	 1.4067159710e+00	 2.1881376186e+00
 1.1431820847e-01	 1.3481028055e+00	-1.1026540133e+00
 9.1194459242e-02	 1.3498642145e+00	 3.2857412519e+00
 6.8191932657e-02	 1.3512215537e+00	 4.1127160401e+00
 4.5319640093e-02	 1.3521819246e+00	 1.8297183754e+00
 2.2586232891e-02	 1.3527526341e+00	-3.0882912037e+00
 0.0000000000e+00	 1.3529411765e+00	-1.0145541317e+01
 1.1531227985e-01	 1.3598254386e+00	-2.2010287345e-01
 9.1987454540e-02	 1.3616021642e+00	 3.7969542373e+00
 6.8784905985e-02	 1.3629713064e+00	 4.5118799601e+00
 4.5713723920e-02	 1.3639400283e+00	 2.3625227558e+00
 2.2782634916e-02	 1.3645157005e+00	-2.1836810438e+00
 0.0000000000e+00	 1.3647058824e+00	-8.6326779283e+00
 1.1630635123e-01	 1.3715480717e+00	 5.3124935463e-01
 9.2780449837e-02	 1.3733401139e+00	 4.1328866123e+00
 6.9377879312e-02	 1.3747210590e+00	 4.7194892928e+00
 4.6107807747e-02	 1.3756981320e+00	 2.7229926000e+00
 2.2979036941e-02	 1.3762787669e+00	-1.3910381345e+00
 0.0000000000e+00	 1.3764705882e+00	-7.1265791522e+00
 1.1730042260e-01	 1.3832707048e+00	 1.1706973420e+00
 9.3573445135e-02	 1.3850780636e+00	 4.3276572013e+00
 6.9970852640e-02	 1.3864708117e+00	 4.7706065726e+00
 4.6501891574e-02	 1.3874562357e+00	 2.9331481454e+00
 2.3175438966e-02	 1.3880418333e+00	-7.1544118201e-01
 0.0000000000e+00	 1.3882352941e+00	-5.6735161276e+00
 1.1829449398e-01	 1.3949933379e+00	 1.7169465173e+00
 9.4366440433e-02	 1.3968160133e+00	 4.4142855324e+00
 7.0563825967e-02	 1.3982205643e+00	 4.6991514754e+00
 4.6895975401e-02	 1.3992143394e+00	 3.0142932772e+00
 2.3371840991e-02	 1.3998048996e+00	-1.6178626941e-01
 0.0000000000e+00	 1.4000000000e+00	-4.3182046611e+00
 1.1928856536e-01	 1.4067159710e+00	 2.1881376186e+00
 9.5159435731e-02	 1.4085539630e+00	 4.4247376413e+00
 7.1156799295e-02	 1.4099703170e+00	 4.5379484383e+00
 4.7290059228e-02	 1.4109724431e+00	 2.9870453766e+00
 2.3568243017e-02	 1.4115679660e+00	 2.6520553437e-01
 0.0000000000e+00	 1.4117647059e+00	-3.1038700323e+00
 1.4117647059e+00	 0.0000000000e+00	 5.6259813624e+01
 1.4115679660e+00	 2.3568243017e-02	 5.3402664688e+01
 1.4109724431e+00	 4.7290059228e-02	 5.0324460368e+01
 1.4099703170e+00	 7.1156799295e-02	 4.7050080823e+01
 1.4085539630e+00	 9.5159435731e-02	 4.3586083120e+01
 1.4067159710e+00	 1.1928856536e-01	 3.9918883135e+01
 1.4235294118e+00	 0.0000000000e+00	 5.8239284253e+01
 1.4233310324e+00	 2.3764645042e-02	 5.5972945375e+01
 1.4227305468e+00	 4.7684143055e-02	 5.3222712839e+01
 1.4217200696e+00	 7.1749772622e-02	 5.0039472385e+01
 1.4202919126e+00	 9.5952431028e-02	 4.6454973355e+01
 1.4184386040e+00	 1.2028263674e-01	 4.2479816851e+01
 1.4352941176e+00	 0.0000000000e+00	 5.8186391928e+01
 1.4350940988e+00	 2.3961047067e-02	 5.6422530811e+01
 1.4344886504e+00	 4.8078226882e-02	 5.4189594271e+01
 1.4334698222e+00	 7.2342745949e-02	 5.1519636319e+01
 1.4320298623e+00	 9.6745426326e-02	 4.8420758879e+01
 1.4301612371e+00	 1.2127670812e-01	 4.4874432511e+01
 1.4470588235e+00	 0.0000000000e+00	 5.6737065556e+01
 1.4468571652e+00	 2.4157449092e-02	 5.5239999145e+01
 1.4462467541e+00	 4.8472310709e-02	 5.3305782442e+01
 1.4452195749e+00	 7.2935719277e-02	 5.0895860267e+01
 1.4437678120e+00	 9.7538421624e-02	 4.7944583852e+01
 1.4418838702e+00	 1.2227077949e-01	 4.4356719336e+01
 1.4588235294e+00	 0.0000000000e+00	 5.5488807615e+01
 1.4586202316e+00	 2.4353851117e-02	 5.4093564577e+01
 1.4580048578e+00	 4.8866394536e-02	 5.2436233664e+01
 1.4569693275e+00	 7.3528692604e-02	 5.0359790392e+01
 1.4555057617e+00	 9.8331416922e-02	 4.7675840265e+01
 1.4536065033e+00	 1.2326485087e-01	 4.4162512957e+01
 1.4705882353e+00	 0.0000000000e+00	 5.4447045819e+01
 1.4703832979e+00	 2.4550253142e-02	 5.2981498533e+01
 1.4697629615e+00	 4.9260478362e-02	 5.1572442190e+01
 1.4687190802e+00	 7.4121665932e-02	 4.9897704612e+01
 1.4672437114e+00	 9.9124412219e-02	 4.7598354207e+01
 1.4653291364e+00	 1.2425892225e-01	 4.4277175270e+01
 1.4067159710e+00	 1.1928856536e-01	 3.9918883135e+01
 1.4044491650e+00	 1.4353441282e-01	 3.5758922058e+01
 1.4017466231e+00	 1.6788683513e-01	 3.0994306767e+01
 1.3986016969e+00	 1.9233532745e-01	 2.5873121304e+01
 1.3950080318e+00	 2.1686902986e-01	 2.0658707251e+01
 1.3909595864e+00	 2.4147673543e-01	 1.5629741666e+01
 1.4184386040e+00	 1.2028263674e-01	 4.2479816851e+01
 1.4161529081e+00	 1.4473053292e-01	 3.7966808062e+01
 1.4134278450e+00	 1.6928589209e-01	 3.2922727349e+01
 1.4102567110e+00	 1.9393812185e-01	 2.7583361435e+01
 1.4066330987e+00	 2.1867627178e-01	 2.2199702080e+01
 1.4025509163e+00	 2.4348904156e-01	 1.7038081838e+01
 1.4301612371e+00	 1.2127670812e-01	 4.4874432511e+01
 1.4278566511e+00	 1.4592665303e-01	 4.0607020212e+01
 1.4251090668e+00	 1.7068494905e-01	 3.5330921134e+01
 1.4219117252e+00	 1.9554091624e-01	 2.9790228160e+01
 1.4182581656e+00	 2.2048351369e-01	 2.4235304048e+01
 1.4141422462e+00	 2.4550134769e-01	 1.8932386491e+01
 1.4418838702e+00	 1.2227077949e-01	 4.4356719336e+01
 1.4395603941e+00	 1.4712277314e-01	 4.0159573588e+01
 1.4367902887e+00	 1.7208400601e-01	 3.5608851812e+01
 1.4335667393e+00	 1.9714371064e-01	 3.0936231508e+01
 1.4298832325e+00	 2.2229075561e-01	 2.6383566616e+01
 1.4257335761e+00	 2.4751365382e-01	 2.1348051367e+01
 1.4536065033e+00	 1.2326485087e-01	 4.4162512957e+01
 1.4512641372e+00	 1.4831889324e-01	 3.9883158308e+01
 1.4484715105e+00	 1.7348306297e-01	 3.5230520515e+01
 1.4452217535e+00	 1.9874650503e-01	 3.0459628849e+01
 1.4415082995e+00	 2.2409799752e-01	 2.5837183871e+01
 1.4373249060e+00	 2.4952595995e-01	 2.1640807126e+01
 1.4653291364e+00	 1.2425892225e-01	 4.4277175270e+01
 1.4629678802e+00	 1.4951501335e-01	 3.9996108862e+01
 1.4601527324e+00	 1.7488211993e-01	 3.5287059438e+01
 1.4568767676e+00	 2.0034929943e-01	 3.0438915062e+01
 1.4531333664e+00	 2.2590523944e-01	 2.5754265002e+01
 1.4489162358e+00	 2.5153826608e-01	 2.1548540224e+01
 1.3909595864e+00	 2.4147673543e-01	 1.5629741666e+01
 1.3864506528e+00	 2.6614689943e-01	 1.0818694044e+01
 1.3814758757e+00	 2.9086764973e-01	 5.9265135504e+00
 1.3760302718e+00	 3.1562679846e-01	 7.4622622099e-01
 1.3701092489e+00	 3.4041185487e-01	-4.9278595795e+00
 1.3637086243e+00	 3.6521003942e-01	-9.3417652575e+00
 1.4025509163e+00	 2.4348904156e-01	 1.7038081838e+01
 1.3980044083e+00	 2.6836479026e-01	 1.2101868197e+01
 1.3929881747e+00	 2.9329154681e-01	 7.0770380899e+00
 1.3874971907e+00	 3.1825702178e-01	 1.7668702554e+00
 1.3815268259e+00	 3.4324862033e-01	-4.0222300693e+00
 1.3750728628e+00	 3.6825345642e-01	-7.9039330789e+00
 1.4141422462e+00	 2.4550134769e-01	 1.8932386491e+01
 1.4095581637e+00	 2.7058268109e-01	 1.3867590965e+01
 1.4045004736e+00	 2.9571544389e-01	 8.7120192405e+00
 1.3989641096e+00	 3.2088724510e-01	 3.2733148410e+00
 1.3929444030e+00	 3.4608538578e-01	-2.6370963912e+00
 1.3864371013e+00	 3.7129687341e-01	-6.0928387234e+00
 1.4257335761e+00	 2.4751365382e-01	 2.1348051367e+01
 1.4211119191e+00	 2.7280057192e-01	 1.6160928428e+01
 1.4160127726e+00	 2.9813934097e-01	 1.0879346867e+01
 1.4104310286e+00	 3.2351746842e-01	 5.3095352631e+00
 1.4043619801e+00	 3.4892215124e-01	-7.3900829829e-01
 1.3978013399e+00	 3.7434029041e-01	-3.9038585577e+00
 1.4373249060e+00	 2.4952595995e-01	 2.1640807126e+01
 1.4326656746e+00	 2.7501846274e-01	 1.7808611566e+01
 1.4275250715e+00	 3.0056323805e-01	 1.3625507746e+01
 1.4218979475e+00	 3.2614769174e-01	 7.9182415695e+00
 1.4157795572e+00	 3.5175891670e-01	 1.7045701340e+00
 1.4091655784e+00	 3.7738370740e-01	-1.3327240925e+00
 1.4489162358e+00	 2.5153826608e-01	 2.1548540224e+01
 1.4442194300e+00	 2.7723635357e-01	 1.7756276210e+01
 1.4390373705e+00	 3.0298713513e-01	 1.3926612874e+01
 1.4333648664e+00	 3.2877791506e-01	 9.7962884970e+00
 1.4271971342e+00	 3.5459568216e-01	 4.7252970804e+00
 1.4205298169e+00	 3.8042712440e-01	 1.6244922240e+00
 1.3637086243e+00	 3.6521003942e-01	-9.3417652575e+00
 1.3568246428e+00	 3.9000829908e-01	-1.0358297658e+01
 1.3494539945e+00	 4.1479332383e-01	-1.1813670948e+01
 1.3415938309e+00	 4.3955156433e-01	-1.3498666952e+01
 1.3332417813e+00	 4.6426925081e-01	-1.5206567455e+01
 1.3243959681e+00	 4.8893241299e-01	-1.6734485719e+01
 1.3750728628e+00	 3.6825345642e-01	-7.9039330789e+00
 1.3681315149e+00	 3.9325836824e-01	-9.1562707220e+00
 1.3606994445e+00	 4.1824993486e-01	-1.0799310616e+01
 1.3527737795e+00	 4.4321449403e-01	-1.2629375948e+01
 1.3443521295e+00	 4.6813816123e-01	-1.4446196956e+01
 1.3354326012e+00	 4.9300684976e-01	-1.6054246716e+01
 1.3864371013e+00	 3.7129687341e-01	-6.0928387234e+00
 1.3794383869e+00	 3.9650843740e-01	-7.6593879472e+00
 1.3719448944e+00	 4.2170654589e-01	-9.5856829862e+00
 1.3639537281e+00	 4.4687742374e-01	-1.1659526128e+01
 1.3554624777e+00	 4.7200707166e-01	-1.3671740065e+01
 1.3464692342e+00	 4.9708128654e-01	-1.5417548220e+01
 1.3978013399e+00	 3.7434029041e-01	-3.9038585577e+00
 1.3907452589e+00	 3.9975850656e-01	-5.8804928321e+00
 1.3831903444e+00	 4.2516315692e-01	-8.1965250714e+00
 1.3751336767e+00	 4.5054035344e-01	-1.0617501511e+01
 1.3665728259e+00	 4.7587598208e-01	-1.2910330495e+01
 1.3575058673e+00	 5.0115572331e-01	-1.4844747129e+01
 1.4091655784e+00	 3.7738370740e-01	-1.3327240925e+00
 1.4020521309e+00	 4.0300857572e-01	-3.8322315773e+00
 1.3944357943e+00	 4.2861976796e-01	-6.6550356621e+00
 1.3863136252e+00	 4.5420328314e-01	-9.5310079104e+00
 1.3776831741e+00	 4.7974489250e-01	-1.2188473409e+01
 1.3685425004e+00	 5.0523016009e-01	-1.4355799101e+01
 1.4205298169e+00	 3.8042712440e-01	 1.6244922240e+00
 1.4133590030e+00	 4.0625864488e-01	-1.5270609769e+00
 1.4056812443e+00	 4.3207637899e-01	-4.9838968569e+00
 1.3974935738e+00	 4.5786621285e-01	-8.4271000575e+00
 1.3887935222e+00	 4.8361380293e-01	-1.1532070559e+01
 1.3795791334e+00	 5.0930459686e-01	-1.3970274604e+01
 1.3243959681e+00	 4.8893241299e-01	-1.6734485719e+01
 1.3150550204e+00	 5.1352690114e-01	-1.7739352894e+01
 1.3052180876e+00	 5.3803840817e-01	-1.8089411269e+01
 1.2948848514e+00	 5.6245249266e-01	-1.7915549276e+01
 1.2840555365e+00	 5.8675460288e-01	-1.7366269548e+01
 1.2727309204e+00	 6.1093010157e-01	-1.6607722284e+01
 1.3354326012e+00	 4.9300684976e-01	-1.6054246716e+01
 1.3260138122e+00	 5.1780629198e-01	-1.7134073310e+01
 1.3160949050e+00	 5.4252206157e-01	-1.7571439990e+01
 1.3056755585e+00	 5.6713959677e-01	-1.7496979342e+01
 1.2947559993e+00	 5.9164422457e-01	-1.7060091285e+01
 1.2833370114e+00	 6.1602118575e-01	-1.6429004635e+01
 1.3464692342e+00	 4.9708128654e-01	-1.5417548220e+01
 1.3369726040e+00	 5.2208568283e-01	-1.6591235475e+01
 1.3269717224e+00	 5.4700571497e-01	-1.7105827343e+01
 1.3164662655e+00	 5.7182670087e-01	-1.7104013641e+01
 1.3054564621e+00	 5.9653384626e-01	-1.6748896192e+01
 1.2939431024e+00	 6.2111226993e-01	-1.6224019144e+01
 1.3575058673e+00	 5.0115572331e-01	-1.4844747129e+01
 1.3479313959e+00	 5.2636507367e-01	-1.6122844197e+01
 1.3378485398e+00	 5.5148936837e-01	-1.6698142187e+01
 1.3272569726e+00	 5.7651380498e-01	-1.6737391568e+01
 1.3161569249e+00	 6.0142346795e-01	-1.6429882882e+01
 1.3045491934e+00	 6.2620335411e-01	-1.5987387139e+01
 1.3685425004e+00	 5.0523016009e-01	-1.4355799101e+01
 1.3588901877e+00	 5.3064446451e-01	-1.5740780529e+01
 1.3487253572e+00	 5.5597302177e-01	-1.6354044625e+01
 1.3380476797e+00	 5.8120090908e-01	-1.6398106259e+01
 1.3268573877e+00	 6.0631308964e-01	-1.6100623921e+01
 1.3151552844e+00	 6.3129443829e-01	-1.5714192312e+01
 1.3795791334e+00	 5.0930459686e-01	-1.3970274604e+01
 1.3698489795e+00	 5.3492385536e-01	-1.5456806719e+01
 1.3596021745e+00	 5.6045667517e-01	-1.6079282357e+01
 1.3488383868e+00	 5.8588801319e-01	-1.6087394437e+01
 1.3375578505e+00	 6.1120271133e-01	-1.5759050871e+01
 1.3257613754e+00	 6.3638552247e-01	-1.5399962222e+01
 1.2727309204e+00	 6.1093010157e-01	-1.6607722284e+01
 1.2609123416e+00	 6.3496429158e-01	-1.5709654891e+01
 1.2486017064e+00	 6.5884244214e-01	-1.4694433388e+01
 1.2358014945e+00	 6.8254981578e-01	-1.3676655967e+01
 1.2225147628e+00	 7.0607169574e-01	-1.2779140033e+01
 1.2087451479e+00	 7.2939341384e-01	-1.1375653881e+01
 1.2833370114e+00	 6.1602118575e-01	-1.6429004635e+01
 1.2714199444e+00	 6.4025566067e-01	-1.5650249499e+01
 1.2590067206e+00	 6.6433279582e-01	-1.4721794539e+01
 1.2460998403e+00	 6.8823773091e-01	-1.3758791430e+01
 1.2327023858e+00	 7.1195562654e-01	-1.2883722246e+01
 1.2188180242e+00	 7.3547169229e-01	-1.1404770366e+01
 1.2939431024e+00	 6.2111226993e-01	-1.6224019144e+01
 1.2819275473e+00	 6.4554702977e-01	-1.5557479374e+01
 1.2694117348e+00	 6.6982314950e-01	-1.4714698424e+01
 1.2563981861e+00	 6.9392564604e-01	-1.3805757616e+01
 1.2428900088e+00	 7.1783955734e-01	-1.2908924125e+01
 1.2288909004e+00	 7.4154997074e-01	-1.1499085586e+01
 1.3045491934e+00	 6.2620335411e-01	-1.5987387139e+01
 1.2924351501e+00	 6.5083839887e-01	-1.5424843135e+01
 1.2798167491e+00	 6.7531350319e-01	-1.4667787039e+01
 1.2666965318e+00	 6.9961356117e-01	-1.3815752467e+01
 1.2530776319e+00	 7.2372348814e-01	-1.2959460969e+01
 1.2389637766e+00	 7.4762824919e-01	-1.1660624346e+01
 1.3151552844e+00	 6.3129443829e-01	-1.5714192312e+01
 1.3029427530e+00	 6.5612976796e-01	-1.5246342514e+01
 1.2902217633e+00	 6.8080385687e-01	-1.4576172396e+01
 1.2769948776e+00	 7.0530147630e-01	-1.3787332268e+01
 1.2632652549e+00	 7.2960741893e-01	-1.3077067774e+01
 1.2490366529e+00	 7.5370652764e-01	-1.1891292726e+01
 1.3257613754e+00	 6.3638552247e-01	-1.5399962222e+01
 1.3134503558e+00	 6.6142113706e-01	-1.5016462234e+01
 1.3006267775e+00	 6.8629421056e-01	-1.4435417729e+01
 1.2872932234e+00	 7.1098939143e-01	-1.3719397316e+01
 1.2734528779e+00	 7.3549134973e-01	-1.3255350548e+01
 1.2591095291e+00	 7.5978480608e-01	-1.2192882832e+01
 1.2087451479e+00	 7.2939341384e-01	-1.1375653881e+01
 1.1944968669e+00	 7.5250037859e-01	-9.3604487656e+00
 1.1797747163e+00	 7.7537810361e-01	-7.1333305147e+00
 1.1645840699e+00	 7.9801223604e-01	-4.5989967310e+00
 1.1489308744e+00	 8.2038858510e-01	-1.6614605074e+00
 1.1328216437e+00	 8.4249315036e-01	 1.7754630584e+00
 1.2188180242e+00	 7.3547169229e-01	-1.1404770366e+01
 1.2044510074e+00	 7.5877121508e-01	-9.5117400574e+00
 1.1896061723e+00	 7.8183958780e-01	-7.3947389835e+00
 1.1742889372e+00	 8.0466233801e-01	-4.9469318063e+00
 1.1585052984e+00	 8.2722515665e-01	-2.0628250124e+00
 1.1422618240e+00	 8.4951392661e-01	 1.3611586676e+00
 1.2288909004e+00	 7.4154997074e-01	-1.1499085586e+01
 1.2144051480e+00	 7.6504205157e-01	-9.7089604831e+00
 1.1994376282e+00	 7.8830107200e-01	-7.6874272432e+00
 1.1839938044e+00	 8.1131243998e-01	-5.3181152642e+00
 1.1680797223e+00	 8.3406172819e-01	-2.4872778615e+00
 1.1517020044e+00	 8.5653470286e-01	 9.1556244331e-01
 1.2389637766e+00	 7.4762824919e-01	-1.1660624346e+01
 1.2243592886e+00	 7.7131288806e-01	-9.9622144857e+00
 1.2092690842e+00	 7.9476255620e-01	-8.0254182328e+00
 1.1936986717e+00	 8.1796254194e-01	-5.7262764683e+00
 1.1776541463e+00	 8.4089829973e-01	-2.9440041354e+00
 1.1611421848e+00	 8.6355547912e-01	 4.3831038610e-01
 1.2490366529e+00	 7.5370652764e-01	-1.1891292726e+01
 1.2343134291e+00	 7.7758372455e-01	-1.0281226928e+01
 1.2191005402e+00	 8.0122404039e-01	-8.4222288148e+00
 1.2034035389e+00	 8.2461264391e-01	-6.1846482122e+00
 1.1872285702e+00	 8.4773487127e-01	-3.4418390974e+00
 1.1705823651e+00	 8.7057625537e-01	-7.0896525683e-02
 1.2591095291e+00	 7.5978480608e-01	-1.2192882832e+01
 1.2442675697e+00	 7.8385456104e-01	-1.0675358277e+01
 1.2289319961e+00	 8.0768552459e-01	-8.8908900189e+00
 1.2131084062e+00	 8.3126274588e-01	-6.7059865821e+00
 1.1968029942e+00	 8.5457144282e-01	-3.9892821862e+00
 1.1800225455e+00	 8.7759703162e-01	-6.1229493513e-01
 1.1328216437e+00	 8.4249315036e-01	 1.7754630584e+00
 1.1162634512e+00	 8.6431214986e-01	 5.7053710828e+00
 1.0992639208e+00	 8.8583204792e-01	 1.0066420410e+01
 1.0818312164e+00	 9.0703958240e-01	 1.4873139608e+01
 1.0639740287e+00	 9.2792179142e-01	 1.9528007306e+01
 1.0457015620e+00	 9.4846603943e-01	 2.3758893464e+01
 1.1422618240e+00	 8.4951392661e-01	 1.3611586676e+00
 1.1255656466e+00	 8.7151475111e-01	 5.3316478560e+00
 1.1084244535e+00	 8.9321398165e-01	 9.7742672230e+00
 1.0908464765e+00	 9.1459824559e-01	 1.4671601345e+01
 1.0728404790e+00	 9.3565447302e-01	 2.0009312009e+01
 1.0544157417e+00	 9.5636992310e-01	 2.4252972320e+01
 1.1517020044e+00	 8.5653470286e-01	 9.1556244331e-01
 1.1348678420e+00	 8.7871735236e-01	 4.9167512591e+00
 1.1175849862e+00	 9.0059591539e-01	 9.4348439024e+00
 1.0998617367e+00	 9.2215690877e-01	 1.4418368867e+01
 1.0817069292e+00	 9.4338715461e-01	 1.9819455784e+01
 1.0631299214e+00	 9.6427380676e-01	 2.4798934050e+01
 1.1611421848e+00	 8.6355547912e-01	 4.3831038610e-01
 1.1441700374e+00	 8.8591995361e-01	 4.4699500647e+00
 1.1267455189e+00	 9.0797784912e-01	 9.0644232918e+00
 1.1088769968e+00	 9.2971557196e-01	 1.4134150115e+01
 1.0905733794e+00	 9.5111983621e-01	 1.9595206463e+01
 1.0718441011e+00	 9.7217769042e-01	 2.5367716765e+01
 1.1705823651e+00	 8.7057625537e-01	-7.0896525683e-02
 1.1534722329e+00	 8.9312255486e-01	 4.0002668765e+00
 1.1359060515e+00	 9.1535978285e-01	 8.6788055963e+00
 1.1178922569e+00	 9.3727423515e-01	 1.3839036670e+01
 1.0994398297e+00	 9.5885251780e-01	 1.9358526348e+01
 1.0805582808e+00	 9.8008157408e-01	 2.5118702185e+01
 1.1800225455e+00	 8.7759703162e-01	-6.1229493513e-01
 1.1627744283e+00	 9.0032515610e-01	 3.5164879762e+00
 1.1450665842e+00	 9.2274171658e-01	 8.2933372879e+00
 1.1269075171e+00	 9.4483289833e-01	 1.3552528415e+01
 1.1083062799e+00	 9.6658519940e-01	 1.9130725422e+01
 1.0892724604e+00	 9.8798545774e-01	 2.4867826444e+01
 1.0457015620e+00	 9.4846603943e-01	 2.3758893464e+01
 1.0270235182e+00	 9.6866004241e-01	 2.8438239812e+01
 1.0079500800e+00	 9.8849189224e-01	 3.3496875021e+01
 9.8849189224e-01	 1.0079500800e+00	 3.8675390443e+01
 9.6866004241e-01	 1.0270235182e+00	 4.3712059042e+01
 9.4846603943e-01	 1.0457015620e+00	 4.8344790218e+01
 1.0544157417e+00	 9.5636992310e-01	 2.4252972320e+01
 1.0355820476e+00	 9.7673220943e-01	 2.8763446698e+01
 1.0163496640e+00	 9.9672932467e-01	 3.3630097769e+01
 9.9672932467e-01	 1.0163496640e+00	 3.8646433889e+01
 9.7673220943e-01	 1.0355820476e+00	 4.3604290223e+01
 9.5636992310e-01	 1.0544157417e+00	 4.8295491775e+01
 1.0631299214e+00	 9.6427380676e-01	 2.4798934050e+01
 1.0441405769e+00	 9.8480437646e-01	 2.9135805759e+01
 1.0247492480e+00	 1.0049667571e+00	 3.3803639561e+01
 1.0049667571e+00	 1.0247492480e+00	 3.8653653750e+01
 9.8480437646e-01	 1.0441405769e+00	 4.3535657744e+01
 9.6427380676e-01	 1.0631299214e+00	 4.8299392702e+01
 1.0718441011e+00	 9.7217769042e-01	 2.5367716765e+01
 1.0526991062e+00	 9.9287654348e-01	 2.9566247247e+01
 1.0331488320e+00	 1.0132041895e+00	 3.4024235244e+01
 1.0132041895e+00	 1.0331488320e+00	 3.8697551223e+01
 9.9287654348e-01	 1.0526991062e+00	 4.3498267534e+01
 9.7217769042e-01	 1.0718441011e+00	 4.8242004270e+01
 1.0805582808e+00	 9.8008157408e-01	 2.5118702185e+01
 1.0612576355e+00	 1.0009487105e+00	 3.0065119697e+01
 1.0415484160e+00	 1.0214416220e+00	 3.4298182795e+01
 1.0214416220e+00	 1.0415484160e+00	 3.8778401668e+01
 1.0009487105e+00	 1.0612576355e+00	 4.3484280821e+01
 9.8008157408e-01	 1.0805582808e+00	 4.6266623126e+01
 1.0892724604e+00	 9.8798545774e-01	 2.4867826444e+01
 1.0698161648e+00	 1.0090208775e+00	 3.0642213197e+01
 1.0499480000e+00	 1.0296790544e+00	 3.4631360798e+01
 1.0296790544e+00	 1.0499480000e+00	 3.8896263633e+01
 1.0090208775e+00	 1.0698161648e+00	 4.3485911920e+01
 9.8798545774e-01	 1.0892724604e+00	 4.4255414676e+01
 9.4846603943e-01	 1.0457015620e+00	 4.8344790218e+01
 9.2792179142e-01	 1.0639740287e+00	 5.2162450842e+01
 9.0703958240e-01	 1.0818312164e+00	 5.3028330476e+01
 8.8583204792e-01	 1.0992639208e+00	 5.2324282145e+01
 8.6431214986e-01	 1.1162634512e+00	 5.1659573137e+01
 8.4249315036e-01	 1.1328216437e+00	 5.1126729234e+01
 9.5636992310e-01	 1.0544157417e+00	 4.8295491775e+01
 9.3565447302e-01	 1.0728404790e+00	 5.2015908093e+01
 9.1459824559e-01	 1.0908464765e+00	 5.1765138796e+01
 8.9321398165e-01	 1.1084244535e+00	 5.1449349032e+01
 8.7151475111e-01	 1.1255656466e+00	 5.1105438541e+01
 8.4951392661e-01	 1.1422618240e+00	 5.0753863085e+01
 9.6427380676e-01	 1.0631299214e+00	 4.8299392702e+01
 9.4338715461e-01	 1.0817069292e+00	 5.0384464602e+01
 9.2215690877e-01	 1.0998617367e+00	 5.0520796396e+01
 9.0059591539e-01	 1.1175849862e+00	 5.0586652783e+01
 8.7871735236e-01	 1.1348678420e+00	 5.0545295841e+01
 8.5653470286e-01	 1.1517020044e+00	 5.0342887946e+01
 9.7217769042e-01	 1.0718441011e+00	 4.8242004270e+01
 9.5111983621e-01	 1.0905733794e+00	 4.8744942052e+01
 9.2971557196e-01	 1.1088769968e+00	 4.9267917818e+01
 9.0797784912e-01	 1.1267455189e+00	 4.9713947095e+01
 8.8591995361e-01	 1.1441700374e+00	 4.9969194554e+01
 8.6355547912e-01	 1.1611421848e+00	 4.9903374022e+01
 9.8008157408e-01	 1.0805582808e+00	 4.6266623126e+01
 9.5885251780e-01	 1.0994398297e+00	 4.7072575100e+01
 9.3727423515e-01	 1.1178922569e+00	 4.7979868622e+01
 9.1535978285e-01	 1.1359060515e+00	 4.8809567397e+01
 8.9312255486e-01	 1.1534722329e+00	 4.9367366122e+01
 8.7057625537e-01	 1.1705823651e+00	 4.9444440926e+01
 9.8798545774e-01	 1.0892724604e+00	 4.4255414676e+01
 9.6658519940e-01	 1.1083062799e+00	 4.5343263364e+01
 9.4483289833e-01	 1.1269075171e+00	 4.6630735350e+01
 9.2274171658e-01	 1.1450665842e+00	 4.7852407584e+01
 9.0032515610e-01	 1.1627744283e+00	 4.8730216635e+01
 8.7759703162e-01	 1.1800225455e+00	 4.8974775700e+01
 8.4249315036e-01	 1.1328216437e+00	 5.1126729234e+01
 8.2038858510e-01	 1.1489308744e+00	 5.0471030118e+01
 7.9801223604e-01	 1.1645840699e+00	 4.9327219630e+01
 7.7537810361e-01	 1.1797747163e+00	 4.7617402105e+01
 7.5250037859e-01	 1.1944968669e+00	 4.5272783884e+01
 7.2939341384e-01	 1.2087451479e+00	 4.2233879528e+01
 8.4951392661e-01	 1.1422618240e+00	 5.0753863085e+01
 8.2722515665e-01	 1.1585052984e+00	 5.0156613607e+01
 8.0466233801e-01	 1.1742889372e+00	 4.9044245144e+01
 7.8183958780e-01	 1.1896061723e+00	 4.7386592736e+01
 7.5877121508e-01	 1.2044510074e+00	 4.5165534376e+01
 7.3547169229e-01	 1.2188180242e+00	 4.2374876670e+01
 8.5653470286e-01	 1.1517020044e+00	 5.0342887946e+01
 8.3406172819e-01	 1.1680797223e+00	 4.9768665140e+01
 8.1131243998e-01	 1.1839938044e+00	 4.8664072938e+01
 7.8830107200e-01	 1.1994376282e+00	 4.7050836049e+01
 7.6504205157e-01	 1.2144051480e+00	 4.4963748423e+01
 7.4154997074e-01	 1.2288909004e+00	 4.2450248674e+01
 8.6355547912e-01	 1.1611421848e+00	 4.9903374022e+01
 8.4089829973e-01	 1.1776541463e+00	 4.9334791229e+01
 8.1796254194e-01	 1.1936986717e+00	 4.8222055096e+01
 7.9476255620e-01	 1.2092690842e+00	 4.6642868594e+01
 7.7131288806e-01	 1.2243592886e+00	 4.4687146855e+01
 7.4762824919e-01	 1.2389637766e+00	 4.2456292450e+01
 8.7057625537e-01	 1.1705823651e+00	 4.9444440926e+01
 8.4773487127e-01	 1.1872285702e+00	 4.8881563528e+01
 8.2461264391e-01	 1.2034035389e+00	 4.7752256927e+01
 8.0122404039e-01	 1.2191005402e+00	 4.6194222853e+01
 7.7758372455e-01	 1.2343134291e+00	 4.4354665041e+01
 7.5370652764e-01	 1.2490366529e+00	 4.2389274220e+01
 8.7759703162e-01	 1.1800225455e+00	 4.8974775700e+01
 8.5457144282e-01	 1.1968029942e+00	 4.8434560230e+01
 8.3126274588e-01	 1.2131084062e+00	 4.7287508432e+01
 8.0768552459e-01	 1.2289319961e+00	 4.5735275405e+01
 7.8385456104e-01	 1.2442675697e+00	 4.3984484304e+01
 7.5978480608e-01	 1.2591095291e+00	 4.2245430750e+01
 7.2939341384e-01	 1.2087451479e+00	 4.2233879528e+01
 7.0607169574e-01	 1.2225147628e+00	 3.9324784545e+01
 6.8254981578e-01	 1.2358014945e+00	 3.7756840747e+01
 6.5884244214e-01	 1.2486017064e+00	 3.6161675972e+01
 6.3496429158e-01	 1.2609123416e+00	 3.4420097559e+01
 6.1093010157e-01	 1.2727309204e+00	 3.2421697136e+01
 7.3547169229e-01	 1.2188180242e+00	 4.2374876670e+01
 7.1195562654e-01	 1.2327023858e+00	 3.9251512110e+01
 6.8823773091e-01	 1.2460998403e+00	 3.7991898363e+01
 6.6433279582e-01	 1.2590067206e+00	 3.6714485166e+01
 6.4025566067e-01	 1.2714199444e+00	 3.5276364269e+01
 6.1602118575e-01	 1.2833370114e+00	 3.3541380796e+01
 7.4154997074e-01	 1.2288909004e+00	 4.2450248674e+01
 7.1783955734e-01	 1.2428900088e+00	 3.9504229821e+01
 6.9392564604e-01	 1.2563981861e+00	 3.8248500934e+01
 6.6982314950e-01	 1.2694117348e+00	 3.7307290366e+01
 6.4554702977e-01	 1.2819275473e+00	 3.6176509016e+01
 6.2111226993e-01	 1.2939431024e+00	 3.4695167805e+01
 7.4762824919e-01	 1.2389637766e+00	 4.2456292450e+01
 7.2372348814e-01	 1.2530776319e+00	 3.9924971832e+01
 6.9961356117e-01	 1.2666965318e+00	 3.8495047833e+01
 6.7531350319e-01	 1.2798167491e+00	 3.7908864562e+01
 6.5083839887e-01	 1.2924351501e+00	 3.7101205455e+01
 6.2620335411e-01	 1.3045491934e+00	 3.5887120735e+01
 7.5370652764e-01	 1.2490366529e+00	 4.2389274220e+01
 7.2960741893e-01	 1.2632652549e+00	 4.0262806321e+01
 7.0530147630e-01	 1.2769948776e+00	 3.8701011265e+01
 6.8080385687e-01	 1.2902217633e+00	 3.8489047102e+01
 6.5612976796e-01	 1.3029427530e+00	 3.8031814804e+01
 6.3129443829e-01	 1.3151552844e+00	 3.7121239833e+01
 7.5978480608e-01	 1.2591095291e+00	 4.2245430750e+01
 7.3549134973e-01	 1.2734528779e+00	 4.0492539621e+01
 7.1098939143e-01	 1.2872932234e+00	 3.8836893358e+01
 6.8629421056e-01	 1.3006267775e+00	 3.9018701038e+01
 6.6142113706e-01	 1.3134503558e+00	 3.8950358341e+01
 6.3638552247e-01	 1.3257613754e+00	 3.8401465512e+01
 6.1093010157e-01	 1.2727309204e+00	 3.2421697136e+01
 5.8675460288e-01	 1.2840555365e+00	 3.0328033732e+01
 5.6245249266e-01	 1.2948848514e+00	 2.8292237819e+01
 5.3803840817e-01	 1.3052180876e+00	 2.6213747624e+01
 5.1352690114e-01	 1.3150550204e+00	 2.4012842633e+01
 4.8893241299e-01	 1.3243959681e+00	 2.1630631042e+01
 6.1602118575e-01	 1.2833370114e+00	 3.3541380796e+01
 5.9164422457e-01	 1.2947559993e+00	 3.1687122459e+01
 5.6713959677e-01	 1.3056755585e+00	 2.9899357060e+01
 5.4252206157e-01	 1.3160949050e+00	 2.8077171214e+01
 5.1780629198e-01	 1.3260138122e+00	 2.6142965295e+01
 4.9300684976e-01	 1.3354326012e+00	 2.4042363323e+01
 6.2111226993e-01	 1.2939431024e+00	 3.4695167805e+01
 5.9653384626e-01	 1.3054564621e+00	 3.3066730049e+01
 5.7182670087e-01	 1.3164662655e+00	 3.1518993853e+01
 5.4700571497e-01	 1.3269717224e+00	 2.9950857740e+01
 5.2208568283e-01	 1.3369726040e+00	 2.8284939544e+01
 4.9708128654e-01	 1.3464692342e+00	 2.6467474358e+01
 6.2620335411e-01	 1.3045491934e+00	 3.5887120735e+01
 6.0142346795e-01	 1.3161569249e+00	 3.4493974213e+01
 5.7651380498e-01	 1.3272569726e+00	 3.3189225512e+01
 5.5148936837e-01	 1.3378485398e+00	 3.1871801296e+01
 5.2636507367e-01	 1.3479313959e+00	 3.0462719669e+01
 5.0115572331e-01	 1.3575058673e+00	 2.8905040823e+01
 6.3129443829e-01	 1.3151552844e+00	 3.7121239833e+01
 6.0631308964e-01	 1.3268573877e+00	 3.5995170683e+01
 5.8120090908e-01	 1.3380476797e+00	 3.4946977354e+01
 5.5597302177e-01	 1.3487253572e+00	 3.3875881878e+01
 5.3064446451e-01	 1.3588901877e+00	 3.2699568879e+01
 5.0523016009e-01	 1.3685425004e+00	 3.1354252607e+01
 6.3638552247e-01	 1.3257613754e+00	 3.8401465512e+01
 6.1120271133e-01	 1.3375578505e+00	 3.7595865296e+01
 5.8588801319e-01	 1.3488383868e+00	 3.6828068781e+01
 5.6045667517e-01	 1.3596021745e+00	 3.5997909954e+01
 5.3492385536e-01	 1.3698489795e+00	 3.5018086948e+01
 5.0930459686e-01	 1.3795791334e+00	 3.3814408290e+01
 4.8893241299e-01	 1.3243959681e+00	 2.1630631042e+01
 4.6426925081e-01	 1.3332417813e+00	 1.8931212749e+01
 4.3955156433e-01	 1.3415938309e+00	 1.5776800894e+01
 4.1479332383e-01	 1.3494539945e+00	 1.2127316082e+01
 3.9000829908e-01	 1.3568246428e+00	 7.9507442178e+00
 3.6521003942e-01	 1.3637086243e+00	 3.2229964407e+00
 4.9300684976e-01	 1.3354326012e+00	 2.4042363323e+01
 4.6813816123e-01	 1.3443521295e+00	 2.1599291953e+01
 4.4321449403e-01	 1.3527737795e+00	 1.8633418789e+01
 4.1824993486e-01	 1.3606994445e+00	 1.5105768769e+01
 3.9325836824e-01	 1.3681315149e+00	 1.0983356497e+01
 3.6825345642e-01	 1.3750728628e+00	 6.2391199313e+00
 4.9708128654e-01	 1.3464692342e+00	 2.6467474358e+01
 4.7200707166e-01	 1.3554624777e+00	 2.4271355556e+01
 4.4687742374e-01	 1.3639537281e+00	 2.1470872049e+01
 4.2170654589e-01	 1.3719448944e+00	 1.8036307159e+01
 3.9650843740e-01	 1.3794383869e+00	 1.3943737489e+01
 3.7129687341e-01	 1.3864371013e+00	 9.1749249739e+00
 5.0115572331e-01	 1.3575058673e+00	 2.8905040823e+01
 4.7587598208e-01	 1.3665728259e+00	 2.6922045191e+01
 4.5054035344e-01	 1.3751336767e+00	 2.4251830571e+01
 4.2516315692e-01	 1.3831903444e+00	 2.0881822857e+01
 3.9975850656e-01	 1.3907452589e+00	 1.6806894692e+01
 3.7434029041e-01	 1.3978013399e+00	 1.2029102162e+01
 5.0523016009e-01	 1.3685425004e+00	 3.1354252607e+01
 4.7974489250e-01	 1.3776831741e+00	 2.9526905129e+01
 4.5420328314e-01	 1.3863136252e+00	 2.6940253674e+01
 4.2861976796e-01	 1.3944357943e+00	 2.3606489719e+01
 4.0300857572e-01	 1.4020521309e+00	 1.9548726400e+01
 3.7738370740e-01	 1.4091655784e+00	 1.4800467697e+01
 5.0930459686e-01	 1.3795791334e+00	 3.3814408290e+01
 4.8361380293e-01	 1.3887935222e+00	 3.2062346174e+01
 4.5786621285e-01	 1.3974935738e+00	 2.9501338517e+01
 4.3207637899e-01	 1.4056812443e+00	 2.6175712568e+01
 4.0625864488e-01	 1.4133590030e+00	 2.2145986082e+01
 3.8042712440e-01	 1.4205298169e+00	 1.7487958363e+01
 3.6521003942e-01	 1.3637086243e+00	 3.2229964407e+00
 3.4041185487e-01	 1.3701092489e+00	 2.2179045667e+00
 3.1562679846e-01	 1.3760302718e+00	 2.4394745903e+00
 2.9086764973e-01	 1.3814758757e+00	 1.7768095446e+00
 2.6614689943e-01	 1.3864506528e+00	 2.9555277461e-01
 2.4147673543e-01	 1.3909595864e+00	-1.9419960856e+00
 3.6825345642e-01	 1.3750728628e+00	 6.2391199313e+00
 3.4324862033e-01	 1.3815268259e+00	 4.4026815730e+00
 3.1825702178e-01	 1.3874971907e+00	 4.5895393628e+00
 2.9329154681e-01	 1.3929881747e+00	 3.8586855030e+00
 2.6836479026e-01	 1.3980044083e+00	 2.2921211899e+00
 2.4348904156e-01	 1.4025509163e+00	-3.0124077057e-02
 3.7129687341e-01	 1.3864371013e+00	 9.1749249739e+00
 3.4608538578e-01	 1.3929444030e+00	 6.5143268861e+00
 3.2088724510e-01	 1.3989641096e+00	 6.7121380167e+00
 2.9571544389e-01	 1.4045004736e+00	 5.9716558239e+00
 2.7058268109e-01	 1.4095581637e+00	 4.3732878914e+00
 2.4550134769e-01	 1.4141422462e+00	 1.9958463626e+00
 3.7434029041e-01	 1.3978013399e+00	 1.2029102162e+01
 3.4892215124e-01	 1.4043619801e+00	 8.5779357689e+00
 3.2351746842e-01	 1.4104310286e+00	 8.8465430752e+00
 2.9813934097e-01	 1.4160127726e+00	 8.1597862621e+00
 2.7280057192e-01	 1.4211119191e+00	 6.5790214518e+00
 2.4751365382e-01	 1.4257335761e+00	 4.1634042216e+00
 3.7738370740e-01	 1.4091655784e+00	 1.4800467697e+01
 3.5175891670e-01	 1.4157795572e+00	 1.0617944617e+01
 3.2614769174e-01	 1.4218979475e+00	 1.1030901480e+01
 3.0056323805e-01	 1.4275250715e+00	 1.0465852665e+01
 2.7501846274e-01	 1.4326656746e+00	 8.2799997587e+00
 2.4952595995e-01	 1.4373249060e+00	 5.3162142290e+00
 3.8042712440e-01	 1.4205298169e+00	 1.7487958363e+01
 3.5459568216e-01	 1.4271971342e+00	 1.2658157314e+01
 3.2877791506e-01	 1.4333648664e+00	 1.2252657770e+01
 3.0298713513e-01	 1.4390373705e+00	 1.0950378712e+01
 2.7723635357e-01	 1.4442194300e+00	 9.0164386044e+00
 2.5153826608e-01	 1.4489162358e+00	 6.3668609236e+00
 2.4147673543e-01	 1.3909595864e+00	-1.9419960856e+00
 2.1686902986e-01	 1.3950080318e+00	-3.7324378459e+00
 1.9233532745e-01	 1.3986016969e+00	-4.0269582289e+00
 1.6788683513e-01	 1.4017466231e+00	-3.0073249794e+00
 1.4353441282e-01	 1.4044491650e+00	-8.6731237637e-01
 1.1928856536e-01	 1.4067159710e+00	 2.1881376186e+00
 2.4348904156e-01	 1.4025509163e+00	-3.0124077057e-02
 2.1867627178e-01	 1.4066330987e+00	-1.9301687756e+00
 1.9393812185e-01	 1.4102567110e+00	-2.4112406268e+00
 1.6928589209e-01	 1.4134278450e+00	-1.6753693060e+00
 1.4473053292e-01	 1.4161529081e+00	 6.4596974577e-02
 1.2028263674e-01	 1.4184386040e+00	 2.5858819562e+00
 2.4550134769e-01	 1.4141422462e+00	 1.9958463626e+00
 2.2048351369e-01	 1.4182581656e+00	-2.3053354798e-02
 1.9554091624e-01	 1.4219117252e+00	-7.3120875994e-01
 1.7068494905e-01	 1.4251090668e+00	-3.3721993779e-01
 1.4592665303e-01	 1.4278566511e+00	 9.4059243028e-01
 1.2127670812e-01	 1.4301612371e+00	 2.8396644374e+00
 2.4751365382e-01	 1.4257335761e+00	 4.1634042216e+00
 2.2229075561e-01	 1.4298832325e+00	 1.8526998501e+00
 1.9714371064e-01	 1.4335667393e+00	 5.7706511676e-01
 1.7208400601e-01	 1.4367902887e+00	 4.8695294316e-01
 1.4712277314e-01	 1.4395603941e+00	 1.3293495147e+00
 1.2227077949e-01	 1.4418838702e+00	 2.8450319576e+00
 2.4952595995e-01	 1.4373249060e+00	 5.3162142290e+00
 2.2409799752e-01	 1.4415082995e+00	 2.7613251300e+00
 1.9874650503e-01	 1.4452217535e+00	 1.4723395745e+00
 1.7348306297e-01	 1.4484715105e+00	 1.2206852230e+00
 1.4831889324e-01	 1.4512641372e+00	 1.7713520700e+00
 1.2326485087e-01	 1.4536065033e+00	 2.8840024203e+00
 2.5153826608e-01	 1.4489162358e+00	 6.3668609236e+00
 2.2590523944e-01	 1.4531333664e+00	 3.9318905824e+00
 2.0034929943e-01	 1.4568767676e+00	 2.5714266132e+00
 1.7488211993e-01	 1.4601527324e+00	 2.0864811622e+00
 1.4951501335e-01	 1.4629678802e+00	 2.2725571433e+00
 1.2425892225e-01	 1.4653291364e+00	 2.9205718512e+00
 1.1928856536e-01	 1.4067159710e+00	 2.1881376186e+00
 9.5159435731e-02	 1.4085539630e+00	 4.4247376413e+00
 7.1156799295e-02	 1.4099703170e+00	 4.5379484383e+00
 4.7290059228e-02	 1.4109724431e+00	 2.9870453766e+00
 2.3568243017e-02	 1.4115679660e+00	 2.6520553437e-01
 0.0000000000e+00	 1.4117647059e+00	-3.1038700323e+00
 1.2028263674e-01	 1.4184386040e+00	 2.5858819562e+00
 9.5952431028e-02	 1.4202919126e+00	 4.3474128557e+00
 7.1749772622e-02	 1.4217200696e+00	 4.2614830669e+00
 4.7684143055e-02	 1.4227305468e+00	 2.8040777644e+00
 2.3764645042e-02	 1.4233310324e+00	 4.8264462190e-01
 0.0000000000e+00	 1.4235294118e+00	-2.1672583398e+00
 1.2127670812e-01	 1.4301612371e+00	 2.8396644374e+00
 9.6745426326e-02	 1.4320298623e+00	 4.1183230223e+00
 7.2342745949e-02	 1.4334698222e+00	 3.8910458057e+00
 4.8078226882e-02	 1.4344886504e+00	 2.6123767528e+00
 2.3961047067e-02	 1.4350940988e+00	 7.6950472124e-01
 0.0000000000e+00	 1.4352941176e+00	-1.1208480136e+00
 1.2227077949e-01	 1.4418838702e+00	 2.8450319576e+00
 9.7538421624e-02	 1.4437678120e+00	 3.8444770155e+00
 7.2935719277e-02	 1.4452195749e+00	 3.6001446349e+00
 4.8472310709e-02	 1.4462467541e+00	 2.5675399487e+00
 2.4157449092e-02	 1.4468571652e+00	 1.2339514340e+00
 0.0000000000e+00	 1.4470588235e+00	 1.1536154774e-01
 1.2326485087e-01	 1.4536065033e+00	 2.8840024203e+00
 9.8331416922e-02	 1.4555057617e+00	 3.5664823528e+00
 7.3528692604e-02	 1.4569693275e+00	 3.2719340850e+00
 4.8866394536e-02	 1.4580048578e+00	 2.4501776868e+00
 2.4353851117e-02	 1.4586202316e+00	 1.5826616996e+00
 0.0000000000e+00	 1.4588235294e+00	 1.1793906650e+00
 1.2425892225e-01	 1.4653291364e+00	 2.9205718512e+00
 9.9124412219e-02	 1.4672437114e+00	 3.2406532302e+00
 7.4121665932e-02	 1.4687190802e+00	 2.8586922517e+00
 4.9260478362e-02	 1.4697629615e+00	 2.2123076486e+00
 2.4550253142e-02	 1.4703832979e+00	 1.7712867597e+00
 0.0000000000e+00	 1.4705882353e+00	 2.0345248554e+00
 1.4705882353e+00	 0.0000000000e+00	 5.4447045819e+01
 1.4703832979e+00	 2.4550253142e-02	 5.2981498533e+01
 1.4697629615e+00	 4.9260478362e-02	 5.1572442190e+01
 1.4687190802e+00	 7.4121665932e-02	 4.9897704612e+01
 1.4672437114e+00	 9.9124412219e-02	 4.7598354207e+01
 1.4653291364e+00	 1.2425892225e-01	 4.4277175270e+01
 1.4823529412e+00	 0.0000000000e+00	 5.3512976638e+01
 1.4821463643e+00	 2.4746655167e-02	 5.1965040612e+01
 1.4815210652e+00	 4.9654562189e-02	 5.0800579790e+01
 1.4804688328e+00	 7.4714639259e-02	 4.9530988858e+01
 1.4789816611e+00	 9.9917407517e-02	 4.7625962130e+01
 1.4770517695e+00	 1.2525299363e-01	 4.4512585792e+01
 1.4941176471e+00	 0.0000000000e+00	 5.2583387078e+01
 1.4939094307e+00	 2.4943057193e-02	 5.1099453376e+01
 1.4932791689e+00	 5.0048646016e-02	 5.0203438708e+01
 1.4922185854e+00	 7.5307612587e-02	 4.9282968110e+01
 1.4907196108e+00	 1.0071040281e-01	 4.7680997482e+01
 1.4887744026e+00	 1.2624706501e-01	 4.4695401610e+01
 1.5058823529e+00	 0.0000000000e+00	 5.1656991251e+01
 1.5056724971e+00	 2.5139459218e-02	 5.0374320473e+01
 1.5050372726e+00	 5.0442729843e-02	 4.9767934953e+01
 1.5039683381e+00	 7.5900585914e-02	 4.9143364680e+01
 1.5024575605e+00	 1.0150339811e-01	 4.7760439645e+01
 1.5004970357e+00	 1.2724113638e-01	 4.4833253996e+01
 1.5176470588e+00	 0.0000000000e+00	 5.0732543139e+01
 1.5174355635e+00	 2.5335861243e-02	 4.9779539685e+01
 1.5167953763e+00	 5.0836813670e-02	 4.9481372728e+01
 1.5157180907e+00	 7.6493559242e-02	 4.9102193617e+01
 1.5141955102e+00	 1.0229639341e-01	 4.7861327519e+01
 1.5122196688e+00	 1.2823520776e-01	 4.4933495507e+01
 1.5294117647e+00	 0.0000000000e+00	 4.9808835065e+01
 1.5291986299e+00	 2.5532263268e-02	 4.9305310848e+01
 1.5285534800e+00	 5.1230897497e-02	 4.9331429502e+01
 1.5274678434e+00	 7.7086532569e-02	 4.9149751449e+01
 1.5259334599e+00	 1.0308938871e-01	 4.7980757226e+01
 1.5239423019e+00	 1.2922927914e-01	 4.5003210707e+01
 1.4653291364e+00	 1.2425892225e-01	 4.4277175270e+01
 1.4629678802e+00	 1.4951501335e-01	 3.9996108862e+01
 1.4601527324e+00	 1.7488211993e-01	 3.5287059438e+01
 1.4568767676e+00	 2.0034929943e-01	 3.0438915062e+01
 1.4531333664e+00	 2.2590523944e-01	 2.5754265002e+01
 1.4489162358e+00	 2.5153826608e-01	 2.1548540224e+01
 1.4770517695e+00	 1.2525299363e-01	 4.4512585792e+01
 1.4746716233e+00	 1.5071113346e-01	 4.0251321741e+01
 1.4718339543e+00	 1.7628117689e-01	 3.5512178424e+01
 1.4685317818e+00	 2.0195209382e-01	 3.0616209971e+01
 1.4647584333e+00	 2.2771248135e-01	 2.5899868354e+01
 1.4605075657e+00	 2.5355057221e-01	 2.1714028708e+01
 1.4887744026e+00	 1.2624706501e-01	 4.4695401610e+01
 1.4863753663e+00	 1.5190725356e-01	 4.0419408355e+01
 1.4835151761e+00	 1.7768023385e-01	 3.5655090084e+01
 1.4801867959e+00	 2.0355488822e-01	 3.0742137039e+01
 1.4763835003e+00	 2.2951972327e-01	 2.6036151296e+01
 1.4720988956e+00	 2.5556287833e-01	 2.1907578751e+01
 1.5004970357e+00	 1.2724113638e-01	 4.4833253996e+01
 1.4980791093e+00	 1.5310337367e-01	 4.0517048783e+01
 1.4951963980e+00	 1.7907929081e-01	 3.5735830820e+01
 1.4918418100e+00	 2.0515768262e-01	 3.0834694223e+01
 1.4880085672e+00	 2.3132696519e-01	 2.6173995561e+01
 1.4836902255e+00	 2.5757518446e-01	 2.2128214097e+01
 1.5122196688e+00	 1.2823520776e-01	 4.4933495507e+01
 1.5097828524e+00	 1.5429949378e-01	 4.0560356153e+01
 1.5068776198e+00	 1.8047834777e-01	 3.5773758664e+01
 1.5034968242e+00	 2.0676047701e-01	 3.0911257304e+01
 1.4996336341e+00	 2.3313420710e-01	 2.6323874695e+01
 1.4952815554e+00	 2.5958749059e-01	 2.2374911693e+01
 1.5239423019e+00	 1.2922927914e-01	 4.5003210707e+01
 1.5214865954e+00	 1.5549561388e-01	 4.0564898451e+01
 1.5185588417e+00	 1.8187740473e-01	 3.5787579377e+01
 1.5151518383e+00	 2.0836327141e-01	 3.0988603817e+01
 1.5112587011e+00	 2.3494144902e-01	 2.6495869758e+01
 1.5068728853e+00	 2.6159979672e-01	 2.2646603488e+01
 1.4489162358e+00	 2.5153826608e-01	 2.1548540224e+01
 1.4442194300e+00	 2.7723635357e-01	 1.7756276210e+01
 1.4390373705e+00	 3.0298713513e-01	 1.3926612874e+01
 1.4333648664e+00	 3.2877791506e-01	 9.7962884970e+00
 1.4271971342e+00	 3.5459568216e-01	 4.7252970804e+00
 1.4205298169e+00	 3.8042712440e-01	 1.6244922240e+00
 1.4605075657e+00	 2.5355057221e-01	 2.1714028708e+01
 1.4557731855e+00	 2.7945424440e-01	 1.7976846222e+01
 1.4505496695e+00	 3.0541103221e-01	 1.4194373074e+01
 1.4448317854e+00	 3.3140813838e-01	 1.0097746591e+01
 1.4386147113e+00	 3.5743244761e-01	 5.4460186816e+00
 1.4318940555e+00	 3.8347054140e-01	 3.9801300368e+00
 1.4720988956e+00	 2.5556287833e-01	 2.1907578751e+01
 1.4673269409e+00	 2.8167213523e-01	 1.8239703086e+01
 1.4620619684e+00	 3.0783492929e-01	 1.4497344045e+01
 1.4562987043e+00	 3.3403836170e-01	 1.0420990695e+01
 1.4500322884e+00	 3.6026921307e-01	 6.1485202253e+00
 1.4432582940e+00	 3.8651395839e-01	 4.2848368156e+00
 1.4836902255e+00	 2.5757518446e-01	 2.2128214097e+01
 1.4788806963e+00	 2.8389002606e-01	 1.8533729582e+01
 1.4735742674e+00	 3.1025882637e-01	 1.4822013620e+01
 1.4677656232e+00	 3.3666858502e-01	 1.0757546159e+01
 1.4614498655e+00	 3.6310597853e-01	 6.7817136101e+00
 1.4546225325e+00	 3.8955737539e-01	 4.5680279048e+00
 1.4952815554e+00	 2.5958749059e-01	 2.2374911693e+01
 1.4904344518e+00	 2.8610791689e-01	 1.8848070226e+01
 1.4850865664e+00	 3.1268272346e-01	 1.5155200124e+01
 1.4792325422e+00	 3.3929880834e-01	 1.1099107534e+01
 1.4728674425e+00	 3.6594274398e-01	 7.3540786618e+00
 1.4659867711e+00	 3.9260079238e-01	 4.8567112287e+00
 1.5068728853e+00	 2.6159979672e-01	 2.2646603488e+01
 1.5019882072e+00	 2.8832580772e-01	 1.9172121206e+01
 1.4965988653e+00	 3.1510662054e-01	 1.5484039658e+01
 1.4906994611e+00	 3.4192903166e-01	 1.1437532060e+01
 1.4842850196e+00	 3.6877950944e-01	 7.8738917308e+00
 1.4773510096e+00	 3.9564420938e-01	 5.1771248485e+00
 1.4205298169e+00	 3.8042712440e-01	 1.6244922240e+00
 1.4133590030e+00	 4.0625864488e-01	-1.5270609769e+00
 1.4056812443e+00	 4.3207637899e-01	-4.9838968569e+00
 1.3974935738e+00	 4.5786621285e-01	-8.4271000575e+00
 1.3887935222e+00	 4.8361380293e-01	-1.1532070559e+01
 1.3795791334e+00	 5.0930459686e-01	-1.3970274604e+01
 1.4318940555e+00	 3.8347054140e-01	 3.9801300368e+00
 1.4246658750e+00	 4.0950871404e-01	 9.8297977873e-01
 1.4169266942e+00	 4.3553299002e-01	-3.1263436103e+00
 1.4086735224e+00	 4.6152914255e-01	-7.1357823487e+00
 1.3999038704e+00	 4.8748271335e-01	-1.0677677827e+01
 1.3906157665e+00	 5.1337903364e-01	-1.3377054082e+01
 1.4432582940e+00	 3.8651395839e-01	 4.2848368156e+00
 1.4359727470e+00	 4.1275878320e-01	 1.8440926386e+00
 1.4281721442e+00	 4.3898960105e-01	-9.8338615478e-01
 1.4198534710e+00	 4.6519207225e-01	-5.4462243356e+00
 1.4110142186e+00	 4.9135162378e-01	-9.3328380292e+00
 1.4016523996e+00	 5.1745347041e-01	-1.2257510685e+01
 1.4546225325e+00	 3.8955737539e-01	 4.5680279048e+00
 1.4472796190e+00	 4.1600885236e-01	 1.8376887852e+00
 1.4394175941e+00	 4.4244621208e-01	-1.0969502707e+00
 1.4310334196e+00	 4.6885500195e-01	-3.8754222697e+00
 1.4221245668e+00	 4.9522053420e-01	-7.4800976985e+00
 1.4126890326e+00	 5.2152790719e-01	-1.0619671684e+01
 1.4659867711e+00	 3.9260079238e-01	 4.8567112287e+00
 1.4585864911e+00	 4.1925892152e-01	 1.9484377852e+00
 1.4506630441e+00	 4.4590282312e-01	-1.0547960303e+00
 1.4422133682e+00	 4.7251793166e-01	-3.8461583365e+00
 1.4332349149e+00	 4.9908944462e-01	-6.1027582036e+00
 1.4237256657e+00	 5.2560234396e-01	-8.4715609762e+00
 1.4773510096e+00	 3.9564420938e-01	 5.1771248485e+00
 1.4698933631e+00	 4.2250899067e-01	 2.2179918837e+00
 1.4619084940e+00	 4.4935943415e-01	-7.1771254844e-01
 1.4533933168e+00	 4.7618086136e-01	-3.4058270094e+00
 1.4443452631e+00	 5.0295835505e-01	-5.6117892057e+00
 1.4347622988e+00	 5.2967678074e-01	-7.0912617355e+00
 1.3795791334e+00	 5.0930459686e-01	-1.3970274604e+01
 1.3698489795e+00	 5.3492385536e-01	-1.5456806719e+01
 1.3596021745e+00	 5.6045667517e-01	-1.6079282357e+01
 1.3488383868e+00	 5.8588801319e-01	-1.6087394437e+01
 1.3375578505e+00	 6.1120271133e-01	-1.5759050871e+01
 1.3257613754e+00	 6.3638552247e-01	-1.5399962222e+01
 1.3906157665e+00	 5.1337903364e-01	-1.3377054082e+01
 1.3808077714e+00	 5.3920324620e-01	-1.4978044010e+01
 1.3704789919e+00	 5.6494032858e-01	-1.5651420081e+01
 1.3596290939e+00	 5.9057511729e-01	-1.5680837139e+01
 1.3482583133e+00	 6.1609233302e-01	-1.5380281203e+01
 1.3363674664e+00	 6.4147660665e-01	-1.5093501392e+01
 1.4016523996e+00	 5.1745347041e-01	-1.2257510685e+01
 1.3917665632e+00	 5.4348263704e-01	-1.4025695657e+01
 1.3813558093e+00	 5.6942398198e-01	-1.4875193463e+01
 1.3704198010e+00	 5.9526222140e-01	-1.5086547333e+01
 1.3589587761e+00	 6.2098195471e-01	-1.4970400855e+01
 1.3469735574e+00	 6.4656769083e-01	-1.4866927943e+01
 1.4126890326e+00	 5.2152790719e-01	-1.0619671684e+01
 1.4027253551e+00	 5.4776202788e-01	-1.2631983383e+01
 1.3922326267e+00	 5.7390763538e-01	-1.3796275634e+01
 1.3812105081e+00	 5.9994932550e-01	-1.4353761335e+01
 1.3696592389e+00	 6.2587157640e-01	-1.4573214396e+01
 1.3575796484e+00	 6.5165877501e-01	-1.4750549612e+01
 1.4237256657e+00	 5.2560234396e-01	-8.4715609762e+00
 1.4136841469e+00	 5.5204141873e-01	-1.0828383072e+01
 1.4031094441e+00	 5.7839128878e-01	-1.2459183893e+01
 1.3920012152e+00	 6.0463642961e-01	-1.3530455585e+01
 1.3803597017e+00	 6.3076119809e-01	-1.4231440710e+01
 1.3681857394e+00	 6.5674985919e-01	-1.4774012021e+01
 1.4347622988e+00	 5.2967678074e-01	-7.0912617355e+00
 1.4246429387e+00	 5.5632080957e-01	-8.6456534510e+00
 1.4139862615e+00	 5.8287494218e-01	-1.0907324160e+01
 1.4027919223e+00	 6.0932353372e-01	-1.2663395105e+01
 1.3910601645e+00	 6.3565081979e-01	-1.3986754750e+01
 1.3787918304e+00	 6.6184094337e-01	-1.4966324147e+01
 1.3257613754e+00	 6.3638552247e-01	-1.5399962222e+01
 1.3134503558e+00	 6.6142113706e-01	-1.5016462234e+01
 1.3006267775e+00	 6.8629421056e-01	-1.4435417729e+01
 1.2872932234e+00	 7.1098939143e-01	-1.3719397316e+01
 1.2734528779e+00	 7.3549134973e-01	-1.3255350548e+01
 1.2591095291e+00	 7.5978480608e-01	-1.2192882832e+01
 1.3363674664e+00	 6.4147660665e-01	-1.5093501392e+01
 1.3239579587e+00	 6.6671250616e-01	-1.4812165396e+01
 1.3110317917e+00	 6.9178456424e-01	-1.4313789368e+01
 1.2975915692e+00	 7.1667730656e-01	-1.3729910690e+01
 1.2836405009e+00	 7.4137528053e-01	-1.3482323644e+01
 1.2691824053e+00	 7.6586308453e-01	-1.2523098774e+01
 1.3469735574e+00	 6.4656769083e-01	-1.4866927943e+01
 1.3344655615e+00	 6.7200387525e-01	-1.4724480780e+01
 1.3214368059e+00	 6.9727491793e-01	-1.4286398593e+01
 1.3078899150e+00	 7.2236522170e-01	-1.3934517790e+01
 1.2938281240e+00	 7.4725921133e-01	-1.3742595674e+01
 1.2792552815e+00	 7.7194136298e-01	-1.2832243219e+01
 1.3575796484e+00	 6.5165877501e-01	-1.4750549612e+01
 1.3449731644e+00	 6.7729524435e-01	-1.4769182003e+01
 1.3318418202e+00	 7.0276527161e-01	-1.4359475233e+01
 1.3181882608e+00	 7.2805313683e-01	-1.4233364521e+01
 1.3040157470e+00	 7.5314314212e-01	-1.4025006390e+01
 1.2893281578e+00	 7.7801964143e-01	-1.3111104702e+01
 1.3681857394e+00	 6.5674985919e-01	-1.4774012021e+01
 1.3554807672e+00	 6.8258661345e-01	-1.4961835599e+01
 1.3422468344e+00	 7.0825562530e-01	-1.4539341606e+01
 1.3284866066e+00	 7.3374105196e-01	-1.4616886326e+01
 1.3142033700e+00	 7.5902707292e-01	-1.4318690601e+01
 1.2994010340e+00	 7.8409791988e-01	-1.3350706044e+01
 1.3787918304e+00	 6.6184094337e-01	-1.4966324147e+01
 1.3659883701e+00	 6.8787798254e-01	-1.5317808980e+01
 1.3526518486e+00	 7.1374597898e-01	-1.4832408963e+01
 1.3387849524e+00	 7.3942896709e-01	-1.5075762796e+01
 1.3243909930e+00	 7.6491100372e-01	-1.4613066822e+01
 1.3094739102e+00	 7.9017619833e-01	-1.3542295348e+01
 1.2591095291e+00	 7.5978480608e-01	-1.2192882832e+01
 1.2442675697e+00	 7.8385456104e-01	-1.0675358277e+01
 1.2289319961e+00	 8.0768552459e-01	-8.8908900189e+00
 1.2131084062e+00	 8.3126274588e-01	-6.7059865821e+00
 1.1968029942e+00	 8.5457144282e-01	-3.9892821862e+00
 1.1800225455e+00	 8.7759703162e-01	-6.1229493513e-01
 1.2691824053e+00	 7.6586308453e-01	-1.2523098774e+01
 1.2542217102e+00	 7.9012539752e-01	-1.1089353657e+01
 1.2387634521e+00	 8.1414700879e-01	-9.3768749935e+00
 1.2228132734e+00	 8.3791284785e-01	-7.2464016913e+00
 1.2063774181e+00	 8.6140801436e-01	-4.5594962536e+00
 1.1894627259e+00	 8.8461780787e-01	-1.1793322707e+00
 1.2792552815e+00	 7.7194136298e-01	-1.2832243219e+01
 1.2641758508e+00	 7.9639623401e-01	-1.1457728428e+01
 1.2485949081e+00	 8.2060849298e-01	-9.8147557772e+00
 1.2325181407e+00	 8.4456294981e-01	-7.7527122699e+00
 1.2159518421e+00	 8.6824458590e-01	-5.1203614536e+00
 1.1989029062e+00	 8.9163858413e-01	-1.7666921369e+00
 1.2893281578e+00	 7.7801964143e-01	-1.3111104702e+01
 1.2741299913e+00	 8.0266707050e-01	-1.1774341349e+01
 1.2584263641e+00	 8.2706997718e-01	-1.0200906080e+01
 1.2422230079e+00	 8.5121305178e-01	-8.2233880233e+00
 1.2255262661e+00	 8.7508115744e-01	-5.6721627098e+00
 1.2083430866e+00	 8.9865936038e-01	-2.3763335307e+00
 1.2994010340e+00	 7.8409791988e-01	-1.3350706044e+01
 1.2840841319e+00	 8.0893790699e-01	-1.2033190052e+01
 1.2682578200e+00	 8.3353146138e-01	-1.0531760416e+01
 1.2519278752e+00	 8.5786315375e-01	-8.6568945015e+00
 1.2351006900e+00	 8.8191772899e-01	-6.2151246610e+00
 1.2177832670e+00	 9.0568013663e-01	-3.0101035326e+00
 1.3094739102e+00	 7.9017619833e-01	-1.3542295348e+01
 1.2940382725e+00	 8.1520874348e-01	-1.2228405704e+01
 1.2780892760e+00	 8.3999294557e-01	-1.0803811759e+01
 1.2616327424e+00	 8.6451325571e-01	-9.0516932582e+00
 1.2446751140e+00	 8.8875430053e-01	-6.7494139799e+00
 1.2272234473e+00	 9.1270091289e-01	-3.6697416112e+00
 1.1800225455e+00	 8.7759703162e-01	-6.1229493513e-01
 1.1627744283e+00	 9.0032515610e-01	 3.5164879762e+00
 1.1450665842e+00	 9.2274171658e-01	 8.2933372879e+00
 1.1269075171e+00	 9.4483289833e-01	 1.3552528415e+01
 1.1083062799e+00	 9.6658519940e-01	 1.9130725422e+01
 1.0892724604e+00	 9.8798545774e-01	 2.4867826444e+01
 1.1894627259e+00	 8.8461780787e-01	-1.1793322707e+00
 1.1720766237e+00	 9.0752775735e-01	 3.0024364415e+00
 1.1542271169e+00	 9.3012365032e-01	 7.8690303180e+00
 1.1359227772e+00	 9.5239156152e-01	 1.3218359474e+01
 1.1171727301e+00	 9.7431788100e-01	 1.8849801035e+01
 1.0979866401e+00	 9.9588934141e-01	 2.4565260287e+01
 1.1989029062e+00	 8.9163858413e-01	-1.7666921369e+00
 1.1813788191e+00	 9.1473035860e-01	 2.4343360462e+00
 1.1633876496e+00	 9.3750558405e-01	 7.3557117633e+00
 1.1449380373e+00	 9.5995022471e-01	 1.2768092146e+01
 1.1260391804e+00	 9.8205056259e-01	 1.8443002852e+01
 1.1067008198e+00	 1.0037932251e+00	 2.4154066393e+01
 1.2083430866e+00	 8.9865936038e-01	-2.3763335307e+00
 1.1906810146e+00	 9.2193295985e-01	 1.8095061827e+00
 1.1725481822e+00	 9.4488751778e-01	 6.7517006223e+00
 1.1539532975e+00	 9.6750888789e-01	 1.2202557483e+01
 1.1349056306e+00	 9.8978324419e-01	 1.7914972207e+01
 1.1154149995e+00	 1.0116971087e+00	 2.3643775593e+01
 1.2177832670e+00	 9.0568013663e-01	-3.0101035326e+00
 1.1999832100e+00	 9.2913556110e-01	 1.1254001391e+00
 1.1817087149e+00	 9.5226945152e-01	 6.0554182825e+00
 1.1629685576e+00	 9.7506755108e-01	 1.1522610408e+01
 1.1437720809e+00	 9.9751592578e-01	 1.7270255425e+01
 1.1241291792e+00	 1.0196009924e+00	 2.3043671260e+01
 1.2272234473e+00	 9.1270091289e-01	-3.6697416112e+00
 1.2092854054e+00	 9.3633816235e-01	 3.7959995004e-01
 1.1908692476e+00	 9.5965138525e-01	 5.2653845829e+00
 1.1719838177e+00	 9.8262621427e-01	 1.0729128799e+01
 1.1526385311e+00	 1.0052486074e+00	 1.6513307476e+01
 1.1328433589e+00	 1.0275048761e+00	 2.2362798830e+01
 1.0892724604e+00	 9.8798545774e-01	 2.4867826444e+01
 1.0698161648e+00	 1.0090208775e+00	 3.0642213197e+01
 1.0499480000e+00	 1.0296790544e+00	 3.4631360798e+01
 1.0296790544e+00	 1.0499480000e+00	 3.8896263633e+01
 1.0090208775e+00	 1.0698161648e+00	 4.3485911920e+01
 9.8798545774e-01	 1.0892724604e+00	 4.4255414676e+01
 1.0979866401e+00	 9.9588934141e-01	 2.4565260287e+01
 1.0783746941e+00	 1.0170930445e+00	 3.0410448951e+01
 1.0583475840e+00	 1.0379164868e+00	 3.5044439364e+01
 1.0379164868e+00	 1.0583475840e+00	 3.9116889964e+01
 1.0170930445e+00	 1.0783746941e+00	 4.1882350030e+01
 9.9588934141e-01	 1.0979866401e+00	 4.2314383946e+01
 1.1067008198e+00	 1.0037932251e+00	 2.4154066393e+01
 1.0869332235e+00	 1.0251652116e+00	 2.9926525265e+01
 1.0667471680e+00	 1.0461539193e+00	 3.5559113985e+01
 1.0461539193e+00	 1.0667471680e+00	 3.9510804710e+01
 1.0251652116e+00	 1.0869332235e+00	 4.0089274317e+01
 1.0037932251e+00	 1.1067008198e+00	 4.0563157288e+01
 1.1154149995e+00	 1.0116971087e+00	 2.3643775593e+01
 1.0954917528e+00	 1.0332373786e+00	 2.9395477133e+01
 1.0751467520e+00	 1.0543913517e+00	 3.5641288839e+01
 1.0543913517e+00	 1.0751467520e+00	 3.9152050549e+01
 1.0332373786e+00	 1.0954917528e+00	 3.8512054775e+01
 1.0116971087e+00	 1.1154149995e+00	 3.9006474682e+01
 1.1241291792e+00	 1.0196009924e+00	 2.3043671260e+01
 1.1040502821e+00	 1.0413095456e+00	 2.8830450678e+01
 1.0835463360e+00	 1.0626287842e+00	 3.5098501509e+01
 1.0626287842e+00	 1.0835463360e+00	 3.7815095056e+01
 1.0413095456e+00	 1.1040502821e+00	 3.7158030040e+01
 1.0196009924e+00	 1.1241291792e+00	 3.7648809515e+01
 1.1328433589e+00	 1.0275048761e+00	 2.2362798830e+01
 1.1126088114e+00	 1.0493817126e+00	 2.8244234299e+01
 1.0919459200e+00	 1.0708662166e+00	 3.4601786154e+01
 1.0708662166e+00	 1.0919459200e+00	 3.6686343304e+01
 1.0493817126e+00	 1.1126088114e+00	 3.6034198442e+01
 1.0275048761e+00	 1.1328433589e+00	 3.6494378841e+01
 9.8798545774e-01	 1.0892724604e+00	 4.4255414676e+01
 9.6658519940e-01	 1.1083062799e+00	 4.5343263364e+01
 9.4483289833e-01	 1.1269075171e+00	 4.6630735350e+01
 9.2274171658e-01	 1.1450665842e+00	 4.7852407584e+01
 9.0032515610e-01	 1.1627744283e+00	 4.8730216635e+01
 8.7759703162e-01	 1.1800225455e+00	 4.8974775700e+01
 9.9588934141e-01	 1.0979866401e+00	 4.2314383946e+01
 9.7431788100e-01	 1.1171727301e+00	 4.3638893917e+01
 9.5239156152e-01	 1.1359227772e+00	 4.5261721820e+01
 9.3012365032e-01	 1.1542271169e+00	 4.6840123645e+01
 9.0752775735e-01	 1.1720766237e+00	 4.8021962465e+01
 8.8461780787e-01	 1.1894627259e+00	 4.8447438723e+01
 1.0037932251e+00	 1.1067008198e+00	 4.0563157288e+01
 9.8205056259e-01	 1.1260391804e+00	 4.2058208034e+01
 9.5995022471e-01	 1.1449380373e+00	 4.3929737655e+01
 9.3750558405e-01	 1.1633876496e+00	 4.5780118678e+01
 9.1473035860e-01	 1.1813788191e+00	 4.7205384978e+01
 8.9163858413e-01	 1.1989029062e+00	 4.7797253793e+01
 1.0116971087e+00	 1.1154149995e+00	 3.9006474682e+01
 9.8978324419e-01	 1.1349056306e+00	 4.0602737007e+01
 9.6750888789e-01	 1.1539532975e+00	 4.2632898277e+01
 9.4488751778e-01	 1.1725481822e+00	 4.4666356465e+01
 9.2193295985e-01	 1.1906810146e+00	 4.6269035846e+01
 8.9865936038e-01	 1.2083430866e+00	 4.7005580834e+01
 1.0196009924e+00	 1.1241291792e+00	 3.7648809515e+01
 9.9751592578e-01	 1.1437720809e+00	 3.9273841072e+01
 9.7506755108e-01	 1.1629685576e+00	 4.1369250297e+01
 9.5226945152e-01	 1.1817087149e+00	 4.3492857334e+01
 9.2913556110e-01	 1.1999832100e+00	 4.5201688057e+01
 9.0568013663e-01	 1.2177832670e+00	 4.6054221383e+01
 1.0275048761e+00	 1.1328433589e+00	 3.6494378841e+01
 1.0052486074e+00	 1.1526385311e+00	 3.8072715987e+01
 9.8262621427e-01	 1.1719838177e+00	 4.0136774158e+01
 9.5965138525e-01	 1.1908692476e+00	 4.2253695990e+01
 9.3633816235e-01	 1.2092854054e+00	 4.3992327405e+01
 9.1270091289e-01	 1.2272234473e+00	 4.4925401603e+01
 8.7759703162e-01	 1.1800225455e+00	 4.8974775700e+01
 8.5457144282e-01	 1.1968029942e+00	 4.8434560230e+01
 8.3126274588e-01	 1.2131084062e+00	 4.7287508432e+01
 8.0768552459e-01	 1.2289319961e+00	 4.5735275405e+01
 7.8385456104e-01	 1.2442675697e+00	 4.3984484304e+01
 7.5978480608e-01	 1.2591095291e+00	 4.2245430750e+01
 8.8461780787e-01	 1.1894627259e+00	 4.8447438723e+01
 8.6140801436e-01	 1.2063774181e+00	 4.7959589664e+01
 8.3791284785e-01	 1.2228132734e+00	 4.6816686296e+01
 8.1414700879e-01	 1.2387634521e+00	 4.5278208991e+01
 7.9012539752e-01	 1.2542217102e+00	 4.3603855819e+01
 7.6586308453e-01	 1.2691824053e+00	 4.2052002433e+01
 8.9163858413e-01	 1.1989029062e+00	 4.7797253793e+01
 8.6824458590e-01	 1.2159518421e+00	 4.7389692532e+01
 8.4456294981e-01	 1.2325181407e+00	 4.6291995842e+01
 8.2060849298e-01	 1.2485949081e+00	 4.4805550756e+01
 7.9639623401e-01	 1.2641758508e+00	 4.3228568175e+01
 7.7194136298e-01	 1.2792552815e+00	 4.1854360267e+01
 8.9865936038e-01	 1.2083430866e+00	 4.7005580834e+01
 8.7508115744e-01	 1.2255262661e+00	 4.6701038876e+01
 8.5121305178e-01	 1.2422230079e+00	 4.5690797637e+01
 8.2706997718e-01	 1.2584263641e+00	 4.4302597421e+01
 8.0266707050e-01	 1.2741299913e+00	 4.2858942596e+01
 7.7801964143e-01	 1.2893281578e+00	 4.1675257740e+01
 9.0568013663e-01	 1.2177832670e+00	 4.6054221383e+01
 8.8191772899e-01	 1.2351006900e+00	 4.5870398920e+01
 8.5786315375e-01	 1.2519278752e+00	 4.4991013534e+01
 8.3353146138e-01	 1.2682578200e+00	 4.3754959309e+01
 8.0893790699e-01	 1.2840841319e+00	 4.2495146826e+01
 7.8409791988e-01	 1.2994010340e+00	 4.1536598486e+01
 9.1270091289e-01	 1.2272234473e+00	 4.4925401603e+01
 8.8875430053e-01	 1.2446751140e+00	 4.4875119989e+01
 8.6451325571e-01	 1.2616327424e+00	 4.4171105086e+01
 8.3999294557e-01	 1.2780892760e+00	 4.3148548288e+01
 8.1520874348e-01	 1.2940382725e+00	 4.2137201035e+01
 7.9017619833e-01	 1.3094739102e+00	 4.1459468967e+01
 7.5978480608e-01	 1.2591095291e+00	 4.2245430750e+01
 7.3549134973e-01	 1.2734528779e+00	 4.0492539621e+01
 7.1098939143e-01	 1.2872932234e+00	 3.8836893358e+01
 6.8629421056e-01	 1.3006267775e+00	 3.9018701038e+01
 6.6142113706e-01	 1.3134503558e+00	 3.8950358341e+01
 6.3638552247e-01	 1.3257613754e+00	 3.8401465512e+01
 7.6586308453e-01	 1.2691824053e+00	 4.2052002433e+01
 7.4137528053e-01	 1.2836405009e+00	 4.0629448312e+01
 7.1667730656e-01	 1.2975915692e+00	 3.9122464256e+01
 6.9178456424e-01	 1.3110317917e+00	 3.9495927519e+01
 6.6671250616e-01	 1.3239579587e+00	 3.9849218928e+01
 6.4147660665e-01	 1.3363674664e+00	 3.9718607758e+01
 7.7194136298e-01	 1.2792552815e+00	 4.1854360267e+01
 7.4725921133e-01	 1.2938281240e+00	 4.0734369005e+01
 7.2236522170e-01	 1.3078899150e+00	 3.9661882972e+01
 6.9727491793e-01	 1.3214368059e+00	 3.9971397626e+01
 6.7200387525e-01	 1.3344655615e+00	 4.0752843181e+01
 6.4656769083e-01	 1.3469735574e+00	 4.1059047152e+01
 7.7801964143e-01	 1.2893281578e+00	 4.1675257740e+01
 7.5314314212e-01	 1.3040157470e+00	 4.0849808539e+01
 7.2805313683e-01	 1.3181882608e+00	 4.0197406258e+01
 7.0276527161e-01	 1.3318418202e+00	 4.0494432734e+01
 6.7729524435e-01	 1.3449731644e+00	 4.1691156714e+01
 6.5165877501e-01	 1.3575796484e+00	 4.2420150886e+01
 7.8409791988e-01	 1.2994010340e+00	 4.1536598486e+01
 7.5902707292e-01	 1.3142033700e+00	 4.1016810993e+01
 7.3374105196e-01	 1.3284866066e+00	 4.0776589033e+01
 7.0825562530e-01	 1.3422468344e+00	 4.1112881622e+01
 6.8258661345e-01	 1.3554807672e+00	 4.2693218862e+01
 6.5674985919e-01	 1.3681857394e+00	 4.3799433845e+01
 7.9017619833e-01	 1.3094739102e+00	 4.1459468967e+01
 7.6491100372e-01	 1.3243909930e+00	 4.1275013950e+01
 7.3942896709e-01	 1.3387849524e+00	 4.1445379405e+01
 7.1374597898e-01	 1.3526518486e+00	 4.1873177110e+01
 6.8787798254e-01	 1.3659883701e+00	 4.3787255999e+01
 6.6184094337e-01	 1.3787918304e+00	 4.5194552935e+01
 6.3638552247e-01	 1.3257613754e+00	 3.8401465512e+01
 6.1120271133e-01	 1.3375578505e+00	 3.7595865296e+01
 5.8588801319e-01	 1.3488383868e+00	 3.6828068781e+01
 5.6045667517e-01	 1.3596021745e+00	 3.5997909954e+01
 5.3492385536e-01	 1.3698489795e+00	 3.5018086948e+01
 5.0930459686e-01	 1.3795791334e+00	 3.3814408290e+01
 6.4147660665e-01	 1.3363674664e+00	 3.9718607758e+01
 6.1609233302e-01	 1.3482583133e+00	 3.9281899947e+01
 5.9057511729e-01	 1.3596290939e+00	 3.8806886930e+01
 5.6494032858e-01	 1.3704789919e+00	 3.8200891168e+01
 5.3920324620e-01	 1.3808077714e+00	 3.7379019251e+01
 5.1337903364e-01	 1.3906157665e+00	 3.6264534439e+01
 6.4656769083e-01	 1.3469735574e+00	 4.1059047152e+01
 6.2098195471e-01	 1.3589587761e+00	 4.1000131919e+01
 5.9526222140e-01	 1.3704198010e+00	 4.0803929012e+01
 5.6942398198e-01	 1.3813558093e+00	 4.0398388143e+01
 5.4348263704e-01	 1.3917665632e+00	 3.9717118158e+01
 5.1745347041e-01	 1.4016523996e+00	 3.8699719411e+01
 6.5165877501e-01	 1.3575796484e+00	 4.2420150886e+01
 6.2587157640e-01	 1.3696592389e+00	 4.2717908986e+01
 5.9994932550e-01	 1.3812105081e+00	 4.2774505960e+01
 5.7390763538e-01	 1.3922326267e+00	 4.2551268477e+01
 5.4776202788e-01	 1.4027253551e+00	 4.2015967027e+01
 5.2152790719e-01	 1.4126890326e+00	 4.1142943926e+01
 6.5674985919e-01	 1.3681857394e+00	 4.3799433845e+01
 6.3076119809e-01	 1.3803597017e+00	 4.4403661362e+01
 6.0463642961e-01	 1.3920012152e+00	 4.4675387764e+01
 5.7839128878e-01	 1.4031094441e+00	 4.4621689366e+01
 5.5204141873e-01	 1.4136841469e+00	 4.4259736735e+01
 5.2560234396e-01	 1.4237256657e+00	 4.3616556320e+01
 6.6184094337e-01	 1.3787918304e+00	 4.5194552935e+01
 6.3565081979e-01	 1.3910601645e+00	 4.6026860066e+01
 6.0932353372e-01	 1.4027919223e+00	 4.6464747353e+01
 5.8287494218e-01	 1.4139862615e+00	 4.6573048004e+01
 5.5632080957e-01	 1.4246429387e+00	 4.6433163080e+01
 5.2967678074e-01	 1.4347622988e+00	 4.3894487425e+01
 5.0930459686e-01	 1.3795791334e+00	 3.3814408290e+01
 4.8361380293e-01	 1.3887935222e+00	 3.2062346174e+01
 4.5786621285e-01	 1.3974935738e+00	 2.9501338517e+01
 4.3207637899e-01	 1.4056812443e+00	 2.6175712568e+01
 4.0625864488e-01	 1.4133590030e+00	 2.2145986082e+01
 3.8042712440e-01	 1.4205298169e+00	 1.7487958363e+01
 5.1337903364e-01	 1.3906157665e+00	 3.6264534439e+01
 4.8748271335e-01	 1.3999038704e+00	 3.4560357511e+01
 4.6152914255e-01	 1.4086735224e+00	 3.2047798274e+01
 4.3553299002e-01	 1.4169266942e+00	 2.8790263162e+01
 4.0950871404e-01	 1.4246658750e+00	 2.4871952910e+01
 3.8347054140e-01	 1.4318940555e+00	 1.9474702568e+01
 5.1745347041e-01	 1.4016523996e+00	 3.8699719411e+01
 4.9135162378e-01	 1.4110142186e+00	 3.7108601229e+01
 4.6519207225e-01	 1.4198534710e+00	 3.4764908531e+01
 4.3898960105e-01	 1.4281721442e+00	 3.1718404199e+01
 4.1275878320e-01	 1.4359727470e+00	 2.5798122057e+01
 3.8651395839e-01	 1.4432582940e+00	 1.9739942473e+01
 5.2152790719e-01	 1.4126890326e+00	 4.1142943926e+01
 4.9522053420e-01	 1.4221245668e+00	 3.9766268961e+01
 4.6885500195e-01	 1.4310334196e+00	 3.6887421308e+01
 4.4244621208e-01	 1.4394175941e+00	 3.1498933976e+01
 4.1600885236e-01	 1.4472796190e+00	 2.5991785600e+01
 3.8955737539e-01	 1.4546225325e+00	 2.0495570399e+01
 5.2560234396e-01	 1.4237256657e+00	 4.3616556320e+01
 4.9908944462e-01	 1.4332349149e+00	 4.0939580967e+01
 4.7251793166e-01	 1.4422133682e+00	 3.6315372817e+01
 4.4590282312e-01	 1.4506630441e+00	 3.1539441388e+01
 4.1925892152e-01	 1.4585864911e+00	 2.6661738977e+01
 3.9260079238e-01	 1.4659867711e+00	 2.1727073622e+01
 5.2967678074e-01	 1.4347622988e+00	 4.3894487425e+01
 5.0295835505e-01	 1.4443452631e+00	 3.9995955173e+01
 4.7618086136e-01	 1.4533933168e+00	 3.6055932001e+01
 4.4935943415e-01	 1.4619084940e+00	 3.2024337271e+01
 4.2250899067e-01	 1.4698933631e+00	 2.7837718964e+01
 3.9564420938e-01	 1.4773510096e+00	 2.3420272449e+01
 3.8042712440e-01	 1.4205298169e+00	 1.7487958363e+01
 3.5459568216e-01	 1.4271971342e+00	 1.2658157314e+01
 3.2877791506e-01	 1.4333648664e+00	 1.2252657770e+01
 3.0298713513e-01	 1.4390373705e+00	 1.0950378712e+01
 2.7723635357e-01	 1.4442194300e+00	 9.0164386044e+00
 2.5153826608e-01	 1.4489162358e+00	 6.3668609236e+00
 3.8347054140e-01	 1.4318940555e+00	 1.9474702568e+01
 3.5743244761e-01	 1.4386147113e+00	 1.2558416489e+01
 3.3140813838e-01	 1.4448317854e+00	 1.2308468527e+01
 3.0541103221e-01	 1.4505496695e+00	 1.1519633441e+01
 2.7945424440e-01	 1.4557731855e+00	 9.9881719394e+00
 2.5355057221e-01	 1.4605075657e+00	 7.5833796619e+00
 3.8651395839e-01	 1.4432582940e+00	 1.9739942473e+01
 3.6026921307e-01	 1.4500322884e+00	 1.3341066724e+01
 3.3403836170e-01	 1.4562987043e+00	 1.2772692656e+01
 3.0783492929e-01	 1.4620619684e+00	 1.2355150712e+01
 2.8167213523e-01	 1.4673269409e+00	 1.1069887888e+01
 2.5556287833e-01	 1.4720988956e+00	 8.7787030135e+00
 3.8955737539e-01	 1.4546225325e+00	 2.0495570399e+01
 3.6310597853e-01	 1.4614498655e+00	 1.4567257056e+01
 3.3666858502e-01	 1.4677656232e+00	 1.3558957424e+01
 3.1025882637e-01	 1.4735742674e+00	 1.3360840008e+01
 2.8389002606e-01	 1.4788806963e+00	 1.2172722551e+01
 2.5757518446e-01	 1.4836902255e+00	 9.8871392125e+00
 3.9260079238e-01	 1.4659867711e+00	 2.1727073622e+01
 3.6594274398e-01	 1.4728674425e+00	 1.6177528542e+01
 3.3929880834e-01	 1.4792325422e+00	 1.4583541039e+01
 3.1268272346e-01	 1.4850865664e+00	 1.4443565961e+01
 2.8610791689e-01	 1.4904344518e+00	 1.3210545861e+01
 2.5958749059e-01	 1.4952815554e+00	 1.0845014457e+01
 3.9564420938e-01	 1.4773510096e+00	 2.3420272449e+01
 3.6877950944e-01	 1.4842850196e+00	 1.8114144432e+01
 3.4192903166e-01	 1.4906994611e+00	 1.5765270693e+01
 3.1510662054e-01	 1.4965988653e+00	 1.5513034691e+01
 2.8832580772e-01	 1.5019882072e+00	 1.4099856434e+01
 2.6159979672e-01	 1.5068728853e+00	 1.1590595294e+01
 2.5153826608e-01	 1.4489162358e+00	 6.3668609236e+00
 2.2590523944e-01	 1.4531333664e+00	 3.9318905824e+00
 2.0034929943e-01	 1.4568767676e+00	 2.5714266132e+00
 1.7488211993e-01	 1.4601527324e+00	 2.0864811622e+00
 1.4951501335e-01	 1.4629678802e+00	 2.2725571433e+00
 1.2425892225e-01	 1.4653291364e+00	 2.9205718512e+00
 2.5355057221e-01	 1.4605075657e+00	 7.5833796619e+00
 2.2771248135e-01	 1.4647584333e+00	 5.2040308508e+00
 2.0195209382e-01	 1.4685317818e+00	 3.7262839418e+00
 1.7628117689e-01	 1.4718339543e+00	 2.9753441544e+00
 1.5071113346e-01	 1.4746716233e+00	 2.7716242818e+00
 1.2525299363e-01	 1.4770517695e+00	 2.9315176279e+00
 2.5556287833e-01	 1.4720988956e+00	 8.7787030135e+00
 2.2951972327e-01	 1.4763835003e+00	 6.3863063490e+00
 2.0355488822e-01	 1.4801867959e+00	 4.7805554646e+00
 1.7768023385e-01	 1.4835151761e+00	 3.7880949030e+00
 1.5190725356e-01	 1.4863753663e+00	 3.2311471744e+00
 1.2624706501e-01	 1.4887744026e+00	 2.9282664603e+00
 2.5757518446e-01	 1.4836902255e+00	 9.8871392125e+00
 2.3132696519e-01	 1.4880085672e+00	 7.4405644048e+00
 2.0515768262e-01	 1.4918418100e+00	 5.7174828255e+00
 1.7907929081e-01	 1.4951963980e+00	 4.5238108633e+00
 1.5310337367e-01	 1.4980791093e+00	 3.6610690468e+00
 1.2724113638e-01	 1.5004970357e+00	 2.9272462548e+00
 2.5958749059e-01	 1.4952815554e+00	 1.0845014457e+01
 2.3313420710e-01	 1.4996336341e+00	 8.3298189067e+00
 2.0676047701e-01	 1.5034968242e+00	 6.5208132321e+00
 1.8047834777e-01	 1.5068776198e+00	 5.1815862804e+00
 1.5429949378e-01	 1.5097828524e+00	 4.0710151122e+00
 1.2823520776e-01	 1.5122196688e+00	 2.9443678105e+00
 2.6159979672e-01	 1.5068728853e+00	 1.1590595294e+01
 2.3494144902e-01	 1.5112587011e+00	 9.0182054362e+00
 2.0836327141e-01	 1.5151518383e+00	 7.1747800112e+00
 1.8187740473e-01	 1.5185588417e+00	 5.7605315435e+00
 1.5549561388e-01	 1.5214865954e+00	 4.4703048031e+00
 1.2922927914e-01	 1.5239423019e+00	 2.9950447076e+00
 1.2425892225e-01	 1.4653291364e+00	 2.9205718512e+00
 9.9124412219e-02	 1.4672437114e+00	 3.2406532302e+00
 7.4121665932e-02	 1.4687190802e+00	 2.8586922517e+00
 4.9260478362e-02	 1.4697629615e+00	 2.2123076486e+00
 2.4550253142e-02	 1.4703832979e+00	 1.7712867597e+00
 0.0000000000e+00	 1.4705882353e+00	 2.0345248554e+00
 1.2525299363e-01	 1.4770517695e+00	 2.9315176279e+00
 9.9917407517e-02	 1.4789816611e+00	 2.8611376575e+00
 7.4714639259e-02	 1.4804688328e+00	 2.3614308866e+00
 4.9654562189e-02	 1.4815210652e+00	 1.8647657672e+00
 2.4746655167e-02	 1.4821463643e+00	 1.8361108690e+00
 0.0000000000e+00	 1.4823529412e+00	 2.7699581497e+00
 1.2624706501e-01	 1.4887744026e+00	 2.9282664603e+00
 1.0071040281e-01	 1.4907196108e+00	 2.4641683887e+00
 7.5307612587e-02	 1.4922185854e+00	 1.8268468277e+00
 5.0048646016e-02	 1.4932791689e+00	 1.4634460195e+00
 2.4943057193e-02	 1.4939094307e+00	 1.8532479328e+00
 0.0000000000e+00	 1.4941176471e+00	 3.5045291729e+00
 1.2724113638e-01	 1.5004970357e+00	 2.9272462548e+00
 1.0150339811e-01	 1.5024575605e+00	 2.0697460792e+00
 7.5900585914e-02	 1.5039683381e+00	 1.2763703172e+00
 5.0442729843e-02	 1.5050372726e+00	 1.0286142557e+00
 2.5139459218e-02	 1.5056724971e+00	 1.8387703683e+00
 0.0000000000e+00	 1.5058823529e+00	 4.2466691319e+00
 1.2823520776e-01	 1.5122196688e+00	 2.9443678105e+00
 1.0229639341e-01	 1.5141955102e+00	 1.6972453302e+00
 7.6493559242e-02	 1.5157180907e+00	 7.3076290557e-01
 5.0836813670e-02	 1.5167953763e+00	 5.7990528313e-01
 2.5335861243e-02	 1.5174355635e+00	 1.8082509756e+00
 0.0000000000e+00	 1.5176470588e+00	 5.0045478010e+00
 1.2922927914e-01	 1.5239423019e+00	 2.9950447076e+00
 1.0308938871e-01	 1.5259334599e+00	 1.3654387676e+00
 7.7086532569e-02	 1.5274678434e+00	 2.1014317067e-01
 5.1230897497e-02	 1.5285534800e+00	 1.3634713750e-01
 2.5532263268e-02	 1.5291986299e+00	 1.7767821529e+00
 0.0000000000e+00	 1.5294117647e+00	 5.7860835769e+00
 1.5294117647e+00	 0.0000000000e+00	 4.9808835065e+01
 1.5291986299e+00	 2.5532263268e-02	 4.9305310848e+01
 1.5285534800e+00	 5.1230897497e-02	 4.9331429502e+01
 1.5274678434e+00	 7.7086532569e-02	 4.9149751449e+01
 1.5259334599e+00	 1.0308938871e-01	 4.7980757226e+01
 1.5239423019e+00	 1.2922927914e-01	 4.5003210707e+01
 1.5411764706e+00	 0.0000000000e+00	 4.8985207421e+01
 1.5409616962e+00	 2.5728665293e-02	 4.8906081625e+01
 1.5403115837e+00	 5.1624981324e-02	 4.9218769314e+01
 1.5392175960e+00	 7.7679505897e-02	 4.9195766410e+01
 1.5376714096e+00	 1.0388238401e-01	 4.8070655164e+01
 1.5356649350e+00	 1.3022335052e-01	 4.5038569229e+01
 1.5529411765e+00	 0.0000000000e+00	 4.8357135851e+01
 1.5527247626e+00	 2.5925067318e-02	 4.8543904524e+01
 1.5520696874e+00	 5.2019065151e-02	 4.9056381183e+01
 1.5509673486e+00	 7.8272479224e-02	 4.9161108875e+01
 1.5494093593e+00	 1.0467537930e-01	 4.8087882721e+01
 1.5473875681e+00	 1.3121742190e-01	 4.5030353899e+01
 1.5647058824e+00	 0.0000000000e+00	 4.7917800799e+01
 1.5644878290e+00	 2.6121469343e-02	 4.8220558576e+01
 1.5638277911e+00	 5.2413148978e-02	 4.8850543465e+01
 1.5627171013e+00	 7.8865452551e-02	 4.9052811592e+01
 1.5611473089e+00	 1.0546837460e-01	 4.8036852852e+01
 1.5591102011e+00	 1.3221149327e-01	 4.4977370494e+01
 1.5764705882e+00	 0.0000000000e+00	 4.7660586278e+01
 1.5762508954e+00	 2.6317871368e-02	 4.7937761186e+01
 1.5755858947e+00	 5.2807232805e-02	 4.8607330249e+01
 1.5744668539e+00	 7.9458425879e-02	 4.8877672395e+01
 1.5728852586e+00	 1.0626136990e-01	 4.7921813909e+01
 1.5708328342e+00	 1.3320556465e-01	 4.4878419920e+01
 1.5882352941e+00	 0.0000000000e+00	 4.7579072328e+01
 1.5880139618e+00	 2.6514273394e-02	 4.7697170412e+01
 1.5873439984e+00	 5.3201316631e-02	 4.8332618918e+01
 1.5862166066e+00	 8.0051399206e-02	 4.8642262902e+01
 1.5846232083e+00	 1.0705436520e-01	 4.7746855731e+01
 1.5825554673e+00	 1.3419963603e-01	 4.4732298402e+01
 1.5239423019e+00	 1.2922927914e-01	 4.5003210707e+01
 1.5214865954e+00	 1.5549561388e-01	 4.0564898451e+01
 1.5185588417e+00	 1.8187740473e-01	 3.5787579377e+01
 1.5151518383e+00	 2.0836327141e-01	 3.0988603817e+01
 1.5112587011e+00	 2.3494144902e-01	 2.6495869758e+01
 1.5068728853e+00	 2.6159979672e-01	 2.2646603488e+01
 1.5356649350e+00	 1.3022335052e-01	 4.5038569229e+01
 1.5331903385e+00	 1.5669173399e-01	 4.0545230689e+01
 1.5302400635e+00	 1.8327646169e-01	 3.5784402731e+01
 1.5268068525e+00	 2.0996606580e-01	 3.1051088260e+01
 1.5228837680e+00	 2.3674869093e-01	 2.6647704652e+01
 1.5184642152e+00	 2.6361210285e-01	 2.2882838795e+01
 1.5473875681e+00	 1.3121742190e-01	 4.5030353899e+01
 1.5448940815e+00	 1.5788785410e-01	 4.0501403896e+01
 1.5419212854e+00	 1.8467551865e-01	 3.5753432681e+01
 1.5384618666e+00	 2.1156886020e-01	 3.1067177457e+01
 1.5345088349e+00	 2.3855593285e-01	 2.6728339001e+01
 1.5300555450e+00	 2.6562440898e-01	 2.3026297420e+01
 1.5591102011e+00	 1.3221149327e-01	 4.4977370494e+01
 1.5565978246e+00	 1.5908397420e-01	 4.0426946147e+01
 1.5536025073e+00	 1.8607457561e-01	 3.5686195183e+01
 1.5501168807e+00	 2.1317165459e-01	 3.1029504849e+01
 1.5461339019e+00	 2.4036317476e-01	 2.6734446239e+01
 1.5416468749e+00	 2.6763671511e-01	 2.3080437188e+01
 1.5708328342e+00	 1.3320556465e-01	 4.4878419920e+01
 1.5683015676e+00	 1.6028009431e-01	 4.0315530825e+01
 1.5652837291e+00	 1.8747363257e-01	 3.5574414193e+01
 1.5617718949e+00	 2.1477444899e-01	 3.0930862064e+01
 1.5577589688e+00	 2.4217041668e-01	 2.6662730973e+01
 1.5532382048e+00	 2.6964902123e-01	 2.3048538513e+01
 1.5825554673e+00	 1.3419963603e-01	 4.4732298402e+01
 1.5800053106e+00	 1.6147621442e-01	 4.0160971245e+01
 1.5769649510e+00	 1.8887268953e-01	 3.5410004342e+01
 1.5734269090e+00	 2.1637724338e-01	 3.0764193064e+01
 1.5693840357e+00	 2.4397765859e-01	 2.6509927827e+01
 1.5648295347e+00	 2.7166132736e-01	 2.2933710969e+01
 1.5068728853e+00	 2.6159979672e-01	 2.2646603488e+01
 1.5019882072e+00	 2.8832580772e-01	 1.9172121206e+01
 1.4965988653e+00	 3.1510662054e-01	 1.5484039658e+01
 1.4906994611e+00	 3.4192903166e-01	 1.1437532060e+01
 1.4842850196e+00	 3.6877950944e-01	 7.8738917308e+00
 1.4773510096e+00	 3.9564420938e-01	 5.1771248485e+00
 1.5184642152e+00	 2.6361210285e-01	 2.2882838795e+01
 1.5135419627e+00	 2.9054369854e-01	 1.9448618499e+01
 1.5081111643e+00	 3.1753051762e-01	 1.5771309632e+01
 1.5021663800e+00	 3.4455925498e-01	 1.1758405938e+01
 1.4957025967e+00	 3.7161627490e-01	 8.3420009842e+00
 1.4887152481e+00	 3.9868762637e-01	 5.5114375256e+00
 1.5300555450e+00	 2.6562440898e-01	 2.3026297420e+01
 1.5250957181e+00	 2.9276158937e-01	 1.9633512719e+01
 1.5196234633e+00	 3.1995441470e-01	 1.5995172348e+01
 1.5136332990e+00	 3.4718947830e-01	 1.2057346928e+01
 1.5071201738e+00	 3.7445304036e-01	 8.7568263296e+00
 1.5000794867e+00	 4.0173104337e-01	 5.8202669501e+00
 1.5416468749e+00	 2.6763671511e-01	 2.3080437188e+01
 1.5366494735e+00	 2.9497948020e-01	 1.9735932537e+01
 1.5311357622e+00	 3.2237831178e-01	 1.6165772281e+01
 1.5251002179e+00	 3.4981970162e-01	 1.2341151388e+01
 1.5185377508e+00	 3.7728980581e-01	 9.1227947373e+00
 1.5114437252e+00	 4.0477446036e-01	 6.0971597323e+00
 1.5532382048e+00	 2.6964902123e-01	 2.3048538513e+01
 1.5482032290e+00	 2.9719737103e-01	 1.9764654237e+01
 1.5426480612e+00	 3.2480220886e-01	 1.6292865896e+01
 1.5365671368e+00	 3.5244992494e-01	 1.2616322708e+01
 1.5299553279e+00	 3.8012657127e-01	 9.4442567564e+00
 1.5228079638e+00	 4.0781787736e-01	 6.3359144451e+00
 1.5648295347e+00	 2.7166132736e-01	 2.2933710969e+01
 1.5597569844e+00	 2.9941526186e-01	 1.9728114771e+01
 1.5541603602e+00	 3.2722610594e-01	 1.6385836017e+01
 1.5480340558e+00	 3.5508014826e-01	 1.2889082166e+01
 1.5413729050e+00	 3.8296333673e-01	 9.7254893458e+00
 1.5341722023e+00	 4.1086129435e-01	 6.5305722928e+00
 1.4773510096e+00	 3.9564420938e-01	 5.1771248485e+00
 1.4698933631e+00	 4.2250899067e-01	 2.2179918837e+00
 1.4619084940e+00	 4.4935943415e-01	-7.1771254844e-01
 1.4533933168e+00	 4.7618086136e-01	-3.4058270094e+00
 1.4443452631e+00	 5.0295835505e-01	-5.6117892057e+00
 1.4347622988e+00	 5.2967678074e-01	-7.0912617355e+00
 1.4887152481e+00	 3.9868762637e-01	 5.5114375256e+00
 1.4812002351e+00	 4.2575905983e-01	 2.5643797194e+00
 1.4731539440e+00	 4.5281604518e-01	-2.6361622915e-01
 1.4645732654e+00	 4.7984379106e-01	-2.8310725591e+00
 1.4554556113e+00	 5.0682726547e-01	-4.9920103536e+00
 1.4457989318e+00	 5.3375121751e-01	-6.5963025654e+00
 1.5000794867e+00	 4.0173104337e-01	 5.8202669501e+00
 1.4925071071e+00	 4.2900912899e-01	 2.8681943605e+00
 1.4843993940e+00	 4.5627265621e-01	 8.8555518091e-02
 1.4757532140e+00	 4.8350672076e-01	-2.4316784662e+00
 1.4665659595e+00	 5.1069617589e-01	-4.6051535182e+00
 1.4568355649e+00	 5.3782565429e-01	-6.3443104557e+00
 1.5114437252e+00	 4.0477446036e-01	 6.0971597323e+00
 1.5038139791e+00	 4.3225919815e-01	 3.1144171978e+00
 1.4956448439e+00	 4.5972926724e-01	 3.2298651344e-01
 1.4869331626e+00	 4.8716965047e-01	-2.2170966399e+00
 1.4776763077e+00	 5.1456508632e-01	-4.4477793333e+00
 1.4678721980e+00	 5.4190009106e-01	-6.3130904789e+00
 1.5228079638e+00	 4.0781787736e-01	 6.3359144451e+00
 1.5151208512e+00	 4.3550926731e-01	 3.2885407556e+00
 1.5068902939e+00	 4.6318587827e-01	 4.2439889509e-01
 1.4981131112e+00	 4.9083258017e-01	-2.1964273981e+00
 1.4887866558e+00	 5.1843399674e-01	-4.5164785379e+00
 1.4789088310e+00	 5.4597452784e-01	-6.4810347065e+00
 1.5341722023e+00	 4.1086129435e-01	 6.5305722928e+00
 1.5264277232e+00	 4.3875933647e-01	 3.3765497601e+00
 1.5181357438e+00	 4.6664248931e-01	 3.7803318158e-01
 1.5092930597e+00	 4.9449550987e-01	-2.3784324886e+00
 1.4998970040e+00	 5.2230290716e-01	-4.8078708614e+00
 1.4899454641e+00	 5.5004896461e-01	-6.8271004682e+00
 1.4347622988e+00	 5.2967678074e-01	-7.0912617355e+00
 1.4246429387e+00	 5.5632080957e-01	-8.6456534510e+00
 1.4139862615e+00	 5.8287494218e-01	-1.0907324160e+01
 1.4027919223e+00	 6.0932353372e-01	-1.2663395105e+01
 1.3910601645e+00	 6.3565081979e-01	-1.3986754750e+01
 1.3787918304e+00	 6.6184094337e-01	-1.4966324147e+01
 1.4457989318e+00	 5.3375121751e-01	-6.5963025654e+00
 1.4356017306e+00	 5.6060020041e-01	-7.7483321617e+00
 1.4248630789e+00	 5.8735859558e-01	-9.2764786587e+00
 1.4135826294e+00	 6.1401063782e-01	-1.1709991802e+01
 1.4017606273e+00	 6.4054044148e-01	-1.3633688296e+01
 1.3893979214e+00	 6.6693202755e-01	-1.5020596740e+01
 1.4568355649e+00	 5.3782565429e-01	-6.3443104557e+00
 1.4465605224e+00	 5.6487959126e-01	-7.7812761462e+00
 1.4357398963e+00	 5.9184224898e-01	-8.9968816279e+00
 1.4243733365e+00	 6.1869774193e-01	-1.0579687751e+01
 1.4124610901e+00	 6.4543006317e-01	-1.2932233380e+01
 1.4000040125e+00	 6.7202311173e-01	-1.4619129008e+01
 1.4678721980e+00	 5.4190009106e-01	-6.3130904789e+00
 1.4575193142e+00	 5.6915898210e-01	-7.9389208670e+00
 1.4466167137e+00	 5.9632590239e-01	-9.3726065852e+00
 1.4351640436e+00	 6.2338484603e-01	-1.0431851877e+01
 1.4231615529e+00	 6.5031968486e-01	-1.1871940496e+01
 1.4106101035e+00	 6.7711419591e-01	-1.3774173715e+01
 1.4789088310e+00	 5.4597452784e-01	-6.4810347065e+00
 1.4684781061e+00	 5.7343837294e-01	-8.1845381808e+00
 1.4574935311e+00	 6.0080955579e-01	-9.6651668832e+00
 1.4459547507e+00	 6.2807195014e-01	-1.0776108898e+01
 1.4338620157e+00	 6.5520930655e-01	-1.1357666901e+01
 1.4212161945e+00	 6.8220528009e-01	-1.2497885167e+01
 1.4899454641e+00	 5.5004896461e-01	-6.8271004682e+00
 1.4794368979e+00	 5.7771776378e-01	-8.4824104088e+00
 1.4683703485e+00	 6.0529320919e-01	-9.8346127414e+00
 1.4567454578e+00	 6.3275905424e-01	-1.0816208603e+01
 1.4445624785e+00	 6.6009892824e-01	-1.1349506062e+01
 1.4318222855e+00	 6.8729636427e-01	-1.1346571869e+01
 1.3787918304e+00	 6.6184094337e-01	-1.4966324147e+01
 1.3659883701e+00	 6.8787798254e-01	-1.5317808980e+01
 1.3526518486e+00	 7.1374597898e-01	-1.4832408963e+01
 1.3387849524e+00	 7.3942896709e-01	-1.5075762796e+01
 1.3243909930e+00	 7.6491100372e-01	-1.4613066822e+01
 1.3094739102e+00	 7.9017619833e-01	-1.3542295348e+01
 1.3893979214e+00	 6.6693202755e-01	-1.5020596740e+01
 1.3764959729e+00	 6.9316935164e-01	-1.5527597770e+01
 1.3630568628e+00	 7.1923633266e-01	-1.5308415556e+01
 1.3490832981e+00	 7.4511688222e-01	-1.5490817749e+01
 1.3345786160e+00	 7.7079493452e-01	-1.4917927936e+01
 1.3195467865e+00	 7.9625447678e-01	-1.3791036235e+01
 1.4000040125e+00	 6.7202311173e-01	-1.4619129008e+01
 1.3870035758e+00	 6.9846072074e-01	-1.5293944776e+01
 1.3734618770e+00	 7.2472668635e-01	-1.5509535240e+01
 1.3593816439e+00	 7.5080479735e-01	-1.5772315146e+01
 1.3447662391e+00	 7.7667886532e-01	-1.5268894942e+01
 1.3296196627e+00	 8.0233275523e-01	-1.4217729095e+01
 1.4106101035e+00	 6.7711419591e-01	-1.3774173715e+01
 1.3975111786e+00	 7.0375208983e-01	-1.4649890862e+01
 1.3838668913e+00	 7.3021704003e-01	-1.5436952768e+01
 1.3696799897e+00	 7.5649271248e-01	-1.5954445649e+01
 1.3549538621e+00	 7.8256279611e-01	-1.5693657806e+01
 1.3396925389e+00	 8.0841103367e-01	-1.4836868249e+01
 1.4212161945e+00	 6.8220528009e-01	-1.2497885167e+01
 1.4080187815e+00	 7.0904345893e-01	-1.3627762092e+01
 1.3942719055e+00	 7.3570739372e-01	-1.5122441527e+01
 1.3799783355e+00	 7.6218062762e-01	-1.6070330654e+01
 1.3651414851e+00	 7.8844672691e-01	-1.6219030835e+01
 1.3497654152e+00	 8.1448931212e-01	-1.5662465929e+01
 1.4318222855e+00	 6.8729636427e-01	-1.1346571869e+01
 1.4185263843e+00	 7.1433482802e-01	-1.2262222524e+01
 1.4046769197e+00	 7.4119774740e-01	-1.4596785741e+01
 1.3902766813e+00	 7.6786854275e-01	-1.6152061891e+01
 1.3753291081e+00	 7.9433065771e-01	-1.6870985104e+01
 1.3598382914e+00	 8.2056759057e-01	-1.6708070135e+01
 1.3094739102e+00	 7.9017619833e-01	-1.3542295348e+01
 1.2940382725e+00	 8.1520874348e-01	-1.2228405704e+01
 1.2780892760e+00	 8.3999294557e-01	-1.0803811759e+01
 1.2616327424e+00	 8.6451325571e-01	-9.0516932582e+00
 1.2446751140e+00	 8.8875430053e-01	-6.7494139799e+00
 1.2272234473e+00	 9.1270091289e-01	-3.6697416112e+00
 1.3195467865e+00	 7.9625447678e-01	-1.3791036235e+01
 1.3039924130e+00	 8.2147957996e-01	-1.2496005919e+01
 1.2879207320e+00	 8.4645442977e-01	-1.1129970897e+01
 1.2713376097e+00	 8.7116335768e-01	-9.4655792757e+00
 1.2542495379e+00	 8.9559087207e-01	-7.2683595184e+00
 1.2366636277e+00	 9.1972168914e-01	-4.2980059551e+00
 1.3296196627e+00	 8.0233275523e-01	-1.4217729095e+01
 1.3139465536e+00	 8.2775041645e-01	-1.2976880392e+01
 1.2977521879e+00	 8.5291591397e-01	-1.1621447666e+01
 1.2810424769e+00	 8.7781345965e-01	-9.9515927570e+00
 1.2638239619e+00	 9.0242744361e-01	-7.7603138150e+00
 1.2461038080e+00	 9.2674246539e-01	-4.8345898380e+00
 1.3396925389e+00	 8.0841103367e-01	-1.4836868249e+01
 1.3239006941e+00	 8.3402125294e-01	-1.3672493320e+01
 1.3075836439e+00	 8.5937739816e-01	-1.2272324243e+01
 1.2907473442e+00	 8.8446356161e-01	-1.0501218285e+01
 1.2733983858e+00	 9.0926401516e-01	-8.2180650715e+00
 1.2555439884e+00	 9.3376324164e-01	-5.2765861347e+00
 1.3497654152e+00	 8.1448931212e-01	-1.5662465929e+01
 1.3338548347e+00	 8.4029208943e-01	-1.4584215563e+01
 1.3174150999e+00	 8.6583888236e-01	-1.3076809745e+01
 1.3004522114e+00	 8.9111366358e-01	-1.1106144955e+01
 1.2829728098e+00	 9.1610058670e-01	-8.6345672374e+00
 1.2649841688e+00	 9.4078401790e-01	-5.6211252365e+00
 1.3598382914e+00	 8.2056759057e-01	-1.6708070135e+01
 1.3438089752e+00	 8.4656292592e-01	-1.5713328104e+01
 1.3272465558e+00	 8.7230036656e-01	-1.4029235525e+01
 1.3101570787e+00	 8.9776376555e-01	-1.1758258794e+01
 1.2925472337e+00	 9.2293715824e-01	-9.0029338705e+00
 1.2744243491e+00	 9.4780479415e-01	-5.8653736624e+00
 1.2272234473e+00	 9.1270091289e-01	-3.6697416112e+00
 1.2092854054e+00	 9.3633816235e-01	 3.7959995004e-01
 1.1908692476e+00	 9.5965138525e-01	 5.2653845829e+00
 1.1719838177e+00	 9.8262621427e-01	 1.0729128799e+01
 1.1526385311e+00	 1.0052486074e+00	 1.6513307476e+01
 1.1328433589e+00	 1.0275048761e+00	 2.2362798830e+01
 1.2366636277e+00	 9.1972168914e-01	-4.2980059551e+00
 1.2185876008e+00	 9.4354076360e-01	-3.5085697563e-01
 1.2000297802e+00	 9.6703331898e-01	 4.4533282557e+00
 1.1809990779e+00	 9.9018487745e-01	 9.8737128507e+00
 1.1615049813e+00	 1.0129812890e+00	 1.5671111344e+01
 1.1415575385e+00	 1.0354087597e+00	 2.1609353579e+01
 1.2461038080e+00	 9.2674246539e-01	-4.8345898380e+00
 1.2278897963e+00	 9.5074336485e-01	-9.8836198324e-01
 1.2091903129e+00	 9.7441525271e-01	 3.6893422174e+00
 1.1900143380e+00	 9.9774354064e-01	 9.0040901034e+00
 1.1703714316e+00	 1.0207139706e+00	 1.4764193596e+01
 1.1502717182e+00	 1.0433126434e+00	 2.0781826778e+01
 1.2555439884e+00	 9.3376324164e-01	-5.2765861347e+00
 1.2371919917e+00	 9.5794596609e-01	-1.5343125422e+00
 1.2183508456e+00	 9.8179718645e-01	 2.9696878340e+00
 1.1990295982e+00	 1.0053022038e+00	 8.1154930987e+00
 1.1792378818e+00	 1.0284466522e+00	 1.3787413203e+01
 1.1589858979e+00	 1.0512165270e+00	 1.9874698058e+01
 1.2649841688e+00	 9.4078401790e-01	-5.6211252365e+00
 1.2464941871e+00	 9.6514856734e-01	-1.9900155244e+00
 1.2275113783e+00	 9.8917912018e-01	 2.2907864624e+00
 1.2080448583e+00	 1.0128608670e+00	 7.2033444800e+00
 1.1881043321e+00	 1.0361793338e+00	 1.2735829689e+01
 1.1677000776e+00	 1.0591204107e+00	 1.8882658116e+01
 1.2744243491e+00	 9.4780479415e-01	-5.8653736624e+00
 1.2557963825e+00	 9.7235116859e-01	-2.3566905600e+00
 1.2366719109e+00	 9.9656105391e-01	 1.6492135244e+00
 1.2170601184e+00	 1.0204195302e+00	 6.2632499509e+00
 1.1969707823e+00	 1.0439120154e+00	 1.1604695694e+01
 1.1764142573e+00	 1.0670242944e+00	 1.7800600896e+01
 1.1328433589e+00	 1.0275048761e+00	 2.2362798830e+01
 1.1126088114e+00	 1.0493817126e+00	 2.8244234299e+01
 1.0919459200e+00	 1.0708662166e+00	 3.4601786154e+01
 1.0708662166e+00	 1.0919459200e+00	 3.6686343304e+01
 1.0493817126e+00	 1.1126088114e+00	 3.6034198442e+01
 1.0275048761e+00	 1.1328433589e+00	 3.6494378841e+01
 1.1415575385e+00	 1.0354087597e+00	 2.1609353579e+01
 1.1211673407e+00	 1.0574538796e+00	 2.7638433883e+01
 1.1003455040e+00	 1.0791036490e+00	 3.2295514684e+01
 1.0791036490e+00	 1.1003455040e+00	 3.4426007312e+01
 1.0574538796e+00	 1.1211673407e+00	 3.5152085460e+01
 1.0354087597e+00	 1.1415575385e+00	 3.5557524054e+01
 1.1502717182e+00	 1.0433126434e+00	 2.0781826778e+01
 1.1297258701e+00	 1.0655260467e+00	 2.7002032899e+01
 1.1087450880e+00	 1.0873410815e+00	 2.9921361683e+01
 1.0873410815e+00	 1.1087450880e+00	 3.2205403088e+01
 1.0655260467e+00	 1.1297258701e+00	 3.4512094003e+01
 1.0433126434e+00	 1.1502717182e+00	 3.4845800516e+01
 1.1589858979e+00	 1.0512165270e+00	 1.9874698058e+01
 1.1382843994e+00	 1.0735982137e+00	 2.5825897452e+01
 1.1171446720e+00	 1.0955785139e+00	 2.7611212450e+01
 1.0955785139e+00	 1.1171446720e+00	 3.0115488729e+01
 1.0735982137e+00	 1.1382843994e+00	 3.3676037935e+01
 1.0512165270e+00	 1.1589858979e+00	 3.4353111569e+01
 1.1677000776e+00	 1.0591204107e+00	 1.8882658116e+01
 1.1468429287e+00	 1.0816703807e+00	 2.3261552394e+01
 1.1255442560e+00	 1.1038159463e+00	 2.5359978080e+01
 1.1038159463e+00	 1.1255442560e+00	 2.8151417775e+01
 1.0816703807e+00	 1.1468429287e+00	 3.1863253834e+01
 1.0591204107e+00	 1.1677000776e+00	 3.4073427396e+01
 1.1764142573e+00	 1.0670242944e+00	 1.7800600896e+01
 1.1554014580e+00	 1.0897425477e+00	 2.0685614860e+01
 1.1339438400e+00	 1.1120533788e+00	 2.3162805810e+01
 1.1120533788e+00	 1.1339438400e+00	 2.6308569726e+01
 1.0897425477e+00	 1.1554014580e+00	 3.0214993379e+01
 1.0670242944e+00	 1.1764142573e+00	 3.4000782545e+01
 1.0275048761e+00	 1.1328433589e+00	 3.6494378841e+01
 1.0052486074e+00	 1.1526385311e+00	 3.8072715987e+01
 9.8262621427e-01	 1.1719838177e+00	 4.0136774158e+01
 9.5965138525e-01	 1.1908692476e+00	 4.2253695990e+01
 9.3633816235e-01	 1.2092854054e+00	 4.3992327405e+01
 9.1270091289e-01	 1.2272234473e+00	 4.4925401603e+01
 1.0354087597e+00	 1.1415575385e+00	 3.5557524054e+01
 1.0129812890e+00	 1.1615049813e+00	 3.7010556701e+01
 9.9018487745e-01	 1.1809990779e+00	 3.8939358062e+01
 9.6703331898e-01	 1.2000297802e+00	 4.0943973349e+01
 9.4354076360e-01	 1.2185876008e+00	 4.2628612575e+01
 9.1972168914e-01	 1.2366636277e+00	 4.3603637834e+01
 1.0433126434e+00	 1.1502717182e+00	 3.4845800516e+01
 1.0207139706e+00	 1.1703714316e+00	 3.6097725659e+01
 9.9774354064e-01	 1.1900143380e+00	 3.7787124245e+01
 9.7441525271e-01	 1.2091903129e+00	 3.9573134070e+01
 9.5074336485e-01	 1.2278897963e+00	 4.1121626098e+01
 9.2674246539e-01	 1.2461038080e+00	 4.2106845326e+01
 1.0512165270e+00	 1.1589858979e+00	 3.4353111569e+01
 1.0284466522e+00	 1.1792378818e+00	 3.5333964306e+01
 1.0053022038e+00	 1.1990295982e+00	 3.6687099248e+01
 9.8179718645e-01	 1.2183508456e+00	 3.8156360419e+01
 9.5794596609e-01	 1.2371919917e+00	 3.9494999417e+01
 9.3376324164e-01	 1.2555439884e+00	 4.0466821984e+01
 1.0591204107e+00	 1.1677000776e+00	 3.4073427396e+01
 1.0361793338e+00	 1.1881043321e+00	 3.4718902842e+01
 1.0128608670e+00	 1.2080448583e+00	 3.5645977366e+01
 9.8917912018e-01	 1.2275113783e+00	 3.6708255714e+01
 9.6514856734e-01	 1.2464941871e+00	 3.7771529873e+01
 9.4078401790e-01	 1.2649841688e+00	 3.8714285229e+01
 1.0670242944e+00	 1.1764142573e+00	 3.4000782545e+01
 1.0439120154e+00	 1.1969707823e+00	 3.4252064344e+01
 1.0204195302e+00	 1.2170601184e+00	 3.4670132951e+01
 9.9656105391e-01	 1.2366719109e+00	 3.5242865767e+01
 9.7235116859e-01	 1.2557963825e+00	 3.5973211605e+01
 9.4780479415e-01	 1.2744243491e+00	 3.6878912024e+01
 9.1270091289e-01	 1.2272234473e+00	 4.4925401603e+01
 8.8875430053e-01	 1.2446751140e+00	 4.4875119989e+01
 8.6451325571e-01	 1.2616327424e+00	 4.4171105086e+01
 8.3999294557e-01	 1.2780892760e+00	 4.3148548288e+01
 8.1520874348e-01	 1.2940382725e+00	 4.2137201035e+01
 7.9017619833e-01	 1.3094739102e+00	 4.1459468967e+01
 9.1972168914e-01	 1.2366636277e+00	 4.3603637834e+01
 8.9559087207e-01	 1.2542495379e+00	 4.3705351672e+01
 8.7116335768e-01	 1.2713376097e+00	 4.3235435816e+01
 8.4645442977e-01	 1.2879207320e+00	 4.2505530857e+01
 8.2147957996e-01	 1.3039924130e+00	 4.1822339726e+01
 7.9625447678e-01	 1.3195467865e+00	 4.1485832592e+01
 9.2674246539e-01	 1.2461038080e+00	 4.2106845326e+01
 9.0242744361e-01	 1.2638239619e+00	 4.2390248256e+01
 8.7781345965e-01	 1.2810424769e+00	 4.2223490708e+01
 8.5291591397e-01	 1.2977521879e+00	 4.1869982737e+01
 8.2775041645e-01	 1.3139465536e+00	 4.1587352253e+01
 8.0233275523e-01	 1.3296196627e+00	 4.1625924021e+01
 9.3376324164e-01	 1.2555439884e+00	 4.0466821984e+01
 9.0926401516e-01	 1.2733983858e+00	 4.0965164499e+01
 8.8446356161e-01	 1.2907473442e+00	 4.1165992131e+01
 8.5937739816e-01	 1.3075836439e+00	 4.1260366839e+01
 8.3402125294e-01	 1.3239006941e+00	 4.1431396410e+01
 8.0841103367e-01	 1.3396925389e+00	 4.1853148881e+01
 9.4078401790e-01	 1.2649841688e+00	 3.8714285229e+01
 9.1610058670e-01	 1.2829728098e+00	 3.9464266237e+01
 8.9111366358e-01	 1.3004522114e+00	 4.0092609905e+01
 8.6583888236e-01	 1.3174150999e+00	 4.0694457940e+01
 8.4029208943e-01	 1.3338548347e+00	 4.1353516969e+01
 8.1448931212e-01	 1.3497654152e+00	 4.2141567722e+01
 9.4780479415e-01	 1.2744243491e+00	 3.6878912024e+01
 9.2293715824e-01	 1.2925472337e+00	 3.7920574424e+01
 8.9776376555e-01	 1.3101570787e+00	 3.9032000285e+01
 8.7230036656e-01	 1.3272465558e+00	 4.0189368171e+01
 8.4656292592e-01	 1.3438089752e+00	 4.1352649864e+01
 8.2056759057e-01	 1.3598382914e+00	 4.2465871764e+01
 7.9017619833e-01	 1.3094739102e+00	 4.1459468967e+01
 7.6491100372e-01	 1.3243909930e+00	 4.1275013950e+01
 7.3942896709e-01	 1.3387849524e+00	 4.1445379405e+01
 7.1374597898e-01	 1.3526518486e+00	 4.1873177110e+01
 6.8787798254e-01	 1.3659883701e+00	 4.3787255999e+01
 6.6184094337e-01	 1.3787918304e+00	 4.5194552935e+01
 7.9625447678e-01	 1.3195467865e+00	 4.1485832592e+01
 7.7079493452e-01	 1.3345786160e+00	 4.1649593260e+01
 7.4511688222e-01	 1.3490832981e+00	 4.2193611246e+01
 7.1923633266e-01	 1.3630568628e+00	 4.2998686562e+01
 6.9316935164e-01	 1.3764959729e+00	 4.4904536897e+01
 6.6693202755e-01	 1.3893979214e+00	 4.6543809536e+01
 8.0233275523e-01	 1.3296196627e+00	 4.1625924021e+01
 7.7667886532e-01	 1.3447662391e+00	 4.2108119993e+01
 7.5080479735e-01	 1.3593816439e+00	 4.2946918435e+01
 7.2472668635e-01	 1.3734618770e+00	 4.4068308612e+01
 6.9846072074e-01	 1.3870035758e+00	 4.5954721201e+01
 6.7202311173e-01	 1.4000040125e+00	 4.7811928053e+01
 8.0841103367e-01	 1.3396925389e+00	 4.1853148881e+01
 7.8256279611e-01	 1.3549538621e+00	 4.2603774887e+01
 7.5649271248e-01	 1.3696799897e+00	 4.3654837908e+01
 7.3021704003e-01	 1.3838668913e+00	 4.5010300674e+01
 7.0375208983e-01	 1.3975111786e+00	 4.6933169055e+01
 6.7711419591e-01	 1.4106101035e+00	 4.9035507729e+01
 8.1448931212e-01	 1.3497654152e+00	 4.2141567722e+01
 7.8844672691e-01	 1.3651414851e+00	 4.3090996956e+01
 7.6218062762e-01	 1.3799783355e+00	 4.4268273666e+01
 7.3570739372e-01	 1.3942719055e+00	 4.5787340685e+01
 7.0904345893e-01	 1.4080187815e+00	 4.7835438449e+01
 6.8220528009e-01	 1.4212161945e+00	 5.0250118884e+01
 8.2056759057e-01	 1.3598382914e+00	 4.2465871764e+01
 7.9433065771e-01	 1.3753291081e+00	 4.3525436882e+01
 7.6786854275e-01	 1.3902766813e+00	 4.4739446145e+01
 7.4119774740e-01	 1.4046769197e+00	 4.6363074576e+01
 7.1433482802e-01	 1.4185263843e+00	 4.8657408982e+01
 6.8729636427e-01	 1.4318222855e+00	 5.0425571604e+01
 6.6184094337e-01	 1.3787918304e+00	 4.5194552935e+01
 6.3565081979e-01	 1.3910601645e+00	 4.6026860066e+01
 6.0932353372e-01	 1.4027919223e+00	 4.6464747353e+01
 5.8287494218e-01	 1.4139862615e+00	 4.6573048004e+01
 5.5632080957e-01	 1.4246429387e+00	 4.6433163080e+01
 5.2967678074e-01	 1.4347622988e+00	 4.3894487425e+01
 6.6693202755e-01	 1.3893979214e+00	 4.6543809536e+01
 6.4054044148e-01	 1.4017606273e+00	 4.7587609685e+01
 6.1401063782e-01	 1.4135826294e+00	 4.8247912998e+01
 5.8735859558e-01	 1.4248630789e+00	 4.8627949312e+01
 5.6060020041e-01	 1.4356017306e+00	 4.6271667131e+01
 5.3375121751e-01	 1.4457989318e+00	 4.2744327728e+01
 6.7202311173e-01	 1.4000040125e+00	 4.7811928053e+01
 6.4543006317e-01	 1.4124610901e+00	 4.9154280812e+01
 6.1869774193e-01	 1.4243733365e+00	 5.0211417075e+01
 5.9184224898e-01	 1.4357398963e+00	 4.8450741281e+01
 5.6487959126e-01	 1.4465605224e+00	 4.5172566415e+01
 5.3782565429e-01	 1.4568355649e+00	 4.2207799875e+01
 6.7711419591e-01	 1.4106101035e+00	 4.9035507729e+01
 6.5031968486e-01	 1.4231615529e+00	 5.0797912767e+01
 6.2338484603e-01	 1.4351640436e+00	 5.0065137921e+01
 5.9632590239e-01	 1.4466167137e+00	 4.7279800143e+01
 5.6915898210e-01	 1.4575193142e+00	 4.4575647059e+01
 5.4190009106e-01	 1.4678721980e+00	 4.2236417590e+01
 6.8220528009e-01	 1.4212161945e+00	 5.0250118884e+01
 6.5520930655e-01	 1.4338620157e+00	 5.0753478199e+01
 6.2807195014e-01	 1.4459547507e+00	 4.8654015124e+01
 6.0080955579e-01	 1.4574935311e+00	 4.6508328339e+01
 5.7343837294e-01	 1.4684781061e+00	 4.4494861764e+01
 5.4597452784e-01	 1.4789088310e+00	 4.2783006403e+01
 6.8729636427e-01	 1.4318222855e+00	 5.0425571604e+01
 6.6009892824e-01	 1.4445624785e+00	 4.8958390343e+01
 6.3275905424e-01	 1.4567454578e+00	 4.7532852067e+01
 6.0529320919e-01	 1.4683703485e+00	 4.6187925985e+01
 5.7771776378e-01	 1.4794368979e+00	 4.4943611253e+01
 5.5004896461e-01	 1.4899454641e+00	 4.3801655065e+01
 5.2967678074e-01	 1.4347622988e+00	 4.3894487425e+01
 5.0295835505e-01	 1.4443452631e+00	 3.9995955173e+01
 4.7618086136e-01	 1.4533933168e+00	 3.6055932001e+01
 4.4935943415e-01	 1.4619084940e+00	 3.2024337271e+01
 4.2250899067e-01	 1.4698933631e+00	 2.7837718964e+01
 3.9564420938e-01	 1.4773510096e+00	 2.3420272449e+01
 5.3375121751e-01	 1.4457989318e+00	 4.2744327728e+01
 5.0682726547e-01	 1.4554556113e+00	 3.9475674127e+01
 4.7984379106e-01	 1.4645732654e+00	 3.6241047579e+01
 4.5281604518e-01	 1.4731539440e+00	 3.2897152380e+01
 4.2575905983e-01	 1.4812002351e+00	 2.9279999760e+01
 3.9868762637e-01	 1.4887152481e+00	 2.5206705957e+01
 5.3782565429e-01	 1.4568355649e+00	 4.2207799875e+01
 5.1069617589e-01	 1.4665659595e+00	 3.9554157181e+01
 4.8350672076e-01	 1.4757532140e+00	 3.6871673164e+01
 4.5627265621e-01	 1.4843993940e+00	 3.3976807438e+01
 4.2900912899e-01	 1.4925071071e+00	 3.0662393719e+01
 4.0173104337e-01	 1.5000794867e+00	 2.6699775369e+01
 5.4190009106e-01	 1.4678721980e+00	 4.2236417590e+01
 5.1456508632e-01	 1.4776763077e+00	 4.0125125143e+01
 4.8716965047e-01	 1.4869331626e+00	 3.7814832410e+01
 4.5972926724e-01	 1.4956448439e+00	 3.5133374002e+01
 4.3225919815e-01	 1.5038139791e+00	 3.1886353668e+01
 4.0477446036e-01	 1.5114437252e+00	 2.7859181161e+01
 5.4597452784e-01	 1.4789088310e+00	 4.2783006403e+01
 5.1843399674e-01	 1.4887866558e+00	 4.1085340203e+01
 4.9083258017e-01	 1.4981131112e+00	 3.8941392046e+01
 4.6318587827e-01	 1.5068902939e+00	 3.6240680824e+01
 4.3550926731e-01	 1.5151208512e+00	 3.2856158287e+01
 4.0781787736e-01	 1.5228079638e+00	 2.8645716654e+01
 5.5004896461e-01	 1.4899454641e+00	 4.3801655065e+01
 5.2230290716e-01	 1.4998970040e+00	 4.2334493289e+01
 4.9449550987e-01	 1.5092930597e+00	 4.0125919543e+01
 4.6664248931e-01	 1.5181357438e+00	 3.7176174694e+01
 4.3875933647e-01	 1.5264277232e+00	 3.3478807456e+01
 4.1086129435e-01	 1.5341722023e+00	 2.9021227540e+01
 3.9564420938e-01	 1.4773510096e+00	 2.3420272449e+01
 3.6877950944e-01	 1.4842850196e+00	 1.8114144432e+01
 3.4192903166e-01	 1.4906994611e+00	 1.5765270693e+01
 3.1510662054e-01	 1.4965988653e+00	 1.5513034691e+01
 2.8832580772e-01	 1.5019882072e+00	 1.4099856434e+01
 2.6159979672e-01	 1.5068728853e+00	 1.1590595294e+01
 3.9868762637e-01	 1.4887152481e+00	 2.5206705957e+01
 3.7161627490e-01	 1.4957025967e+00	 1.9982384756e+01
 3.4455925498e-01	 1.5021663800e+00	 1.6778104451e+01
 3.1753051762e-01	 1.5081111643e+00	 1.6364639558e+01
 2.9054369854e-01	 1.5135419627e+00	 1.4772974563e+01
 2.6361210285e-01	 1.5184642152e+00	 1.2166625992e+01
 4.0173104337e-01	 1.5000794867e+00	 2.6699775369e+01
 3.7445304036e-01	 1.5071201738e+00	 2.1438334326e+01
 3.4718947830e-01	 1.5136332990e+00	 1.7388742543e+01
 3.1995441470e-01	 1.5196234633e+00	 1.6902753655e+01
 2.9276158937e-01	 1.5250957181e+00	 1.5263087722e+01
 2.6562440898e-01	 1.5300555450e+00	 1.2685644119e+01
 4.0477446036e-01	 1.5114437252e+00	 2.7859181161e+01
 3.7728980581e-01	 1.5185377508e+00	 2.2501191929e+01
 3.4981970162e-01	 1.5251002179e+00	 1.7655609756e+01
 3.2237831178e-01	 1.5311357622e+00	 1.7200903319e+01
 2.9497948020e-01	 1.5366494735e+00	 1.5638318006e+01
 2.6763671511e-01	 1.5416468749e+00	 1.3191002081e+01
 4.0781787736e-01	 1.5228079638e+00	 2.8645716654e+01
 3.8012657127e-01	 1.5299553279e+00	 2.3189479143e+01
 3.5244992494e-01	 1.5365671368e+00	 1.7635360591e+01
 3.2480220886e-01	 1.5426480612e+00	 1.7330396583e+01
 2.9719737103e-01	 1.5482032290e+00	 1.5964733187e+01
 2.6964902123e-01	 1.5532382048e+00	 1.3724739906e+01
 4.1086129435e-01	 1.5341722023e+00	 2.9021227540e+01
 3.8296333673e-01	 1.5413729050e+00	 2.3521065418e+01
 3.5508014826e-01	 1.5480340558e+00	 1.7382944828e+01
 3.2722610594e-01	 1.5541603602e+00	 1.7360405326e+01
 2.9941526186e-01	 1.5597569844e+00	 1.6306422796e+01
 2.7166132736e-01	 1.5648295347e+00	 1.4327633839e+01
 2.6159979672e-01	 1.5068728853e+00	 1.1590595294e+01
 2.3494144902e-01	 1.5112587011e+00	 9.0182054362e+00
 2.0836327141e-01	 1.5151518383e+00	 7.1747800112e+00
 1.8187740473e-01	 1.5185588417e+00	 5.7605315435e+00
 1.5549561388e-01	 1.5214865954e+00	 4.4703048031e+00
 1.2922927914e-01	 1.5239423019e+00	 2.9950447076e+00
 2.6361210285e-01	 1.5184642152e+00	 1.2166625992e+01
 2.3674869093e-01	 1.5228837680e+00	 9.5943496314e+00
 2.0996606580e-01	 1.5268068525e+00	 7.7567262222e+00
 1.8327646169e-01	 1.5302400635e+00	 6.2947782066e+00
 1.5669173399e-01	 1.5331903385e+00	 4.8438142938e+00
 1.3022335052e-01	 1.5356649350e+00	 3.0352308815e+00
 2.6562440898e-01	 1.5300555450e+00	 1.2685644119e+01
 2.3855593285e-01	 1.5345088349e+00	 1.0180377039e+01
 2.1156886020e-01	 1.5384618666e+00	 8.3522200883e+00
 1.8467551865e-01	 1.5419212854e+00	 6.8115783954e+00
 1.5788785410e-01	 1.5448940815e+00	 5.1637489424e+00
 1.3121742190e-01	 1.5473875681e+00	 3.0108685297e+00
 2.6763671511e-01	 1.5416468749e+00	 1.3191002081e+01
 2.4036317476e-01	 1.5461339019e+00	 1.0791133630e+01
 2.1317165459e-01	 1.5501168807e+00	 8.9582451880e+00
 1.8607457561e-01	 1.5536025073e+00	 7.2999790605e+00
 1.5908397420e-01	 1.5565978246e+00	 5.4204161385e+00
 1.3221149327e-01	 1.5591102011e+00	 2.9219857936e+00
 2.6964902123e-01	 1.5532382048e+00	 1.3724739906e+01
 2.4217041668e-01	 1.5577589688e+00	 1.1441006360e+01
 2.1477444899e-01	 1.5617718949e+00	 9.5718615919e+00
 1.8747363257e-01	 1.5652837291e+00	 7.7493427339e+00
 1.6028009431e-01	 1.5683015676e+00	 5.6044032699e+00
 1.3320556465e-01	 1.5708328342e+00	 2.7686025475e+00
 2.7166132736e-01	 1.5648295347e+00	 1.4327633839e+01
 2.4397765859e-01	 1.5693840357e+00	 1.2143940168e+01
 2.1637724338e-01	 1.5734269090e+00	 1.0190203031e+01
 1.8887268953e-01	 1.5769649510e+00	 8.1493358409e+00
 1.6147621442e-01	 1.5800053106e+00	 5.7065673522e+00
 1.3419963603e-01	 1.5825554673e+00	 2.5507307044e+00
 1.2922927914e-01	 1.5239423019e+00	 2.9950447076e+00
 1.0308938871e-01	 1.5259334599e+00	 1.3654387676e+00
 7.7086532569e-02	 1.5274678434e+00	 2.1014317067e-01
 5.1230897497e-02	 1.5285534800e+00	 1.3634713750e-01
 2.5532263268e-02	 1.5291986299e+00	 1.7767821529e+00
 0.0000000000e+00	 1.5294117647e+00	 5.7860835769e+00
 1.3022335052e-01	 1.5356649350e+00	 3.0352308815e+00
 1.0388238401e-01	 1.5376714096e+00	 1.0390053761e+00
 7.7679505897e-02	 1.5392175960e+00	-2.9248529738e-01
 5.1624981324e-02	 1.5403115837e+00	-2.8728593114e-01
 2.5728665293e-02	 1.5409616962e+00	 1.7486047953e+00
 0.0000000000e+00	 1.5411764706e+00	 6.5274383914e+00
 1.3121742190e-01	 1.5473875681e+00	 3.0108685297e+00
 1.0467537930e-01	 1.5494093593e+00	 6.7733903923e-01
 7.8272479224e-02	 1.5509673486e+00	-7.8787049976e-01
 5.2019065151e-02	 1.5520696874e+00	-6.8082089583e-01
 2.5925067318e-02	 1.5527247626e+00	 1.7209239525e+00
 0.0000000000e+00	 1.5529411765e+00	 7.1545033482e+00
 1.3221149327e-01	 1.5591102011e+00	 2.9219857936e+00
 1.0546837460e-01	 1.5611473089e+00	 2.9060811302e-01
 7.8865452551e-02	 1.5627171013e+00	-1.2623080101e+00
 5.2413148978e-02	 1.5638277911e+00	-1.0328381296e+00
 2.6121469343e-02	 1.5644878290e+00	 1.6978336340e+00
 0.0000000000e+00	 1.5647058824e+00	 7.6597808900e+00
 1.3320556465e-01	 1.5708328342e+00	 2.7686025475e+00
 1.0626136990e-01	 1.5728852586e+00	-1.1132823910e-01
 7.9458425879e-02	 1.5744668539e+00	-1.7025065209e+00
 5.2807232805e-02	 1.5755858947e+00	-1.3322614352e+00
 2.6317871368e-02	 1.5762508954e+00	 1.6833044383e+00
 0.0000000000e+00	 1.5764705882e+00	 8.0359972676e+00
 1.3419963603e-01	 1.5825554673e+00	 2.5507307044e+00
 1.0705436520e-01	 1.5846232083e+00	-5.1890859452e-01
 8.0051399206e-02	 1.5862166066e+00	-2.0955725434e+00
 5.3201316631e-02	 1.5873439984e+00	-1.5683453259e+00
 2.6514273394e-02	 1.5880139618e+00	 1.6811881244e+00
 0.0000000000e+00	 1.5882352941e+00	 8.2760942499e+00
 1.5882352941e+00	 0.0000000000e+00	 4.7579072328e+01
 1.5880139618e+00	 2.6514273394e-02	 4.7697170412e+01
 1.5873439984e+00	 5.3201316631e-02	 4.8332618918e+01
 1.5862166066e+00	 8.0051399206e-02	 4.8642262902e+01
 1.5846232083e+00	 1.0705436520e-01	 4.7746855731e+01
 1.5825554673e+00	 1.3419963603e-01	 4.4732298402e+01
 1.6000000000e+00	 0.0000000000e+00	 4.7606942894e+01
 1.5997770282e+00	 2.6710675419e-02	 4.7502895871e+01
 1.5991021021e+00	 5.3595400458e-02	 4.8059513018e+01
 1.5979663592e+00	 8.0644372534e-02	 4.8379964398e+01
 1.5963611580e+00	 1.0784736049e-01	 4.7530326704e+01
 1.5942781004e+00	 1.3519370741e-01	 4.4541072817e+01
 1.6117647059e+00	 0.0000000000e+00	 4.7683430737e+01
 1.6115400945e+00	 2.6907077444e-02	 4.7357733522e+01
 1.6108602058e+00	 5.3989484285e-02	 4.7816188266e+01
 1.6097161119e+00	 8.1237345861e-02	 4.8118497783e+01
 1.6080991077e+00	 1.0864035579e-01	 4.7286682493e+01
 1.6060007335e+00	 1.3618777879e-01	 4.4306789589e+01
 1.6235294118e+00	 0.0000000000e+00	 4.7810537320e+01
 1.6233031609e+00	 2.7103479469e-02	 4.7261329271e+01
 1.6226183095e+00	 5.4383568112e-02	 4.7601010904e+01
 1.6214658645e+00	 8.1830319189e-02	 4.7855806572e+01
 1.6198370574e+00	 1.0943335109e-01	 4.7014075096e+01
 1.6177233666e+00	 1.3718185016e-01	 4.4028208256e+01
 1.6352941176e+00	 0.0000000000e+00	 4.7990206508e+01
 1.6350662273e+00	 2.7299881494e-02	 4.7213330997e+01
 1.6343764132e+00	 5.4777651939e-02	 4.7412377937e+01
 1.6332156171e+00	 8.2423292516e-02	 4.7589869378e+01
 1.6315750071e+00	 1.1022634639e-01	 4.6710677999e+01
 1.6294459997e+00	 1.3817592154e-01	 4.3704084992e+01
 1.6470588235e+00	 0.0000000000e+00	 4.8224326628e+01
 1.6468292937e+00	 2.7496283519e-02	 4.7213388485e+01
 1.6461345169e+00	 5.5171735766e-02	 4.7248716036e+01
 1.6449653698e+00	 8.3016265844e-02	 4.7318698656e+01
 1.6433129568e+00	 1.1101934169e-01	 4.6374685407e+01
 1.6411686328e+00	 1.3916999292e-01	 4.3333172734e+01
 1.5825554673e+00	 1.3419963603e-01	 4.4732298402e+01
 1.5800053106e+00	 1.6147621442e-01	 4.0160971245e+01
 1.5769649510e+00	 1.8887268953e-01	 3.5410004342e+01
 1.5734269090e+00	 2.1637724338e-01	 3.0764193064e+01
 1.5693840357e+00	 2.4397765859e-01	 2.6509927827e+01
 1.5648295347e+00	 2.7166132736e-01	 2.2933710969e+01
 1.5942781004e+00	 1.3519370741e-01	 4.4541072817e+01
 1.5917090537e+00	 1.6267233453e-01	 3.9961257569e+01
 1.5886461728e+00	 1.9027174649e-01	 3.5198933142e+01
 1.5850819232e+00	 2.1798003778e-01	 3.0549296985e+01
 1.5810091027e+00	 2.4578490051e-01	 2.6308898345e+01
 1.5764208646e+00	 2.7367363349e-01	 2.2774076960e+01
 1.6060007335e+00	 1.3618777879e-01	 4.4306789589e+01
 1.6034127967e+00	 1.6386845463e-01	 3.9717920258e+01
 1.6003273947e+00	 1.9167080345e-01	 3.4951921771e+01
 1.5967369373e+00	 2.1958283217e-01	 3.0309763800e+01
 1.5926341696e+00	 2.4759214243e-01	 2.6093335905e+01
 1.5880121945e+00	 2.7568593962e-01	 2.2603824261e+01
 1.6177233666e+00	 1.3718185016e-01	 4.4028208256e+01
 1.6151165398e+00	 1.6506457474e-01	 3.9430166872e+01
 1.6120086166e+00	 1.9306986040e-01	 3.4668131846e+01
 1.6083919514e+00	 2.2118562657e-01	 3.0044317009e+01
 1.6042592365e+00	 2.4939938434e-01	 2.5861238504e+01
 1.5996035244e+00	 2.7769824575e-01	 2.2420045544e+01
 1.6294459997e+00	 1.3817592154e-01	 4.3704084992e+01
 1.6268202828e+00	 1.6626069485e-01	 3.9097181616e+01
 1.6236898384e+00	 1.9446891736e-01	 3.4346696134e+01
 1.6200469656e+00	 2.2278842097e-01	 2.9751657359e+01
 1.6158843034e+00	 2.5120662626e-01	 2.5610596072e+01
 1.6111948543e+00	 2.7971055188e-01	 2.2219845619e+01
 1.6411686328e+00	 1.3916999292e-01	 4.3333172734e+01
 1.6385240259e+00	 1.6745681495e-01	 3.8718126176e+01
 1.6353710603e+00	 1.9586797432e-01	 3.3986719584e+01
 1.6317019797e+00	 2.2439121536e-01	 2.9430463659e+01
 1.6275093704e+00	 2.5301386817e-01	 2.5339390764e+01
 1.6227861841e+00	 2.8172285801e-01	 2.2000341002e+01
 1.5648295347e+00	 2.7166132736e-01	 2.2933710969e+01
 1.5597569844e+00	 2.9941526186e-01	 1.9728114771e+01
 1.5541603602e+00	 3.2722610594e-01	 1.6385836017e+01
 1.5480340558e+00	 3.5508014826e-01	 1.2889082166e+01
 1.5413729050e+00	 3.8296333673e-01	 9.7254893458e+00
 1.5341722023e+00	 4.1086129435e-01	 6.5305722928e+00
 1.5764208646e+00	 2.7367363349e-01	 2.2774076960e+01
 1.5713107399e+00	 3.0163315269e-01	 1.9654430098e+01
 1.5656726591e+00	 3.2965000302e-01	 1.6451061275e+01
 1.5595009747e+00	 3.5771037158e-01	 1.3146483369e+01
 1.5527904821e+00	 3.8580010219e-01	 9.9383497575e+00
 1.5455364408e+00	 4.1390471135e-01	 6.6564208609e+00
 1.5880121945e+00	 2.7568593962e-01	 2.2603824261e+01
 1.5828644953e+00	 3.0385104352e-01	 1.9563841108e+01
 1.5771849581e+00	 3.3207390010e-01	 1.6486262483e+01
 1.5709678936e+00	 3.6034059490e-01	 1.3344353973e+01
 1.5642080591e+00	 3.8863686764e-01	 1.0052863783e+01
 1.5569006794e+00	 4.1694812834e-01	 6.6939542150e+00
 1.5996035244e+00	 2.7769824575e-01	 2.2420045544e+01
 1.5944182507e+00	 3.0606893434e-01	 1.9452745763e+01
 1.5886972570e+00	 3.3449779719e-01	 1.6487586026e+01
 1.5824348126e+00	 3.6297081822e-01	 1.3445343279e+01
 1.5756256362e+00	 3.9147363310e-01	 1.0070516124e+01
 1.5682649179e+00	 4.1999154534e-01	 6.6451989886e+00
 1.6111948543e+00	 2.7971055188e-01	 2.2219845619e+01
 1.6059720062e+00	 3.0828682517e-01	 1.9317568668e+01
 1.6002095560e+00	 3.3692169427e-01	 1.6451207060e+01
 1.5939017315e+00	 3.6560104154e-01	 1.3450442768e+01
 1.5870432133e+00	 3.9431039856e-01	 9.9928024795e+00
 1.5796291564e+00	 4.2303496233e-01	 6.5121806851e+00
 1.6227861841e+00	 2.8172285801e-01	 2.2000341002e+01
 1.6175257616e+00	 3.1050471600e-01	 1.9154760120e+01
 1.6117218550e+00	 3.3934559135e-01	 1.6373328481e+01
 1.6053686504e+00	 3.6823126487e-01	 1.3360665395e+01
 1.5984607903e+00	 3.9714716401e-01	 9.8212291552e+00
 1.5909933950e+00	 4.2607837933e-01	 6.2969237186e+00
 1.5341722023e+00	 4.1086129435e-01	 6.5305722928e+00
 1.5264277232e+00	 4.3875933647e-01	 3.3765497601e+00
 1.5181357438e+00	 4.6664248931e-01	 3.7803318158e-01
 1.5092930597e+00	 4.9449550987e-01	-2.3784324886e+00
 1.4998970040e+00	 5.2230290716e-01	-4.8078708614e+00
 1.4899454641e+00	 5.5004896461e-01	-6.8271004682e+00
 1.5455364408e+00	 4.1390471135e-01	 6.6564208609e+00
 1.5377345952e+00	 4.4200940563e-01	 3.3866181859e+00
 1.5293811938e+00	 4.7009910034e-01	 2.4448703116e-01
 1.5204730083e+00	 4.9815843958e-01	-2.6509578210e+00
 1.5110073522e+00	 5.2617181759e-01	-5.1805635352e+00
 1.5009820972e+00	 5.5412340139e-01	-7.2253914547e+00
 1.5569006794e+00	 4.1694812834e-01	 6.6939542150e+00
 1.5490414672e+00	 4.4525947479e-01	 3.3373187244e+00
 1.5406266437e+00	 4.7355571137e-01	 9.4508519795e-02
 1.5316529569e+00	 5.0182136928e-01	-2.8968153346e+00
 1.5221177004e+00	 5.3004072801e-01	-5.4975197956e+00
 1.5120187302e+00	 5.5819783816e-01	-7.5674152175e+00
 1.5682649179e+00	 4.1999154534e-01	 6.6451989886e+00
 1.5603483393e+00	 4.4850954395e-01	 3.2305959426e+00
 1.5518720937e+00	 4.7701232240e-01	-7.1029070822e-02
 1.5428329055e+00	 5.0548429898e-01	-3.1168978789e+00
 1.5332280485e+00	 5.3390963843e-01	-5.7617926146e+00
 1.5230553633e+00	 5.6227227494e-01	-7.8584722389e+00
 1.5796291564e+00	 4.2303496233e-01	 6.5121806851e+00
 1.5716552113e+00	 4.5175961311e-01	 3.0683990051e+00
 1.5631175436e+00	 4.8046893343e-01	-2.5121377719e-01
 1.5540128541e+00	 5.0914722868e-01	-3.3120056629e+00
 1.5443383967e+00	 5.3777854886e-01	-5.9762771568e+00
 1.5340919964e+00	 5.6634671171e-01	-8.1036376506e+00
 1.5909933950e+00	 4.2607837933e-01	 6.2969237186e+00
 1.5829620833e+00	 4.5500968227e-01	 2.8526815109e+00
 1.5743629936e+00	 4.8392554447e-01	-4.4509633551e-01
 1.5651928027e+00	 5.1281015839e-01	-3.4828495638e+00
 1.5554487449e+00	 5.4164745928e-01	-6.1437164151e+00
 1.5451286294e+00	 5.7042114849e-01	-8.3077692816e+00
 1.4899454641e+00	 5.5004896461e-01	-6.8271004682e+00
 1.4794368979e+00	 5.7771776378e-01	-8.4824104088e+00
 1.4683703485e+00	 6.0529320919e-01	-9.8346127414e+00
 1.4567454578e+00	 6.3275905424e-01	-1.0816208603e+01
 1.4445624785e+00	 6.6009892824e-01	-1.1349506062e+01
 1.4318222855e+00	 6.8729636427e-01	-1.1346571869e+01
 1.5009820972e+00	 5.5412340139e-01	-7.2253914547e+00
 1.4903956897e+00	 5.8199715463e-01	-8.7867895662e+00
 1.4792471659e+00	 6.0977686259e-01	-9.9609823711e+00
 1.4675361649e+00	 6.3744615835e-01	-1.0766980670e+01
 1.4552629413e+00	 6.6498854993e-01	-1.1217088043e+01
 1.4424283765e+00	 6.9238744845e-01	-1.1316451695e+01
 1.5120187302e+00	 5.5819783816e-01	-7.5674152175e+00
 1.5013544816e+00	 5.8627654547e-01	-9.0793363031e+00
 1.4901239833e+00	 6.1426051599e-01	-1.0153080981e+01
 1.4783268720e+00	 6.4213326245e-01	-1.0865777033e+01
 1.4659634042e+00	 6.6987817162e-01	-1.1290510906e+01
 1.4530344675e+00	 6.9747853263e-01	-1.1495611957e+01
 1.5230553633e+00	 5.6227227494e-01	-7.8584722389e+00
 1.5123132734e+00	 5.9055593631e-01	-9.3659909461e+00
 1.5010008007e+00	 6.1874416939e-01	-1.0414790175e+01
 1.4891175791e+00	 6.4682036656e-01	-1.1112328957e+01
 1.4766638670e+00	 6.7476779331e-01	-1.1563884564e+01
 1.4636405585e+00	 7.0256961681e-01	-1.1871702862e+01
 1.5340919964e+00	 5.6634671171e-01	-8.1036376506e+00
 1.5232720653e+00	 5.9483532716e-01	-9.6524473384e+00
 1.5118776181e+00	 6.2322782279e-01	-1.0749801753e+01
 1.4999082862e+00	 6.5150747067e-01	-1.1506294933e+01
 1.4873643298e+00	 6.7965741500e-01	-1.2031405690e+01
 1.4742466495e+00	 7.0766070098e-01	-1.2432645213e+01
 1.5451286294e+00	 5.7042114849e-01	-8.3077692816e+00
 1.5342308571e+00	 5.9911471800e-01	-9.9441616431e+00
 1.5227544355e+00	 6.2771147620e-01	-1.1161624492e+01
 1.5106989933e+00	 6.5619457477e-01	-1.2047263281e+01
 1.4980647926e+00	 6.8454703669e-01	-1.2687354621e+01
 1.4848527405e+00	 7.1275178516e-01	-1.3166620748e+01
 1.4318222855e+00	 6.8729636427e-01	-1.1346571869e+01
 1.4185263843e+00	 7.1433482802e-01	-1.2262222524e+01
 1.4046769197e+00	 7.4119774740e-01	-1.4596785741e+01
 1.3902766813e+00	 7.6786854275e-01	-1.6152061891e+01
 1.3753291081e+00	 7.9433065771e-01	-1.6870985104e+01
 1.3598382914e+00	 8.2056759057e-01	-1.6708070135e+01
 1.4424283765e+00	 6.9238744845e-01	-1.1316451695e+01
 1.4290339871e+00	 7.1962619712e-01	-1.1240436244e+01
 1.4150819339e+00	 7.4668810109e-01	-1.4008400458e+01
 1.4005750271e+00	 7.7355645788e-01	-1.6171826943e+01
 1.3855167312e+00	 8.0021458851e-01	-1.7461294405e+01
 1.3699111676e+00	 8.2664586902e-01	-1.7690323793e+01
 1.4530344675e+00	 6.9747853263e-01	-1.1495611957e+01
 1.4395415900e+00	 7.2491756622e-01	-1.2012702108e+01
 1.4254869481e+00	 7.5217845477e-01	-1.3475844993e+01
 1.4108733729e+00	 7.7924437301e-01	-1.6073956200e+01
 1.3957043542e+00	 8.0609851931e-01	-1.7782526366e+01
 1.3799840439e+00	 8.3272414747e-01	-1.8320560022e+01
 1.4636405585e+00	 7.0256961681e-01	-1.1871702862e+01
 1.4500491928e+00	 7.3020893531e-01	-1.2871197490e+01
 1.4358919624e+00	 7.5766880846e-01	-1.4124877175e+01
 1.4211717187e+00	 7.8493228814e-01	-1.5848197842e+01
 1.4058919772e+00	 8.1198245010e-01	-1.7831268427e+01
 1.3900569201e+00	 8.3880242592e-01	-1.8603874231e+01
 1.4742466495e+00	 7.0766070098e-01	-1.2432645213e+01
 1.4605567957e+00	 7.3550030441e-01	-1.3801295149e+01
 1.4462969766e+00	 7.6315916214e-01	-1.5193953530e+01
 1.4314700644e+00	 7.9062020327e-01	-1.5929293670e+01
 1.4160796002e+00	 8.1786638090e-01	-1.7604158900e+01
 1.4001297963e+00	 8.4488070437e-01	-1.8545167553e+01
 1.4848527405e+00	 7.1275178516e-01	-1.3166620748e+01
 1.4710643985e+00	 7.4079167351e-01	-1.4788739709e+01
 1.4567019908e+00	 7.6864951583e-01	-1.6173672428e+01
 1.4417684102e+00	 7.9630811840e-01	-1.6933262925e+01
 1.4262672233e+00	 8.2375031170e-01	-1.7097885153e+01
 1.4102026726e+00	 8.5095898282e-01	-1.8149153786e+01
 1.3598382914e+00	 8.2056759057e-01	-1.6708070135e+01
 1.3438089752e+00	 8.4656292592e-01	-1.5713328104e+01
 1.3272465558e+00	 8.7230036656e-01	-1.4029235525e+01
 1.3101570787e+00	 8.9776376555e-01	-1.1758258794e+01
 1.2925472337e+00	 9.2293715824e-01	-9.0029338705e+00
 1.2744243491e+00	 9.4780479415e-01	-5.8653736624e+00
 1.3699111676e+00	 8.2664586902e-01	-1.7690323793e+01
 1.3537631158e+00	 8.5283376241e-01	-1.6785923236e+01
 1.3370780118e+00	 8.7876185075e-01	-1.4947564904e+01
 1.3198619459e+00	 9.0441386752e-01	-1.2407032722e+01
 1.3021216577e+00	 9.2977372978e-01	-9.3997756594e+00
 1.2838645295e+00	 9.5482557040e-01	-6.1637015941e+00
 1.3799840439e+00	 8.3272414747e-01	-1.8320560022e+01
 1.3637172564e+00	 8.5910459889e-01	-1.7534926613e+01
 1.3469094678e+00	 8.8522333495e-01	-1.5661757652e+01
 1.3295668132e+00	 9.1106396948e-01	-1.3013368210e+01
 1.3116960816e+00	 9.3661030133e-01	-9.9081069192e+00
 1.2933047099e+00	 9.6184634666e-01	-6.6686959191e+00
 1.3900569201e+00	 8.3880242592e-01	-1.8603874231e+01
 1.3736713969e+00	 8.6537543538e-01	-1.7971518455e+01
 1.3567409237e+00	 8.9168481915e-01	-1.6183922659e+01
 1.3392716804e+00	 9.1771407145e-01	-1.3586201871e+01
 1.3212705056e+00	 9.4344687287e-01	-1.0530665103e+01
 1.3027448902e+00	 9.6886712291e-01	-7.3749578088e+00
 1.4001297963e+00	 8.4488070437e-01	-1.8545167553e+01
 1.3836255375e+00	 8.7164627187e-01	-1.8106509405e+01
 1.3665723797e+00	 8.9814630334e-01	-1.6525772430e+01
 1.3489765477e+00	 9.2436417342e-01	-1.4134165256e+01
 1.3308449295e+00	 9.5028344441e-01	-1.1270061140e+01
 1.3121850706e+00	 9.7588789916e-01	-8.2771963053e+00
 1.4102026726e+00	 8.5095898282e-01	-1.8149153786e+01
 1.3935796780e+00	 8.7791710836e-01	-1.7950353727e+01
 1.3764038357e+00	 9.0460778754e-01	-1.6698637245e+01
 1.3586814149e+00	 9.3101427538e-01	-1.4665595746e+01
 1.3404193535e+00	 9.5712001595e-01	-1.2128783953e+01
 1.3216252510e+00	 9.8290867542e-01	-9.3702244694e+00
 1.2744243491e+00	 9.4780479415e-01	-5.8653736624e+00
 1.2557963825e+00	 9.7235116859e-01	-2.3566905600e+00
 1.2366719109e+00	 9.9656105391e-01	 1.6492135244e+00
 1.2170601184e+00	 1.0204195302e+00	 6.2632499509e+00
 1.1969707823e+00	 1.0439120154e+00	 1.1604695694e+01
 1.1764142573e+00	 1.0670242944e+00	 1.7800600896e+01
 1.2838645295e+00	 9.5482557040e-01	-6.1637015941e+00
 1.2650985780e+00	 9.7955376984e-01	-2.7835243018e+00
 1.2458324436e+00	 1.0039429876e+00	 9.6407999309e-01
 1.2260753786e+00	 1.0279781934e+00	 5.3105521972e+00
 1.2058372325e+00	 1.0516446969e+00	 1.0497561287e+01
 1.1851284370e+00	 1.0749281780e+00	 1.6018172522e+01
 1.2933047099e+00	 9.6184634666e-01	-6.6686959191e+00
 1.2744007734e+00	 9.8675637109e-01	-3.4114367867e+00
 1.2549929763e+00	 1.0113249214e+00	 1.6422509149e-01
 1.2350906387e+00	 1.0355368566e+00	 4.3677881187e+00
 1.2147036828e+00	 1.0593773785e+00	 9.5196823224e+00
 1.1938426166e+00	 1.0828320617e+00	 1.3512130524e+01
 1.3027448902e+00	 9.6886712291e-01	-7.3749578088e+00
 1.2837029688e+00	 9.9395897234e-01	-4.2293930591e+00
 1.2641535090e+00	 1.0187068551e+00	-7.3928123423e-01
 1.2441058988e+00	 1.0430955198e+00	 3.4413808086e+00
 1.2235701330e+00	 1.0671100601e+00	 8.6690894861e+00
 1.2025567963e+00	 1.0907359453e+00	 1.1235934117e+01
 1.3121850706e+00	 9.7588789916e-01	-8.2771963053e+00
 1.2930051643e+00	 1.0011615736e+00	-5.2266285923e+00
 1.2733140416e+00	 1.0260887888e+00	-1.7356409486e+00
 1.2531211590e+00	 1.0506541829e+00	 2.5376145926e+00
 1.2324365833e+00	 1.0748427417e+00	 7.2682703215e+00
 1.2112709760e+00	 1.0986398290e+00	 9.1783651558e+00
 1.3216252510e+00	 9.8290867542e-01	-9.3702244694e+00
 1.3023073597e+00	 1.0083641748e+00	-6.3926396311e+00
 1.2824745743e+00	 1.0334707226e+00	-2.8143182159e+00
 1.2621364191e+00	 1.0582128461e+00	 1.6626399858e+00
 1.2413030335e+00	 1.0825754233e+00	 5.1728089291e+00
 1.2199851557e+00	 1.1065437127e+00	 7.3286136092e+00
 1.1764142573e+00	 1.0670242944e+00	 1.7800600896e+01
 1.1554014580e+00	 1.0897425477e+00	 2.0685614860e+01
 1.1339438400e+00	 1.1120533788e+00	 2.3162805810e+01
 1.1120533788e+00	 1.1339438400e+00	 2.6308569726e+01
 1.0897425477e+00	 1.1554014580e+00	 3.0214993379e+01
 1.0670242944e+00	 1.1764142573e+00	 3.4000782545e+01
 1.1851284370e+00	 1.0749281780e+00	 1.6018172522e+01
 1.1639599873e+00	 1.0978147147e+00	 1.8221050828e+01
 1.1423434240e+00	 1.1202908112e+00	 2.1067513873e+01
 1.1202908112e+00	 1.1423434240e+00	 2.4541044087e+01
 1.0978147147e+00	 1.1639599873e+00	 2.8604621479e+01
 1.0749281780e+00	 1.1851284370e+00	 3.3200524750e+01
 1.1938426166e+00	 1.0828320617e+00	 1.3512130524e+01
 1.1725185166e+00	 1.1058868818e+00	 1.5980140974e+01
 1.1507430080e+00	 1.1285282436e+00	 1.9111612838e+01
 1.1285282436e+00	 1.1507430080e+00	 2.2797491628e+01
 1.1058868818e+00	 1.1725185166e+00	 2.6908483005e+01
 1.0828320617e+00	 1.1938426166e+00	 3.1295379999e+01
 1.2025567963e+00	 1.0907359453e+00	 1.1235934117e+01
 1.1810770460e+00	 1.1139590488e+00	 1.3943206535e+01
 1.1591425920e+00	 1.1367656761e+00	 1.7275460803e+01
 1.1367656761e+00	 1.1591425920e+00	 2.1065618167e+01
 1.1139590488e+00	 1.1810770460e+00	 2.5128156816e+01
 1.0907359453e+00	 1.2025567963e+00	 2.9259766597e+01
 1.2112709760e+00	 1.0986398290e+00	 9.1783651558e+00
 1.1896355753e+00	 1.1220312158e+00	 1.2091220695e+01
 1.1675421760e+00	 1.1450031085e+00	 1.5540064002e+01
 1.1450031085e+00	 1.1675421760e+00	 1.9333563301e+01
 1.1220312158e+00	 1.1896355753e+00	 2.3265253270e+01
 1.0986398290e+00	 1.2112709760e+00	 2.7114321052e+01
 1.2199851557e+00	 1.1065437127e+00	 7.3286136092e+00
 1.1981941046e+00	 1.1301033828e+00	 1.0405785300e+01
 1.1759417600e+00	 1.1532405409e+00	 1.3887053657e+01
 1.1532405409e+00	 1.1759417600e+00	 1.7589884913e+01
 1.1301033828e+00	 1.1981941046e+00	 2.1321413094e+01
 1.1065437127e+00	 1.2199851557e+00	 2.4879163468e+01
 1.0670242944e+00	 1.1764142573e+00	 3.4000782545e+01
 1.0439120154e+00	 1.1969707823e+00	 3.4252064344e+01
 1.0204195302e+00	 1.2170601184e+00	 3.4670132951e+01
 9.9656105391e-01	 1.2366719109e+00	 3.5242865767e+01
 9.7235116859e-01	 1.2557963825e+00	 3.5973211605e+01
 9.4780479415e-01	 1.2744243491e+00	 3.6878912024e+01
 1.0749281780e+00	 1.1851284370e+00	 3.3200524750e+01
 1.0516446969e+00	 1.2058372325e+00	 3.3794838030e+01
 1.0279781934e+00	 1.2260753786e+00	 3.3697204786e+01
 1.0039429876e+00	 1.2458324436e+00	 3.3791171790e+01
 9.7955376984e-01	 1.2650985780e+00	 3.4211171917e+01
 9.5482557040e-01	 1.2838645295e+00	 3.5107439523e+01
 1.0828320617e+00	 1.1938426166e+00	 3.1295379999e+01
 1.0593773785e+00	 1.2147036828e+00	 3.3229814241e+01
 1.0355368566e+00	 1.2350906387e+00	 3.2683840592e+01
 1.0113249214e+00	 1.2549929763e+00	 3.2392484297e+01
 9.8675637109e-01	 1.2744007734e+00	 3.2586572981e+01
 9.6184634666e-01	 1.2933047099e+00	 3.3511623286e+01
 1.0907359453e+00	 1.2025567963e+00	 2.9259766597e+01
 1.0671100601e+00	 1.2235701330e+00	 3.2587473859e+01
 1.0430955198e+00	 1.2441058988e+00	 3.1663852699e+01
 1.0187068551e+00	 1.2641535090e+00	 3.1072277598e+01
 9.9395897234e-01	 1.2837029688e+00	 3.1105642491e+01
 9.6886712291e-01	 1.3027448902e+00	 3.2068327054e+01
 1.0986398290e+00	 1.2112709760e+00	 2.7114321052e+01
 1.0748427417e+00	 1.2324365833e+00	 3.1095154253e+01
 1.0506541829e+00	 1.2531211590e+00	 3.0669962323e+01
 1.0260887888e+00	 1.2733140416e+00	 2.9855171709e+01
 1.0011615736e+00	 1.2930051643e+00	 2.9774304873e+01
 9.7588789916e-01	 1.3121850706e+00	 3.0754953792e+01
 1.1065437127e+00	 1.2199851557e+00	 2.4879163468e+01
 1.0825754233e+00	 1.2413030335e+00	 2.8558173979e+01
 1.0582128461e+00	 1.2621364191e+00	 2.9733838540e+01
 1.0334707226e+00	 1.2824745743e+00	 2.8764962858e+01
 1.0083641748e+00	 1.3023073597e+00	 2.8598192118e+01
 9.8290867542e-01	 1.3216252510e+00	 2.9549426434e+01
 9.4780479415e-01	 1.2744243491e+00	 3.6878912024e+01
 9.2293715824e-01	 1.2925472337e+00	 3.7920574424e+01
 8.9776376555e-01	 1.3101570787e+00	 3.9032000285e+01
 8.7230036656e-01	 1.3272465558e+00	 4.0189368171e+01
 8.4656292592e-01	 1.3438089752e+00	 4.1352649864e+01
 8.2056759057e-01	 1.3598382914e+00	 4.2465871764e+01
 9.5482557040e-01	 1.2838645295e+00	 3.5107439523e+01
 9.2977372978e-01	 1.3021216577e+00	 3.6449421375e+01
 9.0441386752e-01	 1.3198619459e+00	 3.8020081013e+01
 8.7876185075e-01	 1.3370780118e+00	 3.9685653242e+01
 8.5283376241e-01	 1.3537631158e+00	 4.1292408849e+01
 8.2664586902e-01	 1.3699111676e+00	 4.2667604889e+01
 9.6184634666e-01	 1.2933047099e+00	 3.3511623286e+01
 9.3661030133e-01	 1.3116960816e+00	 3.5112156264e+01
 9.1106396948e-01	 1.3295668132e+00	 3.7037313418e+01
 8.8522333495e-01	 1.3469094678e+00	 3.9083503387e+01
 8.5910459889e-01	 1.3637172564e+00	 4.1026689824e+01
 8.3272414747e-01	 1.3799840439e+00	 4.2623750019e+01
 9.6886712291e-01	 1.3027448902e+00	 3.2068327054e+01
 9.4344687287e-01	 1.3212705056e+00	 3.3860955437e+01
 9.1771407145e-01	 1.3392716804e+00	 3.6029534268e+01
 8.9168481915e-01	 1.3567409237e+00	 3.8339855239e+01
 8.6537543538e-01	 1.3736713969e+00	 4.0540013854e+01
 8.3880242592e-01	 1.3900569201e+00	 4.2361899329e+01
 9.7588789916e-01	 1.3121850706e+00	 3.0754953792e+01
 9.5028344441e-01	 1.3308449295e+00	 3.2649242714e+01
 9.2436417342e-01	 1.3489765477e+00	 3.4944008396e+01
 8.9814630334e-01	 1.3665723797e+00	 3.7412752590e+01
 8.7164627187e-01	 1.3836255375e+00	 3.9817214244e+01
 8.4488070437e-01	 1.4001297963e+00	 4.1908717035e+01
 9.8290867542e-01	 1.3216252510e+00	 2.9549426434e+01
 9.5712001595e-01	 1.3404193535e+00	 3.1431644829e+01
 9.3101427538e-01	 1.3586814149e+00	 3.3729377699e+01
 9.0460778754e-01	 1.3764038357e+00	 3.6261306849e+01
 8.7791710836e-01	 1.3935796780e+00	 3.8843425396e+01
 8.5095898282e-01	 1.4102026726e+00	 4.1289972535e+01
 8.2056759057e-01	 1.3598382914e+00	 4.2465871764e+01
 7.9433065771e-01	 1.3753291081e+00	 4.3525436882e+01
 7.6786854275e-01	 1.3902766813e+00	 4.4739446145e+01
 7.4119774740e-01	 1.4046769197e+00	 4.6363074576e+01
 7.1433482802e-01	 1.4185263843e+00	 4.8657408982e+01
 6.8729636427e-01	 1.4318222855e+00	 5.0425571604e+01
 8.2664586902e-01	 1.3699111676e+00	 4.2667604889e+01
 8.0021458851e-01	 1.3855167312e+00	 4.3812096842e+01
 7.7355645788e-01	 1.4005750271e+00	 4.5101431305e+01
 7.4668810109e-01	 1.4150819339e+00	 4.6920904045e+01
 7.1962619712e-01	 1.4290339871e+00	 4.9527189144e+01
 6.9238744845e-01	 1.4424283765e+00	 4.8510195304e+01
 8.3272414747e-01	 1.3799840439e+00	 4.2623750019e+01
 8.0609851931e-01	 1.3957043542e+00	 4.3928785012e+01
 7.7924437301e-01	 1.4108733729e+00	 4.5468947874e+01
 7.5217845477e-01	 1.4254869481e+00	 4.7707497148e+01
 7.2491756622e-01	 1.4395415900e+00	 4.7752359193e+01
 6.9747853263e-01	 1.4530344675e+00	 4.7187133147e+01
 8.3880242592e-01	 1.3900569201e+00	 4.2361899329e+01
 8.1198245010e-01	 1.4058919772e+00	 4.3939712279e+01
 7.8493228814e-01	 1.4211717187e+00	 4.5915892663e+01
 7.5766880846e-01	 1.4358919624e+00	 4.6751892623e+01
 7.3020893531e-01	 1.4500491928e+00	 4.6334283108e+01
 7.0256961681e-01	 1.4636405585e+00	 4.6409657474e+01
 8.4488070437e-01	 1.4001297963e+00	 4.1908717035e+01
 8.1786638090e-01	 1.4160796002e+00	 4.3907107428e+01
 7.9062020327e-01	 1.4314700644e+00	 4.5798146379e+01
 7.6315916214e-01	 1.4462969766e+00	 4.5214042592e+01
 7.3550030441e-01	 1.4605567957e+00	 4.5297389393e+01
 7.0766070098e-01	 1.4742466495e+00	 4.6132238789e+01
 8.5095898282e-01	 1.4102026726e+00	 4.1289972535e+01
 8.2375031170e-01	 1.4262672233e+00	 4.3891287935e+01
 7.9630811840e-01	 1.4417684102e+00	 4.4034244721e+01
 7.6864951583e-01	 1.4567019908e+00	 4.3997967327e+01
 7.4079167351e-01	 1.4710643985e+00	 4.4665496012e+01
 7.1275178516e-01	 1.4848527405e+00	 4.6310502965e+01
 6.8729636427e-01	 1.4318222855e+00	 5.0425571604e+01
 6.6009892824e-01	 1.4445624785e+00	 4.8958390343e+01
 6.3275905424e-01	 1.4567454578e+00	 4.7532852067e+01
 6.0529320919e-01	 1.4683703485e+00	 4.6187925985e+01
 5.7771776378e-01	 1.4794368979e+00	 4.4943611253e+01
 5.5004896461e-01	 1.4899454641e+00	 4.3801655065e+01
 6.9238744845e-01	 1.4424283765e+00	 4.8510195304e+01
 6.6498854993e-01	 1.4552629413e+00	 4.7556920273e+01
 6.3744615835e-01	 1.4675361649e+00	 4.6833536592e+01
 6.0977686259e-01	 1.4792471659e+00	 4.6235537408e+01
 5.8199715463e-01	 1.4903956897e+00	 4.5630032347e+01
 5.5412340139e-01	 1.5009820972e+00	 4.4857546613e+01
 6.9747853263e-01	 1.4530344675e+00	 4.7187133147e+01
 6.6987817162e-01	 1.4659634042e+00	 4.6736929612e+01
 6.4213326245e-01	 1.4783268720e+00	 4.6557363459e+01
 6.1426051599e-01	 1.4901239833e+00	 4.6454186979e+01
 5.8627654547e-01	 1.5013544816e+00	 4.6200887483e+01
 5.5819783816e-01	 1.5120187302e+00	 4.5541107502e+01
 7.0256961681e-01	 1.4636405585e+00	 4.6409657474e+01
 6.7476779331e-01	 1.4766638670e+00	 4.6394414500e+01
 6.4682036656e-01	 1.4891175791e+00	 4.6577001404e+01
 6.1874416939e-01	 1.5010008007e+00	 4.6725857493e+01
 5.9055593631e-01	 1.5123132734e+00	 4.6578731177e+01
 5.6227227494e-01	 1.5230553633e+00	 4.5845267173e+01
 7.0766070098e-01	 1.4742466495e+00	 4.6132238789e+01
 6.7965741500e-01	 1.4873643298e+00	 4.6428219888e+01
 6.5150747067e-01	 1.4999082862e+00	 4.6768642072e+01
 6.2322782279e-01	 1.5118776181e+00	 4.6935789795e+01
 5.9483532716e-01	 1.5232720653e+00	 4.6688212014e+01
 5.6634671171e-01	 1.5340919964e+00	 4.5763027868e+01
 7.1275178516e-01	 1.4848527405e+00	 4.6310502965e+01
 6.8454703669e-01	 1.4980647926e+00	 4.6739937801e+01
 6.5619457477e-01	 1.5106989933e+00	 4.7011874192e+01
 6.2771147620e-01	 1.5227544355e+00	 4.6972366429e+01
 5.9911471800e-01	 1.5342308571e+00	 4.6455997863e+01
 5.7042114849e-01	 1.5451286294e+00	 4.5287462027e+01
 5.5004896461e-01	 1.4899454641e+00	 4.3801655065e+01
 5.2230290716e-01	 1.4998970040e+00	 4.2334493289e+01
 4.9449550987e-01	 1.5092930597e+00	 4.0125919543e+01
 4.6664248931e-01	 1.5181357438e+00	 3.7176174694e+01
 4.3875933647e-01	 1.5264277232e+00	 3.3478807456e+01
 4.1086129435e-01	 1.5341722023e+00	 2.9021227540e+01
 5.5412340139e-01	 1.5009820972e+00	 4.4857546613e+01
 5.2617181759e-01	 1.5110073522e+00	 4.3421704064e+01
 4.9815843958e-01	 1.5204730083e+00	 4.1019118392e+01
 4.7009910034e-01	 1.5293811938e+00	 3.7763361325e+01
 4.4200940563e-01	 1.5377345952e+00	 3.3770817474e+01
 4.1390471135e-01	 1.5455364408e+00	 2.9160275748e+01
 5.5819783816e-01	 1.5120187302e+00	 4.5541107502e+01
 5.3004072801e-01	 1.5221177004e+00	 4.4003653921e+01
 5.0182136928e-01	 1.5316529569e+00	 4.1421141065e+01
 4.7355571137e-01	 1.5406266437e+00	 3.7978222171e+01
 4.4525947479e-01	 1.5490414672e+00	 3.3866999740e+01
 4.1694812834e-01	 1.5569006794e+00	 2.9286058871e+01
 5.6227227494e-01	 1.5230553633e+00	 4.5845267173e+01
 5.3390963843e-01	 1.5332280485e+00	 4.4142039214e+01
 5.0548429898e-01	 1.5428329055e+00	 4.1431124700e+01
 4.7701232240e-01	 1.5518720937e+00	 3.7927097369e+01
 4.4850954395e-01	 1.5603483393e+00	 3.3851814079e+01
 4.1999154534e-01	 1.5682649179e+00	 2.9433288640e+01
 5.6634671171e-01	 1.5340919964e+00	 4.5763027868e+01
 5.3777854886e-01	 1.5443383967e+00	 4.3896654446e+01
 5.0914722868e-01	 1.5540128541e+00	 4.1145231748e+01
 4.8046893343e-01	 1.5631175436e+00	 3.7713150003e+01
 4.5175961311e-01	 1.5716552113e+00	 3.3807178137e+01
 4.2303496233e-01	 1.5796291564e+00	 2.9635571724e+01
 5.7042114849e-01	 1.5451286294e+00	 4.5287462027e+01
 5.4164745928e-01	 1.5554487449e+00	 4.3325460195e+01
 5.1281015839e-01	 1.5651928027e+00	 4.0656756209e+01
 4.8392554447e-01	 1.5743629936e+00	 3.7436479570e+01
 4.5500968227e-01	 1.5829620833e+00	 3.3812558175e+01
 4.2607837933e-01	 1.5909933950e+00	 2.9925449200e+01
 4.1086129435e-01	 1.5341722023e+00	 2.9021227540e+01
 3.8296333673e-01	 1.5413729050e+00	 2.3521065418e+01
 3.5508014826e-01	 1.5480340558e+00	 1.7382944828e+01
 3.2722610594e-01	 1.5541603602e+00	 1.7360405326e+01
 2.9941526186e-01	 1.5597569844e+00	 1.6306422796e+01
 2.7166132736e-01	 1.5648295347e+00	 1.4327633839e+01
 4.1390471135e-01	 1.5455364408e+00	 2.9160275748e+01
 3.8580010219e-01	 1.5527904821e+00	 2.3735318305e+01
 3.5771037158e-01	 1.5595009747e+00	 1.7270511101e+01
 3.2965000302e-01	 1.5656726591e+00	 1.7419843475e+01
 3.0163315269e-01	 1.5713107399e+00	 1.6684828853e+01
 2.7367363349e-01	 1.5764208646e+00	 1.4931052486e+01
 4.1694812834e-01	 1.5569006794e+00	 2.9286058871e+01
 3.8863686764e-01	 1.5642080591e+00	 2.4048092317e+01
 3.6034059490e-01	 1.5709678936e+00	 1.7852044398e+01
 3.3207390010e-01	 1.5771849581e+00	 1.7554325678e+01
 3.0385104352e-01	 1.5828644953e+00	 1.7048065559e+01
 2.7568593962e-01	 1.5880121945e+00	 1.5427910497e+01
 4.1999154534e-01	 1.5682649179e+00	 2.9433288640e+01
 3.9147363310e-01	 1.5756256362e+00	 2.4441825501e+01
 3.6297081822e-01	 1.5824348126e+00	 1.8501570114e+01
 3.3449779719e-01	 1.5886972570e+00	 1.7707749489e+01
 3.0606893434e-01	 1.5944182507e+00	 1.7349805004e+01
 2.7769824575e-01	 1.5996035244e+00	 1.5800757617e+01
 4.2303496233e-01	 1.5796291564e+00	 2.9635571724e+01
 3.9431039856e-01	 1.5870432133e+00	 2.4899360918e+01
 3.6560104154e-01	 1.5939017315e+00	 1.9172046049e+01
 3.3692169427e-01	 1.6002095560e+00	 1.7825604276e+01
 3.0828682517e-01	 1.6059720062e+00	 1.7545032371e+01
 2.7971055188e-01	 1.6111948543e+00	 1.6032628134e+01
 4.2607837933e-01	 1.5909933950e+00	 2.9925449200e+01
 3.9714716401e-01	 1.5984607903e+00	 2.5403932181e+01
 3.6823126487e-01	 1.6053686504e+00	 1.9817680431e+01
 3.3934559135e-01	 1.6117218550e+00	 1.7854914368e+01
 3.1050471600e-01	 1.6175257616e+00	 1.7589999046e+01
 2.8172285801e-01	 1.6227861841e+00	 1.6107023570e+01
 2.7166132736e-01	 1.5648295347e+00	 1.4327633839e+01
 2.4397765859e-01	 1.5693840357e+00	 1.2143940168e+01
 2.1637724338e-01	 1.5734269090e+00	 1.0190203031e+01
 1.8887268953e-01	 1.5769649510e+00	 8.1493358409e+00
 1.6147621442e-01	 1.5800053106e+00	 5.7065673522e+00
 1.3419963603e-01	 1.5825554673e+00	 2.5507307044e+00
 2.7367363349e-01	 1.5764208646e+00	 1.4931052486e+01
 2.4578490051e-01	 1.5810091027e+00	 1.2797854129e+01
 2.1798003778e-01	 1.5850819232e+00	 1.0731261991e+01
 1.9027174649e-01	 1.5886461728e+00	 8.4679388721e+00
 1.6267233453e-01	 1.5917090537e+00	 5.7498413567e+00
 1.3519370741e-01	 1.5942781004e+00	 2.3251107761e+00
 2.7568593962e-01	 1.5880121945e+00	 1.5427910497e+01
 2.4759214243e-01	 1.5926341696e+00	 1.3300897399e+01
 2.1958283217e-01	 1.5967369373e+00	 1.1136049610e+01
 1.9167080345e-01	 1.6003273947e+00	 8.7038435958e+00
 1.6386845463e-01	 1.6034127967e+00	 5.7812873711e+00
 1.3618777879e-01	 1.6060007335e+00	 2.1525952290e+00
 2.7769824575e-01	 1.5996035244e+00	 1.5800757617e+01
 2.4939938434e-01	 1.6042592365e+00	 1.3666723144e+01
 2.2118562657e-01	 1.6083919514e+00	 1.1435581872e+01
 1.9306986040e-01	 1.6120086166e+00	 8.8922146168e+00
 1.6506457474e-01	 1.6151165398e+00	 5.8275531934e+00
 1.3718185016e-01	 1.6177233666e+00	 2.0392184870e+00
 2.7971055188e-01	 1.6111948543e+00	 1.6032628134e+01
 2.5120662626e-01	 1.6158843034e+00	 1.3908576349e+01
 2.2278842097e-01	 1.6200469656e+00	 1.1659969154e+01
 1.9446891736e-01	 1.6236898384e+00	 9.0671936423e+00
 1.6626069485e-01	 1.6268202828e+00	 5.9145107809e+00
 1.3817592154e-01	 1.6294459997e+00	 1.9908341616e+00
 2.8172285801e-01	 1.6227861841e+00	 1.6107023570e+01
 2.5301386817e-01	 1.6275093704e+00	 1.4039308397e+01
 2.2439121536e-01	 1.6317019797e+00	 1.1838448563e+01
 1.9586797432e-01	 1.6353710603e+00	 9.2619360146e+00
 1.6745681495e-01	 1.6385240259e+00	 6.0672839587e+00
 1.3916999292e-01	 1.6411686328e+00	 2.0131215089e+00
 1.3419963603e-01	 1.5825554673e+00	 2.5507307044e+00
 1.0705436520e-01	 1.5846232083e+00	-5.1890859452e-01
 8.0051399206e-02	 1.5862166066e+00	-2.0955725434e+00
 5.3201316631e-02	 1.5873439984e+00	-1.5683453259e+00
 2.6514273394e-02	 1.5880139618e+00	 1.6811881244e+00
 0.0000000000e+00	 1.5882352941e+00	 8.2760942499e+00
 1.3519370741e-01	 1.5942781004e+00	 2.3251107761e+00
 1.0784736049e-01	 1.5963611580e+00	-8.8399788011e-01
 8.0644372534e-02	 1.5979663592e+00	-2.4285180131e+00
 5.3595400458e-02	 1.5991021021e+00	-1.7603139436e+00
 2.6710675419e-02	 1.5997770282e+00	 1.6731632111e+00
 0.0000000000e+00	 1.6000000000e+00	 8.4264730594e+00
 1.3618777879e-01	 1.6060007335e+00	 2.1525952290e+00
 1.0864035579e-01	 1.6080991077e+00	-1.1737394913e+00
 8.1237345861e-02	 1.6097161119e+00	-2.7095301591e+00
 5.3989484285e-02	 1.6108602058e+00	-1.9419187699e+00
 2.6907077444e-02	 1.6115400945e+00	 1.6446158609e+00
 0.0000000000e+00	 1.6117647059e+00	 8.5661007848e+00
 1.3718185016e-01	 1.6177233666e+00	 2.0392184870e+00
 1.0943335109e-01	 1.6198370574e+00	-1.4014154547e+00
 8.1830319189e-02	 1.6214658645e+00	-2.9573543934e+00
 5.4383568112e-02	 1.6226183095e+00	-2.1242025123e+00
 2.7103479469e-02	 1.6233031609e+00	 1.6046691793e+00
 0.0000000000e+00	 1.6235294118e+00	 8.7360129440e+00
 1.3817592154e-01	 1.6294459997e+00	 1.9908341616e+00
 1.1022634639e-01	 1.6315750071e+00	-1.5799310360e+00
 8.2423292516e-02	 1.6332156171e+00	-3.1902005779e+00
 5.4777651939e-02	 1.6343764132e+00	-2.3178925562e+00
 2.7299881494e-02	 1.6350662273e+00	 1.5621825777e+00
 0.0000000000e+00	 1.6352941176e+00	 8.9760641763e+00
 1.3916999292e-01	 1.6411686328e+00	 2.0131215089e+00
 1.1101934169e-01	 1.6433129568e+00	-1.7218281958e+00
 8.3016265844e-02	 1.6449653698e+00	-3.4257621518e+00
 5.5171735766e-02	 1.6461345169e+00	-2.5334122270e+00
 2.7496283519e-02	 1.6468292937e+00	 1.5257611919e+00
 0.0000000000e+00	 1.6470588235e+00	 9.3249704173e+00
 1.6470588235e+00	 0.0000000000e+00	 4.8224326628e+01
 1.6468292937e+00	 2.7496283519e-02	 4.7213388485e+01
 1.6461345169e+00	 5.5171735766e-02	 4.7248716036e+01
 1.6449653698e+00	 8.3016265844e-02	 4.7318698656e+01
 1.6433129568e+00	 1.1101934169e-01	 4.6374685407e+01
 1.6411686328e+00	 1.3916999292e-01	 4.3333172734e+01
 1.6588235294e+00	 0.0000000000e+00	 4.8532304106e+01
 1.6585923601e+00	 2.7692685544e-02	 4.7259649038e+01
 1.6578926206e+00	 5.5565819593e-02	 4.7099971170e+01
 1.6567151224e+00	 8.3609239171e-02	 4.7032418844e+01
 1.6550509065e+00	 1.1181233698e-01	 4.6000016794e+01
 1.6528912659e+00	 1.4016406430e-01	 4.2911973723e+01
 1.6705882353e+00	 0.0000000000e+00	 4.8934830722e+01
 1.6703554265e+00	 2.7889087570e-02	 4.7350600382e+01
 1.6696507243e+00	 5.5959903420e-02	 4.6955694671e+01
 1.6684648751e+00	 8.4202212499e-02	 4.6720370595e+01
 1.6667888562e+00	 1.1260533228e-01	 4.5579902788e+01
 1.6646138990e+00	 1.4115813568e-01	 4.2437020433e+01
 1.6823529412e+00	 0.0000000000e+00	 4.9435603156e+01
 1.6821184928e+00	 2.8085489595e-02	 4.7486394937e+01
 1.6814088280e+00	 5.6353987247e-02	 4.6813775995e+01
 1.6802146277e+00	 8.4795185826e-02	 4.6379463632e+01
 1.6785268059e+00	 1.1339832758e-01	 4.5111555572e+01
 1.6763365321e+00	 1.4215220705e-01	 4.1907105573e+01
 1.6941176471e+00	 0.0000000000e+00	 5.0038215401e+01
 1.6938815592e+00	 2.8281891620e-02	 4.7667172957e+01
 1.6931669317e+00	 5.6748071074e-02	 4.6672147539e+01
 1.6919643803e+00	 8.5388159153e-02	 4.6006670270e+01
 1.6902647556e+00	 1.1419132288e-01	 4.4592234170e+01
 1.6880591652e+00	 1.4314627843e-01	 4.1321017686e+01
 1.7058823529e+00	 0.0000000000e+00	 5.0746162308e+01
 1.7056446256e+00	 2.8478293645e-02	 4.7893062952e+01
 1.7049250354e+00	 5.7142154900e-02	 4.6528783159e+01
 1.7037141330e+00	 8.5981132481e-02	 4.5599023263e+01
 1.7020027052e+00	 1.1498431817e-01	 4.4019242842e+01
 1.6997817982e+00	 1.4414034981e-01	 4.0677541293e+01
 1.6411686328e+00	 1.3916999292e-01	 4.3333172734e+01
 1.6385240259e+00	 1.6745681495e-01	 3.8718126176e+01
 1.6353710603e+00	 1.9586797432e-01	 3.3986719584e+01
 1.6317019797e+00	 2.2439121536e-01	 2.9430463659e+01
 1.6275093704e+00	 2.5301386817e-01	 2.5339390764e+01
 1.6227861841e+00	 2.8172285801e-01	 2.2000341002e+01
 1.6528912659e+00	 1.4016406430e-01	 4.2911973723e+01
 1.6502277689e+00	 1.6865293506e-01	 3.8286846153e+01
 1.6470522821e+00	 1.9726703128e-01	 3.3575459888e+01
 1.6433569939e+00	 2.2599400976e-01	 2.9060625424e+01
 1.6391344373e+00	 2.5482111009e-01	 2.5022520480e+01
 1.6343775140e+00	 2.8373516413e-01	 2.1736961167e+01
 1.6646138990e+00	 1.4115813568e-01	 4.2437020433e+01
 1.6619315119e+00	 1.6984905517e-01	 3.7798103178e+01
 1.6587335040e+00	 1.9866608824e-01	 3.3101530986e+01
 1.6550120080e+00	 2.2759680415e-01	 2.8623291391e+01
 1.6507595042e+00	 2.5662835200e-01	 2.4635415896e+01
 1.6459688439e+00	 2.8574747026e-01	 2.1404220079e+01
 1.6763365321e+00	 1.4215220705e-01	 4.1907105573e+01
 1.6736352550e+00	 1.7104517527e-01	 3.7252372034e+01
 1.6704147259e+00	 2.0006514520e-01	 3.2565989829e+01
 1.6666670221e+00	 2.2919959855e-01	 2.8118958263e+01
 1.6623845712e+00	 2.5843559392e-01	 2.4176830474e+01
 1.6575601738e+00	 2.8775977639e-01	 2.0997906509e+01
 1.6880591652e+00	 1.4314627843e-01	 4.1321017686e+01
 1.6853389980e+00	 1.7224129538e-01	 3.6650069757e+01
 1.6820959477e+00	 2.0146420216e-01	 3.1969812875e+01
 1.6783220363e+00	 2.3080239294e-01	 2.7548051527e+01
 1.6740096381e+00	 2.6024283583e-01	 2.3645488904e+01
 1.6691515037e+00	 2.8977208252e-01	 2.0513857162e+01
 1.6997817982e+00	 1.4414034981e-01	 4.0677541293e+01
 1.6970427411e+00	 1.7343741549e-01	 3.5991557629e+01
 1.6937771696e+00	 2.0286325912e-01	 3.1313898860e+01
 1.6899770504e+00	 2.3240518734e-01	 2.6910927904e+01
 1.6856347050e+00	 2.6205007775e-01	 2.3040088098e+01
 1.6807428336e+00	 2.9178438865e-01	 1.9947955030e+01
 1.6227861841e+00	 2.8172285801e-01	 2.2000341002e+01
 1.6175257616e+00	 3.1050471600e-01	 1.9154760120e+01
 1.6117218550e+00	 3.3934559135e-01	 1.6373328481e+01
 1.6053686504e+00	 3.6823126487e-01	 1.3360665395e+01
 1.5984607903e+00	 3.9714716401e-01	 9.8212291552e+00
 1.5909933950e+00	 4.2607837933e-01	 6.2969237186e+00
 1.6343775140e+00	 2.8373516413e-01	 2.1736961167e+01
 1.6290795171e+00	 3.1272260683e-01	 1.8948045856e+01
 1.6232341539e+00	 3.4176948843e-01	 1.6250650780e+01
 1.6168355693e+00	 3.7086148819e-01	 1.3190235704e+01
 1.6098783674e+00	 3.9998392947e-01	 9.5779373269e+00
 1.6023576335e+00	 4.2912179632e-01	 6.0194475362e+00
 1.6459688439e+00	 2.8574747026e-01	 2.1404220079e+01
 1.6406332725e+00	 3.1494049766e-01	 1.8678594068e+01
 1.6347464529e+00	 3.4419338551e-01	 1.6076163219e+01
 1.6283024883e+00	 3.7349171151e-01	 1.2949141114e+01
 1.6212959445e+00	 4.0282069493e-01	 9.2810732335e+00
 1.6137218720e+00	 4.3216521332e-01	 5.6969276785e+00
 1.6575601738e+00	 2.8775977639e-01	 2.0997906509e+01
 1.6521870279e+00	 3.1715838849e-01	 1.8339135867e+01
 1.6462587519e+00	 3.4661728259e-01	 1.5840658214e+01
 1.6397694072e+00	 3.7612193483e-01	 1.2632202872e+01
 1.6327135216e+00	 4.0565746039e-01	 8.9262916158e+00
 1.6250861106e+00	 4.3520863031e-01	 5.3272106387e+00
 1.6691515037e+00	 2.8977208252e-01	 2.0513857162e+01
 1.6637407834e+00	 3.1937627932e-01	 1.7922529938e+01
 1.6577710508e+00	 3.4904117967e-01	 1.5535104671e+01
 1.6512363261e+00	 3.7875215815e-01	 1.2234434498e+01
 1.6441310986e+00	 4.0849422584e-01	 8.5094197739e+00
 1.6364503491e+00	 4.3825204731e-01	 4.9082579347e+00
 1.6807428336e+00	 2.9178438865e-01	 1.9947955030e+01
 1.6752945388e+00	 3.2159417014e-01	 1.7421758141e+01
 1.6692833498e+00	 3.5146507675e-01	 1.5150641904e+01
 1.6627032451e+00	 3.8138238147e-01	 1.1751035160e+01
 1.6555486757e+00	 4.1133099130e-01	 8.0264516165e+00
 1.6478145876e+00	 4.4129546430e-01	 4.4381421421e+00
 1.5909933950e+00	 4.2607837933e-01	 6.2969237186e+00
 1.5829620833e+00	 4.5500968227e-01	 2.8526815109e+00
 1.5743629936e+00	 4.8392554447e-01	-4.4509633551e-01
 1.5651928027e+00	 5.1281015839e-01	-3.4828495638e+00
 1.5554487449e+00	 5.4164745928e-01	-6.1437164151e+00
 1.5451286294e+00	 5.7042114849e-01	-8.3077692816e+00
 1.6023576335e+00	 4.2912179632e-01	 6.0194475362e+00
 1.5942689553e+00	 4.5825975142e-01	 2.5880014568e+00
 1.5856084435e+00	 4.8738215550e-01	-6.7128375229e-01
 1.5763727513e+00	 5.1647308809e-01	-3.6702664369e+00
 1.5665590931e+00	 5.4551636970e-01	-6.3174858361e+00
 1.5561652625e+00	 5.7449558526e-01	-8.5182592889e+00
 1.6137218720e+00	 4.3216521332e-01	 5.6969276785e+00
 1.6055758274e+00	 4.6150982058e-01	 2.2777881933e+00
 1.5968538935e+00	 4.9083876653e-01	-9.4783027551e-01
 1.5875526999e+00	 5.2013601779e-01	-3.9131347649e+00
 1.5776694413e+00	 5.4938528013e-01	-6.5481175894e+00
 1.5672018956e+00	 5.7857002204e-01	-8.7795395960e+00
 1.6250861106e+00	 4.3520863031e-01	 5.3272106387e+00
 1.6168826994e+00	 4.6475988974e-01	 1.9223441915e+00
 1.6080993435e+00	 4.9429537756e-01	-1.2729216864e+00
 1.5987326485e+00	 5.2379894749e-01	-4.2091620548e+00
 1.5887797894e+00	 5.5325419055e-01	-6.8339621414e+00
 1.5782385286e+00	 5.8264445881e-01	-9.0918108383e+00
 1.6364503491e+00	 4.3825204731e-01	 4.9082579347e+00
 1.6281895714e+00	 4.6800995890e-01	 1.5220219749e+00
 1.6193447934e+00	 4.9775198859e-01	-1.6447325647e+00
 1.6099125971e+00	 5.2746187720e-01	-4.5560548711e+00
 1.5998901376e+00	 5.5712310097e-01	-7.1733482557e+00
 1.5892751617e+00	 5.8671889559e-01	-9.4551977875e+00
 1.6478145876e+00	 4.4129546430e-01	 4.4381421421e+00
 1.6394964434e+00	 4.7126002806e-01	 1.0772223932e+00
 1.6305902434e+00	 5.0120859963e-01	-2.0614266749e+00
 1.6210925457e+00	 5.3112480690e-01	-4.9515188689e+00
 1.6110004858e+00	 5.6099201140e-01	-7.5645837411e+00
 1.6003117948e+00	 5.9079333236e-01	-9.8697519673e+00
 1.5451286294e+00	 5.7042114849e-01	-8.3077692816e+00
 1.5342308571e+00	 5.9911471800e-01	-9.9441616431e+00
 1.5227544355e+00	 6.2771147620e-01	-1.1161624492e+01
 1.5106989933e+00	 6.5619457477e-01	-1.2047263281e+01
 1.4980647926e+00	 6.8454703669e-01	-1.2687354621e+01
 1.4848527405e+00	 7.1275178516e-01	-1.3166620748e+01
 1.5561652625e+00	 5.7449558526e-01	-8.5182592889e+00
 1.5451896489e+00	 6.0339410884e-01	-1.0257757077e+01
 1.5336312529e+00	 6.3219512960e-01	-1.1620983909e+01
 1.5214897003e+00	 6.6088167888e-01	-1.2660249829e+01
 1.5087652554e+00	 6.8943665838e-01	-1.3426878462e+01
 1.4954588315e+00	 7.1784286934e-01	-1.4130524213e+01
 1.5672018956e+00	 5.7857002204e-01	-8.7795395960e+00
 1.5561484408e+00	 6.0767349968e-01	-1.0607959353e+01
 1.5445080703e+00	 6.3667878300e-01	-1.2098917242e+01
 1.5322804074e+00	 6.6556878298e-01	-1.3273512778e+01
 1.5194657182e+00	 6.9432628007e-01	-1.4151586284e+01
 1.5060649225e+00	 7.2293395352e-01	-1.5122675274e+01
 1.5782385286e+00	 5.8264445881e-01	-9.0918108383e+00
 1.5671072326e+00	 6.1195289053e-01	-1.0997099020e+01
 1.5553848877e+00	 6.4116243640e-01	-1.2599129935e+01
 1.5430711145e+00	 6.7025588709e-01	-1.3891301870e+01
 1.5301661810e+00	 6.9921590176e-01	-1.4865367378e+01
 1.5166710135e+00	 7.2802503770e-01	-1.6074836117e+01
 1.5892751617e+00	 5.8671889559e-01	-9.4551977875e+00
 1.5780660244e+00	 6.1623228137e-01	-1.1427368974e+01
 1.5662617051e+00	 6.4564608980e-01	-1.3125149115e+01
 1.5538618216e+00	 6.7494299119e-01	-1.4517671092e+01
 1.5408666438e+00	 7.0410552345e-01	-1.5571923138e+01
 1.5272771045e+00	 7.3311612188e-01	-1.6990760381e+01
 1.6003117948e+00	 5.9079333236e-01	-9.8697519673e+00
 1.5890248163e+00	 6.2051167221e-01	-1.1900829207e+01
 1.5771385225e+00	 6.5012974320e-01	-1.3680329734e+01
 1.5646525287e+00	 6.7963009530e-01	-1.5156485418e+01
 1.5515671066e+00	 7.0899514514e-01	-1.6274773538e+01
 1.5378831955e+00	 7.3820720606e-01	-1.7874054246e+01
 1.4848527405e+00	 7.1275178516e-01	-1.3166620748e+01
 1.4710643985e+00	 7.4079167351e-01	-1.4788739709e+01
 1.4567019908e+00	 7.6864951583e-01	-1.6173672428e+01
 1.4417684102e+00	 7.9630811840e-01	-1.6933262925e+01
 1.4262672233e+00	 8.2375031170e-01	-1.7097885153e+01
 1.4102026726e+00	 8.5095898282e-01	-1.8149153786e+01
 1.4954588315e+00	 7.1784286934e-01	-1.4130524213e+01
 1.4815720014e+00	 7.4608304260e-01	-1.5777634476e+01
 1.4671070050e+00	 7.7413986951e-01	-1.7084223426e+01
 1.4520667560e+00	 8.0199603354e-01	-1.7792406247e+01
 1.4364548463e+00	 8.2963424250e-01	-1.7641620422e+01
 1.4202755488e+00	 8.5703726126e-01	-1.7617067326e+01
 1.5060649225e+00	 7.2293395352e-01	-1.5122675274e+01
 1.4920796042e+00	 7.5137441170e-01	-1.6722757314e+01
 1.4775120192e+00	 7.7963022319e-01	-1.7954616188e+01
 1.4623651018e+00	 8.0768394867e-01	-1.8615326160e+01
 1.4466424693e+00	 8.3551817329e-01	-1.8499505380e+01
 1.4303484250e+00	 8.6311553971e-01	-1.7400324207e+01
 1.5166710135e+00	 7.2802503770e-01	-1.6074836117e+01
 1.5025872071e+00	 7.5666578080e-01	-1.7626059264e+01
 1.4879170335e+00	 7.8512057688e-01	-1.8784584798e+01
 1.4726634476e+00	 8.1337186380e-01	-1.9399340828e+01
 1.4568300923e+00	 8.4140210409e-01	-1.9316939900e+01
 1.4404213013e+00	 8.6919381816e-01	-1.8382405165e+01
 1.5272771045e+00	 7.3311612188e-01	-1.6990760381e+01
 1.5130948099e+00	 7.6195714989e-01	-1.8489392402e+01
 1.4983220477e+00	 7.9061093056e-01	-1.9573825519e+01
 1.4829617934e+00	 8.1905977893e-01	-2.0141797388e+01
 1.4670177154e+00	 8.4728603489e-01	-2.0088790763e+01
 1.4504941775e+00	 8.7527209661e-01	-1.9308490156e+01
 1.5378831955e+00	 7.3820720606e-01	-1.7874054246e+01
 1.5236024128e+00	 7.6724851899e-01	-1.9314513246e+01
 1.5087270619e+00	 7.9610128425e-01	-2.0321998095e+01
 1.4932601392e+00	 8.2474769406e-01	-2.0840070952e+01
 1.4772053384e+00	 8.5316996569e-01	-2.0810020962e+01
 1.4605670537e+00	 8.8135037506e-01	-2.0171063878e+01
 1.4102026726e+00	 8.5095898282e-01	-1.8149153786e+01
 1.3935796780e+00	 8.7791710836e-01	-1.7950353727e+01
 1.3764038357e+00	 9.0460778754e-01	-1.6698637245e+01
 1.3586814149e+00	 9.3101427538e-01	-1.4665595746e+01
 1.3404193535e+00	 9.5712001595e-01	-1.2128783953e+01
 1.3216252510e+00	 9.8290867542e-01	-9.3702244694e+00
 1.4202755488e+00	 8.5703726126e-01	-1.7617067326e+01
 1.4035338186e+00	 8.8418794485e-01	-1.7675314460e+01
 1.3862352917e+00	 9.1106927174e-01	-1.6801433364e+01
 1.3683862822e+00	 9.3766437735e-01	-1.5186516692e+01
 1.3499937774e+00	 9.6395658750e-01	-1.3026086067e+01
 1.3310654313e+00	 9.8992945167e-01	-1.0519022334e+01
 1.4303484250e+00	 8.6311553971e-01	-1.7400324207e+01
 1.4134879591e+00	 8.9045878134e-01	-1.7440514565e+01
 1.3960667476e+00	 9.1753075593e-01	-1.6919897437e+01
 1.3780911494e+00	 9.4431447932e-01	-1.5693759056e+01
 1.3595682014e+00	 9.7079315904e-01	-1.3879332818e+01
 1.3405056117e+00	 9.9695022792e-01	-1.1596582799e+01
 1.4404213013e+00	 8.6919381816e-01	-1.8382405165e+01
 1.4234420997e+00	 8.9672961782e-01	-1.7236603301e+01
 1.4058982036e+00	 9.2399224013e-01	-1.7045459794e+01
 1.3877960166e+00	 9.5096458128e-01	-1.6181741261e+01
 1.3691426254e+00	 9.7762973058e-01	-1.4688067687e+01
 1.3499457920e+00	 1.0039710042e+00	-1.2609634457e+01
 1.4504941775e+00	 8.7527209661e-01	-1.9308490156e+01
 1.4333962403e+00	 9.0300045431e-01	-1.7730037735e+01
 1.4157296596e+00	 9.3045372433e-01	-1.7169742551e+01
 1.3975008839e+00	 9.5761468325e-01	-1.6644990542e+01
 1.3787170493e+00	 9.8446630212e-01	-1.5451800744e+01
 1.3593859724e+00	 1.0109917804e+00	-1.3564673158e+01
 1.4605670537e+00	 8.8135037506e-01	-2.0171063878e+01
 1.4433503808e+00	 9.0927129080e-01	-1.8883955297e+01
 1.4255611155e+00	 9.3691520852e-01	-1.7284552996e+01
 1.4072057511e+00	 9.6426478522e-01	-1.7078139195e+01
 1.3882914733e+00	 9.9130287367e-01	-1.6170009803e+01
 1.3688261528e+00	 1.0180125567e+00	-1.4467970028e+01
 1.3216252510e+00	 9.8290867542e-01	-9.3702244694e+00
 1.3023073597e+00	 1.0083641748e+00	-6.3926396311e+00
 1.2824745743e+00	 1.0334707226e+00	-2.8143182159e+00
 1.2621364191e+00	 1.0582128461e+00	 1.6626399858e+00
 1.2413030335e+00	 1.0825754233e+00	 5.1728089291e+00
 1.2199851557e+00	 1.1065437127e+00	 7.3286136092e+00
 1.3310654313e+00	 9.8992945167e-01	-1.0519022334e+01
 1.3116095551e+00	 1.0155667761e+00	-7.5920869989e+00
 1.2916351070e+00	 1.0408526563e+00	-3.8838349958e+00
 1.2711516792e+00	 1.0657715093e+00	 8.4071765982e-01
 1.2501694837e+00	 1.0903081049e+00	 3.2081643859e+00
 1.2286993354e+00	 1.1144475963e+00	 5.5960837605e+00
 1.3405056117e+00	 9.9695022792e-01	-1.1596582799e+01
 1.3209117505e+00	 1.0227693773e+00	-8.7053250129e+00
 1.3007956397e+00	 1.0482345900e+00	-4.8699211853e+00
 1.2801669394e+00	 1.0733301725e+00	-2.5161540090e-01
 1.2590359340e+00	 1.0980407865e+00	 1.3273174574e+00
 1.2374135151e+00	 1.1223514800e+00	 3.8994973594e+00
 1.3499457920e+00	 1.0039710042e+00	-1.2609634457e+01
 1.3302139460e+00	 1.0299719786e+00	-9.7452683162e+00
 1.3099561723e+00	 1.0556165238e+00	-5.7876853925e+00
 1.2891821995e+00	 1.0808888357e+00	-2.2523107222e+00
 1.2679023842e+00	 1.1057734681e+00	-4.7579773820e-01
 1.2461276947e+00	 1.1302553637e+00	 2.2423095712e+00
 1.3593859724e+00	 1.0109917804e+00	-1.3564673158e+01
 1.3395161414e+00	 1.0371745798e+00	-1.0724427324e+01
 1.3191167050e+00	 1.0629984575e+00	-6.6517715125e+00
 1.2981974597e+00	 1.0884474989e+00	-4.1561014791e+00
 1.2767688345e+00	 1.1135061497e+00	-2.2069911229e+00
 1.2548418744e+00	 1.1381592473e+00	 6.2796474645e-01
 1.3688261528e+00	 1.0180125567e+00	-1.4467970028e+01
 1.3488183368e+00	 1.0443771811e+00	-1.1654922165e+01
 1.3282772377e+00	 1.0703803912e+00	-7.4763747528e+00
 1.3072127198e+00	 1.0960061621e+00	-5.9738853166e+00
 1.2856352847e+00	 1.1212388313e+00	-3.8718254854e+00
 1.2635560541e+00	 1.1460631310e+00	-9.4010320661e-01
 1.2199851557e+00	 1.1065437127e+00	 7.3286136092e+00
 1.1981941046e+00	 1.1301033828e+00	 1.0405785300e+01
 1.1759417600e+00	 1.1532405409e+00	 1.3887053657e+01
 1.1532405409e+00	 1.1759417600e+00	 1.7589884913e+01
 1.1301033828e+00	 1.1981941046e+00	 2.1321413094e+01
 1.1065437127e+00	 1.2199851557e+00	 2.4879163468e+01
 1.2286993354e+00	 1.1144475963e+00	 5.5960837605e+00
 1.2067526339e+00	 1.1381755498e+00	 8.7901255233e+00
 1.1843413440e+00	 1.1614779734e+00	 1.2249619952e+01
 1.1614779734e+00	 1.1843413440e+00	 1.5817591228e+01
 1.1381755498e+00	 1.2067526339e+00	 1.9331724209e+01
 1.1144475963e+00	 1.2286993354e+00	 2.2624928807e+01
 1.2374135151e+00	 1.1223514800e+00	 3.8994973594e+00
 1.2153111632e+00	 1.1462477169e+00	 7.1677823931e+00
 1.1927409280e+00	 1.1697154058e+00	 1.0583800286e+01
 1.1697154058e+00	 1.1927409280e+00	 1.4017063585e+01
 1.1462477169e+00	 1.2153111632e+00	 1.7335653942e+01
 1.1223514800e+00	 1.2374135151e+00	 2.0406626680e+01
 1.2461276947e+00	 1.1302553637e+00	 2.2423095712e+00
 1.2238696926e+00	 1.1543198839e+00	 5.5510890680e+00
 1.2011405120e+00	 1.1779528382e+00	 8.9056693226e+00
 1.1779528382e+00	 1.2011405120e+00	 1.2202969547e+01
 1.1543198839e+00	 1.2238696926e+00	 1.5341317632e+01
 1.1302553637e+00	 1.2461276947e+00	 1.8220694183e+01
 1.2548418744e+00	 1.1381592473e+00	 6.2796474645e-01
 1.2324282219e+00	 1.1623920509e+00	 3.9521187958e+00
 1.2095400960e+00	 1.1861902707e+00	 7.2309352314e+00
 1.1861902707e+00	 1.2095400960e+00	 1.0389646455e+01
 1.1623920509e+00	 1.2324282219e+00	 1.3356679452e+01
 1.1381592473e+00	 1.2548418744e+00	 1.6063738559e+01
 1.2635560541e+00	 1.1460631310e+00	-9.4010320661e-01
 1.2409867512e+00	 1.1704642179e+00	 2.3826938766e+00
 1.2179396800e+00	 1.1944277031e+00	 5.5749523239e+00
 1.1944277031e+00	 1.2179396800e+00	 8.5911128156e+00
 1.1704642179e+00	 1.2409867512e+00	 1.1389557621e+01
 1.1460631310e+00	 1.2635560541e+00	 1.3932531334e+01
 1.1065437127e+00	 1.2199851557e+00	 2.4879163468e+01
 1.0825754233e+00	 1.2413030335e+00	 2.8558173979e+01
 1.0582128461e+00	 1.2621364191e+00	 2.9733838540e+01
 1.0334707226e+00	 1.2824745743e+00	 2.8764962858e+01
 1.0083641748e+00	 1.3023073597e+00	 2.8598192118e+01
 9.8290867542e-01	 1.3216252510e+00	 2.9549426434e+01
 1.1144475963e+00	 1.2286993354e+00	 2.2624928807e+01
 1.0903081049e+00	 1.2501694837e+00	 2.6055648070e+01
 1.0657715093e+00	 1.2711516792e+00	 2.8885583346e+01
 1.0408526563e+00	 1.2916351070e+00	 2.7783194821e+01
 1.0155667761e+00	 1.3116095551e+00	 2.7514231710e+01
 9.8992945167e-01	 1.3310654313e+00	 2.8368978018e+01
 1.1223514800e+00	 1.2374135151e+00	 2.0406626680e+01
 1.0980407865e+00	 1.2590359340e+00	 2.3625026851e+01
 1.0733301725e+00	 1.2801669394e+00	 2.7651845510e+01
 1.0482345900e+00	 1.3007956397e+00	 2.6863386828e+01
 1.0227693773e+00	 1.3209117505e+00	 2.6451436032e+01
 9.9695022792e-01	 1.3405056117e+00	 2.7154234067e+01
 1.1302553637e+00	 1.2461276947e+00	 1.8220694183e+01
 1.1057734681e+00	 1.2679023842e+00	 2.1252332388e+01
 1.0808888357e+00	 1.2891821995e+00	 2.5089443245e+01
 1.0556165238e+00	 1.3099561723e+00	 2.5987004990e+01
 1.0299719786e+00	 1.3302139460e+00	 2.5403396326e+01
 1.0039710042e+00	 1.3499457920e+00	 2.5918211883e+01
 1.1381592473e+00	 1.2548418744e+00	 1.6063738559e+01
 1.1135061497e+00	 1.2767688345e+00	 1.8924043008e+01
 1.0884474989e+00	 1.2981974597e+00	 2.2571536378e+01
 1.0629984575e+00	 1.3191167050e+00	 2.5135913231e+01
 1.0371745798e+00	 1.3395161414e+00	 2.4363762108e+01
 1.0109917804e+00	 1.3593859724e+00	 2.4673445009e+01
 1.1460631310e+00	 1.2635560541e+00	 1.3932531334e+01
 1.1212388313e+00	 1.2856352847e+00	 1.6627077568e+01
 1.0960061621e+00	 1.3072127198e+00	 2.0082367475e+01
 1.0703803912e+00	 1.3282772377e+00	 2.4292359576e+01
 1.0443771811e+00	 1.3488183368e+00	 2.3326239160e+01
 1.0180125567e+00	 1.3688261528e+00	 2.3431999906e+01
 9.8290867542e-01	 1.3216252510e+00	 2.9549426434e+01
 9.5712001595e-01	 1.3404193535e+00	 3.1431644829e+01
 9.3101427538e-01	 1.3586814149e+00	 3.3729377699e+01
 9.0460778754e-01	 1.3764038357e+00	 3.6261306849e+01
 8.7791710836e-01	 1.3935796780e+00	 3.8843425396e+01
 8.5095898282e-01	 1.4102026726e+00	 4.1289972535e+01
 9.8992945167e-01	 1.3310654313e+00	 2.8368978018e+01
 9.6395658750e-01	 1.3499937774e+00	 3.0154903599e+01
 9.3766437735e-01	 1.3683862822e+00	 3.2405345199e+01
 9.1106927174e-01	 1.3862352917e+00	 3.4996532248e+01
 8.8418794485e-01	 1.4035338186e+00	 3.7811293843e+01
 8.5703726126e-01	 1.4202755488e+00	 4.0739503484e+01
 9.9695022792e-01	 1.3405056117e+00	 2.7154234067e+01
 9.7079315904e-01	 1.3595682014e+00	 2.8815415688e+01
 9.4431447932e-01	 1.3780911494e+00	 3.1047109392e+01
 9.1753075593e-01	 1.3960667476e+00	 3.3771104875e+01
 8.9045878134e-01	 1.4134879591e+00	 3.6922421739e+01
 8.6311553971e-01	 1.4303484250e+00	 4.0117131045e+01
 1.0039710042e+00	 1.3499457920e+00	 2.5918211883e+01
 9.7762973058e-01	 1.3691426254e+00	 2.7442443594e+01
 9.5096458128e-01	 1.3877960166e+00	 2.9686773513e+01
 9.2399224013e-01	 1.4058982036e+00	 3.2606840925e+01
 8.9672961782e-01	 1.4234420997e+00	 3.6175524624e+01
 8.6919381816e-01	 1.4404213013e+00	 3.8156983352e+01
 1.0109917804e+00	 1.3593859724e+00	 2.4673445009e+01
 9.8446630212e-01	 1.3787170493e+00	 2.6064312691e+01
 9.5761468325e-01	 1.3975008839e+00	 2.8355422983e+01
 9.3045372433e-01	 1.4157296596e+00	 3.1524823101e+01
 9.0300045431e-01	 1.4333962403e+00	 3.4818829156e+01
 8.7527209661e-01	 1.4504941775e+00	 3.6372974139e+01
 1.0180125567e+00	 1.3688261528e+00	 2.3431999906e+01
 9.9130287367e-01	 1.3882914733e+00	 2.4708443538e+01
 9.6426478522e-01	 1.4072057511e+00	 2.7083160512e+01
 9.3691520852e-01	 1.4255611155e+00	 3.0545425904e+01
 9.0927129080e-01	 1.4433503808e+00	 3.2808168416e+01
 8.8135037506e-01	 1.4605670537e+00	 3.4738163126e+01
 8.5095898282e-01	 1.4102026726e+00	 4.1289972535e+01
 8.2375031170e-01	 1.4262672233e+00	 4.3891287935e+01
 7.9630811840e-01	 1.4417684102e+00	 4.4034244721e+01
 7.6864951583e-01	 1.4567019908e+00	 4.3997967327e+01
 7.4079167351e-01	 1.4710643985e+00	 4.4665496012e+01
 7.1275178516e-01	 1.4848527405e+00	 4.6310502965e+01
 8.5703726126e-01	 1.4202755488e+00	 4.0739503484e+01
 8.2963424250e-01	 1.4364548463e+00	 4.2368089952e+01
 8.0199603354e-01	 1.4520667560e+00	 4.2526294594e+01
 7.7413986951e-01	 1.4671070050e+00	 4.3056539629e+01
 7.4608304260e-01	 1.4815720014e+00	 4.4243799186e+01
 7.1784286934e-01	 1.4954588315e+00	 4.6355840158e+01
 8.6311553971e-01	 1.4303484250e+00	 4.0117131045e+01
 8.3551817329e-01	 1.4466424693e+00	 4.0636884021e+01
 8.0768394867e-01	 1.4623651018e+00	 4.1274515649e+01
 7.7963022319e-01	 1.4775120192e+00	 4.2260364353e+01
 7.5137441170e-01	 1.4920796042e+00	 4.3800213371e+01
 7.2293395352e-01	 1.5060649225e+00	 4.6074411756e+01
 8.6919381816e-01	 1.4404213013e+00	 3.8156983352e+01
 8.4140210409e-01	 1.4568300923e+00	 3.9136368858e+01
 8.1337186380e-01	 1.4726634476e+00	 4.0208218983e+01
 7.8512057688e-01	 1.4879170335e+00	 4.1548308099e+01
 7.5666578080e-01	 1.5025872071e+00	 4.3302936114e+01
 7.2802503770e-01	 1.5166710135e+00	 4.5588464642e+01
 8.7527209661e-01	 1.4504941775e+00	 3.6372974139e+01
 8.4728603489e-01	 1.4670177154e+00	 3.7808294451e+01
 8.1905977893e-01	 1.4829617934e+00	 3.9258770563e+01
 7.9061093056e-01	 1.4983220477e+00	 4.0861023808e+01
 7.6195714989e-01	 1.5130948099e+00	 4.2721133358e+01
 7.3311612188e-01	 1.5272771045e+00	 4.4914407333e+01
 8.8135037506e-01	 1.4605670537e+00	 3.4738163126e+01
 8.5316996569e-01	 1.4772053384e+00	 3.6596111299e+01
 8.2474769406e-01	 1.4932601392e+00	 3.8359520367e+01
 7.9610128425e-01	 1.5087270619e+00	 4.0140889168e+01
 7.6724851899e-01	 1.5236024128e+00	 4.2024906044e+01
 7.3820720606e-01	 1.5378831955e+00	 4.4068276827e+01
 7.1275178516e-01	 1.4848527405e+00	 4.6310502965e+01
 6.8454703669e-01	 1.4980647926e+00	 4.6739937801e+01
 6.5619457477e-01	 1.5106989933e+00	 4.7011874192e+01
 6.2771147620e-01	 1.5227544355e+00	 4.6972366429e+01
 5.9911471800e-01	 1.5342308571e+00	 4.6455997863e+01
 5.7042114849e-01	 1.5451286294e+00	 4.5287462027e+01
 7.1784286934e-01	 1.4954588315e+00	 4.6355840158e+01
 6.8943665838e-01	 1.5087652554e+00	 4.7000566667e+01
 6.6088167888e-01	 1.5214897003e+00	 4.7051874522e+01
 6.3219512960e-01	 1.5336312529e+00	 4.6714249579e+01
 6.0339410884e-01	 1.5451896489e+00	 4.5915842258e+01
 5.7449558526e-01	 1.5561652625e+00	 4.4586772309e+01
 7.2293395352e-01	 1.5060649225e+00	 4.6074411756e+01
 6.9432628007e-01	 1.5194657182e+00	 4.6983015702e+01
 6.6556878298e-01	 1.5322804074e+00	 4.6765735658e+01
 6.3667878300e-01	 1.5445080703e+00	 4.6166262678e+01
 6.0767349968e-01	 1.5561484408e+00	 4.5187319804e+01
 5.7857002204e-01	 1.5672018956e+00	 4.3841313337e+01
 7.2802503770e-01	 1.5166710135e+00	 4.5588464642e+01
 6.9921590176e-01	 1.5301661810e+00	 4.6742455021e+01
 6.7025588709e-01	 1.5430711145e+00	 4.6231615086e+01
 6.4116243640e-01	 1.5553848877e+00	 4.5406541881e+01
 6.1195289053e-01	 1.5671072326e+00	 4.4326009969e+01
 5.8264445881e-01	 1.5782385286e+00	 4.3062103233e+01
 7.3311612188e-01	 1.5272771045e+00	 4.4914407333e+01
 7.0410552345e-01	 1.5408666438e+00	 4.6332383140e+01
 6.7494299119e-01	 1.5538618216e+00	 4.5525362858e+01
 6.4564608980e-01	 1.5662617051e+00	 4.4510919567e+01
 6.1623228137e-01	 1.5780660244e+00	 4.3385818440e+01
 5.8671889559e-01	 1.5892751617e+00	 4.2259727928e+01
 7.3820720606e-01	 1.5378831955e+00	 4.4068276827e+01
 7.0899514514e-01	 1.5515671066e+00	 4.5804684614e+01
 6.7963009530e-01	 1.5646525287e+00	 4.4720601151e+01
 6.5012974320e-01	 1.5771385225e+00	 4.3553003778e+01
 6.2051167221e-01	 1.5890248163e+00	 4.2419034842e+01
 5.9079333236e-01	 1.6003117948e+00	 4.1444356064e+01
 5.7042114849e-01	 1.5451286294e+00	 4.5287462027e+01
 5.4164745928e-01	 1.5554487449e+00	 4.3325460195e+01
 5.1281015839e-01	 1.5651928027e+00	 4.0656756209e+01
 4.8392554447e-01	 1.5743629936e+00	 3.7436479570e+01
 4.5500968227e-01	 1.5829620833e+00	 3.3812558175e+01
 4.2607837933e-01	 1.5909933950e+00	 2.9925449200e+01
 5.7449558526e-01	 1.5561652625e+00	 4.4586772309e+01
 5.4551636970e-01	 1.5665590931e+00	 4.2656084610e+01
 5.1647308809e-01	 1.5763727513e+00	 4.0168953631e+01
 4.8738215550e-01	 1.5856084435e+00	 3.7218437234e+01
 4.5825975142e-01	 1.5942689553e+00	 3.3880315916e+01
 4.2912179632e-01	 1.6023576335e+00	 3.0213538243e+01
 5.7857002204e-01	 1.5672018956e+00	 4.3841313337e+01
 5.4938528013e-01	 1.5776694413e+00	 4.2055325607e+01
 5.2013601779e-01	 1.5875526999e+00	 3.9784513228e+01
 4.9083876653e-01	 1.5968538935e+00	 3.7072389492e+01
 4.6150982058e-01	 1.6055758274e+00	 3.3938725294e+01
 4.3216521332e-01	 1.6137218720e+00	 3.0380508392e+01
 5.8264445881e-01	 1.5782385286e+00	 4.3062103233e+01
 5.5325419055e-01	 1.5887797894e+00	 4.1489196423e+01
 5.2379894749e-01	 1.5987326485e+00	 3.9444952113e+01
 4.9429537756e-01	 1.6080993435e+00	 3.6935486520e+01
 4.6475988974e-01	 1.6168826994e+00	 3.3940269921e+01
 4.3520863031e-01	 1.6250861106e+00	 3.0413401521e+01
 5.8671889559e-01	 1.5892751617e+00	 4.2259727928e+01
 5.5712310097e-01	 1.5998901376e+00	 4.0924532351e+01
 5.2746187720e-01	 1.6099125971e+00	 3.9093294333e+01
 4.9775198859e-01	 1.6193447934e+00	 3.6746511480e+01
 4.6800995890e-01	 1.6281895714e+00	 3.3838645502e+01
 4.3825204731e-01	 1.6364503491e+00	 3.0299516976e+01
 5.9079333236e-01	 1.6003117948e+00	 4.1444356064e+01
 5.6099201140e-01	 1.6110004858e+00	 4.0328962384e+01
 5.3112480690e-01	 1.6210925457e+00	 3.8674018908e+01
 5.0120859963e-01	 1.6305902434e+00	 3.6445824203e+01
 4.7126002806e-01	 1.6394964434e+00	 3.3588718044e+01
 4.4129546430e-01	 1.6478145876e+00	 3.0026402696e+01
 4.2607837933e-01	 1.5909933950e+00	 2.9925449200e+01
 3.9714716401e-01	 1.5984607903e+00	 2.5403932181e+01
 3.6823126487e-01	 1.6053686504e+00	 1.9817680431e+01
 3.3934559135e-01	 1.6117218550e+00	 1.7854914368e+01
 3.1050471600e-01	 1.6175257616e+00	 1.7589999046e+01
 2.8172285801e-01	 1.6227861841e+00	 1.6107023570e+01
 4.2912179632e-01	 1.6023576335e+00	 3.0213538243e+01
 3.9998392947e-01	 1.6098783674e+00	 2.5815981157e+01
 3.7086148819e-01	 1.6168355693e+00	 2.0308602690e+01
 3.4176948843e-01	 1.6232341539e+00	 1.7718428593e+01
 3.1272260683e-01	 1.6290795171e+00	 1.7476341451e+01
 2.8373516413e-01	 1.6343775140e+00	 1.6078588875e+01
 4.3216521332e-01	 1.6137218720e+00	 3.0380508392e+01
 4.0282069493e-01	 1.6212959445e+00	 2.6022718822e+01
 3.7349171151e-01	 1.6283024883e+00	 2.0574524745e+01
 3.4419338551e-01	 1.6347464529e+00	 1.7408085753e+01
 3.1494049766e-01	 1.6406332725e+00	 1.7252033380e+01
 2.8574747026e-01	 1.6459688439e+00	 1.6023784276e+01
 4.3520863031e-01	 1.6250861106e+00	 3.0413401521e+01
 4.0565746039e-01	 1.6327135216e+00	 2.6047247206e+01
 3.7612193483e-01	 1.6397694072e+00	 2.0658937414e+01
 3.4661728259e-01	 1.6462587519e+00	 1.6974707568e+01
 3.1715838849e-01	 1.6521870279e+00	 1.6957865755e+01
 2.8775977639e-01	 1.6575601738e+00	 1.5958814267e+01
 4.3825204731e-01	 1.6364503491e+00	 3.0299516976e+01
 4.0849422584e-01	 1.6441310986e+00	 2.5911929736e+01
 3.7875215815e-01	 1.6512363261e+00	 2.0604032401e+01
 3.4904117967e-01	 1.6577710508e+00	 1.6467682177e+01
 3.1937627932e-01	 1.6637407834e+00	 1.6633477029e+01
 2.8977208252e-01	 1.6691515037e+00	 1.5899416205e+01
 4.4129546430e-01	 1.6478145876e+00	 3.0026402696e+01
 4.1133099130e-01	 1.6555486757e+00	 2.5638416703e+01
 3.8138238147e-01	 1.6627032451e+00	 2.0450747098e+01
 3.5146507675e-01	 1.6692833498e+00	 1.5935013581e+01
 3.2159417014e-01	 1.6752945388e+00	 1.6317392934e+01
 2.9178438865e-01	 1.6807428336e+00	 1.5860876418e+01
 2.8172285801e-01	 1.6227861841e+00	 1.6107023570e+01
 2.5301386817e-01	 1.6275093704e+00	 1.4039308397e+01
 2.2439121536e-01	 1.6317019797e+00	 1.1838448563e+01
 1.9586797432e-01	 1.6353710603e+00	 9.2619360146e+00
 1.6745681495e-01	 1.6385240259e+00	 6.0672839587e+00
 1.3916999292e-01	 1.6411686328e+00	 2.0131215089e+00
 2.8373516413e-01	 1.6343775140e+00	 1.6078588875e+01
 2.5482111009e-01	 1.6391344373e+00	 1.4140549426e+01
 2.2599400976e-01	 1.6433569939e+00	 1.2040304515e+01
 1.9726703128e-01	 1.6470522821e+00	 9.5093658996e+00
 1.6865293506e-01	 1.6502277689e+00	 6.2754690610e+00
 1.4016406430e-01	 1.6528912659e+00	 2.0639991042e+00
 2.8574747026e-01	 1.6459688439e+00	 1.6023784276e+01
 2.5662835200e-01	 1.6507595042e+00	 1.4279181445e+01
 2.2759680415e-01	 1.6550120080e+00	 1.2300200149e+01
 1.9866608824e-01	 1.6587335040e+00	 9.8040569446e+00
 1.6984905517e-01	 1.6619315119e+00	 6.5021509386e+00
 1.4115813568e-01	 1.6646138990e+00	 2.1016790854e+00
 2.8775977639e-01	 1.6575601738e+00	 1.5958814267e+01
 2.5843559392e-01	 1.6623845712e+00	 1.4445836236e+01
 2.2919959855e-01	 1.6666670221e+00	 1.2595284370e+01
 2.0006514520e-01	 1.6704147259e+00	 1.0121438427e+01
 1.7104517527e-01	 1.6736352550e+00	 6.7324532040e+00
 1.4215220705e-01	 1.6763365321e+00	 2.1320230850e+00
 2.8977208252e-01	 1.6691515037e+00	 1.5899416205e+01
 2.6024283583e-01	 1.6740096381e+00	 1.4631391062e+01
 2.3080239294e-01	 1.6783220363e+00	 1.2903328224e+01
 2.0146420216e-01	 1.6820959477e+00	 1.0437611558e+01
 1.7224129538e-01	 1.6853389980e+00	 6.9519040172e+00
 1.4314627843e-01	 1.6880591652e+00	 2.1607230009e+00
 2.9178438865e-01	 1.6807428336e+00	 1.5860876418e+01
 2.6205007775e-01	 1.6856347050e+00	 1.4826960195e+01
 2.3240518734e-01	 1.6899770504e+00	 1.3202703449e+01
 2.0286325912e-01	 1.6937771696e+00	 1.0729326315e+01
 1.7343741549e-01	 1.6970427411e+00	 7.1464221362e+00
 1.4414034981e-01	 1.6997817982e+00	 2.1933068492e+00
 1.3916999292e-01	 1.6411686328e+00	 2.0131215089e+00
 1.1101934169e-01	 1.6433129568e+00	-1.7218281958e+00
 8.3016265844e-02	 1.6449653698e+00	-3.4257621518e+00
 5.5171735766e-02	 1.6461345169e+00	-2.5334122270e+00
 2.7496283519e-02	 1.6468292937e+00	 1.5257611919e+00
 0.0000000000e+00	 1.6470588235e+00	 9.3249704173e+00
 1.4016406430e-01	 1.6528912659e+00	 2.0639991042e+00
 1.1181233698e-01	 1.6550509065e+00	-1.8683902900e+00
 8.3609239171e-02	 1.6567151224e+00	-3.6787519862e+00
 5.5565819593e-02	 1.6578926206e+00	-2.7560159127e+00
 2.7692685544e-02	 1.6585923601e+00	 1.5180472643e+00
 0.0000000000e+00	 1.6588235294e+00	 9.7658849925e+00
 1.4115813568e-01	 1.6646138990e+00	 2.1016790854e+00
 1.1260533228e-01	 1.6667888562e+00	-2.0360928568e+00
 8.4202212499e-02	 1.6684648751e+00	-3.9331974600e+00
 5.5959903420e-02	 1.6696507243e+00	-2.9522647865e+00
 2.7889087570e-02	 1.6703554265e+00	 1.5513059248e+00
 0.0000000000e+00	 1.6705882353e+00	 1.0226249849e+01
 1.4215220705e-01	 1.6763365321e+00	 2.1320230850e+00
 1.1339832758e-01	 1.6785268059e+00	-2.2005285154e+00
 8.4795185826e-02	 1.6802146277e+00	-4.1609926871e+00
 5.6353987247e-02	 1.6814088280e+00	-3.1046968352e+00
 2.8085489595e-02	 1.6821184928e+00	 1.6185404490e+00
 0.0000000000e+00	 1.6823529412e+00	 1.0661342564e+01
 1.4314627843e-01	 1.6880591652e+00	 2.1607230009e+00
 1.1419132288e-01	 1.6902647556e+00	-2.3379731340e+00
 8.5388159153e-02	 1.6919643803e+00	-4.3348162517e+00
 5.6748071074e-02	 1.6931669317e+00	-3.1963374703e+00
 2.8281891620e-02	 1.6938815592e+00	 1.7129473479e+00
 0.0000000000e+00	 1.6941176471e+00	 1.1027683006e+01
 1.4414034981e-01	 1.6997817982e+00	 2.1933068492e+00
 1.1498431817e-01	 1.7020027052e+00	-2.4253622699e+00
 8.5981132481e-02	 1.7037141330e+00	-4.4281041584e+00
 5.7142154900e-02	 1.7049250354e+00	-3.2106827201e+00
 2.8478293645e-02	 1.7056446256e+00	 1.8279097045e+00
 0.0000000000e+00	 1.7058823529e+00	 1.1282990494e+01
 1.7058823529e+00	 0.0000000000e+00	 5.0746162308e+01
 1.7056446256e+00	 2.8478293645e-02	 4.7893062952e+01
 1.7049250354e+00	 5.7142154900e-02	 4.6528783159e+01
 1.7037141330e+00	 8.5981132481e-02	 4.5599023263e+01
 1.7020027052e+00	 1.1498431817e-01	 4.4019242842e+01
 1.6997817982e+00	 1.4414034981e-01	 4.0677541293e+01
 1.7176470588e+00	 0.0000000000e+00	 5.1525891678e+01
 1.7174076920e+00	 2.8674695670e-02	 4.8168352632e+01
 1.7166831391e+00	 5.7536238727e-02	 4.6399530857e+01
 1.7154638856e+00	 8.6574105808e-02	 4.5167973427e+01
 1.7137406549e+00	 1.1577731347e-01	 4.3393976545e+01
 1.7115044313e+00	 1.4513442119e-01	 3.9972578296e+01
 1.7294117647e+00	 0.0000000000e+00	 5.2339924495e+01
 1.7291707584e+00	 2.8871097695e-02	 4.8498317441e+01
 1.7284412427e+00	 5.7930322554e-02	 4.6303998756e+01
 1.7272136383e+00	 8.7167079136e-02	 4.4729062503e+01
 1.7254786046e+00	 1.1657030877e-01	 4.2719510204e+01
 1.7232270644e+00	 1.4612849257e-01	 3.9198257679e+01
 1.7411764706e+00	 0.0000000000e+00	 5.3185843094e+01
 1.7409338248e+00	 2.9067499720e-02	 4.8884520681e+01
 1.7401993464e+00	 5.8324406381e-02	 4.6245745807e+01
 1.7389633909e+00	 8.7760052463e-02	 4.4285421611e+01
 1.7372165543e+00	 1.1736330407e-01	 4.1995681591e+01
 1.7349496975e+00	 1.4712256394e-01	 3.8347813554e+01
 1.7529411765e+00	 0.0000000000e+00	 5.4061294713e+01
 1.7526968911e+00	 2.9263901746e-02	 4.9328476020e+01
 1.7519574501e+00	 5.8718490208e-02	 4.6228220262e+01
 1.7507131436e+00	 8.8353025791e-02	 4.3840075345e+01
 1.7489545040e+00	 1.1815629937e-01	 4.1222303268e+01
 1.7466723306e+00	 1.4811663532e-01	 3.7414625233e+01
 1.7647058824e+00	 0.0000000000e+00	 5.4963989332e+01
 1.7644599575e+00	 2.9460303771e-02	 4.9831649148e+01
 1.7637155538e+00	 5.9112574035e-02	 4.6254763361e+01
 1.7624628962e+00	 8.8945999118e-02	 4.3395945328e+01
 1.7606924537e+00	 1.1894929466e-01	 4.0399163428e+01
 1.7583949637e+00	 1.4911070670e-01	 3.6392212383e+01
 1.6997817982e+00	 1.4414034981e-01	 4.0677541293e+01
 1.6970427411e+00	 1.7343741549e-01	 3.5991557629e+01
 1.6937771696e+00	 2.0286325912e-01	 3.1313898860e+01
 1.6899770504e+00	 2.3240518734e-01	 2.6910927904e+01
 1.6856347050e+00	 2.6205007775e-01	 2.3040088098e+01
 1.6807428336e+00	 2.9178438865e-01	 1.9947955030e+01
 1.7115044313e+00	 1.4513442119e-01	 3.9972578296e+01
 1.7087464841e+00	 1.7463353559e-01	 3.5278974349e+01
 1.7054583914e+00	 2.0426231608e-01	 3.0615010251e+01
 1.7016320646e+00	 2.3400798173e-01	 2.6241914883e+01
 1.6972597720e+00	 2.6385731967e-01	 2.2410300208e+01
 1.6923341635e+00	 2.9379669478e-01	 1.9358159015e+01
 1.7232270644e+00	 1.4612849257e-01	 3.9198257679e+01
 1.7204502271e+00	 1.7582965570e-01	 3.4505023132e+01
 1.7171396133e+00	 2.0566137304e-01	 2.9877745265e+01
 1.7132870787e+00	 2.3561077613e-01	 2.5563544902e+01
 1.7088848389e+00	 2.6566456158e-01	 2.1797629247e+01
 1.7039254933e+00	 2.9580900091e-01	 1.8801299204e+01
 1.7349496975e+00	 1.4712256394e-01	 3.8347813554e+01
 1.7321539702e+00	 1.7702577581e-01	 3.3656119257e+01
 1.7288208352e+00	 2.0706043000e-01	 2.9085015049e+01
 1.7249420929e+00	 2.3721357052e-01	 2.4858742465e+01
 1.7205099058e+00	 2.6747180350e-01	 2.1188728575e+01
 1.7155168232e+00	 2.9782130703e-01	 1.8271665833e+01
 1.7466723306e+00	 1.4811663532e-01	 3.7414625233e+01
 1.7438577132e+00	 1.7822189591e-01	 3.2718999629e+01
 1.7405020570e+00	 2.0845948696e-01	 2.8220140096e+01
 1.7365971070e+00	 2.3881636492e-01	 2.4110834987e+01
 1.7321349728e+00	 2.6927904541e-01	 2.0570548587e+01
 1.7271081531e+00	 2.9983361316e-01	 1.7763635695e+01
 1.7583949637e+00	 1.4911070670e-01	 3.6392212383e+01
 1.7555614563e+00	 1.7941801602e-01	 3.1680712064e+01
 1.7521832789e+00	 2.0985854392e-01	 2.7266836590e+01
 1.7482521211e+00	 2.4041915932e-01	 2.3303539358e+01
 1.7437600397e+00	 2.7108628733e-01	 1.9930326803e+01
 1.7386994830e+00	 3.0184591929e-01	 1.7271669258e+01
 1.6807428336e+00	 2.9178438865e-01	 1.9947955030e+01
 1.6752945388e+00	 3.2159417014e-01	 1.7421758141e+01
 1.6692833498e+00	 3.5146507675e-01	 1.5150641904e+01
 1.6627032451e+00	 3.8138238147e-01	 1.1751035160e+01
 1.6555486757e+00	 4.1133099130e-01	 8.0264516165e+00
 1.6478145876e+00	 4.4129546430e-01	 4.4381421421e+00
 1.6923341635e+00	 2.9379669478e-01	 1.9358159015e+01
 1.6868482943e+00	 3.2381206097e-01	 1.6893146363e+01
 1.6807956488e+00	 3.5388897383e-01	 1.4734774711e+01
 1.6741701640e+00	 3.8401260479e-01	 1.1221836237e+01
 1.6669662528e+00	 4.1416775676e-01	 7.5046663663e+00
 1.6591788262e+00	 4.4433888130e-01	 3.9340201271e+00
 1.7039254933e+00	 2.9580900091e-01	 1.8801299204e+01
 1.6984020497e+00	 3.2602995180e-01	 1.6399267368e+01
 1.6923079477e+00	 3.5631287091e-01	 1.4345715573e+01
 1.6856370829e+00	 3.8664282811e-01	 1.0698814670e+01
 1.6783838299e+00	 4.1700452221e-01	 6.9818017446e+00
 1.6705430647e+00	 4.4738229829e-01	 3.4185997694e+00
 1.7155168232e+00	 2.9782130703e-01	 1.8271665833e+01
 1.7099558051e+00	 3.2824784263e-01	 1.5942459419e+01
 1.7038202467e+00	 3.5873676800e-01	 1.3892433572e+01
 1.6971040019e+00	 3.8927305143e-01	 1.0195283971e+01
 1.6898014069e+00	 4.1984128767e-01	 6.4694595061e+00
 1.6819073033e+00	 4.5042571529e-01	 2.8982700927e+00
 1.7271081531e+00	 2.9983361316e-01	 1.7763635695e+01
 1.7215095606e+00	 3.3046573346e-01	 1.5524926160e+01
 1.7153325457e+00	 3.6116066508e-01	 1.3421348293e+01
 1.7085709208e+00	 3.9190327475e-01	 9.7242470406e+00
 1.7012189840e+00	 4.2267805313e-01	 5.9789800661e+00
 1.6932715418e+00	 4.5346913228e-01	 2.3793019555e+00
 1.7386994830e+00	 3.0184591929e-01	 1.7271669258e+01
 1.7330633160e+00	 3.3268362429e-01	 1.5148741106e+01
 1.7268448446e+00	 3.6358456216e-01	 1.2992577476e+01
 1.7200378397e+00	 3.9453349807e-01	 9.2984065211e+00
 1.7126365611e+00	 4.2551481859e-01	 5.5214512123e+00
 1.7046357803e+00	 4.5651254928e-01	 1.8678519900e+00
 1.6478145876e+00	 4.4129546430e-01	 4.4381421421e+00
 1.6394964434e+00	 4.7126002806e-01	 1.0772223932e+00
 1.6305902434e+00	 5.0120859963e-01	-2.0614266749e+00
 1.6210925457e+00	 5.3112480690e-01	-4.9515188689e+00
 1.6110004858e+00	 5.6099201140e-01	-7.5645837411e+00
 1.6003117948e+00	 5.9079333236e-01	-9.8697519673e+00
 1.6591788262e+00	 4.4433888130e-01	 3.9340201271e+00
 1.6508033155e+00	 4.7451009722e-01	 5.9885113170e-01
 1.6418356933e+00	 5.0466521066e-01	-2.5155472426e+00
 1.6322724942e+00	 5.3478773660e-01	-5.3897851058e+00
 1.6221108340e+00	 5.6486092182e-01	-8.0026005575e+00
 1.6113484278e+00	 5.9486776914e-01	-1.0330613524e+01
 1.6705430647e+00	 4.4738229829e-01	 3.4185997694e+00
 1.6621101875e+00	 4.7776016638e-01	 9.7750790978e-02
 1.6530811433e+00	 5.0812182169e-01	-3.0034235698e+00
 1.6434524428e+00	 5.3845066631e-01	-5.8706705035e+00
 1.6332211821e+00	 5.6872983224e-01	-8.4877658152e+00
 1.6223850609e+00	 5.9894220591e-01	-1.0836234250e+01
 1.6819073033e+00	 4.5042571529e-01	 2.8982700927e+00
 1.6734170595e+00	 4.8101023554e-01	-4.2570142761e-01
 1.6643265932e+00	 5.1157843272e-01	-3.5287679619e+00
 1.6546323914e+00	 5.4211359601e-01	-6.4000883722e+00
 1.6443315303e+00	 5.7259874267e-01	-9.0263448455e+00
 1.6334216940e+00	 6.0301664269e-01	-1.1391427767e+01
 1.6932715418e+00	 4.5346913228e-01	 2.3793019555e+00
 1.6847239315e+00	 4.8426030470e-01	-9.7108195624e-01
 1.6755720432e+00	 5.1503504375e-01	-4.0951335360e+00
 1.6658123400e+00	 5.4577652571e-01	-6.9837308218e+00
 1.6554418785e+00	 5.7646765309e-01	-9.6243695253e+00
 1.6444583270e+00	 6.0709107946e-01	-1.2000810545e+01
 1.7046357803e+00	 4.5651254928e-01	 1.8678519900e+00
 1.6960308036e+00	 4.8751037386e-01	-1.5379224062e+00
 1.6868174931e+00	 5.1849165479e-01	-4.7059195263e+00
 1.6769922886e+00	 5.4943945541e-01	-7.6270761347e+00
 1.6665522267e+00	 5.8033656351e-01	-1.0287646059e+01
 1.6554949601e+00	 6.1116551624e-01	-1.2668808464e+01
 1.6003117948e+00	 5.9079333236e-01	-9.8697519673e+00
 1.5890248163e+00	 6.2051167221e-01	-1.1900829207e+01
 1.5771385225e+00	 6.5012974320e-01	-1.3680329734e+01
 1.5646525287e+00	 6.7963009530e-01	-1.5156485418e+01
 1.5515671066e+00	 7.0899514514e-01	-1.6274773538e+01
 1.5378831955e+00	 7.3820720606e-01	-1.7874054246e+01
 1.6113484278e+00	 5.9486776914e-01	-1.0330613524e+01
 1.5999836081e+00	 6.2479106305e-01	-1.2412194519e+01
 1.5880153399e+00	 6.5461339660e-01	-1.4258891123e+01
 1.5754432358e+00	 6.8431719940e-01	-1.5802834915e+01
 1.5622675694e+00	 7.1388476684e-01	-1.6972815453e+01
 1.5484892865e+00	 7.4329829024e-01	-1.8733410217e+01
 1.6223850609e+00	 5.9894220591e-01	-1.0836234250e+01
 1.6109423999e+00	 6.2907045390e-01	-1.2956771662e+01
 1.5988921573e+00	 6.5909705001e-01	-1.4853692804e+01
 1.5862339429e+00	 6.8900430351e-01	-1.6449226910e+01
 1.5729680322e+00	 7.1877438853e-01	-1.7802325680e+01
 1.5590953775e+00	 7.4838937442e-01	-1.9574509460e+01
 1.6334216940e+00	 6.0301664269e-01	-1.1391427767e+01
 1.6219011918e+00	 6.3334984474e-01	-1.3537300618e+01
 1.6097689747e+00	 6.6358070341e-01	-1.5465845315e+01
 1.5970246500e+00	 6.9369140762e-01	-1.7095460703e+01
 1.5836684950e+00	 7.2366401022e-01	-1.8620369404e+01
 1.5697014685e+00	 7.5348045860e-01	-2.0396321984e+01
 1.6444583270e+00	 6.0709107946e-01	-1.2000810545e+01
 1.6328599836e+00	 6.3762923558e-01	-1.4156377346e+01
 1.6206457921e+00	 6.6806435681e-01	-1.6096356525e+01
 1.6078153571e+00	 6.9837851172e-01	-1.7741265880e+01
 1.5943689578e+00	 7.2855363191e-01	-1.9413720630e+01
 1.5803075595e+00	 7.5857154278e-01	-2.1197802716e+01
 1.6554949601e+00	 6.1116551624e-01	-1.2668808464e+01
 1.6438187755e+00	 6.4190862643e-01	-1.4816458578e+01
 1.6315226095e+00	 6.7254801021e-01	-1.6746135046e+01
 1.6186060642e+00	 7.0306561583e-01	-1.8386304637e+01
 1.6050694206e+00	 7.3344325360e-01	-2.0182282905e+01
 1.5909136505e+00	 7.6366262696e-01	-2.1977892004e+01
 1.5378831955e+00	 7.3820720606e-01	-1.7874054246e+01
 1.5236024128e+00	 7.6724851899e-01	-1.9314513246e+01
 1.5087270619e+00	 7.9610128425e-01	-2.0321998095e+01
 1.4932601392e+00	 8.2474769406e-01	-2.0840070952e+01
 1.4772053384e+00	 8.5316996569e-01	-2.0810020962e+01
 1.4605670537e+00	 8.8135037506e-01	-2.0171063878e+01
 1.5484892865e+00	 7.4329829024e-01	-1.8733410217e+01
 1.5341100156e+00	 7.7253988809e-01	-2.0124231548e+01
 1.5191320761e+00	 8.0159163793e-01	-2.1068167731e+01
 1.5035584850e+00	 8.3043560919e-01	-2.1546709762e+01
 1.4873929614e+00	 8.5905389649e-01	-2.1539043943e+01
 1.4706399300e+00	 8.8742865351e-01	-2.1022036163e+01
 1.5590953775e+00	 7.4838937442e-01	-1.9574509460e+01
 1.5446176185e+00	 7.7783125718e-01	-2.0939019492e+01
 1.5295370903e+00	 8.0708199162e-01	-2.1850348594e+01
 1.5138568307e+00	 8.3612352432e-01	-2.2315247684e+01
 1.4975805844e+00	 8.6493782728e-01	-2.2338182133e+01
 1.4807128062e+00	 8.9350693196e-01	-2.1921171122e+01
 1.5697014685e+00	 7.5348045860e-01	-2.0396321984e+01
 1.5551252213e+00	 7.8312262628e-01	-2.1757061765e+01
 1.5399421046e+00	 8.1257234530e-01	-2.2666603634e+01
 1.5241551765e+00	 8.4181143946e-01	-2.3144548281e+01
 1.5077682074e+00	 8.7082175808e-01	-2.3208280630e+01
 1.4907856824e+00	 8.9958521040e-01	-2.2872733918e+01
 1.5803075595e+00	 7.5857154278e-01	-2.1197802716e+01
 1.5656328242e+00	 7.8841399538e-01	-2.2576548514e+01
 1.5503471188e+00	 8.1806269899e-01	-2.3515004113e+01
 1.5344535223e+00	 8.4749935459e-01	-2.4033461629e+01
 1.5179558305e+00	 8.7670568888e-01	-2.4150117667e+01
 1.5008585587e+00	 9.0566348885e-01	-2.3880830974e+01
 1.5909136505e+00	 7.6366262696e-01	-2.1977892004e+01
 1.5761404270e+00	 7.9370536447e-01	-2.3395675166e+01
 1.5607521330e+00	 8.2355305267e-01	-2.4393629324e+01
 1.5447518681e+00	 8.5318726972e-01	-2.4980824766e+01
 1.5281434535e+00	 8.8258961968e-01	-2.5164406843e+01
 1.5109314349e+00	 9.1174176730e-01	-2.4949415259e+01
 1.4605670537e+00	 8.8135037506e-01	-2.0171063878e+01
 1.4433503808e+00	 9.0927129080e-01	-1.8883955297e+01
 1.4255611155e+00	 9.3691520852e-01	-1.7284552996e+01
 1.4072057511e+00	 9.6426478522e-01	-1.7078139195e+01
 1.3882914733e+00	 9.9130287367e-01	-1.6170009803e+01
 1.3688261528e+00	 1.0180125567e+00	-1.4467970028e+01
 1.4706399300e+00	 8.8742865351e-01	-2.1022036163e+01
 1.4533045214e+00	 9.1554212729e-01	-1.9986809560e+01
 1.4353925715e+00	 9.4337669272e-01	-1.8315030578e+01
 1.4169106184e+00	 9.7091488719e-01	-1.7456055397e+01
 1.3978658972e+00	 9.9813944521e-01	-1.6797316502e+01
 1.3782663331e+00	 1.0250333329e+00	-1.5268690250e+01
 1.4807128062e+00	 8.9350693196e-01	-2.1921171122e+01
 1.4632586619e+00	 9.2181296378e-01	-2.1080957101e+01
 1.4452240275e+00	 9.4983817692e-01	-1.9682202610e+01
 1.4266154856e+00	 9.7756498915e-01	-1.7763658955e+01
 1.4074403212e+00	 1.0049760168e+00	-1.7293526218e+01
 1.3877065135e+00	 1.0320541092e+00	-1.5913169562e+01
 1.4907856824e+00	 8.9958521040e-01	-2.2872733918e+01
 1.4732128025e+00	 9.2808380027e-01	-2.2174197316e+01
 1.4550554834e+00	 9.5629966111e-01	-2.0974547068e+01
 1.4363203529e+00	 9.8421509112e-01	-1.9026223881e+01
 1.4170147451e+00	 1.0118125883e+00	-1.7665688660e+01
 1.3971466939e+00	 1.0390748854e+00	-1.6403199815e+01
 1.5008585587e+00	 9.0566348885e-01	-2.3880830974e+01
 1.4831669430e+00	 9.3435463675e-01	-2.3274076032e+01
 1.4648869394e+00	 9.6276114531e-01	-2.2201459354e+01
 1.4460252201e+00	 9.9086519309e-01	-2.0412407613e+01
 1.4265891691e+00	 1.0186491598e+00	-1.7920619741e+01
 1.4065868742e+00	 1.0460956617e+00	-1.6740480454e+01
 1.5109314349e+00	 9.1174176730e-01	-2.4949415259e+01
 1.4931210836e+00	 9.4062547324e-01	-2.4387893960e+01
 1.4747183954e+00	 9.6922262951e-01	-2.3372040599e+01
 1.4557300874e+00	 9.9751529505e-01	-2.1665716016e+01
 1.4361635930e+00	 1.0254857314e+00	-1.9034170197e+01
 1.4160270546e+00	 1.0531164379e+00	-1.6926621596e+01
 1.3688261528e+00	 1.0180125567e+00	-1.4467970028e+01
 1.3488183368e+00	 1.0443771811e+00	-1.1654922165e+01
 1.3282772377e+00	 1.0703803912e+00	-7.4763747528e+00
 1.3072127198e+00	 1.0960061621e+00	-5.9738853166e+00
 1.2856352847e+00	 1.1212388313e+00	-3.8718254854e+00
 1.2635560541e+00	 1.1460631310e+00	-9.4010320661e-01
 1.3782663331e+00	 1.0250333329e+00	-1.5268690250e+01
 1.3581205322e+00	 1.0515797823e+00	-1.2497537567e+01
 1.3374377703e+00	 1.0777623250e+00	-9.1690075067e+00
 1.3162279799e+00	 1.1035648253e+00	-7.7101330363e+00
 1.2945017349e+00	 1.1289715129e+00	-5.4945815659e+00
 1.2722702338e+00	 1.1539670146e+00	-2.4958186119e+00
 1.3877065135e+00	 1.0320541092e+00	-1.5913169562e+01
 1.3674227277e+00	 1.0587823836e+00	-1.3202332019e+01
 1.3465983030e+00	 1.0851442587e+00	-1.0863086788e+01
 1.3252432401e+00	 1.1111234884e+00	-9.3539249835e+00
 1.3033681852e+00	 1.1367041945e+00	-7.0877610667e+00
 1.2809844135e+00	 1.1618708983e+00	-4.0691340728e+00
 1.3971466939e+00	 1.0390748854e+00	-1.6403199815e+01
 1.3767249231e+00	 1.0659849848e+00	-1.3765104676e+01
 1.3557588357e+00	 1.0925261924e+00	-1.2390721283e+01
 1.3342585002e+00	 1.1186821516e+00	-1.0892968554e+01
 1.3122346354e+00	 1.1444368761e+00	-8.6392632004e+00
 1.2896985932e+00	 1.1697747820e+00	-5.6507937844e+00
 1.4065868742e+00	 1.0460956617e+00	-1.6740480454e+01
 1.3860271185e+00	 1.0731875861e+00	-1.4386527865e+01
 1.3649193684e+00	 1.0999081262e+00	-1.3741964900e+01
 1.3432737603e+00	 1.1262408148e+00	-1.2315214585e+01
 1.3211010857e+00	 1.1521695577e+00	-1.0137227505e+01
 1.2984127728e+00	 1.1776786656e+00	-7.2317081155e+00
 1.4160270546e+00	 1.0531164379e+00	-1.6926621596e+01
 1.3953293139e+00	 1.0803901873e+00	-1.5445669987e+01
 1.3740799010e+00	 1.1072900599e+00	-1.4907048970e+01
 1.3522890205e+00	 1.1337994780e+00	-1.3608849239e+01
 1.3299675359e+00	 1.1599022393e+00	-1.1570025833e+01
 1.3071269525e+00	 1.1855825493e+00	-8.8029480698e+00
 1.2635560541e+00	 1.1460631310e+00	-9.4010320661e-01
 1.2409867512e+00	 1.1704642179e+00	 2.3826938766e+00
 1.2179396800e+00	 1.1944277031e+00	 5.5749523239e+00
 1.1944277031e+00	 1.2179396800e+00	 8.5911128156e+00
 1.1704642179e+00	 1.2409867512e+00	 1.1389557621e+01
 1.1460631310e+00	 1.2635560541e+00	 1.3932531334e+01
 1.2722702338e+00	 1.1539670146e+00	-2.4958186119e+00
 1.2495452805e+00	 1.1785363849e+00	 8.1015619867e-01
 1.2263392640e+00	 1.2026651356e+00	 3.9119780597e+00
 1.2026651356e+00	 1.2263392640e+00	 6.7911116173e+00
 1.1785363849e+00	 1.2495452805e+00	 9.4332411895e+00
 1.1539670146e+00	 1.2722702338e+00	 1.1828042681e+01
 1.2809844135e+00	 1.1618708983e+00	-4.0691340728e+00
 1.2581038098e+00	 1.1866085520e+00	-8.0247682925e-01
 1.2347388480e+00	 1.2109025680e+00	 2.2070320704e+00
 1.2109025680e+00	 1.2347388480e+00	 4.9626936791e+00
 1.1866085520e+00	 1.2581038098e+00	 7.4723972900e+00
 1.1618708983e+00	 1.2809844135e+00	 9.7482704863e+00
 1.2896985932e+00	 1.1697747820e+00	-5.6507937844e+00
 1.2666623392e+00	 1.1946807190e+00	-2.4500967563e+00
 1.2431384320e+00	 1.2191400004e+00	 4.6138712376e-01
 1.2191400004e+00	 1.2431384320e+00	 3.1037087264e+00
 1.1946807190e+00	 1.2666623392e+00	 5.5019648369e+00
 1.1697747820e+00	 1.2896985932e+00	 7.6858529809e+00
 1.2984127728e+00	 1.1776786656e+00	-7.2317081155e+00
 1.2752208685e+00	 1.2027528860e+00	-4.1276523681e+00
 1.2515380160e+00	 1.2273774329e+00	-1.3236408432e+00
 1.2273774329e+00	 1.2515380160e+00	 1.2121388307e+00
 1.2027528860e+00	 1.2752208685e+00	 3.5170903795e+00
 1.1776786656e+00	 1.2984127728e+00	 5.6336948182e+00
 1.3071269525e+00	 1.1855825493e+00	-8.8029480698e+00
 1.2837793978e+00	 1.2108250530e+00	-5.8301477791e+00
 1.2599376000e+00	 1.2356148653e+00	-3.1466941631e+00
 1.2356148653e+00	 1.2599376000e+00	-7.1390600158e-01
 1.2108250530e+00	 1.2837793978e+00	 1.5131211809e+00
 1.1855825493e+00	 1.3071269525e+00	 3.5849581916e+00
 1.1460631310e+00	 1.2635560541e+00	 1.3932531334e+01
 1.1212388313e+00	 1.2856352847e+00	 1.6627077568e+01
 1.0960061621e+00	 1.3072127198e+00	 2.0082367475e+01
 1.0703803912e+00	 1.3282772377e+00	 2.4292359576e+01
 1.0443771811e+00	 1.3488183368e+00	 2.3326239160e+01
 1.0180125567e+00	 1.3688261528e+00	 2.3431999906e+01
 1.1539670146e+00	 1.2722702338e+00	 1.1828042681e+01
 1.1289715129e+00	 1.2945017349e+00	 1.4371687004e+01
 1.1035648253e+00	 1.3162279799e+00	 1.7646180635e+01
 1.0777623250e+00	 1.3374377703e+00	 2.1911090327e+01
 1.0515797823e+00	 1.3581205322e+00	 2.2340206317e+01
 1.0250333329e+00	 1.3782663331e+00	 2.2253982789e+01
 1.1618708983e+00	 1.2809844135e+00	 9.7482704863e+00
 1.1367041945e+00	 1.3033681852e+00	 1.2170602694e+01
 1.1111234884e+00	 1.3252432401e+00	 1.5291191604e+01
 1.0851442587e+00	 1.3465983030e+00	 1.9370512664e+01
 1.0587823836e+00	 1.3674227277e+00	 2.1450415273e+01
 1.0320541092e+00	 1.3877065135e+00	 2.1184963124e+01
 1.1697747820e+00	 1.2896985932e+00	 7.6858529809e+00
 1.1444368761e+00	 1.3122346354e+00	 1.0015018284e+01
 1.1186821516e+00	 1.3342585002e+00	 1.3008212897e+01
 1.0925261924e+00	 1.3557588357e+00	 1.6925112395e+01
 1.0659849848e+00	 1.3767249231e+00	 2.0643852201e+01
 1.0390748854e+00	 1.3971466939e+00	 2.0214976763e+01
 1.1776786656e+00	 1.2984127728e+00	 5.6336948182e+00
 1.1521695577e+00	 1.3211010857e+00	 7.8964295350e+00
 1.1262408148e+00	 1.3432737603e+00	 1.0788366200e+01
 1.0999081262e+00	 1.3649193684e+00	 1.4566707036e+01
 1.0731875861e+00	 1.3860271185e+00	 1.9471788230e+01
 1.0460956617e+00	 1.4065868742e+00	 1.9334208977e+01
 1.1855825493e+00	 1.3071269525e+00	 3.5849581916e+00
 1.1599022393e+00	 1.3299675359e+00	 5.8066242569e+00
 1.1337994780e+00	 1.3522890205e+00	 8.6230720664e+00
 1.1072900599e+00	 1.3740799010e+00	 1.2287391176e+01
 1.0803901873e+00	 1.3953293139e+00	 1.7036313763e+01
 1.0531164379e+00	 1.4160270546e+00	 1.8532989480e+01
 1.0180125567e+00	 1.3688261528e+00	 2.3431999906e+01
 9.9130287367e-01	 1.3882914733e+00	 2.4708443538e+01
 9.6426478522e-01	 1.4072057511e+00	 2.7083160512e+01
 9.3691520852e-01	 1.4255611155e+00	 3.0545425904e+01
 9.0927129080e-01	 1.4433503808e+00	 3.2808168416e+01
 8.8135037506e-01	 1.4605670537e+00	 3.4738163126e+01
 1.0250333329e+00	 1.3782663331e+00	 2.2253982789e+01
 9.9813944521e-01	 1.3978658972e+00	 2.3430155026e+01
 9.7091488719e-01	 1.4169106184e+00	 2.5900306442e+01
 9.4337669272e-01	 1.4353925715e+00	 2.8825182472e+01
 9.1554212729e-01	 1.4533045214e+00	 3.0895067932e+01
 8.8742865351e-01	 1.4706399300e+00	 3.3161939495e+01
 1.0320541092e+00	 1.3877065135e+00	 2.1184963124e+01
 1.0049760168e+00	 1.4074403212e+00	 2.2262606386e+01
 9.7756498915e-01	 1.4266154856e+00	 2.4815504195e+01
 9.4983817692e-01	 1.4452240275e+00	 2.6832871124e+01
 9.2181296378e-01	 1.4632586619e+00	 2.9035964608e+01
 8.9350693196e-01	 1.4807128062e+00	 3.1580213385e+01
 1.0390748854e+00	 1.3971466939e+00	 2.0214976763e+01
 1.0118125883e+00	 1.4170147451e+00	 2.1199359441e+01
 9.8421509112e-01	 1.4363203529e+00	 2.3145571129e+01
 9.5629966111e-01	 1.4550554834e+00	 2.4948582464e+01
 9.2808380027e-01	 1.4732128025e+00	 2.7241708914e+01
 8.9958521040e-01	 1.4907856824e+00	 3.0006253477e+01
 1.0460956617e+00	 1.4065868742e+00	 1.9334208977e+01
 1.0186491598e+00	 1.4265891691e+00	 2.0234028742e+01
 9.9086519309e-01	 1.4460252201e+00	 2.1441187782e+01
 9.6276114531e-01	 1.4648869394e+00	 2.3180339230e+01
 9.3435463675e-01	 1.4831669430e+00	 2.5522956505e+01
 9.0566348885e-01	 1.5008585587e+00	 2.8453066096e+01
 1.0531164379e+00	 1.4160270546e+00	 1.8532989480e+01
 1.0254857314e+00	 1.4361635930e+00	 1.8965575456e+01
 9.9751529505e-01	 1.4557300874e+00	 1.9883622180e+01
 9.6922262951e-01	 1.4747183954e+00	 2.1536048504e+01
 9.4062547324e-01	 1.4931210836e+00	 2.3890174712e+01
 9.1174176730e-01	 1.5109314349e+00	 2.6933403963e+01
 8.8135037506e-01	 1.4605670537e+00	 3.4738163126e+01
 8.5316996569e-01	 1.4772053384e+00	 3.6596111299e+01
 8.2474769406e-01	 1.4932601392e+00	 3.8359520367e+01
 7.9610128425e-01	 1.5087270619e+00	 4.0140889168e+01
 7.6724851899e-01	 1.5236024128e+00	 4.2024906044e+01
 7.3820720606e-01	 1.5378831955e+00	 4.4068276827e+01
 8.8742865351e-01	 1.4706399300e+00	 3.3161939495e+01
 8.5905389649e-01	 1.4873929614e+00	 3.5386688310e+01
 8.3043560919e-01	 1.5035584850e+00	 3.7406950565e+01
 8.0159163793e-01	 1.5191320761e+00	 3.9319742619e+01
 7.7253988809e-01	 1.5341100156e+00	 4.1198672189e+01
 7.4329829024e-01	 1.5484892865e+00	 4.3093733313e+01
 8.9350693196e-01	 1.4807128062e+00	 3.1580213385e+01
 8.6493782728e-01	 1.4975805844e+00	 3.4113651440e+01
 8.3612352432e-01	 1.5138568307e+00	 3.6350490694e+01
 8.0708199162e-01	 1.5295370903e+00	 3.8374731562e+01
 7.7783125718e-01	 1.5446176185e+00	 4.0250946953e+01
 7.4838937442e-01	 1.5590953775e+00	 4.2024041087e+01
 8.9958521040e-01	 1.4907856824e+00	 3.0006253477e+01
 8.7082175808e-01	 1.5077682074e+00	 3.2791595216e+01
 8.4181143946e-01	 1.5241551765e+00	 3.5204137160e+01
 8.1257234530e-01	 1.5399421046e+00	 3.7317284246e+01
 7.8312262628e-01	 1.5551252213e+00	 3.9188580478e+01
 7.5348045860e-01	 1.5697014685e+00	 4.0859428487e+01
 9.0566348885e-01	 1.5008585587e+00	 2.8453066096e+01
 8.7670568888e-01	 1.5179558305e+00	 3.1434813472e+01
 8.4749935459e-01	 1.5344535223e+00	 3.3981598851e+01
 8.1806269899e-01	 1.5503471188e+00	 3.6158607353e+01
 7.8841399538e-01	 1.5656328242e+00	 3.8018321152e+01
 7.5857154278e-01	 1.5803075595e+00	 3.9600196676e+01
 9.1174176730e-01	 1.5109314349e+00	 2.6933403963e+01
 8.8258961968e-01	 1.5281434535e+00	 3.0057309364e+01
 8.5318726972e-01	 1.5447518681e+00	 3.2696306720e+01
 8.2355305267e-01	 1.5607521330e+00	 3.4909693392e+01
 7.9370536447e-01	 1.5761404270e+00	 3.6746819000e+01
 7.6366262696e-01	 1.5909136505e+00	 3.8246717215e+01
 7.3820720606e-01	 1.5378831955e+00	 4.4068276827e+01
 7.0899514514e-01	 1.5515671066e+00	 4.5804684614e+01
 6.7963009530e-01	 1.5646525287e+00	 4.4720601151e+01
 6.5012974320e-01	 1.5771385225e+00	 4.3553003778e+01
 6.2051167221e-01	 1.5890248163e+00	 4.2419034842e+01
 5.9079333236e-01	 1.6003117948e+00	 4.1444356064e+01
 7.4329829024e-01	 1.5484892865e+00	 4.3093733313e+01
 7.1388476684e-01	 1.5622675694e+00	 4.5235457986e+01
 6.8431719940e-01	 1.5754432358e+00	 4.3899838062e+01
 6.5461339660e-01	 1.5880153399e+00	 4.2593353768e+01
 6.2479106305e-01	 1.5999836081e+00	 4.1444105020e+01
 5.9486776914e-01	 1.6113484278e+00	 4.0582730119e+01
 7.4838937442e-01	 1.5590953775e+00	 4.2024041087e+01
 7.1877438853e-01	 1.5729680322e+00	 4.4056794498e+01
 6.8900430351e-01	 1.5862339429e+00	 4.3087138821e+01
 6.5909705001e-01	 1.5988921573e+00	 4.1635234513e+01
 6.2907045390e-01	 1.6109423999e+00	 4.0439754235e+01
 5.9894220591e-01	 1.6223850609e+00	 3.9635549831e+01
 7.5348045860e-01	 1.5697014685e+00	 4.0859428487e+01
 7.2366401022e-01	 1.5836684950e+00	 4.2754746027e+01
 6.9369140762e-01	 1.5970246500e+00	 4.2267054540e+01
 6.6358070341e-01	 1.6097689747e+00	 4.0664876000e+01
 6.3334984474e-01	 1.6219011918e+00	 3.9397589522e+01
 6.0301664269e-01	 1.6334216940e+00	 3.8603507134e+01
 7.5857154278e-01	 1.5803075595e+00	 3.9600196676e+01
 7.2855363191e-01	 1.5943689578e+00	 4.1375347999e+01
 6.9837851172e-01	 1.6078153571e+00	 4.1424419247e+01
 6.6806435681e-01	 1.6206457921e+00	 3.9668749026e+01
 6.3762923558e-01	 1.6328599836e+00	 3.8309317685e+01
 6.0709107946e-01	 1.6444583270e+00	 3.7487153491e+01
 7.6366262696e-01	 1.5909136505e+00	 3.8246717215e+01
 7.3344325360e-01	 1.6050694206e+00	 3.9913423174e+01
 7.0306561583e-01	 1.6186060642e+00	 4.0544340457e+01
 6.7254801021e-01	 1.6315226095e+00	 3.8633557169e+01
 6.4190862643e-01	 1.6438187755e+00	 3.7166741973e+01
 6.1116551624e-01	 1.6554949601e+00	 3.6286904568e+01
 5.9079333236e-01	 1.6003117948e+00	 4.1444356064e+01
 5.6099201140e-01	 1.6110004858e+00	 4.0328962384e+01
 5.3112480690e-01	 1.6210925457e+00	 3.8674018908e+01
 5.0120859963e-01	 1.6305902434e+00	 3.6445824203e+01
 4.7126002806e-01	 1.6394964434e+00	 3.3588718044e+01
 4.4129546430e-01	 1.6478145876e+00	 3.0026402696e+01
 5.9486776914e-01	 1.6113484278e+00	 4.0582730119e+01
 5.6486092182e-01	 1.6221108340e+00	 3.9633491759e+01
 5.3478773660e-01	 1.6322724942e+00	 3.8112944335e+01
 5.0466521066e-01	 1.6418356933e+00	 3.5978813520e+01
 4.7451009722e-01	 1.6508033155e+00	 3.3172326554e+01
 4.4433888130e-01	 1.6591788262e+00	 2.9619376679e+01
 5.9894220591e-01	 1.6223850609e+00	 3.9635549831e+01
 5.6872983224e-01	 1.6332211821e+00	 3.8797113367e+01
 5.3845066631e-01	 1.6434524428e+00	 3.7382887736e+01
 5.0812182169e-01	 1.6530811433e+00	 3.5342104504e+01
 4.7776016638e-01	 1.6621101875e+00	 3.2612293287e+01
 4.4738229829e-01	 1.6705430647e+00	 2.9120314154e+01
 6.0301664269e-01	 1.6334216940e+00	 3.8603507134e+01
 5.7259874267e-01	 1.6443315303e+00	 3.7829720960e+01
 5.4211359601e-01	 1.6546323914e+00	 3.6499476281e+01
 5.1157843272e-01	 1.6643265932e+00	 3.4553606645e+01
 4.8101023554e-01	 1.6734170595e+00	 3.1925385437e+01
 4.5042571529e-01	 1.6819073033e+00	 2.8541450739e+01
 6.0709107946e-01	 1.6444583270e+00	 3.7487153491e+01
 5.7646765309e-01	 1.6554418785e+00	 3.6740824758e+01
 5.4577652571e-01	 1.6658123400e+00	 3.5477803971e+01
 5.1503504375e-01	 1.6755720432e+00	 3.3630639581e+01
 4.8426030470e-01	 1.6847239315e+00	 3.1127815884e+01
 4.5346913228e-01	 1.6932715418e+00	 2.7894594539e+01
 6.1116551624e-01	 1.6554949601e+00	 3.6286904568e+01
 5.8033656351e-01	 1.6665522267e+00	 3.5539564230e+01
 5.4943945541e-01	 1.6769922886e+00	 3.4332449416e+01
 5.1849165479e-01	 1.6868174931e+00	 3.2589952760e+01
 4.8751037386e-01	 1.6960308036e+00	 3.0235261672e+01
 4.5651254928e-01	 1.7046357803e+00	 2.7191140399e+01
 4.4129546430e-01	 1.6478145876e+00	 3.0026402696e+01
 4.1133099130e-01	 1.6555486757e+00	 2.5638416703e+01
 3.8138238147e-01	 1.6627032451e+00	 2.0450747098e+01
 3.5146507675e-01	 1.6692833498e+00	 1.5935013581e+01
 3.2159417014e-01	 1.6752945388e+00	 1.6317392934e+01
 2.9178438865e-01	 1.6807428336e+00	 1.5860876418e+01
 4.4433888130e-01	 1.6591788262e+00	 2.9619376679e+01
 4.1416775676e-01	 1.6669662528e+00	 2.5280781711e+01
 3.8401260479e-01	 1.6741701640e+00	 2.0256042877e+01
 3.5388897383e-01	 1.6807956488e+00	 1.5418726037e+01
 3.2381206097e-01	 1.6868482943e+00	 1.6021392882e+01
 2.9379669478e-01	 1.6923341635e+00	 1.5820350873e+01
 4.4738229829e-01	 1.6705430647e+00	 2.9120314154e+01
 4.1700452221e-01	 1.6783838299e+00	 2.4883922956e+01
 3.8664282811e-01	 1.6856370829e+00	 2.0053163929e+01
 3.5631287091e-01	 1.6923079477e+00	 1.4933545697e+01
 3.2602995180e-01	 1.6984020497e+00	 1.5737083513e+01
 2.9580900091e-01	 1.7039254933e+00	 1.5752376624e+01
 4.5042571529e-01	 1.6819073033e+00	 2.8541450739e+01
 4.1984128767e-01	 1.6898014069e+00	 2.4454987494e+01
 3.8927305143e-01	 1.6971040019e+00	 1.9846400521e+01
 3.5873676800e-01	 1.7038202467e+00	 1.4829264041e+01
 3.2824784263e-01	 1.7099558051e+00	 1.5471754622e+01
 2.9782130703e-01	 1.7155168232e+00	 1.5667746715e+01
 4.5346913228e-01	 1.6932715418e+00	 2.7894594539e+01
 4.2267805313e-01	 1.7012189840e+00	 2.4000836883e+01
 3.9190327475e-01	 1.7085709208e+00	 1.9639839768e+01
 3.6116066508e-01	 1.7153325457e+00	 1.4918503685e+01
 3.3046573346e-01	 1.7215095606e+00	 1.5232481572e+01
 2.9983361316e-01	 1.7271081531e+00	 1.5576948005e+01
 4.5651254928e-01	 1.7046357803e+00	 2.7191140399e+01
 4.2551481859e-01	 1.7126365611e+00	 2.3528056701e+01
 3.9453349807e-01	 1.7200378397e+00	 1.9437372401e+01
 3.6358456216e-01	 1.7268448446e+00	 1.5019895979e+01
 3.3268362429e-01	 1.7330633160e+00	 1.5026132438e+01
 3.0184591929e-01	 1.7386994830e+00	 1.5490171370e+01
 2.9178438865e-01	 1.6807428336e+00	 1.5860876418e+01
 2.6205007775e-01	 1.6856347050e+00	 1.4826960195e+01
 2.3240518734e-01	 1.6899770504e+00	 1.3202703449e+01
 2.0286325912e-01	 1.6937771696e+00	 1.0729326315e+01
 1.7343741549e-01	 1.6970427411e+00	 7.1464221362e+00
 1.4414034981e-01	 1.6997817982e+00	 2.1933068492e+00
 2.9379669478e-01	 1.6923341635e+00	 1.5820350873e+01
 2.6385731967e-01	 1.6972597720e+00	 1.4987769971e+01
 2.3400798173e-01	 1.7016320646e+00	 1.3447174513e+01
 2.0426231608e-01	 1.7054583914e+00	 1.0963962620e+01
 1.7463353559e-01	 1.7087464841e+00	 7.3055295189e+00
 1.4513442119e-01	 1.7115044313e+00	 2.2423362792e+00
 2.9580900091e-01	 1.7039254933e+00	 1.5752376624e+01
 2.6566456158e-01	 1.7088848389e+00	 1.5084098920e+01
 2.3561077613e-01	 1.7132870787e+00	 1.3613360902e+01
 2.0566137304e-01	 1.7171396133e+00	 1.1129900025e+01
 1.7582965570e-01	 1.7204502271e+00	 7.4284639828e+00
 1.4612849257e-01	 1.7232270644e+00	 2.3096249536e+00
 2.9782130703e-01	 1.7155168232e+00	 1.5667746715e+01
 2.6747180350e-01	 1.7205099058e+00	 1.5129520640e+01
 2.3721357052e-01	 1.7249420929e+00	 1.3714080382e+01
 2.0706043000e-01	 1.7288208352e+00	 1.1235676566e+01
 1.7702577581e-01	 1.7321539702e+00	 7.5159808459e+00
 1.4712256394e-01	 1.7349496975e+00	 2.3846715094e+00
 2.9983361316e-01	 1.7271081531e+00	 1.5576948005e+01
 2.6927904541e-01	 1.7321349728e+00	 1.5137230074e+01
 2.3881636492e-01	 1.7365971070e+00	 1.3761794435e+01
 2.0845948696e-01	 1.7405020570e+00	 1.1289590837e+01
 1.7822189591e-01	 1.7438577132e+00	 7.5688067556e+00
 1.4811663532e-01	 1.7466723306e+00	 2.4572498202e+00
 3.0184591929e-01	 1.7386994830e+00	 1.5490171370e+01
 2.7108628733e-01	 1.7437600397e+00	 1.5120056142e+01
 2.4041915932e-01	 1.7482521211e+00	 1.3768620130e+01
 2.0985854392e-01	 1.7521832789e+00	 1.1299709977e+01
 1.7941801602e-01	 1.7555614563e+00	 7.5876406440e+00
 1.4911070670e-01	 1.7583949637e+00	 2.5173998208e+00
 1.4414034981e-01	 1.6997817982e+00	 2.1933068492e+00
 1.1498431817e-01	 1.7020027052e+00	-2.4253622699e+00
 8.5981132481e-02	 1.7037141330e+00	-4.4281041584e+00
 5.7142154900e-02	 1.7049250354e+00	-3.2106827201e+00
 2.8478293645e-02	 1.7056446256e+00	 1.8279097045e+00
 0.0000000000e+00	 1.7058823529e+00	 1.1282990494e+01
 1.4513442119e-01	 1.7115044313e+00	 2.2423362792e+00
 1.1577731347e-01	 1.7137406549e+00	-2.4409754552e+00
 8.6574105808e-02	 1.7154638856e+00	-4.4274036949e+00
 5.7536238727e-02	 1.7166831391e+00	-3.1502695910e+00
 2.8674695670e-02	 1.7174076920e+00	 1.9484395200e+00
 0.0000000000e+00	 1.7176470588e+00	 1.1416054388e+01
 1.4612849257e-01	 1.7232270644e+00	 2.3096249536e+00
 1.1657030877e-01	 1.7254786046e+00	-2.3912683842e+00
 8.7167079136e-02	 1.7272136383e+00	-4.3500151514e+00
 5.7930322554e-02	 1.7284412427e+00	-3.0364731573e+00
 2.8871097695e-02	 1.7291707584e+00	 2.0667317721e+00
 0.0000000000e+00	 1.7294117647e+00	 1.1462564418e+01
 1.4712256394e-01	 1.7349496975e+00	 2.3846715094e+00
 1.1736330407e-01	 1.7372165543e+00	-2.2955268804e+00
 8.7760052463e-02	 1.7389633909e+00	-4.2156513729e+00
 5.8324406381e-02	 1.7401993464e+00	-2.8811463072e+00
 2.9067499720e-02	 1.7409338248e+00	 2.1869922294e+00
 0.0000000000e+00	 1.7411764706e+00	 1.1450878517e+01
 1.4811663532e-01	 1.7466723306e+00	 2.4572498202e+00
 1.1815629937e-01	 1.7489545040e+00	-2.1725241167e+00
 8.8353025791e-02	 1.7507131436e+00	-4.0434996265e+00
 5.8718490208e-02	 1.7519574501e+00	-2.6958260196e+00
 2.9263901746e-02	 1.7526968911e+00	 2.3133126731e+00
 0.0000000000e+00	 1.7529411765e+00	 1.1408593332e+01
 1.4911070670e-01	 1.7583949637e+00	 2.5173998208e+00
 1.1894929466e-01	 1.7606924537e+00	-2.0405377039e+00
 8.8945999118e-02	 1.7624628962e+00	-3.8522391202e+00
 5.9112574035e-02	 1.7637155538e+00	-2.4917438949e+00
 2.9460303771e-02	 1.7644599575e+00	 2.4496746972e+00
 0.0000000000e+00	 1.7647058824e+00	 1.1362569600e+01
 1.7647058824e+00	 0.0000000000e+00	 5.4963989332e+01
 1.7644599575e+00	 2.9460303771e-02	 4.9831649148e+01
 1.7637155538e+00	 5.9112574035e-02	 4.6254763361e+01
 1.7624628962e+00	 8.8945999118e-02	 4.3395945328e+01
 1.7606924537e+00	 1.1894929466e-01	 4.0399163428e+01
 1.7583949637e+00	 1.4911070670e-01	 3.6392212383e+01
 1.7764705882e+00	 0.0000000000e+00	 5.5939583230e+01
 1.7762230239e+00	 2.9656705796e-02	 5.0370163833e+01
 1.7754736575e+00	 5.9506657862e-02	 4.6292585084e+01
 1.7742126488e+00	 8.9538972446e-02	 4.2945595005e+01
 1.7724304034e+00	 1.1974228996e-01	 3.9551491121e+01
 1.7701175968e+00	 1.5010477808e-01	 3.5318329763e+01
 1.7882352941e+00	 0.0000000000e+00	 5.6727093446e+01
 1.7879860903e+00	 2.9853107821e-02	 5.0772304572e+01
 1.7872317612e+00	 5.9900741689e-02	 4.6288484440e+01
 1.7859624015e+00	 9.0131945773e-02	 4.2490932971e+01
 1.7841683531e+00	 1.2053528526e-01	 3.8708502675e+01
 1.7818402299e+00	 1.5109884946e-01	 3.4239876313e+01
 1.8000000000e+00	 0.0000000000e+00	 5.6435040051e+01
 1.7997491567e+00	 3.0049509846e-02	 5.0515122253e+01
 1.7989898649e+00	 6.0294825516e-02	 4.6090086802e+01
 1.7977121541e+00	 9.0724919101e-02	 4.2382368720e+01
 1.7959063028e+00	 1.2132828056e-01	 3.8614863114e+01
 1.7935628630e+00	 1.5209292083e-01	 3.4014691691e+01
 1.8117647059e+00	 0.0000000000e+00	 5.6139588612e+01
 1.8115122231e+00	 3.0245911871e-02	 5.0180851769e+01
 1.8107479686e+00	 6.0688909343e-02	 4.5810775970e+01
 1.8094619068e+00	 9.1317892428e-02	 4.2227536131e+01
 1.8076442525e+00	 1.2212127585e-01	 3.8629228400e+01
 1.8052854961e+00	 1.5308699221e-01	 3.4217766376e+01
 1.8235294118e+00	 0.0000000000e+00	 5.5838717426e+01
 1.8232752894e+00	 3.0442313896e-02	 4.9771119210e+01
 1.8225060723e+00	 6.1082993169e-02	 4.5454411103e+01
 1.8212116594e+00	 9.1910865755e-02	 4.2031727094e+01
 1.8193822022e+00	 1.2291427115e-01	 3.8644598566e+01
 1.8170081292e+00	 1.5408106359e-01	 3.4437094340e+01
 1.7583949637e+00	 1.4911070670e-01	 3.6392212383e+01
 1.7555614563e+00	 1.7941801602e-01	 3.1680712064e+01
 1.7521832789e+00	 2.0985854392e-01	 2.7266836590e+01
 1.7482521211e+00	 2.4041915932e-01	 2.3303539358e+01
 1.7437600397e+00	 2.7108628733e-01	 1.9930326803e+01
 1.7386994830e+00	 3.0184591929e-01	 1.7271669258e+01
 1.7701175968e+00	 1.5010477808e-01	 3.5318329763e+01
 1.7672651993e+00	 1.8061413613e-01	 3.0553416024e+01
 1.7638645007e+00	 2.1125760088e-01	 2.6185121078e+01
 1.7599071353e+00	 2.4202195371e-01	 2.2334712000e+01
 1.7553851066e+00	 2.7289352924e-01	 1.9110142121e+01
 1.7502908129e+00	 3.0385822542e-01	 1.6604627908e+01
 1.7818402299e+00	 1.5109884946e-01	 3.4239876313e+01
 1.7789689424e+00	 1.8181025623e-01	 2.9363469879e+01
 1.7755457226e+00	 2.1265665784e-01	 2.4950856379e+01
 1.7715621494e+00	 2.4362474811e-01	 2.1115836145e+01
 1.7670101736e+00	 2.7470077116e-01	 1.7959154949e+01
 1.7618821428e+00	 3.0587053155e-01	 1.5567126220e+01
 1.7935628630e+00	 1.5209292083e-01	 3.4014691691e+01
 1.7906726854e+00	 1.8300637634e-01	 2.8804796504e+01
 1.7872269444e+00	 2.1405571480e-01	 2.3816573669e+01
 1.7832171636e+00	 2.4522754250e-01	 1.9651225597e+01
 1.7786352405e+00	 2.7650801307e-01	 1.6475427783e+01
 1.7734734727e+00	 3.0788283768e-01	 1.4147499118e+01
 1.8052854961e+00	 1.5308699221e-01	 3.4217766376e+01
 1.8023764284e+00	 1.8420249645e-01	 2.9144338724e+01
 1.7989081663e+00	 2.1545477176e-01	 2.4209620161e+01
 1.7948721777e+00	 2.4683033690e-01	 1.9604325670e+01
 1.7902603074e+00	 2.7831525499e-01	 1.5531532035e+01
 1.7850648026e+00	 3.0989514381e-01	 1.2334319958e+01
 1.8170081292e+00	 1.5408106359e-01	 3.4437094340e+01
 1.8140801715e+00	 1.8539861655e-01	 2.9463577140e+01
 1.8105893882e+00	 2.1685382872e-01	 2.4506103832e+01
 1.8065271918e+00	 2.4843313129e-01	 1.9815083121e+01
 1.8018853744e+00	 2.8012249690e-01	 1.5654458014e+01
 1.7966561324e+00	 3.1190744993e-01	 1.2301340192e+01
 1.7386994830e+00	 3.0184591929e-01	 1.7271669258e+01
 1.7330633160e+00	 3.3268362429e-01	 1.5148741106e+01
 1.7268448446e+00	 3.6358456216e-01	 1.2992577476e+01
 1.7200378397e+00	 3.9453349807e-01	 9.2984065211e+00
 1.7126365611e+00	 4.2551481859e-01	 5.5214512123e+00
 1.7046357803e+00	 4.5651254928e-01	 1.8678519900e+00
 1.7502908129e+00	 3.0385822542e-01	 1.6604627908e+01
 1.7446170715e+00	 3.3490151512e-01	 1.4621552463e+01
 1.7383571436e+00	 3.6600845924e-01	 1.2441265134e+01
 1.7315047587e+00	 3.9716372139e-01	 8.7909588602e+00
 1.7240541382e+00	 4.2835158404e-01	 5.0138744261e+00
 1.7160000189e+00	 4.5955596628e-01	 1.3221159228e+00
 1.7618821428e+00	 3.0587053155e-01	 1.5567126220e+01
 1.7561708269e+00	 3.3711940594e-01	 1.3735198667e+01
 1.7498694425e+00	 3.6843235632e-01	 1.1579984522e+01
 1.7429716776e+00	 3.9979394471e-01	 8.0508421996e+00
 1.7354717152e+00	 4.3118834950e-01	 4.3526416275e+00
 1.7273642574e+00	 4.6259938327e-01	 6.8891812260e-01
 1.7734734727e+00	 3.0788283768e-01	 1.4147499118e+01
 1.7677245823e+00	 3.3933729677e-01	 1.2468317308e+01
 1.7613817415e+00	 3.7085625340e-01	 1.0386235710e+01
 1.7544385965e+00	 4.0242416803e-01	 7.0546554186e+00
 1.7468892923e+00	 4.3402511496e-01	 3.5181708207e+00
 1.7387284959e+00	 4.6564280027e-01	-4.2470863914e-02
 1.7850648026e+00	 3.0989514381e-01	 1.2334319958e+01
 1.7792783378e+00	 3.4155518760e-01	 1.0800031334e+01
 1.7728940405e+00	 3.7328015048e-01	 8.8381451740e+00
 1.7659055155e+00	 4.0505439135e-01	 5.7796504946e+00
 1.7583068694e+00	 4.3686188042e-01	 2.4914371230e+00
 1.7500927345e+00	 4.6868621726e-01	-8.8245018304e-01
 1.7966561324e+00	 3.1190744993e-01	 1.2301340192e+01
 1.7908320932e+00	 3.4377307843e-01	 9.7196027421e+00
 1.7844063394e+00	 3.7570404756e-01	 6.9144455863e+00
 1.7773724344e+00	 4.0768461467e-01	 4.2037114365e+00
 1.7697244465e+00	 4.3969864587e-01	 1.2539547939e+00
 1.7614569730e+00	 4.7172963426e-01	-1.8410993290e+00
 1.7046357803e+00	 4.5651254928e-01	 1.8678519900e+00
 1.6960308036e+00	 4.8751037386e-01	-1.5379224062e+00
 1.6868174931e+00	 5.1849165479e-01	-4.7059195263e+00
 1.6769922886e+00	 5.4943945541e-01	-7.6270761347e+00
 1.6665522267e+00	 5.8033656351e-01	-1.0287646059e+01
 1.6554949601e+00	 6.1116551624e-01	-1.2668808464e+01
 1.7160000189e+00	 4.5955596628e-01	 1.3221159228e+00
 1.7073376756e+00	 4.9076044301e-01	-2.1344884997e+00
 1.6980629431e+00	 5.2194826582e-01	-5.3432506534e+00
 1.6881722372e+00	 5.5310238512e-01	-8.2937958529e+00
 1.6776625749e+00	 5.8420547394e-01	-1.0969884562e+01
 1.6665315932e+00	 6.1523995301e-01	-1.3348992357e+01
 1.7273642574e+00	 4.6259938327e-01	 6.8891812260e-01
 1.7186445476e+00	 4.9401051217e-01	-2.7699617877e+00
 1.7093083930e+00	 5.2540487685e-01	-5.9830341064e+00
 1.6993521858e+00	 5.5676531482e-01	-8.9375317968e+00
 1.6887729230e+00	 5.8807438436e-01	-1.1614264204e+01
 1.6775682263e+00	 6.1931438979e-01	-1.3987192239e+01
 1.7387284959e+00	 4.6564280027e-01	-4.2470863914e-02
 1.7299514196e+00	 4.9726058133e-01	-3.4451565323e+00
 1.7205538430e+00	 5.2886148788e-01	-6.6193054285e+00
 1.7105321344e+00	 5.6042824452e-01	-9.5487065918e+00
 1.6998832712e+00	 5.9194329478e-01	-1.2210781485e+01
 1.6886048593e+00	 6.2338882656e-01	-1.4576177641e+01
 1.7500927345e+00	 4.6868621726e-01	-8.8245018304e-01
 1.7412582916e+00	 5.0051065049e-01	-4.1608111877e+00
 1.7317992929e+00	 5.3231809891e-01	-7.2461974873e+00
 1.7217120830e+00	 5.6409117423e-01	-1.0117931200e+01
 1.7109936194e+00	 5.9581220521e-01	-1.2749629595e+01
 1.6996414924e+00	 6.2746326334e-01	-1.5108840172e+01
 1.7614569730e+00	 4.7172963426e-01	-1.8410993290e+00
 1.7525651637e+00	 5.0376071965e-01	-4.9175908452e+00
 1.7430447429e+00	 5.3577470994e-01	-7.8579373350e+00
 1.7328920316e+00	 5.6775410393e-01	-1.0635998845e+01
 1.7221039676e+00	 5.9968111563e-01	-1.3221192073e+01
 1.7106781255e+00	 6.3153770011e-01	-1.5578189584e+01
 1.6554949601e+00	 6.1116551624e-01	-1.2668808464e+01
 1.6438187755e+00	 6.4190862643e-01	-1.4816458578e+01
 1.6315226095e+00	 6.7254801021e-01	-1.6746135046e+01
 1.6186060642e+00	 7.0306561583e-01	-1.8386304637e+01
 1.6050694206e+00	 7.3344325360e-01	-2.0182282905e+01
 1.5909136505e+00	 7.6366262696e-01	-2.1977892004e+01
 1.6665315932e+00	 6.1523995301e-01	-1.3348992357e+01
 1.6547775673e+00	 6.4618801727e-01	-1.5481861468e+01
 1.6423994269e+00	 6.7703166361e-01	-1.7397160780e+01
 1.6293967713e+00	 7.0775271993e-01	-1.9031139450e+01
 1.6157698834e+00	 7.3833287529e-01	-2.0941214775e+01
 1.6015197415e+00	 7.6875371114e-01	-2.2753386475e+01
 1.6775682263e+00	 6.1931438979e-01	-1.3987192239e+01
 1.6657363591e+00	 6.5046740811e-01	-1.6113061414e+01
 1.6532762443e+00	 6.8151531701e-01	-1.8030519375e+01
 1.6401874784e+00	 7.1243982404e-01	-1.9677594013e+01
 1.6264703462e+00	 7.4322249698e-01	-2.1708463196e+01
 1.6121258325e+00	 7.7384479532e-01	-2.3544937654e+01
 1.6886048593e+00	 6.2338882656e-01	-1.4576177641e+01
 1.6766951510e+00	 6.5474679895e-01	-1.6706666224e+01
 1.6641530616e+00	 6.8599897041e-01	-1.8645662301e+01
 1.6509781855e+00	 7.1712692814e-01	-2.0386811137e+01
 1.6371708090e+00	 7.4811211867e-01	-2.2487974630e+01
 1.6227319235e+00	 7.7893587950e-01	-2.4357133990e+01
 1.6996414924e+00	 6.2746326334e-01	-1.5108840172e+01
 1.6876539428e+00	 6.5902618980e-01	-1.7259303637e+01
 1.6750298790e+00	 6.9048262381e-01	-1.9241984780e+01
 1.6617688926e+00	 7.2181403225e-01	-2.1132318430e+01
 1.6478712718e+00	 7.5300174036e-01	-2.3283552327e+01
 1.6333380145e+00	 7.8402696368e-01	-2.5194403405e+01
 1.7106781255e+00	 6.3153770011e-01	-1.5578189584e+01
 1.6986127346e+00	 6.6330558064e-01	-1.7767620673e+01
 1.6859066964e+00	 6.9496627722e-01	-1.9818827600e+01
 1.6725595997e+00	 7.2650113635e-01	-2.1875931435e+01
 1.6585717346e+00	 7.5789136205e-01	-2.4098860939e+01
 1.6439441055e+00	 7.8911804786e-01	-2.6061018477e+01
 1.5909136505e+00	 7.6366262696e-01	-2.1977892004e+01
 1.5761404270e+00	 7.9370536447e-01	-2.3395675166e+01
 1.5607521330e+00	 8.2355305267e-01	-2.4393629324e+01
 1.5447518681e+00	 8.5318726972e-01	-2.4980824766e+01
 1.5281434535e+00	 8.8258961968e-01	-2.5164406843e+01
 1.5109314349e+00	 9.1174176730e-01	-2.4949415259e+01
 1.6015197415e+00	 7.6875371114e-01	-2.2753386475e+01
 1.5866480298e+00	 7.9899673357e-01	-2.4217426810e+01
 1.5711571472e+00	 8.2904340635e-01	-2.5282728250e+01
 1.5550502139e+00	 8.5887518485e-01	-2.5944125072e+01
 1.5383310765e+00	 8.8847355048e-01	-2.6194724231e+01
 1.5210043111e+00	 9.1782004575e-01	-2.6025804323e+01
 1.6121258325e+00	 7.7384479532e-01	-2.3544937654e+01
 1.5971556327e+00	 8.0428810266e-01	-2.5049351451e+01
 1.5815621614e+00	 8.3453376004e-01	-2.6167294006e+01
 1.5653485597e+00	 8.6456309998e-01	-2.6885012345e+01
 1.5485186995e+00	 8.9435748127e-01	-2.7187227529e+01
 1.5310771874e+00	 9.2389832420e-01	-2.7057082012e+01
 1.6227319235e+00	 7.7893587950e-01	-2.4357133990e+01
 1.6076632355e+00	 8.0957947176e-01	-2.5896362248e+01
 1.5919671757e+00	 8.4002411372e-01	-2.7052394046e+01
 1.5756469055e+00	 8.7025101511e-01	-2.7808426164e+01
 1.5587063226e+00	 9.0024141207e-01	-2.8146334316e+01
 1.5411500636e+00	 9.2997660265e-01	-2.8046637968e+01
 1.6333380145e+00	 7.8402696368e-01	-2.5194403405e+01
 1.6181708384e+00	 8.1487084086e-01	-2.6763202879e+01
 1.6023721899e+00	 8.4551446741e-01	-2.7942921930e+01
 1.5859452513e+00	 8.7593893024e-01	-2.8719135245e+01
 1.5688939456e+00	 9.0612534287e-01	-2.9076304689e+01
 1.5512229398e+00	 9.3605488110e-01	-2.8997730987e+01
 1.6439441055e+00	 7.8911804786e-01	-2.6061018477e+01
 1.6286784412e+00	 8.2016220995e-01	-2.7654453008e+01
 1.6127772041e+00	 8.5100482109e-01	-2.8843602929e+01
 1.5962435970e+00	 8.8162684538e-01	-2.9621742948e+01
 1.5790815686e+00	 9.1200927367e-01	-2.9981246339e+01
 1.5612958161e+00	 9.4213315955e-01	-2.9913493234e+01
 1.5109314349e+00	 9.1174176730e-01	-2.4949415259e+01
 1.4931210836e+00	 9.4062547324e-01	-2.4387893960e+01
 1.4747183954e+00	 9.6922262951e-01	-2.3372040599e+01
 1.4557300874e+00	 9.9751529505e-01	-2.1665716016e+01
 1.4361635930e+00	 1.0254857314e+00	-1.9034170197e+01
 1.4160270546e+00	 1.0531164379e+00	-1.6926621596e+01
 1.5210043111e+00	 9.1782004575e-01	-2.6025804323e+01
 1.5030752242e+00	 9.4689630973e-01	-2.5488695406e+01
 1.4845498513e+00	 9.7568411370e-01	-2.4498267195e+01
 1.4654349546e+00	 1.0041653970e+00	-2.2839372711e+01
 1.4457380170e+00	 1.0323223029e+00	-2.0297380979e+01
 1.4254672350e+00	 1.0601372142e+00	-1.7061390277e+01
 1.5310771874e+00	 9.2389832420e-01	-2.7057082012e+01
 1.5130293647e+00	 9.5316714622e-01	-2.6546191261e+01
 1.4943813073e+00	 9.8214559790e-01	-2.5586695646e+01
 1.4751398219e+00	 1.0108154990e+00	-2.3980393993e+01
 1.4553124409e+00	 1.0391588745e+00	-2.1528704004e+01
 1.4349074153e+00	 1.0671579905e+00	-1.8033757943e+01
 1.5411500636e+00	 9.2997660265e-01	-2.8046637968e+01
 1.5229835053e+00	 9.5943798271e-01	-2.7562429301e+01
 1.5042127633e+00	 9.8860708210e-01	-2.6638035453e+01
 1.4848446891e+00	 1.0174656010e+00	-2.5088231773e+01
 1.4648868649e+00	 1.0459954460e+00	-2.2726491611e+01
 1.4443475957e+00	 1.0741787667e+00	-1.9579623607e+01
 1.5512229398e+00	 9.3605488110e-01	-2.8997730987e+01
 1.5329376458e+00	 9.6570881920e-01	-2.8539361356e+01
 1.5140442193e+00	 9.9506856629e-01	-2.7652935096e+01
 1.4945495564e+00	 1.0241157029e+00	-2.6162309883e+01
 1.4744612888e+00	 1.0528320175e+00	-2.3889097000e+01
 1.4537877760e+00	 1.0811995430e+00	-2.1359898284e+01
 1.5612958161e+00	 9.4213315955e-01	-2.9913493234e+01
 1.5428917864e+00	 9.7197965568e-01	-2.9478846409e+01
 1.5238756752e+00	 1.0015300505e+00	-2.8631984004e+01
 1.5042544236e+00	 1.0307658049e+00	-2.7202024977e+01
 1.4840357128e+00	 1.0596685891e+00	-2.5014874205e+01
 1.4632279564e+00	 1.0882203192e+00	-2.3018760488e+01
 1.4160270546e+00	 1.0531164379e+00	-1.6926621596e+01
 1.3953293139e+00	 1.0803901873e+00	-1.5445669987e+01
 1.3740799010e+00	 1.1072900599e+00	-1.4907048970e+01
 1.3522890205e+00	 1.1337994780e+00	-1.3608849239e+01
 1.3299675359e+00	 1.1599022393e+00	-1.1570025833e+01
 1.3071269525e+00	 1.1855825493e+00	-8.8029480698e+00
 1.4254672350e+00	 1.0601372142e+00	-1.7061390277e+01
 1.4046315094e+00	 1.0875927886e+00	-1.6368806545e+01
 1.3832404337e+00	 1.1146719936e+00	-1.5946314880e+01
 1.3613042806e+00	 1.1413581412e+00	-1.4799435093e+01
 1.3388339861e+00	 1.1676349209e+00	-1.2929783947e+01
 1.3158411322e+00	 1.1934864330e+00	-1.0333354662e+01
 1.4349074153e+00	 1.0671579905e+00	-1.8033757943e+01
 1.4139337048e+00	 1.0947953898e+00	-1.7244171369e+01
 1.3924009664e+00	 1.1220539274e+00	-1.6923745734e+01
 1.3703195407e+00	 1.1489168044e+00	-1.5918293051e+01
 1.3477004364e+00	 1.1753676025e+00	-1.4215471142e+01
 1.3245553119e+00	 1.2013903166e+00	-1.1798436009e+01
 1.4443475957e+00	 1.0741787667e+00	-1.9579623607e+01
 1.4232359002e+00	 1.1019979911e+00	-1.8067146705e+01
 1.4015614991e+00	 1.1294358611e+00	-1.7835182289e+01
 1.3793348009e+00	 1.1564754676e+00	-1.6962414239e+01
 1.3565668866e+00	 1.1831002841e+00	-1.5425855813e+01
 1.3332694916e+00	 1.2092942003e+00	-1.3199297603e+01
 1.4537877760e+00	 1.0811995430e+00	-2.1359898284e+01
 1.4325380956e+00	 1.1092005923e+00	-1.9315338157e+01
 1.4107220317e+00	 1.1368177948e+00	-1.8676487806e+01
 1.3883500610e+00	 1.1640341307e+00	-1.7928784184e+01
 1.3654333368e+00	 1.1908329657e+00	-1.6559656561e+01
 1.3419836713e+00	 1.2171980839e+00	-1.4536936589e+01
 1.4632279564e+00	 1.0882203192e+00	-2.3018760488e+01
 1.4418402911e+00	 1.1164031936e+00	-2.1092849090e+01
 1.4198825644e+00	 1.1441997286e+00	-1.9443547326e+01
 1.3973653212e+00	 1.1715927939e+00	-1.8814382996e+01
 1.3742997871e+00	 1.1985656473e+00	-1.7615543800e+01
 1.3506978509e+00	 1.2251019676e+00	-1.5812245265e+01
 1.3071269525e+00	 1.1855825493e+00	-8.8029480698e+00
 1.2837793978e+00	 1.2108250530e+00	-5.8301477791e+00
 1.2599376000e+00	 1.2356148653e+00	-3.1466941631e+00
 1.2356148653e+00	 1.2599376000e+00	-7.1390600158e-01
 1.2108250530e+00	 1.2837793978e+00	 1.5131211809e+00
 1.1855825493e+00	 1.3071269525e+00	 3.5849581916e+00
 1.3158411322e+00	 1.1934864330e+00	-1.0333354662e+01
 1.2923379271e+00	 1.2188972200e+00	-7.5184294679e+00
 1.2683371840e+00	 1.2438522977e+00	-4.9724153186e+00
 1.2438522977e+00	 1.2683371840e+00	-2.6502866377e+00
 1.2188972200e+00	 1.2923379271e+00	-4.9998520611e-01
 1.1934864330e+00	 1.3158411322e+00	 1.5369814305e+00
 1.3245553119e+00	 1.2013903166e+00	-1.1798436009e+01
 1.3008964564e+00	 1.2269693871e+00	-9.1587879765e+00
 1.2767367680e+00	 1.2520897302e+00	-6.7690619543e+00
 1.2520897302e+00	 1.2767367680e+00	-4.5741562833e+00
 1.2269693871e+00	 1.3008964564e+00	-2.5108601913e+00
 1.2013903166e+00	 1.3245553119e+00	-5.0851661207e-01
 1.3332694916e+00	 1.2092942003e+00	-1.3199297603e+01
 1.3094549857e+00	 1.2350415541e+00	-1.0754312590e+01
 1.2851363520e+00	 1.2603271626e+00	-8.5405330856e+00
 1.2603271626e+00	 1.2851363520e+00	-6.4891223070e+00
 1.2350415541e+00	 1.3094549857e+00	-4.5217941603e+00
 1.2092942003e+00	 1.3332694916e+00	-2.5515631590e+00
 1.3419836713e+00	 1.2171980839e+00	-1.4536936589e+01
 1.3180135151e+00	 1.2431137211e+00	-1.2307935044e+01
 1.2935359360e+00	 1.2685645950e+00	-1.0290551628e+01
 1.2685645950e+00	 1.2935359360e+00	-8.3986261814e+00
 1.2431137211e+00	 1.3180135151e+00	-6.5349485714e+00
 1.2171980839e+00	 1.3419836713e+00	-4.5921181696e+00
 1.3506978509e+00	 1.2251019676e+00	-1.5812245265e+01
 1.3265720444e+00	 1.2511858881e+00	-1.3822434605e+01
 1.3019355200e+00	 1.2768020275e+00	-1.2022670079e+01
 1.2768020275e+00	 1.3019355200e+00	-1.0305948835e+01
 1.2511858881e+00	 1.3265720444e+00	-8.5523601148e+00
 1.2251019676e+00	 1.3506978509e+00	-6.6300765094e+00
 1.1855825493e+00	 1.3071269525e+00	 3.5849581916e+00
 1.1599022393e+00	 1.3299675359e+00	 5.8066242569e+00
 1.1337994780e+00	 1.3522890205e+00	 8.6230720664e+00
 1.1072900599e+00	 1.3740799010e+00	 1.2287391176e+01
 1.0803901873e+00	 1.3953293139e+00	 1.7036313763e+01
 1.0531164379e+00	 1.4160270546e+00	 1.8532989480e+01
 1.1934864330e+00	 1.3158411322e+00	 1.5369814305e+00
 1.1676349209e+00	 1.3388339861e+00	 3.7353632520e+00
 1.1413581412e+00	 1.3613042806e+00	 6.4989211775e+00
 1.1146719936e+00	 1.3832404337e+00	 1.0073181600e+01
 1.0875927886e+00	 1.4046315094e+00	 1.4687806099e+01
 1.0601372142e+00	 1.4254672350e+00	 1.7789096001e+01
 1.2013903166e+00	 1.3245553119e+00	-5.0851661207e-01
 1.1753676025e+00	 1.3477004364e+00	 1.6790436321e+00
 1.1489168044e+00	 1.3703195407e+00	 4.4098104624e+00
 1.1220539274e+00	 1.3924009664e+00	 7.9165353705e+00
 1.0947953898e+00	 1.4139337048e+00	 1.2416327728e+01
 1.0671579905e+00	 1.4349074153e+00	 1.6983304524e+01
 1.2092942003e+00	 1.3332694916e+00	-2.5515631590e+00
 1.1831002841e+00	 1.3565668866e+00	-3.6036948849e-01
 1.1564754676e+00	 1.3793348009e+00	 2.3583327426e+00
 1.1294358611e+00	 1.4015614991e+00	 5.8194146787e+00
 1.1019979911e+00	 1.4232359002e+00	 1.0222061658e+01
 1.0741787667e+00	 1.4443475957e+00	 1.5581087901e+01
 1.2171980839e+00	 1.3419836713e+00	-4.5921181696e+00
 1.1908329657e+00	 1.3654333368e+00	-2.3808984657e+00
 1.1640341307e+00	 1.3883500610e+00	 3.4707399095e-01
 1.1368177948e+00	 1.4107220317e+00	 3.7837880975e+00
 1.1092005923e+00	 1.4325380956e+00	 8.1804416703e+00
 1.0811995430e+00	 1.4537877760e+00	 1.3323853638e+01
 1.2251019676e+00	 1.3506978509e+00	-6.6300765094e+00
 1.1985656473e+00	 1.3742997871e+00	-4.3805535298e+00
 1.1715927939e+00	 1.3973653212e+00	-1.6213864475e+00
 1.1441997286e+00	 1.4198825644e+00	 1.8116303763e+00
 1.1164031936e+00	 1.4418402911e+00	 6.3764537202e+00
 1.0882203192e+00	 1.4632279564e+00	 1.1238359436e+01
 1.0531164379e+00	 1.4160270546e+00	 1.8532989480e+01
 1.0254857314e+00	 1.4361635930e+00	 1.8965575456e+01
 9.9751529505e-01	 1.4557300874e+00	 1.9883622180e+01
 9.6922262951e-01	 1.4747183954e+00	 2.1536048504e+01
 9.4062547324e-01	 1.4931210836e+00	 2.3890174712e+01
 9.1174176730e-01	 1.5109314349e+00	 2.6933403963e+01
 1.0601372142e+00	 1.4254672350e+00	 1.7789096001e+01
 1.0323223029e+00	 1.4457380170e+00	 1.7721656104e+01
 1.0041653970e+00	 1.4654349546e+00	 1.8445316083e+01
 9.7568411370e-01	 1.4845498513e+00	 1.9980079024e+01
 9.4689630973e-01	 1.5030752242e+00	 2.2302517441e+01
 9.1782004575e-01	 1.5210043111e+00	 2.5407138028e+01
 1.0671579905e+00	 1.4349074153e+00	 1.6983304524e+01
 1.0391588745e+00	 1.4553124409e+00	 1.6589406319e+01
 1.0108154990e+00	 1.4751398219e+00	 1.7093609137e+01
 9.8214559790e-01	 1.4943813073e+00	 1.8471500065e+01
 9.5316714622e-01	 1.5130293647e+00	 2.0715216383e+01
 9.2389832420e-01	 1.5310771874e+00	 2.3833086965e+01
 1.0741787667e+00	 1.4443475957e+00	 1.5581087901e+01
 1.0459954460e+00	 1.4648868649e+00	 1.5566107810e+01
 1.0174656010e+00	 1.4848446891e+00	 1.5826026171e+01
 9.8860708210e-01	 1.5042127633e+00	 1.7010259843e+01
 9.5943798271e-01	 1.5229835053e+00	 1.9132701349e+01
 9.2997660265e-01	 1.5411500636e+00	 2.2222093029e+01
 1.0811995430e+00	 1.4537877760e+00	 1.3323853638e+01
 1.0528320175e+00	 1.4744612888e+00	 1.4649212953e+01
 1.0241157029e+00	 1.4945495564e+00	 1.4640254279e+01
 9.9506856629e-01	 1.5140442193e+00	 1.5596403649e+01
 9.6570881920e-01	 1.5329376458e+00	 1.7559380431e+01
 9.3605488110e-01	 1.5512229398e+00	 2.0584807664e+01
 1.0882203192e+00	 1.4632279564e+00	 1.1238359436e+01
 1.0596685891e+00	 1.4840357128e+00	 1.3836339281e+01
 1.0307658049e+00	 1.5042544236e+00	 1.3534137585e+01
 1.0015300505e+00	 1.5238756752e+00	 1.4230070720e+01
 9.7197965568e-01	 1.5428917864e+00	 1.5999640701e+01
 9.4213315955e-01	 1.5612958161e+00	 1.8931697663e+01
 9.1174176730e-01	 1.5109314349e+00	 2.6933403963e+01
 8.8258961968e-01	 1.5281434535e+00	 3.0057309364e+01
 8.5318726972e-01	 1.5447518681e+00	 3.2696306720e+01
 8.2355305267e-01	 1.5607521330e+00	 3.4909693392e+01
 7.9370536447e-01	 1.5761404270e+00	 3.6746819000e+01
 7.6366262696e-01	 1.5909136505e+00	 3.8246717215e+01
 9.1782004575e-01	 1.5210043111e+00	 2.5407138028e+01
 8.8847355048e-01	 1.5383310765e+00	 2.8626749153e+01
 8.5887518485e-01	 1.5550502139e+00	 3.1327824758e+01
 8.2904340635e-01	 1.5711571472e+00	 3.3563006505e+01
 7.9899673357e-01	 1.5866480298e+00	 3.5377144488e+01
 7.6875371114e-01	 1.6015197415e+00	 3.6806902700e+01
 9.2389832420e-01	 1.5310771874e+00	 2.3833086965e+01
 8.9435748127e-01	 1.5485186995e+00	 2.7112583857e+01
 8.6456309998e-01	 1.5653485597e+00	 2.9858893102e+01
 8.3453376004e-01	 1.5815621614e+00	 3.2114219717e+01
 8.0428810266e-01	 1.5971556327e+00	 3.3914341160e+01
 7.7384479532e-01	 1.6121258325e+00	 3.5288227432e+01
 9.2997660265e-01	 1.5411500636e+00	 2.2222093029e+01
 9.0024141207e-01	 1.5587063226e+00	 2.5531025220e+01
 8.7025101511e-01	 1.5756469055e+00	 2.8307215691e+01
 8.4002411372e-01	 1.5919671757e+00	 3.0578737905e+01
 8.0957947176e-01	 1.6076632355e+00	 3.2367819836e+01
 7.7893587950e-01	 1.6227319235e+00	 3.3690519184e+01
 9.3605488110e-01	 1.5512229398e+00	 2.0584807664e+01
 9.0612534287e-01	 1.5688939456e+00	 2.3897952045e+01
 8.7593893024e-01	 1.5859452513e+00	 2.6690121981e+01
 8.4551446741e-01	 1.6023721899e+00	 2.8971648287e+01
 8.1487084086e-01	 1.6181708384e+00	 3.0746826369e+01
 7.8402696368e-01	 1.6333380145e+00	 3.2013686595e+01
 9.4213315955e-01	 1.5612958161e+00	 1.8931697663e+01
 9.1200927367e-01	 1.5790815686e+00	 2.2228920936e+01
 8.8162684538e-01	 1.5962435970e+00	 2.5024579029e+01
 8.5100482109e-01	 1.6127772041e+00	 2.7307730669e+01
 8.2016220995e-01	 1.6286784412e+00	 2.9060446970e+01
 7.8911804786e-01	 1.6439441055e+00	 3.0257716561e+01
 7.6366262696e-01	 1.5909136505e+00	 3.8246717215e+01
 7.3344325360e-01	 1.6050694206e+00	 3.9913423174e+01
 7.0306561583e-01	 1.6186060642e+00	 4.0544340457e+01
 6.7254801021e-01	 1.6315226095e+00	 3.8633557169e+01
 6.4190862643e-01	 1.6438187755e+00	 3.7166741973e+01
 6.1116551624e-01	 1.6554949601e+00	 3.6286904568e+01
 7.6875371114e-01	 1.6015197415e+00	 3.6806902700e+01
 7.3833287529e-01	 1.6157698834e+00	 3.8376182503e+01
 7.0775271993e-01	 1.6293967713e+00	 3.9623881684e+01
 6.7703166361e-01	 1.6423994269e+00	 3.7554033027e+01
 6.4618801727e-01	 1.6547775673e+00	 3.5964291561e+01
 6.1523995301e-01	 1.6665315932e+00	 3.5001158581e+01
 7.7384479532e-01	 1.6121258325e+00	 3.5288227432e+01
 7.4322249698e-01	 1.6264703462e+00	 3.6768233265e+01
 7.1243982404e-01	 1.6401874784e+00	 3.8656907764e+01
 6.8151531701e-01	 1.6532762443e+00	 3.6422632078e+01
 6.5046740811e-01	 1.6657363591e+00	 3.4696499242e+01
 6.1931438979e-01	 1.6775682263e+00	 3.3632196509e+01
 7.7893587950e-01	 1.6227319235e+00	 3.3690519184e+01
 7.4811211867e-01	 1.6371708090e+00	 3.5080882883e+01
 7.1712692814e-01	 1.6509781855e+00	 3.7158131264e+01
 6.8599897041e-01	 1.6641530616e+00	 3.5223042396e+01
 6.5474679895e-01	 1.6766951510e+00	 3.3355458688e+01
 6.2338882656e-01	 1.6886048593e+00	 3.2185949599e+01
 7.8402696368e-01	 1.6333380145e+00	 3.2013686595e+01
 7.5300174036e-01	 1.6478712718e+00	 3.3305737790e+01
 7.2181403225e-01	 1.6617688926e+00	 3.5261489017e+01
 6.9048262381e-01	 1.6750298790e+00	 3.3939251069e+01
 6.5902618980e-01	 1.6876539428e+00	 3.1933347463e+01
 6.2746326334e-01	 1.6996414924e+00	 3.0668077096e+01
 7.8911804786e-01	 1.6439441055e+00	 3.0257716561e+01
 7.5789136205e-01	 1.6585717346e+00	 3.1434693786e+01
 7.2650113635e-01	 1.6725595997e+00	 3.3255343850e+01
 6.9496627722e-01	 1.6859066964e+00	 3.2555534558e+01
 6.6330558064e-01	 1.6986127346e+00	 3.0422424312e+01
 6.3153770011e-01	 1.7106781255e+00	 2.9083975020e+01
 6.1116551624e-01	 1.6554949601e+00	 3.6286904568e+01
 5.8033656351e-01	 1.6665522267e+00	 3.5539564230e+01
 5.4943945541e-01	 1.6769922886e+00	 3.4332449416e+01
 5.1849165479e-01	 1.6868174931e+00	 3.2589952760e+01
 4.8751037386e-01	 1.6960308036e+00	 3.0235261672e+01
 4.5651254928e-01	 1.7046357803e+00	 2.7191140399e+01
 6.1523995301e-01	 1.6665315932e+00	 3.5001158581e+01
 5.8420547394e-01	 1.6776625749e+00	 3.4230709864e+01
 5.5310238512e-01	 1.6881722372e+00	 3.3073125140e+01
 5.2194826582e-01	 1.6980629431e+00	 3.1443934567e+01
 4.9076044301e-01	 1.7073376756e+00	 2.9259325932e+01
 4.5955596628e-01	 1.7160000189e+00	 2.6436909152e+01
 6.1931438979e-01	 1.6775682263e+00	 3.3632196509e+01
 5.8807438436e-01	 1.6887729230e+00	 3.2826148262e+01
 5.5676531482e-01	 1.6993521858e+00	 3.1717464701e+01
 5.2540487685e-01	 1.7093083930e+00	 3.0211304811e+01
 4.9401051217e-01	 1.7186445476e+00	 2.8213999004e+01
 4.6259938327e-01	 1.7273642574e+00	 2.5633855687e+01
 6.2338882656e-01	 1.6886048593e+00	 3.2185949599e+01
 5.9194329478e-01	 1.6998832712e+00	 3.1344953086e+01
 5.6042824452e-01	 1.7105321344e+00	 3.0290957562e+01
 5.2886148788e-01	 1.7205538430e+00	 2.8917307704e+01
 4.9726058133e-01	 1.7299514196e+00	 2.7117701560e+01
 4.6564280027e-01	 1.7387284959e+00	 2.4787098110e+01
 6.2746326334e-01	 1.6996414924e+00	 3.0668077096e+01
 5.9581220521e-01	 1.7109936194e+00	 2.9805588483e+01
 5.6409117423e-01	 1.7217120830e+00	 2.8818321169e+01
 5.3231809891e-01	 1.7317992929e+00	 2.7586426248e+01
 5.0051065049e-01	 1.7412582916e+00	 2.5988275010e+01
 4.6868621726e-01	 1.7500927345e+00	 2.3901525769e+01
 6.3153770011e-01	 1.7106781255e+00	 2.9083975020e+01
 5.9968111563e-01	 1.7221039676e+00	 2.8225928736e+01
 5.6775410393e-01	 1.7328920316e+00	 2.7323525849e+01
 5.3577470994e-01	 1.7430447429e+00	 2.6242406785e+01
 5.0376071965e-01	 1.7525651637e+00	 2.4843000187e+01
 4.7172963426e-01	 1.7614569730e+00	 2.2981806628e+01
 4.5651254928e-01	 1.7046357803e+00	 2.7191140399e+01
 4.2551481859e-01	 1.7126365611e+00	 2.3528056701e+01
 3.9453349807e-01	 1.7200378397e+00	 1.9437372401e+01
 3.6358456216e-01	 1.7268448446e+00	 1.5019895979e+01
 3.3268362429e-01	 1.7330633160e+00	 1.5026132438e+01
 3.0184591929e-01	 1.7386994830e+00	 1.5490171370e+01
 4.5955596628e-01	 1.7160000189e+00	 2.6436909152e+01
 4.2835158404e-01	 1.7240541382e+00	 2.3033675752e+01
 3.9716372139e-01	 1.7315047587e+00	 1.9228892785e+01
 3.6600845924e-01	 1.7383571436e+00	 1.5120285875e+01
 3.3490151512e-01	 1.7446170715e+00	 1.4845380482e+01
 3.0385822542e-01	 1.7502908129e+00	 1.5413247863e+01
 4.6259938327e-01	 1.7273642574e+00	 2.5633855687e+01
 4.3118834950e-01	 1.7354717152e+00	 2.2504480968e+01
 3.9979394471e-01	 1.7429716776e+00	 1.8989655802e+01
 3.6843235632e-01	 1.7498694425e+00	 1.5189378791e+01
 3.3711940594e-01	 1.7561708269e+00	 1.4665072591e+01
 3.0587053155e-01	 1.7618821428e+00	 1.5335220917e+01
 4.6564280027e-01	 1.7387284959e+00	 2.4787098110e+01
 4.3402511496e-01	 1.7468892923e+00	 2.1931601324e+01
 4.0242416803e-01	 1.7544385965e+00	 1.8701742436e+01
 3.7085625340e-01	 1.7613817415e+00	 1.5205004934e+01
 3.3933729677e-01	 1.7677245823e+00	 1.4465564891e+01
 3.0788283768e-01	 1.7734734727e+00	 1.5241170072e+01
 4.6868621726e-01	 1.7500927345e+00	 2.3901525769e+01
 4.3686188042e-01	 1.7583068694e+00	 2.1306305622e+01
 4.0505439135e-01	 1.7659055155e+00	 1.8347613981e+01
 3.7328015048e-01	 1.7728940405e+00	 1.5145490911e+01
 3.4155518760e-01	 1.7792783378e+00	 1.4227705611e+01
 3.0989514381e-01	 1.7850648026e+00	 1.5116546503e+01
 4.7172963426e-01	 1.7614569730e+00	 2.2981806628e+01
 4.3969864587e-01	 1.7697244465e+00	 2.0619997979e+01
 4.0768461467e-01	 1.7773724344e+00	 1.7910099766e+01
 3.7570404756e-01	 1.7844063394e+00	 1.4989643726e+01
 3.4377307843e-01	 1.7908320932e+00	 1.3895609740e+01
 3.1190744993e-01	 1.7966561324e+00	 1.4717322115e+01
 3.0184591929e-01	 1.7386994830e+00	 1.5490171370e+01
 2.7108628733e-01	 1.7437600397e+00	 1.5120056142e+01
 2.4041915932e-01	 1.7482521211e+00	 1.3768620130e+01
 2.0985854392e-01	 1.7521832789e+00	 1.1299709977e+01
 1.7941801602e-01	 1.7555614563e+00	 7.5876406440e+00
 1.4911070670e-01	 1.7583949637e+00	 2.5173998208e+00
 3.0385822542e-01	 1.7502908129e+00	 1.5413247863e+01
 2.7289352924e-01	 1.7553851066e+00	 1.5105367523e+01
 2.4202195371e-01	 1.7599071353e+00	 1.3784246315e+01
 2.1125760088e-01	 1.7638645007e+00	 1.1332562700e+01
 1.8061413613e-01	 1.7672651993e+00	 7.6445089259e+00
 1.5010477808e-01	 1.7701175968e+00	 2.6258556958e+00
 3.0587053155e-01	 1.7618821428e+00	 1.5335220917e+01
 2.7470077116e-01	 1.7670101736e+00	 1.5106418972e+01
 2.4362474811e-01	 1.7715621494e+00	 1.3848636723e+01
 2.1265665784e-01	 1.7755457226e+00	 1.1451217209e+01
 1.8181025623e-01	 1.7789689424e+00	 7.8162709017e+00
 1.5109884946e-01	 1.7818402299e+00	 2.8586518366e+00
 3.0788283768e-01	 1.7734734727e+00	 1.5241170072e+01
 2.7650801307e-01	 1.7786352405e+00	 1.5114759714e+01
 2.4522754250e-01	 1.7832171636e+00	 1.3959113799e+01
 2.1405571480e-01	 1.7872269444e+00	 1.1612288346e+01
 1.8300637634e-01	 1.7906726854e+00	 7.9671491523e+00
 1.5209292083e-01	 1.7935628630e+00	 3.0410657233e+00
 3.0989514381e-01	 1.7850648026e+00	 1.5116546503e+01
 2.7831525499e-01	 1.7902603074e+00	 1.5000973278e+01
 2.4683033690e-01	 1.7948721777e+00	 1.3814735812e+01
 2.1545477176e-01	 1.7989081663e+00	 1.1497772959e+01
 1.8420249645e-01	 1.8023764284e+00	 7.9808177803e+00
 1.5308699221e-01	 1.8052854961e+00	 3.1968894781e+00
 3.1190744993e-01	 1.7966561324e+00	 1.4717322115e+01
 2.8012249690e-01	 1.8018853744e+00	 1.4621570015e+01
 2.4843313129e-01	 1.8065271918e+00	 1.3540567547e+01
 2.1685382872e-01	 1.8105893882e+00	 1.1375419490e+01
 1.8539861655e-01	 1.8140801715e+00	 8.0305452335e+00
 1.5408106359e-01	 1.8170081292e+00	 3.4142411944e+00
 1.4911070670e-01	 1.7583949637e+00	 2.5173998208e+00
 1.1894929466e-01	 1.7606924537e+00	-2.0405377039e+00
 8.8945999118e-02	 1.7624628962e+00	-3.8522391202e+00
 5.9112574035e-02	 1.7637155538e+00	-2.4917438949e+00
 2.9460303771e-02	 1.7644599575e+00	 2.4496746972e+00
 0.0000000000e+00	 1.7647058824e+00	 1.1362569600e+01
 1.5010477808e-01	 1.7701175968e+00	 2.6258556958e+00
 1.1974228996e-01	 1.7724304034e+00	-1.8652810054e+00
 8.9538972446e-02	 1.7742126488e+00	-3.6384905508e+00
 5.9506657862e-02	 1.7754736575e+00	-2.2932509997e+00
 2.9656705796e-02	 1.7762230239e+00	 2.5537247796e+00
 0.0000000000e+00	 1.7764705882e+00	 1.1267664099e+01
 1.5109884946e-01	 1.7818402299e+00	 2.8586518366e+00
 1.2053528526e-01	 1.7841683531e+00	-1.5888895783e+00
 9.0131945773e-02	 1.7859624015e+00	-3.3736241885e+00
 5.9900741689e-02	 1.7872317612e+00	-2.0811368562e+00
 2.9853107821e-02	 1.7879860903e+00	 2.6676973841e+00
 0.0000000000e+00	 1.7882352941e+00	 1.1206252041e+01
 1.5209292083e-01	 1.7935628630e+00	 3.0410657233e+00
 1.2132828056e-01	 1.7959063028e+00	-1.3509764303e+00
 9.0724919101e-02	 1.7977121541e+00	-3.0803014850e+00
 6.0294825516e-02	 1.7989898649e+00	-1.7514565654e+00
 3.0049509846e-02	 1.7997491567e+00	 3.0005902034e+00
 0.0000000000e+00	 1.8000000000e+00	 1.1510519361e+01
 1.5308699221e-01	 1.8052854961e+00	 3.1968894781e+00
 1.2212127585e-01	 1.8076442525e+00	-1.0938144418e+00
 9.1317892428e-02	 1.8094619068e+00	-2.7938398363e+00
 6.0688909343e-02	 1.8107479686e+00	-1.4872119473e+00
 3.0245911871e-02	 1.8115122231e+00	 3.2088001929e+00
 0.0000000000e+00	 1.8117647059e+00	 1.1643797898e+01
 1.5408106359e-01	 1.8170081292e+00	 3.4142411944e+00
 1.2291427115e-01	 1.8193822022e+00	-7.8404502324e-01
 9.1910865755e-02	 1.8212116594e+00	-2.4963970865e+00
 6.1082993169e-02	 1.8225060723e+00	-1.2712557803e+00
 3.0442313896e-02	 1.8232752894e+00	 3.3060357636e+00
 0.0000000000e+00	 1.8235294118e+00	 1.1613361656e+01
 1.8235294118e+00	 0.0000000000e+00	 5.5838717426e+01
 1.8232752894e+00	 3.0442313896e-02	 4.9771119210e+01
 1.8225060723e+00	 6.1082993169e-02	 4.5454411103e+01
 1.8212116594e+00	 9.1910865755e-02	 4.2031727094e+01
 1.8193822022e+00	 1.2291427115e-01	 3.8644598566e+01
 1.8170081292e+00	 1.5408106359e-01	 3.4437094340e+01
 1.8352941176e+00	 0.0000000000e+00	 5.5468625271e+01
 1.8350383558e+00	 3.0638715922e-02	 4.9304351082e+01
 1.8342641760e+00	 6.1477076996e-02	 4.5048677483e+01
 1.8329614120e+00	 9.2503839083e-02	 4.1789739231e+01
 1.8311201518e+00	 1.2370726645e-01	 3.8612412223e+01
 1.8287307622e+00	 1.5507513497e-01	 3.4602693836e+01
 1.8470588235e+00	 0.0000000000e+00	 5.4965800277e+01
 1.8468014222e+00	 3.0835117947e-02	 4.8798213622e+01
 1.8460222797e+00	 6.1871160823e-02	 4.4620299128e+01
 1.8447111647e+00	 9.3096812410e-02	 4.1495257521e+01
 1.8428581015e+00	 1.2450026175e-01	 3.8482076979e+01
 1.8404533953e+00	 1.5606920635e-01	 3.4640034128e+01
 1.8588235294e+00	 0.0000000000e+00	 5.4328723301e+01
 1.8585644886e+00	 3.1031519972e-02	 4.8253154649e+01
 1.8577803834e+00	 6.2265244650e-02	 4.4171578228e+01
 1.8564609173e+00	 9.3689785738e-02	 4.1151741258e+01
 1.8545960512e+00	 1.2529325705e-01	 3.8256916145e+01
 1.8521760284e+00	 1.5706327772e-01	 3.4550403713e+01
 1.8705882353e+00	 0.0000000000e+00	 5.3555913420e+01
 1.8703275550e+00	 3.1227921997e-02	 4.7669612187e+01
 1.8695384871e+00	 6.2659328477e-02	 4.3704761776e+01
 1.8682106700e+00	 9.4282759065e-02	 4.0762566443e+01
 1.8663340009e+00	 1.2608625234e-01	 3.7940173931e+01
 1.8638986615e+00	 1.5805734910e-01	 3.4335063707e+01
 1.8823529412e+00	 0.0000000000e+00	 5.2645926731e+01
 1.8820906214e+00	 3.1424324022e-02	 4.7048014773e+01
 1.8812965907e+00	 6.3053412304e-02	 4.3222043292e+01
 1.8799604226e+00	 9.4875732393e-02	 4.0331028388e+01
 1.8780719506e+00	 1.2687924764e-01	 3.7535017924e+01
 1.8756212946e+00	 1.5905142048e-01	 3.3995248702e+01
 1.8170081292e+00	 1.5408106359e-01	 3.4437094340e+01
 1.8140801715e+00	 1.8539861655e-01	 2.9463577140e+01
 1.8105893882e+00	 2.1685382872e-01	 2.4506103832e+01
 1.8065271918e+00	 2.4843313129e-01	 1.9815083121e+01
 1.8018853744e+00	 2.8012249690e-01	 1.5654458014e+01
 1.7966561324e+00	 3.1190744993e-01	 1.2301340192e+01
 1.8287307622e+00	 1.5507513497e-01	 3.4602693836e+01
 1.8257839145e+00	 1.8659473666e-01	 2.9716255078e+01
 1.8222706100e+00	 2.1825288567e-01	 2.4716039469e+01
 1.8181822060e+00	 2.5003592569e-01	 1.9913837436e+01
 1.8135104413e+00	 2.8192973882e-01	 1.5636085591e+01
 1.8082474623e+00	 3.1391975606e-01	 1.2223219637e+01
 1.8404533953e+00	 1.5606920635e-01	 3.4640034128e+01
 1.8374876576e+00	 1.8779085677e-01	 2.9848667438e+01
 1.8339518319e+00	 2.1965194263e-01	 2.4840857747e+01
 1.8298372201e+00	 2.5163872008e-01	 1.9970997397e+01
 1.8251355082e+00	 2.8373698074e-01	 1.5608997403e+01
 1.8198387922e+00	 3.1593206219e-01	 1.2139444650e+01
 1.8521760284e+00	 1.5706327772e-01	 3.4550403713e+01
 1.8491914006e+00	 1.8898697687e-01	 2.9859173073e+01
 1.8456330537e+00	 2.2105099959e-01	 2.4876744477e+01
 1.8414922343e+00	 2.5324151448e-01	 1.9981695005e+01
 1.8367605751e+00	 2.8554422265e-01	 1.5568757970e+01
 1.8314301221e+00	 3.1794436832e-01	 1.2047869295e+01
 1.8638986615e+00	 1.5805734910e-01	 3.4335063707e+01
 1.8608951436e+00	 1.9018309698e-01	 2.9746177434e+01
 1.8573142756e+00	 2.2245005655e-01	 2.4819986764e+01
 1.8531472484e+00	 2.5484430887e-01	 1.9941189831e+01
 1.8483856421e+00	 2.8735146457e-01	 1.5511048009e+01
 1.8430214520e+00	 3.1995667445e-01	 1.1946405476e+01
 1.8756212946e+00	 1.5905142048e-01	 3.3995248702e+01
 1.8725988867e+00	 1.9137921709e-01	 2.9508131118e+01
 1.8689954975e+00	 2.2384911351e-01	 2.4666969841e+01
 1.8648022625e+00	 2.5644710327e-01	 1.9844865028e+01
 1.8600107090e+00	 2.8915870648e-01	 1.5431660797e+01
 1.8546127819e+00	 3.2196898058e-01	 1.1833021129e+01
 1.7966561324e+00	 3.1190744993e-01	 1.2301340192e+01
 1.7908320932e+00	 3.4377307843e-01	 9.7196027421e+00
 1.7844063394e+00	 3.7570404756e-01	 6.9144455863e+00
 1.7773724344e+00	 4.0768461467e-01	 4.2037114365e+00
 1.7697244465e+00	 4.3969864587e-01	 1.2539547939e+00
 1.7614569730e+00	 4.7172963426e-01	-1.8410993290e+00
 1.8082474623e+00	 3.1391975606e-01	 1.2223219637e+01
 1.8023858487e+00	 3.4599096926e-01	 9.6881660473e+00
 1.7959186384e+00	 3.7812794464e-01	 6.6746166154e+00
 1.7888393533e+00	 4.1031483799e-01	 2.9335511893e+00
 1.7811420235e+00	 4.4253541133e-01	-2.2580372650e-01
 1.7728212115e+00	 4.7477305125e-01	-3.0048983190e+00
 1.8198387922e+00	 3.1593206219e-01	 1.2139444650e+01
 1.8139396041e+00	 3.4820886009e-01	 9.6162358197e+00
 1.8074309374e+00	 3.8055184173e-01	 6.5964707662e+00
 1.8003062723e+00	 4.1294506131e-01	 3.0163310495e+00
 1.7925596006e+00	 4.4537217679e-01	-7.5749453130e-01
 1.7841854501e+00	 4.7781646825e-01	-4.4556762677e+00
 1.8314301221e+00	 3.1794436832e-01	 1.2047869295e+01
 1.8254933595e+00	 3.5042675092e-01	 9.5044209622e+00
 1.8189432363e+00	 3.8297573881e-01	 6.4349613214e+00
 1.8117731912e+00	 4.1557528463e-01	 2.9529478232e+00
 1.8039771777e+00	 4.4820894224e-01	-6.9683752091e-01
 1.7955496886e+00	 4.8085988524e-01	-4.5218020001e+00
 1.8430214520e+00	 3.1995667445e-01	 1.1946405476e+01
 1.8370471150e+00	 3.5264464174e-01	 9.3533178960e+00
 1.8304555353e+00	 3.8539963589e-01	 6.1918733302e+00
 1.8232401101e+00	 4.1820550795e-01	 2.7449874760e+00
 1.8153947548e+00	 4.5104570770e-01	-8.4042751720e-01
 1.8069139271e+00	 4.8390330224e-01	-4.5773755522e+00
 1.8546127819e+00	 3.2196898058e-01	 1.1833021129e+01
 1.8486008704e+00	 3.5486253257e-01	 9.1635109504e+00
 1.8419678343e+00	 3.8782353297e-01	 5.8689446712e+00
 1.8347070290e+00	 4.2083573127e-01	 2.3939937882e+00
 1.8268123318e+00	 4.5388247316e-01	-1.1887503336e+00
 1.8182781657e+00	 4.8694671923e-01	-4.8841234666e+00
 1.7614569730e+00	 4.7172963426e-01	-1.8410993290e+00
 1.7525651637e+00	 5.0376071965e-01	-4.9175908452e+00
 1.7430447429e+00	 5.3577470994e-01	-7.8579373350e+00
 1.7328920316e+00	 5.6775410393e-01	-1.0635998845e+01
 1.7221039676e+00	 5.9968111563e-01	-1.3221192073e+01
 1.7106781255e+00	 6.3153770011e-01	-1.5578189584e+01
 1.7728212115e+00	 4.7477305125e-01	-3.0048983190e+00
 1.7638720357e+00	 5.0701078881e-01	-5.8366739510e+00
 1.7542901929e+00	 5.3923132098e-01	-8.5932870805e+00
 1.7440719802e+00	 5.7141703363e-01	-1.1244810839e+01
 1.7332143157e+00	 6.0355002605e-01	-1.3758240446e+01
 1.7217147585e+00	 6.3561213689e-01	-1.6097250417e+01
 1.7841854501e+00	 4.7781646825e-01	-4.4556762677e+00
 1.7751789077e+00	 5.1026085797e-01	-7.0437489131e+00
 1.7655356428e+00	 5.4268793201e-01	-9.6012955043e+00
 1.7552519287e+00	 5.7507996333e-01	-1.2098868858e+01
 1.7443246639e+00	 6.0741893648e-01	-1.4504926892e+01
 1.7327513916e+00	 6.3968657366e-01	-1.6785613264e+01
 1.7955496886e+00	 4.8085988524e-01	-4.5218020001e+00
 1.7864857797e+00	 5.1351092713e-01	-8.4209200046e+00
 1.7767810928e+00	 5.4614454304e-01	-1.0891461708e+01
 1.7664318773e+00	 5.7874289304e-01	-1.3207769085e+01
 1.7554350121e+00	 6.1128784690e-01	-1.5468654675e+01
 1.7437880247e+00	 6.4376101044e-01	-1.7646119307e+01
 1.8069139271e+00	 4.8390330224e-01	-4.5773755522e+00
 1.7977926518e+00	 5.1676099629e-01	-8.3717797758e+00
 1.7880265427e+00	 5.4960115407e-01	-1.2111995776e+01
 1.7776118259e+00	 5.8240582274e-01	-1.4580807761e+01
 1.7665453603e+00	 6.1515675732e-01	-1.6656579656e+01
 1.7548246577e+00	 6.4783544721e-01	-1.8681474588e+01
 1.8182781657e+00	 4.8694671923e-01	-4.8841234666e+00
 1.8090995238e+00	 5.2001106545e-01	-8.5951698199e+00
 1.7992719927e+00	 5.5305776510e-01	-1.2220796640e+01
 1.7887917745e+00	 5.8606875244e-01	-1.5764774390e+01
 1.7776557085e+00	 6.1902566775e-01	-1.8075618031e+01
 1.7658612908e+00	 6.5190988399e-01	-1.9894254240e+01
 1.7106781255e+00	 6.3153770011e-01	-1.5578189584e+01
 1.6986127346e+00	 6.6330558064e-01	-1.7767620673e+01
 1.6859066964e+00	 6.9496627722e-01	-1.9818827600e+01
 1.6725595997e+00	 7.2650113635e-01	-2.1875931435e+01
 1.6585717346e+00	 7.5789136205e-01	-2.4098860939e+01
 1.6439441055e+00	 7.8911804786e-01	-2.6061018477e+01
 1.7217147585e+00	 6.3561213689e-01	-1.6097250417e+01
 1.7095715265e+00	 6.6758497148e-01	-1.8314899586e+01
 1.6967835138e+00	 6.9944993062e-01	-2.0423312840e+01
 1.6833503068e+00	 7.3118824046e-01	-2.2629436359e+01
 1.6692721974e+00	 7.6278098374e-01	-2.4915081035e+01
 1.6545501965e+00	 7.9420913204e-01	-2.6920235090e+01
 1.7327513916e+00	 6.3968657366e-01	-1.6785613264e+01
 1.7205303183e+00	 6.7186436233e-01	-1.8985391642e+01
 1.7076603312e+00	 7.0393358402e-01	-2.1099904001e+01
 1.6941410139e+00	 7.3587534456e-01	-2.3400151774e+01
 1.6799726602e+00	 7.6767060543e-01	-2.5708777071e+01
 1.6651562875e+00	 7.9930021622e-01	-2.7732040425e+01
 1.7437880247e+00	 6.4376101044e-01	-1.7646119307e+01
 1.7314891101e+00	 6.7614375317e-01	-1.9777197434e+01
 1.7185371486e+00	 7.0841723742e-01	-2.1843951689e+01
 1.7049317210e+00	 7.4056244867e-01	-2.4183815341e+01
 1.6906731230e+00	 7.7256022712e-01	-2.6476622319e+01
 1.6757623785e+00	 8.0439130040e-01	-2.8495674403e+01
 1.7548246577e+00	 6.4783544721e-01	-1.8681474588e+01
 1.7424479020e+00	 6.8042314401e-01	-2.0688399299e+01
 1.7294139660e+00	 7.1290089082e-01	-2.2650855197e+01
 1.7157224280e+00	 7.4524955278e-01	-2.4976233242e+01
 1.7013735858e+00	 7.7744984881e-01	-2.7215334313e+01
 1.6863684695e+00	 8.0948238458e-01	-2.9210356021e+01
 1.7658612908e+00	 6.5190988399e-01	-1.9894254240e+01
 1.7534066938e+00	 6.8470253485e-01	-2.1717061895e+01
 1.7402907834e+00	 7.1738454422e-01	-2.3558437385e+01
 1.7265131351e+00	 7.4993665688e-01	-2.5773278041e+01
 1.7120740486e+00	 7.8233947050e-01	-2.7921673463e+01
 1.6969745605e+00	 8.1457346876e-01	-2.9875284009e+01
 1.6439441055e+00	 7.8911804786e-01	-2.6061018477e+01
 1.6286784412e+00	 8.2016220995e-01	-2.7654453008e+01
 1.6127772041e+00	 8.5100482109e-01	-2.8843602929e+01
 1.5962435970e+00	 8.8162684538e-01	-2.9621742948e+01
 1.5790815686e+00	 9.1200927367e-01	-2.9981246339e+01
 1.5612958161e+00	 9.4213315955e-01	-2.9913493234e+01
 1.6545501965e+00	 7.9420913204e-01	-2.6920235090e+01
 1.6391860441e+00	 8.2545357905e-01	-2.8532879039e+01
 1.6231822183e+00	 8.5649517478e-01	-2.9730058259e+01
 1.6065419428e+00	 8.8731476051e-01	-3.0511648988e+01
 1.5892691916e+00	 9.1789320446e-01	-3.0876660327e+01
 1.5713686923e+00	 9.4821143799e-01	-3.0823102202e+01
 1.6651562875e+00	 7.9930021622e-01	-2.7732040425e+01
 1.6496936469e+00	 8.3074494815e-01	-2.9359582937e+01
 1.6335872325e+00	 8.6198552846e-01	-3.0577087393e+01
 1.6168402886e+00	 8.9300267564e-01	-3.1383676587e+01
 1.5994568147e+00	 9.2377713526e-01	-3.1777286363e+01
 1.5814415685e+00	 9.5428971644e-01	-3.1754529179e+01
 1.6757623785e+00	 8.0439130040e-01	-2.8495674403e+01
 1.6602012498e+00	 8.3603631724e-01	-3.0136459993e+01
 1.6439922468e+00	 8.6747588215e-01	-3.1387965152e+01
 1.6271386344e+00	 8.9869059077e-01	-3.2241343740e+01
 1.6096444377e+00	 9.2966106606e-01	-3.2685893307e+01
 1.5915144448e+00	 9.6036799489e-01	-3.2708949854e+01
 1.6863684695e+00	 8.0948238458e-01	-2.9210356021e+01
 1.6707088526e+00	 8.4132768634e-01	-3.0865317265e+01
 1.6543972610e+00	 8.7296623583e-01	-3.2165843029e+01
 1.6374369802e+00	 9.0437850590e-01	-3.3088038708e+01
 1.6198320607e+00	 9.3554499686e-01	-3.3605138966e+01
 1.6015873210e+00	 9.6644627334e-01	-3.3687468880e+01
 1.6969745605e+00	 8.1457346876e-01	-2.9875284009e+01
 1.6812164555e+00	 8.4661905544e-01	-3.1547876342e+01
 1.6648022752e+00	 8.7845658951e-01	-3.2913753041e+01
 1.6477353260e+00	 9.1006642103e-01	-3.3927024079e+01
 1.6300196837e+00	 9.4142892766e-01	-3.4537573560e+01
 1.6116601972e+00	 9.7252455179e-01	-3.4691122090e+01
 1.5612958161e+00	 9.4213315955e-01	-2.9913493234e+01
 1.5428917864e+00	 9.7197965568e-01	-2.9478846409e+01
 1.5238756752e+00	 1.0015300505e+00	-2.8631984004e+01
 1.5042544236e+00	 1.0307658049e+00	-2.7202024977e+01
 1.4840357128e+00	 1.0596685891e+00	-2.5014874205e+01
 1.4632279564e+00	 1.0882203192e+00	-2.3018760488e+01
 1.5713686923e+00	 9.4821143799e-01	-3.0823102202e+01
 1.5528459269e+00	 9.7825049217e-01	-3.0412633940e+01
 1.5337071312e+00	 1.0079915347e+00	-2.9600914979e+01
 1.5139592909e+00	 1.0374159069e+00	-2.8222595679e+01
 1.4936101368e+00	 1.0665051606e+00	-2.6108285532e+01
 1.4726681368e+00	 1.0952410955e+00	-2.4555801723e+01
 1.5814415685e+00	 9.5428971644e-01	-3.1754529179e+01
 1.5628000675e+00	 9.8452132866e-01	-3.1371201897e+01
 1.5435385872e+00	 1.0144530189e+00	-3.0584961975e+01
 1.5236641581e+00	 1.0440660088e+00	-2.9240250563e+01
 1.5031845607e+00	 1.0733417322e+00	-2.7259299633e+01
 1.4821083171e+00	 1.1022618717e+00	-2.5976428012e+01
 1.5915144448e+00	 9.6036799489e-01	-3.2708949854e+01
 1.5727542081e+00	 9.9079216515e-01	-3.2354405073e+01
 1.5533700431e+00	 1.0209145031e+00	-3.1583895703e+01
 1.5333690254e+00	 1.0507161108e+00	-3.0255833492e+01
 1.5127589847e+00	 1.0801783037e+00	-2.8560745304e+01
 1.4915484975e+00	 1.1092826480e+00	-2.7288492940e+01
 1.6015873210e+00	 9.6644627334e-01	-3.3687468880e+01
 1.5827083486e+00	 9.9706300164e-01	-3.3362060506e+01
 1.5632014991e+00	 1.0273759873e+00	-3.2597451388e+01
 1.5430738926e+00	 1.0573662128e+00	-3.1270126112e+01
 1.5223334086e+00	 1.0870148753e+00	-2.9782593846e+01
 1.5009886779e+00	 1.1163034242e+00	-2.8499655880e+01
 1.6116601972e+00	 9.7252455179e-01	-3.4691122090e+01
 1.5926624892e+00	 1.0033338381e+00	-3.4393948656e+01
 1.5730329551e+00	 1.0338374715e+00	-3.3625329884e+01
 1.5527787599e+00	 1.0640163147e+00	-3.2283849796e+01
 1.5319078326e+00	 1.0938514468e+00	-3.0929449452e+01
 1.5104288582e+00	 1.1233242005e+00	-2.9617388067e+01
 1.4632279564e+00	 1.0882203192e+00	-2.3018760488e+01
 1.4418402911e+00	 1.1164031936e+00	-2.1092849090e+01
 1.4198825644e+00	 1.1441997286e+00	-1.9443547326e+01
 1.3973653212e+00	 1.1715927939e+00	-1.8814382996e+01
 1.3742997871e+00	 1.1985656473e+00	-1.7615543800e+01
 1.3506978509e+00	 1.2251019676e+00	-1.5812245265e+01
 1.4726681368e+00	 1.0952410955e+00	-2.4555801723e+01
 1.4511424865e+00	 1.1236057948e+00	-2.2727450386e+01
 1.4290430971e+00	 1.1515816623e+00	-2.0193315427e+01
 1.4063805813e+00	 1.1791514571e+00	-1.9631205567e+01
 1.3831662373e+00	 1.2062983289e+00	-1.8613051997e+01
 1.3594120306e+00	 1.2330058513e+00	-1.7047110195e+01
 1.4821083171e+00	 1.1022618717e+00	-2.5976428012e+01
 1.4604446819e+00	 1.1308083961e+00	-2.4227001808e+01
 1.4382036298e+00	 1.1589635960e+00	-2.1829910865e+01
 1.4153958414e+00	 1.1867101203e+00	-2.0396301025e+01
 1.3920326876e+00	 1.2140310104e+00	-1.9572541445e+01
 1.3681262103e+00	 1.2409097349e+00	-1.8258176228e+01
 1.4915484975e+00	 1.1092826480e+00	-2.7288492940e+01
 1.4697468774e+00	 1.1380109973e+00	-2.5601616588e+01
 1.4473641624e+00	 1.1663455298e+00	-2.3334250167e+01
 1.4244111016e+00	 1.1942687835e+00	-2.1114079108e+01
 1.4008991378e+00	 1.2217636920e+00	-2.0493828707e+01
 1.3768403900e+00	 1.2488136186e+00	-1.9438472060e+01
 1.5009886779e+00	 1.1163034242e+00	-2.8499655880e+01
 1.4790490728e+00	 1.1452135986e+00	-2.6861154485e+01
 1.4565246951e+00	 1.1737274635e+00	-2.4716047619e+01
 1.4334263617e+00	 1.2018274467e+00	-2.2260014902e+01
 1.4097655880e+00	 1.2294963736e+00	-2.1376655747e+01
 1.3855545697e+00	 1.2567175023e+00	-2.0581124644e+01
 1.5104288582e+00	 1.1233242005e+00	-2.9617388067e+01
 1.4883512682e+00	 1.1524161998e+00	-2.8015229713e+01
 1.4656852278e+00	 1.1811093972e+00	-2.5984773147e+01
 1.4424416218e+00	 1.2093861099e+00	-2.3709331317e+01
 1.4186320383e+00	 1.2372290552e+00	-2.2220692262e+01
 1.3942687494e+00	 1.2646213859e+00	-2.1679356107e+01
 1.3506978509e+00	 1.2251019676e+00	-1.5812245265e+01
 1.3265720444e+00	 1.2511858881e+00	-1.3822434605e+01
 1.3019355200e+00	 1.2768020275e+00	-1.2022670079e+01
 1.2768020275e+00	 1.3019355200e+00	-1.0305948835e+01
 1.2511858881e+00	 1.3265720444e+00	-8.5523601148e+00
 1.2251019676e+00	 1.3506978509e+00	-6.6300765094e+00
 1.3594120306e+00	 1.2330058513e+00	-1.7047110195e+01
 1.3351305737e+00	 1.2592580551e+00	-1.5313779417e+01
 1.3103351040e+00	 1.2850394599e+00	-1.3740946037e+01
 1.2850394599e+00	 1.3103351040e+00	-1.2201547164e+01
 1.2592580551e+00	 1.3351305737e+00	-1.0554112010e+01
 1.2330058513e+00	 1.3594120306e+00	-8.6438797422e+00
 1.3681262103e+00	 1.2409097349e+00	-1.8258176228e+01
 1.3436891030e+00	 1.2673302222e+00	-1.6787544498e+01
 1.3187346880e+00	 1.2932768923e+00	-1.5437430628e+01
 1.2932768923e+00	 1.3187346880e+00	-1.4065684716e+01
 1.2673302222e+00	 1.3436891030e+00	-1.2515211706e+01
 1.2409097349e+00	 1.3681262103e+00	-1.0615183640e+01
 1.3768403900e+00	 1.2488136186e+00	-1.9438472060e+01
 1.3522476323e+00	 1.2754023892e+00	-1.8230996868e+01
 1.3271342720e+00	 1.3015143248e+00	-1.7097764290e+01
 1.3015143248e+00	 1.3271342720e+00	-1.5886412560e+01
 1.2754023892e+00	 1.3522476323e+00	-1.4430047941e+01
 1.2488136186e+00	 1.3768403900e+00	-1.2548519521e+01
 1.3855545697e+00	 1.2567175023e+00	-2.0581124644e+01
 1.3608061617e+00	 1.2834745562e+00	-1.9631648995e+01
 1.3355338560e+00	 1.3097517572e+00	-1.8707876237e+01
 1.3097517572e+00	 1.3355338560e+00	-1.7652012443e+01
 1.2834745562e+00	 1.3608061617e+00	-1.6293083365e+01
 1.2567175023e+00	 1.3855545697e+00	-1.4448240245e+01
 1.3942687494e+00	 1.2646213859e+00	-2.1679356107e+01
 1.3693646910e+00	 1.2915467232e+00	-2.0977251126e+01
 1.3439334400e+00	 1.3179891896e+00	-2.0253975430e+01
 1.3179891896e+00	 1.3439334400e+00	-1.9350989577e+01
 1.2915467232e+00	 1.3693646910e+00	-1.8098852225e+01
 1.2646213859e+00	 1.3942687494e+00	-1.6318525791e+01
 1.2251019676e+00	 1.3506978509e+00	-6.6300765094e+00
 1.1985656473e+00	 1.3742997871e+00	-4.3805535298e+00
 1.1715927939e+00	 1.3973653212e+00	-1.6213864475e+00
 1.1441997286e+00	 1.4198825644e+00	 1.8116303763e+00
 1.1164031936e+00	 1.4418402911e+00	 6.3764537202e+00
 1.0882203192e+00	 1.4632279564e+00	 1.1238359436e+01
 1.2330058513e+00	 1.3594120306e+00	-8.6438797422e+00
 1.2062983289e+00	 1.3831662373e+00	-6.3491333014e+00
 1.1791514571e+00	 1.4063805813e+00	-3.5580304838e+00
 1.1515816623e+00	 1.4290430971e+00	-1.1116016291e-01
 1.1236057948e+00	 1.4511424865e+00	 4.6743753472e+00
 1.0952410955e+00	 1.4726681368e+00	 9.2543235041e+00
 1.2409097349e+00	 1.3681262103e+00	-1.0615183640e+01
 1.2140310104e+00	 1.3920326876e+00	-8.2870608915e+00
 1.1867101203e+00	 1.4153958414e+00	-5.4871334492e+00
 1.1589635960e+00	 1.4382036298e+00	-1.6097864606e+00
 1.1308083961e+00	 1.4604446819e+00	 3.0110640214e+00
 1.1022618717e+00	 1.4821083171e+00	 7.3069789346e+00
 1.2488136186e+00	 1.3768403900e+00	-1.2548519521e+01
 1.2217636920e+00	 1.4008991378e+00	-1.0207963286e+01
 1.1942687835e+00	 1.4244111016e+00	-7.4256870203e+00
 1.1663455298e+00	 1.4473641624e+00	-3.0701249912e+00
 1.1380109973e+00	 1.4697468774e+00	 1.3799653926e+00
 1.1092826480e+00	 1.4915484975e+00	 5.4029460377e+00
 1.2567175023e+00	 1.3855545697e+00	-1.4448240245e+01
 1.2294963736e+00	 1.4097655880e+00	-1.2125063083e+01
 1.2018274467e+00	 1.4334263617e+00	-9.0457025931e+00
 1.1737274635e+00	 1.4565246951e+00	-4.5062019558e+00
 1.1452135986e+00	 1.4790490728e+00	-2.2524437615e-01
 1.1163034242e+00	 1.5009886779e+00	 3.5487463981e+00
 1.2646213859e+00	 1.3942687494e+00	-1.6318525791e+01
 1.2372290552e+00	 1.4186320383e+00	-1.4051191124e+01
 1.2093861099e+00	 1.4424416218e+00	-1.0364634005e+01
 1.1811093972e+00	 1.4656852278e+00	-5.9316300571e+00
 1.1524161998e+00	 1.4883512682e+00	-1.8106658125e+00
 1.1233242005e+00	 1.5104288582e+00	 1.7508059604e+00
 1.0882203192e+00	 1.4632279564e+00	 1.1238359436e+01
 1.0596685891e+00	 1.4840357128e+00	 1.3836339281e+01
 1.0307658049e+00	 1.5042544236e+00	 1.3534137585e+01
 1.0015300505e+00	 1.5238756752e+00	 1.4230070720e+01
 9.7197965568e-01	 1.5428917864e+00	 1.5999640701e+01
 9.4213315955e-01	 1.5612958161e+00	 1.8931697663e+01
 1.0952410955e+00	 1.4726681368e+00	 9.2543235041e+00
 1.0665051606e+00	 1.4936101368e+00	 1.3062346731e+01
 1.0374159069e+00	 1.5139592909e+00	 1.2460314314e+01
 1.0079915347e+00	 1.5337071312e+00	 1.2889838545e+01
 9.7825049217e-01	 1.5528459269e+00	 1.4459418328e+01
 9.4821143799e-01	 1.5713686923e+00	 1.7289751176e+01
 1.1022618717e+00	 1.4821083171e+00	 7.3069789346e+00
 1.0733417322e+00	 1.5031845607e+00	 1.1856004127e+01
 1.0440660088e+00	 1.5236641581e+00	 1.1389490671e+01
 1.0144530189e+00	 1.5435385872e+00	 1.1569356481e+01
 9.8452132866e-01	 1.5628000675e+00	 1.2950774305e+01
 9.5428971644e-01	 1.5814415685e+00	 1.5677377150e+01
 1.1092826480e+00	 1.4915484975e+00	 5.4029460377e+00
 1.0801783037e+00	 1.5127589847e+00	 9.6126573332e+00
 1.0507161108e+00	 1.5333690254e+00	 1.0346323269e+01
 1.0209145031e+00	 1.5533700431e+00	 1.0291076976e+01
 9.9079216515e-01	 1.5727542081e+00	 1.1487078367e+01
 9.6036799489e-01	 1.5915144448e+00	 1.4092153200e+01
 1.1163034242e+00	 1.5009886779e+00	 3.5487463981e+00
 1.0870148753e+00	 1.5223334086e+00	 7.4557756288e+00
 1.0573662128e+00	 1.5430738926e+00	 9.3549433246e+00
 1.0273759873e+00	 1.5632014991e+00	 9.0769803618e+00
 9.9706300164e-01	 1.5827083486e+00	 1.0081454305e+01
 9.6644627334e-01	 1.6015873210e+00	 1.2531805836e+01
 1.1233242005e+00	 1.5104288582e+00	 1.7508059604e+00
 1.0938514468e+00	 1.5319078326e+00	 5.4033232781e+00
 1.0640163147e+00	 1.5527787599e+00	 8.4389730735e+00
 1.0338374715e+00	 1.5730329551e+00	 7.9485896014e+00
 1.0033338381e+00	 1.5926624892e+00	 8.7467876578e+00
 9.7252455179e-01	 1.6116601972e+00	 1.0994205804e+01
 9.4213315955e-01	 1.5612958161e+00	 1.8931697663e+01
 9.1200927367e-01	 1.5790815686e+00	 2.2228920936e+01
 8.8162684538e-01	 1.5962435970e+00	 2.5024579029e+01
 8.5100482109e-01	 1.6127772041e+00	 2.7307730669e+01
 8.2016220995e-01	 1.6286784412e+00	 2.9060446970e+01
 7.8911804786e-01	 1.6439441055e+00	 3.0257716561e+01
 9.4821143799e-01	 1.5713686923e+00	 1.7289751176e+01
 9.1789320446e-01	 1.5892691916e+00	 2.0558114204e+01
 8.8731476051e-01	 1.6065419428e+00	 2.3338437031e+01
 8.5649517478e-01	 1.6231822183e+00	 2.5599426716e+01
 8.2545357905e-01	 1.6391860441e+00	 2.7302454602e+01
 7.9420913204e-01	 1.6545501965e+00	 2.8401576488e+01
 9.5428971644e-01	 1.5814415685e+00	 1.5677377150e+01
 9.2377713526e-01	 1.5994568147e+00	 1.8897863071e+01
 8.9300267564e-01	 1.6168402886e+00	 2.1632824428e+01
 8.6198552846e-01	 1.6335872325e+00	 2.3835845078e+01
 8.3074494815e-01	 1.6496936469e+00	 2.5454772803e+01
 7.9930021622e-01	 1.6651562875e+00	 2.6431776386e+01
 9.6036799489e-01	 1.5915144448e+00	 1.4092153200e+01
 9.2966106606e-01	 1.6096444377e+00	 1.7231107963e+01
 8.9869059077e-01	 1.6271386344e+00	 1.9884867185e+01
 8.6747588215e-01	 1.6439922468e+00	 2.1996989891e+01
 8.3603631724e-01	 1.6602012498e+00	 2.3508822278e+01
 8.0439130040e-01	 1.6757623785e+00	 2.4359514419e+01
 9.6644627334e-01	 1.6015873210e+00	 1.2531805836e+01
 9.3554499686e-01	 1.6198320607e+00	 1.5541303849e+01
 9.0437850590e-01	 1.6374369802e+00	 1.8072349392e+01
 8.7296623583e-01	 1.6543972610e+00	 2.0063448205e+01
 8.4132768634e-01	 1.6707088526e+00	 2.1456316538e+01
 8.0948238458e-01	 1.6863684695e+00	 2.2195781024e+01
 9.7252455179e-01	 1.6116601972e+00	 1.0994205804e+01
 9.4142892766e-01	 1.6300196837e+00	 1.3812404166e+01
 9.1006642103e-01	 1.6477353260e+00	 1.6173692695e+01
 8.7845658951e-01	 1.6648022752e+00	 1.8016371769e+01
 8.4661905544e-01	 1.6812164555e+00	 1.9289252748e+01
 8.1457346876e-01	 1.6969745605e+00	 1.9951365405e+01
 7.8911804786e-01	 1.6439441055e+00	 3.0257716561e+01
 7.5789136205e-01	 1.6585717346e+00	 3.1434693786e+01
 7.2650113635e-01	 1.6725595997e+00	 3.3255343850e+01
 6.9496627722e-01	 1.6859066964e+00	 3.2555534558e+01
 6.6330558064e-01	 1.6986127346e+00	 3.0422424312e+01
 6.3153770011e-01	 1.7106781255e+00	 2.9083975020e+01
 7.9420913204e-01	 1.6545501965e+00	 2.8401576488e+01
 7.6278098374e-01	 1.6692721974e+00	 2.9444126250e+01
 7.3118824046e-01	 1.6833503068e+00	 3.1126693357e+01
 6.9944993062e-01	 1.6967835138e+00	 3.1071065096e+01
 6.6758497148e-01	 1.7095715265e+00	 2.8844562738e+01
 6.3561213689e-01	 1.7217147585e+00	 2.7473481558e+01
 7.9930021622e-01	 1.6651562875e+00	 2.6431776386e+01
 7.6767060543e-01	 1.6799726602e+00	 2.7335724377e+01
 7.3587534456e-01	 1.6941410139e+00	 2.8894694508e+01
 7.0393358402e-01	 1.7076603312e+00	 2.9513250640e+01
 6.7186436233e-01	 1.7205303183e+00	 2.7235364126e+01
 6.3968657366e-01	 1.7327513916e+00	 2.5865283168e+01
 8.0439130040e-01	 1.6757623785e+00	 2.4359514419e+01
 7.7256022712e-01	 1.6906731230e+00	 2.5139048545e+01
 7.4056244867e-01	 1.7049317210e+00	 2.6596316526e+01
 7.0841723742e-01	 1.7185371486e+00	 2.7908331885e+01
 6.7614375317e-01	 1.7314891101e+00	 2.5607404446e+01
 6.4376101044e-01	 1.7437880247e+00	 2.4247988545e+01
 8.0948238458e-01	 1.6863684695e+00	 2.2195781024e+01
 7.7744984881e-01	 1.7013735858e+00	 2.2882986404e+01
 7.4524955278e-01	 1.7157224280e+00	 2.4267666393e+01
 7.1290089082e-01	 1.7294139660e+00	 2.6281768629e+01
 6.8042314401e-01	 1.7424479020e+00	 2.3972825642e+01
 6.4783544721e-01	 1.7548246577e+00	 2.2610378723e+01
 8.1457346876e-01	 1.6969745605e+00	 1.9951365405e+01
 7.8233947050e-01	 1.7120740486e+00	 2.0595773896e+01
 7.4993665688e-01	 1.7265131351e+00	 2.1944015793e+01
 7.1738454422e-01	 1.7402907834e+00	 2.4144725129e+01
 6.8470253485e-01	 1.7534066938e+00	 2.2343349197e+01
 6.5190988399e-01	 1.7658612908e+00	 2.0941401692e+01
 6.3153770011e-01	 1.7106781255e+00	 2.9083975020e+01
 5.9968111563e-01	 1.7221039676e+00	 2.8225928736e+01
 5.6775410393e-01	 1.7328920316e+00	 2.7323525849e+01
 5.3577470994e-01	 1.7430447429e+00	 2.6242406785e+01
 5.0376071965e-01	 1.7525651637e+00	 2.4843000187e+01
 4.7172963426e-01	 1.7614569730e+00	 2.2981806628e+01
 6.3561213689e-01	 1.7217147585e+00	 2.7473481558e+01
 6.0355002605e-01	 1.7332143157e+00	 2.6649297397e+01
 5.7141703363e-01	 1.7440719802e+00	 2.5838032306e+01
 5.3923132098e-01	 1.7542901929e+00	 2.4895324957e+01
 5.0701078881e-01	 1.7638720357e+00	 2.3668604430e+01
 4.7477305125e-01	 1.7728212115e+00	 2.1998551310e+01
 6.3968657366e-01	 1.7327513916e+00	 2.5865283168e+01
 6.0741893648e-01	 1.7443246639e+00	 2.5083825991e+01
 5.7507996333e-01	 1.7552519287e+00	 2.4345835678e+01
 5.4268793201e-01	 1.7655356428e+00	 2.3507068768e+01
 5.1026085797e-01	 1.7751789077e+00	 2.2414213212e+01
 4.7781646825e-01	 1.7841854501e+00	 2.0906391688e+01
 6.4376101044e-01	 1.7437880247e+00	 2.4247988545e+01
 6.1128784690e-01	 1.7554350121e+00	 2.3494757479e+01
 5.7874289304e-01	 1.7664318773e+00	 2.2799988787e+01
 5.4614454304e-01	 1.7767810928e+00	 2.2029419506e+01
 5.1351092713e-01	 1.7864857797e+00	 2.1092674020e+01
 4.8085988524e-01	 1.7955496886e+00	 2.0205455655e+01
 6.4783544721e-01	 1.7548246577e+00	 2.2610378723e+01
 6.1515675732e-01	 1.7665453603e+00	 2.1848098703e+01
 5.8240582274e-01	 1.7776118259e+00	 2.1154619019e+01
 5.4960115407e-01	 1.7880265427e+00	 2.0602175904e+01
 5.1676099629e-01	 1.7977926518e+00	 2.0328316684e+01
 4.8390330224e-01	 1.8069139271e+00	 1.9434803346e+01
 6.5190988399e-01	 1.7658612908e+00	 2.0941401692e+01
 6.1902566775e-01	 1.7776557085e+00	 2.0110596510e+01
 5.8606875244e-01	 1.7887917745e+00	 1.9655292225e+01
 5.5305776510e-01	 1.7992719927e+00	 1.9736638645e+01
 5.2001106545e-01	 1.8090995238e+00	 1.9388760682e+01
 4.8694671923e-01	 1.8182781657e+00	 1.8500079586e+01
 4.7172963426e-01	 1.7614569730e+00	 2.2981806628e+01
 4.3969864587e-01	 1.7697244465e+00	 2.0619997979e+01
 4.0768461467e-01	 1.7773724344e+00	 1.7910099766e+01
 3.7570404756e-01	 1.7844063394e+00	 1.4989643726e+01
 3.4377307843e-01	 1.7908320932e+00	 1.3895609740e+01
 3.1190744993e-01	 1.7966561324e+00	 1.4717322115e+01
 4.7477305125e-01	 1.7728212115e+00	 2.1998551310e+01
 4.4253541133e-01	 1.7811420235e+00	 1.9844905873e+01
 4.1031483799e-01	 1.7888393533e+00	 1.7452595792e+01
 3.7812794464e-01	 1.7959186384e+00	 1.4817428890e+01
 3.4599096926e-01	 1.8023858487e+00	 1.3432590229e+01
 3.1391975606e-01	 1.8082474623e+00	 1.4213359647e+01
 4.7781646825e-01	 1.7841854501e+00	 2.0906391688e+01
 4.4537217679e-01	 1.7925596006e+00	 1.9221131916e+01
 4.1294506131e-01	 1.8003062723e+00	 1.7080050342e+01
 3.8055184173e-01	 1.8074309374e+00	 1.4552517228e+01
 3.4820886009e-01	 1.8139396041e+00	 1.2935028027e+01
 3.1593206219e-01	 1.8198387922e+00	 1.3695164413e+01
 4.8085988524e-01	 1.7955496886e+00	 2.0205455655e+01
 4.4820894224e-01	 1.8039771777e+00	 1.8643439065e+01
 4.1557528463e-01	 1.8117731912e+00	 1.6599598464e+01
 3.8297573881e-01	 1.8189432363e+00	 1.4215740814e+01
 3.5042675092e-01	 1.8254933595e+00	 1.2439475399e+01
 3.1794436832e-01	 1.8314301221e+00	 1.3199559407e+01
 4.8390330224e-01	 1.8069139271e+00	 1.9434803346e+01
 4.5104570770e-01	 1.8153947548e+00	 1.7939296823e+01
 4.1820550795e-01	 1.8232401101e+00	 1.6033946001e+01
 3.8539963589e-01	 1.8304555353e+00	 1.3839749805e+01
 3.5264464174e-01	 1.8370471150e+00	 1.1981545902e+01
 3.1995667445e-01	 1.8430214520e+00	 1.2762423098e+01
 4.8694671923e-01	 1.8182781657e+00	 1.8500079586e+01
 4.5388247316e-01	 1.8268123318e+00	 1.7115966817e+01
 4.2083573127e-01	 1.8347070290e+00	 1.5405265285e+01
 3.8782353297e-01	 1.8419678343e+00	 1.3456409673e+01
 3.5486253257e-01	 1.8486008704e+00	 1.1595943723e+01
 3.2196898058e-01	 1.8546127819e+00	 1.2418718948e+01
 3.1190744993e-01	 1.7966561324e+00	 1.4717322115e+01
 2.8012249690e-01	 1.8018853744e+00	 1.4621570015e+01
 2.4843313129e-01	 1.8065271918e+00	 1.3540567547e+01
 2.1685382872e-01	 1.8105893882e+00	 1.1375419490e+01
 1.8539861655e-01	 1.8140801715e+00	 8.0305452335e+00
 1.5408106359e-01	 1.8170081292e+00	 3.4142411944e+00
 3.1391975606e-01	 1.8082474623e+00	 1.4213359647e+01
 2.8192973882e-01	 1.8135104413e+00	 1.4166106193e+01
 2.5003592569e-01	 1.8181822060e+00	 1.3208122814e+01
 2.1825288567e-01	 1.8222706100e+00	 1.1213787556e+01
 1.8659473666e-01	 1.8257839145e+00	 8.0621148304e+00
 1.5507513497e-01	 1.8287307622e+00	 3.6373993360e+00
 3.1593206219e-01	 1.8198387922e+00	 1.3695164413e+01
 2.8373698074e-01	 1.8251355082e+00	 1.3693820041e+01
 2.5163872008e-01	 1.8298372201e+00	 1.2840864277e+01
 2.1965194263e-01	 1.8339518319e+00	 1.0997272292e+01
 1.8779085677e-01	 1.8374876576e+00	 8.0294075597e+00
 1.5606920635e-01	 1.8404533953e+00	 3.8097081865e+00
 3.1794436832e-01	 1.8314301221e+00	 1.3199559407e+01
 2.8554422265e-01	 1.8367605751e+00	 1.3238984475e+01
 2.5324151448e-01	 1.8414922343e+00	 1.2469374063e+01
 2.2105099959e-01	 1.8456330537e+00	 1.0751375389e+01
 1.8898697687e-01	 1.8491914006e+00	 7.9512143769e+00
 1.5706327772e-01	 1.8521760284e+00	 3.9413857066e+00
 3.1995667445e-01	 1.8430214520e+00	 1.2762423098e+01
 2.8735146457e-01	 1.8483856421e+00	 1.2834993200e+01
 2.5484430887e-01	 1.8531472484e+00	 1.2123449261e+01
 2.2245005655e-01	 1.8573142756e+00	 1.0500942782e+01
 1.9018309698e-01	 1.8608951436e+00	 7.8458409311e+00
 1.5805734910e-01	 1.8638986615e+00	 4.0423819947e+00
 3.2196898058e-01	 1.8546127819e+00	 1.2418718948e+01
 2.8915870648e-01	 1.8600107090e+00	 1.2514388184e+01
 2.5644710327e-01	 1.8648022625e+00	 1.1832126449e+01
 2.2384911351e-01	 1.8689954975e+00	 1.0270185141e+01
 1.9137921709e-01	 1.8725988867e+00	 7.7311227300e+00
 1.5905142048e-01	 1.8756212946e+00	 4.1223876567e+00
 1.5408106359e-01	 1.8170081292e+00	 3.4142411944e+00
 1.2291427115e-01	 1.8193822022e+00	-7.8404502324e-01
 9.1910865755e-02	 1.8212116594e+00	-2.4963970865e+00
 6.1082993169e-02	 1.8225060723e+00	-1.2712557803e+00
 3.0442313896e-02	 1.8232752894e+00	 3.3060357636e+00
 0.0000000000e+00	 1.8235294118e+00	 1.1613361656e+01
 1.5507513497e-01	 1.8287307622e+00	 3.6373993360e+00
 1.2370726645e-01	 1.8311201518e+00	-4.5144778135e-01
 9.2503839083e-02	 1.8329614120e+00	-2.1762941918e+00
 6.1477076996e-02	 1.8342641760e+00	-1.0501324071e+00
 3.0638715922e-02	 1.8350383558e+00	 3.3734446520e+00
 0.0000000000e+00	 1.8352941176e+00	 1.1500390236e+01
 1.5606920635e-01	 1.8404533953e+00	 3.8097081865e+00
 1.2450026175e-01	 1.8428581015e+00	-1.3530411899e-01
 9.3096812410e-02	 1.8447111647e+00	-1.8372531861e+00
 6.1871160823e-02	 1.8460222797e+00	-7.8865988606e-01
 3.0835117947e-02	 1.8468014222e+00	 3.4743983441e+00
 0.0000000000e+00	 1.8470588235e+00	 1.1372482807e+01
 1.5706327772e-01	 1.8521760284e+00	 3.9413857066e+00
 1.2529325705e-01	 1.8545960512e+00	 1.6583767036e-01
 9.3689785738e-02	 1.8564609173e+00	-1.4847827883e+00
 6.2265244650e-02	 1.8577803834e+00	-4.9723934866e-01
 3.1031519972e-02	 1.8585644886e+00	 3.5959229663e+00
 0.0000000000e+00	 1.8588235294e+00	 1.1216653280e+01
 1.5805734910e-01	 1.8638986615e+00	 4.0423819947e+00
 1.2608625234e-01	 1.8663340009e+00	 4.5338387512e-01
 9.4282759065e-02	 1.8682106700e+00	-1.1242599880e+00
 6.2659328477e-02	 1.8695384871e+00	-1.8601494898e-01
 3.1227921997e-02	 1.8703275550e+00	 3.7253686329e+00
 0.0000000000e+00	 1.8705882353e+00	 1.1020242258e+01
 1.5905142048e-01	 1.8756212946e+00	 4.1223876567e+00
 1.2687924764e-01	 1.8780719506e+00	 7.2869678500e-01
 9.4875732393e-02	 1.8799604226e+00	-7.6093416177e-01
 6.3053412304e-02	 1.8812965907e+00	 1.3511810582e-01
 3.1424324022e-02	 1.8820906214e+00	 3.8503993212e+00
 0.0000000000e+00	 1.8823529412e+00	 1.0770906830e+01
 1.8823529412e+00	 0.0000000000e+00	 5.2645926731e+01
 1.8820906214e+00	 3.1424324022e-02	 4.7048014773e+01
 1.8812965907e+00	 6.3053412304e-02	 4.3222043292e+01
 1.8799604226e+00	 9.4875732393e-02	 4.0331028388e+01
 1.8780719506e+00	 1.2687924764e-01	 3.7535017924e+01
 1.8756212946e+00	 1.5905142048e-01	 3.3995248702e+01
 1.8941176471e+00	 0.0000000000e+00	 5.1696878404e+01
 1.8938536877e+00	 3.1620726047e-02	 4.6376743153e+01
 1.8930546944e+00	 6.3447496131e-02	 4.2692726397e+01
 1.8917101752e+00	 9.5468705720e-02	 3.9863346093e+01
 1.8898099003e+00	 1.2767224294e-01	 3.7105177013e+01
 1.8873439277e+00	 1.6004549186e-01	 3.3636803790e+01
 1.9058823529e+00	 0.0000000000e+00	 5.0808784779e+01
 1.9056167541e+00	 3.1817128072e-02	 4.5641758336e+01
 1.9048127981e+00	 6.3841579958e-02	 4.2080102370e+01
 1.9034599279e+00	 9.6061679048e-02	 3.9357741652e+01
 1.9015478500e+00	 1.2846523824e-01	 3.6706901815e+01
 1.8990665608e+00	 1.6103956324e-01	 3.3362026289e+01
 1.9176470588e+00	 0.0000000000e+00	 4.9983054372e+01
 1.9173798205e+00	 3.2013530097e-02	 4.4839912441e+01
 1.9165709018e+00	 6.4235663785e-02	 4.1377435439e+01
 1.9152096805e+00	 9.6654652375e-02	 3.8805619956e+01
 1.9132857997e+00	 1.2925823353e-01	 3.6332238955e+01
 1.9107891939e+00	 1.6203363461e-01	 3.3166889000e+01
 1.9294117647e+00	 0.0000000000e+00	 4.9221061348e+01
 1.9291428869e+00	 3.2209932123e-02	 4.3968135794e+01
 1.9283290055e+00	 6.4629747612e-02	 4.0578156758e+01
 1.9269594332e+00	 9.7247625702e-02	 3.8198599148e+01
 1.9250237494e+00	 1.3005122883e-01	 3.5973433411e+01
 1.9225118270e+00	 1.6302770599e-01	 3.3047467828e+01
 1.9411764706e+00	 0.0000000000e+00	 4.8524146557e+01
 1.9409059533e+00	 3.2406334148e-02	 4.3023434554e+01
 1.9400871092e+00	 6.5023831438e-02	 3.9675859345e+01
 1.9387091858e+00	 9.7840599030e-02	 3.7528504168e+01
 1.9367616991e+00	 1.3084422413e-01	 3.5622922507e+01
 1.9342344601e+00	 1.6402177737e-01	 3.2999938662e+01
 1.8756212946e+00	 1.5905142048e-01	 3.3995248702e+01
 1.8725988867e+00	 1.9137921709e-01	 2.9508131118e+01
 1.8689954975e+00	 2.2384911351e-01	 2.4666969841e+01
 1.8648022625e+00	 2.5644710327e-01	 1.9844865028e+01
 1.8600107090e+00	 2.8915870648e-01	 1.5431660797e+01
 1.8546127819e+00	 3.2196898058e-01	 1.1833021129e+01
 1.8873439277e+00	 1.6004549186e-01	 3.3636803790e+01
 1.8843026297e+00	 1.9257533720e-01	 2.9251040843e+01
 1.8806767193e+00	 2.2524817047e-01	 2.4491977209e+01
 1.8764572767e+00	 2.5804989767e-01	 1.9722179087e+01
 1.8716357759e+00	 2.9096594840e-01	 1.5321077726e+01
 1.8662041118e+00	 3.2398128671e-01	 1.1684094248e+01
 1.8990665608e+00	 1.6103956324e-01	 3.3362026289e+01
 1.8960063728e+00	 1.9377145730e-01	 2.9082702987e+01
 1.8923579412e+00	 2.2664722743e-01	 2.4374895958e+01
 1.8881122908e+00	 2.5965269206e-01	 1.9610009811e+01
 1.8832608429e+00	 2.9277319031e-01	 1.5176537811e+01
 1.8777954417e+00	 3.2599359284e-01	 1.1479138836e+01
 1.9107891939e+00	 1.6203363461e-01	 3.3166889000e+01
 1.9077101158e+00	 1.9496757741e-01	 2.9004268033e+01
 1.9040391630e+00	 2.2804628439e-01	 2.4320502866e+01
 1.8997673050e+00	 2.6125548646e-01	 1.9514841904e+01
 1.8948859098e+00	 2.9458043223e-01	 1.5003945798e+01
 1.8893867715e+00	 3.2800589896e-01	 1.1220820705e+01
 1.9225118270e+00	 1.6302770599e-01	 3.3047467828e+01
 1.9194138589e+00	 1.9616369752e-01	 2.9016863557e+01
 1.9157203849e+00	 2.2944534135e-01	 2.4333463381e+01
 1.9114223191e+00	 2.6285828085e-01	 1.9443006857e+01
 1.9065109767e+00	 2.9638767414e-01	 1.4809066881e+01
 1.9009781014e+00	 3.3001820509e-01	 1.0911744381e+01
 1.9342344601e+00	 1.6402177737e-01	 3.2999938662e+01
 1.9311176019e+00	 1.9735981762e-01	 2.9121594921e+01
 1.9274016068e+00	 2.3084439831e-01	 2.4418334992e+01
 1.9230773332e+00	 2.6446107525e-01	 1.9400687585e+01
 1.9181360437e+00	 2.9819491606e-01	 1.4597530935e+01
 1.9125694313e+00	 3.3203051122e-01	 1.0554454968e+01
 1.8546127819e+00	 3.2196898058e-01	 1.1833021129e+01
 1.8486008704e+00	 3.5486253257e-01	 9.1635109504e+00
 1.8419678343e+00	 3.8782353297e-01	 5.8689446712e+00
 1.8347070290e+00	 4.2083573127e-01	 2.3939937882e+00
 1.8268123318e+00	 4.5388247316e-01	-1.1887503336e+00
 1.8182781657e+00	 4.8694671923e-01	-4.8841234666e+00
 1.8662041118e+00	 3.2398128671e-01	 1.1684094248e+01
 1.8601546259e+00	 3.5708042340e-01	 8.9343366615e+00
 1.8534801332e+00	 3.9024743005e-01	 5.5139865945e+00
 1.8461739480e+00	 4.2346595459e-01	 2.0057515681e+00
 1.8382299089e+00	 4.5671923862e-01	-1.5852046553e+00
 1.8296424042e+00	 4.8999013623e-01	-5.2581776956e+00
 1.8777954417e+00	 3.2599359284e-01	 1.1479138836e+01
 1.8717083813e+00	 3.5929831423e-01	 8.6020984916e+00
 1.8649924322e+00	 3.9267132713e-01	 5.1704109555e+00
 1.8576408669e+00	 4.2609617792e-01	 1.6807417101e+00
 1.8496474860e+00	 4.5955600407e-01	-1.8769345874e+00
 1.8410066428e+00	 4.9303355322e-01	-5.5149771792e+00
 1.8893867715e+00	 3.2800589896e-01	 1.1220820705e+01
 1.8832621367e+00	 3.6151620506e-01	 8.2339597314e+00
 1.8765047311e+00	 3.9509522421e-01	 4.8334102778e+00
 1.8691077858e+00	 4.2872640124e-01	 1.4126379889e+00
 1.8610650630e+00	 4.6239276953e-01	-2.0699264597e+00
 1.8523708813e+00	 4.9607697022e-01	-5.6579600568e+00
 1.9009781014e+00	 3.3001820509e-01	 1.0911744381e+01
 1.8948158922e+00	 3.6373409589e-01	 7.8300960905e+00
 1.8880170301e+00	 3.9751912129e-01	 4.4982918577e+00
 1.8805747048e+00	 4.3135662456e-01	 1.1952660026e+00
 1.8724826401e+00	 4.6522953499e-01	-2.1700230253e+00
 1.8637351198e+00	 4.9912038721e-01	-5.6904829637e+00
 1.9125694313e+00	 3.3203051122e-01	 1.0554454968e+01
 1.9063696476e+00	 3.6595198672e-01	 7.3888096771e+00
 1.8995293291e+00	 3.9994301837e-01	 4.1604742866e+00
 1.8920416237e+00	 4.3398684788e-01	 1.0225985721e+00
 1.8839002172e+00	 4.6806630045e-01	-2.1829278118e+00
 1.8750993584e+00	 5.0216380421e-01	-5.6158235012e+00
 1.8182781657e+00	 4.8694671923e-01	-4.8841234666e+00
 1.8090995238e+00	 5.2001106545e-01	-8.5951698199e+00
 1.7992719927e+00	 5.5305776510e-01	-1.2220796640e+01
 1.7887917745e+00	 5.8606875244e-01	-1.5764774390e+01
 1.7776557085e+00	 6.1902566775e-01	-1.8075618031e+01
 1.7658612908e+00	 6.5190988399e-01	-1.9894254240e+01
 1.8296424042e+00	 4.8999013623e-01	-5.2581776956e+00
 1.8204063958e+00	 5.2326113460e-01	-8.9137171164e+00
 1.8105174426e+00	 5.5651437614e-01	-1.2455232100e+01
 1.7999717231e+00	 5.8973168214e-01	-1.5891173496e+01
 1.7887660566e+00	 6.2289457817e-01	-1.9233838303e+01
 1.7768979239e+00	 6.5598432076e-01	-2.1276040235e+01
 1.8410066428e+00	 4.9303355322e-01	-5.5149771792e+00
 1.8317132678e+00	 5.2651120376e-01	-9.1442464556e+00
 1.8217628926e+00	 5.5997098717e-01	-1.2661135915e+01
 1.8111516717e+00	 5.9339461185e-01	-1.6060740395e+01
 1.7998764048e+00	 6.2676348859e-01	-1.9341750667e+01
 1.7879345569e+00	 6.6005875754e-01	-2.2506516958e+01
 1.8523708813e+00	 4.9607697022e-01	-5.6579600568e+00
 1.8430201399e+00	 5.2976127292e-01	-9.2868212723e+00
 1.8330083425e+00	 5.6342759820e-01	-1.2836208636e+01
 1.8223316203e+00	 5.9705754155e-01	-1.6270161012e+01
 1.8109867530e+00	 6.3063239902e-01	-1.9556024665e+01
 1.7989711900e+00	 6.6413319431e-01	-2.2664676703e+01
 1.8637351198e+00	 4.9912038721e-01	-5.6904829637e+00
 1.8543270119e+00	 5.3301134208e-01	-9.3415056933e+00
 1.8442537925e+00	 5.6688420923e-01	-1.2978208988e+01
 1.8335115689e+00	 6.0072047125e-01	-1.6516204011e+01
 1.8220971012e+00	 6.3450130944e-01	-1.9874083784e+01
 1.8100078231e+00	 6.6820763109e-01	-2.2973901977e+01
 1.8750993584e+00	 5.0216380421e-01	-5.6158235012e+00
 1.8656338839e+00	 5.3626141124e-01	-9.3083645168e+00
 1.8554992424e+00	 5.7034082026e-01	-1.3084952111e+01
 1.8446915175e+00	 6.0438340096e-01	-1.6795718285e+01
 1.8332074494e+00	 6.3837021987e-01	-2.0293415657e+01
 1.8210444561e+00	 6.7228206786e-01	-2.3434246043e+01
 1.7658612908e+00	 6.5190988399e-01	-1.9894254240e+01
 1.7534066938e+00	 6.8470253485e-01	-2.1717061895e+01
 1.7402907834e+00	 7.1738454422e-01	-2.3558437385e+01
 1.7265131351e+00	 7.4993665688e-01	-2.5773278041e+01
 1.7120740486e+00	 7.8233947050e-01	-2.7921673463e+01
 1.6969745605e+00	 8.1457346876e-01	-2.9875284009e+01
 1.7768979239e+00	 6.5598432076e-01	-2.1276040235e+01
 1.7643654857e+00	 6.8898192570e-01	-2.2883389344e+01
 1.7511676008e+00	 7.2186819762e-01	-2.4577918739e+01
 1.7373038422e+00	 7.5462376099e-01	-2.6619942243e+01
 1.7227745114e+00	 7.8722909220e-01	-2.8640215632e+01
 1.7075806516e+00	 8.1966455294e-01	-3.0528987703e+01
 1.7879345569e+00	 6.6005875754e-01	-2.2506516958e+01
 1.7753242775e+00	 6.9326131654e-01	-2.4209361501e+01
 1.7620444182e+00	 7.2635185103e-01	-2.5732652397e+01
 1.7480945493e+00	 7.5931086509e-01	-2.7566963733e+01
 1.7334749743e+00	 7.9211871389e-01	-2.9420004432e+01
 1.7181867426e+00	 8.2475563712e-01	-3.1210935857e+01
 1.7989711900e+00	 6.6413319431e-01	-2.2664676703e+01
 1.7862830693e+00	 6.9754070738e-01	-2.5619490168e+01
 1.7729212356e+00	 7.3083550443e-01	-2.7026469293e+01
 1.7588852564e+00	 7.6399796920e-01	-2.8618769821e+01
 1.7441754371e+00	 7.9700833558e-01	-3.0264440116e+01
 1.7287928336e+00	 8.2984672130e-01	-3.1921681286e+01
 1.8100078231e+00	 6.6820763109e-01	-2.2973901977e+01
 1.7972418612e+00	 7.0182009823e-01	-2.5802211875e+01
 1.7837980530e+00	 7.3531915783e-01	-2.8463070199e+01
 1.7696759635e+00	 7.6868507330e-01	-2.9779642310e+01
 1.7548758999e+00	 8.0189795727e-01	-3.1176801778e+01
 1.7393989246e+00	 8.3493780548e-01	-3.2661724499e+01
 1.8210444561e+00	 6.7228206786e-01	-2.3434246043e+01
 1.8082006530e+00	 7.0609948907e-01	-2.6153097112e+01
 1.7946748704e+00	 7.3980281123e-01	-2.8890214307e+01
 1.7804666706e+00	 7.7337217741e-01	-3.1053721900e+01
 1.7655763627e+00	 8.0678757896e-01	-3.2160251021e+01
 1.7500050156e+00	 8.4002888966e-01	-3.3431515282e+01
 1.6969745605e+00	 8.1457346876e-01	-2.9875284009e+01
 1.6812164555e+00	 8.4661905544e-01	-3.1547876342e+01
 1.6648022752e+00	 8.7845658951e-01	-3.2913753041e+01
 1.6477353260e+00	 9.1006642103e-01	-3.3927024079e+01
 1.6300196837e+00	 9.4142892766e-01	-3.4537573560e+01
 1.6116601972e+00	 9.7252455179e-01	-3.4691122090e+01
 1.7075806516e+00	 8.1966455294e-01	-3.0528987703e+01
 1.6917240583e+00	 8.5191042453e-01	-3.2211745552e+01
 1.6752072894e+00	 8.8394694320e-01	-3.3644710077e+01
 1.6580336718e+00	 9.1575433616e-01	-3.4755509326e+01
 1.6402073067e+00	 9.4731285845e-01	-3.5466181453e+01
 1.6217330735e+00	 9.7860283024e-01	-3.5693364725e+01
 1.7181867426e+00	 8.2475563712e-01	-3.1210935857e+01
 1.7022316612e+00	 8.5720179363e-01	-3.2881707674e+01
 1.6856123036e+00	 8.8943729688e-01	-3.4366913541e+01
 1.6683320175e+00	 9.2144225130e-01	-3.5565614638e+01
 1.6503949298e+00	 9.5319678925e-01	-3.6370235622e+01
 1.6318059497e+00	 9.8468110869e-01	-3.6666900284e+01
 1.7287928336e+00	 8.2984672130e-01	-3.1921681286e+01
 1.7127392640e+00	 8.6249316273e-01	-3.3555201273e+01
 1.6960173179e+00	 8.9492765057e-01	-3.5076133637e+01
 1.6786303633e+00	 9.2713016643e-01	-3.6352928762e+01
 1.6605825528e+00	 9.5908072005e-01	-3.7246667218e+01
 1.6418788259e+00	 9.9075938713e-01	-3.7611558956e+01
 1.7393989246e+00	 8.3493780548e-01	-3.2661724499e+01
 1.7232468669e+00	 8.6778453182e-01	-3.4229688073e+01
 1.7064223321e+00	 9.0041800425e-01	-3.5768204042e+01
 1.6889287091e+00	 9.3281808156e-01	-3.7113108062e+01
 1.6707701758e+00	 9.6496465085e-01	-3.8092442108e+01
 1.6519517022e+00	 9.9683766558e-01	-3.8527134875e+01
 1.7500050156e+00	 8.4002888966e-01	-3.3431515282e+01
 1.7337544697e+00	 8.7307590092e-01	-3.4902652258e+01
 1.7168273463e+00	 9.0590835794e-01	-3.6439019980e+01
 1.6992270549e+00	 9.3850599669e-01	-3.7841874477e+01
 1.6809577988e+00	 9.7084858165e-01	-3.8904559816e+01
 1.6620245784e+00	 1.0029159440e+00	-3.9413387217e+01
 1.6116601972e+00	 9.7252455179e-01	-3.4691122090e+01
 1.5926624892e+00	 1.0033338381e+00	-3.4393948656e+01
 1.5730329551e+00	 1.0338374715e+00	-3.3625329884e+01
 1.5527787599e+00	 1.0640163147e+00	-3.2283849796e+01
 1.5319078326e+00	 1.0938514468e+00	-3.0929449452e+01
 1.5104288582e+00	 1.1233242005e+00	-2.9617388067e+01
 1.6217330735e+00	 9.7860283024e-01	-3.5693364725e+01
 1.6026166297e+00	 1.0096046746e+00	-3.5421752823e+01
 1.5828644110e+00	 1.0402989557e+00	-3.4644795688e+01
 1.5624836271e+00	 1.0706664167e+00	-3.3285114833e+01
 1.5414822565e+00	 1.1006880183e+00	-3.2004967940e+01
 1.5198690386e+00	 1.1303449767e+00	-3.0659080091e+01
 1.6318059497e+00	 9.8468110869e-01	-3.6666900284e+01
 1.6125707703e+00	 1.0158755111e+00	-3.6419261514e+01
 1.5926958670e+00	 1.0467604399e+00	-3.5636368587e+01
 1.5721884944e+00	 1.0773165187e+00	-3.4341179404e+01
 1.5510566805e+00	 1.1075245899e+00	-3.3013447164e+01
 1.5293092190e+00	 1.1373657530e+00	-3.1639117785e+01
 1.6418788259e+00	 9.9075938713e-01	-3.7611558956e+01
 1.6225249108e+00	 1.0221463476e+00	-3.7389302367e+01
 1.6025273230e+00	 1.0532219241e+00	-3.6604493148e+01
 1.5818933616e+00	 1.0839666206e+00	-3.5346200249e+01
 1.5606311044e+00	 1.1143611614e+00	-3.3960275530e+01
 1.5387493993e+00	 1.1443865292e+00	-3.2560278112e+01
 1.6519517022e+00	 9.9683766558e-01	-3.8527134875e+01
 1.6324790514e+00	 1.0284171841e+00	-3.8334593905e+01
 1.6123587789e+00	 1.0596834083e+00	-3.7553465538e+01
 1.5915982289e+00	 1.0906167226e+00	-3.6294013040e+01
 1.5702055284e+00	 1.1211977330e+00	-3.4850715557e+01
 1.5481895797e+00	 1.1514073055e+00	-3.3425273565e+01
 1.6620245784e+00	 1.0029159440e+00	-3.9413387217e+01
 1.6424331920e+00	 1.0346880206e+00	-3.9257748842e+01
 1.6221902349e+00	 1.0661448925e+00	-3.8487438025e+01
 1.6013030961e+00	 1.0972668246e+00	-3.7190943472e+01
 1.5797799523e+00	 1.1280343045e+00	-3.5689907690e+01
 1.5576297601e+00	 1.1584280817e+00	-3.4236754124e+01
 1.5104288582e+00	 1.1233242005e+00	-2.9617388067e+01
 1.4883512682e+00	 1.1524161998e+00	-2.8015229713e+01
 1.4656852278e+00	 1.1811093972e+00	-2.5984773147e+01
 1.4424416218e+00	 1.2093861099e+00	-2.3709331317e+01
 1.4186320383e+00	 1.2372290552e+00	-2.2220692262e+01
 1.3942687494e+00	 1.2646213859e+00	-2.1679356107e+01
 1.5198690386e+00	 1.1303449767e+00	-3.0659080091e+01
 1.4976534636e+00	 1.1596188011e+00	-2.9091498551e+01
 1.4748457605e+00	 1.1884913310e+00	-2.7173191423e+01
 1.4514568820e+00	 1.2169447731e+00	-2.5072277261e+01
 1.4274984885e+00	 1.2449617368e+00	-2.3051983364e+01
 1.4029829290e+00	 1.2725252696e+00	-2.2752222397e+01
 1.5293092190e+00	 1.1373657530e+00	-3.1639117785e+01
 1.5069556591e+00	 1.1668214023e+00	-3.0111367769e+01
 1.4840062931e+00	 1.1958732647e+00	-2.8306873535e+01
 1.4604721421e+00	 1.2245034362e+00	-2.6375976376e+01
 1.4363649388e+00	 1.2526944184e+00	-2.4478314589e+01
 1.4116971087e+00	 1.2804291532e+00	-2.3822468407e+01
 1.5387493993e+00	 1.1443865292e+00	-3.2560278112e+01
 1.5162578545e+00	 1.1740240036e+00	-3.1074897343e+01
 1.4931668258e+00	 1.2032551984e+00	-2.9384346823e+01
 1.4694874023e+00	 1.2320620994e+00	-2.7618655326e+01
 1.4452313890e+00	 1.2604271000e+00	-2.5916993703e+01
 1.4204112884e+00	 1.2883330369e+00	-2.4888884488e+01
 1.5481895797e+00	 1.1514073055e+00	-3.3425273565e+01
 1.5255600499e+00	 1.1812266048e+00	-3.1982146709e+01
 1.5023273585e+00	 1.2106371322e+00	-3.0404173078e+01
 1.4785026624e+00	 1.2396207626e+00	-2.8798580125e+01
 1.4540978392e+00	 1.2681597816e+00	-2.7281867369e+01
 1.4291254681e+00	 1.2962369206e+00	-2.5978871908e+01
 1.5576297601e+00	 1.1584280817e+00	-3.4236754124e+01
 1.5348622453e+00	 1.1884292061e+00	-3.2833174778e+01
 1.5114878911e+00	 1.2180190659e+00	-3.1364947496e+01
 1.4875179225e+00	 1.2471794258e+00	-2.9914054949e+01
 1.4629642895e+00	 1.2758924632e+00	-2.8572163424e+01
 1.4378396478e+00	 1.3041408042e+00	-2.7439828054e+01
 1.3942687494e+00	 1.2646213859e+00	-2.1679356107e+01
 1.3693646910e+00	 1.2915467232e+00	-2.0977251126e+01
 1.3439334400e+00	 1.3179891896e+00	-2.0253975430e+01
 1.3179891896e+00	 1.3439334400e+00	-1.9350989577e+01
 1.2915467232e+00	 1.3693646910e+00	-1.8098852225e+01
 1.2646213859e+00	 1.3942687494e+00	-1.6318525791e+01
 1.4029829290e+00	 1.2725252696e+00	-2.2752222397e+01
 1.3779232203e+00	 1.2996188902e+00	-2.2280351993e+01
 1.3523330240e+00	 1.3262266221e+00	-2.1745826002e+01
 1.3262266221e+00	 1.3523330240e+00	-2.0994388955e+01
 1.2996188902e+00	 1.3779232203e+00	-1.9863414591e+01
 1.2725252696e+00	 1.4029829290e+00	-1.8183181252e+01
 1.4116971087e+00	 1.2804291532e+00	-2.3822468407e+01
 1.3864817496e+00	 1.3076910573e+00	-2.3562382606e+01
 1.3607326080e+00	 1.3344640545e+00	-2.3203602386e+01
 1.3344640545e+00	 1.3607326080e+00	-2.2601522009e+01
 1.3076910573e+00	 1.3864817496e+00	-2.1605285794e+01
 1.2804291532e+00	 1.4116971087e+00	-2.0059004220e+01
 1.4204112884e+00	 1.2883330369e+00	-2.4888884488e+01
 1.3950402789e+00	 1.3157632243e+00	-2.4824512766e+01
 1.3691321920e+00	 1.3427014870e+00	-2.4629243194e+01
 1.3427014870e+00	 1.3691321920e+00	-2.4173386191e+01
 1.3157632243e+00	 1.3950402789e+00	-2.3322717990e+01
 1.2883330369e+00	 1.4204112884e+00	-2.1939608690e+01
 1.4291254681e+00	 1.2962369206e+00	-2.5978871908e+01
 1.4035988083e+00	 1.3238353913e+00	-2.6067811149e+01
 1.3775317760e+00	 1.3509389194e+00	-2.6024569489e+01
 1.3509389194e+00	 1.3775317760e+00	-2.5710886831e+01
 1.3238353913e+00	 1.4035988083e+00	-2.5013940760e+01
 1.2962369206e+00	 1.4291254681e+00	-2.3768406882e+01
 1.4378396478e+00	 1.3041408042e+00	-2.7439828054e+01
 1.4121573376e+00	 1.3319075583e+00	-2.7293248368e+01
 1.3859313600e+00	 1.3591763518e+00	-2.7391288351e+01
 1.3591763518e+00	 1.3859313600e+00	-2.7214839925e+01
 1.3319075583e+00	 1.4121573376e+00	-2.6677161797e+01
 1.3041408042e+00	 1.4378396478e+00	-2.4829680477e+01
 1.2646213859e+00	 1.3942687494e+00	-1.6318525791e+01
 1.2372290552e+00	 1.4186320383e+00	-1.4051191124e+01
 1.2093861099e+00	 1.4424416218e+00	-1.0364634005e+01
 1.1811093972e+00	 1.4656852278e+00	-5.9316300571e+00
 1.1524161998e+00	 1.4883512682e+00	-1.8106658125e+00
 1.1233242005e+00	 1.5104288582e+00	 1.7508059604e+00
 1.2725252696e+00	 1.4029829290e+00	-1.8183181252e+01
 1.2449617368e+00	 1.4274984885e+00	-1.6015899715e+01
 1.2169447731e+00	 1.4514568820e+00	-1.1692554479e+01
 1.1884913310e+00	 1.4748457605e+00	-7.3694949457e+00
 1.1596188011e+00	 1.4976534636e+00	-3.3890147405e+00
 1.1303449767e+00	 1.5198690386e+00	 8.5996025065e-03
 1.2804291532e+00	 1.4116971087e+00	-2.0059004220e+01
 1.2526944184e+00	 1.4363649388e+00	-1.7358719983e+01
 1.2245034362e+00	 1.4604721421e+00	-1.3040522719e+01
 1.1958732647e+00	 1.4840062931e+00	-8.8276981131e+00
 1.1668214023e+00	 1.5069556591e+00	-4.9664457567e+00
 1.1373657530e+00	 1.5293092190e+00	-1.6860618575e+00
 1.2883330369e+00	 1.4204112884e+00	-2.1939608690e+01
 1.2604271000e+00	 1.4452313890e+00	-1.8604209892e+01
 1.2320620994e+00	 1.4694874023e+00	-1.4397086072e+01
 1.2032551984e+00	 1.4931668258e+00	-1.0296901607e+01
 1.1740240036e+00	 1.5162578545e+00	-6.5390781064e+00
 1.1443865292e+00	 1.5387493993e+00	-3.3381742807e+00
 1.2962369206e+00	 1.4291254681e+00	-2.3768406882e+01
 1.2681597816e+00	 1.4540978392e+00	-1.9832110193e+01
 1.2396207626e+00	 1.4785026624e+00	-1.5751012391e+01
 1.2106371322e+00	 1.5023273585e+00	-1.1767933918e+01
 1.1812266048e+00	 1.5255600499e+00	-8.1030620647e+00
 1.1514073055e+00	 1.5481895797e+00	-4.9525459226e+00
 1.3041408042e+00	 1.4378396478e+00	-2.4829680477e+01
 1.2758924632e+00	 1.4629642895e+00	-2.1032493460e+01
 1.2471794258e+00	 1.4875179225e+00	-1.7091283346e+01
 1.2180190659e+00	 1.5114878911e+00	-1.3231784940e+01
 1.1884292061e+00	 1.5348622453e+00	-9.6545779957e+00
 1.1584280817e+00	 1.5576297601e+00	-6.5338031184e+00
 1.1233242005e+00	 1.5104288582e+00	 1.7508059604e+00
 1.0938514468e+00	 1.5319078326e+00	 5.4033232781e+00
 1.0640163147e+00	 1.5527787599e+00	 8.4389730735e+00
 1.0338374715e+00	 1.5730329551e+00	 7.9485896014e+00
 1.0033338381e+00	 1.5926624892e+00	 8.7467876578e+00
 9.7252455179e-01	 1.6116601972e+00	 1.0994205804e+01
 1.1303449767e+00	 1.5198690386e+00	 8.5996025065e-03
 1.1006880183e+00	 1.5414822565e+00	 3.4620122572e+00
 1.0706664167e+00	 1.5624836271e+00	 7.6039703629e+00
 1.0402989557e+00	 1.5828644110e+00	 6.9015053712e+00
 1.0096046746e+00	 1.6026166297e+00	 7.4640926262e+00
 9.7860283024e-01	 1.6217330735e+00	 9.4457201423e+00
 1.1373657530e+00	 1.5293092190e+00	-1.6860618575e+00
 1.1075245899e+00	 1.5510566805e+00	 1.6181455755e+00
 1.0773165187e+00	 1.5721884944e+00	 5.6898890116e+00
 1.0467604399e+00	 1.5926958670e+00	 5.9108482958e+00
 1.0158755111e+00	 1.6125707703e+00	 6.2064324234e+00
 9.8468110869e-01	 1.6318059497e+00	 7.8655331256e+00
 1.1443865292e+00	 1.5387493993e+00	-3.3381742807e+00
 1.1143611614e+00	 1.5606311044e+00	-1.4092161012e-01
 1.0839666206e+00	 1.5818933616e+00	 3.7343437896e+00
 1.0532219241e+00	 1.6025273230e+00	 4.9673300747e+00
 1.0221463476e+00	 1.6225249108e+00	 4.9746435743e+00
 9.9075938713e-01	 1.6418788259e+00	 6.2705945729e+00
 1.1514073055e+00	 1.5481895797e+00	-4.9525459226e+00
 1.1211977330e+00	 1.5702055284e+00	-1.8274580364e+00
 1.0906167226e+00	 1.5915982289e+00	 1.8746445211e+00
 1.0596834083e+00	 1.6123587789e+00	 4.0619788463e+00
 1.0284171841e+00	 1.6324790514e+00	 3.7696298493e+00
 9.9683766558e-01	 1.6519517022e+00	 4.6775261640e+00
 1.1584280817e+00	 1.5576297601e+00	-6.5338031184e+00
 1.1280343045e+00	 1.5797799523e+00	-3.4533677305e+00
 1.0972668246e+00	 1.6013030961e+00	 9.7272772605e-02
 1.0661448925e+00	 1.6221902349e+00	 3.1861295984e+00
 1.0346880206e+00	 1.6424331920e+00	 2.5923602264e+00
 1.0029159440e+00	 1.6620245784e+00	 3.1026313824e+00
 9.7252455179e-01	 1.6116601972e+00	 1.0994205804e+01
 9.4142892766e-01	 1.6300196837e+00	 1.3812404166e+01
 9.1006642103e-01	 1.6477353260e+00	 1.6173692695e+01
 8.7845658951e-01	 1.6648022752e+00	 1.8016371769e+01
 8.4661905544e-01	 1.6812164555e+00	 1.9289252748e+01
 8.1457346876e-01	 1.6969745605e+00	 1.9951365405e+01
 9.7860283024e-01	 1.6217330735e+00	 9.4457201423e+00
 9.4731285845e-01	 1.6402073067e+00	 1.2005360088e+01
 9.1575433616e-01	 1.6580336718e+00	 1.4157978245e+01
 8.8394694320e-01	 1.6752072894e+00	 1.5843053630e+01
 8.5191042453e-01	 1.6917240583e+00	 1.7017613582e+01
 8.1966455294e-01	 1.7075806516e+00	 1.7655746419e+01
 9.8468110869e-01	 1.6318059497e+00	 7.8655331256e+00
 9.5319678925e-01	 1.6503949298e+00	 1.0112506972e+01
 9.2144225130e-01	 1.6683320175e+00	 1.2031747678e+01
 8.8943729688e-01	 1.6856123036e+00	 1.3561959523e+01
 8.5720179363e-01	 1.7022316612e+00	 1.4664063943e+01
 8.2475563712e-01	 1.7181867426e+00	 1.5320587311e+01
 9.9075938713e-01	 1.6418788259e+00	 6.2705945729e+00
 9.5908072005e-01	 1.6605825528e+00	 8.1647236834e+00
 9.2713016643e-01	 1.6786303633e+00	 9.8294944471e+00
 8.9492765057e-01	 1.6960173179e+00	 1.1200950305e+01
 8.6249316273e-01	 1.7127392640e+00	 1.2239681435e+01
 8.2984672130e-01	 1.7287928336e+00	 1.2930156819e+01
 9.9683766558e-01	 1.6519517022e+00	 4.6775261640e+00
 9.6496465085e-01	 1.6707701758e+00	 6.1922187118e+00
 9.3281808156e-01	 1.6889287091e+00	 7.5849508613e+00
 9.0041800425e-01	 1.7064223321e+00	 8.7872847373e+00
 8.6778453182e-01	 1.7232468669e+00	 9.7553481045e+00
 8.3493780548e-01	 1.7393989246e+00	 1.0469179102e+01
 1.0029159440e+00	 1.6620245784e+00	 3.1026313824e+00
 9.7084858165e-01	 1.6809577988e+00	 4.2245504900e+00
 9.3850599669e-01	 1.6992270549e+00	 5.3311111454e+00
 9.0590835794e-01	 1.7168273463e+00	 6.3476377331e+00
 8.7307590092e-01	 1.7337544697e+00	 7.2217563648e+00
 8.4002888966e-01	 1.7500050156e+00	 7.9228199415e+00
 8.1457346876e-01	 1.6969745605e+00	 1.9951365405e+01
 7.8233947050e-01	 1.7120740486e+00	 2.0595773896e+01
 7.4993665688e-01	 1.7265131351e+00	 2.1944015793e+01
 7.1738454422e-01	 1.7402907834e+00	 2.4144725129e+01
 6.8470253485e-01	 1.7534066938e+00	 2.2343349197e+01
 6.5190988399e-01	 1.7658612908e+00	 2.0941401692e+01
 8.1966455294e-01	 1.7075806516e+00	 1.7655746419e+01
 7.8722909220e-01	 1.7227745114e+00	 1.8310347279e+01
 7.5462376099e-01	 1.7373038422e+00	 1.9641447619e+01
 7.2186819762e-01	 1.7511676008e+00	 2.1780739439e+01
 6.8898192570e-01	 1.7643654857e+00	 2.0658906562e+01
 6.5598432076e-01	 1.7768979239e+00	 1.9148384499e+01
 8.2475563712e-01	 1.7181867426e+00	 1.5320587311e+01
 7.9211871389e-01	 1.7334749743e+00	 1.6013573000e+01
 7.5931086509e-01	 1.7480945493e+00	 1.7317947828e+01
 7.2635185103e-01	 1.7620444182e+00	 1.9353147454e+01
 6.9326131654e-01	 1.7753242775e+00	 1.8825058726e+01
 6.6005875754e-01	 1.7879345569e+00	 1.7405165178e+01
 8.2984672130e-01	 1.7287928336e+00	 1.2930156819e+01
 7.9700833558e-01	 1.7441754371e+00	 1.3664918569e+01
 7.6399796920e-01	 1.7588852564e+00	 1.4922047471e+01
 7.3083550443e-01	 1.7729212356e+00	 1.6813261707e+01
 6.9754070738e-01	 1.7862830693e+00	 1.6876809766e+01
 6.6413319431e-01	 1.7989711900e+00	 1.6550561962e+01
 8.3493780548e-01	 1.7393989246e+00	 1.0469179102e+01
 8.0189795727e-01	 1.7548758999e+00	 1.1224908861e+01
 7.6868507330e-01	 1.7696759635e+00	 1.2403598671e+01
 7.3531915783e-01	 1.7837980530e+00	 1.4113644880e+01
 7.0182009823e-01	 1.7972418612e+00	 1.6123569650e+01
 6.6820763109e-01	 1.8100078231e+00	 1.5564242950e+01
 8.4002888966e-01	 1.7500050156e+00	 7.9228199415e+00
 8.0678757896e-01	 1.7655763627e+00	 8.6550940724e+00
 7.7337217741e-01	 1.7804666706e+00	 9.7137345926e+00
 7.3980281123e-01	 1.7946748704e+00	 1.2517411602e+01
 7.0609948907e-01	 1.8082006530e+00	 1.5227071549e+01
 6.7228206786e-01	 1.8210444561e+00	 1.4443423927e+01
 6.5190988399e-01	 1.7658612908e+00	 2.0941401692e+01
 6.1902566775e-01	 1.7776557085e+00	 2.0110596510e+01
 5.8606875244e-01	 1.7887917745e+00	 1.9655292225e+01
 5.5305776510e-01	 1.7992719927e+00	 1.9736638645e+01
 5.2001106545e-01	 1.8090995238e+00	 1.9388760682e+01
 4.8694671923e-01	 1.8182781657e+00	 1.8500079586e+01
 6.5598432076e-01	 1.7768979239e+00	 1.9148384499e+01
 6.2289457817e-01	 1.7887660566e+00	 1.8505624604e+01
 5.8973168214e-01	 1.7999717231e+00	 1.8721669302e+01
 5.5651437614e-01	 1.8105174426e+00	 1.8667568179e+01
 5.2326113460e-01	 1.8204063958e+00	 1.8253469355e+01
 4.8999013623e-01	 1.8296424042e+00	 1.7410660545e+01
 6.6005875754e-01	 1.7879345569e+00	 1.7405165178e+01
 6.2676348859e-01	 1.7998764048e+00	 1.7552826241e+01
 5.9339461185e-01	 1.8111516717e+00	 1.7580452831e+01
 5.5997098717e-01	 1.8217628926e+00	 1.7402434364e+01
 5.2651120376e-01	 1.8317132678e+00	 1.6958134109e+01
 4.9303355322e-01	 1.8410066428e+00	 1.6211090717e+01
 6.6413319431e-01	 1.7989711900e+00	 1.6550561962e+01
 6.3063239902e-01	 1.8109867530e+00	 1.6441358860e+01
 5.9705754155e-01	 1.8223316203e+00	 1.6278483663e+01
 5.6342759820e-01	 1.8330083425e+00	 1.5996305721e+01
 5.2976127292e-01	 1.8430201399e+00	 1.5555190427e+01
 4.9607697022e-01	 1.8523708813e+00	 1.4940552436e+01
 6.6820763109e-01	 1.8100078231e+00	 1.5564242950e+01
 6.3450130944e-01	 1.8220971012e+00	 1.5198136137e+01
 6.0072047125e-01	 1.8335115689e+00	 1.4861505328e+01
 5.6688420923e-01	 1.8442537925e+00	 1.4502950529e+01
 5.3301134208e-01	 1.8543270119e+00	 1.4095835460e+01
 4.9912038721e-01	 1.8637351198e+00	 1.3637310570e+01
 6.7228206786e-01	 1.8210444561e+00	 1.4443423927e+01
 6.3837021987e-01	 1.8332074494e+00	 1.3849466321e+01
 6.0438340096e-01	 1.8446915175e+00	 1.3374197289e+01
 5.7034082026e-01	 1.8554992424e+00	 1.2974876221e+01
 5.3626141124e-01	 1.8656338839e+00	 1.2630065542e+01
 5.0216380421e-01	 1.8750993584e+00	 1.2338740325e+01
 4.8694671923e-01	 1.8182781657e+00	 1.8500079586e+01
 4.5388247316e-01	 1.8268123318e+00	 1.7115966817e+01
 4.2083573127e-01	 1.8347070290e+00	 1.5405265285e+01
 3.8782353297e-01	 1.8419678343e+00	 1.3456409673e+01
 3.5486253257e-01	 1.8486008704e+00	 1.1595943723e+01
 3.2196898058e-01	 1.8546127819e+00	 1.2418718948e+01
 4.8999013623e-01	 1.8296424042e+00	 1.7410660545e+01
 4.5671923862e-01	 1.8382299089e+00	 1.6191893158e+01
 4.2346595459e-01	 1.8461739480e+00	 1.4720371248e+01
 3.9024743005e-01	 1.8534801332e+00	 1.3049974904e+01
 3.5708042340e-01	 1.8601546259e+00	 1.1241974124e+01
 3.2398128671e-01	 1.8662041118e+00	 1.2115474626e+01
 4.9303355322e-01	 1.8410066428e+00	 1.6211090717e+01
 4.5955600407e-01	 1.8496474860e+00	 1.5196042858e+01
 4.2609617792e-01	 1.8576408669e+00	 1.3977968399e+01
 3.9267132713e-01	 1.8649924322e+00	 1.2583673290e+01
 3.5929831423e-01	 1.8717083813e+00	 1.1040069365e+01
 3.2599359284e-01	 1.8777954417e+00	 1.1768781315e+01
 4.9607697022e-01	 1.8523708813e+00	 1.4940552436e+01
 4.6239276953e-01	 1.8610650630e+00	 1.4150958079e+01
 4.2872640124e-01	 1.8691077858e+00	 1.3187521449e+01
 3.9509522421e-01	 1.8765047311e+00	 1.2057284270e+01
 3.6151620506e-01	 1.8832621367e+00	 1.0766609496e+01
 3.2800589896e-01	 1.8893867715e+00	 1.1366738259e+01
 4.9912038721e-01	 1.8637351198e+00	 1.3637310570e+01
 4.6522953499e-01	 1.8724826401e+00	 1.3078666946e+01
 4.3135662456e-01	 1.8805747048e+00	 1.2358297567e+01
 3.9751912129e-01	 1.8880170301e+00	 1.1470623453e+01
 3.6373409589e-01	 1.8948158922e+00	 1.0409143898e+01
 3.3001820509e-01	 1.9009781014e+00	 1.0897717359e+01
 5.0216380421e-01	 1.8750993584e+00	 1.2338740325e+01
 4.6806630045e-01	 1.8839002172e+00	 1.2000699134e+01
 4.3398684788e-01	 1.8920416237e+00	 1.1499372368e+01
 3.9994301837e-01	 1.8995293291e+00	 1.0823541531e+01
 3.6595198672e-01	 1.9063696476e+00	 9.9613594708e+00
 3.3203051122e-01	 1.9125694313e+00	 1.0350354910e+01
 3.2196898058e-01	 1.8546127819e+00	 1.2418718948e+01
 2.8915870648e-01	 1.8600107090e+00	 1.2514388184e+01
 2.5644710327e-01	 1.8648022625e+00	 1.1832126449e+01
 2.2384911351e-01	 1.8689954975e+00	 1.0270185141e+01
 1.9137921709e-01	 1.8725988867e+00	 7.7311227300e+00
 1.5905142048e-01	 1.8756212946e+00	 4.1223876567e+00
 3.2398128671e-01	 1.8662041118e+00	 1.2115474626e+01
 2.9096594840e-01	 1.8716357759e+00	 1.2231682197e+01
 2.5804989767e-01	 1.8764572767e+00	 1.1571520242e+01
 2.2524817047e-01	 1.8806767193e+00	 1.0060666821e+01
 1.9257533720e-01	 1.8843026297e+00	 7.6282538570e+00
 1.6004549186e-01	 1.8873439277e+00	 4.2073621524e+00
 3.2599359284e-01	 1.8777954417e+00	 1.1768781315e+01
 2.9277319031e-01	 1.8832608429e+00	 1.1911529238e+01
 2.5965269206e-01	 1.8881122908e+00	 1.1291212132e+01
 2.2664722743e-01	 1.8923579412e+00	 9.8532347200e+00
 1.9377145730e-01	 1.8960063728e+00	 7.5462478283e+00
 1.6103956324e-01	 1.8990665608e+00	 4.3225625347e+00
 3.2800589896e-01	 1.8893867715e+00	 1.1366738259e+01
 2.9458043223e-01	 1.8948859098e+00	 1.1541284707e+01
 2.6125548646e-01	 1.8997673050e+00	 1.0980079744e+01
 2.2804628439e-01	 1.9040391630e+00	 9.6406833002e+00
 1.9496757741e-01	 1.9077101158e+00	 7.4843306483e+00
 1.6203363461e-01	 1.9107891939e+00	 4.4762726685e+00
 3.3001820509e-01	 1.9009781014e+00	 1.0897717359e+01
 2.9638767414e-01	 1.9065109767e+00	 1.1108595925e+01
 2.6285828085e-01	 1.9114223191e+00	 1.0627256781e+01
 2.2944534135e-01	 1.9157203849e+00	 9.4159689984e+00
 1.9616369752e-01	 1.9194138589e+00	 7.4417350044e+00
 1.6302770599e-01	 1.9225118270e+00	 4.6765638957e+00
 3.3203051122e-01	 1.9125694313e+00	 1.0350354910e+01
 2.9819491606e-01	 1.9181360437e+00	 1.0601393289e+01
 2.6446107525e-01	 1.9230773332e+00	 1.0222125259e+01
 2.3084439831e-01	 1.9274016068e+00	 9.1722053160e+00
 1.9735981762e-01	 1.9311176019e+00	 7.4177000649e+00
 1.6402177737e-01	 1.9342344601e+00	 4.9313014748e+00
 1.5905142048e-01	 1.8756212946e+00	 4.1223876567e+00
 1.2687924764e-01	 1.8780719506e+00	 7.2869678500e-01
 9.4875732393e-02	 1.8799604226e+00	-7.6093416177e-01
 6.3053412304e-02	 1.8812965907e+00	 1.3511810582e-01
 3.1424324022e-02	 1.8820906214e+00	 3.8503993212e+00
 0.0000000000e+00	 1.8823529412e+00	 1.0770906830e+01
 1.6004549186e-01	 1.8873439277e+00	 4.2073621524e+00
 1.2767224294e-01	 1.8898099003e+00	 1.0035669223e+00
 9.5468705720e-02	 1.8917101752e+00	-4.0478003044e-01
 6.3447496131e-02	 1.8930546944e+00	 4.4038341748e-01
 3.1620726047e-02	 1.8938536877e+00	 3.9476431903e+00
 0.0000000000e+00	 1.8941176471e+00	 1.0476815117e+01
 1.6103956324e-01	 1.8990665608e+00	 4.3225625347e+00
 1.2846523824e-01	 1.9015478500e+00	 1.2988508515e+00
 9.6061679048e-02	 1.9034599279e+00	-5.3641687064e-02
 6.3841579958e-02	 1.9048127981e+00	 7.1220959906e-01
 3.1817128072e-02	 1.9056167541e+00	 3.9907536963e+00
 0.0000000000e+00	 1.9058823529e+00	 1.0124485129e+01
 1.6203363461e-01	 1.9107891939e+00	 4.4762726685e+00
 1.2925823353e-01	 1.9132857997e+00	 1.6291964721e+00
 9.6654652375e-02	 1.9152096805e+00	 3.0527573807e-01
 6.4235663785e-02	 1.9165709018e+00	 9.5313982553e-01
 3.2013530097e-02	 1.9173798205e+00	 3.9634654621e+00
 0.0000000000e+00	 1.9176470588e+00	 9.6701508399e+00
 1.6302770599e-01	 1.9225118270e+00	 4.6765638957e+00
 1.3005122883e-01	 1.9250237494e+00	 2.0088857920e+00
 9.7247625702e-02	 1.9269594332e+00	 6.8444839904e-01
 6.4629747612e-02	 1.9283290055e+00	 1.1656506998e+00
 3.2209932123e-02	 1.9291428869e+00	 3.8499075017e+00
 0.0000000000e+00	 1.9294117647e+00	 9.0711136852e+00
 1.6402177737e-01	 1.9342344601e+00	 4.9313014748e+00
 1.3084422413e-01	 1.9367616991e+00	 2.4518460149e+00
 9.7840599030e-02	 1.9387091858e+00	 1.0960433924e+00
 6.5023831438e-02	 1.9400871092e+00	 1.3521542702e+00
 3.2406334148e-02	 1.9409059533e+00	 3.6345912681e+00
 0.0000000000e+00	 1.9411764706e+00	 8.2857102182e+00
 1.9411764706e+00	 0.0000000000e+00	 4.8524146557e+01
 1.9409059533e+00	 3.2406334148e-02	 4.3023434554e+01
 1.9400871092e+00	 6.5023831438e-02	 3.9675859345e+01
 1.9387091858e+00	 9.7840599030e-02	 3.7528504168e+01
 1.9367616991e+00	 1.3084422413e-01	 3.5622922507e+01
 1.9342344601e+00	 1.6402177737e-01	 3.2999938662e+01
 1.9529411765e+00	 0.0000000000e+00	 4.7389807583e+01
 1.9526690197e+00	 3.2602736173e-02	 4.2088719423e+01
 1.9518452129e+00	 6.5417915265e-02	 3.8939098802e+01
 1.9504589385e+00	 9.8433572357e-02	 3.6984082078e+01
 1.9484996488e+00	 1.3163721943e-01	 3.5261650119e+01
 1.9459570932e+00	 1.6501584875e-01	 3.2809504539e+01
 1.9647058824e+00	 0.0000000000e+00	 4.5324725762e+01
 1.9644320860e+00	 3.2799138198e-02	 4.1265705889e+01
 1.9636033166e+00	 6.5811999092e-02	 3.8664052790e+01
 1.9622086911e+00	 9.9026545685e-02	 3.6786401655e+01
 1.9602375985e+00	 1.3243021473e-01	 3.4900087866e+01
 1.9576797263e+00	 1.6600992013e-01	 3.2277177442e+01
 1.9764705882e+00	 0.0000000000e+00	 4.2343723692e+01
 1.9761951524e+00	 3.2995540223e-02	 4.0579212604e+01
 1.9753614203e+00	 6.6206082919e-02	 3.8885240223e+01
 1.9739584437e+00	 9.9619519012e-02	 3.6975201914e+01
 1.9719755481e+00	 1.3322321002e-01	 3.4574450262e+01
 1.9694023593e+00	 1.6700399150e-01	 3.1422566951e+01
 1.9882352941e+00	 0.0000000000e+00	 3.8461273141e+01
 1.9879582188e+00	 3.3191942248e-02	 4.0053472184e+01
 1.9871195240e+00	 6.6600166746e-02	 3.9636365556e+01
 1.9857081964e+00	 1.0021249234e-01	 3.7589284813e+01
 1.9837134978e+00	 1.3401620532e-01	 3.4320098911e+01
 1.9811249924e+00	 1.6799806288e-01	 3.0264823251e+01
 2.0000000000e+00	 0.0000000000e+00	 3.3691505364e+01
 1.9997212852e+00	 3.3388344273e-02	 3.9712148443e+01
 1.9988776277e+00	 6.6994250573e-02	 4.0950342746e+01
 1.9974579490e+00	 1.0080546567e-01	 3.8666542817e+01
 1.9954514475e+00	 1.3480920062e-01	 3.4171567596e+01
 1.9928476255e+00	 1.6899213426e-01	 2.8822650644e+01
 1.9342344601e+00	 1.6402177737e-01	 3.2999938662e+01
 1.9311176019e+00	 1.9735981762e-01	 2.9121594921e+01
 1.9274016068e+00	 2.3084439831e-01	 2.4418334992e+01
 1.9230773332e+00	 2.6446107525e-01	 1.9400687585e+01
 1.9181360437e+00	 2.9819491606e-01	 1.4597530935e+01
 1.9125694313e+00	 3.3203051122e-01	 1.0554454968e+01
 1.9459570932e+00	 1.6501584875e-01	 3.2809504539e+01
 1.9428213449e+00	 1.9855593773e-01	 2.9030266916e+01
 1.9390828286e+00	 2.3224345527e-01	 2.4320578658e+01
 1.9347323474e+00	 2.6606386964e-01	 1.9227026694e+01
 1.9297611106e+00	 3.0000215798e-01	 1.4314894078e+01
 1.9241607612e+00	 3.3404281735e-01	 1.0166330322e+01
 1.9576797263e+00	 1.6600992013e-01	 3.2277177442e+01
 1.9545250880e+00	 1.9975205784e-01	 2.8452158218e+01
 1.9507640505e+00	 2.3364251223e-01	 2.3769567013e+01
 1.9463873615e+00	 2.6766666404e-01	 1.8737449630e+01
 1.9413861775e+00	 3.0180939989e-01	 1.3882468531e+01
 1.9357520911e+00	 3.3605512348e-01	 9.7482536141e+00
 1.9694023593e+00	 1.6700399150e-01	 3.1422566951e+01
 1.9662288310e+00	 2.0094817794e-01	 2.7384620749e+01
 1.9624452723e+00	 2.3504156919e-01	 2.2746000801e+01
 1.9580423757e+00	 2.6926945843e-01	 1.7902985277e+01
 1.9530112445e+00	 3.0361664181e-01	 1.3269973194e+01
 1.9473434210e+00	 3.3806742961e-01	 9.2783843165e+00
 1.9811249924e+00	 1.6799806288e-01	 3.0264823251e+01
 1.9779325741e+00	 2.0214429805e-01	 2.5825074102e+01
 1.9741264942e+00	 2.3644062615e-01	 2.1231042577e+01
 1.9696973898e+00	 2.7087225283e-01	 1.6695353029e+01
 1.9646363114e+00	 3.0542388372e-01	 1.2447848017e+01
 1.9589347509e+00	 3.4007973574e-01	 8.7354024622e+00
 1.9928476255e+00	 1.6899213426e-01	 2.8822650644e+01
 1.9896363171e+00	 2.0334041816e-01	 2.3771003558e+01
 1.9858077161e+00	 2.3783968311e-01	 1.9206303120e+01
 1.9813524040e+00	 2.7247504722e-01	 1.5086942479e+01
 1.9762613783e+00	 3.0723112564e-01	 1.1387232793e+01
 1.9705260807e+00	 3.4209204186e-01	 8.0984933350e+00
 1.9125694313e+00	 3.3203051122e-01	 1.0554454968e+01
 1.9063696476e+00	 3.6595198672e-01	 7.3888096771e+00
 1.8995293291e+00	 3.9994301837e-01	 4.1604742866e+00
 1.8920416237e+00	 4.3398684788e-01	 1.0225985721e+00
 1.8839002172e+00	 4.6806630045e-01	-2.1829278118e+00
 1.8750993584e+00	 5.0216380421e-01	-5.6158235012e+00
 1.9241607612e+00	 3.3404281735e-01	 1.0166330322e+01
 1.9179234031e+00	 3.6816987754e-01	 6.9304235546e+00
 1.9110416280e+00	 4.0236691545e-01	 3.7920092036e+00
 1.9035085426e+00	 4.3661707120e-01	 7.9675619349e-01
 1.8953177943e+00	 4.7090306590e-01	-2.2682563246e+00
 1.8864635969e+00	 5.0520722120e-01	-5.6173934488e+00
 1.9357520911e+00	 3.3605512348e-01	 9.7482536141e+00
 1.9294771585e+00	 3.7038776837e-01	 6.4697831154e+00
 1.9225539270e+00	 4.0479081254e-01	 3.3674803161e+00
 1.9149754616e+00	 4.3924729452e-01	 4.2666580483e-01
 1.9067353713e+00	 4.7373983136e-01	-2.5790097435e+00
 1.8978278354e+00	 5.0825063820e-01	-5.8773809648e+00
 1.9473434210e+00	 3.3806742961e-01	 9.2783843165e+00
 1.9410309139e+00	 3.7260565920e-01	 5.9971777292e+00
 1.9340662260e+00	 4.0721470962e-01	 2.8861964815e+00
 1.9264423805e+00	 4.4187751784e-01	-8.3460793560e-02
 1.9181529484e+00	 4.7657659682e-01	-3.1109471411e+00
 1.9091920740e+00	 5.1129405519e-01	-6.3971473825e+00
 1.9589347509e+00	 3.4007973574e-01	 8.7354024622e+00
 1.9525846694e+00	 3.7482355003e-01	 5.5031242200e+00
 1.9455785249e+00	 4.0963860670e-01	 2.3474805062e+00
 1.9379092994e+00	 4.4450774116e-01	-7.2951389045e-01
 1.9295705255e+00	 4.7941336227e-01	-3.8599303262e+00
 1.9205563125e+00	 5.1433747219e-01	-7.1780240983e+00
 1.9705260807e+00	 3.4209204186e-01	 8.0984933350e+00
 1.9641384248e+00	 3.7704144086e-01	 4.9783601769e+00
 1.9570908239e+00	 4.1206250378e-01	 1.7506687357e+00
 1.9493762184e+00	 4.4713796448e-01	-1.5074828611e+00
 1.9409881026e+00	 4.8225012773e-01	-4.8219208230e+00
 1.9319205510e+00	 5.1738088918e-01	-8.2213134514e+00
 1.8750993584e+00	 5.0216380421e-01	-5.6158235012e+00
 1.8656338839e+00	 5.3626141124e-01	-9.3083645168e+00
 1.8554992424e+00	 5.7034082026e-01	-1.3084952111e+01
 1.8446915175e+00	 6.0438340096e-01	-1.6795718285e+01
 1.8332074494e+00	 6.3837021987e-01	-2.0293415657e+01
 1.8210444561e+00	 6.7228206786e-01	-2.3434246043e+01
 1.8864635969e+00	 5.0520722120e-01	-5.6173934488e+00
 1.8769407559e+00	 5.3951148040e-01	-9.3369127928e+00
 1.8667446924e+00	 5.7379743130e-01	-1.3231516613e+01
 1.8558714661e+00	 6.0804633066e-01	-1.7094696168e+01
 1.8443177975e+00	 6.4223913029e-01	-2.0722183899e+01
 1.8320810892e+00	 6.7635650464e-01	-2.3913086239e+01
 1.8978278354e+00	 5.0825063820e-01	-5.8773809648e+00
 1.8882476280e+00	 5.4276154956e-01	-9.5828278176e+00
 1.8779901424e+00	 5.7725404233e-01	-1.3504416463e+01
 1.8670514146e+00	 6.1170926036e-01	-1.7413097979e+01
 1.8554281457e+00	 6.4610804071e-01	-2.1081682579e+01
 1.8431177223e+00	 6.8043094141e-01	-2.4286092880e+01
 1.9091920740e+00	 5.1129405519e-01	-6.3971473825e+00
 1.8995545000e+00	 5.4601161872e-01	-1.0055253664e+01
 1.8892355923e+00	 5.8071065336e-01	-1.3918394625e+01
 1.8782313632e+00	 6.1537219006e-01	-1.7768465783e+01
 1.8665384939e+00	 6.4997695114e-01	-2.1388835503e+01
 1.8541543553e+00	 6.8450537819e-01	-2.4565536772e+01
 1.9205563125e+00	 5.1433747219e-01	-7.1780240983e+00
 1.9108613720e+00	 5.4926168788e-01	-1.0763120151e+01
 1.9004810423e+00	 5.8416726439e-01	-1.4487847147e+01
 1.8894113118e+00	 6.1903511977e-01	-1.8177928302e+01
 1.8776488421e+00	 6.5384586156e-01	-2.1660167558e+01
 1.8651909884e+00	 6.8857981496e-01	-2.4763399685e+01
 1.9319205510e+00	 5.1738088918e-01	-8.2213134514e+00
 1.9221682440e+00	 5.5251175704e-01	-1.1715149144e+01
 1.9117264922e+00	 5.8762387542e-01	-1.5226833362e+01
 1.9005912604e+00	 6.2269804947e-01	-1.8658213069e+01
 1.8887591902e+00	 6.5771477198e-01	-2.1911816441e+01
 1.8762276215e+00	 6.9265425174e-01	-2.4891382856e+01
 1.8210444561e+00	 6.7228206786e-01	-2.3434246043e+01
 1.8082006530e+00	 7.0609948907e-01	-2.6153097112e+01
 1.7946748704e+00	 7.3980281123e-01	-2.8890214307e+01
 1.7804666706e+00	 7.7337217741e-01	-3.1053721900e+01
 1.7655763627e+00	 8.0678757896e-01	-3.2160251021e+01
 1.7500050156e+00	 8.4002888966e-01	-3.3431515282e+01
 1.8320810892e+00	 6.7635650464e-01	-2.3913086239e+01
 1.8191594448e+00	 7.1037887991e-01	-2.6552472065e+01
 1.8055516878e+00	 7.4428646463e-01	-2.9155933130e+01
 1.7912573777e+00	 7.7805928151e-01	-3.1738334457e+01
 1.7762768255e+00	 8.1167720065e-01	-3.3270270581e+01
 1.7606111066e+00	 8.4511997384e-01	-3.4315788178e+01
 1.8431177223e+00	 6.8043094141e-01	-2.4286092880e+01
 1.8301182367e+00	 7.1465827075e-01	-2.6886511011e+01
 1.8164285052e+00	 7.4877011803e-01	-2.9437239689e+01
 1.8020480848e+00	 7.8274638562e-01	-3.1872122832e+01
 1.7869772883e+00	 8.1656682234e-01	-3.4400877484e+01
 1.7712171976e+00	 8.5021105802e-01	-3.5400408377e+01
 1.8541543553e+00	 6.8450537819e-01	-2.4565536772e+01
 1.8410770285e+00	 7.1893766160e-01	-2.7197824196e+01
 1.8273053226e+00	 7.5325377143e-01	-2.9735497505e+01
 1.8128387919e+00	 7.8743348973e-01	-3.2118629589e+01
 1.7976777511e+00	 8.2145644403e-01	-3.4534739127e+01
 1.7818232886e+00	 8.5530214220e-01	-3.6687418440e+01
 1.8651909884e+00	 6.8857981496e-01	-2.4763399685e+01
 1.8520358203e+00	 7.2321705244e-01	-2.7452038842e+01
 1.8381821400e+00	 7.5773742484e-01	-3.0052038212e+01
 1.8236294990e+00	 7.9212059383e-01	-3.2476867352e+01
 1.8083782139e+00	 8.2634606572e-01	-3.4858168456e+01
 1.7924293796e+00	 8.6039322638e-01	-3.7335794541e+01
 1.8762276215e+00	 6.9265425174e-01	-2.4891382856e+01
 1.8629946122e+00	 7.2749644328e-01	-2.7654880755e+01
 1.8490589574e+00	 7.6222107824e-01	-3.0388162496e+01
 1.8344202061e+00	 7.9680769794e-01	-3.2945871634e+01
 1.8190786767e+00	 8.3123568741e-01	-3.5370695096e+01
 1.8030354706e+00	 8.6548431056e-01	-3.7714722082e+01
 1.7500050156e+00	 8.4002888966e-01	-3.3431515282e+01
 1.7337544697e+00	 8.7307590092e-01	-3.4902652258e+01
 1.7168273463e+00	 9.0590835794e-01	-3.6439019980e+01
 1.6992270549e+00	 9.3850599669e-01	-3.7841874477e+01
 1.6809577988e+00	 9.7084858165e-01	-3.8904559816e+01
 1.6620245784e+00	 1.0029159440e+00	-3.9413387217e+01
 1.7606111066e+00	 8.4511997384e-01	-3.4315788178e+01
 1.7442620725e+00	 8.7836727002e-01	-3.5643269505e+01
 1.7272323605e+00	 9.1139871162e-01	-3.7107882197e+01
 1.7095254007e+00	 9.4419391182e-01	-3.8490160157e+01
 1.6911454219e+00	 9.7673251244e-01	-3.9562763970e+01
 1.6720974546e+00	 1.0089942225e+00	-4.0091485166e+01
 1.7712171976e+00	 8.5021105802e-01	-3.5400408377e+01
 1.7547696754e+00	 8.8365863911e-01	-3.6527703098e+01
 1.7376373747e+00	 9.1688906531e-01	-3.7805448811e+01
 1.7198237465e+00	 9.4988182695e-01	-3.9022757781e+01
 1.7013330449e+00	 9.8261644324e-01	-3.9960917910e+01
 1.6821703309e+00	 1.0150725009e+00	-4.0394358692e+01
 1.7818232886e+00	 8.5530214220e-01	-3.6687418440e+01
 1.7652772782e+00	 8.8895000821e-01	-3.7563763744e+01
 1.7480423890e+00	 9.2237941899e-01	-3.8544435353e+01
 1.7301220923e+00	 9.5556974209e-01	-3.9455903077e+01
 1.7115206679e+00	 9.8850037404e-01	-4.0116870916e+01
 1.6922432071e+00	 1.0211507794e+00	-4.0339042866e+01
 1.7924293796e+00	 8.6039322638e-01	-3.7335794541e+01
 1.7757848811e+00	 8.9424137730e-01	-3.8759039129e+01
 1.7584474032e+00	 9.2786977267e-01	-3.9337217874e+01
 1.7404204381e+00	 9.6125765722e-01	-3.9805408710e+01
 1.7217082909e+00	 9.9438430484e-01	-4.0048010850e+01
 1.7023160833e+00	 1.0272290578e+00	-3.9942130554e+01
 1.8030354706e+00	 8.6548431056e-01	-3.7714722082e+01
 1.7862924839e+00	 8.9953274640e-01	-4.0046471529e+01
 1.7688524174e+00	 9.3336012636e-01	-4.0195842929e+01
 1.7507187838e+00	 9.6694557235e-01	-4.0086676721e+01
 1.7318959140e+00	 1.0002682356e+00	-3.9771277730e+01
 1.7123889596e+00	 1.0333073363e+00	-3.9219785424e+01
 1.6620245784e+00	 1.0029159440e+00	-3.9413387217e+01
 1.6424331920e+00	 1.0346880206e+00	-3.9257748842e+01
 1.6221902349e+00	 1.0661448925e+00	-3.8487438025e+01
 1.6013030961e+00	 1.0972668246e+00	-3.7190943472e+01
 1.5797799523e+00	 1.1280343045e+00	-3.5689907690e+01
 1.5576297601e+00	 1.1584280817e+00	-3.4236754124e+01
 1.6720974546e+00	 1.0089942225e+00	-4.0091485166e+01
 1.6523873325e+00	 1.0409588571e+00	-3.9944624007e+01
 1.6320216909e+00	 1.0726063767e+00	-3.9172491364e+01
 1.6110079634e+00	 1.1039169265e+00	-3.7808351333e+01
 1.5893543763e+00	 1.1348708761e+00	-3.6256387788e+01
 1.5670699404e+00	 1.1654488580e+00	-3.4782957905e+01
 1.6821703309e+00	 1.0150725009e+00	-4.0394358692e+01
 1.6623414731e+00	 1.0472296935e+00	-4.0188908111e+01
 1.6418531469e+00	 1.0790678609e+00	-3.9348400038e+01
 1.6207128306e+00	 1.1105670285e+00	-3.7917143006e+01
 1.5989288002e+00	 1.1417074476e+00	-3.6324147983e+01
 1.5765101208e+00	 1.1724696342e+00	-3.4843702283e+01
 1.6922432071e+00	 1.0211507794e+00	-4.0339042866e+01
 1.6722956136e+00	 1.0535005300e+00	-4.0004599809e+01
 1.6516846028e+00	 1.0855293450e+00	-3.9032887142e+01
 1.6304176979e+00	 1.1172171305e+00	-3.7522761634e+01
 1.6085032242e+00	 1.1485440191e+00	-3.5891459365e+01
 1.5859503011e+00	 1.1794904105e+00	-3.4409141819e+01
 1.7023160833e+00	 1.0272290578e+00	-3.9942130554e+01
 1.6822497542e+00	 1.0597713665e+00	-3.9405327470e+01
 1.6615160588e+00	 1.0919908292e+00	-3.8237154868e+01
 1.6401225651e+00	 1.1238672324e+00	-3.6630529037e+01
 1.6180776481e+00	 1.1553805907e+00	-3.4956639321e+01
 1.5953904815e+00	 1.1865111868e+00	-3.3469667269e+01
 1.7123889596e+00	 1.0333073363e+00	-3.9219785424e+01
 1.6922038947e+00	 1.0660422030e+00	-3.8404360062e+01
 1.6713475148e+00	 1.0984523134e+00	-3.6972151336e+01
 1.6498274324e+00	 1.1305173344e+00	-3.5245649283e+01
 1.6276520721e+00	 1.1622171622e+00	-3.3518050169e+01
 1.6048306619e+00	 1.1935319630e+00	-3.2015898634e+01
 1.5576297601e+00	 1.1584280817e+00	-3.4236754124e+01
 1.5348622453e+00	 1.1884292061e+00	-3.2833174778e+01
 1.5114878911e+00	 1.2180190659e+00	-3.1364947496e+01
 1.4875179225e+00	 1.2471794258e+00	-2.9914054949e+01
 1.4629642895e+00	 1.2758924632e+00	-2.8572163424e+01
 1.4378396478e+00	 1.3041408042e+00	-2.7439828054e+01
 1.5670699404e+00	 1.1654488580e+00	-3.4782957905e+01
 1.5441644408e+00	 1.1956318073e+00	-3.3424986492e+01
 1.5206484238e+00	 1.2254009996e+00	-3.2071995505e+01
 1.4965331827e+00	 1.2547380890e+00	-3.0778721496e+01
 1.4718307397e+00	 1.2836251448e+00	-2.9610787049e+01
 1.4465538275e+00	 1.3120446879e+00	-2.8644060174e+01
 1.5765101208e+00	 1.1724696342e+00	-3.4843702283e+01
 1.5534666362e+00	 1.2028344086e+00	-3.3543772695e+01
 1.5298089565e+00	 1.2327829334e+00	-3.2320098877e+01
 1.5055484428e+00	 1.2622967522e+00	-3.1198604713e+01
 1.4806971900e+00	 1.2913578264e+00	-3.0218594636e+01
 1.4552680071e+00	 1.3199485715e+00	-2.9432280719e+01
 1.5859503011e+00	 1.1794904105e+00	-3.4409141819e+01
 1.5627688316e+00	 1.2100370098e+00	-3.3173660069e+01
 1.5389694892e+00	 1.2401648671e+00	-3.2092367770e+01
 1.5145637029e+00	 1.2698554154e+00	-3.1160842518e+01
 1.4895636402e+00	 1.2990905080e+00	-3.0391813979e+01
 1.4639821868e+00	 1.3278524552e+00	-2.9814872079e+01
 1.5953904815e+00	 1.1865111868e+00	-3.3469667269e+01
 1.5720710270e+00	 1.2172396111e+00	-3.2299151890e+01
 1.5481300218e+00	 1.2475468008e+00	-3.1372310674e+01
 1.5235789631e+00	 1.2774140785e+00	-3.0652873469e+01
 1.4984300904e+00	 1.3068231896e+00	-3.0126755984e+01
 1.4726963665e+00	 1.3357563389e+00	-2.9801962331e+01
 1.6048306619e+00	 1.1935319630e+00	-3.2015898634e+01
 1.5813732225e+00	 1.2244422123e+00	-3.0905116953e+01
 1.5572905545e+00	 1.2549287346e+00	-3.0143822699e+01
 1.5325942232e+00	 1.2849727417e+00	-2.9662427926e+01
 1.5072965407e+00	 1.3145558712e+00	-2.9419812222e+01
 1.4814105462e+00	 1.3436602225e+00	-2.9403432717e+01
 1.4378396478e+00	 1.3041408042e+00	-2.7439828054e+01
 1.4121573376e+00	 1.3319075583e+00	-2.7293248368e+01
 1.3859313600e+00	 1.3591763518e+00	-2.7391288351e+01
 1.3591763518e+00	 1.3859313600e+00	-2.7214839925e+01
 1.3319075583e+00	 1.4121573376e+00	-2.6677161797e+01
 1.3041408042e+00	 1.4378396478e+00	-2.4829680477e+01
 1.4465538275e+00	 1.3120446879e+00	-2.8644060174e+01
 1.4207158669e+00	 1.3399797253e+00	-2.8346026655e+01
 1.3943309440e+00	 1.3674137843e+00	-2.8585371808e+01
 1.3674137843e+00	 1.3943309440e+00	-2.8546141397e+01
 1.3399797253e+00	 1.4207158669e+00	-2.8168445559e+01
 1.3120446879e+00	 1.4465538275e+00	-2.5684653143e+01
 1.4552680071e+00	 1.3199485715e+00	-2.9432280719e+01
 1.4292743962e+00	 1.3480518924e+00	-2.9097570459e+01
 1.4027305280e+00	 1.3756512167e+00	-2.9481162365e+01
 1.3756512167e+00	 1.4027305280e+00	-2.9585247461e+01
 1.3480518924e+00	 1.4292743962e+00	-2.9299637160e+01
 1.3199485715e+00	 1.4552680071e+00	-2.6183227240e+01
 1.4639821868e+00	 1.3278524552e+00	-2.9814872079e+01
 1.4378329255e+00	 1.3561240594e+00	-2.9647108497e+01
 1.4111301120e+00	 1.3838886491e+00	-3.0107266885e+01
 1.3838886491e+00	 1.4111301120e+00	-3.0361662198e+01
 1.3561240594e+00	 1.4378329255e+00	-2.9454957671e+01
 1.3278524552e+00	 1.4639821868e+00	-2.6338211289e+01
 1.4726963665e+00	 1.3357563389e+00	-2.9801962331e+01
 1.4463914548e+00	 1.3641962264e+00	-2.9839656749e+01
 1.4195296960e+00	 1.3921260816e+00	-3.0491546965e+01
 1.3921260816e+00	 1.4195296960e+00	-3.0904125580e+01
 1.3641962264e+00	 1.4463914548e+00	-2.9339679953e+01
 1.3357563389e+00	 1.4726963665e+00	-2.6162058807e+01
 1.4814105462e+00	 1.3436602225e+00	-2.9403432717e+01
 1.4549499842e+00	 1.3722683934e+00	-2.9697936773e+01
 1.4279292800e+00	 1.4003635140e+00	-3.0661140848e+01
 1.4003635140e+00	 1.4279292800e+00	-3.1240635937e+01
 1.3722683934e+00	 1.4549499842e+00	-2.8977247098e+01
 1.3436602225e+00	 1.4814105462e+00	-2.5666878752e+01
 1.3041408042e+00	 1.4378396478e+00	-2.4829680477e+01
 1.2758924632e+00	 1.4629642895e+00	-2.1032493460e+01
 1.2471794258e+00	 1.4875179225e+00	-1.7091283346e+01
 1.2180190659e+00	 1.5114878911e+00	-1.3231784940e+01
 1.1884292061e+00	 1.5348622453e+00	-9.6545779957e+00
 1.1584280817e+00	 1.5576297601e+00	-6.5338031184e+00
 1.3120446879e+00	 1.4465538275e+00	-2.5684653143e+01
 1.2836251448e+00	 1.4718307397e+00	-2.2009232495e+01
 1.2547380890e+00	 1.4965331827e+00	-1.8183528052e+01
 1.2254009996e+00	 1.5206484238e+00	-1.4420028008e+01
 1.1956318073e+00	 1.5441644408e+00	-1.0904336470e+01
 1.1654488580e+00	 1.5670699404e+00	-7.7939787872e+00
 1.3199485715e+00	 1.4552680071e+00	-2.6183227240e+01
 1.2913578264e+00	 1.4806971900e+00	-2.2572607016e+01
 1.2622967522e+00	 1.5055484428e+00	-1.8794196394e+01
 1.2327829334e+00	 1.5298089565e+00	-1.5059817299e+01
 1.2028344086e+00	 1.5534666362e+00	-1.1553510537e+01
 1.1724696342e+00	 1.5765101208e+00	-8.4303471709e+00
 1.3278524552e+00	 1.4639821868e+00	-2.6338211289e+01
 1.2990905080e+00	 1.4895636402e+00	-2.2722400617e+01
 1.2698554154e+00	 1.5145637029e+00	-1.8913786580e+01
 1.2401648671e+00	 1.5389694892e+00	-1.5135864349e+01
 1.2100370098e+00	 1.5627688316e+00	-1.1584273005e+01
 1.1794904105e+00	 1.5859503011e+00	-8.4255303992e+00
 1.3357563389e+00	 1.4726963665e+00	-2.6162058807e+01
 1.3068231896e+00	 1.4984300904e+00	-2.2458347482e+01
 1.2774140785e+00	 1.5235789631e+00	-1.8532964625e+01
 1.2475468008e+00	 1.5481300218e+00	-1.4633183058e+01
 1.2172396111e+00	 1.5720710270e+00	-1.0979156883e+01
 1.1865111868e+00	 1.5953904815e+00	-7.7624981029e+00
 1.3436602225e+00	 1.4814105462e+00	-2.5666878752e+01
 1.3145558712e+00	 1.5072965407e+00	-2.1780133835e+01
 1.2849727417e+00	 1.5325942232e+00	-1.7642559409e+01
 1.2549287346e+00	 1.5572905545e+00	-1.3537080789e+01
 1.2244422123e+00	 1.5813732225e+00	-9.7210447926e+00
 1.1935319630e+00	 1.6048306619e+00	-6.4245571928e+00
 1.1584280817e+00	 1.5576297601e+00	-6.5338031184e+00
 1.1280343045e+00	 1.5797799523e+00	-3.4533677305e+00
 1.0972668246e+00	 1.6013030961e+00	 9.7272772605e-02
 1.0661448925e+00	 1.6221902349e+00	 3.1861295984e+00
 1.0346880206e+00	 1.6424331920e+00	 2.5923602264e+00
 1.0029159440e+00	 1.6620245784e+00	 3.1026313824e+00
 1.1654488580e+00	 1.5670699404e+00	-7.7939787872e+00
 1.1348708761e+00	 1.5893543763e+00	-4.7558198270e+00
 1.1039169265e+00	 1.6110079634e+00	-1.3715366486e+00
 1.0726063767e+00	 1.6320216909e+00	 2.3343052398e+00
 1.0409588571e+00	 1.6523873325e+00	 1.6060495307e+00
 1.0089942225e+00	 1.6720974546e+00	 1.7011633122e+00
 1.1724696342e+00	 1.5765101208e+00	-8.4303471709e+00
 1.1417074476e+00	 1.5989288002e+00	-5.4543392532e+00
 1.1105670285e+00	 1.6207128306e+00	-2.2901266237e+00
 1.0790678609e+00	 1.6418531469e+00	 1.0606469802e+00
 1.0472296935e+00	 1.6623414731e+00	 9.6853248261e-01
 1.0150725009e+00	 1.6821703309e+00	 6.0394088699e-01
 1.1794904105e+00	 1.5859503011e+00	-8.4255303992e+00
 1.1485440191e+00	 1.6085032242e+00	-5.5343120687e+00
 1.1172171305e+00	 1.6304176979e+00	-2.6487107448e+00
 1.0855293450e+00	 1.6516846028e+00	 2.7219339056e-01
 1.0535005300e+00	 1.6722956136e+00	 6.7294574881e-01
 1.0211507794e+00	 1.6922432071e+00	-2.0918655613e-01
 1.1865111868e+00	 1.5953904815e+00	-7.7624981029e+00
 1.1553805907e+00	 1.6180776481e+00	-4.9814045323e+00
 1.1238672324e+00	 1.6401225651e+00	-2.4376668552e+00
 1.0919908292e+00	 1.6615160588e+00	-2.8512401799e-02
 1.0597713665e+00	 1.6822497542e+00	 7.1267349705e-01
 1.0272290578e+00	 1.7023160833e+00	-7.5780999356e-01
 1.1935319630e+00	 1.6048306619e+00	-6.4245571928e+00
 1.1622171622e+00	 1.6276520721e+00	-3.7815548607e+00
 1.1305173344e+00	 1.6498274324e+00	-1.6475322189e+00
 1.0984523134e+00	 1.6713475148e+00	 1.6108134707e-01
 1.0660422030e+00	 1.6922038947e+00	 1.0813401167e+00
 1.0333073363e+00	 1.7123889596e+00	-1.0609771766e+00
 1.0029159440e+00	 1.6620245784e+00	 3.1026313824e+00
 9.7084858165e-01	 1.6809577988e+00	 4.2245504900e+00
 9.3850599669e-01	 1.6992270549e+00	 5.3311111454e+00
 9.0590835794e-01	 1.7168273463e+00	 6.3476377331e+00
 8.7307590092e-01	 1.7337544697e+00	 7.2217563648e+00
 8.4002888966e-01	 1.7500050156e+00	 7.9228199415e+00
 1.0089942225e+00	 1.6720974546e+00	 1.7011633122e+00
 9.7673251244e-01	 1.6911454219e+00	 2.4273192938e+00
 9.4419391182e-01	 1.7095254007e+00	 3.2488879790e+00
 9.1139871162e-01	 1.7272323605e+00	 4.0740591297e+00
 8.7836727002e-01	 1.7442620725e+00	 4.8309142949e+00
 8.4511997384e-01	 1.7606111066e+00	 5.4669960977e+00
 1.0150725009e+00	 1.6821703309e+00	 6.0394088699e-01
 9.8261644324e-01	 1.7013330449e+00	 9.2511371748e-01
 9.4988182695e-01	 1.7198237465e+00	 1.4726823489e+00
 9.1688906531e-01	 1.7376373747e+00	 2.1178450690e+00
 8.8365863911e-01	 1.7547696754e+00	 2.7512382651e+00
 8.5021105802e-01	 1.7712171976e+00	 3.2827101775e+00
 1.0211507794e+00	 1.6922432071e+00	-2.0918655613e-01
 9.8850037404e-01	 1.7115206679e+00	-3.1386126185e-01
 9.5556974209e-01	 1.7301220923e+00	-3.4094204145e-02
 9.2237941899e-01	 1.7480423890e+00	 4.4479225563e-01
 8.8895000821e-01	 1.7652772782e+00	 9.5839245270e-01
 8.5530214220e-01	 1.7818232886e+00	 1.3632553353e+00
 1.0272290578e+00	 1.7023160833e+00	-7.5780999356e-01
 9.9438430484e-01	 1.7217082909e+00	-1.3205678011e+00
 9.6125765722e-01	 1.7404204381e+00	-1.3070863557e+00
 9.2786977267e-01	 1.7584474032e+00	-9.7841791290e-01
 8.9424137730e-01	 1.7757848811e+00	-5.7131054949e-01
 8.6039322638e-01	 1.7924293796e+00	 7.4744138015e-01
 1.0333073363e+00	 1.7123889596e+00	-1.0609771766e+00
 1.0002682356e+00	 1.7318959140e+00	-2.1251596871e+00
 9.6694557235e-01	 1.7507187838e+00	-2.3810227559e+00
 9.3336012636e-01	 1.7688524174e+00	-2.1842453662e+00
 8.9953274640e-01	 1.7862924839e+00	-1.7747982870e+00
 8.6548431056e-01	 1.8030354706e+00	 1.0568449106e+00
 8.4002888966e-01	 1.7500050156e+00	 7.9228199415e+00
 8.0678757896e-01	 1.7655763627e+00	 8.6550940724e+00
 7.7337217741e-01	 1.7804666706e+00	 9.7137345926e+00
 7.3980281123e-01	 1.7946748704e+00	 1.2517411602e+01
 7.0609948907e-01	 1.8082006530e+00	 1.5227071549e+01
 6.7228206786e-01	 1.8210444561e+00	 1.4443423927e+01
 8.4511997384e-01	 1.7606111066e+00	 5.4669960977e+00
 8.1167720065e-01	 1.7762768255e+00	 6.1062276681e+00
 7.7805928151e-01	 1.7912573777e+00	 7.8244395807e+00
 7.4428646463e-01	 1.8055516878e+00	 1.1219762067e+01
 7.1037887991e-01	 1.8191594448e+00	 1.4305366649e+01
 6.7635650464e-01	 1.8320810892e+00	 1.3319263966e+01
 8.5021105802e-01	 1.7712171976e+00	 3.2827101775e+00
 8.1656682234e-01	 1.7869772883e+00	 3.9574460797e+00
 7.8274638562e-01	 1.8020480848e+00	 6.9536381465e+00
 7.4877011803e-01	 1.8164285052e+00	 1.0127134637e+01
 7.1465827075e-01	 1.8301182367e+00	 1.3481067369e+01
 6.8043094141e-01	 1.8431177223e+00	 1.2364011563e+01
 8.5530214220e-01	 1.7818232886e+00	 1.3632553353e+00
 8.2145644403e-01	 1.7976777511e+00	 3.5327572839e+00
 7.8743348973e-01	 1.8128387919e+00	 6.3585897206e+00
 7.5325377143e-01	 1.8273053226e+00	 9.2811149707e+00
 7.1893766160e-01	 1.8410770285e+00	 1.2342023492e+01
 6.8450537819e-01	 1.8541543553e+00	 1.1635587816e+01
 8.6039322638e-01	 1.7924293796e+00	 7.4744138015e-01
 8.2634606572e-01	 1.8083782139e+00	 3.4345587076e+00
 7.9212059383e-01	 1.8236294990e+00	 6.0669226037e+00
 7.5773742484e-01	 1.8381821400e+00	 8.7223275525e+00
 7.2321705244e-01	 1.8520358203e+00	 1.1493426963e+01
 6.8857981496e-01	 1.8651909884e+00	 1.1190590859e+01
 8.6548431056e-01	 1.8030354706e+00	 1.0568449106e+00
 8.3123568741e-01	 1.8190786767e+00	 3.6738014374e+00
 7.9680769794e-01	 1.8344202061e+00	 6.1056377945e+00
 7.6222107824e-01	 1.8490589574e+00	 8.4904639649e+00
 7.2749644328e-01	 1.8629946122e+00	 1.0984115277e+01
 6.9265425174e-01	 1.8762276215e+00	 1.1084334774e+01
 6.7228206786e-01	 1.8210444561e+00	 1.4443423927e+01
 6.3837021987e-01	 1.8332074494e+00	 1.3849466321e+01
 6.0438340096e-01	 1.8446915175e+00	 1.3374197289e+01
 5.7034082026e-01	 1.8554992424e+00	 1.2974876221e+01
 5.3626141124e-01	 1.8656338839e+00	 1.2630065542e+01
 5.0216380421e-01	 1.8750993584e+00	 1.2338740325e+01
 6.7635650464e-01	 1.8320810892e+00	 1.3319263966e+01
 6.4223913029e-01	 1.8443177975e+00	 1.2542190881e+01
 6.0804633066e-01	 1.8558714661e+00	 1.1972058908e+01
 5.7379743130e-01	 1.8667446924e+00	 1.1570026581e+01
 5.3951148040e-01	 1.8769407559e+00	 1.1313325359e+01
 5.0520722120e-01	 1.8864635969e+00	 1.1194548556e+01
 6.8043094141e-01	 1.8431177223e+00	 1.2364011563e+01
 6.4610804071e-01	 1.8554281457e+00	 1.1445576563e+01
 6.1170926036e-01	 1.8670514146e+00	 1.0817259330e+01
 5.7725404233e-01	 1.8779901424e+00	 1.0440113065e+01
 5.4276154956e-01	 1.8882476280e+00	 1.0284716194e+01
 5.0825063820e-01	 1.8978278354e+00	 1.0330709575e+01
 6.8450537819e-01	 1.8541543553e+00	 1.1635587816e+01
 6.4997695114e-01	 1.8665384939e+00	 1.0618098555e+01
 6.1537219006e-01	 1.8782313632e+00	 9.9627744405e+00
 5.8071065336e-01	 1.8892355923e+00	 9.6266491001e+00
 5.4601161872e-01	 1.8995545000e+00	 9.5684308767e+00
 5.1129405519e-01	 1.9091920740e+00	 9.7483565812e+00
 6.8857981496e-01	 1.8651909884e+00	 1.1190590859e+01
 6.5384586156e-01	 1.8776488421e+00	 1.0116893932e+01
 6.1903511977e-01	 1.8894113118e+00	 9.4603700565e+00
 5.8416726439e-01	 1.9004810423e+00	 9.1702071642e+00
 5.4926168788e-01	 1.9108613720e+00	 9.1881289995e+00
 5.1433747219e-01	 1.9205563125e+00	 9.4486330224e+00
 6.9265425174e-01	 1.8762276215e+00	 1.1084334774e+01
 6.5771477198e-01	 1.8887591902e+00	 9.9978010105e+00
 6.2269804947e-01	 1.9005912604e+00	 9.3606375234e+00
 5.8762387542e-01	 1.9117264922e+00	 9.1104464668e+00
 5.5251175704e-01	 1.9221682440e+00	 9.1669526042e+00
 5.1738088918e-01	 1.9319205510e+00	 9.4326922977e+00
 5.0216380421e-01	 1.8750993584e+00	 1.2338740325e+01
 4.6806630045e-01	 1.8839002172e+00	 1.2000699134e+01
 4.3398684788e-01	 1.8920416237e+00	 1.1499372368e+01
 3.9994301837e-01	 1.8995293291e+00	 1.0823541531e+01
 3.6595198672e-01	 1.9063696476e+00	 9.9613594708e+00
 3.3203051122e-01	 1.9125694313e+00	 1.0350354910e+01
 5.0520722120e-01	 1.8864635969e+00	 1.1194548556e+01
 4.7090306590e-01	 1.8953177943e+00	 1.1065266661e+01
 4.3661707120e-01	 1.9035085426e+00	 1.0762892610e+01
 4.0236691545e-01	 1.9110416280e+00	 1.0271094528e+01
 3.6816987754e-01	 1.9179234031e+00	 9.5750242764e+00
 3.3404281735e-01	 1.9241607612e+00	 9.8612495812e+00
 5.0825063820e-01	 1.8978278354e+00	 1.0330709575e+01
 4.7373983136e-01	 1.9067353713e+00	 1.0394252608e+01
 4.3924729452e-01	 1.9149754616e+00	 1.0279086028e+01
 4.0479081254e-01	 1.9225539270e+00	 9.9579603250e+00
 3.7038776837e-01	 1.9294771585e+00	 9.4103041339e+00
 3.3605512348e-01	 1.9357520911e+00	 9.6014924806e+00
 5.1129405519e-01	 1.9091920740e+00	 9.7483565812e+00
 4.7657659682e-01	 1.9181529484e+00	 9.9696819486e+00
 4.4187751784e-01	 1.9264423805e+00	 1.0024461455e+01
 4.0721470962e-01	 1.9340662260e+00	 9.8687508101e+00
 3.7260565920e-01	 1.9410309139e+00	 9.4735244726e+00
 3.3806742961e-01	 1.9473434210e+00	 9.6109147252e+00
 5.1433747219e-01	 1.9205563125e+00	 9.4486330224e+00
 4.7941336227e-01	 1.9295705255e+00	 9.7740398202e+00
 4.4450774116e-01	 1.9379092994e+00	 9.9761160492e+00
 4.0963860670e-01	 1.9455785249e+00	 9.9884719694e+00
 3.7482355003e-01	 1.9525846694e+00	 9.7708884248e+00
 3.4007973574e-01	 1.9589347509e+00	 9.9283875988e+00
 5.1738088918e-01	 1.9319205510e+00	 9.4326922977e+00
 4.8225012773e-01	 1.9409881026e+00	 9.7902579883e+00
 4.4713796448e-01	 1.9493762184e+00	 1.0111717989e+01
 4.1206250378e-01	 1.9570908239e+00	 1.0302512298e+01
 3.7704144086e-01	 1.9641384248e+00	 1.0308480423e+01
 3.4209204186e-01	 1.9705260807e+00	 1.0591850782e+01
 3.3203051122e-01	 1.9125694313e+00	 1.0350354910e+01
 2.9819491606e-01	 1.9181360437e+00	 1.0601393289e+01
 2.6446107525e-01	 1.9230773332e+00	 1.0222125259e+01
 2.3084439831e-01	 1.9274016068e+00	 9.1722053160e+00
 1.9735981762e-01	 1.9311176019e+00	 7.4177000649e+00
 1.6402177737e-01	 1.9342344601e+00	 4.9313014748e+00
 3.3404281735e-01	 1.9241607612e+00	 9.8612495812e+00
 3.0000215798e-01	 1.9297611106e+00	 1.0129327384e+01
 2.6606386964e-01	 1.9347323474e+00	 9.8391902718e+00
 2.3224345527e-01	 1.9390828286e+00	 8.9492469104e+00
 1.9855593773e-01	 1.9428213449e+00	 7.4240353044e+00
 1.6501584875e-01	 1.9459570932e+00	 5.2344636109e+00
 3.3605512348e-01	 1.9357520911e+00	 9.6014924806e+00
 3.0180939989e-01	 1.9413861775e+00	 9.8585896125e+00
 2.6766666404e-01	 1.9463873615e+00	 9.6159963770e+00
 2.3364251223e-01	 1.9507640505e+00	 8.8408293848e+00
 1.9975205784e-01	 1.9545250880e+00	 7.5015488589e+00
 1.6600992013e-01	 1.9576797263e+00	 5.5683941306e+00
 3.3806742961e-01	 1.9473434210e+00	 9.6109147252e+00
 3.0361664181e-01	 1.9530112445e+00	 9.8608140340e+00
 2.6926945843e-01	 1.9580423757e+00	 9.6351531810e+00
 2.3504156919e-01	 1.9624452723e+00	 8.9196702004e+00
 2.0094817794e-01	 1.9662288310e+00	 7.6922104538e+00
 1.6700399150e-01	 1.9694023593e+00	 5.9235221150e+00
 3.4007973574e-01	 1.9589347509e+00	 9.9283875988e+00
 3.0542388372e-01	 1.9646363114e+00	 1.0205923235e+01
 2.7087225283e-01	 1.9696973898e+00	 9.9773002814e+00
 2.3644062615e-01	 1.9741264942e+00	 9.2567523309e+00
 2.0214429805e-01	 1.9779325741e+00	 8.0369846144e+00
 1.6799806288e-01	 1.9811249924e+00	 6.2904930084e+00
 3.4209204186e-01	 1.9705260807e+00	 1.0591850782e+01
 3.0723112564e-01	 1.9762613783e+00	 1.0962178664e+01
 2.7247504722e-01	 1.9813524040e+00	 1.0721165208e+01
 2.3783968311e-01	 1.9858077161e+00	 9.9213752769e+00
 2.0334041816e-01	 1.9896363171e+00	 8.5758602302e+00
 1.6899213426e-01	 1.9928476255e+00	 6.6601622544e+00
 1.6402177737e-01	 1.9342344601e+00	 4.9313014748e+00
 1.3084422413e-01	 1.9367616991e+00	 2.4518460149e+00
 9.7840599030e-02	 1.9387091858e+00	 1.0960433924e+00
 6.5023831438e-02	 1.9400871092e+00	 1.3521542702e+00
 3.2406334148e-02	 1.9409059533e+00	 3.6345912681e+00
 0.0000000000e+00	 1.9411764706e+00	 8.2857102182e+00
 1.6501584875e-01	 1.9459570932e+00	 5.2344636109e+00
 1.3163721943e-01	 1.9484996488e+00	 2.9450125553e+00
 9.8433572357e-02	 1.9504589385e+00	 1.5274119508e+00
 6.5417915265e-02	 1.9518452129e+00	 1.5067130997e+00
 3.2602736173e-02	 1.9526690197e+00	 3.3271539131e+00
 0.0000000000e+00	 1.9529411765e+00	 7.3541234298e+00
 1.6600992013e-01	 1.9576797263e+00	 5.5683941306e+00
 1.3243021473e-01	 1.9602375985e+00	 3.4283038359e+00
 9.9026545685e-02	 1.9622086911e+00	 1.9096824512e+00
 6.5811999092e-02	 1.9636033166e+00	 1.5839827171e+00
 3.2799138198e-02	 1.9644320860e+00	 2.9404504900e+00
 0.0000000000e+00	 1.9647058824e+00	 6.3879209082e+00
 1.6700399150e-01	 1.9694023593e+00	 5.9235221150e+00
 1.3322321002e-01	 1.9719755481e+00	 3.8458709260e+00
 9.9619519012e-02	 1.9739584437e+00	 2.1717494053e+00
 6.6206082919e-02	 1.9753614203e+00	 1.5282273680e+00
 3.2995540223e-02	 1.9761951524e+00	 2.4642828670e+00
 0.0000000000e+00	 1.9764705882e+00	 5.4520919951e+00
 1.6799806288e-01	 1.9811249924e+00	 6.2904930084e+00
 1.3401620532e-01	 1.9837134978e+00	 4.1431783922e+00
 1.0021249234e-01	 1.9857081964e+00	 2.2441838461e+00
 6.6600166746e-02	 1.9871195240e+00	 1.2850260783e+00
 3.3191942248e-02	 1.9879582188e+00	 1.8886920314e+00
 0.0000000000e+00	 1.9882352941e+00	 4.6100878233e+00
 1.6899213426e-01	 1.9928476255e+00	 6.6601622544e+00
 1.3480920062e-01	 1.9954514475e+00	 4.2669656664e+00
 1.0080546567e-01	 1.9974579490e+00	 2.0591840181e+00
 6.6994250573e-02	 1.9988776277e+00	 8.0123398447e-01
 3.3388344273e-02	 1.9997212852e+00	 1.2039510565e+00
 0.0000000000e+00	 2.0000000000e+00	 3.9238665573e+00
