x	y	stress_xx
 1.0000000000e+00	 0.0000000000e+00	 6.4684843941e-02
 9.9987574344e-01	 1.5763809028e-02	 8.1468812711e-02
 9.9949980627e-01	 3.1624946766e-02	 1.0461255867e-01
 9.9886751281e-01	 4.7578270863e-02	 1.3641385984e-01
 9.9797429622e-01	 6.3618425732e-02	 1.7930129073e-01
 9.9681570880e-01	 7.9739843777e-02	 2.3578201703e-01
 1.0111111111e+00	 0.0000000000e+00	 3.2136880319e-01
 1.0109854739e+00	 1.5938962461e-02	 3.4241569806e-01
 1.0106053597e+00	 3.1976335063e-02	 3.6746715628e-01
 1.0099660407e+00	 4.8106918317e-02	 3.9908590073e-01
 1.0090628995e+00	 6.4325297129e-02	 4.3998622394e-01
 1.0078914389e+00	 8.0625842041e-02	 4.9297724000e-01
 1.0222222222e+00	 0.0000000000e+00	 5.8840826889e-01
 1.0220952044e+00	 1.6114115895e-02	 6.1179620160e-01
 1.0217109131e+00	 3.2327723360e-02	 6.3674776865e-01
 1.0210645686e+00	 4.8635565771e-02	 6.6611649517e-01
 1.0201515028e+00	 6.5032168526e-02	 7.0292947997e-01
 1.0189671690e+00	 8.1511840305e-02	 7.5032578269e-01
 1.0333333333e+00	 0.0000000000e+00	 8.6536873866e-01
 1.0332049349e+00	 1.6289269329e-02	 8.8914106529e-01
 1.0328164665e+00	 3.2679111658e-02	 9.1194541201e-01
 1.0321630966e+00	 4.9164213225e-02	 9.3695329832e-01
 1.0312401061e+00	 6.5739039923e-02	 9.6753310557e-01
 1.0300428991e+00	 8.2397838570e-02	 1.0071832624e+00
 1.0444444444e+00	 0.0000000000e+00	 1.1518429561e+00
 1.0443146654e+00	 1.6464422762e-02	 1.1740079089e+00
 1.0439220199e+00	 3.3030499955e-02	 1.1925775990e+00
 1.0432616245e+00	 4.9692860679e-02	 1.2110701139e+00
 1.0423287094e+00	 6.6445911321e-02	 1.2332250302e+00
 1.0411186292e+00	 8.3283836834e-02	 1.2629310442e+00
 1.0555555556e+00	 0.0000000000e+00	 1.4474494767e+00
 1.0554243959e+00	 1.6639576196e-02	 1.4659798115e+00
 1.0550275733e+00	 3.3381888253e-02	 1.4781869342e+00
 1.0543601524e+00	 5.0221508133e-02	 1.4879655035e+00
 1.0534173127e+00	 6.7152782718e-02	 1.4994576885e+00
 1.0521943593e+00	 8.4169835098e-02	 1.5169748781e+00
 9.9681570880e-01	 7.9739843777e-02	 2.3578201703e-01
 9.9538743238e-01	 9.5936747147e-02	 3.2943303915e-01
 9.9368528877e-01	 1.1220315003e-01	 4.2987355806e-01
 9.9170525032e-01	 1.2853286153e-01	 5.3953656524e-01
 9.8944345048e-01	 1.4491948902e-01	 6.6072088412e-01
 9.8689619441e-01	 1.6135644226e-01	 7.9552566859e-01
 1.0078914389e+00	 8.0625842041e-02	 4.9297724000e-01
 1.0064472927e+00	 9.7002711004e-02	 5.8409969043e-01
 1.0047262364e+00	 1.1344985170e-01	 6.7912074370e-01
 1.0027241975e+00	 1.2996100443e-01	 7.8077184120e-01
 1.0004372666e+00	 1.4652970557e-01	 8.9164971689e-01
 9.9786170768e-01	 1.6314929162e-01	 1.0141450969e+00
 1.0189671690e+00	 8.1511840305e-02	 7.5032578269e-01
 1.0175071531e+00	 9.8068674862e-02	 8.3695075393e-01
 1.0157671841e+00	 1.1469655337e-01	 9.2468092520e-01
 1.0137431448e+00	 1.3138914734e-01	 1.0165753053e+00
 1.0114310827e+00	 1.4813992211e-01	 1.1155569660e+00
 1.0088272210e+00	 1.6494214098e-01	 1.2243355166e+00
 1.0300428991e+00	 8.2397838570e-02	 1.0071832624e+00
 1.0285670135e+00	 9.9134638719e-02	 1.0872924218e+00
 1.0268081317e+00	 1.1594325504e-01	 1.1658114994e+00
 1.0247620920e+00	 1.3281729024e-01	 1.2461576089e+00
 1.0224248988e+00	 1.4975013866e-01	 1.3316099772e+00
 1.0197927342e+00	 1.6673499033e-01	 1.4252257470e+00
 1.0411186292e+00	 8.3283836834e-02	 1.2629310442e+00
 1.0396268738e+00	 1.0020060258e-01	 1.3344568341e+00
 1.0378490794e+00	 1.1718995670e-01	 1.4017963026e+00
 1.0357810392e+00	 1.3424543315e-01	 1.4687566760e+00
 1.0334187149e+00	 1.5136035520e-01	 1.5390045910e+00
 1.0307582475e+00	 1.6852783969e-01	 1.6159747596e+00
 1.0521943593e+00	 8.4169835098e-02	 1.5169748781e+00
 1.0506867342e+00	 1.0126656643e-01	 1.5778007230e+00
 1.0488900270e+00	 1.1843665837e-01	 1.6319442614e+00
 1.0467999864e+00	 1.3567357605e-01	 1.6836363596e+00
 1.0444125311e+00	 1.5297057175e-01	 1.7369638056e+00
 1.0417237608e+00	 1.7032068905e-01	 1.7957703493e+00
 9.8689619441e-01	 1.6135644226e-01	 7.9552566859e-01
 9.8405996947e-01	 1.7783693789e-01	 9.5686262775e-01
 9.8093145573e-01	 1.9435400473e-01	 1.1242185676e+00
 9.7750753630e-01	 2.1090048951e-01	 1.2989391615e+00
 9.7378530755e-01	 2.2746906338e-01	 1.4819671647e+00
 9.6976208916e-01	 2.4405222891e-01	 1.6737959067e+00
 9.9786170768e-01	 1.6314929162e-01	 1.0141450969e+00
 9.9499396913e-01	 1.7981290387e-01	 1.1654355236e+00
 9.9183069413e-01	 1.9651349367e-01	 1.3199795677e+00
 9.8836873115e-01	 2.1324382828e-01	 1.4793271819e+00
 9.8460514430e-01	 2.2999649742e-01	 1.6445994151e+00
 9.8053722348e-01	 2.4676392034e-01	 1.8164371629e+00
 1.0088272210e+00	 1.6494214098e-01	 1.2243355166e+00
 1.0059279688e+00	 1.8178886985e-01	 1.3641472676e+00
 1.0027299325e+00	 1.9867298261e-01	 1.5047066609e+00
 9.9922992600e-01	 2.1558716705e-01	 1.6477900121e+00
 9.9542498105e-01	 2.3252393146e-01	 1.7947159012e+00
 9.9131235780e-01	 2.4947561177e-01	 1.9462887934e+00
 1.0197927342e+00	 1.6673499033e-01	 1.4252257470e+00
 1.0168619685e+00	 1.8376483582e-01	 1.5521017119e+00
 1.0136291709e+00	 2.0083247155e-01	 1.6774850730e+00
 1.0100911208e+00	 2.1793050583e-01	 1.8034016402e+00
 1.0062448178e+00	 2.3505136549e-01	 1.9313876825e+00
 1.0020874921e+00	 2.5218730321e-01	 2.0624280114e+00
 1.0307582475e+00	 1.6852783969e-01	 1.6159747596e+00
 1.0277959681e+00	 1.8574080180e-01	 1.7284346780e+00
 1.0245284093e+00	 2.0299196049e-01	 1.8374343747e+00
 1.0209523157e+00	 2.2027384460e-01	 1.9452733700e+00
 1.0170646546e+00	 2.3757879953e-01	 2.0537267328e+00
 1.0128626265e+00	 2.5489899464e-01	 2.1639772011e+00
 1.0417237608e+00	 1.7032068905e-01	 1.7957703493e+00
 1.0387299678e+00	 1.8771676778e-01	 1.8923126541e+00
 1.0354276477e+00	 2.0515144943e-01	 1.9837072041e+00
 1.0318135105e+00	 2.2261718337e-01	 2.0725525694e+00
 1.0278844913e+00	 2.4010623357e-01	 2.1608847171e+00
 1.0236377608e+00	 2.5761068607e-01	 2.2501027229e+00
 9.6976208916e-01	 2.4405222891e-01	 1.6737959067e+00
 9.6543543388e-01	 2.6064232775e-01	 1.8884154725e+00
 9.6080313711e-01	 2.7723154894e-01	 2.1111303868e+00
 9.5586324611e-01	 2.9381193771e-01	 2.3411244784e+00
 9.5061406888e-01	 3.1037540503e-01	 2.5770515463e+00
 9.4505418266e-01	 3.2691373760e-01	 2.8170453019e+00
 9.8053722348e-01	 2.4676392034e-01	 1.8164371629e+00
 9.7616249425e-01	 2.6353835362e-01	 2.0119783667e+00
 9.7147872752e-01	 2.8031189948e-01	 2.2137370377e+00
 9.6648394884e-01	 2.9707651480e-01	 2.4209421913e+00
 9.6117644742e-01	 3.1382402065e-01	 2.6322494057e+00
 9.5555478469e-01	 3.3054611247e-01	 2.8457497568e+00
 9.9131235780e-01	 2.4947561177e-01	 1.9462887934e+00
 9.8688955463e-01	 2.6643437948e-01	 2.1229182992e+00
 9.8215431793e-01	 2.8339225002e-01	 2.3042222132e+00
 9.7710465158e-01	 3.0034109188e-01	 2.4894788443e+00
 9.7173882596e-01	 3.1727263626e-01	 2.6773452354e+00
 9.6605538672e-01	 3.3417848733e-01	 2.8658649200e+00
 1.0020874921e+00	 2.5218730321e-01	 2.0624280114e+00
 9.9761661501e-01	 2.6933040535e-01	 2.2203247378e+00
 9.9282990834e-01	 2.8647260057e-01	 2.3816978521e+00
 9.8772535431e-01	 3.0360566897e-01	 2.5458793109e+00
 9.8230120451e-01	 3.2072125187e-01	 2.7115273483e+00
 9.7655598875e-01	 3.3781086219e-01	 2.8766328770e+00
 1.0128626265e+00	 2.5489899464e-01	 2.1639772011e+00
 1.0083436754e+00	 2.7222643121e-01	 2.3033374100e+00
 1.0035054988e+00	 2.8955295111e-01	 2.4453319357e+00
 9.9834605705e-01	 3.0687024605e-01	 2.5893509922e+00
 9.9286358305e-01	 3.2416986748e-01	 2.7340537776e+00
 9.8705659078e-01	 3.4144323705e-01	 2.8773733286e+00
 1.0236377608e+00	 2.5761068607e-01	 2.2501027229e+00
 1.0190707358e+00	 2.7512245707e-01	 2.3711451318e+00
 1.0141810892e+00	 2.9263330165e-01	 2.4943473405e+00
 1.0089667598e+00	 3.1013482314e-01	 2.6191626980e+00
 1.0034259616e+00	 3.2761848309e-01	 2.7442511871e+00
 9.9755719281e-01	 3.4507561191e-01	 2.8674825339e+00
 9.4505418266e-01	 3.2691373760e-01	 2.8170453019e+00
 9.3918244200e-01	 3.4341860848e-01	 3.0432928749e+00
 9.3299798631e-01	 3.5988158822e-01	 3.2713070218e+00
 9.2650024701e-01	 3.7629415659e-01	 3.4997154655e+00
 9.1968895401e-01	 3.9264771471e-01	 3.7477170333e+00
 9.1256414167e-01	 4.0893359771e-01	 4.0171041045e+00
 9.5555478469e-01	 3.3054611247e-01	 2.8457497568e+00
 9.4961780246e-01	 3.4723437079e-01	 3.0405812980e+00
 9.4336463060e-01	 3.6388027254e-01	 3.2367682721e+00
 9.3679469420e-01	 3.8047520278e-01	 3.4367400870e+00
 9.2990772017e-01	 3.9701046710e-01	 3.6605342636e+00
 9.2270374325e-01	 4.1347730435e-01	 3.9055813266e+00
 9.6605538672e-01	 3.3417848733e-01	 2.8658649200e+00
 9.6005316293e-01	 3.5105013311e-01	 3.0296513913e+00
 9.5373127490e-01	 3.6787895685e-01	 3.1946484942e+00
 9.4708914139e-01	 3.8465624896e-01	 3.3693585299e+00
 9.4012648632e-01	 4.0137321948e-01	 3.5704804822e+00
 9.3284334482e-01	 4.1802101099e-01	 3.7928714396e+00
 9.7655598875e-01	 3.3781086219e-01	 2.8766328770e+00
 9.7048852339e-01	 3.5486589543e-01	 3.0098562391e+00
 9.6409791919e-01	 3.7187764116e-01	 3.1445650291e+00
 9.5738358858e-01	 3.8883729515e-01	 3.2972427260e+00
 9.5034525248e-01	 4.0573597187e-01	 3.4772968045e+00
 9.4298294640e-01	 4.2256471763e-01	 3.6787806213e+00
 9.8705659078e-01	 3.4144323705e-01	 2.8773733286e+00
 9.8092388386e-01	 3.5868165774e-01	 2.9806331157e+00
 9.7446456348e-01	 3.7587632548e-01	 3.0875828832e+00
 9.6767803577e-01	 3.9301834133e-01	 3.2201249091e+00
 9.6056401863e-01	 4.1009872426e-01	 3.3807824510e+00
 9.5312254797e-01	 4.2710842427e-01	 3.5631708662e+00
 9.9755719281e-01	 3.4507561191e-01	 2.8674825339e+00
 9.9135924433e-01	 3.6249742006e-01	 2.9415025685e+00
 9.8483120777e-01	 3.7987500979e-01	 3.0238045407e+00
 9.7797248296e-01	 3.9719938752e-01	 3.1377930373e+00
 9.7078278479e-01	 4.1446147664e-01	 3.2807899443e+00
 9.6326214954e-01	 4.3165213091e-01	 3.4459549485e+00
 9.1256414167e-01	 4.0893359771e-01	 4.0171041045e+00
 9.0512615414e-01	 4.2514308779e-01	 4.2010333381e+00
 8.9737565000e-01	 4.4126742775e-01	 4.3953136733e+00
 8.8931360626e-01	 4.5729783480e-01	 4.5946116394e+00
 8.8094132166e-01	 4.7322551473e-01	 4.7936728416e+00
 8.7226041910e-01	 4.8904167641e-01	 4.9873850449e+00
 9.2270374325e-01	 4.1347730435e-01	 3.9055813266e+00
 9.1518311141e-01	 4.2986689988e-01	 4.0597627269e+00
 9.0734649055e-01	 4.4617039917e-01	 4.2257987884e+00
 8.9919486856e-01	 4.6237892185e-01	 4.3979723215e+00
 8.9072955857e-01	 4.7848357601e-01	 4.5706516912e+00
 8.8195220154e-01	 4.9447547282e-01	 4.7383563368e+00
 9.3284334482e-01	 4.1802101099e-01	 3.7928714396e+00
 9.2524006867e-01	 4.3459071196e-01	 3.9187100054e+00
 9.1731733111e-01	 4.5107337059e-01	 4.0579681458e+00
 9.0907613085e-01	 4.6746000891e-01	 4.2045291701e+00
 9.0051779547e-01	 4.8374163728e-01	 4.3523690406e+00
 8.9164398397e-01	 4.9990926922e-01	 4.4956242975e+00
 9.4298294640e-01	 4.2256471763e-01	 3.6787806213e+00
 9.3529702594e-01	 4.3931452405e-01	 3.7777555295e+00
 9.2728817166e-01	 4.5597634201e-01	 3.8917739452e+00
 9.1895739314e-01	 4.7254109596e-01	 4.0143040084e+00
 9.1030603238e-01	 4.8899969856e-01	 4.1389142792e+00
 9.0133576641e-01	 5.0534306562e-01	 4.2593440268e+00
 9.5312254797e-01	 4.2710842427e-01	 3.5631708662e+00
 9.4535398321e-01	 4.4403833614e-01	 3.6368325644e+00
 9.3725901222e-01	 4.6087931343e-01	 3.7272183007e+00
 9.2883865543e-01	 4.7762218301e-01	 3.8273655344e+00
 9.2009426929e-01	 4.9425775983e-01	 3.9304206311e+00
 9.1102754884e-01	 5.1077686203e-01	 4.0297114646e+00
 9.6326214954e-01	 4.3165213091e-01	 3.4459549485e+00
 9.5541094048e-01	 4.4876214822e-01	 3.4959220388e+00
 9.4722985277e-01	 4.6578228485e-01	 3.5643477844e+00
 9.3871991772e-01	 4.8270327007e-01	 3.6438236528e+00
 9.2988250619e-01	 4.9951582111e-01	 3.7270592763e+00
 9.2071933128e-01	 5.1621065843e-01	 3.8069573045e+00
 8.7226041910e-01	 4.8904167641e-01	 4.9873850449e+00
 8.6327284749e-01	 5.0473754643e-01	 5.1479122686e+00
 8.5398088266e-01	 5.2030438404e-01	 5.2889248428e+00
 8.4438712752e-01	 5.3573349614e-01	 5.4063823600e+00
 8.3449451141e-01	 5.5101625241e-01	 5.4966456974e+00
 8.2430628863e-01	 5.6614410049e-01	 5.5565325887e+00
 8.8195220154e-01	 4.9447547282e-01	 4.7383563368e+00
 8.7286476802e-01	 5.1034574140e-01	 4.8763881087e+00
 8.6346955913e-01	 5.2608554387e-01	 4.9958135674e+00
 8.5376920671e-01	 5.4168609054e-01	 5.0922236755e+00
 8.4376667265e-01	 5.5713865522e-01	 5.1616239181e+00
 8.3346524739e-01	 5.7243459050e-01	 5.2004918047e+00
 8.9164398397e-01	 4.9990926922e-01	 4.4956242975e+00
 8.8245668855e-01	 5.1595393636e-01	 4.6122077104e+00
 8.7295823561e-01	 5.3186670369e-01	 4.7110532358e+00
 8.6315128590e-01	 5.4763868494e-01	 4.7873706943e+00
 8.5303883389e-01	 5.6326105802e-01	 4.8367980739e+00
 8.4262420616e-01	 5.7872508051e-01	 4.8554608866e+00
 9.0133576641e-01	 5.0534306562e-01	 4.2593440268e+00
 8.9204860908e-01	 5.2156213132e-01	 4.3556068034e+00
 8.8244691208e-01	 5.3764786351e-01	 4.4349597377e+00
 8.7253336510e-01	 5.5359127934e-01	 4.4922192288e+00
 8.6231099513e-01	 5.6938346083e-01	 4.5226438861e+00
 8.5178316492e-01	 5.8501557051e-01	 4.5219956529e+00
 9.1102754884e-01	 5.1077686203e-01	 4.0297114646e+00
 9.0164052960e-01	 5.2717032628e-01	 4.1068583502e+00
 8.9193558855e-01	 5.4342902333e-01	 4.1678826895e+00
 8.8191544429e-01	 5.5954387375e-01	 4.2071954597e+00
 8.7158315636e-01	 5.7550586363e-01	 4.2196642799e+00
 8.6094212368e-01	 5.9130606052e-01	 4.2006762000e+00
 9.2071933128e-01	 5.1621065843e-01	 3.8069573045e+00
 9.1123245013e-01	 5.3277852124e-01	 3.8662662946e+00
 9.0142426503e-01	 5.4921018316e-01	 3.9101990233e+00
 8.9129752349e-01	 5.6549646815e-01	 3.9327493745e+00
 8.8085531760e-01	 5.8162826644e-01	 3.9283826823e+00
 8.7010108244e-01	 5.9759655052e-01	 3.8921000718e+00
 8.2430628863e-01	 5.6614410049e-01	 5.5565325887e+00
 8.1382603605e-01	 5.8110858111e-01	 5.6513042974e+00
 8.0305764999e-01	 5.9590134318e-01	 5.7033112002e+00
 7.9200534216e-01	 6.1051415872e-01	 5.7118429293e+00
 7.8067363485e-01	 6.2493893770e-01	 5.6768730824e+00
 7.6906735523e-01	 6.3916774255e-01	 5.5990994061e+00
 8.3346524739e-01	 5.7243459050e-01	 5.2004918047e+00
 8.2286854756e-01	 5.8756534313e-01	 5.2832597474e+00
 8.1198051276e-01	 6.0252246921e-01	 5.3232791800e+00
 8.0080540151e-01	 6.1729764937e-01	 5.3195538170e+00
 7.8934778635e-01	 6.3188270367e-01	 5.2717918257e+00
 7.7761254807e-01	 6.4626960636e-01	 5.1804479555e+00
 8.4262420616e-01	 5.7872508051e-01	 4.8554608866e+00
 8.3191105907e-01	 5.9402210514e-01	 4.9268586225e+00
 8.2090337554e-01	 6.0914359525e-01	 4.9554078532e+00
 8.0960546087e-01	 6.2408114002e-01	 4.9398152613e+00
 7.9802193784e-01	 6.3882646965e-01	 4.8795125780e+00
 7.8615774090e-01	 6.5337147016e-01	 4.7747006233e+00
 8.5178316492e-01	 5.8501557051e-01	 4.5219956529e+00
 8.4095357059e-01	 6.0047886715e-01	 4.5827401811e+00
 8.2982623832e-01	 6.1576472128e-01	 4.6004209531e+00
 8.1840552023e-01	 6.3086463068e-01	 4.5734365701e+00
 8.0669608934e-01	 6.4577023562e-01	 4.5009313212e+00
 7.9470293374e-01	 6.6047333397e-01	 4.3828410882e+00
 8.6094212368e-01	 5.9130606052e-01	 4.2006762000e+00
 8.4999608210e-01	 6.0693562916e-01	 4.2515651884e+00
 8.3874910110e-01	 6.2238584732e-01	 4.2590612450e+00
 8.2720557959e-01	 6.3764812133e-01	 4.2212439435e+00
 8.1537024084e-01	 6.5271400160e-01	 4.1369591553e+00
 8.0324812658e-01	 6.6757519777e-01	 4.0058667671e+00
 8.7010108244e-01	 5.9759655052e-01	 3.8921000718e+00
 8.5903859361e-01	 6.1339239118e-01	 3.9340089749e+00
 8.4767196387e-01	 6.2900697335e-01	 3.9320834905e+00
 8.3600563894e-01	 6.4443161198e-01	 3.8840733572e+00
 8.2404439234e-01	 6.5965776757e-01	 3.7885151187e+00
 8.1179331941e-01	 6.7467706158e-01	 3.6447815902e+00
 7.6906735523e-01	 6.3916774255e-01	 5.5990994061e+00
 7.5719162887e-01	 6.5319280245e-01	 5.5501766065e+00
 7.4505187243e-01	 6.6700652725e-01	 5.4565258893e+00
 7.3265378560e-01	 6.8060152104e-01	 5.3281151547e+00
 7.2000334233e-01	 6.9397059523e-01	 5.1867087213e+00
 7.0710678119e-01	 7.0710678119e-01	 5.0343395317e+00
 7.7761254807e-01	 6.4626960636e-01	 5.1804479555e+00
 7.6560486919e-01	 6.6045050025e-01	 5.1338429543e+00
 7.5333022656e-01	 6.7441771089e-01	 5.0436717716e+00
 7.4079438322e-01	 6.8816376016e-01	 4.9142546119e+00
 7.2800337946e-01	 7.0168137962e-01	 4.7627268639e+00
 7.1496352320e-01	 7.1496352320e-01	 4.6032071422e+00
 7.8615774090e-01	 6.5337147016e-01	 4.7747006233e+00
 7.7401810951e-01	 6.6770819806e-01	 4.7301605440e+00
 7.6160858070e-01	 6.8182889452e-01	 4.6429940917e+00
 7.4893498084e-01	 6.9572599928e-01	 4.5173353476e+00
 7.3600341660e-01	 7.0939216401e-01	 4.3598210720e+00
 7.2282026521e-01	 7.2282026521e-01	 4.1919110941e+00
 7.9470293374e-01	 6.6047333397e-01	 4.3828410882e+00
 7.8243134983e-01	 6.7496589586e-01	 4.3402078963e+00
 7.6988693484e-01	 6.8924007816e-01	 4.2556684681e+00
 7.5707557846e-01	 7.0328823841e-01	 4.1331599575e+00
 7.4400345374e-01	 7.1710294840e-01	 3.9775590036e+00
 7.3067700723e-01	 7.3067700723e-01	 3.8008048527e+00
 8.0324812658e-01	 6.6757519777e-01	 4.0058667671e+00
 7.9084459015e-01	 6.8222359367e-01	 3.9650760415e+00
 7.7816528898e-01	 6.9665126179e-01	 3.8828821663e+00
 7.6521617608e-01	 7.1085047753e-01	 3.7630142262e+00
 7.5200349087e-01	 7.2481373279e-01	 3.6101651622e+00
 7.3853374924e-01	 7.3853374924e-01	 3.4302979379e+00
 8.1179331941e-01	 6.7467706158e-01	 3.6447815902e+00
 7.9925783047e-01	 6.8948129147e-01	 3.6058612804e+00
 7.8644364312e-01	 7.0406244543e-01	 3.5258268686e+00
 7.7335677369e-01	 7.1841271665e-01	 3.4081879032e+00
 7.6000352801e-01	 7.3252451718e-01	 3.2574420799e+00
 7.4639049125e-01	 7.4639049125e-01	 3.0811497850e+00
 7.0710678119e-01	 7.0710678119e-01	 5.0343395317e+00
 6.9397059523e-01	 7.2000334233e-01	 4.8302569675e+00
 6.8060152104e-01	 7.3265378560e-01	 4.5877276330e+00
 6.6700652725e-01	 7.4505187243e-01	 4.3097181541e+00
 6.5319280245e-01	 7.5719162887e-01	 4.0229578679e+00
 6.3916774255e-01	 7.6906735523e-01	 3.7393481358e+00
 7.1496352320e-01	 7.1496352320e-01	 4.6032071422e+00
 7.0168137962e-01	 7.2800337946e-01	 4.3962197904e+00
 6.8816376016e-01	 7.4079438322e-01	 4.1496980808e+00
 6.7441771089e-01	 7.5333022656e-01	 3.8812976912e+00
 6.6045050025e-01	 7.6560486919e-01	 3.6117969596e+00
 6.4626960636e-01	 7.7761254807e-01	 3.3463862265e+00
 7.2282026521e-01	 7.2282026521e-01	 4.1919110941e+00
 7.0939216401e-01	 7.3600341660e-01	 3.9811060574e+00
 6.9572599928e-01	 7.4893498084e-01	 3.7360086258e+00
 6.8182889452e-01	 7.6160858070e-01	 3.4828916582e+00
 6.6770819806e-01	 7.7401810951e-01	 3.2297620788e+00
 6.5337147016e-01	 7.8615774090e-01	 2.9818264554e+00
 7.3067700723e-01	 7.3067700723e-01	 3.8008048527e+00
 7.1710294840e-01	 7.4400345374e-01	 3.5861921854e+00
 7.0328823841e-01	 7.5707557846e-01	 3.3522097355e+00
 6.8924007816e-01	 7.6988693484e-01	 3.1133494456e+00
 6.7496589586e-01	 7.8243134983e-01	 2.8757343497e+00
 6.6047333397e-01	 7.9470293374e-01	 2.6445875377e+00
 7.3853374924e-01	 7.3853374924e-01	 3.4302979379e+00
 7.2481373279e-01	 7.5200349087e-01	 3.2191817081e+00
 7.1085047753e-01	 7.6521617608e-01	 2.9970869771e+00
 6.9665126179e-01	 7.7816528898e-01	 2.7714815503e+00
 6.8222359367e-01	 7.9084459015e-01	 2.5485553592e+00
 6.6757519777e-01	 8.0324812658e-01	 2.3335480869e+00
 7.4639049125e-01	 7.4639049125e-01	 3.0811497850e+00
 7.3252451718e-01	 7.6000352801e-01	 2.8807531655e+00
 7.1841271665e-01	 7.7335677369e-01	 2.6693880787e+00
 7.0406244543e-01	 7.8644364312e-01	 2.4560599778e+00
 6.8948129147e-01	 7.9925783047e-01	 2.2470276284e+00
 6.7467706158e-01	 8.1179331941e-01	 2.0475471500e+00
 6.3916774255e-01	 7.6906735523e-01	 3.7393481358e+00
 6.2493893770e-01	 7.8067363485e-01	 3.3798774797e+00
 6.1051415872e-01	 7.9200534216e-01	 3.0040360180e+00
 5.9590134318e-01	 8.0305764999e-01	 2.6142333423e+00
 5.8110858111e-01	 8.1382603605e-01	 2.2122475443e+00
 5.6614410049e-01	 8.2430628863e-01	 1.7992550140e+00
 6.4626960636e-01	 7.7761254807e-01	 3.3463862265e+00
 6.3188270367e-01	 7.8934778635e-01	 2.9992778567e+00
 6.1729764937e-01	 8.0080540151e-01	 2.6402640459e+00
 6.0252246921e-01	 8.1198051276e-01	 2.2715235881e+00
 5.8756534313e-01	 8.2286854756e-01	 1.8945575323e+00
 5.7243459050e-01	 8.3346524739e-01	 1.5102221803e+00
 6.5337147016e-01	 7.8615774090e-01	 2.9818264554e+00
 6.3882646965e-01	 7.9802193784e-01	 2.6454684065e+00
 6.2408114002e-01	 8.0960546087e-01	 2.3017518154e+00
 6.0914359525e-01	 8.2090337554e-01	 1.9526216993e+00
 5.9402210514e-01	 8.3191105907e-01	 1.5992976041e+00
 5.7872508051e-01	 8.4262420616e-01	 1.2423099103e+00
 6.6047333397e-01	 7.9470293374e-01	 2.6445875377e+00
 6.4577023562e-01	 8.0669608934e-01	 2.3174449468e+00
 6.3086463068e-01	 8.1840552023e-01	 1.9875800883e+00
 6.1576472128e-01	 8.2982623832e-01	 1.6567008426e+00
 6.0047886715e-01	 8.4095357059e-01	 1.3257403826e+00
 5.8501557051e-01	 8.5178316492e-01	 9.9489689620e-01
 6.6757519777e-01	 8.0324812658e-01	 2.3335480869e+00
 6.5271400160e-01	 8.1537024084e-01	 2.0141612614e+00
 6.3764812133e-01	 8.2720557959e-01	 1.6967856259e+00
 6.2238584732e-01	 8.3874910110e-01	 1.3828881846e+00
 6.0693562916e-01	 8.4999608210e-01	 1.0731104566e+00
 5.9130606052e-01	 8.6094212368e-01	 7.6731173045e-01
 6.7467706158e-01	 8.1179331941e-01	 2.0475471500e+00
 6.5965776757e-01	 8.2404439234e-01	 1.7345297713e+00
 6.4443161198e-01	 8.3600563894e-01	 1.4283619960e+00
 6.2900697335e-01	 8.4767196387e-01	 1.1302658325e+00
 6.1339239118e-01	 8.5903859361e-01	 8.4058545706e-01
 5.9759655052e-01	 8.7010108244e-01	 5.5883411712e-01
 5.6614410049e-01	 8.2430628863e-01	 1.7992550140e+00
 5.5101625241e-01	 8.3449451141e-01	 1.3494436442e+00
 5.3573349614e-01	 8.4438712752e-01	 8.8797310393e-01
 5.2030438404e-01	 8.5398088266e-01	 4.1387007124e-01
 5.0473754643e-01	 8.6327284749e-01	-7.4249562346e-02
 4.8904167641e-01	 8.7226041910e-01	-5.7812506725e-01
 5.7243459050e-01	 8.3346524739e-01	 1.5102221803e+00
 5.5713865522e-01	 8.4376667265e-01	 1.0850097213e+00
 5.4168609054e-01	 8.5376920671e-01	 6.5003645877e-01
 5.2608554387e-01	 8.6346955913e-01	 2.0391821336e-01
 5.1034574140e-01	 8.7286476802e-01	-2.5516474991e-01
 4.9447547282e-01	 8.8195220154e-01	-7.2940789389e-01
 5.7872508051e-01	 8.4262420616e-01	 1.2423099103e+00
 5.6326105802e-01	 8.5303883389e-01	 8.4057045664e-01
 5.4763868494e-01	 8.6315128590e-01	 4.3104295252e-01
 5.3186670369e-01	 8.7295823561e-01	 1.1922775002e-02
 5.1595393636e-01	 8.8245668855e-01	-4.1905595054e-01
 4.9990926922e-01	 8.9164398397e-01	-8.6455618899e-01
 5.8501557051e-01	 8.5178316492e-01	 9.9489689620e-01
 5.6938346083e-01	 8.6231099513e-01	 6.1561281404e-01
 5.5359127934e-01	 8.7253336510e-01	 2.3059279885e-01
 5.3764786351e-01	 8.8244691208e-01	-1.6239828973e-01
 5.2156213132e-01	 8.9204860908e-01	-5.6608348014e-01
 5.0534306562e-01	 9.0133576641e-01	-9.8360506001e-01
 5.9130606052e-01	 8.6094212368e-01	 7.6731173045e-01
 5.7550586363e-01	 8.7158315636e-01	 4.0957173004e-01
 5.5954387375e-01	 8.8191544429e-01	 4.8232259713e-02
 5.4342902333e-01	 8.9193558855e-01	-3.1938289734e-01
 5.2717032628e-01	 9.0164052960e-01	-6.9646543496e-01
 5.1077686203e-01	 9.1102754884e-01	-1.0866492914e+00
 5.9759655052e-01	 8.7010108244e-01	 5.5883411712e-01
 5.8162826644e-01	 8.8085531760e-01	 2.2183145169e-01
 5.6549646815e-01	 8.9129752349e-01	-1.1654489303e-01
 5.4921018316e-01	 9.0142426503e-01	-4.5942325135e-01
 5.3277852124e-01	 9.1123245013e-01	-8.1047598805e-01
 5.1621065843e-01	 9.2071933128e-01	-1.1738415230e+00
 4.8904167641e-01	 8.7226041910e-01	-5.7812506725e-01
 4.7322551473e-01	 8.8094132166e-01	-1.0429816424e+00
 4.5729783480e-01	 8.8931360626e-01	-1.5267139980e+00
 4.4126742775e-01	 8.9737565000e-01	-2.0319214258e+00
 4.2514308779e-01	 9.0512615414e-01	-2.5613198825e+00
 4.0893359771e-01	 9.1256414167e-01	-3.1176814020e+00
 4.9447547282e-01	 8.8195220154e-01	-7.2940789389e-01
 4.7848357601e-01	 8.9072955857e-01	-1.1649340918e+00
 4.6237892185e-01	 8.9919486856e-01	-1.6184690763e+00
 4.4617039917e-01	 9.0734649055e-01	-2.0930835430e+00
 4.2986689988e-01	 9.1518311141e-01	-2.5919722675e+00
 4.1347730435e-01	 9.2270374325e-01	-3.1183893046e+00
 4.9990926922e-01	 8.9164398397e-01	-8.6455618899e-01
 4.8374163728e-01	 9.0051779547e-01	-1.2712215853e+00
 4.6746000891e-01	 9.0907613085e-01	-1.6950377553e+00
 4.5107337059e-01	 9.1731733111e-01	-2.1395600130e+00
 4.3459071196e-01	 9.2524006867e-01	-2.6084753849e+00
 4.1802101099e-01	 9.3284334482e-01	-3.1055334694e+00
 5.0534306562e-01	 9.0133576641e-01	-9.8360506001e-01
 4.8899969856e-01	 9.1030603238e-01	-1.3617636064e+00
 4.7254109596e-01	 9.1895739314e-01	-1.7562205719e+00
 4.5597634201e-01	 9.2728817166e-01	-2.1710296204e+00
 4.3931452405e-01	 9.3529702594e-01	-2.6103839790e+00
 4.2256471763e-01	 9.4298294640e-01	-3.0785428321e+00
 5.1077686203e-01	 9.1102754884e-01	-1.0866492914e+00
 4.9425775983e-01	 9.2009426929e-01	-1.4365406612e+00
 4.7762218301e-01	 9.2883865543e-01	-1.8018804467e+00
 4.6087931343e-01	 9.3725901222e-01	-2.1872349048e+00
 4.4403833614e-01	 9.4535398321e-01	-2.5973179273e+00
 4.2710842427e-01	 9.5312254797e-01	-3.0369128402e+00
 5.1621065843e-01	 9.2071933128e-01	-1.1738415230e+00
 4.9951582111e-01	 9.2988250619e-01	-1.4955923685e+00
 4.8270327007e-01	 9.3871991772e-01	-1.8319406860e+00
 4.6578228485e-01	 9.4722985277e-01	-2.1879800757e+00
 4.4876214822e-01	 9.5541094048e-01	-2.5689600667e+00
 4.3165213091e-01	 9.6326214954e-01	-2.9802031910e+00
 4.0893359771e-01	 9.1256414167e-01	-3.1176814020e+00
 3.9264771471e-01	 9.1968895401e-01	-3.5805176863e+00
 3.7629415659e-01	 9.2650024701e-01	-4.0585169230e+00
 3.5988158822e-01	 9.3299798631e-01	-4.5484773654e+00
 3.4341860848e-01	 9.3918244200e-01	-5.0315781907e+00
 3.2691373760e-01	 9.4505418266e-01	-5.5054038956e+00
 4.1347730435e-01	 9.2270374325e-01	-3.1183893046e+00
 3.9701046710e-01	 9.2990772017e-01	-3.5449605820e+00
 3.8047520278e-01	 9.3679469420e-01	-3.9862678656e+00
 3.6388027254e-01	 9.4336463060e-01	-4.4430619601e+00
 3.4723437079e-01	 9.4961780246e-01	-4.8965515534e+00
 3.3054611247e-01	 9.5555478469e-01	-5.3414671435e+00
 4.1802101099e-01	 9.3284334482e-01	-3.1055334694e+00
 4.0137321948e-01	 9.4012648632e-01	-3.4972711736e+00
 3.8465624896e-01	 9.4708914139e-01	-3.9034345984e+00
 3.6787895685e-01	 9.5373127490e-01	-4.3271634237e+00
 3.5105013311e-01	 9.6005316293e-01	-4.7531273809e+00
 3.3417848733e-01	 9.6605538672e-01	-5.1714591781e+00
 4.2256471763e-01	 9.4298294640e-01	-3.0785428321e+00
 4.0573597187e-01	 9.5034525248e-01	-3.4367260707e+00
 3.8883729515e-01	 9.5738358858e-01	-3.8091393548e+00
 3.7187764116e-01	 9.6409791919e-01	-4.1998204586e+00
 3.5486589543e-01	 9.7048852339e-01	-4.6000155626e+00
 3.3781086219e-01	 9.7655598875e-01	-4.9938869907e+00
 4.2710842427e-01	 9.5312254797e-01	-3.0369128402e+00
 4.1009872426e-01	 9.6056401863e-01	-3.3626708434e+00
 3.9301834133e-01	 9.6767803577e-01	-3.7025758243e+00
 3.7587632548e-01	 9.7446456348e-01	-4.0612597811e+00
 3.5868165774e-01	 9.8092388386e-01	-4.4360259265e+00
 3.4144323705e-01	 9.8705659078e-01	-4.8073526830e+00
 4.3165213091e-01	 9.6326214954e-01	-2.9802031910e+00
 4.1446147664e-01	 9.7078278479e-01	-3.2745176163e+00
 3.9719938752e-01	 9.7797248296e-01	-3.5830065977e+00
 3.7987500979e-01	 9.8483120777e-01	-3.9109095091e+00
 3.6249742006e-01	 9.9135924433e-01	-4.2600684317e+00
 3.4507561191e-01	 9.9755719281e-01	-4.6105532276e+00
 3.2691373760e-01	 9.4505418266e-01	-5.5054038956e+00
 3.1037540503e-01	 9.5061406888e-01	-5.9721575332e+00
 2.9381193771e-01	 9.5586324611e-01	-6.4148373754e+00
 2.7723154894e-01	 9.6080313711e-01	-6.8323563285e+00
 2.6064232775e-01	 9.6543543388e-01	-7.2233230182e+00
 2.4405222891e-01	 9.6976208916e-01	-7.5860333155e+00
 3.3054611247e-01	 9.5555478469e-01	-5.3414671435e+00
 3.1382402065e-01	 9.6117644742e-01	-5.7812009148e+00
 2.9707651480e-01	 9.6648394884e-01	-6.1958947547e+00
 2.8031189948e-01	 9.7147872752e-01	-6.5846138332e+00
 2.6353835362e-01	 9.7616249425e-01	-6.9460823134e+00
 2.4676392034e-01	 9.8053722348e-01	-7.2786736216e+00
 3.3417848733e-01	 9.6605538672e-01	-5.1714591781e+00
 3.1727263626e-01	 9.7173882596e-01	-5.5841429904e+00
 3.0034109188e-01	 9.7710465158e-01	-5.9711502890e+00
 2.8339225002e-01	 9.8215431793e-01	-6.3317089466e+00
 2.6643437948e-01	 9.8688955463e-01	-6.6646652307e+00
 2.4947561177e-01	 9.9131235780e-01	-6.9684727700e+00
 3.3781086219e-01	 9.7655598875e-01	-4.9938869907e+00
 3.2072125187e-01	 9.8230120451e-01	-5.3793834526e+00
 3.0360566897e-01	 9.8772535431e-01	-5.7389070266e+00
 2.8647260057e-01	 9.9282990834e-01	-6.0718597790e+00
 2.6933040535e-01	 9.9761661501e-01	-6.3772175037e+00
 2.5218730321e-01	 1.0020874921e+00	-6.6535173345e+00
 3.4144323705e-01	 9.8705659078e-01	-4.8073526830e+00
 3.2416986748e-01	 9.9286358305e-01	-5.1654092045e+00
 3.0687024605e-01	 9.9834605705e-01	-5.4975479717e+00
 2.8955295111e-01	 1.0035054988e+00	-5.8033578290e+00
 2.7222643121e-01	 1.0083436754e+00	-6.0819524095e+00
 2.5489899464e-01	 1.0128626265e+00	-6.3319563383e+00
 3.4507561191e-01	 9.9755719281e-01	-4.6105532276e+00
 3.2761848309e-01	 1.0034259616e+00	-4.9407938821e+00
 3.1013482314e-01	 1.0089667598e+00	-5.2455353699e+00
 2.9263330165e-01	 1.0141810892e+00	-5.5245670357e+00
 2.7512245707e-01	 1.0190707358e+00	-5.7771495914e+00
 2.5761068607e-01	 1.0236377608e+00	-6.0019998532e+00
 2.4405222891e-01	 9.6976208916e-01	-7.5860333155e+00
 2.2746906338e-01	 9.7378530755e-01	-7.9790385372e+00
 2.1090048951e-01	 9.7750753630e-01	-8.3417078947e+00
 1.9435400473e-01	 9.8093145573e-01	-8.6717274152e+00
 1.7783693789e-01	 9.8405996947e-01	-8.9665141405e+00
 1.6135644226e-01	 9.8689619441e-01	-9.2232503816e+00
 2.4676392034e-01	 9.8053722348e-01	-7.2786736216e+00
 2.2999649742e-01	 9.8460514430e-01	-7.6459007320e+00
 2.1324382828e-01	 9.8836873115e-01	-7.9831211898e+00
 1.9651349367e-01	 9.9183069413e-01	-8.2879526977e+00
 1.7981290387e-01	 9.9499396913e-01	-8.5577075477e+00
 1.6314929162e-01	 9.9786170768e-01	-8.7894295905e+00
 2.4947561177e-01	 9.9131235780e-01	-6.9684727700e+00
 2.3252393146e-01	 9.9542498105e-01	-7.3113645766e+00
 2.1558716705e-01	 9.9922992600e-01	-7.6249025668e+00
 1.9867298261e-01	 1.0027299325e+00	-7.9066279133e+00
 1.8178886985e-01	 1.0059279688e+00	-8.1537364098e+00
 1.6494214098e-01	 1.0088272210e+00	-8.3631183623e+00
 2.5218730321e-01	 1.0020874921e+00	-6.6535173345e+00
 2.3505136549e-01	 1.0062448178e+00	-6.9734789087e+00
 2.1793050583e-01	 1.0100911208e+00	-7.2650776735e+00
 2.0083247155e-01	 1.0136291709e+00	-7.5257701042e+00
 1.8376483582e-01	 1.0168619685e+00	-7.7526235973e+00
 1.6673499033e-01	 1.0197927342e+00	-7.9423594967e+00
 2.5489899464e-01	 1.0128626265e+00	-6.3319563383e+00
 2.3757879953e-01	 1.0170646546e+00	-6.6303503654e+00
 2.2027384460e-01	 1.0209523157e+00	-6.9017260672e+00
 2.0299196049e-01	 1.0245284093e+00	-7.1434471022e+00
 1.8574080180e-01	 1.0277959681e+00	-7.3524404215e+00
 1.6852783969e-01	 1.0307582475e+00	-7.5252426518e+00
 2.5761068607e-01	 1.0236377608e+00	-6.0019998532e+00
 2.4010623357e-01	 1.0278844913e+00	-6.2801417796e+00
 2.2261718337e-01	 1.0318135105e+00	-6.5329794170e+00
 2.0515144943e-01	 1.0354276477e+00	-6.7577755439e+00
 1.8771676778e-01	 1.0387299678e+00	-6.9513044702e+00
 1.7032068905e-01	 1.0417237608e+00	-7.1099020090e+00
 1.6135644226e-01	 9.8689619441e-01	-9.2232503816e+00
 1.4491948902e-01	 9.8944345048e-01	-9.4921654959e+00
 1.2853286153e-01	 9.9170525032e-01	-9.7290237751e+00
 1.1220315003e-01	 9.9368528877e-01	-9.9307524429e+00
 9.5936747147e-02	 9.9538743238e-01	-1.0094189442e+01
 7.9739843777e-02	 9.9681570880e-01	-1.0216138075e+01
 1.6314929162e-01	 9.9786170768e-01	-8.7894295905e+00
 1.4652970557e-01	 1.0004372666e+00	-9.0396901480e+00
 1.2996100443e-01	 1.0027241975e+00	-9.2588647940e+00
 1.1344985170e-01	 1.0047262364e+00	-9.4435828793e+00
 9.7002711004e-02	 1.0064472927e+00	-9.5903652779e+00
 8.0625842041e-02	 1.0078914389e+00	-9.6956839651e+00
 1.6494214098e-01	 1.0088272210e+00	-8.3631183623e+00
 1.4813992211e-01	 1.0114310827e+00	-8.5969096711e+00
 1.3138914734e-01	 1.0137431448e+00	-8.8008097915e+00
 1.1469655337e-01	 1.0157671841e+00	-8.9711281150e+00
 9.8068674862e-02	 1.0175071531e+00	-9.1040441810e+00
 8.1511840305e-02	 1.0189671690e+00	-9.1956725329e+00
 1.6673499033e-01	 1.0197927342e+00	-7.9423594967e+00
 1.4975013866e-01	 1.0224248988e+00	-8.1619248809e+00
 1.3281729024e-01	 1.0247620920e+00	-8.3530313582e+00
 1.1594325504e-01	 1.0268081317e+00	-8.5116454163e+00
 9.9134638719e-02	 1.0285670135e+00	-8.6335800044e+00
 8.2397838570e-02	 1.0300428991e+00	-8.7145650210e+00
 1.6852783969e-01	 1.0307582475e+00	-7.5252426518e+00
 1.5136035520e-01	 1.0334187149e+00	-7.7328815830e+00
 1.3424543315e-01	 1.0357810392e+00	-7.9137459082e+00
 1.1718995670e-01	 1.0378490794e+00	-8.0634353903e+00
 1.0020060258e-01	 1.0396268738e+00	-8.1773701170e+00
 8.3283836834e-02	 1.0411186292e+00	-8.2508669912e+00
 1.7032068905e-01	 1.0417237608e+00	-7.1099020090e+00
 1.5297057175e-01	 1.0444125311e+00	-7.3079681289e+00
 1.3567357605e-01	 1.0467999864e+00	-7.4812111392e+00
 1.1843665837e-01	 1.0488900270e+00	-7.6248393584e+00
 1.0126656643e-01	 1.0506867342e+00	-7.7338527006e+00
 8.4169835098e-02	 1.0521943593e+00	-7.8031255540e+00
 7.9739843777e-02	 9.9681570880e-01	-1.0216138075e+01
 6.3618425732e-02	 9.9797429622e-01	-1.0353531097e+01
 4.7578270863e-02	 9.9886751281e-01	-1.0458279806e+01
 3.1624946766e-02	 9.9949980627e-01	-1.0527497985e+01
 1.5763809028e-02	 9.9987574344e-01	-1.0558433706e+01
 0.0000000000e+00	 1.0000000000e+00	-1.0548518931e+01
 8.0625842041e-02	 1.0078914389e+00	-9.6956839651e+00
 6.4325297129e-02	 1.0090628995e+00	-9.8230444028e+00
 4.8106918317e-02	 1.0099660407e+00	-9.9190881980e+00
 3.1976335063e-02	 1.0106053597e+00	-9.9804844127e+00
 1.5938962461e-02	 1.0109854739e+00	-1.0004040480e+01
 0.0000000000e+00	 1.0111111111e+00	-9.9867568944e+00
 8.1511840305e-02	 1.0189671690e+00	-9.1956725329e+00
 6.5032168526e-02	 1.0201515028e+00	-9.3151840459e+00
 4.8635565771e-02	 1.0210645686e+00	-9.4047624058e+00
 3.2327723360e-02	 1.0217109131e+00	-9.4606042703e+00
 1.6114115895e-02	 1.0220952044e+00	-9.4790483424e+00
 0.0000000000e+00	 1.0222222222e+00	-9.4566354803e+00
 8.2397838570e-02	 1.0300428991e+00	-8.7145650210e+00
 6.5739039923e-02	 1.0312401061e+00	-8.8285566302e+00
 4.9164213225e-02	 1.0321630966e+00	-8.9140639570e+00
 3.2679111658e-02	 1.0328164665e+00	-8.9667821508e+00
 1.6289269329e-02	 1.0332049349e+00	-8.9825516160e+00
 0.0000000000e+00	 1.0333333333e+00	-8.9574238989e+00
 8.3283836834e-02	 1.0411186292e+00	-8.2508669912e+00
 6.6445911321e-02	 1.0423287094e+00	-8.3618132674e+00
 4.9692860679e-02	 1.0432616245e+00	-8.4457995790e+00
 3.3030499955e-02	 1.0439220199e+00	-8.4979890023e+00
 1.6464422762e-02	 1.0443146654e+00	-8.5136925586e+00
 0.0000000000e+00	 1.0444444444e+00	-8.4884412520e+00
 8.4169835098e-02	 1.0521943593e+00	-7.8031255540e+00
 6.7152782718e-02	 1.0534173127e+00	-7.9136468136e+00
 5.0221508133e-02	 1.0543601524e+00	-7.9988184532e+00
 3.3381888253e-02	 1.0550275733e+00	-8.0532394116e+00
 1.6639576196e-02	 1.0554243959e+00	-8.0716586852e+00
 0.0000000000e+00	 1.0555555556e+00	-8.0490539073e+00
 1.0555555556e+00	 0.0000000000e+00	 1.4474494767e+00
 1.0554243959e+00	 1.6639576196e-02	 1.4659798115e+00
 1.0550275733e+00	 3.3381888253e-02	 1.4781869342e+00
 1.0543601524e+00	 5.0221508133e-02	 1.4879655035e+00
 1.0534173127e+00	 6.7152782718e-02	 1.4994576885e+00
 1.0521943593e+00	 8.4169835098e-02	 1.5169748781e+00
 1.0666666667e+00	 0.0000000000e+00	 1.6264994296e+00
 1.0665341263e+00	 1.6814729629e-02	 1.6514169262e+00
 1.0661331267e+00	 3.3733276550e-02	 1.6678286638e+00
 1.0654586803e+00	 5.0750155587e-02	 1.6800523784e+00
 1.0645059160e+00	 6.7859654115e-02	 1.6926795992e+00
 1.0632700894e+00	 8.5055833362e-02	 1.7104909484e+00
 1.0777777778e+00	 0.0000000000e+00	 1.8081646044e+00
 1.0776438568e+00	 1.6989883063e-02	 1.8374928897e+00
 1.0772386801e+00	 3.4084664847e-02	 1.8560088009e+00
 1.0765572082e+00	 5.1278803042e-02	 1.8684857703e+00
 1.0755945193e+00	 6.8566525512e-02	 1.8799988281e+00
 1.0743458195e+00	 8.5941831626e-02	 1.8958330951e+00
 1.0888888889e+00	 0.0000000000e+00	 1.9923116102e+00
 1.0887535873e+00	 1.7165036497e-02	 2.0240340999e+00
 1.0883442335e+00	 3.4436053145e-02	 2.0425088929e+00
 1.0876557362e+00	 5.1807450496e-02	 2.0529993234e+00
 1.0866831225e+00	 6.9273396909e-02	 2.0610997128e+00
 1.0854215496e+00	 8.6827829890e-02	 2.0726366354e+00
 1.1000000000e+00	 0.0000000000e+00	 2.1788207596e+00
 1.0998633178e+00	 1.7340189930e-02	 2.2108805112e+00
 1.0994497869e+00	 3.4787441442e-02	 2.2271238596e+00
 1.0987542641e+00	 5.2336097950e-02	 2.2333398858e+00
 1.0977717258e+00	 6.9980268306e-02	 2.2356796911e+00
 1.0964972797e+00	 8.7713828155e-02	 2.2405500012e+00
 1.1111111111e+00	 0.0000000000e+00	 2.3675853841e+00
 1.1109730483e+00	 1.7515343364e-02	 2.3978849522e+00
 1.1105553403e+00	 3.5138829740e-02	 2.4096613159e+00
 1.1098527920e+00	 5.2864745404e-02	 2.4092668358e+00
 1.1088603291e+00	 7.0687139703e-02	 2.4034486337e+00
 1.1075730098e+00	 8.8599826419e-02	 2.3992340801e+00
 1.0521943593e+00	 8.4169835098e-02	 1.5169748781e+00
 1.0506867342e+00	 1.0126656643e-01	 1.5778007230e+00
 1.0488900270e+00	 1.1843665837e-01	 1.6319442614e+00
 1.0467999864e+00	 1.3567357605e-01	 1.6836363596e+00
 1.0444125311e+00	 1.5297057175e-01	 1.7369638056e+00
 1.0417237608e+00	 1.7032068905e-01	 1.7957703493e+00
 1.0632700894e+00	 8.5055833362e-02	 1.7104909484e+00
 1.0617465945e+00	 1.0233253029e-01	 1.7731476893e+00
 1.0599309747e+00	 1.1968336004e-01	 1.8259341980e+00
 1.0578189337e+00	 1.3710171896e-01	 1.8735204327e+00
 1.0554063472e+00	 1.5458078829e-01	 1.9204295091e+00
 1.0526892740e+00	 1.7211353841e-01	 1.9709307142e+00
 1.0743458195e+00	 8.5941831626e-02	 1.8958330951e+00
 1.0728064549e+00	 1.0339849415e-01	 1.9580989754e+00
 1.0709719223e+00	 1.2093006170e-01	 2.0074256814e+00
 1.0688378809e+00	 1.3852986187e-01	 2.0489592450e+00
 1.0664001633e+00	 1.5619100484e-01	 2.0876952136e+00
 1.0636547873e+00	 1.7390638777e-01	 2.1283631049e+00
 1.0854215496e+00	 8.6827829890e-02	 2.0726366354e+00
 1.0838663153e+00	 1.0446445800e-01	 2.1322417888e+00
 1.0820128700e+00	 1.2217676337e-01	 2.1759594182e+00
 1.0798568281e+00	 1.3995800477e-01	 2.2094502774e+00
 1.0773939794e+00	 1.5780122138e-01	 2.2382200788e+00
 1.0746203006e+00	 1.7569923713e-01	 2.2674948359e+00
 1.0964972797e+00	 8.7713828155e-02	 2.2405500012e+00
 1.0949261756e+00	 1.0553042186e-01	 2.2951766819e+00
 1.0930538176e+00	 1.2342346504e-01	 2.3310899982e+00
 1.0908757753e+00	 1.4138614768e-01	 2.3545057941e+00
 1.0883877955e+00	 1.5941143793e-01	 2.3714793623e+00
 1.0855858139e+00	 1.7749208648e-01	 2.3877710965e+00
 1.1075730098e+00	 8.8599826419e-02	 2.3992340801e+00
 1.1059860360e+00	 1.0659638572e-01	 2.4465169009e+00
 1.1040947653e+00	 1.2467016671e-01	 2.4723852514e+00
 1.1018947226e+00	 1.4281429058e-01	 2.4836522082e+00
 1.0993816116e+00	 1.6102165447e-01	 2.4869637933e+00
 1.0965513271e+00	 1.7928493584e-01	 2.4886543363e+00
 1.0417237608e+00	 1.7032068905e-01	 1.7957703493e+00
 1.0387299678e+00	 1.8771676778e-01	 1.8923126541e+00
 1.0354276477e+00	 2.0515144943e-01	 1.9837072041e+00
 1.0318135105e+00	 2.2261718337e-01	 2.0725525694e+00
 1.0278844913e+00	 2.4010623357e-01	 2.1608847171e+00
 1.0236377608e+00	 2.5761068607e-01	 2.2501027229e+00
 1.0526892740e+00	 1.7211353841e-01	 1.9709307142e+00
 1.0496639674e+00	 1.8969273375e-01	 2.0602016835e+00
 1.0463268861e+00	 2.0731093837e-01	 2.1411382488e+00
 1.0426747054e+00	 2.2496052214e-01	 2.2166547684e+00
 1.0387043281e+00	 2.4263366761e-01	 2.2890661285e+00
 1.0344128951e+00	 2.6032237750e-01	 2.3600067503e+00
 1.0636547873e+00	 1.7390638777e-01	 2.1283631049e+00
 1.0605979671e+00	 1.9166869973e-01	 2.2090539786e+00
 1.0572261245e+00	 2.0947042732e-01	 2.2785566725e+00
 1.0535359002e+00	 2.2730386092e-01	 2.3401292518e+00
 1.0495241648e+00	 2.4516110164e-01	 2.3963898508e+00
 1.0451880294e+00	 2.6303406893e-01	 2.4492284862e+00
 1.0746203006e+00	 1.7569923713e-01	 2.2674948359e+00
 1.0715319668e+00	 1.9364466571e-01	 2.3382742053e+00
 1.0681253629e+00	 2.1162991626e-01	 2.3953525197e+00
 1.0643970951e+00	 2.2964719969e-01	 2.4423607042e+00
 1.0603440016e+00	 2.4768853568e-01	 2.4822455566e+00
 1.0559631637e+00	 2.6574576037e-01	 2.5171738568e+00
 1.0855858139e+00	 1.7749208648e-01	 2.3877710965e+00
 1.0824659664e+00	 1.9562063168e-01	 2.4472871428e+00
 1.0790246013e+00	 2.1378940520e-01	 2.4909387938e+00
 1.0752582899e+00	 2.3199053846e-01	 2.5227602630e+00
 1.0711638383e+00	 2.5021596972e-01	 2.5460535487e+00
 1.0667382981e+00	 2.6845745180e-01	 2.5632843103e+00
 1.0965513271e+00	 1.7928493584e-01	 2.4886543363e+00
 1.0933999661e+00	 1.9759659766e-01	 2.5355370835e+00
 1.0899238397e+00	 2.1594889414e-01	 2.5647508723e+00
 1.0861194848e+00	 2.3433387723e-01	 2.5807649486e+00
 1.0819836751e+00	 2.5274340376e-01	 2.5872642075e+00
 1.0775134324e+00	 2.7116914323e-01	 2.5870362814e+00
 1.0236377608e+00	 2.5761068607e-01	 2.2501027229e+00
 1.0190707358e+00	 2.7512245707e-01	 2.3711451318e+00
 1.0141810892e+00	 2.9263330165e-01	 2.4943473405e+00
 1.0089667598e+00	 3.1013482314e-01	 2.6191626980e+00
 1.0034259616e+00	 3.2761848309e-01	 2.7442511871e+00
 9.9755719281e-01	 3.4507561191e-01	 2.8674825339e+00
 1.0344128951e+00	 2.6032237750e-01	 2.3600067503e+00
 1.0297977961e+00	 2.7801848294e-01	 2.4646217192e+00
 1.0248566796e+00	 2.9571365220e-01	 2.5711162192e+00
 1.0195874625e+00	 3.1339940023e-01	 2.6789829421e+00
 1.0139883401e+00	 3.3106709870e-01	 2.7868531853e+00
 1.0080577948e+00	 3.4870798678e-01	 2.8924980858e+00
 1.0451880294e+00	 2.6303406893e-01	 2.4492284862e+00
 1.0405248565e+00	 2.8091450880e-01	 2.5374007273e+00
 1.0355322700e+00	 2.9879400274e-01	 2.6275650548e+00
 1.0302081652e+00	 3.1666397731e-01	 2.7192593503e+00
 1.0245507187e+00	 3.3451571431e-01	 2.8110865672e+00
 1.0185583969e+00	 3.5234036164e-01	 2.9007138663e+00
 1.0559631637e+00	 2.6574576037e-01	 2.5171738568e+00
 1.0512519169e+00	 2.8381053466e-01	 2.5889350573e+00
 1.0462078604e+00	 3.0187435329e-01	 2.6632074339e+00
 1.0408288680e+00	 3.1992855440e-01	 2.7395801919e+00
 1.0351130972e+00	 3.3796432993e-01	 2.8166283290e+00
 1.0290589989e+00	 3.5597273650e-01	 2.8919094386e+00
 1.0667382981e+00	 2.6845745180e-01	 2.5632843103e+00
 1.0619789773e+00	 2.8670656053e-01	 2.6187180063e+00
 1.0568834508e+00	 3.0495470383e-01	 2.6776029214e+00
 1.0514495707e+00	 3.2319313148e-01	 2.7395860172e+00
 1.0456754758e+00	 3.4141294554e-01	 2.8032147751e+00
 1.0395596009e+00	 3.5960511136e-01	 2.8659314230e+00
 1.0775134324e+00	 2.7116914323e-01	 2.5870362814e+00
 1.0727060376e+00	 2.8960258639e-01	 2.6262827893e+00
 1.0675590412e+00	 3.0803505437e-01	 2.6703566445e+00
 1.0620702735e+00	 3.2645770857e-01	 2.7189693076e+00
 1.0562378543e+00	 3.4486156115e-01	 2.7706412390e+00
 1.0500602030e+00	 3.6323748623e-01	 2.8226932927e+00
 9.9755719281e-01	 3.4507561191e-01	 2.8674825339e+00
 9.9135924433e-01	 3.6249742006e-01	 2.9415025685e+00
 9.8483120777e-01	 3.7987500979e-01	 3.0238045407e+00
 9.7797248296e-01	 3.9719938752e-01	 3.1377930373e+00
 9.7078278479e-01	 4.1446147664e-01	 3.2807899443e+00
 9.6326214954e-01	 4.3165213091e-01	 3.4459549485e+00
 1.0080577948e+00	 3.4870798678e-01	 2.8924980858e+00
 1.0017946048e+00	 3.6631318238e-01	 2.9386163614e+00
 9.9519785206e-01	 3.8387369410e-01	 2.9990948435e+00
 9.8826693015e-01	 4.0138043370e-01	 3.0948155359e+00
 9.8100155095e-01	 4.1882422903e-01	 3.2197177774e+00
 9.7340175112e-01	 4.3619583755e-01	 3.3665279961e+00
 1.0185583969e+00	 3.5234036164e-01	 2.9007138663e+00
 1.0122299653e+00	 3.7012894469e-01	 2.9203928682e+00
 1.0055644964e+00	 3.8787237842e-01	 2.9629539818e+00
 9.9856137734e-01	 4.0556147988e-01	 3.0426238778e+00
 9.9122031710e-01	 4.2318698141e-01	 3.1518101556e+00
 9.8354135269e-01	 4.4073954420e-01	 3.2827878265e+00
 1.0290589989e+00	 3.5597273650e-01	 2.8919094386e+00
 1.0226653257e+00	 3.7394470701e-01	 2.8875819601e+00
 1.0159311406e+00	 3.9187106273e-01	 2.9153795955e+00
 1.0088558245e+00	 4.0974252607e-01	 2.9812609520e+00
 1.0014390833e+00	 4.2754973380e-01	 3.0771499435e+00
 9.9368095427e-01	 4.4528325084e-01	 3.1948521233e+00
 1.0395596009e+00	 3.5960511136e-01	 2.8659314230e+00
 1.0331006862e+00	 3.7776046932e-01	 2.8412327736e+00
 1.0262977849e+00	 3.9586974704e-01	 2.8564057959e+00
 1.0191502717e+00	 4.1392357225e-01	 2.9108035920e+00
 1.0116578494e+00	 4.3191248618e-01	 2.9958512758e+00
 1.0038205558e+00	 4.4982695748e-01	 3.1028670590e+00
 1.0500602030e+00	 3.6323748623e-01	 2.8226932927e+00
 1.0435360467e+00	 3.8157623164e-01	 2.7813705310e+00
 1.0366644292e+00	 3.9986843136e-01	 2.7860995963e+00
 1.0294447189e+00	 4.1810461844e-01	 2.8313587586e+00
 1.0218766156e+00	 4.3627523857e-01	 2.9080554853e+00
 1.0139601574e+00	 4.5437066412e-01	 3.0070029600e+00
 9.6326214954e-01	 4.3165213091e-01	 3.4459549485e+00
 9.5541094048e-01	 4.4876214822e-01	 3.4959220388e+00
 9.4722985277e-01	 4.6578228485e-01	 3.5643477844e+00
 9.3871991772e-01	 4.8270327007e-01	 3.6438236528e+00
 9.2988250619e-01	 4.9951582111e-01	 3.7270592763e+00
 9.2071933128e-01	 5.1621065843e-01	 3.8069573045e+00
 9.7340175112e-01	 4.3619583755e-01	 3.3665279961e+00
 9.6546789775e-01	 4.5348596031e-01	 3.3910736621e+00
 9.5720069333e-01	 4.7068525627e-01	 3.4364944985e+00
 9.4860118002e-01	 4.8778435712e-01	 3.4949292602e+00
 9.3967074310e-01	 5.0477388238e-01	 3.5586429787e+00
 9.3041111371e-01	 5.2164445484e-01	 3.6201039314e+00
 9.8354135269e-01	 4.4073954420e-01	 3.2827878265e+00
 9.7552485501e-01	 4.5820977240e-01	 3.2836844162e+00
 9.6717153388e-01	 4.7558822769e-01	 3.3079063995e+00
 9.5848244231e-01	 4.9286544417e-01	 3.3471248904e+00
 9.4945898001e-01	 5.1003194366e-01	 3.3931463022e+00
 9.4010289614e-01	 5.2707825124e-01	 3.4379913478e+00
 9.9368095427e-01	 4.4528325084e-01	 3.1948521233e+00
 9.8558181228e-01	 4.6293358448e-01	 3.1739286765e+00
 9.7714237444e-01	 4.8049119911e-01	 3.1788122306e+00
 9.6836370460e-01	 4.9794653123e-01	 3.2006916752e+00
 9.5924721692e-01	 5.1529000493e-01	 3.2309011905e+00
 9.4979467858e-01	 5.3251204765e-01	 3.2610011822e+00
 1.0038205558e+00	 4.4982695748e-01	 3.1028670590e+00
 9.9563876955e-01	 4.6765739657e-01	 3.0620053789e+00
 9.8711321499e-01	 4.8539417053e-01	 3.0494612533e+00
 9.7824496689e-01	 5.0302761828e-01	 3.0559271589e+00
 9.6903545382e-01	 5.2054806621e-01	 3.0722518828e+00
 9.5948646101e-01	 5.3794584405e-01	 3.0895232802e+00
 1.0139601574e+00	 4.5437066412e-01	 3.0070029600e+00
 1.0056957268e+00	 4.7238120866e-01	 2.9481334688e+00
 9.9708405555e-01	 4.9029714195e-01	 2.9201184820e+00
 9.8812622918e-01	 5.0810870533e-01	 2.9131403199e+00
 9.7882369073e-01	 5.2580612748e-01	 2.9175497224e+00
 9.6917824345e-01	 5.4337964046e-01	 2.9239503063e+00
 9.2071933128e-01	 5.1621065843e-01	 3.8069573045e+00
 9.1123245013e-01	 5.3277852124e-01	 3.8662662946e+00
 9.0142426503e-01	 5.4921018316e-01	 3.9101990233e+00
 8.9129752349e-01	 5.6549646815e-01	 3.9327493745e+00
 8.8085531760e-01	 5.8162826644e-01	 3.9283826823e+00
 8.7010108244e-01	 5.9759655052e-01	 3.8921000718e+00
 9.3041111371e-01	 5.2164445484e-01	 3.6201039314e+00
 9.2082437066e-01	 5.3838671620e-01	 3.6624189228e+00
 9.1091294150e-01	 5.5499134298e-01	 3.6903534989e+00
 9.0067960268e-01	 5.7144906255e-01	 3.6974440090e+00
 8.9012747884e-01	 5.8775066924e-01	 3.6777120164e+00
 8.7926004121e-01	 6.0388704053e-01	 3.6257301425e+00
 9.4010289614e-01	 5.2707825124e-01	 3.4379913478e+00
 9.3041629119e-01	 5.4399491116e-01	 3.4644100238e+00
 9.2040161798e-01	 5.6077250280e-01	 3.4773940062e+00
 9.1006168188e-01	 5.7740165695e-01	 3.4700116681e+00
 8.9939964008e-01	 5.9387307204e-01	 3.4358307329e+00
 8.8841899997e-01	 6.1017753053e-01	 3.3689854792e+00
 9.4979467858e-01	 5.3251204765e-01	 3.2610011822e+00
 9.4000821171e-01	 5.4960310612e-01	 3.2726917698e+00
 9.2989029445e-01	 5.6655366263e-01	 3.2718436408e+00
 9.1944376107e-01	 5.8335425135e-01	 3.2510472184e+00
 9.0867180132e-01	 5.9999547485e-01	 3.2034067720e+00
 8.9757795873e-01	 6.1646802054e-01	 3.1226088217e+00
 9.5948646101e-01	 5.3794584405e-01	 3.0895232802e+00
 9.4960013224e-01	 5.5521130108e-01	 3.0877196969e+00
 9.3937897092e-01	 5.7233482245e-01	 3.0742241337e+00
 9.2882584027e-01	 5.8930684575e-01	 3.0411396144e+00
 9.1794396255e-01	 6.0611787765e-01	 2.9810978468e+00
 9.0673691749e-01	 6.2275851054e-01	 2.8873286521e+00
 9.6917824345e-01	 5.4337964046e-01	 2.9239503063e+00
 9.5919205277e-01	 5.6081949604e-01	 2.9099471476e+00
 9.4886764740e-01	 5.7811598227e-01	 2.8850501436e+00
 9.3820791946e-01	 5.9525944016e-01	 2.8408660478e+00
 9.2721612379e-01	 6.1224028046e-01	 2.7695454604e+00
 9.1589587626e-01	 6.2904900055e-01	 2.6638530914e+00
 8.7010108244e-01	 5.9759655052e-01	 3.8921000718e+00
 8.5903859361e-01	 6.1339239118e-01	 3.9340089749e+00
 8.4767196387e-01	 6.2900697335e-01	 3.9320834905e+00
 8.3600563894e-01	 6.4443161198e-01	 3.8840733572e+00
 8.2404439234e-01	 6.5965776757e-01	 3.7885151187e+00
 8.1179331941e-01	 6.7467706158e-01	 3.6447815902e+00
 8.7926004121e-01	 6.0388704053e-01	 3.6257301425e+00
 8.6808110512e-01	 6.1984915319e-01	 3.6603252189e+00
 8.5659482665e-01	 6.3562809939e-01	 3.6507395998e+00
 8.4480569830e-01	 6.5121510263e-01	 3.5943543071e+00
 8.3271854384e-01	 6.6660153355e-01	 3.4893563769e+00
 8.2033851225e-01	 6.8177892539e-01	 3.3347900877e+00
 8.8841899997e-01	 6.1017753053e-01	 3.3689854792e+00
 8.7712361663e-01	 6.2630591520e-01	 3.3970044467e+00
 8.6551768943e-01	 6.4224922542e-01	 3.3803804210e+00
 8.5360575766e-01	 6.5799859329e-01	 3.3161157031e+00
 8.4139269534e-01	 6.7354529952e-01	 3.2020375707e+00
 8.2888370508e-01	 6.8888078919e-01	 3.0368511831e+00
 8.9757795873e-01	 6.1646802054e-01	 3.1226088217e+00
 8.8616612814e-01	 6.3276267721e-01	 3.1448665449e+00
 8.7444055221e-01	 6.4887035146e-01	 3.1219058986e+00
 8.6240581701e-01	 6.6478208394e-01	 3.0503407041e+00
 8.5006684683e-01	 6.8048906549e-01	 2.9276283883e+00
 8.3742889792e-01	 6.9598265300e-01	 2.7521244676e+00
 9.0673691749e-01	 6.2275851054e-01	 2.8873286521e+00
 8.9520863966e-01	 6.3921943923e-01	 2.9047134355e+00
 8.8336341498e-01	 6.5549147749e-01	 2.8761946655e+00
 8.7120587637e-01	 6.7156557459e-01	 2.7979882121e+00
 8.5874099833e-01	 6.8743283147e-01	 2.6671717544e+00
 8.4597409076e-01	 7.0308451680e-01	 2.4817407340e+00
 9.1589587626e-01	 6.2904900055e-01	 2.6638530914e+00
 9.0425115117e-01	 6.4567620124e-01	 2.6773228649e+00
 8.9228627776e-01	 6.6211260353e-01	 2.6440977378e+00
 8.8000593573e-01	 6.7834906524e-01	 2.5599864885e+00
 8.6741514983e-01	 6.9437659744e-01	 2.4216773853e+00
 8.5451928359e-01	 7.1018638061e-01	 2.2267954890e+00
 8.1179331941e-01	 6.7467706158e-01	 3.6447815902e+00
 7.9925783047e-01	 6.8948129147e-01	 3.6058612804e+00
 7.8644364312e-01	 7.0406244543e-01	 3.5258268686e+00
 7.7335677369e-01	 7.1841271665e-01	 3.4081879032e+00
 7.6000352801e-01	 7.3252451718e-01	 3.2574420799e+00
 7.4639049125e-01	 7.4639049125e-01	 3.0811497850e+00
 8.2033851225e-01	 6.8177892539e-01	 3.3347900877e+00
 8.0767107079e-01	 6.9673898928e-01	 3.2981256950e+00
 7.9472199725e-01	 7.1147362907e-01	 3.2168807021e+00
 7.8149737131e-01	 7.2597495577e-01	 3.0944353850e+00
 7.6800356515e-01	 7.4023530158e-01	 2.9351928287e+00
 7.5424723327e-01	 7.5424723327e-01	 2.7553806676e+00
 8.2888370508e-01	 6.8888078919e-01	 3.0368511831e+00
 8.1608431111e-01	 7.0399668708e-01	 3.0036590220e+00
 8.0300035139e-01	 7.1888481270e-01	 2.9222832250e+00
 7.8963796893e-01	 7.3353719490e-01	 2.7959612053e+00
 7.7600360228e-01	 7.4794608597e-01	 2.6312760202e+00
 7.6210397528e-01	 7.6210397528e-01	 2.4513380369e+00
 8.3742889792e-01	 6.9598265300e-01	 2.7521244676e+00
 8.2449755144e-01	 7.1125438489e-01	 2.7236785244e+00
 8.1127870553e-01	 7.2629599634e-01	 2.6433115299e+00
 7.9777856655e-01	 7.4109943402e-01	 2.5141078840e+00
 7.8400363942e-01	 7.5565687036e-01	 2.3488134010e+00
 7.6996071729e-01	 7.6996071729e-01	 2.1684977752e+00
 8.4597409076e-01	 7.0308451680e-01	 2.4817407340e+00
 8.3291079176e-01	 7.1851208269e-01	 2.4593725690e+00
 8.1955705967e-01	 7.3370717998e-01	 2.3812142772e+00
 8.0591916416e-01	 7.4866167314e-01	 2.2516059079e+00
 7.9200367656e-01	 7.6336765475e-01	 2.0871955724e+00
 7.7781745931e-01	 7.7781745931e-01	 1.9062525123e+00
 8.5451928359e-01	 7.1018638061e-01	 2.2267954890e+00
 8.4132403208e-01	 7.2576978050e-01	 2.2118940405e+00
 8.2783541381e-01	 7.4111836361e-01	 2.1372059815e+00
 8.1405976178e-01	 7.5622391226e-01	 2.0095229841e+00
 8.0000371369e-01	 7.7107843914e-01	 1.8457236197e+00
 7.8567420132e-01	 7.8567420132e-01	 1.6639164504e+00
 7.4639049125e-01	 7.4639049125e-01	 3.0811497850e+00
 7.3252451718e-01	 7.6000352801e-01	 2.8807531655e+00
 7.1841271665e-01	 7.7335677369e-01	 2.6693880787e+00
 7.0406244543e-01	 7.8644364312e-01	 2.4560599778e+00
 6.8948129147e-01	 7.9925783047e-01	 2.2470276284e+00
 6.7467706158e-01	 8.1179331941e-01	 2.0475471500e+00
 7.5424723327e-01	 7.5424723327e-01	 2.7553806676e+00
 7.4023530158e-01	 7.6800356515e-01	 2.5575672223e+00
 7.2597495577e-01	 7.8149737131e-01	 2.3465816438e+00
 7.1147362907e-01	 7.9472199725e-01	 2.1394015200e+00
 6.9673898928e-01	 8.0767107079e-01	 1.9423973694e+00
 6.8177892539e-01	 8.2033851225e-01	 1.7608700939e+00
 7.6210397528e-01	 7.6210397528e-01	 2.4513380369e+00
 7.4794608597e-01	 7.7600360228e-01	 2.2586478914e+00
 7.3353719490e-01	 7.8963796893e-01	 2.0495999162e+00
 7.1888481270e-01	 8.0300035139e-01	 1.8480784491e+00
 7.0399668708e-01	 8.1608431111e-01	 1.6627253314e+00
 6.8888078919e-01	 8.2888370508e-01	 1.4988852258e+00
 7.6996071729e-01	 7.6996071729e-01	 2.1684977752e+00
 7.5565687036e-01	 7.8400363942e-01	 1.9803780788e+00
 7.4109943402e-01	 7.9777856655e-01	 1.7770444651e+00
 7.2629599634e-01	 8.1127870553e-01	 1.5807055018e+00
 7.1125438489e-01	 8.2449755144e-01	 1.4066444499e+00
 6.9598265300e-01	 8.3742889792e-01	 1.2602524357e+00
 7.7781745931e-01	 7.7781745931e-01	 1.9062525123e+00
 7.6336765475e-01	 7.9200367656e-01	 1.7221671735e+00
 7.4866167314e-01	 8.0591916416e-01	 1.5257259284e+00
 7.3370717998e-01	 8.1955705967e-01	 1.3358627652e+00
 7.1851208269e-01	 8.3291079176e-01	 1.1727531180e+00
 7.0308451680e-01	 8.4597409076e-01	 1.0435971289e+00
 7.8567420132e-01	 7.8567420132e-01	 1.6639164504e+00
 7.7107843914e-01	 8.0000371369e-01	 1.4833551731e+00
 7.5622391226e-01	 8.1405976178e-01	 1.2932903722e+00
 7.4111836361e-01	 8.2783541381e-01	 1.1120937117e+00
 7.2576978050e-01	 8.4132403208e-01	 9.5961572644e-01
 7.1018638061e-01	 8.5451928359e-01	 8.4751079587e-01
 6.7467706158e-01	 8.1179331941e-01	 2.0475471500e+00
 6.5965776757e-01	 8.2404439234e-01	 1.7345297713e+00
 6.4443161198e-01	 8.3600563894e-01	 1.4283619960e+00
 6.2900697335e-01	 8.4767196387e-01	 1.1302658325e+00
 6.1339239118e-01	 8.5903859361e-01	 8.4058545706e-01
 5.9759655052e-01	 8.7010108244e-01	 5.5883411712e-01
 6.8177892539e-01	 8.2033851225e-01	 1.7608700939e+00
 6.6660153355e-01	 8.3271854384e-01	 1.4570067688e+00
 6.5121510263e-01	 8.4480569830e-01	 1.1633615905e+00
 6.3562809939e-01	 8.5659482665e-01	 8.8090573102e-01
 6.1984915319e-01	 8.6808110512e-01	 6.0968354007e-01
 6.0388704053e-01	 8.7926004121e-01	 3.4886316287e-01
 6.8888078919e-01	 8.2888370508e-01	 1.4988852258e+00
 6.7354529952e-01	 8.4139269534e-01	 1.2028437226e+00
 6.5799859329e-01	 8.5360575766e-01	 9.2054345714e-01
 6.4224922542e-01	 8.6551768943e-01	 6.5269985435e-01
 6.2630591520e-01	 8.7712361663e-01	 3.9905083213e-01
 6.1017753053e-01	 8.8841899997e-01	 1.5841125883e-01
 6.9598265300e-01	 8.3742889792e-01	 1.2602524357e+00
 6.8048906549e-01	 8.5006684683e-01	 9.7077191690e-01
 6.6478208394e-01	 8.6240581701e-01	 6.9871689903e-01
 6.4887035146e-01	 8.7444055221e-01	 4.4454176896e-01
 6.3276267721e-01	 8.8616612814e-01	 2.0767100304e-01
 6.1646802054e-01	 8.9757795873e-01	-1.3442407802e-02
 7.0308451680e-01	 8.4597409076e-01	 1.0435971289e+00
 6.8743283147e-01	 8.5874099833e-01	 7.5948670415e-01
 6.7156557459e-01	 8.7120587637e-01	 4.9665384671e-01
 6.5549147749e-01	 8.8336341498e-01	 2.5528623433e-01
 6.3921943923e-01	 8.9520863966e-01	 3.4487487664e-02
 6.2275851054e-01	 9.0673691749e-01	-1.6766030533e-01
 7.1018638061e-01	 8.5451928359e-01	 8.4751079587e-01
 6.9437659744e-01	 8.6741514983e-01	 5.6764817650e-01
 6.7834906524e-01	 8.8000593573e-01	 3.1308962914e-01
 6.6211260353e-01	 8.9228627776e-01	 8.3750070427e-02
 6.4567620124e-01	 9.0425115117e-01	-1.2159555320e-01
 6.2904900055e-01	 9.1589587626e-01	-3.0524550661e-01
 5.9759655052e-01	 8.7010108244e-01	 5.5883411712e-01
 5.8162826644e-01	 8.8085531760e-01	 2.2183145169e-01
 5.6549646815e-01	 8.9129752349e-01	-1.1654489303e-01
 5.4921018316e-01	 9.0142426503e-01	-4.5942325135e-01
 5.3277852124e-01	 9.1123245013e-01	-8.1047598805e-01
 5.1621065843e-01	 9.2071933128e-01	-1.1738415230e+00
 6.0388704053e-01	 8.7926004121e-01	 3.4886316287e-01
 5.8775066924e-01	 8.9012747884e-01	 2.8553066426e-02
 5.7144906255e-01	 9.0067960268e-01	-2.9137656753e-01
 5.5499134298e-01	 9.1091294150e-01	-6.1451490572e-01
 5.3838671620e-01	 9.2082437066e-01	-9.4502284888e-01
 5.2164445484e-01	 9.3041111371e-01	-1.2875502100e+00
 6.1017753053e-01	 8.8841899997e-01	 1.5841125883e-01
 5.9387307204e-01	 8.9939964008e-01	-1.4584719362e-01
 5.7740165695e-01	 9.1006168188e-01	-4.4785841208e-01
 5.6077250280e-01	 9.2040161798e-01	-7.5168443176e-01
 5.4399491116e-01	 9.3041629119e-01	-1.0619877383e+00
 5.2707825124e-01	 9.4010289614e-01	-1.3839434549e+00
 6.1646802054e-01	 8.9757795873e-01	-1.3442407802e-02
 5.9999547485e-01	 9.0867180132e-01	-3.0218916356e-01
 5.8335425135e-01	 9.1944376107e-01	-5.8670472090e-01
 5.6655366263e-01	 9.2989029445e-01	-8.7153649177e-01
 5.4960310612e-01	 9.4000821171e-01	-1.1618620773e+00
 5.3251204765e-01	 9.4979467858e-01	-1.4633963163e+00
 6.2275851054e-01	 9.0673691749e-01	-1.6766030533e-01
 6.0611787765e-01	 9.1794396255e-01	-4.4133576569e-01
 5.8930684575e-01	 9.2882584027e-01	-7.0867429822e-01
 5.7233482245e-01	 9.3937897092e-01	-9.7472166923e-01
 5.5521130108e-01	 9.4960013224e-01	-1.2451846041e+00
 5.3794584405e-01	 9.5948646101e-01	-1.5263325472e+00
 6.2904900055e-01	 9.1589587626e-01	-3.0524550661e-01
 6.1224028046e-01	 9.2721612379e-01	-5.6419187050e-01
 5.9525944016e-01	 9.3820791946e-01	-8.1456923440e-01
 5.7811598227e-01	 9.4886764740e-01	-1.0619351631e+00
 5.6081949604e-01	 9.5919205277e-01	-1.3125399898e+00
 5.4337964046e-01	 9.6917824345e-01	-1.5732231347e+00
 5.1621065843e-01	 9.2071933128e-01	-1.1738415230e+00
 4.9951582111e-01	 9.2988250619e-01	-1.4955923685e+00
 4.8270327007e-01	 9.3871991772e-01	-1.8319406860e+00
 4.6578228485e-01	 9.4722985277e-01	-2.1879800757e+00
 4.4876214822e-01	 9.5541094048e-01	-2.5689600667e+00
 4.3165213091e-01	 9.6326214954e-01	-2.9802031910e+00
 5.2164445484e-01	 9.3041111371e-01	-1.2875502100e+00
 5.0477388238e-01	 9.3967074310e-01	-1.5873554890e+00
 4.8778435712e-01	 9.4860118002e-01	-1.9010772069e+00
 4.7068525627e-01	 9.5720069333e-01	-2.2343907189e+00
 4.5348596031e-01	 9.6546789775e-01	-2.5931343919e+00
 4.3619583755e-01	 9.7340175112e-01	-2.9832217203e+00
 5.2707825124e-01	 9.4010289614e-01	-1.3839434549e+00
 5.1003194366e-01	 9.4945898001e-01	-1.6621773459e+00
 4.9286544417e-01	 9.5848244231e-01	-1.9536327037e+00
 4.7558822769e-01	 9.6717153388e-01	-2.2645817636e+00
 4.5820977240e-01	 9.7552485501e-01	-2.6014671024e+00
 4.4073954420e-01	 9.8354135269e-01	-2.9708086629e+00
 5.3251204765e-01	 9.4979467858e-01	-1.4633963163e+00
 5.1529000493e-01	 9.5924721692e-01	-1.7203089060e+00
 4.9794653123e-01	 9.6836370460e-01	-1.9897310055e+00
 4.8049119911e-01	 9.7714237444e-01	-2.2785473670e+00
 4.6293358448e-01	 9.8558181228e-01	-2.5938206609e+00
 4.4528325084e-01	 9.9368095427e-01	-2.9426932742e+00
 5.3794584405e-01	 9.5948646101e-01	-1.5263325472e+00
 5.2054806621e-01	 9.6903545382e-01	-1.7620513906e+00
 5.0302761828e-01	 9.7824496689e-01	-2.0095477645e+00
 4.8539417053e-01	 9.8711321499e-01	-2.2763350807e+00
 4.6765739657e-01	 9.9563876955e-01	-2.5701124925e+00
 4.4982695748e-01	 1.0038205558e+00	-2.8986613306e+00
 5.4337964046e-01	 9.6917824345e-01	-1.5732231347e+00
 5.2580612748e-01	 9.7882369073e-01	-1.7877547319e+00
 5.0810870533e-01	 9.8812622918e-01	-2.0133088298e+00
 4.9029714195e-01	 9.9708405555e-01	-2.2580441428e+00
 4.7238120866e-01	 1.0056957268e+00	-2.5303131960e+00
 4.5437066412e-01	 1.0139601574e+00	-2.8385532607e+00
 4.3165213091e-01	 9.6326214954e-01	-2.9802031910e+00
 4.1446147664e-01	 9.7078278479e-01	-3.2745176163e+00
 3.9719938752e-01	 9.7797248296e-01	-3.5830065977e+00
 3.7987500979e-01	 9.8483120777e-01	-3.9109095091e+00
 3.6249742006e-01	 9.9135924433e-01	-4.2600684317e+00
 3.4507561191e-01	 9.9755719281e-01	-4.6105532276e+00
 4.3619583755e-01	 9.7340175112e-01	-2.9832217203e+00
 4.1882422903e-01	 9.8100155095e-01	-3.2531660860e+00
 4.0138043370e-01	 9.8826693015e-01	-3.5375617015e+00
 3.8387369410e-01	 9.9519785206e-01	-3.8420984390e+00
 3.6631318238e-01	 1.0017946048e+00	-4.1714520950e+00
 3.4870798678e-01	 1.0080577948e+00	-4.5083684855e+00
 4.4073954420e-01	 9.8354135269e-01	-2.9708086629e+00
 4.2318698141e-01	 9.9122031710e-01	-3.2152563274e+00
 4.0556147988e-01	 9.9856137734e-01	-3.4745402028e+00
 3.8787237842e-01	 1.0055644964e+00	-3.7548174506e+00
 3.7012894469e-01	 1.0122299653e+00	-4.0620748175e+00
 3.5234036164e-01	 1.0185583969e+00	-4.3848834843e+00
 4.4528325084e-01	 9.9368095427e-01	-2.9426932742e+00
 4.2754973380e-01	 1.0014390833e+00	-3.1604318787e+00
 4.0974252607e-01	 1.0088558245e+00	-3.3934980288e+00
 3.9187106273e-01	 1.0159311406e+00	-3.6485334091e+00
 3.7394470701e-01	 1.0226653257e+00	-3.9320042973e+00
 3.5597273650e-01	 1.0290589989e+00	-4.2393466249e+00
 4.4982695748e-01	 1.0038205558e+00	-2.8986613306e+00
 4.3191248618e-01	 1.0116578494e+00	-3.0883923819e+00
 4.1392357225e-01	 1.0191502717e+00	-3.2940468260e+00
 3.9586974704e-01	 1.0262977849e+00	-3.5227685445e+00
 3.7776046932e-01	 1.0331006862e+00	-3.7815175395e+00
 3.5960511136e-01	 1.0395596009e+00	-4.0710909041e+00
 4.5437066412e-01	 1.0139601574e+00	-2.8385532607e+00
 4.3627523857e-01	 1.0218766156e+00	-2.9988917320e+00
 4.1810461844e-01	 1.0294447189e+00	-3.1758521267e+00
 3.9986843136e-01	 1.0366644292e+00	-3.3770986311e+00
 3.8157623164e-01	 1.0435360467e+00	-3.6101025822e+00
 3.6323748623e-01	 1.0500602030e+00	-3.8795348936e+00
 3.4507561191e-01	 9.9755719281e-01	-4.6105532276e+00
 3.2761848309e-01	 1.0034259616e+00	-4.9407938821e+00
 3.1013482314e-01	 1.0089667598e+00	-5.2455353699e+00
 2.9263330165e-01	 1.0141810892e+00	-5.5245670357e+00
 2.7512245707e-01	 1.0190707358e+00	-5.7771495914e+00
 2.5761068607e-01	 1.0236377608e+00	-6.0019998532e+00
 3.4870798678e-01	 1.0080577948e+00	-4.5083684855e+00
 3.3106709870e-01	 1.0139883401e+00	-4.8168843905e+00
 3.1339940023e-01	 1.0195874625e+00	-5.1000080071e+00
 2.9571365220e-01	 1.0248566796e+00	-5.3578368768e+00
 2.7801848294e-01	 1.0297977961e+00	-5.5898806264e+00
 2.6032237750e-01	 1.0344128951e+00	-5.7950439234e+00
 3.5234036164e-01	 1.0185583969e+00	-4.3848834843e+00
 3.3451571431e-01	 1.0245507187e+00	-4.6720133857e+00
 3.1666397731e-01	 1.0302081652e+00	-4.9342512339e+00
 2.9879400274e-01	 1.0355322700e+00	-5.1720174828e+00
 2.8091450880e-01	 1.0405248565e+00	-5.3850804894e+00
 2.6303406893e-01	 1.0451880294e+00	-5.5725376237e+00
 3.5597273650e-01	 1.0290589989e+00	-4.2393466249e+00
 3.3796432993e-01	 1.0351130972e+00	-4.5052498942e+00
 3.1992855440e-01	 1.0408288680e+00	-4.7471684807e+00
 3.0187435329e-01	 1.0462078604e+00	-4.9658617830e+00
 2.8381053466e-01	 1.0512519169e+00	-5.1613677876e+00
 2.6574576037e-01	 1.0559631637e+00	-5.3329822663e+00
 3.5960511136e-01	 1.0395596009e+00	-4.0710909041e+00
 3.4141294554e-01	 1.0456754758e+00	-4.3157396779e+00
 3.2319313148e-01	 1.0514495707e+00	-4.5377327164e+00
 3.0495470383e-01	 1.0568834508e+00	-4.7381857574e+00
 2.8670656053e-01	 1.0619789773e+00	-4.9174184388e+00
 2.6845745180e-01	 1.0667382981e+00	-5.0749315113e+00
 3.6323748623e-01	 1.0500602030e+00	-3.8795348936e+00
 3.4486156115e-01	 1.0562378543e+00	-4.1027059187e+00
 3.2645770857e-01	 1.0620702735e+00	-4.3049868422e+00
 3.0803505437e-01	 1.0675590412e+00	-4.4878685438e+00
 2.8960258639e-01	 1.0727060376e+00	-4.6519654970e+00
 2.7116914323e-01	 1.0775134324e+00	-4.7969909187e+00
 2.5761068607e-01	 1.0236377608e+00	-6.0019998532e+00
 2.4010623357e-01	 1.0278844913e+00	-6.2801417796e+00
 2.2261718337e-01	 1.0318135105e+00	-6.5329794170e+00
 2.0515144943e-01	 1.0354276477e+00	-6.7577755439e+00
 1.8771676778e-01	 1.0387299678e+00	-6.9513044702e+00
 1.7032068905e-01	 1.0417237608e+00	-7.1099020090e+00
 2.6032237750e-01	 1.0344128951e+00	-5.7950439234e+00
 2.4263366761e-01	 1.0387043281e+00	-6.0567730449e+00
 2.2496052214e-01	 1.0426747054e+00	-6.2929123109e+00
 2.0731093837e-01	 1.0463268861e+00	-6.5006676998e+00
 1.8969273375e-01	 1.0496639674e+00	-6.6767053370e+00
 1.7211353841e-01	 1.0526892740e+00	-6.8172049688e+00
 2.6303406893e-01	 1.0451880294e+00	-5.5725376237e+00
 2.4516110164e-01	 1.0495241648e+00	-5.8192196898e+00
 2.2730386092e-01	 1.0535359002e+00	-6.0404756178e+00
 2.0947042732e-01	 1.0572261245e+00	-6.2334457291e+00
 1.9166869973e-01	 1.0605979671e+00	-6.3946744876e+00
 1.7390638777e-01	 1.0636547873e+00	-6.5201677297e+00
 2.6574576037e-01	 1.0559631637e+00	-5.3329822663e+00
 2.4768853568e-01	 1.0603440016e+00	-5.5659151338e+00
 2.2964719969e-01	 1.0643970951e+00	-5.7740519057e+00
 2.1162991626e-01	 1.0681253629e+00	-5.9544585038e+00
 1.9364466571e-01	 1.0715319668e+00	-6.1035441451e+00
 1.7569923713e-01	 1.0746203006e+00	-6.2171225908e+00
 2.6845745180e-01	 1.0667382981e+00	-5.0749315113e+00
 2.5021596972e-01	 1.0711638383e+00	-5.2953397000e+00
 2.3199053846e-01	 1.0752582899e+00	-5.4920660581e+00
 2.1378940520e-01	 1.0790246013e+00	-5.6620934884e+00
 1.9562063168e-01	 1.0824659664e+00	-5.8016822697e+00
 1.7749208648e-01	 1.0855858139e+00	-5.9064355961e+00
 2.7116914323e-01	 1.0775134324e+00	-4.7969909187e+00
 2.5274340376e-01	 1.0819836751e+00	-5.0060199633e+00
 2.3433387723e-01	 1.0861194848e+00	-5.1929844237e+00
 2.1594889414e-01	 1.0899238397e+00	-5.3547756988e+00
 1.9759659766e-01	 1.0933999661e+00	-5.4874913335e+00
 1.7928493584e-01	 1.0965513271e+00	-5.5865051316e+00
 1.7032068905e-01	 1.0417237608e+00	-7.1099020090e+00
 1.5297057175e-01	 1.0444125311e+00	-7.3079681289e+00
 1.3567357605e-01	 1.0467999864e+00	-7.4812111392e+00
 1.1843665837e-01	 1.0488900270e+00	-7.6248393584e+00
 1.0126656643e-01	 1.0506867342e+00	-7.7338527006e+00
 8.4169835098e-02	 1.0521943593e+00	-7.8031255540e+00
 1.7211353841e-01	 1.0526892740e+00	-6.8172049688e+00
 1.5458078829e-01	 1.0554063472e+00	-6.9992713250e+00
 1.3710171896e-01	 1.0578189337e+00	-7.1578148237e+00
 1.1968336004e-01	 1.0599309747e+00	-7.2875748422e+00
 1.0233253029e-01	 1.0617465945e+00	-7.3830551701e+00
 8.5055833362e-02	 1.0632700894e+00	-7.4386136710e+00
 1.7390638777e-01	 1.0636547873e+00	-6.5201677297e+00
 1.5619100484e-01	 1.0664001633e+00	-6.6877634297e+00
 1.3852986187e-01	 1.0688378809e+00	-6.8334590387e+00
 1.2093006170e-01	 1.0709719223e+00	-6.9514991840e+00
 1.0339849415e-01	 1.0728064549e+00	-7.0358627662e+00
 8.5941831626e-02	 1.0743458195e+00	-7.0803598233e+00
 1.7569923713e-01	 1.0746203006e+00	-6.2171225908e+00
 1.5780122138e-01	 1.0773939794e+00	-6.3718527006e+00
 1.3995800477e-01	 1.0798568281e+00	-6.5066446844e+00
 1.2217676337e-01	 1.0820128700e+00	-6.6152216266e+00
 1.0446445800e-01	 1.0838663153e+00	-6.6910076336e+00
 8.6827829890e-02	 1.0854215496e+00	-6.7272323376e+00
 1.7749208648e-01	 1.0855858139e+00	-5.9064355961e+00
 1.5941143793e-01	 1.0883877955e+00	-6.0499775885e+00
 1.4138614768e-01	 1.0908757753e+00	-6.1759000865e+00
 1.2342346504e-01	 1.0930538176e+00	-6.2773768363e+00
 1.0553042186e-01	 1.0949261756e+00	-6.3472460785e+00
 8.7713828155e-02	 1.0964972797e+00	-6.3781231484e+00
 1.7928493584e-01	 1.0965513271e+00	-5.5865051316e+00
 1.6102165447e-01	 1.0993816116e+00	-5.7206052835e+00
 1.4281429058e-01	 1.1018947226e+00	-5.8397795030e+00
 1.2467016671e-01	 1.1040947653e+00	-5.9366233786e+00
 1.0659638572e-01	 1.1059860360e+00	-6.0033570221e+00
 8.8599826419e-02	 1.1075730098e+00	-6.0319462391e+00
 8.4169835098e-02	 1.0521943593e+00	-7.8031255540e+00
 6.7152782718e-02	 1.0534173127e+00	-7.9136468136e+00
 5.0221508133e-02	 1.0543601524e+00	-7.9988184532e+00
 3.3381888253e-02	 1.0550275733e+00	-8.0532394116e+00
 1.6639576196e-02	 1.0554243959e+00	-8.0716586852e+00
 0.0000000000e+00	 1.0555555556e+00	-8.0490539073e+00
 8.5055833362e-02	 1.0632700894e+00	-7.4386136710e+00
 6.7859654115e-02	 1.0645059160e+00	-7.5379819765e+00
 5.0750155587e-02	 1.0654586803e+00	-7.6138664044e+00
 3.3733276550e-02	 1.0661331267e+00	-7.6601826767e+00
 1.6814729629e-02	 1.0665341263e+00	-7.6710007977e+00
 0.0000000000e+00	 1.0666666667e+00	-7.6406307229e+00
 8.5941831626e-02	 1.0743458195e+00	-7.0803598233e+00
 6.8566525512e-02	 1.0755945193e+00	-7.1703038942e+00
 5.1278803042e-02	 1.0765572082e+00	-7.2387396574e+00
 3.4084664847e-02	 1.0772386801e+00	-7.2788658426e+00
 1.6989883063e-02	 1.0776438568e+00	-7.2840389420e+00
 0.0000000000e+00	 1.0777777778e+00	-7.2478663925e+00
 8.6827829890e-02	 1.0854215496e+00	-6.7272323376e+00
 6.9273396909e-02	 1.0866831225e+00	-6.8096634665e+00
 5.1807450496e-02	 1.0876557362e+00	-6.8726838463e+00
 3.4436053145e-02	 1.0883442335e+00	-6.9087397765e+00
 1.7165036497e-02	 1.0887535873e+00	-6.9104379882e+00
 0.0000000000e+00	 1.0888888889e+00	-6.8706467859e+00
 8.7713828155e-02	 1.0964972797e+00	-6.3781231484e+00
 6.9980268306e-02	 1.0977717258e+00	-6.4551339273e+00
 5.2336097950e-02	 1.0987542641e+00	-6.5149662287e+00
 3.4787441442e-02	 1.0994497869e+00	-6.5492767805e+00
 1.7340189930e-02	 1.0998633178e+00	-6.5498845343e+00
 0.0000000000e+00	 1.1000000000e+00	-6.5088802295e+00
 8.8599826419e-02	 1.1075730098e+00	-6.0319462391e+00
 7.0687139703e-02	 1.1088603291e+00	-6.1058093510e+00
 5.2864745404e-02	 1.1098527920e+00	-6.1648742681e+00
 3.5138829740e-02	 1.1105553403e+00	-6.1999692631e+00
 1.7515343364e-02	 1.1109730483e+00	-6.2020856755e+00
 0.0000000000e+00	 1.1111111111e+00	-6.1624963835e+00
 1.1111111111e+00	 0.0000000000e+00	 2.3675853841e+00
 1.1109730483e+00	 1.7515343364e-02	 2.3978849522e+00
 1.1105553403e+00	 3.5138829740e-02	 2.4096613159e+00
 1.1098527920e+00	 5.2864745404e-02	 2.4092668358e+00
 1.1088603291e+00	 7.0687139703e-02	 2.4034486337e+00
 1.1075730098e+00	 8.8599826419e-02	 2.3992340801e+00
 1.1222222222e+00	 0.0000000000e+00	 2.4895215077e+00
 1.1220827788e+00	 1.7690496798e-02	 2.5178550802e+00
 1.1216608937e+00	 3.5490218037e-02	 2.5259020280e+00
 1.1209513199e+00	 5.3393392858e-02	 2.5202880586e+00
 1.1199489324e+00	 7.1394011100e-02	 2.5081198913e+00
 1.1186487399e+00	 8.9485824683e-02	 2.4969341220e+00
 1.1333333333e+00	 0.0000000000e+00	 2.6122257955e+00
 1.1331925092e+00	 1.7865650231e-02	 2.6403862476e+00
 1.1327664471e+00	 3.5841606334e-02	 2.6466361946e+00
 1.1320498478e+00	 5.3922040312e-02	 2.6378031941e+00
 1.1310375357e+00	 7.2100882497e-02	 2.6211827458e+00
 1.1297244700e+00	 9.0371822947e-02	 2.6044904751e+00
 1.1444444444e+00	 0.0000000000e+00	 2.7350717861e+00
 1.1443022397e+00	 1.8040803665e-02	 2.7649615766e+00
 1.1438720005e+00	 3.6192994632e-02	 2.7714795932e+00
 1.1431483758e+00	 5.4450687766e-02	 2.7616386106e+00
 1.1421261390e+00	 7.2807753894e-02	 2.7429044538e+00
 1.1408002001e+00	 9.1257821211e-02	 2.7231520065e+00
 1.1555555556e+00	 0.0000000000e+00	 2.8574413628e+00
 1.1554119702e+00	 1.8215957099e-02	 2.8910725828e+00
 1.1549775539e+00	 3.6544382929e-02	 2.9000451420e+00
 1.1542469037e+00	 5.4979335220e-02	 2.8915383230e+00
 1.1532147423e+00	 7.3514625291e-02	 2.8731676562e+00
 1.1518759302e+00	 9.2143819476e-02	 2.8529452904e+00
 1.1666666667e+00	 0.0000000000e+00	 2.9787243560e+00
 1.1665217007e+00	 1.8391110532e-02	 3.0182192069e+00
 1.1660831073e+00	 3.6895771226e-02	 3.0319547197e+00
 1.1653454316e+00	 5.5507982674e-02	 3.0272558062e+00
 1.1643033456e+00	 7.4221496688e-02	 3.0118648236e+00
 1.1629516603e+00	 9.3029817740e-02	 2.9939068746e+00
 1.1075730098e+00	 8.8599826419e-02	 2.3992340801e+00
 1.1059860360e+00	 1.0659638572e-01	 2.4465169009e+00
 1.1040947653e+00	 1.2467016671e-01	 2.4723852514e+00
 1.1018947226e+00	 1.4281429058e-01	 2.4836522082e+00
 1.0993816116e+00	 1.6102165447e-01	 2.4869637933e+00
 1.0965513271e+00	 1.7928493584e-01	 2.4886543363e+00
 1.1186487399e+00	 8.9485824683e-02	 2.4969341220e+00
 1.1170458963e+00	 1.0766234958e-01	 2.5400126564e+00
 1.1151357130e+00	 1.2591686837e-01	 2.5612424057e+00
 1.1129136698e+00	 1.4424243349e-01	 2.5687847301e+00
 1.1103754278e+00	 1.6263187101e-01	 2.5709714079e+00
 1.1075168404e+00	 1.8107778520e-01	 2.5740254174e+00
 1.1297244700e+00	 9.0371822947e-02	 2.6044904751e+00
 1.1281057567e+00	 1.0872831343e-01	 2.6436280523e+00
 1.1261766606e+00	 1.2716357004e-01	 2.6586728028e+00
 1.1239326170e+00	 1.4567057640e-01	 2.6579205560e+00
 1.1213692439e+00	 1.6424208756e-01	 2.6499483555e+00
 1.1184823537e+00	 1.8287063456e-01	 2.6435343292e+00
 1.1408002001e+00	 9.1257821211e-02	 2.7231520065e+00
 1.1391656171e+00	 1.0979427729e-01	 2.7606756994e+00
 1.1372176083e+00	 1.2841027171e-01	 2.7719578013e+00
 1.1349515643e+00	 1.4709871930e-01	 2.7654090468e+00
 1.1323630600e+00	 1.6585230410e-01	 2.7497321402e+00
 1.1294478669e+00	 1.8466348392e-01	 2.7338462945e+00
 1.1518759302e+00	 9.2143819476e-02	 2.8529452904e+00
 1.1502254774e+00	 1.1086024115e-01	 2.8913351227e+00
 1.1482585559e+00	 1.2965697337e-01	 2.9014298708e+00
 1.1459705115e+00	 1.4852686221e-01	 2.8917334019e+00
 1.1433568761e+00	 1.6746252065e-01	 2.8710534145e+00
 1.1404133802e+00	 1.8645633328e-01	 2.8484313144e+00
 1.1629516603e+00	 9.3029817740e-02	 2.9939068746e+00
 1.1612853378e+00	 1.1192620500e-01	 3.0357954153e+00
 1.1592995036e+00	 1.3090367504e-01	 3.0474302611e+00
 1.1569894587e+00	 1.4995500511e-01	 3.0373843375e+00
 1.1543506922e+00	 1.6907273719e-01	 3.0145474600e+00
 1.1513788935e+00	 1.8824918264e-01	 2.9880622509e+00
 1.0965513271e+00	 1.7928493584e-01	 2.4886543363e+00
 1.0933999661e+00	 1.9759659766e-01	 2.5355370835e+00
 1.0899238397e+00	 2.1594889414e-01	 2.5647508723e+00
 1.0861194848e+00	 2.3433387723e-01	 2.5807649486e+00
 1.0819836751e+00	 2.5274340376e-01	 2.5872642075e+00
 1.0775134324e+00	 2.7116914323e-01	 2.5870362814e+00
 1.1075168404e+00	 1.8107778520e-01	 2.5740254174e+00
 1.1043339657e+00	 1.9957256364e-01	 2.6260108763e+00
 1.1008230781e+00	 2.1810838308e-01	 2.6584860182e+00
 1.0969806796e+00	 2.3667721600e-01	 2.6763685269e+00
 1.0928035118e+00	 2.5527083779e-01	 2.6837358596e+00
 1.0882885667e+00	 2.7388083466e-01	 2.6837030314e+00
 1.1184823537e+00	 1.8287063456e-01	 2.6435343292e+00
 1.1152679654e+00	 2.0154852961e-01	 2.6917492725e+00
 1.1117223165e+00	 2.2026787202e-01	 2.7224869495e+00
 1.1078418745e+00	 2.3902055478e-01	 2.7414893073e+00
 1.1036233486e+00	 2.5779827183e-01	 2.7495207202e+00
 1.0990637010e+00	 2.7659252610e-01	 2.7499538164e+00
 1.1294478669e+00	 1.8466348392e-01	 2.7338462945e+00
 1.1262019651e+00	 2.0352449559e-01	 2.7737586259e+00
 1.1226215549e+00	 2.2242736096e-01	 2.7901196145e+00
 1.1187030693e+00	 2.4136389355e-01	 2.7918330471e+00
 1.1144431853e+00	 2.6032570587e-01	 2.7876676236e+00
 1.1098388354e+00	 2.7930421753e-01	 2.7855745432e+00
 1.1404133802e+00	 1.8645633328e-01	 2.8484313144e+00
 1.1371359647e+00	 2.0550046157e-01	 2.8835315236e+00
 1.1335207933e+00	 2.2458684991e-01	 2.8891045064e+00
 1.1295642642e+00	 2.4370723232e-01	 2.8742617220e+00
 1.1252630221e+00	 2.6285313991e-01	 2.8480250038e+00
 1.1206139697e+00	 2.8201590896e-01	 2.8191579411e+00
 1.1513788935e+00	 1.8824918264e-01	 2.9880622509e+00
 1.1480699644e+00	 2.0747642754e-01	 3.0219484382e+00
 1.1444200317e+00	 2.2674633885e-01	 3.0204164117e+00
 1.1404254590e+00	 2.4605057109e-01	 2.9927744674e+00
 1.1360828588e+00	 2.6538057394e-01	 2.9482910595e+00
 1.1313891040e+00	 2.8472760039e-01	 2.8960276844e+00
 1.0775134324e+00	 2.7116914323e-01	 2.5870362814e+00
 1.0727060376e+00	 2.8960258639e-01	 2.6262827893e+00
 1.0675590412e+00	 3.0803505437e-01	 2.6703566445e+00
 1.0620702735e+00	 3.2645770857e-01	 2.7189693076e+00
 1.0562378543e+00	 3.4486156115e-01	 2.7706412390e+00
 1.0500602030e+00	 3.6323748623e-01	 2.8226932927e+00
 1.0882885667e+00	 2.7388083466e-01	 2.6837030314e+00
 1.0834330980e+00	 2.9249861226e-01	 2.7212178631e+00
 1.0782346316e+00	 3.1111540492e-01	 2.7582621587e+00
 1.0726909762e+00	 3.2972228565e-01	 2.7946571115e+00
 1.0668002329e+00	 3.4831017676e-01	 2.8289562621e+00
 1.0605608050e+00	 3.6686986109e-01	 2.8584342278e+00
 1.0990637010e+00	 2.7659252610e-01	 2.7499538164e+00
 1.0941601584e+00	 2.9539463812e-01	 2.7873740365e+00
 1.0889102221e+00	 3.1419575546e-01	 2.8196375646e+00
 1.0833116789e+00	 3.3298686274e-01	 2.8466826021e+00
 1.0773626114e+00	 3.5175879237e-01	 2.8670959922e+00
 1.0710614070e+00	 3.7050223595e-01	 2.8781001305e+00
 1.1098388354e+00	 2.7930421753e-01	 2.7855745432e+00
 1.1048872188e+00	 2.9829066398e-01	 2.8245692993e+00
 1.0995858125e+00	 3.1727610600e-01	 2.8543460633e+00
 1.0939323817e+00	 3.3625143983e-01	 2.8749676708e+00
 1.0879249899e+00	 3.5520740798e-01	 2.8850545702e+00
 1.0815620090e+00	 3.7413461081e-01	 2.8826785341e+00
 1.1206139697e+00	 2.8201590896e-01	 2.8191579411e+00
 1.1156142791e+00	 3.0118668985e-01	 2.8394768670e+00
 1.1102614029e+00	 3.2035645655e-01	 2.8622905580e+00
 1.1045530844e+00	 3.3951601691e-01	 2.8794824178e+00
 1.0984873685e+00	 3.5865602359e-01	 2.8828837639e+00
 1.0920626111e+00	 3.7776698568e-01	 2.8730373996e+00
 1.1313891040e+00	 2.8472760039e-01	 2.8960276844e+00
 1.1263413395e+00	 3.0408271571e-01	 2.8899802181e+00
 1.1209369933e+00	 3.2343680709e-01	 2.8776236584e+00
 1.1151737871e+00	 3.4278059400e-01	 2.8663275235e+00
 1.1090497470e+00	 3.6210463921e-01	 2.8606930057e+00
 1.1025632131e+00	 3.8139936054e-01	 2.8492604936e+00
 1.0500602030e+00	 3.6323748623e-01	 2.8226932927e+00
 1.0435360467e+00	 3.8157623164e-01	 2.7813705310e+00
 1.0366644292e+00	 3.9986843136e-01	 2.7860995963e+00
 1.0294447189e+00	 4.1810461844e-01	 2.8313587586e+00
 1.0218766156e+00	 4.3627523857e-01	 2.9080554853e+00
 1.0139601574e+00	 4.5437066412e-01	 3.0070029600e+00
 1.0605608050e+00	 3.6686986109e-01	 2.8584342278e+00
 1.0539714071e+00	 3.8539199396e-01	 2.7870602929e+00
 1.0470310735e+00	 4.0386711567e-01	 2.7689755358e+00
 1.0397391661e+00	 4.2228566462e-01	 2.7955362475e+00
 1.0320953817e+00	 4.4063799096e-01	 2.8571028807e+00
 1.0240997590e+00	 4.5891437076e-01	 2.9439472699e+00
 1.0710614070e+00	 3.7050223595e-01	 2.8781001305e+00
 1.0644067676e+00	 3.8920775627e-01	 2.7801649840e+00
 1.0573977178e+00	 4.0786579998e-01	 2.7411096353e+00
 1.0500336133e+00	 4.2646671081e-01	 2.7509126561e+00
 1.0423141479e+00	 4.4500074334e-01	 2.7993690102e+00
 1.0342393606e+00	 4.6345807740e-01	 2.8761922010e+00
 1.0815620090e+00	 3.7413461081e-01	 2.8826785341e+00
 1.0748421281e+00	 3.9302351859e-01	 2.7607700569e+00
 1.0677643621e+00	 4.1186448430e-01	 2.7026360382e+00
 1.0603280605e+00	 4.3064775699e-01	 2.6976661161e+00
 1.0525329140e+00	 4.4936349573e-01	 2.7350714980e+00
 1.0443789621e+00	 4.6800178404e-01	 2.8039906952e+00
 1.0920626111e+00	 3.7776698568e-01	 2.8730373996e+00
 1.0852774885e+00	 3.9683928091e-01	 2.7289846383e+00
 1.0781310064e+00	 4.1586316861e-01	 2.6537085746e+00
 1.0706225077e+00	 4.3482880317e-01	 2.6359901700e+00
 1.0627516802e+00	 4.5372624811e-01	 2.6644388547e+00
 1.0545185637e+00	 4.7254549068e-01	 2.7276018538e+00
 1.1025632131e+00	 3.8139936054e-01	 2.8492604936e+00
 1.0957128490e+00	 4.0065504322e-01	 2.6849384491e+00
 1.0884976507e+00	 4.1986185293e-01	 2.5944974747e+00
 1.0809169548e+00	 4.3900984936e-01	 2.5660902707e+00
 1.0729704463e+00	 4.5808900050e-01	 2.5877067592e+00
 1.0646581653e+00	 4.7708919732e-01	 2.6472869984e+00
 1.0139601574e+00	 4.5437066412e-01	 3.0070029600e+00
 1.0056957268e+00	 4.7238120866e-01	 2.9481334688e+00
 9.9708405555e-01	 4.9029714195e-01	 2.9201184820e+00
 9.8812622918e-01	 5.0810870533e-01	 2.9131403199e+00
 9.7882369073e-01	 5.2580612748e-01	 2.9175497224e+00
 9.6917824345e-01	 5.4337964046e-01	 2.9239503063e+00
 1.0240997590e+00	 4.5891437076e-01	 2.9439472699e+00
 1.0157526841e+00	 4.7710502074e-01	 2.8641300639e+00
 1.0070548961e+00	 4.9520011337e-01	 2.8180094539e+00
 9.9800749148e-01	 5.1318979239e-01	 2.7952503920e+00
 9.8861192764e-01	 5.3106418876e-01	 2.7856986253e+00
 9.7887002588e-01	 5.4881343686e-01	 2.7794666811e+00
 1.0342393606e+00	 4.6345807740e-01	 2.8761922010e+00
 1.0258096414e+00	 4.8182883283e-01	 2.7774600597e+00
 1.0170257367e+00	 5.0010308479e-01	 2.7152808258e+00
 1.0078887538e+00	 5.1827087944e-01	 2.6787893066e+00
 9.9840016455e-01	 5.3632225003e-01	 2.6573147119e+00
 9.8856180832e-01	 5.5424723327e-01	 2.6404680141e+00
 1.0443789621e+00	 4.6800178404e-01	 2.8039906952e+00
 1.0358665986e+00	 4.8655264492e-01	 2.6884107547e+00
 1.0269965772e+00	 5.0500605621e-01	 2.6122515596e+00
 1.0177700161e+00	 5.2335196649e-01	 2.5641056014e+00
 1.0081884015e+00	 5.4158031131e-01	 2.5327746823e+00
 9.9825359075e-01	 5.5968102967e-01	 2.5073584804e+00
 1.0545185637e+00	 4.7254549068e-01	 2.7276018538e+00
 1.0459235559e+00	 4.9127645700e-01	 2.5972706193e+00
 1.0369674178e+00	 5.0990902763e-01	 2.5092366801e+00
 1.0276512784e+00	 5.2843305355e-01	 2.4515387030e+00
 1.0179766384e+00	 5.4683837258e-01	 2.4124409436e+00
 1.0079453732e+00	 5.6511482607e-01	 2.3805228314e+00
 1.0646581653e+00	 4.7708919732e-01	 2.6472869984e+00
 1.0559805132e+00	 4.9600026909e-01	 2.5043251387e+00
 1.0469382583e+00	 5.1481199904e-01	 2.4065429012e+00
 1.0375325406e+00	 5.3351414060e-01	 2.3414143366e+00
 1.0277648753e+00	 5.5209643386e-01	 2.2966568055e+00
 1.0176371556e+00	 5.7054862248e-01	 2.2603213810e+00
 9.6917824345e-01	 5.4337964046e-01	 2.9239503063e+00
 9.5919205277e-01	 5.6081949604e-01	 2.9099471476e+00
 9.4886764740e-01	 5.7811598227e-01	 2.8850501436e+00
 9.3820791946e-01	 5.9525944016e-01	 2.8408660478e+00
 9.2721612379e-01	 6.1224028046e-01	 2.7695454604e+00
 9.1589587626e-01	 6.2904900055e-01	 2.6638530914e+00
 9.7887002588e-01	 5.4881343686e-01	 2.7794666811e+00
 9.6878397330e-01	 5.6642769100e-01	 2.7512965105e+00
 9.5835632387e-01	 5.8389714209e-01	 2.7137857692e+00
 9.4758999866e-01	 6.0121203456e-01	 2.6580159155e+00
 9.3648828503e-01	 6.1836268326e-01	 2.5756249409e+00
 9.2505483502e-01	 6.3533949056e-01	 2.4588782970e+00
 9.8856180832e-01	 5.5424723327e-01	 2.6404680141e+00
 9.7837589383e-01	 5.7203588596e-01	 2.5992774423e+00
 9.6784500035e-01	 5.8967830192e-01	 2.5502351503e+00
 9.5697207785e-01	 6.0716462896e-01	 2.4838900450e+00
 9.4576044627e-01	 6.2448508607e-01	 2.3913605784e+00
 9.3421379378e-01	 6.4162998056e-01	 2.2644061095e+00
 9.9825359075e-01	 5.5968102967e-01	 2.5073584804e+00
 9.8796781435e-01	 5.7764408092e-01	 2.4543461632e+00
 9.7733367682e-01	 5.9545946174e-01	 2.3949081452e+00
 9.6635415705e-01	 6.1311722336e-01	 2.3190542709e+00
 9.5503260751e-01	 6.3060748887e-01	 2.2173772453e+00
 9.4337275254e-01	 6.4792047057e-01	 2.0811241828e+00
 1.0079453732e+00	 5.6511482607e-01	 2.3805228314e+00
 9.9755973488e-01	 5.8325227588e-01	 2.3169335079e+00
 9.8682235329e-01	 6.0124062156e-01	 2.2482834088e+00
 9.7573623624e-01	 6.1906981776e-01	 2.1640376113e+00
 9.6430476874e-01	 6.3672989168e-01	 2.0542576480e+00
 9.5253171131e-01	 6.5421096057e-01	 1.9096729776e+00
 1.0176371556e+00	 5.7054862248e-01	 2.2603213810e+00
 1.0071516554e+00	 5.8886047084e-01	 2.1874397535e+00
 9.9631102977e-01	 6.0702178138e-01	 2.1108030696e+00
 9.8511831543e-01	 6.2502241216e-01	 2.0193268021e+00
 9.7357692998e-01	 6.4285229448e-01	 1.9025367313e+00
 9.6169067007e-01	 6.6050145058e-01	 1.7506400472e+00
 9.1589587626e-01	 6.2904900055e-01	 2.6638530914e+00
 9.0425115117e-01	 6.4567620124e-01	 2.6773228649e+00
 8.9228627776e-01	 6.6211260353e-01	 2.6440977378e+00
 8.8000593573e-01	 6.7834906524e-01	 2.5599864885e+00
 8.6741514983e-01	 6.9437659744e-01	 2.4216773853e+00
 8.5451928359e-01	 7.1018638061e-01	 2.2267954890e+00
 9.2505483502e-01	 6.3533949056e-01	 2.4588782970e+00
 9.1329366268e-01	 6.5213296325e-01	 2.4691677669e+00
 9.0120914054e-01	 6.6873372957e-01	 2.4309349431e+00
 8.8880599509e-01	 6.8513255590e-01	 2.3395487369e+00
 8.7608930133e-01	 7.0132036342e-01	 2.1912771149e+00
 8.6306447643e-01	 7.1728824442e-01	 1.9833457104e+00
 9.3421379378e-01	 6.4162998056e-01	 2.2644061095e+00
 9.2233617419e-01	 6.5858972526e-01	 2.2723847443e+00
 9.1013200332e-01	 6.7535485560e-01	 2.2299320044e+00
 8.9760605444e-01	 6.9191604655e-01	 2.1319689584e+00
 8.8476345283e-01	 7.0826412939e-01	 1.9743345370e+00
 8.7160966926e-01	 7.2439010822e-01	 1.7538453037e+00
 9.4337275254e-01	 6.4792047057e-01	 2.0811241828e+00
 9.3137868570e-01	 6.6504648728e-01	 2.0877252373e+00
 9.1905486609e-01	 6.8197598164e-01	 2.0419085355e+00
 9.0640611380e-01	 6.9869953720e-01	 1.9381397827e+00
 8.9343760433e-01	 7.1520789537e-01	 1.7718204853e+00
 8.8015486210e-01	 7.3149197203e-01	 1.5393487173e+00
 9.5253171131e-01	 6.5421096057e-01	 1.9096729776e+00
 9.4042119721e-01	 6.7150324929e-01	 1.9158889723e+00
 9.2797772887e-01	 6.8859710767e-01	 1.8676283653e+00
 9.1520617316e-01	 7.0548302785e-01	 1.7588944803e+00
 9.0211175582e-01	 7.2215166134e-01	 1.5846433994e+00
 8.8870005493e-01	 7.3859383584e-01	 1.3408455479e+00
 9.6169067007e-01	 6.6050145058e-01	 1.7506400472e+00
 9.4946370873e-01	 6.7796001130e-01	 1.7575181365e+00
 9.3690059165e-01	 6.9521823371e-01	 1.7077936139e+00
 9.2400623252e-01	 7.1226651851e-01	 1.5950009543e+00
 9.1078590732e-01	 7.2909542732e-01	 1.4136432482e+00
 8.9724524777e-01	 7.4569569964e-01	 1.1581748324e+00
 8.5451928359e-01	 7.1018638061e-01	 2.2267954890e+00
 8.4132403208e-01	 7.2576978050e-01	 2.2118940405e+00
 8.2783541381e-01	 7.4111836361e-01	 2.1372059815e+00
 8.1405976178e-01	 7.5622391226e-01	 2.0095229841e+00
 8.0000371369e-01	 7.7107843914e-01	 1.8457236197e+00
 7.8567420132e-01	 7.8567420132e-01	 1.6639164504e+00
 8.6306447643e-01	 7.1728824442e-01	 1.9833457104e+00
 8.4973727240e-01	 7.3302747830e-01	 1.9733407580e+00
 8.3611376794e-01	 7.4852954725e-01	 1.8999771195e+00
 8.2220035940e-01	 7.6378615139e-01	 1.7716308464e+00
 8.0800375083e-01	 7.7878922353e-01	 1.6059020763e+00
 7.9353094333e-01	 7.9353094333e-01	 1.4214456165e+00
 8.7160966926e-01	 7.2439010822e-01	 1.7538453037e+00
 8.5815051272e-01	 7.4028517611e-01	 1.7509102255e+00
 8.4439212208e-01	 7.5594073088e-01	 1.6796009314e+00
 8.3034095702e-01	 7.7134839051e-01	 1.5509588599e+00
 8.1600378797e-01	 7.8650000792e-01	 1.3836792732e+00
 8.0138768534e-01	 8.0138768534e-01	 1.1969763219e+00
 8.8015486210e-01	 7.3149197203e-01	 1.5393487173e+00
 8.6656375304e-01	 7.4754287391e-01	 1.5446878579e+00
 8.5267047622e-01	 7.6335191452e-01	 1.4752286967e+00
 8.3848155464e-01	 7.7891062963e-01	 1.3466468733e+00
 8.2400382511e-01	 7.9421079232e-01	 1.1781834517e+00
 8.0924442736e-01	 8.0924442736e-01	 9.8962615757e-01
 8.8870005493e-01	 7.3859383584e-01	 1.3408455479e+00
 8.7497699336e-01	 7.5480057172e-01	 1.3532217979e+00
 8.6094883036e-01	 7.7076309816e-01	 1.2859560171e+00
 8.4662215225e-01	 7.8647286876e-01	 1.1577783737e+00
 8.3200386224e-01	 8.0192157671e-01	 9.8848532875e-01
 8.1710116937e-01	 8.1710116937e-01	 7.9845360698e-01
 8.9724524777e-01	 7.4569569964e-01	 1.1581748324e+00
 8.8339023368e-01	 7.6205826952e-01	 1.1755650700e+00
 8.6922718450e-01	 7.7817428179e-01	 1.1108284168e+00
 8.5476274987e-01	 7.9403510788e-01	 9.8338591316e-01
 8.4000389938e-01	 8.0963236110e-01	 8.1360332834e-01
 8.2495791138e-01	 8.2495791138e-01	 6.2246306526e-01
 7.8567420132e-01	 7.8567420132e-01	 1.6639164504e+00
 7.7107843914e-01	 8.0000371369e-01	 1.4833551731e+00
 7.5622391226e-01	 8.1405976178e-01	 1.2932903722e+00
 7.4111836361e-01	 8.2783541381e-01	 1.1120937117e+00
 7.2576978050e-01	 8.4132403208e-01	 9.5961572644e-01
 7.1018638061e-01	 8.5451928359e-01	 8.4751079587e-01
 7.9353094333e-01	 7.9353094333e-01	 1.4214456165e+00
 7.7878922353e-01	 8.0800375083e-01	 1.2425673042e+00
 7.6378615139e-01	 8.2220035940e-01	 1.0570868642e+00
 7.4852954725e-01	 8.3611376794e-01	 8.8383391110e-01
 7.3302747830e-01	 8.4973727240e-01	 7.4145608516e-01
 7.1728824442e-01	 8.6306447643e-01	 6.4523583184e-01
 8.0138768534e-01	 8.0138768534e-01	 1.1969763219e+00
 7.8650000792e-01	 8.1600378797e-01	 1.0195508827e+00
 7.7134839051e-01	 8.3034095702e-01	 8.3842913316e-01
 7.5594073088e-01	 8.4439212208e-01	 6.7291472671e-01
 7.4028517611e-01	 8.5815051272e-01	 5.4169643847e-01
 7.2439010822e-01	 8.7160966926e-01	 4.6146070521e-01
 8.0924442736e-01	 8.0924442736e-01	 9.8962615757e-01
 7.9421079232e-01	 8.2400382511e-01	 8.1343463630e-01
 7.7891062963e-01	 8.3848155464e-01	 6.3646207556e-01
 7.6335191452e-01	 8.5267047622e-01	 4.7850364391e-01
 7.4754287391e-01	 8.6656375304e-01	 3.5869427125e-01
 7.3149197203e-01	 8.8015486210e-01	 2.9465422754e-01
 8.1710116937e-01	 8.1710116937e-01	 7.9845360698e-01
 8.0192157671e-01	 8.3200386224e-01	 6.2328549698e-01
 7.8647286876e-01	 8.4662215225e-01	 4.5026576772e-01
 7.7076309816e-01	 8.6094883036e-01	 2.9970004630e-01
 7.5480057172e-01	 8.7497699336e-01	 1.9118825051e-01
 7.3859383584e-01	 8.8870005493e-01	 1.4325483623e-01
 8.2495791138e-01	 8.2495791138e-01	 6.2246306526e-01
 8.0963236110e-01	 8.4000389938e-01	 4.4811342699e-01
 7.9403510788e-01	 8.5476274987e-01	 2.7886008702e-01
 7.7817428179e-01	 8.6922718450e-01	 1.3553962146e-01
 7.6205826952e-01	 8.8339023368e-01	 3.8236458889e-02
 7.4569569964e-01	 8.9724524777e-01	 5.9334548729e-03
 7.1018638061e-01	 8.5451928359e-01	 8.4751079587e-01
 6.9437659744e-01	 8.6741514983e-01	 5.6764817650e-01
 6.7834906524e-01	 8.8000593573e-01	 3.1308962914e-01
 6.6211260353e-01	 8.9228627776e-01	 8.3750070427e-02
 6.4567620124e-01	 9.0425115117e-01	-1.2159555320e-01
 6.2904900055e-01	 9.1589587626e-01	-3.0524550661e-01
 7.1728824442e-01	 8.6306447643e-01	 6.4523583184e-01
 7.0132036342e-01	 8.7608930133e-01	 3.6758043483e-01
 6.8513255590e-01	 8.8880599509e-01	 1.1938853436e-01
 6.6873372957e-01	 9.0120914054e-01	-9.9682701511e-02
 6.5213296325e-01	 9.1329366268e-01	-2.9117373752e-01
 6.3533949056e-01	 9.2505483502e-01	-4.5775161149e-01
 7.2439010822e-01	 8.7160966926e-01	 4.6146070521e-01
 7.0826412939e-01	 8.8476345283e-01	 1.8522319951e-01
 6.9191604655e-01	 8.9760605444e-01	-5.7202025752e-02
 6.7535485560e-01	 9.1013200332e-01	-2.6642267691e-01
 6.5858972526e-01	 9.2233617419e-01	-4.4430356783e-01
 6.4162998056e-01	 9.3421379378e-01	-5.9389111647e-01
 7.3149197203e-01	 8.8015486210e-01	 2.9465422754e-01
 7.1520789537e-01	 8.9343760433e-01	 1.9104591817e-02
 6.9869953720e-01	 9.0640611380e-01	-2.1808803899e-01
 6.8197598164e-01	 9.1905486609e-01	-4.1780374590e-01
 6.6504648728e-01	 9.3137868570e-01	-5.8224102539e-01
 6.4792047057e-01	 9.4337275254e-01	-7.1483669597e-01
 7.3859383584e-01	 8.8870005493e-01	 1.4325483623e-01
 7.2215166134e-01	 9.0211175582e-01	-1.3227841361e-01
 7.0548302785e-01	 9.1520617316e-01	-3.6470741838e-01
 6.8859710767e-01	 9.2797772887e-01	-5.5519250992e-01
 6.7150324929e-01	 9.4042119721e-01	-7.0627559687e-01
 6.5421096057e-01	 9.5253171131e-01	-8.2179533169e-01
 7.4569569964e-01	 8.9724524777e-01	 5.9334548729e-03
 7.2909542732e-01	 9.1078590732e-01	-2.7045925392e-01
 7.1226651851e-01	 9.2400623252e-01	-4.9852920679e-01
 6.9521823371e-01	 9.3690059165e-01	-6.7998742898e-01
 6.7796001130e-01	 9.4946370873e-01	-8.1772936756e-01
 6.6050145058e-01	 9.6169067007e-01	-9.1600735504e-01
 6.2904900055e-01	 9.1589587626e-01	-3.0524550661e-01
 6.1224028046e-01	 9.2721612379e-01	-5.6419187050e-01
 5.9525944016e-01	 9.3820791946e-01	-8.1456923440e-01
 5.7811598227e-01	 9.4886764740e-01	-1.0619351631e+00
 5.6081949604e-01	 9.5919205277e-01	-1.3125399898e+00
 5.4337964046e-01	 9.6917824345e-01	-1.5732231347e+00
 6.3533949056e-01	 9.2505483502e-01	-4.5775161149e-01
 6.1836268326e-01	 9.3648828503e-01	-7.0403552576e-01
 6.0121203456e-01	 9.4758999866e-01	-9.4018789829e-01
 5.8389714209e-01	 9.5835632387e-01	-1.1723432413e+00
 5.6642769100e-01	 9.6878397330e-01	-1.4073584297e+00
 5.4881343686e-01	 9.7887002588e-01	-1.6527033078e+00
 6.4162998056e-01	 9.3421379378e-01	-5.9389111647e-01
 6.2448508607e-01	 9.4576044627e-01	-8.2824265504e-01
 6.0716462896e-01	 9.5697207785e-01	-1.0507467038e+00
 5.8967830192e-01	 9.6784500035e-01	-1.2681283544e+00
 5.7203588596e-01	 9.7837589383e-01	-1.4878657537e+00
 5.5424723327e-01	 9.8856180832e-01	-1.7180748419e+00
 6.4792047057e-01	 9.4337275254e-01	-7.1483669597e-01
 6.3060748887e-01	 9.5503260751e-01	-9.3787438725e-01
 6.1311722336e-01	 9.6635415705e-01	-1.1471911793e+00
 5.9545946174e-01	 9.7733367682e-01	-1.3501168546e+00
 5.7764408092e-01	 9.8796781435e-01	-1.5547660460e+00
 5.5968102967e-01	 9.9825359075e-01	-1.7699169487e+00
 6.5421096057e-01	 9.5253171131e-01	-8.2179533169e-01
 6.3672989168e-01	 9.6430476874e-01	-1.0340278622e+00
 6.1906981776e-01	 9.7573623624e-01	-1.2305045542e+00
 6.0124062156e-01	 9.8682235329e-01	-1.4191744679e+00
 5.8325227588e-01	 9.9755973488e-01	-1.6088044158e+00
 5.6511482607e-01	 1.0079453732e+00	-1.8088514891e+00
 6.6050145058e-01	 9.6169067007e-01	-9.1600735504e-01
 6.4285229448e-01	 9.7357692998e-01	-1.1178351827e+00
 6.2502241216e-01	 9.8511831543e-01	-1.3017066247e+00
 6.0702178138e-01	 9.9631102977e-01	-1.4762050773e+00
 5.8886047084e-01	 1.0071516554e+00	-1.6507657024e+00
 5.7054862248e-01	 1.0176371556e+00	-1.8355416039e+00
 5.4337964046e-01	 9.6917824345e-01	-1.5732231347e+00
 5.2580612748e-01	 9.7882369073e-01	-1.7877547319e+00
 5.0810870533e-01	 9.8812622918e-01	-2.0133088298e+00
 4.9029714195e-01	 9.9708405555e-01	-2.2580441428e+00
 4.7238120866e-01	 1.0056957268e+00	-2.5303131960e+00
 4.5437066412e-01	 1.0139601574e+00	-2.8385532607e+00
 5.4881343686e-01	 9.7887002588e-01	-1.6527033078e+00
 5.3106418876e-01	 9.8861192764e-01	-1.8516460259e+00
 5.1318979239e-01	 9.9800749148e-01	-2.0623827832e+00
 4.9520011337e-01	 1.0070548961e+00	-2.2935848618e+00
 4.7710502074e-01	 1.0157526841e+00	-2.5541238024e+00
 4.5891437076e-01	 1.0240997590e+00	-2.8529572266e+00
 5.5424723327e-01	 9.8856180832e-01	-1.7180748419e+00
 5.3632225003e-01	 9.9840016455e-01	-1.8998774340e+00
 5.1827087944e-01	 1.0078887538e+00	-2.0941886405e+00
 5.0010308479e-01	 1.0170257367e+00	-2.3102121335e+00
 4.8182883283e-01	 1.0258096414e+00	-2.5573585573e+00
 4.6345807740e-01	 1.0342393606e+00	-2.8451260906e+00
 5.5968102967e-01	 9.9825359075e-01	-1.7699169487e+00
 5.4158031131e-01	 1.0081884015e+00	-1.9329495513e+00
 5.2335196649e-01	 1.0177700161e+00	-2.1091461995e+00
 5.0500605621e-01	 1.0269965772e+00	-2.3082631957e+00
 4.8655264492e-01	 1.0358665986e+00	-2.5402707915e+00
 4.6800178404e-01	 1.0443789621e+00	-2.8152283407e+00
 5.6511482607e-01	 1.0079453732e+00	-1.8088514891e+00
 5.4683837258e-01	 1.0179766384e+00	-1.9514053532e+00
 5.2843305355e-01	 1.0276512784e+00	-2.1077173523e+00
 5.0990902763e-01	 1.0369674178e+00	-2.2881170734e+00
 4.9127645700e-01	 1.0459235559e+00	-2.5031552899e+00
 4.7254549068e-01	 1.0545185637e+00	-2.7634735568e+00
 5.7054862248e-01	 1.0176371556e+00	-1.8355416039e+00
 5.5209643386e-01	 1.0277648753e+00	-1.9558288445e+00
 5.3351414060e-01	 1.0375325406e+00	-2.0904047555e+00
 5.1481199904e-01	 1.0469382583e+00	-2.2501932722e+00
 4.9600026909e-01	 1.0559805132e+00	-2.4463470111e+00
 4.7708919732e-01	 1.0646581653e+00	-2.6901111573e+00
 4.5437066412e-01	 1.0139601574e+00	-2.8385532607e+00
 4.3627523857e-01	 1.0218766156e+00	-2.9988917320e+00
 4.1810461844e-01	 1.0294447189e+00	-3.1758521267e+00
 3.9986843136e-01	 1.0366644292e+00	-3.3770986311e+00
 3.8157623164e-01	 1.0435360467e+00	-3.6101025822e+00
 3.6323748623e-01	 1.0500602030e+00	-3.8795348936e+00
 4.5891437076e-01	 1.0240997590e+00	-2.8529572266e+00
 4.4063799096e-01	 1.0320953817e+00	-2.9960121597e+00
 4.2228566462e-01	 1.0397391661e+00	-3.1570484210e+00
 4.0386711567e-01	 1.0470310735e+00	-3.3444650797e+00
 3.8539199396e-01	 1.0539714071e+00	-3.5664522076e+00
 3.6686986109e-01	 1.0605608050e+00	-3.8303100613e+00
 4.6345807740e-01	 1.0342393606e+00	-2.8451260906e+00
 4.4500074334e-01	 1.0423141479e+00	-2.9715359379e+00
 4.2646671081e-01	 1.0500336133e+00	-3.1173631392e+00
 4.0786579998e-01	 1.0573977178e+00	-3.2917577495e+00
 3.8920775627e-01	 1.0644067676e+00	-3.5036442687e+00
 3.7050223595e-01	 1.0710614070e+00	-3.7616225703e+00
 4.6800178404e-01	 1.0443789621e+00	-2.8152283407e+00
 4.4936349573e-01	 1.0525329140e+00	-2.9254799403e+00
 4.3064775699e-01	 1.0603280605e+00	-3.0566604472e+00
 4.1186448430e-01	 1.0677643621e+00	-3.2186875073e+00
 3.9302351859e-01	 1.0748421281e+00	-3.4212362382e+00
 3.7413461081e-01	 1.0815620090e+00	-3.6736350936e+00
 4.7254549068e-01	 1.0545185637e+00	-2.7634735568e+00
 4.5372624811e-01	 1.0627516802e+00	-2.8579042837e+00
 4.3482880317e-01	 1.0706225077e+00	-2.9748499030e+00
 4.1586316861e-01	 1.0781310064e+00	-3.1250127502e+00
 3.9683928091e-01	 1.0852774885e+00	-3.3188352378e+00
 3.7776698568e-01	 1.0920626111e+00	-3.5663905480e+00
 4.7708919732e-01	 1.0646581653e+00	-2.6901111573e+00
 4.5808900050e-01	 1.0729704463e+00	-2.7689109821e+00
 4.3900984936e-01	 1.0809169548e+00	-2.8718850178e+00
 4.1986185293e-01	 1.0884976507e+00	-3.0105378738e+00
 4.0065504322e-01	 1.0957128490e+00	-3.1960964135e+00
 3.8139936054e-01	 1.1025632131e+00	-3.4393951670e+00
 3.6323748623e-01	 1.0500602030e+00	-3.8795348936e+00
 3.4486156115e-01	 1.0562378543e+00	-4.1027059187e+00
 3.2645770857e-01	 1.0620702735e+00	-4.3049868422e+00
 3.0803505437e-01	 1.0675590412e+00	-4.4878685438e+00
 2.8960258639e-01	 1.0727060376e+00	-4.6519654970e+00
 2.7116914323e-01	 1.0775134324e+00	-4.7969909187e+00
 3.6686986109e-01	 1.0605608050e+00	-3.8303100613e+00
 3.4831017676e-01	 1.0668002329e+00	-4.0439963169e+00
 3.2972228565e-01	 1.0726909762e+00	-4.2326674458e+00
 3.1111540492e-01	 1.0782346316e+00	-4.3981287939e+00
 2.9249861226e-01	 1.0834330980e+00	-4.5412433859e+00
 2.7388083466e-01	 1.0882885667e+00	-4.6619045384e+00
 3.7050223595e-01	 1.0710614070e+00	-3.7616225703e+00
 3.5175879237e-01	 1.0773626114e+00	-3.9633372207e+00
 3.3298686274e-01	 1.0833116789e+00	-4.1365132085e+00
 3.1419575546e-01	 1.0889102221e+00	-4.2832920056e+00
 2.9539463812e-01	 1.0941601584e+00	-4.4048012502e+00
 2.7659252610e-01	 1.0990637010e+00	-4.5011239403e+00
 3.7413461081e-01	 1.0815620090e+00	-3.6736350936e+00
 3.5520740798e-01	 1.0879249899e+00	-3.8601047220e+00
 3.3625143983e-01	 1.0939323817e+00	-4.0157457160e+00
 3.1727610600e-01	 1.0995858125e+00	-4.1424400898e+00
 2.9829066398e-01	 1.1048872188e+00	-4.2415974288e+00
 2.7930421753e-01	 1.1098388354e+00	-4.3135009990e+00
 3.7776698568e-01	 1.0920626111e+00	-3.5663905480e+00
 3.5865602359e-01	 1.0984873685e+00	-3.7337590676e+00
 3.3951601691e-01	 1.1045530844e+00	-3.8696601802e+00
 3.2035645655e-01	 1.1102614029e+00	-3.9747189370e+00
 3.0118668985e-01	 1.1156142791e+00	-4.0575989837e+00
 2.8201590896e-01	 1.1206139697e+00	-4.1272689014e+00
 3.8139936054e-01	 1.1025632131e+00	-3.4393951670e+00
 3.6210463921e-01	 1.1090497470e+00	-3.5838455444e+00
 3.4278059400e-01	 1.1151737871e+00	-3.7038637970e+00
 3.2343680709e-01	 1.1209369933e+00	-3.8143775630e+00
 3.0408271571e-01	 1.1263413395e+00	-3.9113450839e+00
 2.8472760039e-01	 1.1313891040e+00	-3.9883495373e+00
 2.7116914323e-01	 1.0775134324e+00	-4.7969909187e+00
 2.5274340376e-01	 1.0819836751e+00	-5.0060199633e+00
 2.3433387723e-01	 1.0861194848e+00	-5.1929844237e+00
 2.1594889414e-01	 1.0899238397e+00	-5.3547756988e+00
 1.9759659766e-01	 1.0933999661e+00	-5.4874913335e+00
 1.7928493584e-01	 1.0965513271e+00	-5.5865051316e+00
 2.7388083466e-01	 1.0882885667e+00	-4.6619045384e+00
 2.5527083779e-01	 1.0928035118e+00	-4.8441332041e+00
 2.3667721600e-01	 1.0969806796e+00	-5.0066649247e+00
 2.1810838308e-01	 1.1008230781e+00	-5.1461848924e+00
 1.9957256364e-01	 1.1043339657e+00	-5.2585103195e+00
 1.8107778520e-01	 1.1075168404e+00	-5.3386656608e+00
 2.7659252610e-01	 1.0990637010e+00	-4.5011239403e+00
 2.5779827183e-01	 1.1036233486e+00	-4.6562657540e+00
 2.3902055478e-01	 1.1078418745e+00	-4.7946211261e+00
 2.2026787202e-01	 1.1117223165e+00	-4.9127587998e+00
 2.0154852961e-01	 1.1152679654e+00	-5.0099941702e+00
 1.8287063456e-01	 1.1184823537e+00	-5.0806601986e+00
 2.7930421753e-01	 1.1098388354e+00	-4.3135009990e+00
 2.6032570587e-01	 1.1144431853e+00	-4.4445637623e+00
 2.4136389355e-01	 1.1187030693e+00	-4.5718531295e+00
 2.2242736096e-01	 1.1226215549e+00	-4.6874906513e+00
 2.0352449559e-01	 1.1262019651e+00	-4.7828459880e+00
 1.8466348392e-01	 1.1294478669e+00	-4.8491584109e+00
 2.8201590896e-01	 1.1206139697e+00	-4.1272689014e+00
 2.6285313991e-01	 1.1252630221e+00	-4.2589835962e+00
 2.4370723232e-01	 1.1295642642e+00	-4.3854944560e+00
 2.2458684991e-01	 1.1335207933e+00	-4.4982675545e+00
 2.0550046157e-01	 1.1371359647e+00	-4.5885547762e+00
 1.8645633328e-01	 1.1404133802e+00	-4.6474942660e+00
 2.8472760039e-01	 1.1313891040e+00	-3.9883495373e+00
 2.6538057394e-01	 1.1360828588e+00	-4.1175083859e+00
 2.4605057109e-01	 1.1404254590e+00	-4.2396325625e+00
 2.2674633885e-01	 1.1444200317e+00	-4.3460603842e+00
 2.0747642754e-01	 1.1480699644e+00	-4.4279374612e+00
 1.8824918264e-01	 1.1513788935e+00	-4.4763160109e+00
 1.7928493584e-01	 1.0965513271e+00	-5.5865051316e+00
 1.6102165447e-01	 1.0993816116e+00	-5.7206052835e+00
 1.4281429058e-01	 1.1018947226e+00	-5.8397795030e+00
 1.2467016671e-01	 1.1040947653e+00	-5.9366233786e+00
 1.0659638572e-01	 1.1059860360e+00	-6.0033570221e+00
 8.8599826419e-02	 1.1075730098e+00	-6.0319462391e+00
 1.8107778520e-01	 1.1075168404e+00	-5.3386656608e+00
 1.6263187101e-01	 1.1103754278e+00	-5.4511212971e+00
 1.4424243349e-01	 1.1129136698e+00	-5.5544605310e+00
 1.2591686837e-01	 1.1151357130e+00	-5.6414399482e+00
 1.0766234958e-01	 1.1170458963e+00	-5.7025856924e+00
 8.9485824683e-02	 1.1186487399e+00	-5.7284755895e+00
 1.8287063456e-01	 1.1184823537e+00	-5.0806601986e+00
 1.6424208756e-01	 1.1213692439e+00	-5.1829273264e+00
 1.4567057640e-01	 1.1239326170e+00	-5.2802392136e+00
 1.2716357004e-01	 1.1261766606e+00	-5.3627815119e+00
 1.0872831343e-01	 1.1281057567e+00	-5.4208208322e+00
 9.0371822947e-02	 1.1297244700e+00	-5.4447638291e+00
 1.8466348392e-01	 1.1294478669e+00	-4.8491584109e+00
 1.6585230410e-01	 1.1323630600e+00	-4.9418251586e+00
 1.4709871930e-01	 1.1349515643e+00	-5.0312965575e+00
 1.2841027171e-01	 1.1372176083e+00	-5.1076329674e+00
 1.0979427729e-01	 1.1391656171e+00	-5.1609662310e+00
 9.1257821211e-02	 1.1408002001e+00	-5.1815550222e+00
 1.8645633328e-01	 1.1404133802e+00	-4.6474942660e+00
 1.6746252065e-01	 1.1433568761e+00	-4.7283185616e+00
 1.4852686221e-01	 1.1459705115e+00	-4.8078251314e+00
 1.2965697337e-01	 1.1482585559e+00	-4.8759716309e+00
 1.1086024115e-01	 1.1502254774e+00	-4.9227793573e+00
 9.2143819476e-02	 1.1518759302e+00	-4.9383842873e+00
 1.8824918264e-01	 1.1513788935e+00	-4.4763160109e+00
 1.6907273719e-01	 1.1543506922e+00	-4.5428567796e+00
 1.4995500511e-01	 1.1569894587e+00	-4.6100658359e+00
 1.3090367504e-01	 1.1592995036e+00	-4.6678225111e+00
 1.1192620500e-01	 1.1612853378e+00	-4.7060637770e+00
 9.3029817740e-02	 1.1629516603e+00	-4.7148303640e+00
 8.8599826419e-02	 1.1075730098e+00	-6.0319462391e+00
 7.0687139703e-02	 1.1088603291e+00	-6.1058093510e+00
 5.2864745404e-02	 1.1098527920e+00	-6.1648742681e+00
 3.5138829740e-02	 1.1105553403e+00	-6.1999692631e+00
 1.7515343364e-02	 1.1109730483e+00	-6.2020856755e+00
 0.0000000000e+00	 1.1111111111e+00	-6.1624963835e+00
 8.9485824683e-02	 1.1186487399e+00	-5.7284755895e+00
 7.1394011100e-02	 1.1199489324e+00	-5.7984872614e+00
 5.3393392858e-02	 1.1209513199e+00	-5.8560074477e+00
 3.5490218037e-02	 1.1216608937e+00	-5.8911669745e+00
 1.7690496798e-02	 1.1220827788e+00	-5.8943946277e+00
 0.0000000000e+00	 1.1222222222e+00	-5.8564734988e+00
 9.0371822947e-02	 1.1297244700e+00	-5.4447638291e+00
 7.2100882497e-02	 1.1310375357e+00	-5.5095411630e+00
 5.3922040312e-02	 1.1320498478e+00	-5.5638086684e+00
 3.5841606334e-02	 1.1327664471e+00	-5.5973394488e+00
 1.7865650231e-02	 1.1331925092e+00	-5.6001781909e+00
 0.0000000000e+00	 1.1333333333e+00	-5.5626951548e+00
 9.1257821211e-02	 1.1408002001e+00	-5.1815550222e+00
 7.2807753894e-02	 1.1421261390e+00	-5.2386800478e+00
 5.4450687766e-02	 1.1431483758e+00	-5.2874996328e+00
 3.6192994632e-02	 1.1438720005e+00	-5.3174535195e+00
 1.8040803665e-02	 1.1443022397e+00	-5.3182253383e+00
 0.0000000000e+00	 1.1444444444e+00	-5.2797937335e+00
 9.2143819476e-02	 1.1518759302e+00	-4.9383842873e+00
 7.3514625291e-02	 1.1532147423e+00	-4.9852517845e+00
 5.4979335220e-02	 1.1542469037e+00	-5.0262434659e+00
 3.6544382929e-02	 1.1549775539e+00	-5.0504923931e+00
 1.8215957099e-02	 1.1554119702e+00	-5.0473465254e+00
 0.0000000000e+00	 1.1555555556e+00	-5.0064164419e+00
 9.3029817740e-02	 1.1629516603e+00	-4.7148303640e+00
 7.4221496688e-02	 1.1643033456e+00	-4.7486432363e+00
 5.5507982674e-02	 1.1653454316e+00	-4.7792369284e+00
 3.6895771226e-02	 1.1660831073e+00	-4.7954669136e+00
 1.8391110532e-02	 1.1665217007e+00	-4.7863733067e+00
 0.0000000000e+00	 1.1666666667e+00	-4.7412246058e+00
 1.1666666667e+00	 0.0000000000e+00	 2.9787243560e+00
 1.1665217007e+00	 1.8391110532e-02	 3.0182192069e+00
 1.1660831073e+00	 3.6895771226e-02	 3.0319547197e+00
 1.1653454316e+00	 5.5507982674e-02	 3.0272558062e+00
 1.1643033456e+00	 7.4221496688e-02	 3.0118648236e+00
 1.1629516603e+00	 9.3029817740e-02	 2.9939068746e+00
 1.1777777778e+00	 0.0000000000e+00	 3.0632438399e+00
 1.1776314312e+00	 1.8566263966e-02	 3.0974332217e+00
 1.1771886607e+00	 3.7247159524e-02	 3.1046995978e+00
 1.1764439595e+00	 5.6036630128e-02	 3.0925027607e+00
 1.1753919489e+00	 7.4928368085e-02	 3.0687000099e+00
 1.1740273904e+00	 9.3915816004e-02	 3.0415169888e+00
 1.1888888889e+00	 0.0000000000e+00	 3.1451500155e+00
 1.1887411616e+00	 1.8741417400e-02	 3.1765123474e+00
 1.1882942141e+00	 3.7598547821e-02	 3.1800022915e+00
 1.1875424874e+00	 5.6565277582e-02	 3.1631889334e+00
 1.1864805522e+00	 7.5635239482e-02	 3.1340167319e+00
 1.1851031205e+00	 9.4801814268e-02	 3.1007825266e+00
 1.2000000000e+00	 0.0000000000e+00	 3.2238635197e+00
 1.1998508921e+00	 1.8916570833e-02	 3.2549850931e+00
 1.1993997675e+00	 3.7949936119e-02	 3.2575110402e+00
 1.1986410154e+00	 5.7093925036e-02	 3.2390916974e+00
 1.1975691555e+00	 7.6342110879e-02	 3.2077283486e+00
 1.1961788506e+00	 9.5687812532e-02	 3.1717570735e+00
 1.2111111111e+00	 0.0000000000e+00	 3.2988112229e+00
 1.2109606226e+00	 1.9091724267e-02	 3.3323868567e+00
 1.2105053209e+00	 3.8301324416e-02	 3.3368816745e+00
 1.2097395433e+00	 5.7622572490e-02	 3.3199966656e+00
 1.2086577588e+00	 7.7048982276e-02	 3.2897569531e+00
 1.2072545807e+00	 9.6573810797e-02	 3.2545031860e+00
 1.2222222222e+00	 0.0000000000e+00	 3.3694259453e+00
 1.2220703531e+00	 1.9266877700e-02	 3.4082596442e+00
 1.2216108743e+00	 3.8652712713e-02	 3.4177773329e+00
 1.2208380712e+00	 5.8151219944e-02	 3.4056974007e+00
 1.2197463620e+00	 7.7755853673e-02	 3.3800330672e+00
 1.2183303108e+00	 9.7459809061e-02	 3.3490920627e+00
 1.1629516603e+00	 9.3029817740e-02	 2.9939068746e+00
 1.1612853378e+00	 1.1192620500e-01	 3.0357954153e+00
 1.1592995036e+00	 1.3090367504e-01	 3.0474302611e+00
 1.1569894587e+00	 1.4995500511e-01	 3.0373843375e+00
 1.1543506922e+00	 1.6907273719e-01	 3.0145474600e+00
 1.1513788935e+00	 1.8824918264e-01	 2.9880622509e+00
 1.1740273904e+00	 9.3915816004e-02	 3.0415169888e+00
 1.1723451981e+00	 1.1299216886e-01	 3.0754021291e+00
 1.1703404512e+00	 1.3215037671e-01	 3.0776316344e+00
 1.1680084059e+00	 1.5138314802e-01	 3.0568411455e+00
 1.1653445083e+00	 1.7068295374e-01	 3.0219967909e+00
 1.1623444067e+00	 1.9004203199e-01	 2.9823378112e+00
 1.1851031205e+00	 9.4801814268e-02	 3.1007825266e+00
 1.1834050585e+00	 1.1405813272e-01	 3.1296752915e+00
 1.1813813989e+00	 1.3339707837e-01	 3.1255944456e+00
 1.1790273532e+00	 1.5281129092e-01	 3.0972091505e+00
 1.1763383245e+00	 1.7229317028e-01	 3.0535340504e+00
 1.1733099200e+00	 1.9183488135e-01	 3.0038793915e+00
 1.1961788506e+00	 9.5687812532e-02	 3.1717570735e+00
 1.1944649189e+00	 1.1512409658e-01	 3.1988176594e+00
 1.1924223465e+00	 1.3464378004e-01	 3.1916692499e+00
 1.1900463004e+00	 1.5423943383e-01	 3.1589827572e+00
 1.1873321406e+00	 1.7390338683e-01	 3.1097910680e+00
 1.1842754333e+00	 1.9362773071e-01	 3.0534474896e+00
 1.2072545807e+00	 9.6573810797e-02	 3.2545031860e+00
 1.2055247792e+00	 1.1619006043e-01	 3.2830405696e+00
 1.2034632942e+00	 1.3589048171e-01	 3.2762143442e+00
 1.2010652476e+00	 1.5566757674e-01	 3.2426627295e+00
 1.1983259567e+00	 1.7551360337e-01	 3.1914040122e+00
 1.1952409466e+00	 1.9542058007e-01	 3.1318041970e+00
 1.2183303108e+00	 9.7459809061e-02	 3.3490920627e+00
 1.2165846396e+00	 1.1725602429e-01	 3.3825635865e+00
 1.2145042418e+00	 1.3713718338e-01	 3.3795953792e+00
 1.2120841948e+00	 1.5709571964e-01	 3.3487557521e+00
 1.2093197728e+00	 1.7712381992e-01	 3.2990128860e+00
 1.2062064598e+00	 1.9721342943e-01	 3.2397126097e+00
 1.1513788935e+00	 1.8824918264e-01	 2.9880622509e+00
 1.1480699644e+00	 2.0747642754e-01	 3.0219484382e+00
 1.1444200317e+00	 2.2674633885e-01	 3.0204164117e+00
 1.1404254590e+00	 2.4605057109e-01	 2.9927744674e+00
 1.1360828588e+00	 2.6538057394e-01	 2.9482910595e+00
 1.1313891040e+00	 2.8472760039e-01	 2.8960276844e+00
 1.1623444067e+00	 1.9004203199e-01	 2.9823378112e+00
 1.1590039640e+00	 2.0945239352e-01	 3.0085103366e+00
 1.1553192701e+00	 2.2890582779e-01	 2.9981109744e+00
 1.1512866539e+00	 2.4839390987e-01	 2.9606105824e+00
 1.1469026956e+00	 2.6790800798e-01	 2.9054806657e+00
 1.1421642383e+00	 2.8743929183e-01	 2.8420279361e+00
 1.1733099200e+00	 1.9183488135e-01	 3.0038793915e+00
 1.1699379637e+00	 2.1142835950e-01	 3.0251737943e+00
 1.1662185085e+00	 2.3106531673e-01	 3.0087062377e+00
 1.1621478487e+00	 2.5073724864e-01	 2.9640961295e+00
 1.1577225323e+00	 2.7043544202e-01	 2.9010091081e+00
 1.1529393727e+00	 2.9015098326e-01	 2.8289938526e+00
 1.1842754333e+00	 1.9362773071e-01	 3.0534474896e+00
 1.1808719634e+00	 2.1340432547e-01	 3.0728260008e+00
 1.1771177469e+00	 2.3322480567e-01	 3.0532031607e+00
 1.1730090436e+00	 2.5308058741e-01	 3.0043312586e+00
 1.1685423691e+00	 2.7296287606e-01	 2.9360598012e+00
 1.1637145070e+00	 2.9286267469e-01	 2.8581751876e+00
 1.1952409466e+00	 1.9542058007e-01	 3.1318041970e+00
 1.1918059630e+00	 2.1538029145e-01	 3.1523518589e+00
 1.1880169853e+00	 2.3538429461e-01	 3.1325956593e+00
 1.1838702384e+00	 2.5542392618e-01	 3.0824033798e+00
 1.1793622058e+00	 2.7549031009e-01	 3.0117967302e+00
 1.1744896413e+00	 2.9557436612e-01	 2.9307945402e+00
 1.2062064598e+00	 1.9721342943e-01	 3.2397126097e+00
 1.2027399627e+00	 2.1735625743e-01	 3.2646333078e+00
 1.1989162237e+00	 2.3754378355e-01	 3.2478698208e+00
 1.1947314333e+00	 2.5776726496e-01	 3.1993862478e+00
 1.1901820426e+00	 2.7801774413e-01	 3.1293633826e+00
 1.1852647756e+00	 2.9828605755e-01	 3.0480461123e+00
 1.1313891040e+00	 2.8472760039e-01	 2.8960276844e+00
 1.1263413395e+00	 3.0408271571e-01	 2.8899802181e+00
 1.1209369933e+00	 3.2343680709e-01	 2.8776236584e+00
 1.1151737871e+00	 3.4278059400e-01	 2.8663275235e+00
 1.1090497470e+00	 3.6210463921e-01	 2.8606930057e+00
 1.1025632131e+00	 3.8139936054e-01	 2.8492604936e+00
 1.1421642383e+00	 2.8743929183e-01	 2.8420279361e+00
 1.1370683999e+00	 3.0697874158e-01	 2.8278967918e+00
 1.1316125837e+00	 3.2651715764e-01	 2.8053580973e+00
 1.1257944899e+00	 3.4604517108e-01	 2.7821044810e+00
 1.1196121256e+00	 3.6555325482e-01	 2.7647109224e+00
 1.1130638151e+00	 3.8503173540e-01	 2.7711310098e+00
 1.1529393727e+00	 2.9015098326e-01	 2.8289938526e+00
 1.1477954603e+00	 3.0987476744e-01	 2.8091709690e+00
 1.1422881741e+00	 3.2959750818e-01	 2.7788318336e+00
 1.1364151926e+00	 3.4930974817e-01	 2.7460091158e+00
 1.1301745041e+00	 3.6900187043e-01	 2.7176580025e+00
 1.1235644172e+00	 3.8866411026e-01	 2.7185977824e+00
 1.1637145070e+00	 2.9286267469e-01	 2.8581751876e+00
 1.1585225207e+00	 3.1277079330e-01	 2.8351061626e+00
 1.1529637645e+00	 3.3267785872e-01	 2.7993830707e+00
 1.1470358953e+00	 3.5257432525e-01	 2.7593957525e+00
 1.1407368827e+00	 3.7245048604e-01	 2.7227550443e+00
 1.1340650192e+00	 3.9229648512e-01	 2.7212727096e+00
 1.1744896413e+00	 2.9557436612e-01	 2.9307945402e+00
 1.1692495810e+00	 3.1566681917e-01	 2.9069696651e+00
 1.1636393549e+00	 3.3575820927e-01	 2.8683038876e+00
 1.1576565981e+00	 3.5583890234e-01	 2.8235615504e+00
 1.1512992612e+00	 3.7589910165e-01	 2.7822320436e+00
 1.1445656212e+00	 3.9592885999e-01	 2.7801274051e+00
 1.1852647756e+00	 2.9828605755e-01	 3.0480461123e+00
 1.1799766414e+00	 3.1856284503e-01	 3.0259912141e+00
 1.1743149454e+00	 3.3883855981e-01	 2.9868385874e+00
 1.1682773008e+00	 3.5910347943e-01	 2.9397446091e+00
 1.1618616397e+00	 3.7934771726e-01	 2.8972249033e+00
 1.1550662233e+00	 3.9956123485e-01	 2.8960265180e+00
 1.1025632131e+00	 3.8139936054e-01	 2.8492604936e+00
 1.0957128490e+00	 4.0065504322e-01	 2.6849384491e+00
 1.0884976507e+00	 4.1986185293e-01	 2.5944974747e+00
 1.0809169548e+00	 4.3900984936e-01	 2.5660902707e+00
 1.0729704463e+00	 4.5808900050e-01	 2.5877067592e+00
 1.0646581653e+00	 4.7708919732e-01	 2.6472869984e+00
 1.1130638151e+00	 3.8503173540e-01	 2.7711310098e+00
 1.1061482095e+00	 4.0447080554e-01	 2.6271257801e+00
 1.0988642950e+00	 4.2386053724e-01	 2.5517630453e+00
 1.0912114020e+00	 4.4319089554e-01	 2.5313173389e+00
 1.0831892125e+00	 4.6245175288e-01	 2.5534430779e+00
 1.0747977669e+00	 4.8163290397e-01	 2.6057991365e+00
 1.1235644172e+00	 3.8866411026e-01	 2.7185977824e+00
 1.1165835699e+00	 4.0828656786e-01	 2.5548783208e+00
 1.1092309393e+00	 4.2785922155e-01	 2.4888038811e+00
 1.1015058492e+00	 4.4737194173e-01	 2.4827725742e+00
 1.0934079787e+00	 4.6681450527e-01	 2.5121396445e+00
 1.0849373684e+00	 4.8617661061e-01	 2.5642636915e+00
 1.1340650192e+00	 3.9229648512e-01	 2.7212727096e+00
 1.1270189304e+00	 4.1210233017e-01	 2.5339264898e+00
 1.1195975836e+00	 4.3185790587e-01	 2.4351519008e+00
 1.1118002964e+00	 4.5155298791e-01	 2.4210353305e+00
 1.1036267448e+00	 4.7117725766e-01	 2.4640712221e+00
 1.0950769700e+00	 4.9072031725e-01	 2.5228320342e+00
 1.1445656212e+00	 3.9592885999e-01	 2.7801274051e+00
 1.1374542909e+00	 4.1591809249e-01	 2.5747742887e+00
 1.1299642279e+00	 4.3585659018e-01	 2.4474339998e+00
 1.1220947436e+00	 4.5573403410e-01	 2.3947486211e+00
 1.1138455110e+00	 4.7554001004e-01	 2.4125288724e+00
 1.1052165716e+00	 4.9526402389e-01	 2.4816458976e+00
 1.1550662233e+00	 3.9956123485e-01	 2.8960265180e+00
 1.1478896513e+00	 4.1973385481e-01	 2.6780064815e+00
 1.1403308722e+00	 4.3985527449e-01	 2.5273708373e+00
 1.1323891908e+00	 4.5991508028e-01	 2.4413548288e+00
 1.1240642771e+00	 4.7990276243e-01	 2.4164082175e+00
 1.1153561732e+00	 4.9980773053e-01	 2.4480603476e+00
 1.0646581653e+00	 4.7708919732e-01	 2.6472869984e+00
 1.0559805132e+00	 4.9600026909e-01	 2.5043251387e+00
 1.0469382583e+00	 5.1481199904e-01	 2.4065429012e+00
 1.0375325406e+00	 5.3351414060e-01	 2.3414143366e+00
 1.0277648753e+00	 5.5209643386e-01	 2.2966568055e+00
 1.0176371556e+00	 5.7054862248e-01	 2.2603213810e+00
 1.0747977669e+00	 4.8163290397e-01	 2.6057991365e+00
 1.0660374704e+00	 5.0072408118e-01	 2.4395126022e+00
 1.0569090989e+00	 5.1971497046e-01	 2.3232878892e+00
 1.0474138029e+00	 5.3859522765e-01	 2.2440190459e+00
 1.0375531122e+00	 5.5735449513e-01	 2.1888566853e+00
 1.0273289381e+00	 5.7598241888e-01	 2.1452989149e+00
 1.0849373684e+00	 4.8617661061e-01	 2.5642636915e+00
 1.0760944277e+00	 5.0544789326e-01	 2.3765615238e+00
 1.0668799394e+00	 5.2461794188e-01	 2.2437659214e+00
 1.0572950652e+00	 5.4367631471e-01	 2.1521818211e+00
 1.0473413491e+00	 5.6261255641e-01	 2.0883856476e+00
 1.0370207205e+00	 5.8141621529e-01	 2.0393165332e+00
 1.0950769700e+00	 4.9072031725e-01	 2.5228320342e+00
 1.0861513850e+00	 5.1017170535e-01	 2.3156372747e+00
 1.0768507800e+00	 5.2952091330e-01	 2.1681540998e+00
 1.0671763275e+00	 5.4875740176e-01	 2.0660901193e+00
 1.0571295860e+00	 5.6787061768e-01	 1.9954411011e+00
 1.0467125029e+00	 5.8685001169e-01	 1.9425822223e+00
 1.1052165716e+00	 4.9526402389e-01	 2.4816458976e+00
 1.0962083422e+00	 5.1489551744e-01	 2.2568892611e+00
 1.0868216205e+00	 5.3442388472e-01	 2.0966070749e+00
 1.0770575898e+00	 5.5383848881e-01	 1.9859023645e+00
 1.0669178229e+00	 5.7312867895e-01	 1.9101848073e+00
 1.0564042854e+00	 5.9228380810e-01	 1.8552617415e+00
 1.1153561732e+00	 4.9980773053e-01	 2.4480603476e+00
 1.1062652995e+00	 5.1961932952e-01	 2.2004468403e+00
 1.0967924611e+00	 5.3932685614e-01	 2.0292527571e+00
 1.0869388521e+00	 5.5891957587e-01	 1.9117434544e+00
 1.0767060598e+00	 5.7838674023e-01	 1.8327381885e+00
 1.0660960678e+00	 5.9771760450e-01	 1.7774737387e+00
 1.0176371556e+00	 5.7054862248e-01	 2.2603213810e+00
 1.0071516554e+00	 5.8886047084e-01	 2.1874397535e+00
 9.9631102977e-01	 6.0702178138e-01	 2.1108030696e+00
 9.8511831543e-01	 6.2502241216e-01	 2.0193268021e+00
 9.7357692998e-01	 6.4285229448e-01	 1.9025367313e+00
 9.6169067007e-01	 6.6050145058e-01	 1.7506400472e+00
 1.0273289381e+00	 5.7598241888e-01	 2.1452989149e+00
 1.0167435759e+00	 5.9446866580e-01	 2.0604318540e+00
 1.0057997062e+00	 6.1280294121e-01	 1.9734445044e+00
 9.9450039463e-01	 6.3097500657e-01	 1.8725930768e+00
 9.8284909122e-01	 6.4897469729e-01	 1.7467558956e+00
 9.7084962883e-01	 6.6679194058e-01	 1.5855041610e+00
 1.0370207205e+00	 5.8141621529e-01	 2.0393165332e+00
 1.0263354965e+00	 6.0007686076e-01	 1.9427826198e+00
 1.0152883827e+00	 6.1858410103e-01	 1.8456989847e+00
 1.0038824738e+00	 6.3692760097e-01	 1.7356611509e+00
 9.9212125246e-01	 6.5509710009e-01	 1.6008987964e+00
 9.8000858759e-01	 6.7308243059e-01	 1.4303458404e+00
 1.0467125029e+00	 5.8685001169e-01	 1.9425822223e+00
 1.0359274170e+00	 6.0568505572e-01	 1.8347491855e+00
 1.0247770592e+00	 6.2436526085e-01	 1.7278754413e+00
 1.0132645530e+00	 6.4288019537e-01	 1.6088954222e+00
 1.0013934137e+00	 6.6121950290e-01	 1.4653899618e+00
 9.8916754636e-01	 6.7937292059e-01	 1.2856553481e+00
 1.0564042854e+00	 5.9228380810e-01	 1.8552617415e+00
 1.0455193375e+00	 6.1129325068e-01	 1.7365386271e+00
 1.0342657357e+00	 6.3014642068e-01	 1.6202250896e+00
 1.0226466322e+00	 6.4883278977e-01	 1.4925951589e+00
 1.0106655749e+00	 6.6734190570e-01	 1.3405816870e+00
 9.9832650512e-01	 6.8566341060e-01	 1.1518439875e+00
 1.0660960678e+00	 5.9771760450e-01	 1.7774737387e+00
 1.0551112580e+00	 6.1690144564e-01	 1.6483029537e+00
 1.0437544121e+00	 6.3592758050e-01	 1.5229363046e+00
 1.0320287114e+00	 6.5478538417e-01	 1.3869892684e+00
 1.0199377362e+00	 6.7346430850e-01	 1.2267487071e+00
 1.0074854639e+00	 6.9195390060e-01	 1.0292386902e+00
 9.6169067007e-01	 6.6050145058e-01	 1.7506400472e+00
 9.4946370873e-01	 6.7796001130e-01	 1.7575181365e+00
 9.3690059165e-01	 6.9521823371e-01	 1.7077936139e+00
 9.2400623252e-01	 7.1226651851e-01	 1.5950009543e+00
 9.1078590732e-01	 7.2909542732e-01	 1.4136432482e+00
 8.9724524777e-01	 7.4569569964e-01	 1.1581748324e+00
 9.7084962883e-01	 6.6679194058e-01	 1.5855041610e+00
 9.5850622024e-01	 6.8441677331e-01	 1.5924591303e+00
 9.4582345443e-01	 7.0183935974e-01	 1.5412393131e+00
 9.3280629187e-01	 7.1905000916e-01	 1.4250403136e+00
 9.1946005882e-01	 7.3603919329e-01	 1.2380397342e+00
 9.0579044061e-01	 7.5279756345e-01	 9.6819971987e-01
 9.8000858759e-01	 6.7308243059e-01	 1.4303458404e+00
 9.6754873175e-01	 6.9087353533e-01	 1.4397570830e+00
 9.5474631720e-01	 7.0846048578e-01	 1.3893552052e+00
 9.4160635123e-01	 7.2583349981e-01	 1.2719898225e+00
 9.2813421032e-01	 7.4298295926e-01	 1.0811753598e+00
 9.1433563344e-01	 7.5989942725e-01	 7.9230736178e-01
 9.8916754636e-01	 6.7937292059e-01	 1.2856553481e+00
 9.7659124326e-01	 6.9733029734e-01	 1.2999079253e+00
 9.6366917998e-01	 7.1508161181e-01	 1.2526499610e+00
 9.5040641059e-01	 7.3261699046e-01	 1.1363787200e+00
 9.3680836182e-01	 7.4992672524e-01	 9.3858796630e-01
 9.2288082628e-01	 7.6700129106e-01	 6.2937413514e-01
 9.9832650512e-01	 6.8566341060e-01	 1.1518439875e+00
 9.8563375477e-01	 7.0378705935e-01	 1.1733247817e+00
 9.7259204276e-01	 7.2170273785e-01	 1.1315461033e+00
 9.5920646994e-01	 7.3940048112e-01	 1.0186473098e+00
 9.4548251332e-01	 7.5687049121e-01	 8.0780289638e-01
 9.3142601911e-01	 7.7410315487e-01	 4.7825273335e-01
 1.0074854639e+00	 6.9195390060e-01	 1.0292386902e+00
 9.9467626628e-01	 7.1024382136e-01	 1.0603323768e+00
 9.8151490554e-01	 7.2832386388e-01	 1.0263742433e+00
 9.6800652930e-01	 7.4618397177e-01	 9.1644395623e-01
 9.5415666481e-01	 7.6381425719e-01	 6.8764629664e-01
 9.3997121195e-01	 7.8120501867e-01	 3.3777800570e-01
 8.9724524777e-01	 7.4569569964e-01	 1.1581748324e+00
 8.8339023368e-01	 7.6205826952e-01	 1.1755650700e+00
 8.6922718450e-01	 7.7817428179e-01	 1.1108284168e+00
 8.5476274987e-01	 7.9403510788e-01	 9.8338591316e-01
 8.4000389938e-01	 8.0963236110e-01	 8.1360332834e-01
 8.2495791138e-01	 8.2495791138e-01	 6.2246306526e-01
 9.0579044061e-01	 7.5279756345e-01	 9.6819971987e-01
 8.9180347400e-01	 7.6931596733e-01	 9.9211862684e-01
 8.7750553864e-01	 7.8558546543e-01	 9.3199140095e-01
 8.6290334749e-01	 8.0159734700e-01	 8.0767217701e-01
 8.4800393652e-01	 8.1734314549e-01	 6.4001573960e-01
 8.3281465340e-01	 8.3281465340e-01	 4.5053198622e-01
 9.1433563344e-01	 7.5989942725e-01	 7.9230736178e-01
 9.0021671432e-01	 7.7657366513e-01	 8.2223649292e-01
 8.8578389277e-01	 7.9299664906e-01	 7.6617020843e-01
 8.7104394511e-01	 8.0915958612e-01	 6.4440921137e-01
 8.5600397365e-01	 8.2505392988e-01	 4.7831483157e-01
 8.4067139541e-01	 8.4067139541e-01	 2.8994516522e-01
 9.2288082628e-01	 7.6700129106e-01	 6.2937413514e-01
 9.0862995464e-01	 7.8383136294e-01	 6.6481120838e-01
 8.9406224691e-01	 8.0040783270e-01	 6.1226873435e-01
 8.7918454273e-01	 8.1672182525e-01	 4.9250841314e-01
 8.6400401079e-01	 8.3276471427e-01	 3.2741685129e-01
 8.4852813742e-01	 8.4852813742e-01	 1.3962245915e-01
 9.3142601911e-01	 7.7410315487e-01	 4.7825273335e-01
 9.1704319496e-01	 7.9108906074e-01	 5.1871054173e-01
 9.0234060105e-01	 8.0781901634e-01	 4.6916432209e-01
 8.8732514034e-01	 8.2428406437e-01	 3.5085220594e-01
 8.7200404793e-01	 8.4047549866e-01	 1.8620606954e-01
 8.5638487944e-01	 8.5638487944e-01	-1.5517670945e-03
 9.3997121195e-01	 7.8120501867e-01	 3.3777800570e-01
 9.2545643528e-01	 7.9834675855e-01	 3.8278324591e-01
 9.1061895519e-01	 8.1523019997e-01	 3.3571341459e-01
 8.9546573796e-01	 8.3184630349e-01	 2.1829956616e-01
 8.8000408506e-01	 8.4818628306e-01	 5.3540162309e-02
 8.6424162145e-01	 8.6424162145e-01	-1.3472342160e-01
 8.2495791138e-01	 8.2495791138e-01	 6.2246306526e-01
 8.0963236110e-01	 8.4000389938e-01	 4.4811342699e-01
 7.9403510788e-01	 8.5476274987e-01	 2.7886008702e-01
 7.7817428179e-01	 8.6922718450e-01	 1.3553962146e-01
 7.6205826952e-01	 8.8339023368e-01	 3.8236458889e-02
 7.4569569964e-01	 8.9724524777e-01	 5.9334548729e-03
 8.3281465340e-01	 8.3281465340e-01	 4.5053198622e-01
 8.1734314549e-01	 8.4800393652e-01	 2.7894360503e-01
 8.0159734700e-01	 8.6290334749e-01	 1.1411812352e-01
 7.8558546543e-01	 8.7750553864e-01	-2.2571975183e-02
 7.6931596733e-01	 8.9180347400e-01	-1.1054981779e-01
 7.5279756345e-01	 9.0579044061e-01	-1.3040362107e-01
 8.4067139541e-01	 8.4067139541e-01	 2.8994516522e-01
 8.2505392988e-01	 8.5600397365e-01	 1.2072931869e-01
 8.0915958612e-01	 8.7104394511e-01	-4.0007777906e-02
 7.9299664906e-01	 8.8578389277e-01	-1.7033367309e-01
 7.7657366513e-01	 9.0021671432e-01	-2.4915595317e-01
 7.5989942725e-01	 9.1433563344e-01	-2.5661288237e-01
 8.4852813742e-01	 8.4852813742e-01	 1.3962245915e-01
 8.3276471427e-01	 8.6400401079e-01	-2.7608655603e-02
 8.1672182525e-01	 8.7918454273e-01	-1.8459333367e-01
 8.0040783270e-01	 8.9406224691e-01	-3.0881330274e-01
 7.8383136294e-01	 9.0862995464e-01	-3.7863569036e-01
 7.6700129106e-01	 9.2288082628e-01	-3.7372597778e-01
 8.5638487944e-01	 8.5638487944e-01	-1.5517670945e-03
 8.4047549866e-01	 8.7200404793e-01	-1.6718887451e-01
 8.2428406437e-01	 8.8732514034e-01	-3.2075780836e-01
 8.0781901634e-01	 9.0234060105e-01	-4.3912674468e-01
 7.9108906074e-01	 9.1704319496e-01	-5.0009552045e-01
 7.7410315487e-01	 9.3142601911e-01	-4.8283210498e-01
 8.6424162145e-01	 8.6424162145e-01	-1.3472342160e-01
 8.4818628306e-01	 8.8000408506e-01	-2.9916419265e-01
 8.3184630349e-01	 8.9546573796e-01	-4.4965917737e-01
 8.1523019997e-01	 9.1061895519e-01	-5.6243330200e-01
 7.9834675855e-01	 9.2545643528e-01	-6.1469027517e-01
 7.8120501867e-01	 9.3997121195e-01	-5.8507383194e-01
 7.4569569964e-01	 8.9724524777e-01	 5.9334548729e-03
 7.2909542732e-01	 9.1078590732e-01	-2.7045925392e-01
 7.1226651851e-01	 9.2400623252e-01	-4.9852920679e-01
 6.9521823371e-01	 9.3690059165e-01	-6.7998742898e-01
 6.7796001130e-01	 9.4946370873e-01	-8.1772936756e-01
 6.6050145058e-01	 9.6169067007e-01	-9.1600735504e-01
 7.5279756345e-01	 9.0579044061e-01	-1.3040362107e-01
 7.3603919329e-01	 9.1946005882e-01	-4.1251426342e-01
 7.1905000916e-01	 9.3280629187e-01	-6.3859001475e-01
 7.0183935974e-01	 9.4582345443e-01	-8.1215815735e-01
 6.8441677331e-01	 9.5850622024e-01	-9.3640831742e-01
 6.6679194058e-01	 9.7084962883e-01	-1.0159527592e+00
 7.5989942725e-01	 9.1433563344e-01	-2.5661288237e-01
 7.4298295926e-01	 9.2813421032e-01	-5.4608856600e-01
 7.2583349981e-01	 9.4160635123e-01	-7.6986368839e-01
 7.0846048578e-01	 9.5474631720e-01	-9.3492834786e-01
 6.9087353533e-01	 9.6754873175e-01	-1.0448924594e+00
 6.7308243059e-01	 9.8000858759e-01	-1.1047417870e+00
 7.6700129106e-01	 9.2288082628e-01	-3.7372597778e-01
 7.4992672524e-01	 9.3680836182e-01	-6.7101855544e-01
 7.3261699046e-01	 9.5040641059e-01	-8.9388042441e-01
 7.1508161181e-01	 9.6366917998e-01	-1.0497783270e+00
 6.9733029734e-01	 9.7659124326e-01	-1.1446059179e+00
 6.7937292059e-01	 9.8916754636e-01	-1.1837364155e+00
 7.7410315487e-01	 9.3142601911e-01	-4.8283210498e-01
 7.5687049121e-01	 9.4548251332e-01	-7.8790493270e-01
 7.3940048112e-01	 9.5920646994e-01	-1.0121991962e+00
 7.2170273785e-01	 9.7259204276e-01	-1.1582170433e+00
 7.0378705935e-01	 9.8563375477e-01	-1.2370013307e+00
 6.8566341060e-01	 9.9832650512e-01	-1.2543270734e+00
 7.8120501867e-01	 9.3997121195e-01	-5.8507383194e-01
 7.6381425719e-01	 9.5415666481e-01	-8.9786541141e-01
 7.4618397177e-01	 9.6800652930e-01	-1.1253495977e+00
 7.2832386388e-01	 9.8151490554e-01	-1.2617811369e+00
 7.1024382136e-01	 9.9467626628e-01	-1.3235589125e+00
 6.9195390060e-01	 1.0074854639e+00	-1.3179317010e+00
 6.6050145058e-01	 9.6169067007e-01	-9.1600735504e-01
 6.4285229448e-01	 9.7357692998e-01	-1.1178351827e+00
 6.2502241216e-01	 9.8511831543e-01	-1.3017066247e+00
 6.0702178138e-01	 9.9631102977e-01	-1.4762050773e+00
 5.8886047084e-01	 1.0071516554e+00	-1.6507657024e+00
 5.7054862248e-01	 1.0176371556e+00	-1.8355416039e+00
 6.6679194058e-01	 9.7084962883e-01	-1.0159527592e+00
 6.4897469729e-01	 9.8284909122e-01	-1.2076356771e+00
 6.3097500657e-01	 9.9450039463e-01	-1.3821227080e+00
 6.1280294121e-01	 1.0057997062e+00	-1.5486001350e+00
 5.9446866580e-01	 1.0167435759e+00	-1.7171322906e+00
 5.7598241888e-01	 1.0273289381e+00	-1.8985215235e+00
 6.7308243059e-01	 9.8000858759e-01	-1.1047417870e+00
 6.5509710009e-01	 9.9212125246e-01	-1.2862703644e+00
 6.3692760097e-01	 1.0038824738e+00	-1.4511307163e+00
 6.1858410103e-01	 1.0152883827e+00	-1.6091287267e+00
 6.0007686076e-01	 1.0263354965e+00	-1.7709758382e+00
 5.8141621529e-01	 1.0370207205e+00	-1.9481426384e+00
 6.7937292059e-01	 9.8916754636e-01	-1.1837364155e+00
 6.6121950290e-01	 1.0013934137e+00	-1.3550028515e+00
 6.4288019537e-01	 1.0132645530e+00	-1.5098934447e+00
 6.2436526085e-01	 1.0247770592e+00	-1.6588508335e+00
 6.0568505572e-01	 1.0359274170e+00	-1.8132519483e+00
 5.8685001169e-01	 1.0467125029e+00	-1.9852550448e+00
 6.8566341060e-01	 9.9832650512e-01	-1.2543270734e+00
 6.6734190570e-01	 1.0106655749e+00	-1.4151263080e+00
 6.4883278977e-01	 1.0226466322e+00	-1.5596043073e+00
 6.3014642068e-01	 1.0342657357e+00	-1.6988580548e+00
 6.1129325068e-01	 1.0455193375e+00	-1.8449487804e+00
 5.9228380810e-01	 1.0564042854e+00	-2.0107422674e+00
 6.9195390060e-01	 1.0074854639e+00	-1.3179317010e+00
 6.7346430850e-01	 1.0199377362e+00	-1.4679624719e+00
 6.5478538417e-01	 1.0320287114e+00	-1.6014862969e+00
 6.3592758050e-01	 1.0437544121e+00	-1.7302725279e+00
 6.1690144564e-01	 1.0551112580e+00	-1.8670859366e+00
 5.9771760450e-01	 1.0660960678e+00	-2.0255201183e+00
 5.7054862248e-01	 1.0176371556e+00	-1.8355416039e+00
 5.5209643386e-01	 1.0277648753e+00	-1.9558288445e+00
 5.3351414060e-01	 1.0375325406e+00	-2.0904047555e+00
 5.1481199904e-01	 1.0469382583e+00	-2.2501932722e+00
 4.9600026909e-01	 1.0559805132e+00	-2.4463470111e+00
 4.7708919732e-01	 1.0646581653e+00	-2.6901111573e+00
 5.7598241888e-01	 1.0273289381e+00	-1.8985215235e+00
 5.5735449513e-01	 1.0375531122e+00	-2.0089924393e+00
 5.3859522765e-01	 1.0474138029e+00	-2.1328010564e+00
 5.1971497046e-01	 1.0569090989e+00	-2.2817504127e+00
 5.0072408118e-01	 1.0660374704e+00	-2.4678789990e+00
 4.8163290397e-01	 1.0747977669e+00	-2.7033179370e+00
 5.8141621529e-01	 1.0370207205e+00	-1.9481426384e+00
 5.6261255641e-01	 1.0473413491e+00	-2.0493140942e+00
 5.4367631471e-01	 1.0572950652e+00	-2.1628230553e+00
 5.2461794188e-01	 1.0668799394e+00	-2.3013697499e+00
 5.0544789326e-01	 1.0760944277e+00	-2.4778969005e+00
 4.8617661061e-01	 1.0849373684e+00	-2.7054400519e+00
 5.8685001169e-01	 1.0467125029e+00	-1.9852550448e+00
 5.6787061768e-01	 1.0571295860e+00	-2.0774957000e+00
 5.4875740176e-01	 1.0671763275e+00	-2.1810216758e+00
 5.2952091330e-01	 1.0768507800e+00	-2.3094489787e+00
 5.1017170535e-01	 1.0861513850e+00	-2.4766434173e+00
 4.9072031725e-01	 1.0950769700e+00	-2.6965639358e+00
 5.9228380810e-01	 1.0564042854e+00	-2.0107422674e+00
 5.7312867895e-01	 1.0669178229e+00	-2.0942749193e+00
 5.5383848881e-01	 1.0770575898e+00	-2.1879859710e+00
 5.3442388472e-01	 1.0868216205e+00	-2.3064262877e+00
 5.1489551744e-01	 1.0962083422e+00	-2.4644041050e+00
 4.9526402389e-01	 1.1052165716e+00	-2.6768212242e+00
 5.9771760450e-01	 1.0660960678e+00	-2.0255201183e+00
 5.7838674023e-01	 1.0767060598e+00	-2.1004239533e+00
 5.5891957587e-01	 1.0869388521e+00	-2.1843418007e+00
 5.3932685614e-01	 1.0967924611e+00	-2.2927789478e+00
 5.1961932952e-01	 1.1062652995e+00	-2.4415058752e+00
 4.9980773053e-01	 1.1153561732e+00	-2.6542116463e+00
 4.7708919732e-01	 1.0646581653e+00	-2.6901111573e+00
 4.5808900050e-01	 1.0729704463e+00	-2.7689109821e+00
 4.3900984936e-01	 1.0809169548e+00	-2.8718850178e+00
 4.1986185293e-01	 1.0884976507e+00	-3.0105378738e+00
 4.0065504322e-01	 1.0957128490e+00	-3.1960964135e+00
 3.8139936054e-01	 1.1025632131e+00	-3.4393951670e+00
 4.8163290397e-01	 1.0747977669e+00	-2.7033179370e+00
 4.6245175288e-01	 1.0831892125e+00	-2.7670937269e+00
 4.4319089554e-01	 1.0912114020e+00	-2.8466687134e+00
 4.2386053724e-01	 1.0988642950e+00	-2.9538617984e+00
 4.0447080554e-01	 1.1061482095e+00	-3.1002374113e+00
 3.8503173540e-01	 1.1130638151e+00	-3.2985309722e+00
 4.8617661061e-01	 1.0849373684e+00	-2.7054400519e+00
 4.6681450527e-01	 1.0934079787e+00	-2.7477574187e+00
 4.4737194173e-01	 1.1015058492e+00	-2.7977823246e+00
 4.2785922155e-01	 1.1092309393e+00	-2.8676729843e+00
 4.0828656786e-01	 1.1165835699e+00	-2.9818281618e+00
 3.8866411026e-01	 1.1235644172e+00	-3.1776196120e+00
 4.9072031725e-01	 1.0950769700e+00	-2.6965639358e+00
 4.7117725766e-01	 1.1036267448e+00	-2.7110227668e+00
 4.5155298791e-01	 1.1118002964e+00	-2.7255779543e+00
 4.3185790587e-01	 1.1195975836e+00	-2.7827544706e+00
 4.1210233017e-01	 1.1270189304e+00	-2.9095452267e+00
 3.9229648512e-01	 1.1340650192e+00	-3.1078684364e+00
 4.9526402389e-01	 1.1052165716e+00	-2.6768212242e+00
 4.7554001004e-01	 1.1138455110e+00	-2.6602911337e+00
 4.5573403410e-01	 1.1220947436e+00	-2.6816158995e+00
 4.3585659018e-01	 1.1299642279e+00	-2.7591164854e+00
 4.1591809249e-01	 1.1374542909e+00	-2.8950779595e+00
 3.9592885999e-01	 1.1445656212e+00	-3.0909726856e+00
 4.9980773053e-01	 1.1153561732e+00	-2.6542116463e+00
 4.7990276243e-01	 1.1240642771e+00	-2.6588662046e+00
 4.5991508028e-01	 1.1323891908e+00	-2.7063665912e+00
 4.3985527449e-01	 1.1403308722e+00	-2.7994245356e+00
 4.1973385481e-01	 1.1478896513e+00	-2.9398156058e+00
 3.9956123485e-01	 1.1550662233e+00	-3.1285333689e+00
 3.8139936054e-01	 1.1025632131e+00	-3.4393951670e+00
 3.6210463921e-01	 1.1090497470e+00	-3.5838455444e+00
 3.4278059400e-01	 1.1151737871e+00	-3.7038637970e+00
 3.2343680709e-01	 1.1209369933e+00	-3.8143775630e+00
 3.0408271571e-01	 1.1263413395e+00	-3.9113450839e+00
 2.8472760039e-01	 1.1313891040e+00	-3.9883495373e+00
 3.8503173540e-01	 1.1130638151e+00	-3.2985309722e+00
 3.6555325482e-01	 1.1196121256e+00	-3.4024256671e+00
 3.4604517108e-01	 1.1257944899e+00	-3.5115683317e+00
 3.2651715764e-01	 1.1316125837e+00	-3.6135956535e+00
 3.0697874158e-01	 1.1370683999e+00	-3.7028872396e+00
 2.8743929183e-01	 1.1421642383e+00	-3.7731111188e+00
 3.8866411026e-01	 1.1235644172e+00	-3.1776196120e+00
 3.6900187043e-01	 1.1301745041e+00	-3.2674111306e+00
 3.4930974817e-01	 1.1364151926e+00	-3.3662962405e+00
 3.2959750818e-01	 1.1422881741e+00	-3.4588394482e+00
 3.0987476744e-01	 1.1477954603e+00	-3.5394879839e+00
 2.9015098326e-01	 1.1529393727e+00	-3.6019840216e+00
 3.9229648512e-01	 1.1340650192e+00	-3.1078684364e+00
 3.7245048604e-01	 1.1407368827e+00	-3.1826623507e+00
 3.5257432525e-01	 1.1470358953e+00	-3.2700155737e+00
 3.3267785872e-01	 1.1529637645e+00	-3.3519627868e+00
 3.1277079330e-01	 1.1585225207e+00	-3.4228699752e+00
 2.9286267469e-01	 1.1637145070e+00	-3.4765419018e+00
 3.9592885999e-01	 1.1445656212e+00	-3.0909726856e+00
 3.7589910165e-01	 1.1512992612e+00	-3.1506130552e+00
 3.5583890234e-01	 1.1576565981e+00	-3.2246604298e+00
 3.3575820927e-01	 1.1636393549e+00	-3.2947999350e+00
 3.1566681917e-01	 1.1692495810e+00	-3.3547495261e+00
 2.9557436612e-01	 1.1744896413e+00	-3.3983640912e+00
 3.9956123485e-01	 1.1550662233e+00	-3.1285333689e+00
 3.7934771726e-01	 1.1618616397e+00	-3.1729961350e+00
 3.5910347943e-01	 1.1682773008e+00	-3.2321267904e+00
 3.3883855981e-01	 1.1743149454e+00	-3.2891617675e+00
 3.1856284503e-01	 1.1799766414e+00	-3.3368331085e+00
 2.9828605755e-01	 1.1852647756e+00	-3.3690323957e+00
 2.8472760039e-01	 1.1313891040e+00	-3.9883495373e+00
 2.6538057394e-01	 1.1360828588e+00	-4.1175083859e+00
 2.4605057109e-01	 1.1404254590e+00	-4.2396325625e+00
 2.2674633885e-01	 1.1444200317e+00	-4.3460603842e+00
 2.0747642754e-01	 1.1480699644e+00	-4.4279374612e+00
 1.8824918264e-01	 1.1513788935e+00	-4.4763160109e+00
 2.8743929183e-01	 1.1421642383e+00	-3.7731111188e+00
 2.6790800798e-01	 1.1469026956e+00	-3.8906294471e+00
 2.4839390987e-01	 1.1512866539e+00	-4.0034311729e+00
 2.2890582779e-01	 1.1553192701e+00	-4.1028359522e+00
 2.0945239352e-01	 1.1590039640e+00	-4.1799820119e+00
 1.9004203199e-01	 1.1623444067e+00	-4.2259242003e+00
 2.9015098326e-01	 1.1529393727e+00	-3.6019840216e+00
 2.7043544202e-01	 1.1577225323e+00	-3.7057634855e+00
 2.5073724864e-01	 1.1621478487e+00	-3.8071414139e+00
 2.3106531673e-01	 1.1662185085e+00	-3.8974258868e+00
 2.1142835950e-01	 1.1699379637e+00	-3.9677597724e+00
 1.9183488135e-01	 1.1733099200e+00	-4.0092171413e+00
 2.9286267469e-01	 1.1637145070e+00	-3.4765419018e+00
 2.7296287606e-01	 1.1685423691e+00	-3.5643492836e+00
 2.5308058741e-01	 1.1730090436e+00	-3.6520494206e+00
 2.3322480567e-01	 1.1771177469e+00	-3.7309462393e+00
 2.1340432547e-01	 1.1808719634e+00	-3.7921999950e+00
 1.9362773071e-01	 1.1842754333e+00	-3.8269216555e+00
 2.9557436612e-01	 1.1744896413e+00	-3.3983640912e+00
 2.7549031009e-01	 1.1793622058e+00	-3.4678408836e+00
 2.5542392618e-01	 1.1838702384e+00	-3.5394648777e+00
 2.3538429461e-01	 1.1880169853e+00	-3.6045435974e+00
 2.1538029145e-01	 1.1918059630e+00	-3.6542681594e+00
 1.9542058007e-01	 1.1952409466e+00	-3.6798052056e+00
 2.9828605755e-01	 1.1852647756e+00	-3.3690323957e+00
 2.7801774413e-01	 1.1901820426e+00	-3.4177047052e+00
 2.5776726496e-01	 1.1947314333e+00	-3.4707184283e+00
 2.3754378355e-01	 1.1989162237e+00	-3.5193927577e+00
 2.1735625743e-01	 1.2027399627e+00	-3.5549638781e+00
 1.9721342943e-01	 1.2062064598e+00	-3.5686740072e+00
 1.8824918264e-01	 1.1513788935e+00	-4.4763160109e+00
 1.6907273719e-01	 1.1543506922e+00	-4.5428567796e+00
 1.4995500511e-01	 1.1569894587e+00	-4.6100658359e+00
 1.3090367504e-01	 1.1592995036e+00	-4.6678225111e+00
 1.1192620500e-01	 1.1612853378e+00	-4.7060637770e+00
 9.3029817740e-02	 1.1629516603e+00	-4.7148303640e+00
 1.9004203199e-01	 1.1623444067e+00	-4.2259242003e+00
 1.7068295374e-01	 1.1653445083e+00	-4.2886690895e+00
 1.5138314802e-01	 1.1680084059e+00	-4.3548705086e+00
 1.3215037671e-01	 1.1703404512e+00	-4.4143072602e+00
 1.1299216886e-01	 1.1723451981e+00	-4.4568115661e+00
 9.3915816004e-02	 1.1740273904e+00	-4.4723097701e+00
 1.9183488135e-01	 1.1733099200e+00	-4.0092171413e+00
 1.7229317028e-01	 1.1763383245e+00	-4.0649947757e+00
 1.5281129092e-01	 1.1790273532e+00	-4.1270921872e+00
 1.3339707837e-01	 1.1813813989e+00	-4.1852164153e+00
 1.1405813272e-01	 1.1834050585e+00	-4.2291259775e+00
 9.4801814268e-02	 1.1851031205e+00	-4.2486654738e+00
 1.9362773071e-01	 1.1842754333e+00	-3.8269216555e+00
 1.7390338683e-01	 1.1873321406e+00	-3.8723766892e+00
 1.5423943383e-01	 1.1900463004e+00	-3.9270773305e+00
 1.3464378004e-01	 1.1924223465e+00	-3.9806895674e+00
 1.1512409658e-01	 1.1944649189e+00	-4.0229314385e+00
 9.5687812532e-02	 1.1961788506e+00	-4.0436008195e+00
 1.9542058007e-01	 1.1952409466e+00	-3.6798052056e+00
 1.7551360337e-01	 1.1983259567e+00	-3.7114002939e+00
 1.5566757674e-01	 1.2010652476e+00	-3.7552157821e+00
 1.3589048171e-01	 1.2034632942e+00	-3.8009093232e+00
 1.1619006043e-01	 1.2055247792e+00	-3.8381939520e+00
 9.6573810797e-02	 1.2072545807e+00	-3.8568582936e+00
 1.9721342943e-01	 1.2062064598e+00	-3.5686740072e+00
 1.7712381992e-01	 1.2093197728e+00	-3.5826920102e+00
 1.5709571964e-01	 1.2120841948e+00	-3.6119393185e+00
 1.3713718338e-01	 1.2145042418e+00	-3.6461000313e+00
 1.1725602429e-01	 1.2165846396e+00	-3.6749199740e+00
 9.7459809061e-02	 1.2183303108e+00	-3.6882185278e+00
 9.3029817740e-02	 1.1629516603e+00	-4.7148303640e+00
 7.4221496688e-02	 1.1643033456e+00	-4.7486432363e+00
 5.5507982674e-02	 1.1653454316e+00	-4.7792369284e+00
 3.6895771226e-02	 1.1660831073e+00	-4.7954669136e+00
 1.8391110532e-02	 1.1665217007e+00	-4.7863733067e+00
 0.0000000000e+00	 1.1666666667e+00	-4.7412246058e+00
 9.3915816004e-02	 1.1740273904e+00	-4.4723097701e+00
 7.4928368085e-02	 1.1753919489e+00	-4.5058801238e+00
 5.6036630128e-02	 1.1764439595e+00	-4.5386876321e+00
 3.7247159524e-02	 1.1771886607e+00	-4.5593283399e+00
 1.8566263966e-02	 1.1776314312e+00	-4.5565528491e+00
 0.0000000000e+00	 1.1777777778e+00	-4.5193054432e+00
 9.4801814268e-02	 1.1851031205e+00	-4.2486654738e+00
 7.5635239482e-02	 1.1864805522e+00	-4.2786160866e+00
 5.6565277582e-02	 1.1875424874e+00	-4.3104957865e+00
 3.7598547821e-02	 1.1882942141e+00	-4.3326754728e+00
 1.8741417400e-02	 1.1887411616e+00	-4.3336493031e+00
 0.0000000000e+00	 1.1888888889e+00	-4.3020685554e+00
 9.5687812532e-02	 1.1961788506e+00	-4.0436008195e+00
 7.6342110879e-02	 1.1975691555e+00	-4.0663546633e+00
 5.7093925036e-02	 1.1986410154e+00	-4.0939643650e+00
 3.7949936119e-02	 1.1993997675e+00	-4.1146126598e+00
 1.8916570833e-02	 1.1998508921e+00	-4.1165730702e+00
 0.0000000000e+00	 1.2000000000e+00	-4.0882378199e+00
 9.6573810797e-02	 1.2072545807e+00	-3.8568582936e+00
 7.7048982276e-02	 1.2086577588e+00	-3.8686342887e+00
 5.7622572490e-02	 1.2097395433e+00	-3.8884261773e+00
 3.8301324416e-02	 1.2105053209e+00	-3.9042683113e+00
 1.9091724267e-02	 1.2109606226e+00	-3.9042522294e+00
 0.0000000000e+00	 1.2111111111e+00	-3.8765479015e+00
 9.7459809061e-02	 1.2183303108e+00	-3.6882185278e+00
 7.7755853673e-02	 1.2197463620e+00	-3.6850274409e+00
 5.8151219944e-02	 1.2208380712e+00	-3.6932431381e+00
 3.8652712713e-02	 1.2216108743e+00	-3.7007942680e+00
 1.9266877700e-02	 1.2220703531e+00	-3.6956319851e+00
 0.0000000000e+00	 1.2222222222e+00	-3.6657437621e+00
 1.2222222222e+00	 0.0000000000e+00	 3.3694259453e+00
 1.2220703531e+00	 1.9266877700e-02	 3.4082596442e+00
 1.2216108743e+00	 3.8652712713e-02	 3.4177773329e+00
 1.2208380712e+00	 5.8151219944e-02	 3.4056974007e+00
 1.2197463620e+00	 7.7755853673e-02	 3.3800330672e+00
 1.2183303108e+00	 9.7459809061e-02	 3.3490920627e+00
 1.2333333333e+00	 0.0000000000e+00	 3.4279284949e+00
 1.2331800836e+00	 1.9442031134e-02	 3.4600336320e+00
 1.2327164277e+00	 3.9004101011e-02	 3.4621713822e+00
 1.2319365991e+00	 5.8679867398e-02	 3.4420404627e+00
 1.2308349653e+00	 7.8462725070e-02	 3.4076041160e+00
 1.2294060409e+00	 9.8345807325e-02	 3.3670989303e+00
 1.2444444444e+00	 0.0000000000e+00	 3.4815409096e+00
 1.2442898141e+00	 1.9617184568e-02	 3.5099901302e+00
 1.2438219811e+00	 3.9355489308e-02	 3.5081057077e+00
 1.2430351270e+00	 5.9208514852e-02	 3.4835279540e+00
 1.2419235686e+00	 7.9169596467e-02	 3.4441286914e+00
 1.2404817710e+00	 9.9231805589e-02	 3.3980300330e+00
 1.2555555556e+00	 0.0000000000e+00	 3.5296974298e+00
 1.2553995445e+00	 1.9792338001e-02	 3.5576732683e+00
 1.2549275345e+00	 3.9706877606e-02	 3.5552460818e+00
 1.2541336550e+00	 5.9737162306e-02	 3.5299560700e+00
 1.2530121719e+00	 7.9876467864e-02	 3.4895391139e+00
 1.2515575011e+00	 1.0011780385e-01	 3.4419563750e+00
 1.2666666667e+00	 0.0000000000e+00	 3.5718377783e+00
 1.2665092750e+00	 1.9967491435e-02	 3.6026333682e+00
 1.2660330879e+00	 4.0058265903e-02	 3.6032652152e+00
 1.2652321829e+00	 6.0265809760e-02	 3.5811286190e+00
 1.2641007752e+00	 8.0583339261e-02	 3.5437758094e+00
 1.2626332311e+00	 1.0100380212e-01	 3.4989572656e+00
 1.2777777778e+00	 0.0000000000e+00	 3.6074069224e+00
 1.2776190055e+00	 2.0142644869e-02	 3.6444267055e+00
 1.2771386414e+00	 4.0409654200e-02	 3.6518425129e+00
 1.2763307108e+00	 6.0794457214e-02	 3.6368567656e+00
 1.2751893785e+00	 8.1290210658e-02	 3.6067870329e+00
 1.2737089612e+00	 1.0188980038e-01	 3.5691200143e+00
 1.2183303108e+00	 9.7459809061e-02	 3.3490920627e+00
 1.2165846396e+00	 1.1725602429e-01	 3.3825635865e+00
 1.2145042418e+00	 1.3713718338e-01	 3.3795953792e+00
 1.2120841948e+00	 1.5709571964e-01	 3.3487557521e+00
 1.2093197728e+00	 1.7712381992e-01	 3.2990128860e+00
 1.2062064598e+00	 1.9721342943e-01	 3.2397126097e+00
 1.2294060409e+00	 9.8345807325e-02	 3.3670989303e+00
 1.2276444999e+00	 1.1832198815e-01	 3.3912714464e+00
 1.2255451895e+00	 1.3838388504e-01	 3.3783279550e+00
 1.2231031421e+00	 1.5852386255e-01	 3.3367404159e+00
 1.2203135889e+00	 1.7873403646e-01	 3.2754016718e+00
 1.2171719731e+00	 1.9900627879e-01	 3.2036142683e+00
 1.2404817710e+00	 9.9231805589e-02	 3.3980300330e+00
 1.2387043603e+00	 1.1938795201e-01	 3.4166627363e+00
 1.2365861371e+00	 1.3963058671e-01	 3.3975690405e+00
 1.2341220893e+00	 1.5995200545e-01	 3.3490813742e+00
 1.2313074050e+00	 1.8034425301e-01	 3.2799760104e+00
 1.2281374864e+00	 2.0079912814e-01	 3.1994739485e+00
 1.2515575011e+00	 1.0011780385e-01	 3.4419563750e+00
 1.2497642207e+00	 1.2045391586e-01	 3.4589552661e+00
 1.2476270848e+00	 1.4087728838e-01	 3.4376796899e+00
 1.2451410365e+00	 1.6138014836e-01	 3.3862762880e+00
 1.2423012212e+00	 1.8195446955e-01	 3.3133605773e+00
 1.2391029996e+00	 2.0259197750e-01	 3.2280309641e+00
 1.2626332311e+00	 1.0100380212e-01	 3.4989572656e+00
 1.2608240810e+00	 1.2151987972e-01	 3.5183746420e+00
 1.2586680324e+00	 1.4212399004e-01	 3.4990277273e+00
 1.2561599837e+00	 1.6280829127e-01	 3.4488279379e+00
 1.2532950373e+00	 1.8356468610e-01	 3.3761827928e+00
 1.2500685129e+00	 2.0438482686e-01	 3.2900241788e+00
 1.2737089612e+00	 1.0188980038e-01	 3.5691200143e+00
 1.2718839414e+00	 1.2258584358e-01	 3.5951539343e+00
 1.2697089801e+00	 1.4337069171e-01	 3.5819873733e+00
 1.2671789310e+00	 1.6423643417e-01	 3.5372437965e+00
 1.2642888534e+00	 1.8517490264e-01	 3.4690723237e+00
 1.2610340262e+00	 2.0617767622e-01	 3.3861914201e+00
 1.2062064598e+00	 1.9721342943e-01	 3.2397126097e+00
 1.2027399627e+00	 2.1735625743e-01	 3.2646333078e+00
 1.1989162237e+00	 2.3754378355e-01	 3.2478698208e+00
 1.1947314333e+00	 2.5776726496e-01	 3.1993862478e+00
 1.1901820426e+00	 2.7801774413e-01	 3.1293633826e+00
 1.1852647756e+00	 2.9828605755e-01	 3.0480461123e+00
 1.2171719731e+00	 1.9900627879e-01	 3.2036142683e+00
 1.2136739624e+00	 2.1933222340e-01	 3.2199833315e+00
 1.2098154621e+00	 2.3970327250e-01	 3.1929842189e+00
 1.2055926281e+00	 2.6011060373e-01	 3.1326872666e+00
 1.2010018793e+00	 2.8054517817e-01	 3.0494501003e+00
 1.1960399100e+00	 3.0099774899e-01	 2.9537699290e+00
 1.2281374864e+00	 2.0079912814e-01	 3.1994739485e+00
 1.2246079620e+00	 2.2130818938e-01	 3.2109915912e+00
 1.2207147005e+00	 2.4186276144e-01	 3.1773523625e+00
 1.2164538230e+00	 2.6245394250e-01	 3.1087096089e+00
 1.2118217161e+00	 2.8307261221e-01	 3.0155812962e+00
 1.2068150443e+00	 3.0370944042e-01	 2.9087079707e+00
 1.2391029996e+00	 2.0259197750e-01	 3.2280309641e+00
 1.2355419617e+00	 2.2328415536e-01	 3.2384966004e+00
 1.2316139389e+00	 2.4402225038e-01	 3.2018943177e+00
 1.2273150178e+00	 2.6479728127e-01	 3.1284352669e+00
 1.2226415528e+00	 2.8560004624e-01	 3.0287796487e+00
 1.2175901786e+00	 3.0642113185e-01	 2.9139011551e+00
 1.2500685129e+00	 2.0438482686e-01	 3.2900241788e+00
 1.2464759613e+00	 2.2526012133e-01	 3.3033323370e+00
 1.2425131773e+00	 2.4618173932e-01	 3.2675205561e+00
 1.2381762126e+00	 2.6714062005e-01	 3.1928305376e+00
 1.2334613896e+00	 2.8812748028e-01	 3.0900449389e+00
 1.2283653129e+00	 3.0913282328e-01	 2.9703591549e+00
 1.2610340262e+00	 2.0617767622e-01	 3.3861914201e+00
 1.2574099610e+00	 2.2723608731e-01	 3.4063275503e+00
 1.2534124157e+00	 2.4834122826e-01	 3.3751311344e+00
 1.2490374075e+00	 2.6948395882e-01	 3.3028450521e+00
 1.2442812263e+00	 2.9065491432e-01	 3.2003529087e+00
 1.2391404473e+00	 3.1184451472e-01	 3.0790590604e+00
 1.1852647756e+00	 2.9828605755e-01	 3.0480461123e+00
 1.1799766414e+00	 3.1856284503e-01	 3.0259912141e+00
 1.1743149454e+00	 3.3883855981e-01	 2.9868385874e+00
 1.1682773008e+00	 3.5910347943e-01	 2.9397446091e+00
 1.1618616397e+00	 3.7934771726e-01	 2.8972249033e+00
 1.1550662233e+00	 3.9956123485e-01	 2.8960265180e+00
 1.1960399100e+00	 3.0099774899e-01	 2.9537699290e+00
 1.1907037018e+00	 3.2145887090e-01	 2.9200023560e+00
 1.1849905358e+00	 3.4191891035e-01	 2.8689544183e+00
 1.1788980035e+00	 3.6236805651e-01	 2.8102186590e+00
 1.1724240183e+00	 3.8279633288e-01	 2.7602901883e+00
 1.1655668253e+00	 4.0319360971e-01	 2.7541316737e+00
 1.2068150443e+00	 3.0370944042e-01	 2.9087079707e+00
 1.2014307622e+00	 3.2435489676e-01	 2.8657367225e+00
 1.1956661262e+00	 3.4499926090e-01	 2.8051497526e+00
 1.1895187063e+00	 3.6563263360e-01	 2.7369933253e+00
 1.1829863968e+00	 3.8624494849e-01	 2.6824365556e+00
 1.1760674273e+00	 4.0682598457e-01	 2.6723097926e+00
 1.2175901786e+00	 3.0642113185e-01	 2.9139011551e+00
 1.2121578225e+00	 3.2725092262e-01	 2.8642437110e+00
 1.2063417166e+00	 3.4807961144e-01	 2.7964591476e+00
 1.2001394090e+00	 3.6889721068e-01	 2.7210652161e+00
 1.1935487754e+00	 3.8969356410e-01	 2.6643448657e+00
 1.1865680293e+00	 4.1045835944e-01	 2.6510815247e+00
 1.2283653129e+00	 3.0913282328e-01	 2.9703591549e+00
 1.2228848829e+00	 3.3014694849e-01	 2.9165314756e+00
 1.2170173070e+00	 3.5115996199e-01	 2.8438647188e+00
 1.2107601117e+00	 3.7216178777e-01	 2.7635088335e+00
 1.2041111539e+00	 3.9314217971e-01	 2.7066054829e+00
 1.1970686314e+00	 4.1409073430e-01	 2.6908750632e+00
 1.2391404473e+00	 3.1184451472e-01	 3.0790590604e+00
 1.2336119433e+00	 3.3304297435e-01	 3.0235653925e+00
 1.2276928974e+00	 3.5424031253e-01	 2.9482943825e+00
 1.2213808145e+00	 3.7542636485e-01	 2.8658136150e+00
 1.2146735325e+00	 3.9659079532e-01	 2.8097210997e+00
 1.2075692334e+00	 4.1772310916e-01	 2.7920293116e+00
 1.1550662233e+00	 3.9956123485e-01	 2.8960265180e+00
 1.1478896513e+00	 4.1973385481e-01	 2.6780064815e+00
 1.1403308722e+00	 4.3985527449e-01	 2.5273708373e+00
 1.1323891908e+00	 4.5991508028e-01	 2.4413548288e+00
 1.1240642771e+00	 4.7990276243e-01	 2.4164082175e+00
 1.1153561732e+00	 4.9980773053e-01	 2.4480603476e+00
 1.1655668253e+00	 4.0319360971e-01	 2.7541316737e+00
 1.1583250118e+00	 4.2354961712e-01	 2.5276639797e+00
 1.1506975164e+00	 4.4385395881e-01	 2.3727200304e+00
 1.1426836380e+00	 4.6409612647e-01	 2.2867949290e+00
 1.1342830433e+00	 4.8426551481e-01	 2.2665920051e+00
 1.1254957747e+00	 5.0435143717e-01	 2.3078801537e+00
 1.1760674273e+00	 4.0682598457e-01	 2.6723097926e+00
 1.1687603723e+00	 4.2736537944e-01	 2.4373637607e+00
 1.1610641607e+00	 4.4785264312e-01	 2.2777083295e+00
 1.1529780852e+00	 4.6827717265e-01	 2.1911420963e+00
 1.1445018094e+00	 4.8862826720e-01	 2.1746653224e+00
 1.1356353763e+00	 5.0889514381e-01	 2.2243293390e+00
 1.1865680293e+00	 4.1045835944e-01	 2.6510815247e+00
 1.1791957327e+00	 4.3118114175e-01	 2.4074804001e+00
 1.1714308050e+00	 4.5185132743e-01	 2.2425633459e+00
 1.1632725324e+00	 4.7245821883e-01	 2.1544770206e+00
 1.1547205756e+00	 4.9299101958e-01	 2.1405627719e+00
 1.1457749779e+00	 5.1343885045e-01	 2.1971979068e+00
 1.1970686314e+00	 4.1409073430e-01	 2.6908750632e+00
 1.1896310932e+00	 4.3499690407e-01	 2.4382938584e+00
 1.1817974493e+00	 4.5585001175e-01	 2.2674162599e+00
 1.1735669795e+00	 4.7663926502e-01	 2.1767824530e+00
 1.1649393417e+00	 4.9735377197e-01	 2.1641197780e+00
 1.1559145795e+00	 5.1798255710e-01	 2.2261756656e+00
 1.2075692334e+00	 4.1772310916e-01	 2.7920293116e+00
 1.2000664537e+00	 4.3881266639e-01	 2.5299930308e+00
 1.1921640936e+00	 4.5984869606e-01	 2.3523057662e+00
 1.1838614267e+00	 4.8082031120e-01	 2.2579475602e+00
 1.1751581079e+00	 5.0171652436e-01	 2.2450773620e+00
 1.1660541810e+00	 5.2252626374e-01	 2.3108574325e+00
 1.1153561732e+00	 4.9980773053e-01	 2.4480603476e+00
 1.1062652995e+00	 5.1961932952e-01	 2.2004468403e+00
 1.0967924611e+00	 5.3932685614e-01	 2.0292527571e+00
 1.0869388521e+00	 5.5891957587e-01	 1.9117434544e+00
 1.0767060598e+00	 5.7838674023e-01	 1.8327381885e+00
 1.0660960678e+00	 5.9771760450e-01	 1.7774737387e+00
 1.1254957747e+00	 5.0435143717e-01	 2.3078801537e+00
 1.1163222568e+00	 5.2434314161e-01	 2.0426649016e+00
 1.1067633017e+00	 5.4422982756e-01	 1.8976798019e+00
 1.0968201144e+00	 5.6400066292e-01	 1.8067220931e+00
 1.0864942967e+00	 5.8364480150e-01	 1.7437839094e+00
 1.0757878502e+00	 6.0315140091e-01	 1.6940706665e+00
 1.1356353763e+00	 5.0889514381e-01	 2.2243293390e+00
 1.1263792140e+00	 5.2906695370e-01	 1.9375430942e+00
 1.1167341422e+00	 5.4913279898e-01	 1.7681776825e+00
 1.1067013767e+00	 5.6908174997e-01	 1.6991573356e+00
 1.0962825336e+00	 5.8890286278e-01	 1.6600933348e+00
 1.0854796327e+00	 6.0858519731e-01	 1.6239366010e+00
 1.1457749779e+00	 5.1343885045e-01	 2.1971979068e+00
 1.1364361713e+00	 5.3379076578e-01	 1.8938625666e+00
 1.1267049828e+00	 5.5403577040e-01	 1.6979319756e+00
 1.1165826390e+00	 5.7416283703e-01	 1.6005206524e+00
 1.1060707705e+00	 5.9416092405e-01	 1.5817094496e+00
 1.0951714151e+00	 6.1401899372e-01	 1.5669227652e+00
 1.1559145795e+00	 5.1798255710e-01	 2.2261756656e+00
 1.1464931286e+00	 5.3851457787e-01	 1.9109953516e+00
 1.1366758233e+00	 5.5893874182e-01	 1.6933355371e+00
 1.1264639013e+00	 5.7924392408e-01	 1.5651843556e+00
 1.1158590074e+00	 5.9941898533e-01	 1.5167879969e+00
 1.1048631975e+00	 6.1945279012e-01	 1.5228175117e+00
 1.1660541810e+00	 5.2252626374e-01	 2.3108574325e+00
 1.1565500858e+00	 5.4323838996e-01	 1.9882241433e+00
 1.1466466639e+00	 5.6384171324e-01	 1.7533541298e+00
 1.1363451636e+00	 5.8432501113e-01	 1.5991434873e+00
 1.1256472443e+00	 6.0467704660e-01	 1.5167537769e+00
 1.1145549800e+00	 6.2488658652e-01	 1.4954656965e+00
 1.0660960678e+00	 5.9771760450e-01	 1.7774737387e+00
 1.0551112580e+00	 6.1690144564e-01	 1.6483029537e+00
 1.0437544121e+00	 6.3592758050e-01	 1.5229363046e+00
 1.0320287114e+00	 6.5478538417e-01	 1.3869892684e+00
 1.0199377362e+00	 6.7346430850e-01	 1.2267487071e+00
 1.0074854639e+00	 6.9195390060e-01	 1.0292386902e+00
 1.0757878502e+00	 6.0315140091e-01	 1.6940706665e+00
 1.0647031786e+00	 6.2250964060e-01	 1.5495959345e+00
 1.0532430886e+00	 6.4170874032e-01	 1.4114117428e+00
 1.0414107906e+00	 6.6073797857e-01	 1.2644169187e+00
 1.0292098974e+00	 6.7958671131e-01	 1.0941904310e+00
 1.0166444226e+00	 6.9824439061e-01	 8.8705513098e-01
 1.0854796327e+00	 6.0858519731e-01	 1.6239366010e+00
 1.0742950991e+00	 6.2811783556e-01	 1.4640242732e+00
 1.0627317651e+00	 6.4748990014e-01	 1.3128197938e+00
 1.0507928698e+00	 6.6669057297e-01	 1.1545105452e+00
 1.0384820586e+00	 6.8570911411e-01	 9.7397292866e-01
 1.0258033814e+00	 7.0453488062e-01	 7.5683356753e-01
 1.0951714151e+00	 6.1401899372e-01	 1.5669227652e+00
 1.0838870196e+00	 6.3372603052e-01	 1.3914643127e+00
 1.0722204416e+00	 6.5327105997e-01	 1.2270660503e+00
 1.0601749490e+00	 6.7264316738e-01	 1.0572104775e+00
 1.0477542199e+00	 6.9183151692e-01	 8.6607807476e-01
 1.0349623402e+00	 7.1082537062e-01	 6.3860548338e-01
 1.1048631975e+00	 6.1945279012e-01	 1.5228175117e+00
 1.0934789402e+00	 6.3933422548e-01	 1.3317204523e+00
 1.0817091180e+00	 6.5905221979e-01	 1.1539752830e+00
 1.0695570282e+00	 6.7859576178e-01	 9.7236761686e-01
 1.0570263811e+00	 6.9795391972e-01	 7.7039005468e-01
 1.0441212989e+00	 7.1711586063e-01	 5.3229683071e-01
 1.1145549800e+00	 6.2488658652e-01	 1.4954656965e+00
 1.1030708607e+00	 6.4494242044e-01	 1.2845201673e+00
 1.0911977945e+00	 6.6483337961e-01	 1.0932863495e+00
 1.0789391074e+00	 6.8454835618e-01	 8.9973824277e-01
 1.0662985424e+00	 7.0407632253e-01	 6.8669008099e-01
 1.0532802577e+00	 7.2340635063e-01	 4.3772266781e-01
 1.0074854639e+00	 6.9195390060e-01	 1.0292386902e+00
 9.9467626628e-01	 7.1024382136e-01	 1.0603323768e+00
 9.8151490554e-01	 7.2832386388e-01	 1.0263742433e+00
 9.6800652930e-01	 7.4618397177e-01	 9.1644395623e-01
 9.5415666481e-01	 7.6381425719e-01	 6.8764629664e-01
 9.3997121195e-01	 7.8120501867e-01	 3.3777800570e-01
 1.0166444226e+00	 6.9824439061e-01	 8.8705513098e-01
 1.0037187778e+00	 7.1670058338e-01	 9.3067587437e-01
 9.9043776832e-01	 7.3494498992e-01	 9.0852628559e-01
 9.7680658866e-01	 7.5296746242e-01	 7.9771652345e-01
 9.6283081631e-01	 7.7075802316e-01	 5.5499886169e-01
 9.4851640479e-01	 7.8830688248e-01	 1.9024120895e-01
 1.0258033814e+00	 7.0453488062e-01	 7.5683356753e-01
 1.0127612893e+00	 7.2315734539e-01	 8.1598445114e-01
 9.9936063109e-01	 7.4156611595e-01	 8.0852875745e-01
 9.8560664802e-01	 7.5975095307e-01	 6.8934473343e-01
 9.7150496781e-01	 7.7770178914e-01	 4.3340988509e-01
 9.5706159762e-01	 7.9540874628e-01	 5.4356168687e-02
 1.0349623402e+00	 7.1082537062e-01	 6.3860548338e-01
 1.0218038008e+00	 7.2961410740e-01	 7.1625733485e-01
 1.0082834939e+00	 7.4818724199e-01	 7.2029645509e-01
 9.9440670737e-01	 7.6653444372e-01	 5.9005963770e-01
 9.8017911931e-01	 7.8464555511e-01	 3.2161302461e-01
 9.6560679046e-01	 8.0251061009e-01	-7.1149930527e-02
 1.0441212989e+00	 7.1711586063e-01	 5.3229683071e-01
 1.0308463123e+00	 7.3607086941e-01	 6.3138406322e-01
 1.0172063566e+00	 7.5480836802e-01	 6.3905533447e-01
 1.0032067667e+00	 7.7331793438e-01	 4.9859973342e-01
 9.8885327081e-01	 7.9158932109e-01	 2.1835052440e-01
 9.7415198329e-01	 8.0961247390e-01	-1.8754108137e-01
 1.0532802577e+00	 7.2340635063e-01	 4.3772266781e-01
 1.0398888238e+00	 7.4252763142e-01	 5.6073090799e-01
 1.0261292194e+00	 7.6142949406e-01	 5.6354137496e-01
 1.0120068261e+00	 7.8010142503e-01	 4.1371693167e-01
 9.9752742231e-01	 7.9853308706e-01	 1.2237910250e-01
 9.8269717613e-01	 8.1671433770e-01	-2.9606666881e-01
 9.3997121195e-01	 7.8120501867e-01	 3.3777800570e-01
 9.2545643528e-01	 7.9834675855e-01	 3.8278324591e-01
 9.1061895519e-01	 8.1523019997e-01	 3.3571341459e-01
 8.9546573796e-01	 8.3184630349e-01	 2.1829956616e-01
 8.8000408506e-01	 8.4818628306e-01	 5.3540162309e-02
 8.6424162145e-01	 8.6424162145e-01	-1.3472342160e-01
 9.4851640479e-01	 7.8830688248e-01	 1.9024120895e-01
 9.3386967561e-01	 8.0560445635e-01	 2.4470432044e-01
 9.1889730933e-01	 8.2264138361e-01	 2.0479231853e-01
 9.0360633558e-01	 8.3940854261e-01	 9.2660217801e-02
 8.8800412220e-01	 8.5589706745e-01	-6.8190098901e-02
 8.7209836346e-01	 8.7209836346e-01	-2.5335631147e-01
 9.5706159762e-01	 7.9540874628e-01	 5.4356168687e-02
 9.4228291593e-01	 8.1286215416e-01	 1.1709119411e-01
 9.2717566346e-01	 8.3005256724e-01	 8.3094417086e-02
 9.1174693320e-01	 8.4697078174e-01	-2.5035300055e-02
 8.9600415934e-01	 8.6360785184e-01	-1.8326738898e-01
 8.7995510548e-01	 8.7995510548e-01	-3.6660902110e-01
 9.6560679046e-01	 8.0251061009e-01	-7.1149930527e-02
 9.5069615625e-01	 8.2011985196e-01	-1.2995086824e-03
 9.3545401760e-01	 8.3746375088e-01	-3.0602829981e-02
 9.1988753081e-01	 8.5453302086e-01	-1.3599610876e-01
 9.0400419648e-01	 8.7131863623e-01	-2.9289334264e-01
 8.8781184749e-01	 8.8781184749e-01	-4.7567989173e-01
 9.7415198329e-01	 8.0961247390e-01	-1.8754108137e-01
 9.5910939657e-01	 8.2737754977e-01	-1.1170453705e-01
 9.4373237174e-01	 8.4487493452e-01	-1.3751832801e-01
 9.2802812843e-01	 8.6209525998e-01	-2.4143142505e-01
 9.1200423361e-01	 8.7902942062e-01	-3.9827409184e-01
 8.9566858950e-01	 8.9566858950e-01	-5.8177675866e-01
 9.8269717613e-01	 8.1671433770e-01	-2.9606666881e-01
 9.6752263689e-01	 8.3463524757e-01	-2.1534828462e-01
 9.5201072588e-01	 8.5228611815e-01	-2.3886169620e-01
 9.3616872605e-01	 8.6965749910e-01	-3.4254500836e-01
 9.2000427075e-01	 8.8674020501e-01	-5.0061483118e-01
 9.0352533152e-01	 9.0352533152e-01	-6.8611165318e-01
 8.6424162145e-01	 8.6424162145e-01	-1.3472342160e-01
 8.4818628306e-01	 8.8000408506e-01	-2.9916419265e-01
 8.3184630349e-01	 8.9546573796e-01	-4.4965917737e-01
 8.1523019997e-01	 9.1061895519e-01	-5.6243330200e-01
 7.9834675855e-01	 9.2545643528e-01	-6.1469027517e-01
 7.8120501867e-01	 9.3997121195e-01	-5.8507383194e-01
 8.7209836346e-01	 8.7209836346e-01	-2.5335631147e-01
 8.5589706745e-01	 8.8800412220e-01	-4.1359164767e-01
 8.3940854261e-01	 9.0360633558e-01	-5.5855754843e-01
 8.2264138361e-01	 9.1889730933e-01	-6.6393551444e-01
 8.0560445635e-01	 9.3386967561e-01	-7.0643144481e-01
 7.8830688248e-01	 9.4851640479e-01	-6.6426253308e-01
 8.7995510548e-01	 8.7995510548e-01	-3.6660902110e-01
 8.6360785184e-01	 8.9600415934e-01	-5.2421649266e-01
 8.4697078174e-01	 9.1174693320e-01	-6.6516250867e-01
 8.3005256724e-01	 9.2717566346e-01	-7.6454950394e-01
 8.1286215416e-01	 9.4228291593e-01	-7.9855072581e-01
 7.9540874628e-01	 9.5706159762e-01	-7.4492414956e-01
 8.8781184749e-01	 8.8781184749e-01	-4.7567989173e-01
 8.7131863623e-01	 9.0400419648e-01	-6.3222658162e-01
 8.5453302086e-01	 9.1988753081e-01	-7.7065111369e-01
 8.3746375088e-01	 9.3545401760e-01	-8.6543901811e-01
 8.2011985196e-01	 9.5069615625e-01	-8.9219379889e-01
 8.0251061009e-01	 9.6560679046e-01	-8.2817929171e-01
 8.9566858950e-01	 8.9566858950e-01	-5.8177675866e-01
 8.7902942062e-01	 9.1200423361e-01	-7.3882510101e-01
 8.6209525998e-01	 9.2802812843e-01	-8.7622202458e-01
 8.4487493452e-01	 9.4373237174e-01	-9.6779602024e-01
 8.2737754977e-01	 9.5910939657e-01	-9.8854140626e-01
 8.0961247390e-01	 9.7415198329e-01	-9.1519060899e-01
 9.0352533152e-01	 9.0352533152e-01	-6.8611165318e-01
 8.8674020501e-01	 9.2000427075e-01	-8.4522541062e-01
 8.6965749910e-01	 9.3616872605e-01	-9.8309050221e-01
 8.5228611815e-01	 9.5201072588e-01	-1.0728358499e+00
 8.3463524757e-01	 9.6752263689e-01	-1.0888046899e+00
 8.1671433770e-01	 9.8269717613e-01	-1.0071583152e+00
 7.8120501867e-01	 9.3997121195e-01	-5.8507383194e-01
 7.6381425719e-01	 9.5415666481e-01	-8.9786541141e-01
 7.4618397177e-01	 9.6800652930e-01	-1.1253495977e+00
 7.2832386388e-01	 9.8151490554e-01	-1.2617811369e+00
 7.1024382136e-01	 9.9467626628e-01	-1.3235589125e+00
 6.9195390060e-01	 1.0074854639e+00	-1.3179317010e+00
 7.8830688248e-01	 9.4851640479e-01	-6.6426253308e-01
 7.7075802316e-01	 9.6283081631e-01	-9.8472483881e-01
 7.5296746242e-01	 9.7680658866e-01	-1.2172867160e+00
 7.3494498992e-01	 9.9043776832e-01	-1.3507528407e+00
 7.1670058338e-01	 1.0037187778e+00	-1.4001244018e+00
 6.9824439061e-01	 1.0166444226e+00	-1.3773968630e+00
 7.9540874628e-01	 9.5706159762e-01	-7.4492414956e-01
 7.7770178914e-01	 9.7150496781e-01	-1.0712586703e+00
 7.5975095307e-01	 9.8560664802e-01	-1.3068622352e+00
 7.4156611595e-01	 9.9936063109e-01	-1.4386752250e+00
 7.2315734539e-01	 1.0127612893e+00	-1.4728030644e+00
 7.0453488062e-01	 1.0258033814e+00	-1.4298861674e+00
 8.0251061009e-01	 9.6560679046e-01	-8.2817929171e-01
 7.8464555511e-01	 9.8017911931e-01	-1.1586247442e+00
 7.6653444372e-01	 9.9440670737e-01	-1.3952602974e+00
 7.4818724199e-01	 1.0082834939e+00	-1.5246281331e+00
 7.2961410740e-01	 1.0218038008e+00	-1.5431810379e+00
 7.1082537062e-01	 1.0349623402e+00	-1.4769714834e+00
 8.0961247390e-01	 9.7415198329e-01	-9.1519060899e-01
 7.9158932109e-01	 9.8885327081e-01	-1.2480274343e+00
 7.7331793438e-01	 1.0032067667e+00	-1.4837159880e+00
 7.5480836802e-01	 1.0172063566e+00	-1.6083819813e+00
 7.3607086941e-01	 1.0308463123e+00	-1.6128671969e+00
 7.1711586063e-01	 1.0441212989e+00	-1.5202456556e+00
 8.1671433770e-01	 9.8269717613e-01	-1.0071583152e+00
 7.9853308706e-01	 9.9752742231e-01	-1.3407134788e+00
 7.8010142503e-01	 1.0120068261e+00	-1.5735114739e+00
 7.6142949406e-01	 1.0261292194e+00	-1.6912410640e+00
 7.4252763142e-01	 1.0398888238e+00	-1.6833156388e+00
 7.2340635063e-01	 1.0532802577e+00	-1.5613216490e+00
 6.9195390060e-01	 1.0074854639e+00	-1.3179317010e+00
 6.7346430850e-01	 1.0199377362e+00	-1.4679624719e+00
 6.5478538417e-01	 1.0320287114e+00	-1.6014862969e+00
 6.3592758050e-01	 1.0437544121e+00	-1.7302725279e+00
 6.1690144564e-01	 1.0551112580e+00	-1.8670859366e+00
 5.9771760450e-01	 1.0660960678e+00	-2.0255201183e+00
 6.9824439061e-01	 1.0166444226e+00	-1.3773968630e+00
 6.7958671131e-01	 1.0292098974e+00	-1.5251535917e+00
 6.6073797857e-01	 1.0414107906e+00	-1.6541926091e+00
 6.4170874032e-01	 1.0532430886e+00	-1.7772551610e+00
 6.2250964060e-01	 1.0647031786e+00	-1.9081115412e+00
 6.0315140091e-01	 1.0757878502e+00	-2.0613864548e+00
 7.0453488062e-01	 1.0258033814e+00	-1.4298861674e+00
 6.8570911411e-01	 1.0384820586e+00	-1.5773119505e+00
 6.6669057297e-01	 1.0507928698e+00	-1.7035904042e+00
 6.4748990014e-01	 1.0627317651e+00	-1.8224497224e+00
 6.2811783556e-01	 1.0742950991e+00	-1.9486819758e+00
 6.0858519731e-01	 1.0854796327e+00	-2.0979602652e+00
 7.1082537062e-01	 1.0349623402e+00	-1.4769714834e+00
 6.9183151692e-01	 1.0477542199e+00	-1.6258514958e+00
 6.7264316738e-01	 1.0601749490e+00	-1.7509323522e+00
 6.5327105997e-01	 1.0722204416e+00	-1.8669447725e+00
 6.3372603052e-01	 1.0838870196e+00	-1.9897193777e+00
 6.1401899372e-01	 1.0951714151e+00	-2.1359954638e+00
 7.1711586063e-01	 1.0441212989e+00	-1.5202456556e+00
 6.9795391972e-01	 1.0570263811e+00	-1.6722103020e+00
 6.7859576178e-01	 1.0695570282e+00	-1.7974984028e+00
 6.5905221979e-01	 1.0817091180e+00	-1.9118592986e+00
 6.3933422548e-01	 1.0934789402e+00	-2.0321794456e+00
 6.1945279012e-01	 1.1048631975e+00	-2.1762826368e+00
 7.2340635063e-01	 1.0532802577e+00	-1.5613216490e+00
 7.0407632253e-01	 1.0662985424e+00	-1.7178495815e+00
 6.8454835618e-01	 1.0789391074e+00	-1.8445946679e+00
 6.6483337961e-01	 1.0911977945e+00	-1.9583414739e+00
 6.4494242044e-01	 1.1030708607e+00	-2.0770500781e+00
 6.2488658652e-01	 1.1145549800e+00	-2.2243548704e+00
 5.9771760450e-01	 1.0660960678e+00	-2.0255201183e+00
 5.7838674023e-01	 1.0767060598e+00	-2.1004239533e+00
 5.5891957587e-01	 1.0869388521e+00	-2.1843418007e+00
 5.3932685614e-01	 1.0967924611e+00	-2.2927789478e+00
 5.1961932952e-01	 1.1062652995e+00	-2.4415058752e+00
 4.9980773053e-01	 1.1153561732e+00	-2.6542116463e+00
 6.0315140091e-01	 1.0757878502e+00	-2.0613864548e+00
 5.8364480150e-01	 1.0864942967e+00	-2.1192297653e+00
 5.6400066292e-01	 1.0968201144e+00	-2.1720889852e+00
 5.4422982756e-01	 1.1067633017e+00	-2.2357389701e+00
 5.2434314161e-01	 1.1163222568e+00	-2.3380181541e+00
 5.0435143717e-01	 1.1254957747e+00	-2.5498304015e+00
 6.0858519731e-01	 1.0854796327e+00	-2.0979602652e+00
 5.8890286278e-01	 1.0962825336e+00	-2.1307588897e+00
 5.6908174997e-01	 1.1067013767e+00	-2.1447625859e+00
 5.4913279898e-01	 1.1167341422e+00	-2.1695645026e+00
 5.2906695370e-01	 1.1263792140e+00	-2.2817377955e+00
 5.0889514381e-01	 1.1356353763e+00	-2.4977331692e+00
 6.1401899372e-01	 1.0951714151e+00	-2.1359954638e+00
 5.9416092405e-01	 1.1060707705e+00	-2.1358345179e+00
 5.7416283703e-01	 1.1165826390e+00	-2.1158227102e+00
 5.5403577040e-01	 1.1267049828e+00	-2.1583643237e+00
 5.3379076578e-01	 1.1364361713e+00	-2.2834834236e+00
 5.1343885045e-01	 1.1457749779e+00	-2.4988329494e+00
 6.1945279012e-01	 1.1048631975e+00	-2.1762826368e+00
 5.9941898533e-01	 1.1158590074e+00	-2.1445508190e+00
 5.7924392408e-01	 1.1264639013e+00	-2.1470976733e+00
 5.5893874182e-01	 1.1366758233e+00	-2.2105369718e+00
 5.3851457787e-01	 1.1464931286e+00	-2.3438076151e+00
 5.1798255710e-01	 1.1559145795e+00	-2.5539322910e+00
 6.2488658652e-01	 1.1145549800e+00	-2.2243548704e+00
 6.0467704660e-01	 1.1256472443e+00	-2.2162174918e+00
 5.8432501113e-01	 1.1363451636e+00	-2.2467291397e+00
 5.6384171324e-01	 1.1466466639e+00	-2.3262789296e+00
 5.4323838996e-01	 1.1565500858e+00	-2.4631575734e+00
 5.2252626374e-01	 1.1660541810e+00	-2.6637261932e+00
 4.9980773053e-01	 1.1153561732e+00	-2.6542116463e+00
 4.7990276243e-01	 1.1240642771e+00	-2.6588662046e+00
 4.5991508028e-01	 1.1323891908e+00	-2.7063665912e+00
 4.3985527449e-01	 1.1403308722e+00	-2.7994245356e+00
 4.1973385481e-01	 1.1478896513e+00	-2.9398156058e+00
 3.9956123485e-01	 1.1550662233e+00	-3.1285333689e+00
 5.0435143717e-01	 1.1254957747e+00	-2.5498304015e+00
 4.8426551481e-01	 1.1342830433e+00	-2.5285464966e+00
 4.6409612647e-01	 1.1426836380e+00	-2.5534339480e+00
 4.4385395881e-01	 1.1506975164e+00	-2.6272479974e+00
 4.2354961712e-01	 1.1583250118e+00	-2.7517749349e+00
 4.0319360971e-01	 1.1655668253e+00	-2.9279948836e+00
 5.0889514381e-01	 1.1356353763e+00	-2.4977331692e+00
 4.8862826720e-01	 1.1445018094e+00	-2.4532275602e+00
 4.6827717265e-01	 1.1529780852e+00	-2.4580288770e+00
 4.4785264312e-01	 1.1610641607e+00	-2.5148952191e+00
 4.2736537944e-01	 1.1687603723e+00	-2.6255825216e+00
 4.0682598457e-01	 1.1760674273e+00	-2.7910163077e+00
 5.1343885045e-01	 1.1457749779e+00	-2.4988329494e+00
 4.9299101958e-01	 1.1547205756e+00	-2.4338678019e+00
 4.7245821883e-01	 1.1632725324e+00	-2.4211585773e+00
 4.5185132743e-01	 1.1714308050e+00	-2.4634246136e+00
 4.3118114175e-01	 1.1791957327e+00	-2.5623493750e+00
 4.1045835944e-01	 1.1865680293e+00	-2.7187615174e+00
 5.1798255710e-01	 1.1559145795e+00	-2.5539322910e+00
 4.9735377197e-01	 1.1649393417e+00	-2.4713205458e+00
 4.7663926502e-01	 1.1735669795e+00	-2.4437306788e+00
 4.5585001175e-01	 1.1817974493e+00	-2.4738006912e+00
 4.3499690407e-01	 1.1896310932e+00	-2.5630984257e+00
 4.1409073430e-01	 1.1970686314e+00	-2.7123122943e+00
 5.2252626374e-01	 1.1660541810e+00	-2.6637261932e+00
 5.0171652436e-01	 1.1751581079e+00	-2.5663366101e+00
 4.8082031120e-01	 1.1838614267e+00	-2.5265554998e+00
 4.5984869606e-01	 1.1921640936e+00	-2.5468960048e+00
 4.3881266639e-01	 1.2000664537e+00	-2.6287661668e+00
 4.1772310916e-01	 1.2075692334e+00	-2.7726696705e+00
 3.9956123485e-01	 1.1550662233e+00	-3.1285333689e+00
 3.7934771726e-01	 1.1618616397e+00	-3.1729961350e+00
 3.5910347943e-01	 1.1682773008e+00	-3.2321267904e+00
 3.3883855981e-01	 1.1743149454e+00	-3.2891617675e+00
 3.1856284503e-01	 1.1799766414e+00	-3.3368331085e+00
 2.9828605755e-01	 1.1852647756e+00	-3.3690323957e+00
 4.0319360971e-01	 1.1655668253e+00	-2.9279948836e+00
 3.8279633288e-01	 1.1724240183e+00	-2.9624163567e+00
 3.6236805651e-01	 1.1788980035e+00	-3.0140162113e+00
 3.4191891035e-01	 1.1849905358e+00	-3.0687542074e+00
 3.2145887090e-01	 1.1907037018e+00	-3.1181651440e+00
 3.0099774899e-01	 1.1960399100e+00	-3.1559643969e+00
 4.0682598457e-01	 1.1760674273e+00	-2.7910163077e+00
 3.8624494849e-01	 1.1829863968e+00	-2.8142017830e+00
 3.6563263360e-01	 1.1895187063e+00	-2.8558628879e+00
 3.4499926090e-01	 1.1956661262e+00	-2.9054505758e+00
 3.2435489676e-01	 1.2014307622e+00	-2.9536316487e+00
 3.0370944042e-01	 1.2068150443e+00	-2.9939324114e+00
 4.1045835944e-01	 1.1865680293e+00	-2.7187615174e+00
 3.8969356410e-01	 1.1935487754e+00	-2.7296360204e+00
 3.6889721068e-01	 1.2001394090e+00	-2.7593313190e+00
 3.4807961144e-01	 1.2063417166e+00	-2.8009146007e+00
 3.2725092262e-01	 1.2121578225e+00	-2.8448739273e+00
 3.0642113185e-01	 1.2175901786e+00	-2.8845324451e+00
 4.1409073430e-01	 1.1970686314e+00	-2.7123122943e+00
 3.9314217971e-01	 1.2041111539e+00	-2.7099243445e+00
 3.7216178777e-01	 1.2107601117e+00	-2.7260543743e+00
 3.5115996199e-01	 1.2170173070e+00	-2.7567734125e+00
 3.3014694849e-01	 1.2228848829e+00	-2.7935101965e+00
 3.0913282328e-01	 1.2283653129e+00	-2.8293495364e+00
 4.1772310916e-01	 1.2075692334e+00	-2.7726696705e+00
 3.9659079532e-01	 1.2146735325e+00	-2.7561948622e+00
 3.7542636485e-01	 1.2213808145e+00	-2.7575628853e+00
 3.5424031253e-01	 1.2276928974e+00	-2.7746137191e+00
 3.3304297435e-01	 1.2336119433e+00	-2.8011321669e+00
 3.1184451472e-01	 1.2391404473e+00	-2.8299547184e+00
 2.9828605755e-01	 1.1852647756e+00	-3.3690323957e+00
 2.7801774413e-01	 1.1901820426e+00	-3.4177047052e+00
 2.5776726496e-01	 1.1947314333e+00	-3.4707184283e+00
 2.3754378355e-01	 1.1989162237e+00	-3.5193927577e+00
 2.1735625743e-01	 1.2027399627e+00	-3.5549638781e+00
 1.9721342943e-01	 1.2062064598e+00	-3.5686740072e+00
 3.0099774899e-01	 1.1960399100e+00	-3.1559643969e+00
 2.8054517817e-01	 1.2010018793e+00	-3.2016871165e+00
 2.6011060373e-01	 1.2055926281e+00	-3.2535715567e+00
 2.3970327250e-01	 1.2098154621e+00	-3.3029205396e+00
 2.1933222340e-01	 1.2136739624e+00	-3.3409955719e+00
 1.9900627879e-01	 1.2171719731e+00	-3.3591025647e+00
 3.0370944042e-01	 1.2068150443e+00	-2.9939324114e+00
 2.8307261221e-01	 1.2118217161e+00	-3.0337022076e+00
 2.6245394250e-01	 1.2164538230e+00	-3.0813543249e+00
 2.4186276144e-01	 1.2207147005e+00	-3.1281842447e+00
 2.2130818938e-01	 1.2246079620e+00	-3.1654948197e+00
 2.0079912814e-01	 1.2281374864e+00	-3.1846781757e+00
 3.0642113185e-01	 1.2175901786e+00	-2.8845324451e+00
 2.8560004624e-01	 1.2226415528e+00	-2.9152710040e+00
 2.6479728127e-01	 1.2273150178e+00	-2.9554881096e+00
 2.4402225038e-01	 1.2316139389e+00	-2.9964812138e+00
 2.2328415536e-01	 1.2355419617e+00	-3.0296112792e+00
 2.0259197750e-01	 1.2391029996e+00	-3.0463803456e+00
 3.0913282328e-01	 1.2283653129e+00	-2.8293495364e+00
 2.8812748028e-01	 1.2334613896e+00	-2.8479144636e+00
 2.6714062005e-01	 1.2381762126e+00	-2.8774036912e+00
 2.4618173932e-01	 1.2425131773e+00	-2.9091262211e+00
 2.2526012133e-01	 1.2464759613e+00	-2.9345186383e+00
 2.0438482686e-01	 1.2500685129e+00	-2.9452177919e+00
 3.1184451472e-01	 1.2391404473e+00	-2.8299547184e+00
 2.9065491432e-01	 1.2442812263e+00	-2.8331507854e+00
 2.6948395882e-01	 1.2490374075e+00	-2.8485388784e+00
 2.4834122826e-01	 1.2534124157e+00	-2.8674493879e+00
 2.2723608731e-01	 1.2574099610e+00	-2.8814127861e+00
 2.0617767622e-01	 1.2610340262e+00	-2.8822268458e+00
 1.9721342943e-01	 1.2062064598e+00	-3.5686740072e+00
 1.7712381992e-01	 1.2093197728e+00	-3.5826920102e+00
 1.5709571964e-01	 1.2120841948e+00	-3.6119393185e+00
 1.3713718338e-01	 1.2145042418e+00	-3.6461000313e+00
 1.1725602429e-01	 1.2165846396e+00	-3.6749199740e+00
 9.7459809061e-02	 1.2183303108e+00	-3.6882185278e+00
 1.9900627879e-01	 1.2171719731e+00	-3.3591025647e+00
 1.7873403646e-01	 1.2203135889e+00	-3.3709029243e+00
 1.5852386255e-01	 1.2231031421e+00	-3.4009467780e+00
 1.3838388504e-01	 1.2255451895e+00	-3.4390216297e+00
 1.1832198815e-01	 1.2276444999e+00	-3.4749846275e+00
 9.8345807325e-02	 1.2294060409e+00	-3.4987651165e+00
 2.0079912814e-01	 1.2281374864e+00	-3.1846781757e+00
 1.8034425301e-01	 1.2313074050e+00	-3.1907270894e+00
 1.5995200545e-01	 1.2341220893e+00	-3.2180291590e+00
 1.3963058671e-01	 1.2365861371e+00	-3.2565137988e+00
 1.1938795201e-01	 1.2387043603e+00	-3.2961915648e+00
 9.9231805589e-02	 1.2404817710e+00	-3.3271465461e+00
 2.0259197750e-01	 1.2391029996e+00	-3.0463803456e+00
 1.8195446955e-01	 1.2423012212e+00	-3.0429580018e+00
 1.6138014836e-01	 1.2451410365e+00	-3.0637753892e+00
 1.4087728838e-01	 1.2476270848e+00	-3.0989446016e+00
 1.2045391586e-01	 1.2497642207e+00	-3.1386742365e+00
 1.0011780385e-01	 1.2515575011e+00	-3.1732507000e+00
 2.0438482686e-01	 1.2500685129e+00	-2.9452177919e+00
 1.8356468610e-01	 1.2532950373e+00	-2.9284219973e+00
 1.6280829127e-01	 1.2561599837e+00	-2.9388095209e+00
 1.4212399004e-01	 1.2586680324e+00	-2.9667182291e+00
 1.2151987972e-01	 1.2608240810e+00	-3.0026020178e+00
 1.0100380212e-01	 1.2626332311e+00	-3.0370000565e+00
 2.0617767622e-01	 1.2610340262e+00	-2.8822268458e+00
 1.8517490264e-01	 1.2642888534e+00	-2.8479768623e+00
 1.6423643417e-01	 1.2671789310e+00	-2.8437895231e+00
 1.4337069171e-01	 1.2697089801e+00	-2.8602739481e+00
 1.2258584358e-01	 1.2718839414e+00	-2.8881792841e+00
 1.0188980038e-01	 1.2737089612e+00	-2.9183508690e+00
 9.7459809061e-02	 1.2183303108e+00	-3.6882185278e+00
 7.7755853673e-02	 1.2197463620e+00	-3.6850274409e+00
 5.8151219944e-02	 1.2208380712e+00	-3.6932431381e+00
 3.8652712713e-02	 1.2216108743e+00	-3.7007942680e+00
 1.9266877700e-02	 1.2220703531e+00	-3.6956319851e+00
 0.0000000000e+00	 1.2222222222e+00	-3.6657437621e+00
 9.8345807325e-02	 1.2294060409e+00	-3.4987651165e+00
 7.8462725070e-02	 1.2308349653e+00	-3.4954162382e+00
 5.8679867398e-02	 1.2319365991e+00	-3.5061634959e+00
 3.9004101011e-02	 1.2327164277e+00	-3.5189287993e+00
 1.9442031134e-02	 1.2331800836e+00	-3.5216209874e+00
 0.0000000000e+00	 1.2333333333e+00	-3.5021412386e+00
 9.9231805589e-02	 1.2404817710e+00	-3.3271465461e+00
 7.9169596467e-02	 1.2419235686e+00	-3.3197239110e+00
 5.9208514852e-02	 1.2430351270e+00	-3.3293220809e+00
 3.9355489308e-02	 1.2438219811e+00	-3.3439041758e+00
 1.9617184568e-02	 1.2442898141e+00	-3.3513837036e+00
 0.0000000000e+00	 1.2444444444e+00	-3.3396207223e+00
 1.0011780385e-01	 1.2515575011e+00	-3.1732507000e+00
 7.9876467864e-02	 1.2530121719e+00	-3.1576054087e+00
 5.9737162306e-02	 1.2541336550e+00	-3.1621355386e+00
 3.9706877606e-02	 1.2549275345e+00	-3.1748966005e+00
 1.9792338001e-02	 1.2553995445e+00	-3.1838570479e+00
 0.0000000000e+00	 1.2555555556e+00	-3.1768843035e+00
 1.0100380212e-01	 1.2626332311e+00	-3.0370000565e+00
 8.0583339261e-02	 1.2641007752e+00	-3.0087471900e+00
 6.0265809760e-02	 1.2652321829e+00	-3.0040480220e+00
 4.0058265903e-02	 1.2660330879e+00	-3.0111049707e+00
 1.9967491435e-02	 1.2665092750e+00	-3.0179951155e+00
 0.0000000000e+00	 1.2666666667e+00	-3.0126451510e+00
 1.0188980038e-01	 1.2737089612e+00	-2.9183508690e+00
 8.1290210658e-02	 1.2751893785e+00	-2.8728665139e+00
 6.0794457214e-02	 1.2763307108e+00	-2.8545305704e+00
 4.0409654200e-02	 1.2771386414e+00	-2.8517503242e+00
 2.0142644869e-02	 1.2776190055e+00	-2.8527686732e+00
 0.0000000000e+00	 1.2777777778e+00	-2.8456270308e+00
 1.2777777778e+00	 0.0000000000e+00	 3.6074069224e+00
 1.2776190055e+00	 2.0142644869e-02	 3.6444267055e+00
 1.2771386414e+00	 4.0409654200e-02	 3.6518425129e+00
 1.2763307108e+00	 6.0794457214e-02	 3.6368567656e+00
 1.2751893785e+00	 8.1290210658e-02	 3.6067870329e+00
 1.2737089612e+00	 1.0188980038e-01	 3.5691200143e+00
 1.2888888889e+00	 0.0000000000e+00	 3.6477352410e+00
 1.2887287360e+00	 2.0317798302e-02	 3.6759803915e+00
 1.2882441948e+00	 4.0761042498e-02	 3.6746076476e+00
 1.2874292387e+00	 6.1323104668e-02	 3.6505729859e+00
 1.2862779818e+00	 8.1997082055e-02	 3.6109047238e+00
 1.2847846913e+00	 1.0277579865e-01	 3.5627712519e+00
 1.3000000000e+00	 0.0000000000e+00	 3.6814615130e+00
 1.2998384665e+00	 2.0492951736e-02	 3.7046199212e+00
 1.2993497482e+00	 4.1112430795e-02	 3.6985051494e+00
 1.2985277666e+00	 6.1851752122e-02	 3.6697722253e+00
 1.2973665851e+00	 8.2703953452e-02	 3.6251024335e+00
 1.2958604214e+00	 1.0366179691e-01	 3.5712858304e+00
 1.3111111111e+00	 0.0000000000e+00	 3.7080180669e+00
 1.3109481970e+00	 2.0668105170e-02	 3.7298895628e+00
 1.3104553016e+00	 4.1463819093e-02	 3.7232027452e+00
 1.3096262946e+00	 6.2380399576e-02	 3.6942536557e+00
 1.3084551884e+00	 8.3410824849e-02	 3.6493151161e+00
 1.3069361515e+00	 1.0454779517e-01	 3.5947351056e+00
 1.3222222222e+00	 0.0000000000e+00	 3.7268425479e+00
 1.3220579274e+00	 2.0843258603e-02	 3.7513396571e+00
 1.3215608550e+00	 4.1815207390e-02	 3.7483750160e+00
 1.3207248225e+00	 6.2909047030e-02	 3.7238239925e+00
 1.3195437917e+00	 8.4117696246e-02	 3.6834857501e+00
 1.3180118816e+00	 1.0543379344e-01	 3.6331986108e+00
 1.3333333333e+00	 0.0000000000e+00	 3.7373776959e+00
 1.3331676579e+00	 2.1018412037e-02	 3.7685263935e+00
 1.3326664084e+00	 4.2166595687e-02	 3.7737031637e+00
 1.3318233504e+00	 6.3437694484e-02	 3.7582972476e+00
 1.3306323950e+00	 8.4824567643e-02	 3.7275650672e+00
 1.3290876117e+00	 1.0631979170e-01	 3.6867637509e+00
 1.2737089612e+00	 1.0188980038e-01	 3.5691200143e+00
 1.2718839414e+00	 1.2258584358e-01	 3.5951539343e+00
 1.2697089801e+00	 1.4337069171e-01	 3.5819873733e+00
 1.2671789310e+00	 1.6423643417e-01	 3.5372437965e+00
 1.2642888534e+00	 1.8517490264e-01	 3.4690723237e+00
 1.2610340262e+00	 2.0617767622e-01	 3.3861914201e+00
 1.2847846913e+00	 1.0277579865e-01	 3.5627712519e+00
 1.2829438017e+00	 1.2365180743e-01	 3.5774816830e+00
 1.2807499278e+00	 1.4461739338e-01	 3.5532084557e+00
 1.2781978782e+00	 1.6566457708e-01	 3.4972661408e+00
 1.2752826695e+00	 1.8678511919e-01	 3.4175262747e+00
 1.2719995395e+00	 2.0797052558e-01	 3.3224775825e+00
 1.2958604214e+00	 1.0366179691e-01	 3.5712858304e+00
 1.2940036621e+00	 1.2471777129e-01	 3.5793254558e+00
 1.2917908754e+00	 1.4586409505e-01	 3.5486308259e+00
 1.2892168254e+00	 1.6709271998e-01	 3.4861476114e+00
 1.2862764856e+00	 1.8839533573e-01	 3.3994123673e+00
 1.2829650527e+00	 2.0976337494e-01	 3.2966305726e+00
 1.3069361515e+00	 1.0454779517e-01	 3.5947351056e+00
 1.3050635225e+00	 1.2578373515e-01	 3.6008963973e+00
 1.3028318231e+00	 1.4711079671e-01	 3.5685993977e+00
 1.3002357726e+00	 1.6852086289e-01	 3.5043572612e+00
 1.2972703017e+00	 1.9000555227e-01	 3.4153106968e+00
 1.2939305660e+00	 2.1155622430e-01	 3.3093251660e+00
 1.3180118816e+00	 1.0543379344e-01	 3.6331986108e+00
 1.3161233828e+00	 1.2684969901e-01	 3.6424133166e+00
 1.3138727707e+00	 1.4835749838e-01	 3.6134656456e+00
 1.3112547199e+00	 1.6994900579e-01	 3.5523688965e+00
 1.3082641179e+00	 1.9161576882e-01	 3.4658034914e+00
 1.3048960793e+00	 2.1334907365e-01	 3.3612347336e+00
 1.3290876117e+00	 1.0631979170e-01	 3.6867637509e+00
 1.3271832432e+00	 1.2791566286e-01	 3.7041023450e+00
 1.3249137184e+00	 1.4960420005e-01	 3.6835872142e+00
 1.3222736671e+00	 1.7137714870e-01	 3.6306606227e+00
 1.3192579340e+00	 1.9322598536e-01	 3.5514745783e+00
 1.3158615925e+00	 2.1514192301e-01	 3.4530306126e+00
 1.2610340262e+00	 2.0617767622e-01	 3.3861914201e+00
 1.2574099610e+00	 2.2723608731e-01	 3.4063275503e+00
 1.2534124157e+00	 2.4834122826e-01	 3.3751311344e+00
 1.2490374075e+00	 2.6948395882e-01	 3.3028450521e+00
 1.2442812263e+00	 2.9065491432e-01	 3.2003529087e+00
 1.2391404473e+00	 3.1184451472e-01	 3.0790590604e+00
 1.2719995395e+00	 2.0797052558e-01	 3.3224775825e+00
 1.2683439607e+00	 2.2921205329e-01	 3.3346718601e+00
 1.2643116541e+00	 2.5050071720e-01	 3.2943201333e+00
 1.2598986023e+00	 2.7182729759e-01	 3.2116432958e+00
 1.2551010631e+00	 2.9318234836e-01	 3.0976078736e+00
 1.2499155816e+00	 3.1455620615e-01	 2.9638151290e+00
 1.2829650527e+00	 2.0976337494e-01	 3.2966305726e+00
 1.2792779603e+00	 2.3118801926e-01	 3.3048749500e+00
 1.2752108925e+00	 2.5266020614e-01	 3.2591364654e+00
 1.2707597972e+00	 2.7417063636e-01	 3.1695801219e+00
 1.2659208998e+00	 2.9570978239e-01	 3.0472301703e+00
 1.2606907159e+00	 3.1726789758e-01	 2.9038692933e+00
 1.2939305660e+00	 2.1155622430e-01	 3.3093251660e+00
 1.2902119600e+00	 2.3316398524e-01	 3.3176934151e+00
 1.2861101309e+00	 2.5481969509e-01	 3.2703963499e+00
 1.2816209920e+00	 2.7651397513e-01	 3.1775068427e+00
 1.2767407366e+00	 2.9823721643e-01	 3.0500797618e+00
 1.2714658502e+00	 3.1997958901e-01	 2.9000622817e+00
 1.3048960793e+00	 2.1334907365e-01	 3.3612347336e+00
 1.3011459596e+00	 2.3513995122e-01	 3.3738776787e+00
 1.2970093692e+00	 2.5697918403e-01	 3.3289039733e+00
 1.2924821869e+00	 2.7885731391e-01	 3.2362557099e+00
 1.2875605733e+00	 3.0076465047e-01	 3.1069892913e+00
 1.2822409846e+00	 3.2269128045e-01	 2.9531979649e+00
 1.3158615925e+00	 2.1514192301e-01	 3.4530306126e+00
 1.3120799593e+00	 2.3711591719e-01	 3.4741712579e+00
 1.3079086076e+00	 2.5913867297e-01	 3.4354506312e+00
 1.3033433817e+00	 2.8120065268e-01	 3.3466389109e+00
 1.2983804101e+00	 3.0329208451e-01	 3.2187629127e+00
 1.2930161189e+00	 3.2540297188e-01	 3.0640419964e+00
 1.2391404473e+00	 3.1184451472e-01	 3.0790590604e+00
 1.2336119433e+00	 3.3304297435e-01	 3.0235653925e+00
 1.2276928974e+00	 3.5424031253e-01	 2.9482943825e+00
 1.2213808145e+00	 3.7542636485e-01	 2.8658136150e+00
 1.2146735325e+00	 3.9659079532e-01	 2.8097210997e+00
 1.2075692334e+00	 4.1772310916e-01	 2.7920293116e+00
 1.2499155816e+00	 3.1455620615e-01	 2.9638151290e+00
 1.2443390037e+00	 3.3593900022e-01	 2.8973936304e+00
 1.2383684878e+00	 3.5732066307e-01	 2.8133739504e+00
 1.2320015172e+00	 3.7869094194e-01	 2.7264410857e+00
 1.2252359110e+00	 4.0003941093e-01	 2.6703320657e+00
 1.2180698354e+00	 4.2135548402e-01	 2.6528901674e+00
 1.2606907159e+00	 3.1726789758e-01	 2.9038692933e+00
 1.2550660640e+00	 3.3883502608e-01	 2.8288175609e+00
 1.2490440782e+00	 3.6040101362e-01	 2.7380080889e+00
 1.2426222199e+00	 3.8195551903e-01	 2.6486877793e+00
 1.2357982895e+00	 4.0348802654e-01	 2.5928046679e+00
 1.2285704375e+00	 4.2498785888e-01	 2.5754043075e+00
 1.2714658502e+00	 3.1997958901e-01	 2.9000622817e+00
 1.2657931244e+00	 3.4173105194e-01	 2.8186382636e+00
 1.2597196687e+00	 3.6348136416e-01	 2.7229301187e+00
 1.2532429227e+00	 3.8522009611e-01	 2.6329591321e+00
 1.2463606681e+00	 4.0693664216e-01	 2.5773890805e+00
 1.2390710395e+00	 4.2862023375e-01	 2.5596650363e+00
 1.2822409846e+00	 3.2269128045e-01	 2.9531979649e+00
 1.2765201848e+00	 3.4462707781e-01	 2.8676088258e+00
 1.2703952591e+00	 3.6656171470e-01	 2.7688128635e+00
 1.2638636254e+00	 3.8848467320e-01	 2.6795854815e+00
 1.2569230466e+00	 4.1038525777e-01	 2.6242593004e+00
 1.2495716415e+00	 4.3225260861e-01	 2.6056888893e+00
 1.2930161189e+00	 3.2540297188e-01	 3.0640419964e+00
 1.2872472452e+00	 3.4752310367e-01	 2.9764327816e+00
 1.2810708495e+00	 3.6964206525e-01	 2.8762668678e+00
 1.2744843281e+00	 3.9174925028e-01	 2.7888245394e+00
 1.2674854252e+00	 4.1383387338e-01	 2.7335159544e+00
 1.2600722435e+00	 4.3588498347e-01	 2.7134187880e+00
 1.2075692334e+00	 4.1772310916e-01	 2.7920293116e+00
 1.2000664537e+00	 4.3881266639e-01	 2.5299930308e+00
 1.1921640936e+00	 4.5984869606e-01	 2.3523057662e+00
 1.1838614267e+00	 4.8082031120e-01	 2.2579475602e+00
 1.1751581079e+00	 5.0171652436e-01	 2.2450773620e+00
 1.1660541810e+00	 5.2252626374e-01	 2.3108574325e+00
 1.2180698354e+00	 4.2135548402e-01	 2.6528901674e+00
 1.2105018141e+00	 4.4262842870e-01	 2.3839705694e+00
 1.2025307379e+00	 4.6384738037e-01	 2.1994755192e+00
 1.1941558739e+00	 4.8500135739e-01	 2.0989681214e+00
 1.1853768741e+00	 5.0607927674e-01	 2.0811899656e+00
 1.1761937826e+00	 5.2706997038e-01	 2.1438766890e+00
 1.2285704375e+00	 4.2498785888e-01	 2.5754043075e+00
 1.2209371746e+00	 4.4644419102e-01	 2.2998889205e+00
 1.2128973822e+00	 4.6784606469e-01	 2.1085442839e+00
 1.2044503211e+00	 4.8918240357e-01	 2.0015634419e+00
 1.1955956402e+00	 5.1044202913e-01	 1.9783163521e+00
 1.1863333842e+00	 5.3161367702e-01	 2.0371564244e+00
 1.2390710395e+00	 4.2862023375e-01	 2.5596650363e+00
 1.2313725351e+00	 4.5025995334e-01	 2.2776612068e+00
 1.2232640265e+00	 4.7184474900e-01	 2.0792448405e+00
 1.2147447683e+00	 4.9336344976e-01	 1.9652865763e+00
 1.2058144064e+00	 5.1480478151e-01	 1.9358310719e+00
 1.1964729857e+00	 5.3615738366e-01	 1.9898943412e+00
 1.2495716415e+00	 4.3225260861e-01	 2.6056888893e+00
 1.2418078955e+00	 4.5407571565e-01	 2.3171244187e+00
 1.2336306708e+00	 4.7584343332e-01	 2.1112349212e+00
 1.2250392155e+00	 4.9754449594e-01	 1.9896170232e+00
 1.2160331725e+00	 5.1916753390e-01	 1.9530369677e+00
 1.2066125873e+00	 5.4070109030e-01	 2.0012185833e+00
 1.2600722435e+00	 4.3588498347e-01	 2.7134187880e+00
 1.2522432560e+00	 4.5789147797e-01	 2.4180428993e+00
 1.2439973151e+00	 4.7984211763e-01	 2.2041010388e+00
 1.2353336627e+00	 5.0172554212e-01	 2.0739649060e+00
 1.2262519387e+00	 5.2353028628e-01	 2.0291697177e+00
 1.2167521889e+00	 5.4524479694e-01	 2.0701926473e+00
 1.1660541810e+00	 5.2252626374e-01	 2.3108574325e+00
 1.1565500858e+00	 5.4323838996e-01	 1.9882241433e+00
 1.1466466639e+00	 5.6384171324e-01	 1.7533541298e+00
 1.1363451636e+00	 5.8432501113e-01	 1.5991434873e+00
 1.1256472443e+00	 6.0467704660e-01	 1.5167537769e+00
 1.1145549800e+00	 6.2488658652e-01	 1.4954656965e+00
 1.1761937826e+00	 5.2706997038e-01	 2.1438766890e+00
 1.1666070431e+00	 5.4796220204e-01	 1.8160961481e+00
 1.1566175044e+00	 5.6874468466e-01	 1.5814315979e+00
 1.1462264259e+00	 5.8940609819e-01	 1.4331520854e+00
 1.1354354812e+00	 6.0993510788e-01	 1.3627440394e+00
 1.1242467624e+00	 6.3032038293e-01	 1.3597596685e+00
 1.1863333842e+00	 5.3161367702e-01	 2.0371564244e+00
 1.1766640004e+00	 5.5268601413e-01	 1.7021044221e+00
 1.1665883450e+00	 5.7364765608e-01	 1.4653663647e+00
 1.1561076881e+00	 5.9448718524e-01	 1.3206256175e+00
 1.1452237182e+00	 6.1519316915e-01	 1.2597335179e+00
 1.1339385448e+00	 6.3575417933e-01	 1.2725526137e+00
 1.1964729857e+00	 5.3615738366e-01	 1.9898943412e+00
 1.1867209576e+00	 5.5740982621e-01	 1.6453028091e+00
 1.1765591855e+00	 5.7855062750e-01	 1.4040716714e+00
 1.1659889504e+00	 5.9956827229e-01	 1.2603399459e+00
 1.1550119551e+00	 6.2045123043e-01	 1.2063637770e+00
 1.1436303273e+00	 6.4118797574e-01	 1.2323546497e+00
 1.2066125873e+00	 5.4070109030e-01	 2.0012185833e+00
 1.1967779149e+00	 5.6213363830e-01	 1.6446769357e+00
 1.1865300261e+00	 5.8345359892e-01	 1.3963940100e+00
 1.1758702127e+00	 6.0464935935e-01	 1.2510057054e+00
 1.1648001920e+00	 6.2570929170e-01	 1.2012126514e+00
 1.1533221097e+00	 6.4662177214e-01	 1.2376135576e+00
 1.2167521889e+00	 5.4524479694e-01	 2.0701926473e+00
 1.2068348722e+00	 5.6685745039e-01	 1.6991495398e+00
 1.1965008667e+00	 5.8835657034e-01	 1.4411188739e+00
 1.1857514750e+00	 6.0973044640e-01	 1.2912744780e+00
 1.1745884289e+00	 6.3096735298e-01	 1.2428008446e+00
 1.1630138921e+00	 6.5205556855e-01	 1.2867218018e+00
 1.1145549800e+00	 6.2488658652e-01	 1.4954656965e+00
 1.1030708607e+00	 6.4494242044e-01	 1.2845201673e+00
 1.0911977945e+00	 6.6483337961e-01	 1.0932863495e+00
 1.0789391074e+00	 6.8454835618e-01	 8.9973824277e-01
 1.0662985424e+00	 7.0407632253e-01	 6.8669008099e-01
 1.0532802577e+00	 7.2340635063e-01	 4.3772266781e-01
 1.1242467624e+00	 6.3032038293e-01	 1.3597596685e+00
 1.1126627812e+00	 6.5055061540e-01	 1.1385298136e+00
 1.1006864710e+00	 6.7061453943e-01	 9.7765351600e-01
 1.0883211866e+00	 6.9050095058e-01	 8.0218635856e-01
 1.0755707036e+00	 7.1019872533e-01	 5.9425153929e-01
 1.0624392165e+00	 7.2969684064e-01	 3.3759152681e-01
 1.1339385448e+00	 6.3575417933e-01	 1.2725526137e+00
 1.1222547017e+00	 6.5615881037e-01	 1.0238474324e+00
 1.1101751475e+00	 6.7639569926e-01	 8.6134289045e-01
 1.0977032658e+00	 6.9645354498e-01	 7.1132072103e-01
 1.0848428648e+00	 7.1632112814e-01	 5.1609162692e-01
 1.0715981752e+00	 7.3598733064e-01	 2.5956149430e-01
 1.1436303273e+00	 6.4118797574e-01	 1.2323546497e+00
 1.1318466223e+00	 6.6176700533e-01	 9.6029472583e-01
 1.1196638239e+00	 6.8217685908e-01	 7.6676368885e-01
 1.1070853450e+00	 7.0240613938e-01	 6.2670318558e-01
 1.0941150261e+00	 7.2244353094e-01	 4.5157334700e-01
 1.0807571340e+00	 7.4227782065e-01	 2.0246731738e-01
 1.1533221097e+00	 6.4662177214e-01	 1.2376135576e+00
 1.1414385428e+00	 6.6737520029e-01	 9.4602171304e-01
 1.1291525004e+00	 6.8795801890e-01	 7.2532218343e-01
 1.1164674242e+00	 7.0835873379e-01	 5.5609564261e-01
 1.1033871873e+00	 7.2856593375e-01	 3.9993836447e-01
 1.0899160927e+00	 7.4856831065e-01	 1.5758499011e-01
 1.1630138921e+00	 6.5205556855e-01	 1.2867218018e+00
 1.1510304633e+00	 6.7298339525e-01	 9.7913038902e-01
 1.1386411769e+00	 6.9373917872e-01	 7.3509911161e-01
 1.1258495034e+00	 7.1431132819e-01	 5.3611924448e-01
 1.1126593485e+00	 7.3468833655e-01	 3.6094707224e-01
 1.0990750515e+00	 7.5485880066e-01	 1.2029908048e-01
 1.0532802577e+00	 7.2340635063e-01	 4.3772266781e-01
 1.0398888238e+00	 7.4252763142e-01	 5.6073090799e-01
 1.0261292194e+00	 7.6142949406e-01	 5.6354137496e-01
 1.0120068261e+00	 7.8010142503e-01	 4.1371693167e-01
 9.9752742231e-01	 7.9853308706e-01	 1.2237910250e-01
 9.8269717613e-01	 8.1671433770e-01	-2.9606666881e-01
 1.0624392165e+00	 7.2969684064e-01	 3.3759152681e-01
 1.0489313354e+00	 7.4898439344e-01	 4.7340773241e-01
 1.0350520822e+00	 7.6805062009e-01	 4.6803897503e-01
 1.0208068854e+00	 7.8688491568e-01	 3.1209341626e-01
 1.0062015738e+00	 8.0547685303e-01	 1.6490488924e-02
 9.9124236897e-01	 8.2381620151e-01	-4.0439654549e-01
 1.0715981752e+00	 7.3598733064e-01	 2.5956149430e-01
 1.0579738469e+00	 7.5544115545e-01	 3.9713711146e-01
 1.0439749450e+00	 7.7467174613e-01	 3.8229389572e-01
 1.0296069448e+00	 7.9366840633e-01	 2.1871745498e-01
 1.0148757253e+00	 8.1242061901e-01	-8.2885000092e-02
 9.9978756180e-01	 8.3091806531e-01	-5.0817190267e-01
 1.0807571340e+00	 7.4227782065e-01	 2.0246731738e-01
 1.0670163584e+00	 7.6189791746e-01	 3.3046555602e-01
 1.0528978078e+00	 7.8129287217e-01	 3.0494740404e-01
 1.0384070042e+00	 8.0045189699e-01	 1.3231287751e-01
 1.0235498768e+00	 8.1936438498e-01	-1.7695345050e-01
 1.0083327546e+00	 8.3801992912e-01	-6.0854103726e-01
 1.0899160927e+00	 7.4856831065e-01	 1.5758499011e-01
 1.0760588699e+00	 7.6835467947e-01	 2.7197995411e-01
 1.0618206705e+00	 7.8791399820e-01	 2.3468198181e-01
 1.0472070635e+00	 8.0723538764e-01	 5.1644467880e-02
 1.0322240283e+00	 8.2630815096e-01	-2.6688134347e-01
 1.0168779475e+00	 8.4512179293e-01	-7.0661505672e-01
 1.0990750515e+00	 7.5485880066e-01	 1.2029908048e-01
 1.0851013814e+00	 7.7481144149e-01	 2.2031337836e-01
 1.0707435333e+00	 7.9453512424e-01	 1.7022718884e-01
 1.0560071229e+00	 8.1401887829e-01	-2.4476137199e-02
 1.0408981798e+00	 8.3325191693e-01	-3.5378964244e-01
 1.0254231403e+00	 8.5222365673e-01	-8.0346197169e-01
 9.8269717613e-01	 8.1671433770e-01	-2.9606666881e-01
 9.6752263689e-01	 8.3463524757e-01	-2.1534828462e-01
 9.5201072588e-01	 8.5228611815e-01	-2.3886169620e-01
 9.3616872605e-01	 8.6965749910e-01	-3.4254500836e-01
 9.2000427075e-01	 8.8674020501e-01	-5.0061483118e-01
 9.0352533152e-01	 9.0352533152e-01	-6.8611165318e-01
 9.9124236897e-01	 8.2381620151e-01	-4.0439654549e-01
 9.7593587721e-01	 8.4189294538e-01	-3.0841143505e-01
 9.6028908002e-01	 8.5969730179e-01	-3.2111996565e-01
 9.4430932367e-01	 8.7721973823e-01	-4.1795464571e-01
 9.2800430789e-01	 8.9445098940e-01	-5.7251171675e-01
 9.1138207353e-01	 9.1138207353e-01	-7.5712418282e-01
 9.9978756180e-01	 8.3091806531e-01	-5.0817190267e-01
 9.8434911753e-01	 8.4915064318e-01	-3.9819683038e-01
 9.6856743415e-01	 8.6710848543e-01	-4.0145537119e-01
 9.5244992129e-01	 8.8478197735e-01	-4.9284769728e-01
 9.3600434502e-01	 9.0216177380e-01	-6.4531603754e-01
 9.1923881554e-01	 9.1923881554e-01	-8.3044665959e-01
 1.0083327546e+00	 8.3801992912e-01	-6.0854103726e-01
 9.9276235785e-01	 8.5640834099e-01	-4.8582940936e-01
 9.7684578829e-01	 8.7451966906e-01	-4.8098304793e-01
 9.6059051890e-01	 8.9234421647e-01	-5.6834157624e-01
 9.4400438216e-01	 9.0987255819e-01	-7.2015774199e-01
 9.2709555756e-01	 9.2709555756e-01	-9.0722969501e-01
 1.0168779475e+00	 8.4512179293e-01	-7.0661505672e-01
 1.0011755982e+00	 8.6366603879e-01	-5.7239959983e-01
 9.8512414243e-01	 8.8193085270e-01	-5.6078717751e-01
 9.6873111652e-01	 8.9990645560e-01	-6.4552711679e-01
 9.5200441930e-01	 9.1758334258e-01	-7.9814531780e-01
 9.3495229957e-01	 9.3495229957e-01	-9.8860821847e-01
 1.0254231403e+00	 8.5222365673e-01	-8.0346197169e-01
 1.0095888385e+00	 8.7092373660e-01	-6.5895746827e-01
 9.9340249657e-01	 8.8934203633e-01	-6.4191521749e-01
 9.7687171414e-01	 9.0746869472e-01	-7.2546290513e-01
 9.6000445643e-01	 9.2529412697e-01	-8.8036024527e-01
 9.4280904158e-01	 9.4280904158e-01	-1.0756960724e+00
 9.0352533152e-01	 9.0352533152e-01	-6.8611165318e-01
 8.8674020501e-01	 9.2000427075e-01	-8.4522541062e-01
 8.6965749910e-01	 9.3616872605e-01	-9.8309050221e-01
 8.5228611815e-01	 9.5201072588e-01	-1.0728358499e+00
 8.3463524757e-01	 9.6752263689e-01	-1.0888046899e+00
 8.1671433770e-01	 9.8269717613e-01	-1.0071583152e+00
 9.1138207353e-01	 9.1138207353e-01	-7.5712418282e-01
 8.9445098940e-01	 9.2800430789e-01	-9.1620330448e-01
 8.7721973823e-01	 9.4430932367e-01	-1.0524084116e+00
 8.5969730179e-01	 9.6028908002e-01	-1.1380198520e+00
 8.4189294538e-01	 9.7593587721e-01	-1.1465817760e+00
 8.2381620151e-01	 9.9124236897e-01	-1.0535392942e+00
 9.1923881554e-01	 9.1923881554e-01	-8.3044665959e-01
 9.0216177380e-01	 9.3600434502e-01	-9.9018934676e-01
 8.8478197735e-01	 9.5244992129e-01	-1.1253674722e+00
 8.6710848543e-01	 9.6856743415e-01	-1.2073665362e+00
 8.4915064318e-01	 9.8434911753e-01	-1.2088858277e+00
 8.3091806531e-01	 9.9978756180e-01	-1.1046106540e+00
 9.2709555756e-01	 9.2709555756e-01	-9.0722969501e-01
 9.0987255819e-01	 9.4400438216e-01	-1.0683768127e+00
 8.9234421647e-01	 9.6059051890e-01	-1.2032056250e+00
 8.7451966906e-01	 9.7684578829e-01	-1.2821577745e+00
 8.5640834099e-01	 9.9276235785e-01	-1.2770391047e+00
 8.3801992912e-01	 1.0083327546e+00	-1.1617286831e+00
 9.3495229957e-01	 9.3495229957e-01	-9.8860821847e-01
 9.1758334258e-01	 9.5200441930e-01	-1.1519490961e+00
 8.9990645560e-01	 9.6873111652e-01	-1.2871572380e+00
 8.8193085270e-01	 9.8512414243e-01	-1.3636785779e+00
 8.6366603879e-01	 1.0011755982e+00	-1.3523740119e+00
 8.4512179293e-01	 1.0168779475e+00	-1.2262670036e+00
 9.4280904158e-01	 9.4280904158e-01	-1.0756960724e+00
 9.2529412697e-01	 9.6000445643e-01	-1.2420744867e+00
 9.0746869472e-01	 9.7687171414e-01	-1.3784480812e+00
 8.8934203633e-01	 9.9340249657e-01	-1.4532122811e+00
 8.7092373660e-01	 1.0095888385e+00	-1.4362285057e+00
 8.5222365673e-01	 1.0254231403e+00	-1.2996122085e+00
 8.1671433770e-01	 9.8269717613e-01	-1.0071583152e+00
 7.9853308706e-01	 9.9752742231e-01	-1.3407134788e+00
 7.8010142503e-01	 1.0120068261e+00	-1.5735114739e+00
 7.6142949406e-01	 1.0261292194e+00	-1.6912410640e+00
 7.4252763142e-01	 1.0398888238e+00	-1.6833156388e+00
 7.2340635063e-01	 1.0532802577e+00	-1.5613216490e+00
 8.2381620151e-01	 9.9124236897e-01	-1.0535392942e+00
 8.0547685303e-01	 1.0062015738e+00	-1.3855178197e+00
 7.8688491568e-01	 1.0208068854e+00	-1.6156847833e+00
 7.6805062009e-01	 1.0350520822e+00	-1.7296957233e+00
 7.4898439344e-01	 1.0489313354e+00	-1.7171162149e+00
 7.2969684064e-01	 1.0624392165e+00	-1.5792506429e+00
 8.3091806531e-01	 9.9978756180e-01	-1.1046106540e+00
 8.1242061901e-01	 1.0148757253e+00	-1.4371900016e+00
 7.9366840633e-01	 1.0296069448e+00	-1.6665591598e+00
 7.7467174613e-01	 1.0439749450e+00	-1.7783098284e+00
 7.5544115545e-01	 1.0579738469e+00	-1.7621376255e+00
 7.3598733064e-01	 1.0715981752e+00	-1.6136458867e+00
 8.3801992912e-01	 1.0083327546e+00	-1.1617286831e+00
 8.1936438498e-01	 1.0235498768e+00	-1.4970538986e+00
 8.0045189699e-01	 1.0384070042e+00	-1.7274160614e+00
 7.8129287217e-01	 1.0528978078e+00	-1.8383100378e+00
 7.6189791746e-01	 1.0670163584e+00	-1.8195372005e+00
 7.4227782065e-01	 1.0807571340e+00	-1.6656366677e+00
 8.4512179293e-01	 1.0168779475e+00	-1.2262670036e+00
 8.2630815096e-01	 1.0322240283e+00	-1.5664599039e+00
 8.0723538764e-01	 1.0472070635e+00	-1.7995725476e+00
 7.8791399820e-01	 1.0618206705e+00	-1.9109674792e+00
 7.6835467947e-01	 1.0760588699e+00	-1.8905252836e+00
 7.4856831065e-01	 1.0899160927e+00	-1.7331014336e+00
 8.5222365673e-01	 1.0254231403e+00	-1.2996122085e+00
 8.3325191693e-01	 1.0408981798e+00	-1.6467807237e+00
 8.1401887829e-01	 1.0560071229e+00	-1.8843772396e+00
 7.9453512424e-01	 1.0707435333e+00	-1.9975938818e+00
 7.7481144149e-01	 1.0851013814e+00	-1.9763615398e+00
 7.5485880066e-01	 1.0990750515e+00	-1.8158337706e+00
 7.2340635063e-01	 1.0532802577e+00	-1.5613216490e+00
 7.0407632253e-01	 1.0662985424e+00	-1.7178495815e+00
 6.8454835618e-01	 1.0789391074e+00	-1.8445946679e+00
 6.6483337961e-01	 1.0911977945e+00	-1.9583414739e+00
 6.4494242044e-01	 1.1030708607e+00	-2.0770500781e+00
 6.2488658652e-01	 1.1145549800e+00	-2.2243548704e+00
 7.2969684064e-01	 1.0624392165e+00	-1.5792506429e+00
 7.1019872533e-01	 1.0755707036e+00	-1.7431652560e+00
 6.9050095058e-01	 1.0883211866e+00	-1.8585618945e+00
 6.7061453943e-01	 1.1006864710e+00	-1.9423424995e+00
 6.5055061540e-01	 1.1126627812e+00	-2.0136020875e+00
 6.3032038293e-01	 1.1242467624e+00	-2.1568226953e+00
 7.3598733064e-01	 1.0715981752e+00	-1.6136458867e+00
 7.1632112814e-01	 1.0848428648e+00	-1.7769973349e+00
 6.9645354498e-01	 1.0977032658e+00	-1.8731444341e+00
 6.7639569926e-01	 1.1101751475e+00	-1.9191356699e+00
 6.5615881037e-01	 1.1222547017e+00	-1.9803047152e+00
 6.3575417933e-01	 1.1339385448e+00	-2.1393384628e+00
 7.4227782065e-01	 1.0807571340e+00	-1.6656366677e+00
 7.2244353094e-01	 1.0941150261e+00	-1.8207116362e+00
 7.0240613938e-01	 1.1070853450e+00	-1.8897863620e+00
 6.8217685908e-01	 1.1196638239e+00	-1.9164728059e+00
 6.6176700533e-01	 1.1318466223e+00	-2.0016494862e+00
 6.4118797574e-01	 1.1436303273e+00	-2.1717717180e+00
 7.4856831065e-01	 1.0899160927e+00	-1.7331014336e+00
 7.2856593375e-01	 1.1033871873e+00	-1.8756984722e+00
 7.0835873379e-01	 1.1164674242e+00	-1.9196200414e+00
 6.8795801890e-01	 1.1291525004e+00	-1.9725597035e+00
 6.6737520029e-01	 1.1414385428e+00	-2.0771687582e+00
 6.4662177214e-01	 1.1533221097e+00	-2.2538874945e+00
 7.5485880066e-01	 1.0990750515e+00	-1.8158337706e+00
 7.3468833655e-01	 1.1126593485e+00	-1.9441208929e+00
 7.1431132819e-01	 1.1258495034e+00	-2.0072773078e+00
 6.9373917872e-01	 1.1386411769e+00	-2.0869216212e+00
 6.7298339525e-01	 1.1510304633e+00	-2.2062980199e+00
 6.5205556855e-01	 1.1630138921e+00	-2.3853502379e+00
 6.2488658652e-01	 1.1145549800e+00	-2.2243548704e+00
 6.0467704660e-01	 1.1256472443e+00	-2.2162174918e+00
 5.8432501113e-01	 1.1363451636e+00	-2.2467291397e+00
 5.6384171324e-01	 1.1466466639e+00	-2.3262789296e+00
 5.4323838996e-01	 1.1565500858e+00	-2.4631575734e+00
 5.2252626374e-01	 1.1660541810e+00	-2.6637261932e+00
 6.3032038293e-01	 1.1242467624e+00	-2.1568226953e+00
 6.0993510788e-01	 1.1354354812e+00	-2.1230804583e+00
 5.8940609819e-01	 1.1462264259e+00	-2.1309454481e+00
 5.6874468466e-01	 1.1566175044e+00	-2.1910094181e+00
 5.4796220204e-01	 1.1666070431e+00	-2.3116821808e+00
 5.2706997038e-01	 1.1761937826e+00	-2.4993682907e+00
 6.3575417933e-01	 1.1339385448e+00	-2.1393384628e+00
 6.1519316915e-01	 1.1452237182e+00	-2.0837215009e+00
 5.9448718524e-01	 1.1561076881e+00	-2.0727001501e+00
 5.7364765608e-01	 1.1665883450e+00	-2.1170313258e+00
 5.5268601413e-01	 1.1766640004e+00	-2.2252042532e+00
 5.3161367702e-01	 1.1863333842e+00	-2.4036252411e+00
 6.4118797574e-01	 1.1436303273e+00	-2.1717717180e+00
 6.2045123043e-01	 1.1550119551e+00	-2.0980350258e+00
 5.9956827229e-01	 1.1659889504e+00	-2.0719199222e+00
 5.7855062750e-01	 1.1765591855e+00	-2.1043105630e+00
 5.5740982621e-01	 1.1867209576e+00	-2.2037353689e+00
 5.3615738366e-01	 1.1964729857e+00	-2.3765601071e+00
 6.4662177214e-01	 1.1533221097e+00	-2.2538874945e+00
 6.2570929170e-01	 1.1648001920e+00	-2.1658146221e+00
 6.0464935935e-01	 1.1758702127e+00	-2.1284343790e+00
 5.8345359892e-01	 1.1865300261e+00	-2.1527198201e+00
 5.6213363830e-01	 1.1967779149e+00	-2.2471978392e+00
 5.4070109030e-01	 1.2066125873e+00	-2.4181507688e+00
 6.5205556855e-01	 1.1630138921e+00	-2.3853502379e+00
 6.3096735298e-01	 1.1745884289e+00	-2.2867566685e+00
 6.0973044640e-01	 1.1857514750e+00	-2.2419793628e+00
 5.8835657034e-01	 1.1965008667e+00	-2.2620415404e+00
 5.6685745039e-01	 1.2068348722e+00	-2.3554273646e+00
 5.4524479694e-01	 1.2167521889e+00	-2.5282922672e+00
 5.2252626374e-01	 1.1660541810e+00	-2.6637261932e+00
 5.0171652436e-01	 1.1751581079e+00	-2.5663366101e+00
 4.8082031120e-01	 1.1838614267e+00	-2.5265554998e+00
 4.5984869606e-01	 1.1921640936e+00	-2.5468960048e+00
 4.3881266639e-01	 1.2000664537e+00	-2.6287661668e+00
 4.1772310916e-01	 1.2075692334e+00	-2.7726696705e+00
 5.2706997038e-01	 1.1761937826e+00	-2.4993682907e+00
 5.0607927674e-01	 1.1853768741e+00	-2.3938979101e+00
 4.8500135739e-01	 1.1941558739e+00	-2.3489991069e+00
 4.6384738037e-01	 1.2025307379e+00	-2.3665612615e+00
 4.4262842870e-01	 1.2105018141e+00	-2.4473428109e+00
 4.2135548402e-01	 1.2180698354e+00	-2.5911835486e+00
 5.3161367702e-01	 1.1863333842e+00	-2.4036252411e+00
 5.1044202913e-01	 1.1955956402e+00	-2.2889979324e+00
 4.8918240357e-01	 1.2044503211e+00	-2.2377454022e+00
 4.6784606469e-01	 1.2128973822e+00	-2.2510935379e+00
 4.4644419102e-01	 1.2209371746e+00	-2.3291104836e+00
 4.2498785888e-01	 1.2285704375e+00	-2.4709308441e+00
 5.3615738366e-01	 1.1964729857e+00	-2.3765601071e+00
 5.1480478151e-01	 1.2058144064e+00	-2.2518722996e+00
 4.9336344976e-01	 1.2147447683e+00	-2.1932064384e+00
 4.7184474900e-01	 1.2232640265e+00	-2.2010841293e+00
 4.5025995334e-01	 1.2313725351e+00	-2.2748413901e+00
 4.2862023375e-01	 1.2390710395e+00	-2.4128651096e+00
 5.4070109030e-01	 1.2066125873e+00	-2.4181507688e+00
 5.1916753390e-01	 1.2160331725e+00	-2.2826717890e+00
 4.9754449594e-01	 1.2250392155e+00	-2.2157099409e+00
 4.7584343332e-01	 1.2336306708e+00	-2.2170407223e+00
 4.5407571565e-01	 1.2418078955e+00	-2.2852250601e+00
 4.3225260861e-01	 1.2495716415e+00	-2.4178583807e+00
 5.4524479694e-01	 1.2167521889e+00	-2.5282922672e+00
 5.2353028628e-01	 1.2262519387e+00	-2.3814645293e+00
 5.0172554212e-01	 1.2353336627e+00	-2.3055013638e+00
 4.7984211763e-01	 1.2439973151e+00	-2.2993893138e+00
 4.5789147797e-01	 1.2522432560e+00	-2.3608701360e+00
 4.3588498347e-01	 1.2600722435e+00	-2.4867028400e+00
 4.1772310916e-01	 1.2075692334e+00	-2.7726696705e+00
 3.9659079532e-01	 1.2146735325e+00	-2.7561948622e+00
 3.7542636485e-01	 1.2213808145e+00	-2.7575628853e+00
 3.5424031253e-01	 1.2276928974e+00	-2.7746137191e+00
 3.3304297435e-01	 1.2336119433e+00	-2.8011321669e+00
 3.1184451472e-01	 1.2391404473e+00	-2.8299547184e+00
 4.2135548402e-01	 1.2180698354e+00	-2.5911835486e+00
 4.0003941093e-01	 1.2252359110e+00	-2.5663197198e+00
 3.7869094194e-01	 1.2320015172e+00	-2.5601402353e+00
 3.5732066307e-01	 1.2383684878e+00	-2.5713016709e+00
 3.3593900022e-01	 1.2443390037e+00	-2.5969593169e+00
 3.1455620615e-01	 1.2499155816e+00	-2.6300817496e+00
 4.2498785888e-01	 1.2285704375e+00	-2.4709308441e+00
 4.0348802654e-01	 1.2357982895e+00	-2.4385106163e+00
 3.8195551903e-01	 1.2426222199e+00	-2.4252216834e+00
 3.6040101362e-01	 1.2490440782e+00	-2.4297260446e+00
 3.3883502608e-01	 1.2550660640e+00	-2.4528486024e+00
 3.1726789758e-01	 1.2606907159e+00	-2.4882950988e+00
 4.2862023375e-01	 1.2390710395e+00	-2.4128651096e+00
 4.0693664216e-01	 1.2463606681e+00	-2.3738224248e+00
 3.8522009611e-01	 1.2532429227e+00	-2.3539619306e+00
 3.6348136416e-01	 1.2597196687e+00	-2.3514129306e+00
 3.4173105194e-01	 1.2657931244e+00	-2.3703430764e+00
 3.1997958901e-01	 1.2714658502e+00	-2.4061258205e+00
 4.3225260861e-01	 1.2495716415e+00	-2.4178583807e+00
 4.1038525777e-01	 1.2569230466e+00	-2.3732325529e+00
 3.8848467320e-01	 1.2638636254e+00	-2.3474424734e+00
 3.6656171470e-01	 1.2703952591e+00	-2.3378300474e+00
 3.4462707781e-01	 1.2765201848e+00	-2.3509440568e+00
 3.2269128045e-01	 1.2822409846e+00	-2.3850783153e+00
 4.3588498347e-01	 1.2600722435e+00	-2.4867028400e+00
 4.1383387338e-01	 1.2674854252e+00	-2.4376423798e+00
 3.9174925028e-01	 1.2744843281e+00	-2.4066728239e+00
 3.6964206525e-01	 1.2810708495e+00	-2.3903831067e+00
 3.4752310367e-01	 1.2872472452e+00	-2.3961078586e+00
 3.2540297188e-01	 1.2930161189e+00	-2.4266274043e+00
 3.1184451472e-01	 1.2391404473e+00	-2.8299547184e+00
 2.9065491432e-01	 1.2442812263e+00	-2.8331507854e+00
 2.6948395882e-01	 1.2490374075e+00	-2.8485388784e+00
 2.4834122826e-01	 1.2534124157e+00	-2.8674493879e+00
 2.2723608731e-01	 1.2574099610e+00	-2.8814127861e+00
 2.0617767622e-01	 1.2610340262e+00	-2.8822268458e+00
 3.1455620615e-01	 1.2499155816e+00	-2.6300817496e+00
 2.9318234836e-01	 1.2551010631e+00	-2.6304886982e+00
 2.7182729759e-01	 1.2598986023e+00	-2.6454367414e+00
 2.5050071720e-01	 1.2643116541e+00	-2.6662844252e+00
 2.2921205329e-01	 1.2683439607e+00	-2.6846682091e+00
 2.0797052558e-01	 1.2719995395e+00	-2.6925637485e+00
 3.1726789758e-01	 1.2606907159e+00	-2.4882950988e+00
 2.9570978239e-01	 1.2659208998e+00	-2.4829040387e+00
 2.7417063636e-01	 1.2707597972e+00	-2.4941418160e+00
 2.5266020614e-01	 1.2752108925e+00	-2.5134054929e+00
 2.3118801926e-01	 1.2792779603e+00	-2.5324573830e+00
 2.0976337494e-01	 1.2829650527e+00	-2.5434797610e+00
 3.1997958901e-01	 1.2714658502e+00	-2.4061258205e+00
 2.9823721643e-01	 1.2767407366e+00	-2.3919043192e+00
 2.7651397513e-01	 1.2816209920e+00	-2.3961065734e+00
 2.5481969509e-01	 1.2861101309e+00	-2.4101787442e+00
 2.3316398524e-01	 1.2902119600e+00	-2.4260296324e+00
 2.1155622430e-01	 1.2939305660e+00	-2.4360781486e+00
 3.2269128045e-01	 1.2822409846e+00	-2.3850783153e+00
 3.0076465047e-01	 1.2875605733e+00	-2.3589832584e+00
 2.7885731391e-01	 1.2924821869e+00	-2.3527809581e+00
 2.5697918403e-01	 1.2970093692e+00	-2.3579774679e+00
 2.3513995122e-01	 1.3011459596e+00	-2.3666494801e+00
 2.1334907365e-01	 1.3048960793e+00	-2.3714838584e+00
 3.2540297188e-01	 1.2930161189e+00	-2.4266274043e+00
 3.0329208451e-01	 1.2983804101e+00	-2.3856181973e+00
 2.8120065268e-01	 1.3033433817e+00	-2.3656101187e+00
 2.5913867297e-01	 1.3079086076e+00	-2.3581801056e+00
 2.3711591719e-01	 1.3120799593e+00	-2.3555949222e+00
 2.1514192301e-01	 1.3158615925e+00	-2.3508420248e+00
 2.0617767622e-01	 1.2610340262e+00	-2.8822268458e+00
 1.8517490264e-01	 1.2642888534e+00	-2.8479768623e+00
 1.6423643417e-01	 1.2671789310e+00	-2.8437895231e+00
 1.4337069171e-01	 1.2697089801e+00	-2.8602739481e+00
 1.2258584358e-01	 1.2718839414e+00	-2.8881792841e+00
 1.0188980038e-01	 1.2737089612e+00	-2.9183508690e+00
 2.0797052558e-01	 1.2719995395e+00	-2.6925637485e+00
 1.8678511919e-01	 1.2752826695e+00	-2.6583476072e+00
 1.6566457708e-01	 1.2781978782e+00	-2.6574107794e+00
 1.4461739338e-01	 1.2807499278e+00	-2.6806706204e+00
 1.2365180743e-01	 1.2829438017e+00	-2.7192123103e+00
 1.0277579865e-01	 1.2847846913e+00	-2.7642309330e+00
 2.0976337494e-01	 1.2829650527e+00	-2.5434797610e+00
 1.8839533573e-01	 1.2862764856e+00	-2.5049446290e+00
 1.6709271998e-01	 1.2892168254e+00	-2.5027856249e+00
 1.4586409505e-01	 1.2917908754e+00	-2.5282788501e+00
 1.2471777129e-01	 1.2940036621e+00	-2.5729011659e+00
 1.0366179691e-01	 1.2958604214e+00	-2.6282570716e+00
 2.1155622430e-01	 1.2939305660e+00	-2.4360781486e+00
 1.9000555227e-01	 1.2972703017e+00	-2.3887035739e+00
 1.6852086289e-01	 1.3002357726e+00	-2.3806567631e+00
 1.4711079671e-01	 1.3028318231e+00	-2.4036256510e+00
 1.2578373515e-01	 1.3050635225e+00	-2.4495373484e+00
 1.0454779517e-01	 1.3069361515e+00	-2.5104686532e+00
 2.1334907365e-01	 1.3048960793e+00	-2.3714838584e+00
 1.9161576882e-01	 1.3082641179e+00	-2.3105865139e+00
 1.6994900579e-01	 1.3112547199e+00	-2.2917965784e+00
 1.4835749838e-01	 1.3138727707e+00	-2.3072695496e+00
 1.2684969901e-01	 1.3161233828e+00	-2.3494443546e+00
 1.0543379344e-01	 1.3180118816e+00	-2.4109362741e+00
 2.1514192301e-01	 1.3158615925e+00	-2.3508420248e+00
 1.9322598536e-01	 1.3192579340e+00	-2.2715806621e+00
 1.7137714870e-01	 1.3222736671e+00	-2.2370060347e+00
 1.4960420005e-01	 1.3249137184e+00	-2.2397996412e+00
 1.2791566286e-01	 1.3271832432e+00	-2.2729768671e+00
 1.0631979170e-01	 1.3290876117e+00	-2.3297610514e+00
 1.0188980038e-01	 1.2737089612e+00	-2.9183508690e+00
 8.1290210658e-02	 1.2751893785e+00	-2.8728665139e+00
 6.0794457214e-02	 1.2763307108e+00	-2.8545305704e+00
 4.0409654200e-02	 1.2771386414e+00	-2.8517503242e+00
 2.0142644869e-02	 1.2776190055e+00	-2.8527686732e+00
 0.0000000000e+00	 1.2777777778e+00	-2.8456270308e+00
 1.0277579865e-01	 1.2847846913e+00	-2.7642309330e+00
 8.1997082055e-02	 1.2862779818e+00	-2.7199034124e+00
 6.1323104668e-02	 1.2874292387e+00	-2.7055095669e+00
 4.0761042498e-02	 1.2882441948e+00	-2.7097755647e+00
 2.0317798302e-02	 1.2887287360e+00	-2.7212238025e+00
 0.0000000000e+00	 1.2888888889e+00	-2.7281225548e+00
 1.0366179691e-01	 1.2958604214e+00	-2.6282570716e+00
 8.2703953452e-02	 1.2973665851e+00	-2.5804482844e+00
 6.1851752122e-02	 1.2985277666e+00	-2.5655702936e+00
 4.1112430795e-02	 1.2993497482e+00	-2.5727325020e+00
 2.0492951736e-02	 1.2998384665e+00	-2.5908005503e+00
 0.0000000000e+00	 1.3000000000e+00	-2.6083316354e+00
 1.0454779517e-01	 1.3069361515e+00	-2.5104686532e+00
 8.3410824849e-02	 1.3084551884e+00	-2.4542812329e+00
 6.2380399576e-02	 1.3096262946e+00	-2.4342230803e+00
 4.1463819093e-02	 1.3104553016e+00	-2.4398549764e+00
 2.0668105170e-02	 1.3109481970e+00	-2.4604534280e+00
 0.0000000000e+00	 1.3111111111e+00	-2.4849305283e+00
 1.0543379344e-01	 1.3180118816e+00	-2.4109362741e+00
 8.4117696246e-02	 1.3195437917e+00	-2.3412114554e+00
 6.2909047030e-02	 1.3207248225e+00	-2.3110041957e+00
 4.1815207390e-02	 1.3215608550e+00	-2.3103987016e+00
 2.0843258603e-02	 1.3220579274e+00	-2.3291539617e+00
 0.0000000000e+00	 1.3222222222e+00	-2.3566069709e+00
 1.0631979170e-01	 1.3290876117e+00	-2.3297610514e+00
 8.4824567643e-02	 1.3306323950e+00	-2.2410766264e+00
 6.3437694484e-02	 1.3318233504e+00	-2.1954752971e+00
 4.2166595687e-02	 1.3326664084e+00	-2.1836407586e+00
 2.1018412037e-02	 1.3331676579e+00	-2.1958902085e+00
 0.0000000000e+00	 1.3333333333e+00	-2.2220597037e+00
 1.3333333333e+00	 0.0000000000e+00	 3.7373776959e+00
 1.3331676579e+00	 2.1018412037e-02	 3.7685263935e+00
 1.3326664084e+00	 4.2166595687e-02	 3.7737031637e+00
 1.3318233504e+00	 6.3437694484e-02	 3.7582972476e+00
 1.3306323950e+00	 8.4824567643e-02	 3.7275650672e+00
 1.3290876117e+00	 1.0631979170e-01	 3.6867637509e+00
 1.3444444444e+00	 0.0000000000e+00	 3.7652099767e+00
 1.3442773884e+00	 2.1193565470e-02	 3.7857337062e+00
 1.3437719618e+00	 4.2517983985e-02	 3.7808797639e+00
 1.3429218783e+00	 6.3966341938e-02	 3.7554742365e+00
 1.3417209982e+00	 8.5531439040e-02	 3.7141529827e+00
 1.3401633418e+00	 1.0720578997e-01	 3.6615146962e+00
 1.3555555556e+00	 0.0000000000e+00	 3.7852331478e+00
 1.3553871189e+00	 2.1368718904e-02	 3.7994447098e+00
 1.3548775152e+00	 4.2869372282e-02	 3.7893095273e+00
 1.3540204062e+00	 6.4494989392e-02	 3.7590174821e+00
 1.3528096015e+00	 8.6238310437e-02	 3.7125069166e+00
 1.3512390719e+00	 1.0809178823e-01	 3.6536385105e+00
 1.3666666667e+00	 0.0000000000e+00	 3.7968654681e+00
 1.3664968494e+00	 2.1543872338e-02	 3.8091919485e+00
 1.3659830686e+00	 4.3220760580e-02	 3.7986503802e+00
 1.3651189342e+00	 6.5023636846e-02	 3.7687172532e+00
 1.3638982048e+00	 8.6945181834e-02	 3.7225521791e+00
 1.3623148020e+00	 1.0897778650e-01	 3.6631939082e+00
 1.3777777778e+00	 0.0000000000e+00	 3.7995307526e+00
 1.3776065799e+00	 2.1719025771e-02	 3.8145143096e+00
 1.3770886220e+00	 4.3572148877e-02	 3.8085673941e+00
 1.3762174621e+00	 6.5552284301e-02	 3.7843716571e+00
 1.3749868081e+00	 8.7652053231e-02	 3.7442223758e+00
 1.3733905321e+00	 1.0986378476e-01	 3.6902479942e+00
 1.3888888889e+00	 0.0000000000e+00	 3.7926581498e+00
 1.3887163103e+00	 2.1894179205e-02	 3.8149567968e+00
 1.3881941754e+00	 4.3923537174e-02	 3.8187325487e+00
 1.3873159900e+00	 6.6080931755e-02	 3.8057863841e+00
 1.3860754114e+00	 8.8358924628e-02	 3.7774591264e+00
 1.3844662622e+00	 1.1074978302e-01	 3.7348759446e+00
 1.3290876117e+00	 1.0631979170e-01	 3.6867637509e+00
 1.3271832432e+00	 1.2791566286e-01	 3.7041023450e+00
 1.3249137184e+00	 1.4960420005e-01	 3.6835872142e+00
 1.3222736671e+00	 1.7137714870e-01	 3.6306606227e+00
 1.3192579340e+00	 1.9322598536e-01	 3.5514745783e+00
 1.3158615925e+00	 2.1514192301e-01	 3.4530306126e+00
 1.3401633418e+00	 1.0720578997e-01	 3.6615146962e+00
 1.3382431035e+00	 1.2898162672e-01	 3.6653053805e+00
 1.3359546660e+00	 1.5085090171e-01	 3.6324501080e+00
 1.3332926143e+00	 1.7280529161e-01	 3.5677843776e+00
 1.3302517501e+00	 1.9483620191e-01	 3.4768978722e+00
 1.3268271058e+00	 2.1693477237e-01	 3.3662976252e+00
 1.3512390719e+00	 1.0809178823e-01	 3.6536385105e+00
 1.3493029639e+00	 1.3004759058e-01	 3.6493620669e+00
 1.3469956137e+00	 1.5209760338e-01	 3.6096291521e+00
 1.3443115615e+00	 1.7423343451e-01	 3.5385888796e+00
 1.3412455662e+00	 1.9644641845e-01	 3.4411923755e+00
 1.3377926191e+00	 2.1872762173e-01	 3.3233809205e+00
 1.3623148020e+00	 1.0897778650e-01	 3.6631939082e+00
 1.3603628243e+00	 1.3111355443e-01	 3.6564646891e+00
 1.3580365613e+00	 1.5334430505e-01	 3.6154414645e+00
 1.3553305088e+00	 1.7566157742e-01	 3.5435031572e+00
 1.3522393823e+00	 1.9805663500e-01	 3.4448820874e+00
 1.3487581324e+00	 2.2052047109e-01	 3.3248787427e+00
 1.3733905321e+00	 1.0986378476e-01	 3.6902479942e+00
 1.3714226846e+00	 1.3217951829e-01	 3.6868133294e+00
 1.3690775090e+00	 1.5459100671e-01	 3.6502107028e+00
 1.3663494560e+00	 1.7708972032e-01	 3.5829607345e+00
 1.3632331984e+00	 1.9966685154e-01	 3.4884925549e+00
 1.3597236456e+00	 2.2231332045e-01	 3.3713869222e+00
 1.3844662622e+00	 1.1074978302e-01	 3.7348759446e+00
 1.3824825450e+00	 1.3324548215e-01	 3.7406155062e+00
 1.3801184566e+00	 1.5583770838e-01	 3.7142666488e+00
 1.3773684032e+00	 1.7851786323e-01	 3.6573991476e+00
 1.3742270146e+00	 2.0127706809e-01	 3.5725503060e+00
 1.3706891589e+00	 2.2410616980e-01	 3.4634982092e+00
 1.3158615925e+00	 2.1514192301e-01	 3.4530306126e+00
 1.3120799593e+00	 2.3711591719e-01	 3.4741712579e+00
 1.3079086076e+00	 2.5913867297e-01	 3.4354506312e+00
 1.3033433817e+00	 2.8120065268e-01	 3.3466389109e+00
 1.2983804101e+00	 3.0329208451e-01	 3.2187629127e+00
 1.2930161189e+00	 3.2540297188e-01	 3.0640419964e+00
 1.3268271058e+00	 2.1693477237e-01	 3.3662976252e+00
 1.3230139590e+00	 2.3909188317e-01	 3.3787864427e+00
 1.3188078460e+00	 2.6129816191e-01	 3.3312888141e+00
 1.3142045766e+00	 2.8354399145e-01	 3.2333882949e+00
 1.3092002468e+00	 3.0581951854e-01	 3.0960717921e+00
 1.3037912532e+00	 3.2811466331e-01	 2.9316797769e+00
 1.3377926191e+00	 2.1872762173e-01	 3.3233809205e+00
 1.3339479586e+00	 2.4106784915e-01	 3.3314372902e+00
 1.3297070844e+00	 2.6345765085e-01	 3.2789965298e+00
 1.3250657714e+00	 2.8588733022e-01	 3.1754088366e+00
 1.3200200836e+00	 3.0834695258e-01	 3.0315854816e+00
 1.3145663875e+00	 3.3082635474e-01	 2.8599645880e+00
 1.3487581324e+00	 2.2052047109e-01	 3.3248787427e+00
 1.3448819583e+00	 2.4304381512e-01	 3.3327822129e+00
 1.3406063228e+00	 2.6561713979e-01	 3.2792654770e+00
 1.3359269663e+00	 2.8823066900e-01	 3.1733959301e+00
 1.3308399203e+00	 3.1087438662e-01	 3.0259712524e+00
 1.3253415218e+00	 3.3353804617e-01	 2.8495020703e+00
 1.3597236456e+00	 2.2231332045e-01	 3.3713869222e+00
 1.3558159579e+00	 2.4501978110e-01	 3.3834718045e+00
 1.3515055612e+00	 2.6777662873e-01	 3.3327729092e+00
 1.3467881611e+00	 2.9057400777e-01	 3.2280225934e+00
 1.3416597571e+00	 3.1340182066e-01	 3.0798646982e+00
 1.3361166562e+00	 3.3624973761e-01	 2.9008554613e+00
 1.3706891589e+00	 2.2410616980e-01	 3.4634982092e+00
 1.3667499576e+00	 2.4699574707e-01	 3.4841480699e+00
 1.3624047996e+00	 2.6993611768e-01	 3.4401807401e+00
 1.3576493560e+00	 2.9291734654e-01	 3.3399384323e+00
 1.3524795938e+00	 3.1592925469e-01	 3.1938685355e+00
 1.3468917905e+00	 3.3896142904e-01	 3.0145442117e+00
 1.2930161189e+00	 3.2540297188e-01	 3.0640419964e+00
 1.2872472452e+00	 3.4752310367e-01	 2.9764327816e+00
 1.2810708495e+00	 3.6964206525e-01	 2.8762668678e+00
 1.2744843281e+00	 3.9174925028e-01	 2.7888245394e+00
 1.2674854252e+00	 4.1383387338e-01	 2.7335159544e+00
 1.2600722435e+00	 4.3588498347e-01	 2.7134187880e+00
 1.3037912532e+00	 3.2811466331e-01	 2.9316797769e+00
 1.2979743055e+00	 3.5041912954e-01	 2.8354496394e+00
 1.2917464399e+00	 3.7272241579e-01	 2.7298873552e+00
 1.2851050309e+00	 3.9501382737e-01	 2.6419454818e+00
 1.2780478037e+00	 4.1728248899e-01	 2.5864046962e+00
 1.2705728456e+00	 4.3951735833e-01	 2.5670668808e+00
 1.3145663875e+00	 3.3082635474e-01	 2.8599645880e+00
 1.3087013659e+00	 3.5331515540e-01	 2.7570990771e+00
 1.3024220303e+00	 3.7580276634e-01	 2.6479259235e+00
 1.2957257336e+00	 3.9827840445e-01	 2.5593747593e+00
 1.2886101823e+00	 4.2073110460e-01	 2.5029210026e+00
 1.2810734476e+00	 4.4314973320e-01	 2.4831607396e+00
 1.3253415218e+00	 3.3353804617e-01	 2.8495020703e+00
 1.3194284263e+00	 3.5621118126e-01	 2.7418894032e+00
 1.3130976207e+00	 3.7888311688e-01	 2.6305729426e+00
 1.3063464363e+00	 4.0154298154e-01	 2.5411331912e+00
 1.2991725608e+00	 4.2417972021e-01	 2.4829317553e+00
 1.2915740496e+00	 4.4678210806e-01	 2.4614154366e+00
 1.3361166562e+00	 3.3624973761e-01	 2.9008554613e+00
 1.3301554867e+00	 3.5910720713e-01	 2.7902743710e+00
 1.3237732111e+00	 3.8196346742e-01	 2.6779425450e+00
 1.3169671391e+00	 4.0480755862e-01	 2.5871799611e+00
 1.3097349393e+00	 4.2762833582e-01	 2.5262426614e+00
 1.3020746517e+00	 4.5041448292e-01	 2.5014858553e+00
 1.3468917905e+00	 3.3896142904e-01	 3.0145442117e+00
 1.3408825470e+00	 3.6200323299e-01	 2.9026515879e+00
 1.3344488015e+00	 3.8504381797e-01	 2.7900894325e+00
 1.3275878418e+00	 4.0807213571e-01	 2.6974150481e+00
 1.3202973179e+00	 4.3107695144e-01	 2.6326010146e+00
 1.3125752537e+00	 4.5404685778e-01	 2.6029697982e+00
 1.2600722435e+00	 4.3588498347e-01	 2.7134187880e+00
 1.2522432560e+00	 4.5789147797e-01	 2.4180428993e+00
 1.2439973151e+00	 4.7984211763e-01	 2.2041010388e+00
 1.2353336627e+00	 5.0172554212e-01	 2.0739649060e+00
 1.2262519387e+00	 5.2353028628e-01	 2.0291697177e+00
 1.2167521889e+00	 5.4524479694e-01	 2.0701926473e+00
 1.2705728456e+00	 4.3951735833e-01	 2.5670668808e+00
 1.2626786165e+00	 4.6170724029e-01	 2.2700180564e+00
 1.2543639594e+00	 4.8384080194e-01	 2.0546764075e+00
 1.2456281099e+00	 5.0590658831e-01	 1.9242315840e+00
 1.2364707048e+00	 5.2789303867e-01	 1.8810234899e+00
 1.2268917905e+00	 5.4978850358e-01	 1.9263109454e+00
 1.2810734476e+00	 4.4314973320e-01	 2.4831607396e+00
 1.2731139769e+00	 4.6552300260e-01	 2.1836505185e+00
 1.2647306037e+00	 4.8783948626e-01	 1.9657666559e+00
 1.2559225571e+00	 5.1008763449e-01	 1.8335670654e+00
 1.2466894710e+00	 5.3225579105e-01	 1.7902446032e+00
 1.2370313920e+00	 5.5433221022e-01	 1.8378858096e+00
 1.2915740496e+00	 4.4678210806e-01	 2.4614154366e+00
 1.2835493374e+00	 4.6933876492e-01	 2.1584861674e+00
 1.2750972480e+00	 4.9183817057e-01	 1.9367513698e+00
 1.2662170043e+00	 5.1426868068e-01	 1.8011880879e+00
 1.2569082371e+00	 5.3661854344e-01	 1.7558907336e+00
 1.2471709936e+00	 5.5887591687e-01	 1.8038197709e+00
 1.3020746517e+00	 4.5041448292e-01	 2.5014858553e+00
 1.2939846979e+00	 4.7315452723e-01	 2.1940128379e+00
 1.2854638922e+00	 4.9583685488e-01	 1.9669547140e+00
 1.2765114514e+00	 5.1844972686e-01	 1.8262590309e+00
 1.2671270033e+00	 5.4098129583e-01	 1.7769706386e+00
 1.2573105952e+00	 5.6341962351e-01	 1.8229701931e+00
 1.3125752537e+00	 4.5404685778e-01	 2.6029697982e+00
 1.3044200583e+00	 4.7697028955e-01	 2.2896637598e+00
 1.2958305365e+00	 4.9983553920e-01	 2.0556492229e+00
 1.2868058986e+00	 5.2263077305e-01	 1.9078960635e+00
 1.2773457695e+00	 5.4534404821e-01	 1.8524486734e+00
 1.2674501968e+00	 5.6796333015e-01	 1.8941541653e+00
 1.2167521889e+00	 5.4524479694e-01	 2.0701926473e+00
 1.2068348722e+00	 5.6685745039e-01	 1.6991495398e+00
 1.1965008667e+00	 5.8835657034e-01	 1.4411188739e+00
 1.1857514750e+00	 6.0973044640e-01	 1.2912744780e+00
 1.1745884289e+00	 6.3096735298e-01	 1.2428008446e+00
 1.1630138921e+00	 6.5205556855e-01	 1.2867218018e+00
 1.2268917905e+00	 5.4978850358e-01	 1.9263109454e+00
 1.2168918295e+00	 5.7158126247e-01	 1.5512650938e+00
 1.2064717072e+00	 5.9325954176e-01	 1.2921972092e+00
 1.1956327373e+00	 6.1481153345e-01	 1.1448649334e+00
 1.1843766658e+00	 6.3622541425e-01	 1.1029860028e+00
 1.1727056746e+00	 6.5748936495e-01	 1.1580625144e+00
 1.2370313920e+00	 5.5433221022e-01	 1.8378858096e+00
 1.2269487867e+00	 5.7630507456e-01	 1.4562011971e+00
 1.2164425478e+00	 5.9816251318e-01	 1.1933525579e+00
 1.2055139996e+00	 6.1989262051e-01	 1.0457217486e+00
 1.1941649027e+00	 6.4148347553e-01	 1.0075981714e+00
 1.1823974570e+00	 6.6292316136e-01	 1.0709988731e+00
 1.2471709936e+00	 5.5887591687e-01	 1.8038197709e+00
 1.2370057440e+00	 5.8102888665e-01	 1.4127227402e+00
 1.2264133883e+00	 6.0306548460e-01	 1.1432153818e+00
 1.2153952619e+00	 6.2497370756e-01	 9.9234374878e-01
 1.2039531396e+00	 6.4674153680e-01	 9.5500678122e-01
 1.1920892394e+00	 6.6835695776e-01	 1.0237725040e+00
 1.2573105952e+00	 5.6341962351e-01	 1.8229701931e+00
 1.2470627013e+00	 5.8575269873e-01	 1.4195529964e+00
 1.2363842289e+00	 6.0796845601e-01	 1.1403782476e+00
 1.2252765242e+00	 6.3005479461e-01	 9.8319567351e-01
 1.2137413765e+00	 6.5199959808e-01	 9.4355098571e-01
 1.2017810219e+00	 6.7379075417e-01	 1.0145984717e+00
 1.2674501968e+00	 5.6796333015e-01	 1.8941541653e+00
 1.2571196585e+00	 5.9047651082e-01	 1.4753789130e+00
 1.2463550694e+00	 6.1287142743e-01	 1.1834015195e+00
 1.2351577865e+00	 6.3513588167e-01	 1.0167142724e+00
 1.2235296134e+00	 6.5725765935e-01	 9.7154615858e-01
 1.2114728043e+00	 6.7922455057e-01	 1.0416721745e+00
 1.1630138921e+00	 6.5205556855e-01	 1.2867218018e+00
 1.1510304633e+00	 6.7298339525e-01	 9.7913038902e-01
 1.1386411769e+00	 6.9373917872e-01	 7.3509911161e-01
 1.1258495034e+00	 7.1431132819e-01	 5.3611924448e-01
 1.1126593485e+00	 7.3468833655e-01	 3.6094707224e-01
 1.0990750515e+00	 7.5485880066e-01	 1.2029908048e-01
 1.1727056746e+00	 6.5748936495e-01	 1.1580625144e+00
 1.1606223839e+00	 6.7859159021e-01	 8.4722404657e-01
 1.1481298534e+00	 6.9952033855e-01	 6.0241633110e-01
 1.1352315825e+00	 7.2026392259e-01	 4.0585567295e-01
 1.1219315098e+00	 7.4081073935e-01	 2.3697121198e-01
 1.1082340103e+00	 7.6114929067e-01	 9.4968652907e-03
 1.1823974570e+00	 6.6292316136e-01	 1.0709988731e+00
 1.1702143044e+00	 6.8419978517e-01	 7.5784450230e-01
 1.1576185298e+00	 7.0530149837e-01	 5.1332608793e-01
 1.1446136617e+00	 7.2621651699e-01	 3.2041312679e-01
 1.1312036710e+00	 7.4693314216e-01	 1.5356082655e-01
 1.1173929690e+00	 7.6743978067e-01	-9.7555330388e-02
 1.1920892394e+00	 6.6835695776e-01	 1.0237725040e+00
 1.1798062249e+00	 6.8980798013e-01	 7.0901573080e-01
 1.1671072063e+00	 7.1108265819e-01	 4.6563341612e-01
 1.1539957409e+00	 7.3216911139e-01	 2.7737577557e-01
 1.1404758323e+00	 7.5305554496e-01	 1.0267684393e-01
 1.1265519278e+00	 7.7373027068e-01	-1.7334435401e-01
 1.2017810219e+00	 6.7379075417e-01	 1.0145984717e+00
 1.1893981454e+00	 6.9541617509e-01	 6.9874159938e-01
 1.1765958828e+00	 7.1686381802e-01	 4.5712945931e-01
 1.1633778201e+00	 7.3812170579e-01	 2.7431977909e-01
 1.1497479935e+00	 7.5917794777e-01	 8.1833923453e-02
 1.1357108866e+00	 7.8002076068e-01	-2.1835791618e-01
 1.2114728043e+00	 6.7922455057e-01	 1.0416721745e+00
 1.1989900660e+00	 7.0102437005e-01	 7.2501303870e-01
 1.1860845592e+00	 7.2264497784e-01	 4.8559890686e-01
 1.1727598993e+00	 7.4407430019e-01	 3.0720207429e-01
 1.1590201547e+00	 7.6530035057e-01	 8.8704722292e-02
 1.1448698453e+00	 7.8631125069e-01	-2.3497257142e-01
 1.0990750515e+00	 7.5485880066e-01	 1.2029908048e-01
 1.0851013814e+00	 7.7481144149e-01	 2.2031337836e-01
 1.0707435333e+00	 7.9453512424e-01	 1.7022718884e-01
 1.0560071229e+00	 8.1401887829e-01	-2.4476137199e-02
 1.0408981798e+00	 8.3325191693e-01	-3.5378964244e-01
 1.0254231403e+00	 8.5222365673e-01	-8.0346197169e-01
 1.1082340103e+00	 7.6114929067e-01	 9.4968652907e-03
 1.0941438929e+00	 7.8126820350e-01	 1.4115130266e-01
 1.0796663961e+00	 8.0115625027e-01	 1.1150302253e-01
 1.0648071822e+00	 8.2080236894e-01	-7.4192467382e-02
 1.0495723313e+00	 8.4019568291e-01	-4.0587798543e-01
 1.0339683331e+00	 8.5932552054e-01	-8.6898552830e-01
 1.1173929690e+00	 7.6743978067e-01	-9.7555330388e-02
 1.1031864044e+00	 7.8772496551e-01	 5.8081795216e-02
 1.0885892589e+00	 8.0777737631e-01	 5.0798163060e-02
 1.0736072416e+00	 8.2758585960e-01	-1.2404730465e-01
 1.0582464828e+00	 8.4713944888e-01	-4.5636235476e-01
 1.0425135260e+00	 8.6642738435e-01	-9.3126480837e-01
 1.1265519278e+00	 7.7373027068e-01	-1.7334435401e-01
 1.1122289159e+00	 7.9418172752e-01	-2.9612203612e-02
 1.0975121216e+00	 8.1439850234e-01	-1.2849115578e-02
 1.0824073009e+00	 8.3436935025e-01	-1.7499253325e-01
 1.0669206343e+00	 8.5408321486e-01	-5.0620776378e-01
 1.0510587188e+00	 8.7352924815e-01	-9.9130052117e-01
 1.1357108866e+00	 7.8002076068e-01	-2.1835791618e-01
 1.1212714274e+00	 8.0063848954e-01	-1.0111056027e-01
 1.1064349844e+00	 8.2101962838e-01	-8.0334053639e-02
 1.0912073603e+00	 8.4115284090e-01	-2.2791134970e-01
 1.0755947858e+00	 8.6102698083e-01	-5.5630937324e-01
 1.0596039117e+00	 8.8063111196e-01	-1.0500233736e+00
 1.1448698453e+00	 7.8631125069e-01	-2.3497257142e-01
 1.1303139390e+00	 8.0709525155e-01	-1.4466928094e-01
 1.1153578472e+00	 8.2764075441e-01	-1.4894642067e-01
 1.1000074197e+00	 8.4793633155e-01	-2.8361219773e-01
 1.0842689373e+00	 8.6797074680e-01	-6.0748652421e-01
 1.0681491045e+00	 8.8773297576e-01	-1.1082882278e+00
 1.0254231403e+00	 8.5222365673e-01	-8.0346197169e-01
 1.0095888385e+00	 8.7092373660e-01	-6.5895746827e-01
 9.9340249657e-01	 8.8934203633e-01	-6.4191521749e-01
 9.7687171414e-01	 9.0746869472e-01	-7.2546290513e-01
 9.6000445643e-01	 9.2529412697e-01	-8.8036024527e-01
 9.4280904158e-01	 9.4280904158e-01	-1.0756960724e+00
 1.0339683331e+00	 8.5932552054e-01	-8.6898552830e-01
 1.0180020788e+00	 8.7818143440e-01	-7.2205566603e-01
 1.0016808507e+00	 8.9675321997e-01	-7.0200146580e-01
 9.8501231176e-01	 9.1503093384e-01	-7.8137248245e-01
 9.6800449357e-01	 9.3300491136e-01	-9.3021424134e-01
 9.5066578360e-01	 9.5066578360e-01	-1.1167996837e+00
 1.0425135260e+00	 8.6642738435e-01	-9.3126480837e-01
 1.0264153191e+00	 8.8543913221e-01	-7.8370657092e-01
 1.0099592048e+00	 9.0416440361e-01	-7.6268216383e-01
 9.9315290937e-01	 9.2259317296e-01	-8.4012737214e-01
 9.7600453071e-01	 9.4071569575e-01	-9.8532893310e-01
 9.5852252561e-01	 9.5852252561e-01	-1.1656918801e+00
 1.0510587188e+00	 8.7352924815e-01	-9.9130052117e-01
 1.0348285595e+00	 8.9269683001e-01	-8.4488664421e-01
 1.0182375590e+00	 9.1157558724e-01	-8.2492551106e-01
 1.0012935070e+00	 9.3015541209e-01	-9.0270172764e-01
 9.8400456784e-01	 9.4842648014e-01	-1.0466964680e+00
 9.6637926762e-01	 9.6637926762e-01	-1.2233923148e+00
 1.0596039117e+00	 8.8063111196e-01	-1.0500233736e+00
 1.0432417998e+00	 8.9995452782e-01	-9.0650580478e-01
 1.0265159131e+00	 9.1898677088e-01	-8.8963768808e-01
 1.0094341046e+00	 9.3771765121e-01	-9.7001320290e-01
 9.9200460498e-01	 9.5613726454e-01	-1.1152589292e+00
 9.7423600963e-01	 9.7423600963e-01	-1.2908778372e+00
 1.0681491045e+00	 8.8773297576e-01	-1.1082882278e+00
 1.0516550401e+00	 9.0721222562e-01	-9.6940163269e-01
 1.0347942673e+00	 9.2639795451e-01	-9.5765712587e-01
 1.0175747022e+00	 9.4527989033e-01	-1.0429173062e+00
 1.0000046421e+00	 9.6384804893e-01	-1.1919027923e+00
 9.8209275165e-01	 9.8209275165e-01	-1.3690770680e+00
 9.4280904158e-01	 9.4280904158e-01	-1.0756960724e+00
 9.2529412697e-01	 9.6000445643e-01	-1.2420744867e+00
 9.0746869472e-01	 9.7687171414e-01	-1.3784480812e+00
 8.8934203633e-01	 9.9340249657e-01	-1.4532122811e+00
 8.7092373660e-01	 1.0095888385e+00	-1.4362285057e+00
 8.5222365673e-01	 1.0254231403e+00	-1.2996122085e+00
 9.5066578360e-01	 9.5066578360e-01	-1.1167996837e+00
 9.3300491136e-01	 9.6800449357e-01	-1.2722664547e+00
 9.1503093384e-01	 9.8501231176e-01	-1.4011771104e+00
 8.9675321997e-01	 1.0016808507e+00	-1.4709962443e+00
 8.7818143440e-01	 1.0180020788e+00	-1.4506886516e+00
 8.5932552054e-01	 1.0339683331e+00	-1.3115492361e+00
 9.5852252561e-01	 9.5852252561e-01	-1.1656918801e+00
 9.4071569575e-01	 9.7600453071e-01	-1.3127264030e+00
 9.2259317296e-01	 9.9315290937e-01	-1.4365165858e+00
 9.0416440361e-01	 1.0099592048e+00	-1.5035330703e+00
 8.8543913221e-01	 1.0264153191e+00	-1.4817811869e+00
 8.6642738435e-01	 1.0425135260e+00	-1.3416747258e+00
 9.6637926762e-01	 9.6637926762e-01	-1.2233923148e+00
 9.4842648014e-01	 9.8400456784e-01	-1.3645106991e+00
 9.3015541209e-01	 1.0012935070e+00	-1.4855663994e+00
 9.1157558724e-01	 1.0182375590e+00	-1.5519697597e+00
 8.9269683001e-01	 1.0348285595e+00	-1.5307004798e+00
 8.7352924815e-01	 1.0510587188e+00	-1.3912273206e+00
 9.7423600963e-01	 9.7423600963e-01	-1.2908778372e+00
 9.5613726454e-01	 9.9200460498e-01	-1.4286408101e+00
 9.3771765121e-01	 1.0094341046e+00	-1.5493999597e+00
 9.1898677088e-01	 1.0265159131e+00	-1.6174356451e+00
 8.9995452782e-01	 1.0432417998e+00	-1.5986323243e+00
 8.8063111196e-01	 1.0596039117e+00	-1.4614463394e+00
 9.8209275165e-01	 9.8209275165e-01	-1.3690770680e+00
 9.6384804893e-01	 1.0000046421e+00	-1.5060980149e+00
 9.4527989033e-01	 1.0175747022e+00	-1.6290590584e+00
 9.2639795451e-01	 1.0347942673e+00	-1.7010374272e+00
 9.0721222562e-01	 1.0516550401e+00	-1.6867491612e+00
 8.8773297576e-01	 1.0681491045e+00	-1.5535671939e+00
 8.5222365673e-01	 1.0254231403e+00	-1.2996122085e+00
 8.3325191693e-01	 1.0408981798e+00	-1.6467807237e+00
 8.1401887829e-01	 1.0560071229e+00	-1.8843772396e+00
 7.9453512424e-01	 1.0707435333e+00	-1.9975938818e+00
 7.7481144149e-01	 1.0851013814e+00	-1.9763615398e+00
 7.5485880066e-01	 1.0990750515e+00	-1.8158337706e+00
 8.5932552054e-01	 1.0339683331e+00	-1.3115492361e+00
 8.4019568291e-01	 1.0495723313e+00	-1.6709833600e+00
 8.2080236894e-01	 1.0648071822e+00	-1.9079795509e+00
 8.0115625027e-01	 1.0796663961e+00	-2.0070951476e+00
 7.8126820350e-01	 1.0941438929e+00	-1.9578910020e+00
 7.6114929067e-01	 1.1082340103e+00	-1.7554449755e+00
 8.6642738435e-01	 1.0425135260e+00	-1.3416747258e+00
 8.4713944888e-01	 1.0582464828e+00	-1.7115880662e+00
 8.2758585960e-01	 1.0736072416e+00	-1.9459722337e+00
 8.0777737631e-01	 1.0885892589e+00	-2.0287111932e+00
 7.8772496551e-01	 1.1031864044e+00	-1.9489664790e+00
 7.6743978067e-01	 1.1173929690e+00	-1.7127573628e+00
 8.7352924815e-01	 1.0510587188e+00	-1.3912273206e+00
 8.5408321486e-01	 1.0669206343e+00	-1.7699436221e+00
 8.3436935025e-01	 1.0824073009e+00	-1.9997996261e+00
 8.1439850234e-01	 1.0975121216e+00	-2.0639642495e+00
 7.9418172752e-01	 1.1122289159e+00	-1.9514799337e+00
 7.7373027068e-01	 1.1265519278e+00	-1.7214761629e+00
 8.8063111196e-01	 1.0596039117e+00	-1.4614463394e+00
 8.6102698083e-01	 1.0755947858e+00	-1.8474064339e+00
 8.4115284090e-01	 1.0912073603e+00	-2.0709207142e+00
 8.2101962838e-01	 1.1064349844e+00	-2.1143981684e+00
 8.0063848954e-01	 1.1212714274e+00	-1.9912111485e+00
 7.8002076068e-01	 1.1357108866e+00	-1.7824527387e+00
 8.8773297576e-01	 1.0681491045e+00	-1.5535671939e+00
 8.6797074680e-01	 1.0842689373e+00	-1.9453362529e+00
 8.4793633155e-01	 1.1000074197e+00	-2.1608051525e+00
 8.2764075441e-01	 1.1153578472e+00	-2.1853876643e+00
 8.0709525155e-01	 1.1303139390e+00	-2.0825853104e+00
 7.8631125069e-01	 1.1448698453e+00	-1.8941304224e+00
 7.5485880066e-01	 1.0990750515e+00	-1.8158337706e+00
 7.3468833655e-01	 1.1126593485e+00	-1.9441208929e+00
 7.1431132819e-01	 1.1258495034e+00	-2.0072773078e+00
 6.9373917872e-01	 1.1386411769e+00	-2.0869216212e+00
 6.7298339525e-01	 1.1510304633e+00	-2.2062980199e+00
 6.5205556855e-01	 1.1630138921e+00	-2.3853502379e+00
 7.6114929067e-01	 1.1082340103e+00	-1.7554449755e+00
 7.4081073935e-01	 1.1219315098e+00	-1.8630318295e+00
 7.2026392259e-01	 1.1352315825e+00	-1.9263838933e+00
 6.9952033855e-01	 1.1481298534e+00	-2.0013831492e+00
 6.7859159021e-01	 1.1606223839e+00	-2.1112673063e+00
 6.5748936495e-01	 1.1727056746e+00	-2.2758804442e+00
 7.6743978067e-01	 1.1173929690e+00	-1.7127573628e+00
 7.4693314216e-01	 1.1312036710e+00	-1.8384845140e+00
 7.2621651699e-01	 1.1446136617e+00	-1.9034918335e+00
 7.0530149837e-01	 1.1576185298e+00	-1.9730728795e+00
 6.8419978517e-01	 1.1702143044e+00	-2.0730020889e+00
 6.6292316136e-01	 1.1823974570e+00	-2.2229983232e+00
 7.7373027068e-01	 1.1265519278e+00	-1.7214761629e+00
 7.5305554496e-01	 1.1404758323e+00	-1.8667113793e+00
 7.3216911139e-01	 1.1539957409e+00	-1.9374140220e+00
 7.1108265819e-01	 1.1671072063e+00	-2.0009234462e+00
 6.8980798013e-01	 1.1798062249e+00	-2.0905594422e+00
 6.6835695776e-01	 1.1920892394e+00	-2.2258898823e+00
 7.8002076068e-01	 1.1357108866e+00	-1.7824527387e+00
 7.5917794777e-01	 1.1497479935e+00	-1.9463348492e+00
 7.3812170579e-01	 1.1633778201e+00	-2.0268878123e+00
 7.1686381802e-01	 1.1765958828e+00	-2.0837908119e+00
 6.9541617509e-01	 1.1893981454e+00	-2.1629187026e+00
 6.7379075417e-01	 1.2017810219e+00	-2.2836624278e+00
 7.8631125069e-01	 1.1448698453e+00	-1.8941304224e+00
 7.6530035057e-01	 1.1590201547e+00	-2.0759321656e+00
 7.4407430019e-01	 1.1727598993e+00	-2.1698302206e+00
 7.2264497784e-01	 1.1860845592e+00	-2.2204581198e+00
 7.0102437005e-01	 1.1989900660e+00	-2.2889851702e+00
 6.7922455057e-01	 1.2114728043e+00	-2.3953481077e+00
 6.5205556855e-01	 1.1630138921e+00	-2.3853502379e+00
 6.3096735298e-01	 1.1745884289e+00	-2.2867566685e+00
 6.0973044640e-01	 1.1857514750e+00	-2.2419793628e+00
 5.8835657034e-01	 1.1965008667e+00	-2.2620415404e+00
 5.6685745039e-01	 1.2068348722e+00	-2.3554273646e+00
 5.4524479694e-01	 1.2167521889e+00	-2.5282922672e+00
 6.5748936495e-01	 1.1727056746e+00	-2.2758804442e+00
 6.3622541425e-01	 1.1843766658e+00	-2.1597917201e+00
 6.1481153345e-01	 1.1956327373e+00	-2.1036985375e+00
 5.9325954176e-01	 1.2064717072e+00	-2.1182410291e+00
 5.7158126247e-01	 1.2168918295e+00	-2.2114241063e+00
 5.4978850358e-01	 1.2268917905e+00	-2.3888380153e+00
 6.6292316136e-01	 1.1823974570e+00	-2.2229983232e+00
 6.4148347553e-01	 1.1941649027e+00	-2.0901850522e+00
 6.1989262051e-01	 1.2055139996e+00	-2.0235789893e+00
 5.9816251318e-01	 1.2164425478e+00	-2.0334026435e+00
 5.7630507456e-01	 1.2269487867e+00	-2.1271444847e+00
 5.5433221022e-01	 1.2370313920e+00	-2.3097899113e+00
 6.6835695776e-01	 1.1920892394e+00	-2.2258898823e+00
 6.4674153680e-01	 1.2039531396e+00	-2.0772389455e+00
 6.2497370756e-01	 1.2153952619e+00	-2.0010478406e+00
 6.0306548460e-01	 1.2264133883e+00	-2.0070864916e+00
 5.8102888665e-01	 1.2370057440e+00	-2.1022892199e+00
 5.5887591687e-01	 1.2471709936e+00	-2.2909962967e+00
 6.7379075417e-01	 1.2017810219e+00	-2.2836624278e+00
 6.5199959808e-01	 1.2137413765e+00	-2.1201767021e+00
 6.3005479461e-01	 1.2252765242e+00	-2.0354529859e+00
 6.0796845601e-01	 1.2363842289e+00	-2.0387732675e+00
 5.8575269873e-01	 1.2470627013e+00	-2.1364795289e+00
 5.6341962351e-01	 1.2573105952e+00	-2.3322260496e+00
 6.7922455057e-01	 1.2114728043e+00	-2.3953481077e+00
 6.5725765935e-01	 1.2235296134e+00	-2.2181460016e+00
 6.3513588167e-01	 1.2351577865e+00	-2.1260662593e+00
 6.1287142743e-01	 1.2463550694e+00	-2.1278672311e+00
 5.9047651082e-01	 1.2571196585e+00	-2.2292599202e+00
 5.6796333015e-01	 1.2674501968e+00	-2.4331711963e+00
 5.4524479694e-01	 1.2167521889e+00	-2.5282922672e+00
 5.2353028628e-01	 1.2262519387e+00	-2.3814645293e+00
 5.0172554212e-01	 1.2353336627e+00	-2.3055013638e+00
 4.7984211763e-01	 1.2439973151e+00	-2.2993893138e+00
 4.5789147797e-01	 1.2522432560e+00	-2.3608701360e+00
 4.3588498347e-01	 1.2600722435e+00	-2.4867028400e+00
 5.4978850358e-01	 1.2268917905e+00	-2.3888380153e+00
 5.2789303867e-01	 1.2364707048e+00	-2.2317932003e+00
 5.0590658831e-01	 1.2456281099e+00	-2.1462715393e+00
 4.8384080194e-01	 1.2543639594e+00	-2.1307101983e+00
 4.6170724029e-01	 1.2626786165e+00	-2.1822676241e+00
 4.3951735833e-01	 1.2705728456e+00	-2.2970980706e+00
 5.5433221022e-01	 1.2370313920e+00	-2.3097899113e+00
 5.3225579105e-01	 1.2466894710e+00	-2.1446308791e+00
 5.1008763449e-01	 1.2559225571e+00	-2.0515304203e+00
 4.8783948626e-01	 1.2647306037e+00	-2.0283280212e+00
 4.6552300260e-01	 1.2731139769e+00	-2.0715491156e+00
 4.4314973320e-01	 1.2810734476e+00	-2.1766924693e+00
 5.5887591687e-01	 1.2471709936e+00	-2.2909962967e+00
 5.3661854344e-01	 1.2569082371e+00	-2.1199422252e+00
 5.1426868068e-01	 1.2662170043e+00	-2.0213634269e+00
 4.9183817057e-01	 1.2750972480e+00	-1.9924525339e+00
 4.6933876492e-01	 1.2835493374e+00	-2.0290512838e+00
 4.4678210806e-01	 1.2915740496e+00	-2.1259511369e+00
 5.6341962351e-01	 1.2573105952e+00	-2.3322260496e+00
 5.4098129583e-01	 1.2671270033e+00	-2.1576138435e+00
 5.1844972686e-01	 1.2765114514e+00	-2.0557795496e+00
 4.9583685488e-01	 1.2854638922e+00	-2.0232189186e+00
 4.7315452723e-01	 1.2939846979e+00	-2.0550383442e+00
 4.5041448292e-01	 1.3020746517e+00	-2.1452690909e+00
 5.6796333015e-01	 1.2674501968e+00	-2.4331711963e+00
 5.4534404821e-01	 1.2773457695e+00	-2.2574566701e+00
 5.2263077305e-01	 1.2868058986e+00	-2.1547135117e+00
 4.9983553920e-01	 1.2958305365e+00	-2.1206897313e+00
 4.7697028955e-01	 1.3044200583e+00	-2.1497037847e+00
 4.5404685778e-01	 1.3125752537e+00	-2.2349727893e+00
 4.3588498347e-01	 1.2600722435e+00	-2.4867028400e+00
 4.1383387338e-01	 1.2674854252e+00	-2.4376423798e+00
 3.9174925028e-01	 1.2744843281e+00	-2.4066728239e+00
 3.6964206525e-01	 1.2810708495e+00	-2.3903831067e+00
 3.4752310367e-01	 1.2872472452e+00	-2.3961078586e+00
 3.2540297188e-01	 1.2930161189e+00	-2.4266274043e+00
 4.3951735833e-01	 1.2705728456e+00	-2.2970980706e+00
 4.1728248899e-01	 1.2780478037e+00	-2.2418523839e+00
 3.9501382737e-01	 1.2851050309e+00	-2.2075609913e+00
 3.7272241579e-01	 1.2917464399e+00	-2.1900328376e+00
 3.5041912954e-01	 1.2979743055e+00	-2.1954164541e+00
 3.2811466331e-01	 1.3037912532e+00	-2.2321811164e+00
 4.4314973320e-01	 1.2810734476e+00	-2.1766924693e+00
 4.2073110460e-01	 1.2886101823e+00	-2.1153370937e+00
 3.9827840445e-01	 1.2957257336e+00	-2.0773427530e+00
 3.7580276634e-01	 1.3024220303e+00	-2.0577012694e+00
 3.5331515540e-01	 1.3087013659e+00	-2.0605107241e+00
 3.3082635474e-01	 1.3145663875e+00	-2.1001254589e+00
 4.4678210806e-01	 1.2915740496e+00	-2.1259511369e+00
 4.2417972021e-01	 1.2991725608e+00	-2.0587127067e+00
 4.0154298154e-01	 1.3063464363e+00	-2.0167864367e+00
 3.7888311688e-01	 1.3130976207e+00	-1.9942967018e+00
 3.5621118126e-01	 1.3194284263e+00	-1.9927300588e+00
 3.3353804617e-01	 1.3253415218e+00	-2.0319035911e+00
 4.5041448292e-01	 1.3020746517e+00	-2.1452690909e+00
 4.2762833582e-01	 1.3097349393e+00	-2.0725272619e+00
 4.0480755862e-01	 1.3169671391e+00	-2.0265943462e+00
 3.8196346742e-01	 1.3237732111e+00	-2.0006755199e+00
 3.5910720713e-01	 1.3301554867e+00	-1.9933546474e+00
 3.3624973761e-01	 1.3361166562e+00	-2.0289150989e+00
 4.5404685778e-01	 1.3125752537e+00	-2.2349727893e+00
 4.3107695144e-01	 1.3202973179e+00	-2.1572619928e+00
 4.0807213571e-01	 1.3275878418e+00	-2.1074039540e+00
 3.8504381797e-01	 1.3344488015e+00	-2.0776314742e+00
 3.6200323299e-01	 1.3408825470e+00	-2.0636023011e+00
 3.3896142904e-01	 1.3468917905e+00	-2.0925132201e+00
 3.2540297188e-01	 1.2930161189e+00	-2.4266274043e+00
 3.0329208451e-01	 1.2983804101e+00	-2.3856181973e+00
 2.8120065268e-01	 1.3033433817e+00	-2.3656101187e+00
 2.5913867297e-01	 1.3079086076e+00	-2.3581801056e+00
 2.3711591719e-01	 1.3120799593e+00	-2.3555949222e+00
 2.1514192301e-01	 1.3158615925e+00	-2.3508420248e+00
 3.2811466331e-01	 1.3037912532e+00	-2.2321811164e+00
 3.0581951854e-01	 1.3092002468e+00	-2.1888112419e+00
 2.8354399145e-01	 1.3142045766e+00	-2.1693216269e+00
 2.6129816191e-01	 1.3188078460e+00	-2.1653881015e+00
 2.3909188317e-01	 1.3230139590e+00	-2.1695005136e+00
 2.1693477237e-01	 1.3268271058e+00	-2.1749843478e+00
 3.3082635474e-01	 1.3145663875e+00	-2.1001254589e+00
 3.0834695258e-01	 1.3200200836e+00	-2.0519806714e+00
 2.8588733022e-01	 1.3250657714e+00	-2.0301205589e+00
 2.6345765085e-01	 1.3297070844e+00	-2.0263310565e+00
 2.4106784915e-01	 1.3339479586e+00	-2.0333487840e+00
 2.1872762173e-01	 1.3377926191e+00	-2.0448726191e+00
 3.3353804617e-01	 1.3253415218e+00	-2.0319035911e+00
 3.1087438662e-01	 1.3308399203e+00	-1.9765996862e+00
 2.8823066900e-01	 1.3359269663e+00	-1.9494713838e+00
 2.6561713979e-01	 1.3406063228e+00	-1.9424260971e+00
 2.4304381512e-01	 1.3448819583e+00	-1.9484716964e+00
 2.2052047109e-01	 1.3487581324e+00	-1.9617172055e+00
 3.3624973761e-01	 1.3361166562e+00	-2.0289150989e+00
 3.1340182066e-01	 1.3416597571e+00	-1.9641129549e+00
 2.9057400777e-01	 1.3467881611e+00	-1.9288233190e+00
 2.6777662873e-01	 1.3515055612e+00	-1.9150866001e+00
 2.4501978110e-01	 1.3558159579e+00	-1.9162071936e+00
 2.2231332045e-01	 1.3597236456e+00	-1.9267424309e+00
 3.3896142904e-01	 1.3468917905e+00	-2.0925132201e+00
 3.1592925469e-01	 1.3524795938e+00	-2.0159341710e+00
 2.9291734654e-01	 1.3576493560e+00	-1.9696081893e+00
 2.6993611768e-01	 1.3624047996e+00	-1.9457203289e+00
 2.4699574707e-01	 1.3667499576e+00	-1.9378975836e+00
 2.2410616980e-01	 1.3706891589e+00	-1.9411851855e+00
 2.1514192301e-01	 1.3158615925e+00	-2.3508420248e+00
 1.9322598536e-01	 1.3192579340e+00	-2.2715806621e+00
 1.7137714870e-01	 1.3222736671e+00	-2.2370060347e+00
 1.4960420005e-01	 1.3249137184e+00	-2.2397996412e+00
 1.2791566286e-01	 1.3271832432e+00	-2.2729768671e+00
 1.0631979170e-01	 1.3290876117e+00	-2.3297610514e+00
 2.1693477237e-01	 1.3268271058e+00	-2.1749843478e+00
 1.9483620191e-01	 1.3302517501e+00	-2.0980071103e+00
 1.7280529161e-01	 1.3332926143e+00	-2.0686085651e+00
 1.5085090171e-01	 1.3359546660e+00	-2.0800654116e+00
 1.2898162672e-01	 1.3382431035e+00	-2.1260432245e+00
 1.0720578997e-01	 1.3401633418e+00	-2.2004503837e+00
 2.1872762173e-01	 1.3377926191e+00	-2.0448726191e+00
 1.9644641845e-01	 1.3412455662e+00	-1.9653393507e+00
 1.7423343451e-01	 1.3443115615e+00	-1.9360028921e+00
 1.5209760338e-01	 1.3469956137e+00	-1.9507990334e+00
 1.3004759058e-01	 1.3493029639e+00	-2.0041144326e+00
 1.0809178823e-01	 1.3512390719e+00	-2.0906190261e+00
 2.2052047109e-01	 1.3487581324e+00	-1.9617172055e+00
 1.9805663500e-01	 1.3522393823e+00	-1.8746386159e+00
 1.7566157742e-01	 1.3553305088e+00	-1.8400683715e+00
 1.5334430505e-01	 1.3580365613e+00	-1.8526681577e+00
 1.3111355443e-01	 1.3603628243e+00	-1.9076199289e+00
 1.0897778650e-01	 1.3623148020e+00	-2.0004353597e+00
 2.2231332045e-01	 1.3597236456e+00	-1.9267424309e+00
 1.9966685154e-01	 1.3632331984e+00	-1.8269861366e+00
 1.7708972032e-01	 1.3663494560e+00	-1.7817087633e+00
 1.5459100671e-01	 1.3690775090e+00	-1.7863676788e+00
 1.3217951829e-01	 1.3714226846e+00	-1.8370177471e+00
 1.0986378476e-01	 1.3733905321e+00	-1.9300963235e+00
 2.2410616980e-01	 1.3706891589e+00	-1.9411851855e+00
 2.0127706809e-01	 1.3742270146e+00	-1.8234819558e+00
 1.7851786323e-01	 1.3773684032e+00	-1.7618512229e+00
 1.5583770838e-01	 1.3801184566e+00	-1.7526188757e+00
 1.3324548215e-01	 1.3824825450e+00	-1.7927937845e+00
 1.1074978302e-01	 1.3844662622e+00	-1.8798267814e+00
 1.0631979170e-01	 1.3290876117e+00	-2.3297610514e+00
 8.4824567643e-02	 1.3306323950e+00	-2.2410766264e+00
 6.3437694484e-02	 1.3318233504e+00	-2.1954752971e+00
 4.2166595687e-02	 1.3326664084e+00	-2.1836407586e+00
 2.1018412037e-02	 1.3331676579e+00	-2.1958902085e+00
 0.0000000000e+00	 1.3333333333e+00	-2.2220597037e+00
 1.0720578997e-01	 1.3401633418e+00	-2.2004503837e+00
 8.5531439040e-02	 1.3417209982e+00	-2.1147754818e+00
 6.3966341938e-02	 1.3429218783e+00	-2.0745649232e+00
 4.2517983985e-02	 1.3437719618e+00	-2.0712616248e+00
 2.1193565470e-02	 1.3442773884e+00	-2.0959006365e+00
 0.0000000000e+00	 1.3444444444e+00	-2.1389750967e+00
 1.0809178823e-01	 1.3512390719e+00	-2.0906190261e+00
 8.6238310437e-02	 1.3528096015e+00	-2.0026906298e+00
 6.4494989392e-02	 1.3540204062e+00	-1.9627728066e+00
 4.2869372282e-02	 1.3548775152e+00	-1.9631509867e+00
 2.1368718904e-02	 1.3553871189e+00	-1.9956612418e+00
 0.0000000000e+00	 1.3555555556e+00	-2.0515354999e+00
 1.0897778650e-01	 1.3623148020e+00	-2.0004353597e+00
 8.6945181834e-02	 1.3638982048e+00	-1.9047045493e+00
 6.5023636846e-02	 1.3651189342e+00	-1.8596792775e+00
 4.3220760580e-02	 1.3659830686e+00	-1.8585751702e+00
 2.1543872338e-02	 1.3664968494e+00	-1.8941169937e+00
 0.0000000000e+00	 1.3666666667e+00	-1.9583617299e+00
 1.0986378476e-01	 1.3733905321e+00	-1.9300963235e+00
 8.7652053231e-02	 1.3749868081e+00	-1.8207271408e+00
 6.5552284301e-02	 1.3762174621e+00	-1.7648898243e+00
 4.3572148877e-02	 1.3770886220e+00	-1.7568223867e+00
 2.1719025771e-02	 1.3776065799e+00	-1.7902305874e+00
 0.0000000000e+00	 1.3777777778e+00	-1.8580874103e+00
 1.1074978302e-01	 1.3844662622e+00	-1.8798267814e+00
 8.8358924628e-02	 1.3860754114e+00	-1.7506951639e+00
 6.6080931755e-02	 1.3873159900e+00	-1.6780345766e+00
 4.3923537174e-02	 1.3881941754e+00	-1.6572022379e+00
 2.1894179205e-02	 1.3887163103e+00	-1.6829819499e+00
 0.0000000000e+00	 1.3888888889e+00	-1.7493584595e+00
 1.3888888889e+00	 0.0000000000e+00	 3.7926581498e+00
 1.3887163103e+00	 2.1894179205e-02	 3.8149567968e+00
 1.3881941754e+00	 4.3923537174e-02	 3.8187325487e+00
 1.3873159900e+00	 6.6080931755e-02	 3.8057863841e+00
 1.3860754114e+00	 8.8358924628e-02	 3.7774591264e+00
 1.3844662622e+00	 1.1074978302e-01	 3.7348759446e+00
 1.4000000000e+00	 0.0000000000e+00	 3.8114640830e+00
 1.3998260408e+00	 2.2069332639e-02	 3.8205916371e+00
 1.3992997288e+00	 4.4274925472e-02	 3.8128079122e+00
 1.3984145179e+00	 6.6609579209e-02	 3.7889372028e+00
 1.3971640147e+00	 8.9065796025e-02	 3.7492683705e+00
 1.3955419923e+00	 1.1163578129e-01	 3.6938259450e+00
 1.4111111111e+00	 0.0000000000e+00	 3.8214536106e+00
 1.4109357713e+00	 2.2244486072e-02	 3.8223569780e+00
 1.4104052822e+00	 4.4626313769e-02	 3.8084717634e+00
 1.4095130459e+00	 6.7138226663e-02	 3.7795508621e+00
 1.4082526180e+00	 8.9772667422e-02	 3.7347318798e+00
 1.4066177224e+00	 1.1252177955e-01	 3.6728363838e+00
 1.4222222222e+00	 0.0000000000e+00	 3.8220273391e+00
 1.4220455018e+00	 2.2419639506e-02	 3.8197703174e+00
 1.4215108356e+00	 4.4977702067e-02	 3.8053691647e+00
 1.4206115738e+00	 6.7666874117e-02	 3.7774058819e+00
 1.4193412213e+00	 9.0479538819e-02	 3.7337626080e+00
 1.4176934525e+00	 1.1340777782e-01	 3.6719506330e+00
 1.4333333333e+00	 0.0000000000e+00	 3.8125917627e+00
 1.4331552323e+00	 2.2594792940e-02	 3.8123558474e+00
 1.4326163890e+00	 4.5329090364e-02	 3.8031526780e+00
 1.4317101017e+00	 6.8195521571e-02	 3.7822889550e+00
 1.4304298246e+00	 9.1186410216e-02	 3.7462820900e+00
 1.4287691826e+00	 1.1429377608e-01	 3.6912206510e+00
 1.4444444444e+00	 0.0000000000e+00	 3.7925590373e+00
 1.4442649628e+00	 2.2769946373e-02	 3.7996442214e+00
 1.4437219424e+00	 4.5680478661e-02	 3.8014821211e+00
 1.4428086296e+00	 6.8724169025e-02	 3.7939946852e+00
 1.4415184279e+00	 9.1893281613e-02	 3.7722201499e+00
 1.4398449127e+00	 1.1517977434e-01	 3.7307066512e+00
 1.3844662622e+00	 1.1074978302e-01	 3.7348759446e+00
 1.3824825450e+00	 1.3324548215e-01	 3.7406155062e+00
 1.3801184566e+00	 1.5583770838e-01	 3.7142666488e+00
 1.3773684032e+00	 1.7851786323e-01	 3.6573991476e+00
 1.3742270146e+00	 2.0127706809e-01	 3.5725503060e+00
 1.3706891589e+00	 2.2410616980e-01	 3.4634982092e+00
 1.3955419923e+00	 1.1163578129e-01	 3.6938259450e+00
 1.3935424053e+00	 1.3431144601e-01	 3.6843544396e+00
 1.3911594043e+00	 1.5708441005e-01	 3.6450676321e+00
 1.3883873504e+00	 1.7994600614e-01	 3.5765400617e+00
 1.3852208307e+00	 2.0288728463e-01	 3.4803749411e+00
 1.3816546722e+00	 2.2589901916e-01	 3.3595091867e+00
 1.4066177224e+00	 1.1252177955e-01	 3.6728363838e+00
 1.4046022657e+00	 1.3537740986e-01	 3.6544851645e+00
 1.4022003519e+00	 1.5833111172e-01	 3.6085035364e+00
 1.3994062977e+00	 1.8137414904e-01	 3.5343684655e+00
 1.3962146468e+00	 2.0449750118e-01	 3.4326510345e+00
 1.3926201854e+00	 2.2769186852e-01	 3.3053551792e+00
 1.4176934525e+00	 1.1340777782e-01	 3.6719506330e+00
 1.4156621261e+00	 1.3644337372e-01	 3.6511768050e+00
 1.4132412996e+00	 1.5957781338e-01	 3.6048575128e+00
 1.4104252449e+00	 1.8280229195e-01	 3.5312650147e+00
 1.4072084629e+00	 2.0610771772e-01	 3.4298356189e+00
 1.4035856987e+00	 2.2948471788e-01	 3.3015441301e+00
 1.4287691826e+00	 1.1429377608e-01	 3.6912206510e+00
 1.4267219864e+00	 1.3750933758e-01	 3.6746064051e+00
 1.4242822472e+00	 1.6082451505e-01	 3.6344192264e+00
 1.4214441921e+00	 1.8423043485e-01	 3.5676146031e+00
 1.4182022790e+00	 2.0771793427e-01	 3.4723866942e+00
 1.4145512120e+00	 2.3127756724e-01	 3.3485805664e+00
 1.4398449127e+00	 1.1517977434e-01	 3.7307066512e+00
 1.4377818468e+00	 1.3857530143e-01	 3.7249585499e+00
 1.4353231949e+00	 1.6207121672e-01	 3.6974844180e+00
 1.4324631393e+00	 1.8565857776e-01	 3.6438058514e+00
 1.4291960951e+00	 2.0932815081e-01	 3.5607626297e+00
 1.4255167253e+00	 2.3307041660e-01	 3.4469648981e+00
 1.3706891589e+00	 2.2410616980e-01	 3.4634982092e+00
 1.3667499576e+00	 2.4699574707e-01	 3.4841480699e+00
 1.3624047996e+00	 2.6993611768e-01	 3.4401807401e+00
 1.3576493560e+00	 2.9291734654e-01	 3.3399384323e+00
 1.3524795938e+00	 3.1592925469e-01	 3.1938685355e+00
 1.3468917905e+00	 3.3896142904e-01	 3.0145442117e+00
 1.3816546722e+00	 2.2589901916e-01	 3.3595091867e+00
 1.3776839573e+00	 2.4897171305e-01	 3.3704434108e+00
 1.3733040380e+00	 2.7209560662e-01	 3.3179154548e+00
 1.3685105508e+00	 2.9526068531e-01	 3.2098707728e+00
 1.3632994306e+00	 3.1845668873e-01	 3.0565583318e+00
 1.3576669248e+00	 3.4167312047e-01	 2.8705719723e+00
 1.3926201854e+00	 2.2769186852e-01	 3.3053551792e+00
 1.3886179569e+00	 2.5094767903e-01	 3.3109811275e+00
 1.3842032764e+00	 2.7425509556e-01	 3.2537133316e+00
 1.3793717457e+00	 2.9760402409e-01	 3.1410386860e+00
 1.3741192673e+00	 3.2098412277e-01	 2.9829595703e+00
 1.3684420591e+00	 3.4438481190e-01	 2.7920575317e+00
 1.4035856987e+00	 2.2948471788e-01	 3.3015441301e+00
 1.3995519566e+00	 2.5292364500e-01	 3.3063026101e+00
 1.3951025148e+00	 2.7641458450e-01	 3.2481172976e+00
 1.3902329405e+00	 2.9994736286e-01	 3.1339516194e+00
 1.3849391041e+00	 3.2351155681e-01	 2.9735106437e+00
 1.3792171935e+00	 3.4709650334e-01	 2.7793287013e+00
 1.4145512120e+00	 2.3127756724e-01	 3.3485805664e+00
 1.4104859562e+00	 2.5489961098e-01	 3.3569398557e+00
 1.4060017532e+00	 2.7857407344e-01	 3.3016535547e+00
 1.4010941354e+00	 3.0229070163e-01	 3.1890935222e+00
 1.3957589408e+00	 3.2603899085e-01	 3.0286141575e+00
 1.3899923278e+00	 3.4980819477e-01	 2.8326656463e+00
 1.4255167253e+00	 2.3307041660e-01	 3.4469648981e+00
 1.4214199559e+00	 2.5687557696e-01	 3.4634146606e+00
 1.4169009916e+00	 2.8073356238e-01	 3.4148306480e+00
 1.4119553302e+00	 3.0463404040e-01	 3.3069217702e+00
 1.4065787776e+00	 3.2856642488e-01	 3.1486356952e+00
 1.4007674621e+00	 3.5251988620e-01	 2.9522994681e+00
 1.3468917905e+00	 3.3896142904e-01	 3.0145442117e+00
 1.3408825470e+00	 3.6200323299e-01	 2.9026515879e+00
 1.3344488015e+00	 3.8504381797e-01	 2.7900894325e+00
 1.3275878418e+00	 4.0807213571e-01	 2.6974150481e+00
 1.3202973179e+00	 4.3107695144e-01	 2.6326010146e+00
 1.3125752537e+00	 4.5404685778e-01	 2.6029697982e+00
 1.3576669248e+00	 3.4167312047e-01	 2.8705719723e+00
 1.3516096074e+00	 3.6489925885e-01	 2.7539259828e+00
 1.3451243919e+00	 3.8812416851e-01	 2.6399836986e+00
 1.3382085445e+00	 4.1133671280e-01	 2.5464397755e+00
 1.3308596964e+00	 4.3452556705e-01	 2.4816162069e+00
 1.3230758557e+00	 4.5767923265e-01	 2.4538495153e+00
 1.3684420591e+00	 3.4438481190e-01	 2.7920575317e+00
 1.3623366678e+00	 3.6779528472e-01	 2.6717272098e+00
 1.3557999824e+00	 3.9120451905e-01	 2.5561505387e+00
 1.3488292473e+00	 4.1460128988e-01	 2.4604296873e+00
 1.3414220750e+00	 4.3797418266e-01	 2.3936905756e+00
 1.3335764578e+00	 4.6131160751e-01	 2.3653448475e+00
 1.3792171935e+00	 3.4709650334e-01	 2.7793287013e+00
 1.3730637282e+00	 3.7069131058e-01	 2.6562304600e+00
 1.3664755728e+00	 3.9428486960e-01	 2.5384426616e+00
 1.3594499500e+00	 4.1786586697e-01	 2.4390949363e+00
 1.3519844535e+00	 4.4142279827e-01	 2.3683967846e+00
 1.3440770598e+00	 4.6494398237e-01	 2.3368971192e+00
 1.3899923278e+00	 3.4980819477e-01	 2.8326656463e+00
 1.3837907886e+00	 3.7358733645e-01	 2.7075541983e+00
 1.3771511632e+00	 3.9736522014e-01	 2.5866629939e+00
 1.3700706528e+00	 4.2113044405e-01	 2.4820970555e+00
 1.3625468321e+00	 4.4487141388e-01	 2.4052606355e+00
 1.3545776618e+00	 4.6857635723e-01	 2.3679031181e+00
 1.4007674621e+00	 3.5251988620e-01	 2.9522994681e+00
 1.3945178489e+00	 3.7648336231e-01	 2.8256443239e+00
 1.3878267536e+00	 4.0044557069e-01	 2.7005667747e+00
 1.3806913555e+00	 4.2439502114e-01	 2.5890513693e+00
 1.3731092106e+00	 4.4832002949e-01	 2.5037638140e+00
 1.3650782638e+00	 4.7220873209e-01	 2.4577181947e+00
 1.3125752537e+00	 4.5404685778e-01	 2.6029697982e+00
 1.3044200583e+00	 4.7697028955e-01	 2.2896637598e+00
 1.2958305365e+00	 4.9983553920e-01	 2.0556492229e+00
 1.2868058986e+00	 5.2263077305e-01	 1.9078960635e+00
 1.2773457695e+00	 5.4534404821e-01	 1.8524486734e+00
 1.2674501968e+00	 5.6796333015e-01	 1.8941541653e+00
 1.3230758557e+00	 4.5767923265e-01	 2.4538495153e+00
 1.3148554188e+00	 4.8078605187e-01	 2.1443515579e+00
 1.3061971808e+00	 5.0383422351e-01	 1.9140933523e+00
 1.2971003458e+00	 5.2681181923e-01	 1.7711053634e+00
 1.2875645356e+00	 5.4970680060e-01	 1.7224626632e+00
 1.2775897983e+00	 5.7250703679e-01	 1.7740026844e+00
 1.3335764578e+00	 4.6131160751e-01	 2.3653448475e+00
 1.3252907793e+00	 4.8460181418e-01	 2.0578639323e+00
 1.3165638251e+00	 5.0783290782e-01	 1.8292157038e+00
 1.3073947930e+00	 5.3099286542e-01	 1.6885438386e+00
 1.2977833018e+00	 5.5406955298e-01	 1.6440035369e+00
 1.2877293999e+00	 5.7705074343e-01	 1.7024687303e+00
 1.3440770598e+00	 4.6494398237e-01	 2.3368971192e+00
 1.3357261397e+00	 4.8841757650e-01	 2.0294913184e+00
 1.3269304694e+00	 5.1183159214e-01	 1.8001617573e+00
 1.3176892402e+00	 5.3517391160e-01	 1.6592182365e+00
 1.3080020679e+00	 5.5843230537e-01	 1.6159455607e+00
 1.2978690015e+00	 5.8159445007e-01	 1.6783001195e+00
 1.3545776618e+00	 4.6857635723e-01	 2.3679031181e+00
 1.3461615002e+00	 4.9223333882e-01	 2.0584832939e+00
 1.3372971137e+00	 5.1583027645e-01	 1.8260403456e+00
 1.3279836874e+00	 5.3935495778e-01	 1.6821033435e+00
 1.3182208341e+00	 5.6279505775e-01	 1.6371361354e+00
 1.3080086031e+00	 5.8613815671e-01	 1.7002232326e+00
 1.3650782638e+00	 4.7220873209e-01	 2.4577181947e+00
 1.3565968607e+00	 4.9604910113e-01	 2.1440520155e+00
 1.3476637580e+00	 5.1982896076e-01	 1.9059274426e+00
 1.3382781346e+00	 5.4353600397e-01	 1.7561461353e+00
 1.3284396002e+00	 5.6715781014e-01	 1.7064003176e+00
 1.3181482046e+00	 5.9068186335e-01	 1.7669479139e+00
 1.2674501968e+00	 5.6796333015e-01	 1.8941541653e+00
 1.2571196585e+00	 5.9047651082e-01	 1.4753789130e+00
 1.2463550694e+00	 6.1287142743e-01	 1.1834015195e+00
 1.2351577865e+00	 6.3513588167e-01	 1.0167142724e+00
 1.2235296134e+00	 6.5725765935e-01	 9.7154615858e-01
 1.2114728043e+00	 6.7922455057e-01	 1.0416721745e+00
 1.2775897983e+00	 5.7250703679e-01	 1.7740026844e+00
 1.2671766158e+00	 5.9520032291e-01	 1.3533208459e+00
 1.2563259100e+00	 6.1777439885e-01	 1.0593547041e+00
 1.2450390488e+00	 6.4021696872e-01	 8.9146914947e-01
 1.2333178503e+00	 6.6251572063e-01	 8.4671329380e-01
 1.2211645867e+00	 6.8465834698e-01	 9.1962669588e-01
 1.2877293999e+00	 5.7705074343e-01	 1.7024687303e+00
 1.2772335731e+00	 5.9992413499e-01	 1.2775440845e+00
 1.2662967505e+00	 6.2267737027e-01	 9.7920825083e-01
 1.2549203111e+00	 6.4529805577e-01	 8.0773512298e-01
 1.2431060872e+00	 6.6777378190e-01	 7.6102756093e-01
 1.2308563692e+00	 6.9009214338e-01	 8.3442092349e-01
 1.2978690015e+00	 5.8159445007e-01	 1.6783001195e+00
 1.2872905303e+00	 6.0464794708e-01	 1.2466582940e+00
 1.2762675911e+00	 6.2758034169e-01	 9.4143672145e-01
 1.2648015734e+00	 6.5037914283e-01	 7.6385386107e-01
 1.2528943241e+00	 6.7303184318e-01	 7.1269895530e-01
 1.2405481516e+00	 6.9552593978e-01	 7.8413329482e-01
 1.3080086031e+00	 5.8613815671e-01	 1.7002232326e+00
 1.2973474876e+00	 6.0937175917e-01	 1.2592579201e+00
 1.2862384317e+00	 6.3248331311e-01	 9.4450589439e-01
 1.2746828356e+00	 6.5546022988e-01	 7.5816480873e-01
 1.2626825610e+00	 6.7828990445e-01	 6.9994183281e-01
 1.2502399340e+00	 7.0095973619e-01	 7.6685311102e-01
 1.3181482046e+00	 5.9068186335e-01	 1.7669479139e+00
 1.3074044449e+00	 6.1409557125e-01	 1.3139274530e+00
 1.2962092722e+00	 6.3738628453e-01	 9.8687839471e-01
 1.2845640979e+00	 6.6054131693e-01	 7.8901118340e-01
 1.2724707980e+00	 6.8354796573e-01	 7.2098126853e-01
 1.2599317165e+00	 7.0639353259e-01	 7.8068725348e-01
 1.2114728043e+00	 6.7922455057e-01	 1.0416721745e+00
 1.1989900660e+00	 7.0102437005e-01	 7.2501303870e-01
 1.1860845592e+00	 7.2264497784e-01	 4.8559890686e-01
 1.1727598993e+00	 7.4407430019e-01	 3.0720207429e-01
 1.1590201547e+00	 7.6530035057e-01	 8.8704722292e-02
 1.1448698453e+00	 7.8631125069e-01	-2.3497257142e-01
 1.2211645867e+00	 6.8465834698e-01	 9.1962669588e-01
 1.2085819865e+00	 7.0663256501e-01	 6.0987407266e-01
 1.1955732357e+00	 7.2842613766e-01	 3.8585736750e-01
 1.1821419785e+00	 7.5002689460e-01	 2.2130283659e-01
 1.1682923160e+00	 7.7142275338e-01	-2.5159666837e-04
 1.1540288041e+00	 7.9260174069e-01	-3.1839828311e-01
 1.2308563692e+00	 6.9009214338e-01	 8.3442092349e-01
 1.2181739070e+00	 7.1224075997e-01	 5.3052006423e-01
 1.2050619122e+00	 7.3420729748e-01	 3.2088835374e-01
 1.1915240577e+00	 7.5597948900e-01	 1.5945449569e-01
 1.1775644772e+00	 7.7754515618e-01	-6.5818900112e-02
 1.1631877628e+00	 7.9889223070e-01	-3.7913196291e-01
 1.2405481516e+00	 6.9552593978e-01	 7.8413329482e-01
 1.2277658275e+00	 7.1784895493e-01	 4.8486947530e-01
 1.2145505887e+00	 7.3998845731e-01	 2.8844973077e-01
 1.2009061369e+00	 7.6193208340e-01	 1.1978527768e-01
 1.1868366385e+00	 7.8366755899e-01	-1.0987899282e-01
 1.1723467216e+00	 8.0518272070e-01	-4.1906659011e-01
 1.2502399340e+00	 7.0095973619e-01	 7.6685311102e-01
 1.2373577481e+00	 7.2345714989e-01	 4.7085879500e-01
 1.2240392651e+00	 7.4576961713e-01	 2.8292484247e-01
 1.2102882161e+00	 7.6788467780e-01	 1.0055941629e-01
 1.1961087997e+00	 7.8978996179e-01	-1.3417666162e-01
 1.1815056804e+00	 8.1147321071e-01	-4.3995663607e-01
 1.2599317165e+00	 7.0639353259e-01	 7.8068725348e-01
 1.2469496686e+00	 7.2906534485e-01	 4.8644957476e-01
 1.2335279416e+00	 7.5155077695e-01	 2.9697883923e-01
 1.2196702953e+00	 7.7383727220e-01	 1.0017199783e-01
 1.2053809609e+00	 7.9591236460e-01	-1.4032489202e-01
 1.1906646391e+00	 8.1776370071e-01	-4.4342331910e-01
 1.1448698453e+00	 7.8631125069e-01	-2.3497257142e-01
 1.1303139390e+00	 8.0709525155e-01	-1.4466928094e-01
 1.1153578472e+00	 8.2764075441e-01	-1.4894642067e-01
 1.1000074197e+00	 8.4793633155e-01	-2.8361219773e-01
 1.0842689373e+00	 8.6797074680e-01	-6.0748652421e-01
 1.0681491045e+00	 8.8773297576e-01	-1.1082882278e+00
 1.1540288041e+00	 7.9260174069e-01	-3.1839828311e-01
 1.1393564505e+00	 8.1355201356e-01	-2.2580560644e-01
 1.1242807100e+00	 8.3426188045e-01	-2.3311946224e-01
 1.1088074790e+00	 8.5471982221e-01	-3.5566901600e-01
 1.0929430888e+00	 8.7491451278e-01	-6.5281262946e-01
 1.0766942973e+00	 8.9483483957e-01	-1.1419485945e+00
 1.1631877628e+00	 7.9889223070e-01	-3.7913196291e-01
 1.1483989620e+00	 8.2000877557e-01	-2.8540901586e-01
 1.1332035728e+00	 8.4088300648e-01	-2.9677680530e-01
 1.1176075384e+00	 8.6150331286e-01	-4.2796499688e-01
 1.1016172403e+00	 8.8185827875e-01	-7.0436527207e-01
 1.0852394902e+00	 9.0193670338e-01	-1.1808419631e+00
 1.1723467216e+00	 8.0518272070e-01	-4.1906659011e-01
 1.1574414735e+00	 8.2646553759e-01	-3.2537558115e-01
 1.1421264355e+00	 8.4750413252e-01	-3.4182487057e-01
 1.1264075977e+00	 8.6828680351e-01	-4.8348259711e-01
 1.1102913918e+00	 8.8880204473e-01	-7.6261218701e-01
 1.0937846830e+00	 9.0903856718e-01	-1.2254612575e+00
 1.1815056804e+00	 8.1147321071e-01	-4.3995663607e-01
 1.1664839850e+00	 8.3292229960e-01	-3.4746120237e-01
 1.1510492983e+00	 8.5412525855e-01	-3.7002763454e-01
 1.1352076571e+00	 8.7507029416e-01	-5.2308490813e-01
 1.1189655433e+00	 8.9574581070e-01	-8.1908025433e-01
 1.1023298758e+00	 9.1614043099e-01	-1.2762031106e+00
 1.1906646391e+00	 8.1776370071e-01	-4.4342331910e-01
 1.1755264965e+00	 8.3937906161e-01	-3.5328686588e-01
 1.1599721611e+00	 8.6074638459e-01	-3.8301187356e-01
 1.1440077164e+00	 8.8185378482e-01	-5.4841163858e-01
 1.1276396948e+00	 9.0268957668e-01	-8.6224199463e-01
 1.1108750687e+00	 9.2324229479e-01	-1.3333618311e+00
 1.0681491045e+00	 8.8773297576e-01	-1.1082882278e+00
 1.0516550401e+00	 9.0721222562e-01	-9.6940163269e-01
 1.0347942673e+00	 9.2639795451e-01	-9.5765712587e-01
 1.0175747022e+00	 9.4527989033e-01	-1.0429173062e+00
 1.0000046421e+00	 9.6384804893e-01	-1.1919027923e+00
 9.8209275165e-01	 9.8209275165e-01	-1.3690770680e+00
 1.0766942973e+00	 8.9483483957e-01	-1.1419485945e+00
 1.0600682804e+00	 9.1446992343e-01	-9.9462109990e-01
 1.0430726214e+00	 9.3380913815e-01	-9.7793504487e-01
 1.0257152998e+00	 9.5284212945e-01	-1.0608953853e+00
 1.0080046793e+00	 9.7155883332e-01	-1.2091720957e+00
 9.8994949366e-01	 9.8994949366e-01	-1.3860279291e+00
 1.0852394902e+00	 9.0193670338e-01	-1.1808419631e+00
 1.0684815207e+00	 9.2172762123e-01	-1.0260995914e+00
 1.0513509755e+00	 9.4122032179e-01	-1.0057931619e+00
 1.0338558975e+00	 9.6040436858e-01	-1.0880258434e+00
 1.0160047164e+00	 9.7926961771e-01	-1.2373617928e+00
 9.9780623567e-01	 9.9780623567e-01	-1.4157986486e+00
 1.0937846830e+00	 9.0903856718e-01	-1.2254612575e+00
 1.0768947611e+00	 9.2898531904e-01	-1.0643396132e+00
 1.0596293297e+00	 9.4863150542e-01	-1.0417660149e+00
 1.0419964951e+00	 9.6796660770e-01	-1.1248955568e+00
 1.0240047535e+00	 9.8698040210e-01	-1.2771287923e+00
 1.0056629777e+00	 1.0056629777e+00	-1.4591308376e+00
 1.1023298758e+00	 9.1614043099e-01	-1.2762031106e+00
 1.0853080014e+00	 9.3624301684e-01	-1.1097505935e+00
 1.0679076838e+00	 9.5604268906e-01	-1.0862994109e+00
 1.0501370927e+00	 9.7552884682e-01	-1.1720080812e+00
 1.0320047907e+00	 9.9469118649e-01	-1.3290530698e+00
 1.0135197197e+00	 1.0135197197e+00	-1.5166964426e+00
 1.1108750687e+00	 9.2324229479e-01	-1.3333618311e+00
 1.0937212417e+00	 9.4350071465e-01	-1.1626429244e+00
 1.0761860379e+00	 9.6345387269e-01	-1.1397445654e+00
 1.0582776903e+00	 9.8309108594e-01	-1.2297779073e+00
 1.0400048278e+00	 1.0024019709e+00	-1.3936320597e+00
 1.0213764617e+00	 1.0213764617e+00	-1.5890922917e+00
 9.8209275165e-01	 9.8209275165e-01	-1.3690770680e+00
 9.6384804893e-01	 1.0000046421e+00	-1.5060980149e+00
 9.4527989033e-01	 1.0175747022e+00	-1.6290590584e+00
 9.2639795451e-01	 1.0347942673e+00	-1.7010374272e+00
 9.0721222562e-01	 1.0516550401e+00	-1.6867491612e+00
 8.8773297576e-01	 1.0681491045e+00	-1.5535671939e+00
 9.8994949366e-01	 9.8994949366e-01	-1.3860279291e+00
 9.7155883332e-01	 1.0080046793e+00	-1.5200596287e+00
 9.5284212945e-01	 1.0257152998e+00	-1.6396317144e+00
 9.3380913815e-01	 1.0430726214e+00	-1.7064592491e+00
 9.1446992343e-01	 1.0600682804e+00	-1.6839409544e+00
 8.9483483957e-01	 1.0766942973e+00	-1.5382301121e+00
 9.9780623567e-01	 9.9780623567e-01	-1.4157986486e+00
 9.7926961771e-01	 1.0160047164e+00	-1.5488464867e+00
 9.6040436858e-01	 1.0338558975e+00	-1.6669887444e+00
 9.4122032179e-01	 1.0513509755e+00	-1.7304989085e+00
 9.2172762123e-01	 1.0684815207e+00	-1.7013786012e+00
 9.0193670338e-01	 1.0852394902e+00	-1.5444836743e+00
 1.0056629777e+00	 1.0056629777e+00	-1.4591308376e+00
 9.8698040210e-01	 1.0240047535e+00	-1.5932951234e+00
 9.6796660770e-01	 1.0419964951e+00	-1.7120699545e+00
 9.4863150542e-01	 1.0596293297e+00	-1.7742039898e+00
 9.2898531904e-01	 1.0768947611e+00	-1.7402180098e+00
 9.0903856718e-01	 1.0937846830e+00	-1.5735886555e+00
 1.0135197197e+00	 1.0135197197e+00	-1.5166964426e+00
 9.9469118649e-01	 1.0320047907e+00	-1.6541804848e+00
 9.7552884682e-01	 1.0501370927e+00	-1.7757622758e+00
 9.5604268906e-01	 1.0679076838e+00	-1.8385784313e+00
 9.3624301684e-01	 1.0853080014e+00	-1.8015810566e+00
 9.1614043099e-01	 1.1023298758e+00	-1.6267816694e+00
 1.0213764617e+00	 1.0213764617e+00	-1.5890922917e+00
 1.0024019709e+00	 1.0400048278e+00	-1.7322106441e+00
 9.8309108594e-01	 1.0582776903e+00	-1.8588946650e+00
 9.6345387269e-01	 1.0761860379e+00	-1.9245776228e+00
 9.4350071465e-01	 1.0937212417e+00	-1.8865508956e+00
 9.2324229479e-01	 1.1108750687e+00	-1.7052706986e+00
 8.8773297576e-01	 1.0681491045e+00	-1.5535671939e+00
 8.6797074680e-01	 1.0842689373e+00	-1.9453362529e+00
 8.4793633155e-01	 1.1000074197e+00	-2.1608051525e+00
 8.2764075441e-01	 1.1153578472e+00	-2.1853876643e+00
 8.0709525155e-01	 1.1303139390e+00	-2.0825853104e+00
 7.8631125069e-01	 1.1448698453e+00	-1.8941304224e+00
 8.9483483957e-01	 1.0766942973e+00	-1.5382301121e+00
 8.7491451278e-01	 1.0929430888e+00	-1.9146171359e+00
 8.5471982221e-01	 1.1088074790e+00	-2.0995399132e+00
 8.3426188045e-01	 1.1242807100e+00	-2.1092908242e+00
 8.1355201356e-01	 1.1393564505e+00	-2.0081343623e+00
 7.9260174069e-01	 1.1540288041e+00	-1.8160214822e+00
 9.0193670338e-01	 1.0852394902e+00	-1.5444836743e+00
 8.8185827875e-01	 1.1016172403e+00	-1.9052859185e+00
 8.6150331286e-01	 1.1176075384e+00	-2.0663936347e+00
 8.4088300648e-01	 1.1332035728e+00	-2.0823600525e+00
 8.2000877557e-01	 1.1483989620e+00	-1.9830092423e+00
 7.9889223070e-01	 1.1631877628e+00	-1.7875690674e+00
 9.0903856718e-01	 1.0937846830e+00	-1.5735886555e+00
 8.8880204473e-01	 1.1102913918e+00	-1.9187287370e+00
 8.6828680351e-01	 1.1264075977e+00	-2.0794431455e+00
 8.4750413252e-01	 1.1421264355e+00	-2.1026715239e+00
 8.2646553759e-01	 1.1574414735e+00	-2.0053886846e+00
 8.0518272070e-01	 1.1723467216e+00	-1.8070535055e+00
 9.1614043099e-01	 1.1023298758e+00	-1.6267816694e+00
 8.9574581070e-01	 1.1189655433e+00	-1.9643121284e+00
 8.7507029416e-01	 1.1352076571e+00	-2.1375862024e+00
 8.5412525855e-01	 1.1510492983e+00	-2.1682772029e+00
 8.3292229960e-01	 1.1664839850e+00	-2.0734240526e+00
 8.1147321071e-01	 1.1815056804e+00	-1.8727247636e+00
 9.2324229479e-01	 1.1108750687e+00	-1.7052706986e+00
 9.0268957668e-01	 1.1276396948e+00	-2.0526784118e+00
 8.8185378482e-01	 1.1440077164e+00	-2.2387552650e+00
 8.6074638459e-01	 1.1599721611e+00	-2.2772079075e+00
 8.3937906161e-01	 1.1755264965e+00	-2.1852421677e+00
 8.1776370071e-01	 1.1906646391e+00	-1.9828050377e+00
 7.8631125069e-01	 1.1448698453e+00	-1.8941304224e+00
 7.6530035057e-01	 1.1590201547e+00	-2.0759321656e+00
 7.4407430019e-01	 1.1727598993e+00	-2.1698302206e+00
 7.2264497784e-01	 1.1860845592e+00	-2.2204581198e+00
 7.0102437005e-01	 1.1989900660e+00	-2.2889851702e+00
 6.7922455057e-01	 1.2114728043e+00	-2.3953481077e+00
 7.9260174069e-01	 1.1540288041e+00	-1.8160214822e+00
 7.7142275338e-01	 1.1682923160e+00	-1.9944310894e+00
 7.5002689460e-01	 1.1821419785e+00	-2.0873158360e+00
 7.2842613766e-01	 1.1955732357e+00	-2.1275548398e+00
 7.0663256501e-01	 1.2085819865e+00	-2.1836498944e+00
 6.8465834698e-01	 1.2211645867e+00	-2.2802633884e+00
 7.9889223070e-01	 1.1631877628e+00	-1.7875690674e+00
 7.7754515618e-01	 1.1775644772e+00	-1.9621342682e+00
 7.5597948900e-01	 1.1915240577e+00	-2.0536169011e+00
 7.3420729748e-01	 1.2050619122e+00	-2.0877597827e+00
 7.1224075997e-01	 1.2181739070e+00	-2.1312992934e+00
 6.9009214338e-01	 1.2308563692e+00	-2.2182543644e+00
 8.0518272070e-01	 1.1723467216e+00	-1.8070535055e+00
 7.8366755899e-01	 1.1868366385e+00	-1.9774465018e+00
 7.6193208340e-01	 1.2009061369e+00	-2.0672669637e+00
 7.3998845731e-01	 1.2145505887e+00	-2.0996150966e+00
 7.1784895493e-01	 1.2277658275e+00	-2.1305994602e+00
 6.9552593978e-01	 1.2405481516e+00	-2.2081181965e+00
 8.1147321071e-01	 1.1815056804e+00	-1.8727247636e+00
 7.8978996179e-01	 1.1961087997e+00	-2.0387387991e+00
 7.6788467780e-01	 1.2102882161e+00	-2.1267626039e+00
 7.4576961713e-01	 1.2240392651e+00	-2.1599838989e+00
 7.2345714989e-01	 1.2373577481e+00	-2.1801584060e+00
 7.0095973619e-01	 1.2502399340e+00	-2.2485919346e+00
 8.1776370071e-01	 1.1906646391e+00	-1.9828050377e+00
 7.9591236460e-01	 1.2053809609e+00	-2.1443507558e+00
 7.7383727220e-01	 1.2196702953e+00	-2.2305656043e+00
 7.5155077695e-01	 1.2335279416e+00	-2.2647630005e+00
 7.2906534485e-01	 1.2469496686e+00	-2.2785296823e+00
 7.0639353259e-01	 1.2599317165e+00	-2.3383559880e+00
 6.7922455057e-01	 1.2114728043e+00	-2.3953481077e+00
 6.5725765935e-01	 1.2235296134e+00	-2.2181460016e+00
 6.3513588167e-01	 1.2351577865e+00	-2.1260662593e+00
 6.1287142743e-01	 1.2463550694e+00	-2.1278672311e+00
 5.9047651082e-01	 1.2571196585e+00	-2.2292599202e+00
 5.6796333015e-01	 1.2674501968e+00	-2.4331711963e+00
 6.8465834698e-01	 1.2211645867e+00	-2.2802633884e+00
 6.6251572063e-01	 1.2333178503e+00	-2.0958094463e+00
 6.4021696872e-01	 1.2450390488e+00	-1.9985239259e+00
 6.1777439885e-01	 1.2563259100e+00	-1.9966212881e+00
 5.9520032291e-01	 1.2671766158e+00	-2.0951711779e+00
 5.7250703679e-01	 1.2775897983e+00	-2.2963723582e+00
 6.9009214338e-01	 1.2308563692e+00	-2.2182543644e+00
 6.6777378190e-01	 1.2431060872e+00	-2.0276657225e+00
 6.4529805577e-01	 1.2549203111e+00	-1.9264385649e+00
 6.2267737027e-01	 1.2662967505e+00	-1.9222068203e+00
 5.9992413499e-01	 1.2772335731e+00	-2.0193588602e+00
 5.7705074343e-01	 1.2877293999e+00	-2.2193223010e+00
 6.9552593978e-01	 1.2405481516e+00	-2.2081181965e+00
 6.7303184318e-01	 1.2528943241e+00	-2.0126303992e+00
 6.5037914283e-01	 1.2648015734e+00	-1.9088511809e+00
 6.2758034169e-01	 1.2762675911e+00	-1.9037970672e+00
 6.0464794708e-01	 1.2872905303e+00	-2.0011349162e+00
 5.8159445007e-01	 1.2978690015e+00	-2.2014777227e+00
 7.0095973619e-01	 1.2502399340e+00	-2.2485919346e+00
 6.7828990445e-01	 1.2626825610e+00	-2.0495575553e+00
 6.5546022988e-01	 1.2746828356e+00	-1.9447399853e+00
 6.3248331311e-01	 1.2862384317e+00	-1.9405012916e+00
 6.0937175917e-01	 1.2973474876e+00	-2.0397462908e+00
 5.8613815671e-01	 1.3080086031e+00	-2.2422294830e+00
 7.0639353259e-01	 1.2599317165e+00	-2.3383559880e+00
 6.8354796573e-01	 1.2724707980e+00	-2.1372430698e+00
 6.6054131693e-01	 1.2845640979e+00	-2.0330235052e+00
 6.3738628453e-01	 1.2962092722e+00	-2.0313677034e+00
 6.1409557125e-01	 1.3074044449e+00	-2.1343776643e+00
 5.9068186335e-01	 1.3181482046e+00	-2.3409051598e+00
 5.6796333015e-01	 1.2674501968e+00	-2.4331711963e+00
 5.4534404821e-01	 1.2773457695e+00	-2.2574566701e+00
 5.2263077305e-01	 1.2868058986e+00	-2.1547135117e+00
 4.9983553920e-01	 1.2958305365e+00	-2.1206897313e+00
 4.7697028955e-01	 1.3044200583e+00	-2.1497037847e+00
 4.5404685778e-01	 1.3125752537e+00	-2.2349727893e+00
 5.7250703679e-01	 1.2775897983e+00	-2.2963723582e+00
 5.4970680060e-01	 1.2875645356e+00	-2.1086735363e+00
 5.2681181923e-01	 1.2971003458e+00	-1.9963153719e+00
 5.0383422351e-01	 1.3061971808e+00	-1.9541505901e+00
 4.8078605187e-01	 1.3148554188e+00	-1.9755562622e+00
 4.5767923265e-01	 1.3230758557e+00	-2.0527768120e+00
 5.7705074343e-01	 1.2877293999e+00	-2.2193223010e+00
 5.5406955298e-01	 1.2977833018e+00	-2.0217179306e+00
 5.3099286542e-01	 1.3073947930e+00	-1.9016933821e+00
 5.0783290782e-01	 1.3165638251e+00	-1.8531548914e+00
 4.8460181418e-01	 1.3252907793e+00	-1.8684849995e+00
 4.6131160751e-01	 1.3335764578e+00	-1.9389007281e+00
 5.8159445007e-01	 1.2978690015e+00	-2.2014777227e+00
 5.5843230537e-01	 1.3080020679e+00	-1.9961821411e+00
 5.3517391160e-01	 1.3176892402e+00	-1.8705817124e+00
 5.1183159214e-01	 1.3269304694e+00	-1.8175841856e+00
 4.8841757650e-01	 1.3357261397e+00	-1.8285235054e+00
 4.6494398237e-01	 1.3440770598e+00	-1.8935335343e+00
 5.8613815671e-01	 1.3080086031e+00	-2.2422294830e+00
 5.6279505775e-01	 1.3182208341e+00	-2.0315924650e+00
 5.3935495778e-01	 1.3279836874e+00	-1.9026485988e+00
 5.1583027645e-01	 1.3372971137e+00	-1.8472543826e+00
 4.9223333882e-01	 1.3461615002e+00	-1.8556401988e+00
 4.6857635723e-01	 1.3545776618e+00	-1.9167999631e+00
 5.9068186335e-01	 1.3181482046e+00	-2.3409051598e+00
 5.6715781014e-01	 1.3284396002e+00	-2.1274115643e+00
 5.4353600397e-01	 1.3382781346e+00	-1.9974985044e+00
 5.1982896076e-01	 1.3476637580e+00	-1.9419177223e+00
 4.9604910113e-01	 1.3565968607e+00	-1.9497401957e+00
 4.7220873209e-01	 1.3650782638e+00	-2.0087620925e+00
 4.5404685778e-01	 1.3125752537e+00	-2.2349727893e+00
 4.3107695144e-01	 1.3202973179e+00	-2.1572619928e+00
 4.0807213571e-01	 1.3275878418e+00	-2.1074039540e+00
 3.8504381797e-01	 1.3344488015e+00	-2.0776314742e+00
 3.6200323299e-01	 1.3408825470e+00	-2.0636023011e+00
 3.3896142904e-01	 1.3468917905e+00	-2.0925132201e+00
 4.5767923265e-01	 1.3230758557e+00	-2.0527768120e+00
 4.3452556705e-01	 1.3308596964e+00	-1.9688228866e+00
 4.1133671280e-01	 1.3382085445e+00	-1.9160718413e+00
 3.8812416851e-01	 1.3451243919e+00	-1.8857446583e+00
 3.6489925885e-01	 1.3516096074e+00	-1.8708179819e+00
 3.4167312047e-01	 1.3576669248e+00	-1.8993180639e+00
 4.6131160751e-01	 1.3335764578e+00	-1.9389007281e+00
 4.3797418266e-01	 1.3414220750e+00	-1.8500360885e+00
 4.1460128988e-01	 1.3488292473e+00	-1.7952302562e+00
 3.9120451905e-01	 1.3557999824e+00	-1.7646363370e+00
 3.6779528472e-01	 1.3623366678e+00	-1.7490391680e+00
 3.4438481190e-01	 1.3684420591e+00	-1.7747168123e+00
 4.6494398237e-01	 1.3440770598e+00	-1.8935335343e+00
 4.4142279827e-01	 1.3519844535e+00	-1.8012382736e+00
 4.1786586697e-01	 1.3594499500e+00	-1.7453667909e+00
 3.9428486960e-01	 1.3664755728e+00	-1.7149468429e+00
 3.7069131058e-01	 1.3730637282e+00	-1.6992914414e+00
 3.4709650334e-01	 1.3792171935e+00	-1.7199199194e+00
 4.6857635723e-01	 1.3545776618e+00	-1.9167999631e+00
 4.4487141388e-01	 1.3625468321e+00	-1.8227032811e+00
 4.2113044405e-01	 1.3700706528e+00	-1.7669078584e+00
 3.9736522014e-01	 1.3771511632e+00	-1.7372572166e+00
 3.7358733645e-01	 1.3837907886e+00	-1.7218965073e+00
 3.4980819477e-01	 1.3899923278e+00	-1.7360800345e+00
 4.7220873209e-01	 1.3650782638e+00	-2.0087620925e+00
 4.4832002949e-01	 1.3731092106e+00	-1.9146435420e+00
 4.2439502114e-01	 1.3806913555e+00	-1.8602199485e+00
 4.0044557069e-01	 1.3878267536e+00	-1.8320903049e+00
 3.7648336231e-01	 1.3945178489e+00	-1.8171717392e+00
 3.5251988620e-01	 1.4007674621e+00	-1.8242892631e+00
 3.3896142904e-01	 1.3468917905e+00	-2.0925132201e+00
 3.1592925469e-01	 1.3524795938e+00	-2.0159341710e+00
 2.9291734654e-01	 1.3576493560e+00	-1.9696081893e+00
 2.6993611768e-01	 1.3624047996e+00	-1.9457203289e+00
 2.4699574707e-01	 1.3667499576e+00	-1.9378975836e+00
 2.2410616980e-01	 1.3706891589e+00	-1.9411851855e+00
 3.4167312047e-01	 1.3576669248e+00	-1.8993180639e+00
 3.1845668873e-01	 1.3632994306e+00	-1.8209325959e+00
 2.9526068531e-01	 1.3685105508e+00	-1.7761841291e+00
 2.7209560662e-01	 1.3733040380e+00	-1.7573837600e+00
 2.4897171305e-01	 1.3776839573e+00	-1.7584693900e+00
 2.2589901916e-01	 1.3816546722e+00	-1.7749688088e+00
 3.4438481190e-01	 1.3684420591e+00	-1.7747168123e+00
 3.2098412277e-01	 1.3741192673e+00	-1.6926953392e+00
 2.9760402409e-01	 1.3793717457e+00	-1.6469555899e+00
 2.7425509556e-01	 1.3842032764e+00	-1.6299470394e+00
 2.5094767903e-01	 1.3886179569e+00	-1.6359467355e+00
 2.2769186852e-01	 1.3926201854e+00	-1.6610081842e+00
 3.4709650334e-01	 1.3792171935e+00	-1.7199199194e+00
 3.2351155681e-01	 1.3849391041e+00	-1.6325348527e+00
 2.9994736286e-01	 1.3902329405e+00	-1.5832904045e+00
 2.7641458450e-01	 1.3951025148e+00	-1.5647868367e+00
 2.5292364500e-01	 1.3995519566e+00	-1.5716693796e+00
 2.2948471788e-01	 1.4035856987e+00	-1.6005618965e+00
 3.4980819477e-01	 1.3899923278e+00	-1.7360800345e+00
 3.2603899085e-01	 1.3957589408e+00	-1.6417227015e+00
 3.0229070163e-01	 1.4010941354e+00	-1.5865305016e+00
 2.7857407344e-01	 1.4060017532e+00	-1.5632669488e+00
 2.5489961098e-01	 1.4104859562e+00	-1.5669752927e+00
 2.3127756724e-01	 1.4145512120e+00	-1.5948959008e+00
 3.5251988620e-01	 1.4007674621e+00	-1.8242892631e+00
 3.2856642488e-01	 1.4065787776e+00	-1.7214871566e+00
 3.0463404040e-01	 1.4119553302e+00	-1.6579898050e+00
 2.8073356238e-01	 1.4169009916e+00	-1.6267364790e+00
 2.5687557696e-01	 1.4214199559e+00	-1.6231990893e+00
 2.3307041660e-01	 1.4255167253e+00	-1.6452821830e+00
 2.2410616980e-01	 1.3706891589e+00	-1.9411851855e+00
 2.0127706809e-01	 1.3742270146e+00	-1.8234819558e+00
 1.7851786323e-01	 1.3773684032e+00	-1.7618512229e+00
 1.5583770838e-01	 1.3801184566e+00	-1.7526188757e+00
 1.3324548215e-01	 1.3824825450e+00	-1.7927937845e+00
 1.1074978302e-01	 1.3844662622e+00	-1.8798267814e+00
 2.2589901916e-01	 1.3816546722e+00	-1.7749688088e+00
 2.0288728463e-01	 1.3852208307e+00	-1.6611285608e+00
 1.7994600614e-01	 1.3883873504e+00	-1.6056825494e+00
 1.5708441005e-01	 1.3911594043e+00	-1.6058643446e+00
 1.3431144601e-01	 1.3935424053e+00	-1.6596826102e+00
 1.1163578129e-01	 1.3955419923e+00	-1.7656526285e+00
 2.2769186852e-01	 1.3926201854e+00	-1.6610081842e+00
 2.0449750118e-01	 1.3962146468e+00	-1.5454778464e+00
 1.8137414904e-01	 1.3994062977e+00	-1.4901901716e+00
 1.5833111172e-01	 1.4022003519e+00	-1.4933659421e+00
 1.3537740986e-01	 1.4046022657e+00	-1.5541023295e+00
 1.1252177955e-01	 1.4066177224e+00	-1.6720752806e+00
 2.2948471788e-01	 1.4035856987e+00	-1.6005618965e+00
 2.0610771772e-01	 1.4072084629e+00	-1.4776722230e+00
 1.8280229195e-01	 1.4104252449e+00	-1.4163595812e+00
 1.5957781338e-01	 1.4132412996e+00	-1.4159147517e+00
 1.3644337372e-01	 1.4156621261e+00	-1.4766158548e+00
 1.1340777782e-01	 1.4176934525e+00	-1.5993998481e+00
 2.3127756724e-01	 1.4145512120e+00	-1.5948959008e+00
 2.0771793427e-01	 1.4182022790e+00	-1.4588685244e+00
 1.8423043485e-01	 1.4214441921e+00	-1.3851959602e+00
 1.6082451505e-01	 1.4242822472e+00	-1.3743251009e+00
 1.3750933758e-01	 1.4267219864e+00	-1.4278112680e+00
 1.1429377608e-01	 1.4287691826e+00	-1.5479570075e+00
 2.3307041660e-01	 1.4255167253e+00	-1.6452821830e+00
 2.0932815081e-01	 1.4291960951e+00	-1.4902368785e+00
 1.8565857776e-01	 1.4324631393e+00	-1.3977232357e+00
 1.6207121672e-01	 1.4353231949e+00	-1.3694337722e+00
 1.3857530143e-01	 1.4377818468e+00	-1.4083011627e+00
 1.1517977434e-01	 1.4398449127e+00	-1.5181024504e+00
 1.1074978302e-01	 1.3844662622e+00	-1.8798267814e+00
 8.8358924628e-02	 1.3860754114e+00	-1.7506951639e+00
 6.6080931755e-02	 1.3873159900e+00	-1.6780345766e+00
 4.3923537174e-02	 1.3881941754e+00	-1.6572022379e+00
 2.1894179205e-02	 1.3887163103e+00	-1.6829819499e+00
 0.0000000000e+00	 1.3888888889e+00	-1.7493584595e+00
 1.1163578129e-01	 1.3955419923e+00	-1.7656526285e+00
 8.9065796025e-02	 1.3971640147e+00	-1.6421569713e+00
 6.6609579209e-02	 1.3984145179e+00	-1.5767129920e+00
 4.4274925472e-02	 1.3992997288e+00	-1.5660033227e+00
 2.2069332639e-02	 1.3998260408e+00	-1.6060957386e+00
 0.0000000000e+00	 1.4000000000e+00	-1.6921905364e+00
 1.1252177955e-01	 1.4066177224e+00	-1.6720752806e+00
 8.9772667422e-02	 1.4082526180e+00	-1.5484331618e+00
 6.7138226663e-02	 1.4095130459e+00	-1.4845105380e+00
 4.4626313769e-02	 1.4104052822e+00	-1.4784204920e+00
 2.2244486072e-02	 1.4109357713e+00	-1.5276203184e+00
 0.0000000000e+00	 1.4111111111e+00	-1.6286302786e+00
 1.1340777782e-01	 1.4176934525e+00	-1.5993998481e+00
 9.0479538819e-02	 1.4193412213e+00	-1.4695163894e+00
 6.7666874117e-02	 1.4206115738e+00	-1.4010849367e+00
 4.4977702067e-02	 1.4215108356e+00	-1.3937590873e+00
 2.2419639506e-02	 1.4220455018e+00	-1.4464963692e+00
 0.0000000000e+00	 1.4222222222e+00	-1.5572466634e+00
 1.1429377608e-01	 1.4287691826e+00	-1.5479570075e+00
 9.1186410216e-02	 1.4304298246e+00	-1.4054247651e+00
 6.8195521571e-02	 1.4317101017e+00	-1.3261180212e+00
 4.5329090364e-02	 1.4326163890e+00	-1.3113461023e+00
 2.2594792940e-02	 1.4331552323e+00	-1.3616827799e+00
 0.0000000000e+00	 1.4333333333e+00	-1.4766225864e+00
 1.1517977434e-01	 1.4398449127e+00	-1.5181024504e+00
 9.1893281613e-02	 1.4415184279e+00	-1.3562013552e+00
 6.8724169025e-02	 1.4428086296e+00	-1.2593152580e+00
 4.5680478661e-02	 1.4437219424e+00	-1.2305297061e+00
 2.2769946373e-02	 1.4442649628e+00	-1.2721561529e+00
 0.0000000000e+00	 1.4444444444e+00	-1.3853543257e+00
 1.4444444444e+00	 0.0000000000e+00	 3.7925590373e+00
 1.4442649628e+00	 2.2769946373e-02	 3.7996442214e+00
 1.4437219424e+00	 4.5680478661e-02	 3.8014821211e+00
 1.4428086296e+00	 6.8724169025e-02	 3.7939946852e+00
 1.4415184279e+00	 9.1893281613e-02	 3.7722201499e+00
 1.4398449127e+00	 1.1517977434e-01	 3.7307066512e+00
 1.4555555556e+00	 0.0000000000e+00	 3.8075687824e+00
 1.4553746932e+00	 2.2945099807e-02	 3.8004677908e+00
 1.4548274958e+00	 4.6031866959e-02	 3.7901015101e+00
 1.4539071575e+00	 6.9252816479e-02	 3.7708749320e+00
 1.4526070312e+00	 9.2600153011e-02	 3.7362149872e+00
 1.4509206428e+00	 1.1606577261e-01	 3.6789993945e+00
 1.4666666667e+00	 0.0000000000e+00	 3.8132149459e+00
 1.4664844237e+00	 2.3120253241e-02	 3.7975676924e+00
 1.4659330492e+00	 4.6383255256e-02	 3.7812354722e+00
 1.4650056855e+00	 6.9781463933e-02	 3.7569868611e+00
 1.4636956344e+00	 9.3307024408e-02	 3.7165126930e+00
 1.4619963729e+00	 1.1695177087e-01	 3.6508920069e+00
 1.4777777778e+00	 0.0000000000e+00	 3.8088714304e+00
 1.4775941542e+00	 2.3295406674e-02	 3.7904364271e+00
 1.4770386026e+00	 4.6734643554e-02	 3.7745049550e+00
 1.4761042134e+00	 7.0310111387e-02	 3.7520842466e+00
 1.4747842377e+00	 9.4013895805e-02	 3.7129986324e+00
 1.4730721030e+00	 1.1783776914e-01	 3.6463945125e+00
 1.4888888889e+00	 0.0000000000e+00	 3.8105657881e+00
 1.4887038847e+00	 2.3470560108e-02	 3.7927349724e+00
 1.4881441560e+00	 4.7086031851e-02	 3.7800313646e+00
 1.4872027413e+00	 7.0838758841e-02	 3.7624273950e+00
 1.4858728410e+00	 9.4720767202e-02	 3.7286221446e+00
 1.4841478331e+00	 1.1872376740e-01	 3.6663548740e+00
 1.5000000000e+00	 0.0000000000e+00	 3.8720674357e+00
 1.4998136152e+00	 2.3645713541e-02	 3.8528923591e+00
 1.4992497094e+00	 4.7437420148e-02	 3.8406481847e+00
 1.4983012692e+00	 7.1367406295e-02	 3.8243962506e+00
 1.4969614443e+00	 9.5427638599e-02	 3.7919426003e+00
 1.4952235632e+00	 1.1960976567e-01	 3.7301466637e+00
 1.4398449127e+00	 1.1517977434e-01	 3.7307066512e+00
 1.4377818468e+00	 1.3857530143e-01	 3.7249585499e+00
 1.4353231949e+00	 1.6207121672e-01	 3.6974844180e+00
 1.4324631393e+00	 1.8565857776e-01	 3.6438058514e+00
 1.4291960951e+00	 2.0932815081e-01	 3.5607626297e+00
 1.4255167253e+00	 2.3307041660e-01	 3.4469648981e+00
 1.4509206428e+00	 1.1606577261e-01	 3.6789993945e+00
 1.4488417071e+00	 1.3964126529e-01	 3.6543107791e+00
 1.4463641425e+00	 1.6331791838e-01	 3.6111968165e+00
 1.4434820866e+00	 1.8708672066e-01	 3.5436751067e+00
 1.4401899113e+00	 2.1093836736e-01	 3.4471630962e+00
 1.4364822385e+00	 2.3486326595e-01	 3.3189721915e+00
 1.4619963729e+00	 1.1695177087e-01	 3.6508920069e+00
 1.4599015675e+00	 1.4070722915e-01	 3.6143177627e+00
 1.4574050902e+00	 1.6456462005e-01	 3.5624400897e+00
 1.4545010338e+00	 1.8851486357e-01	 3.4876444224e+00
 1.4511837274e+00	 2.1254858390e-01	 3.3838030517e+00
 1.4474477518e+00	 2.3665611531e-01	 3.2468134848e+00
 1.4730721030e+00	 1.1783776914e-01	 3.6463945125e+00
 1.4709614279e+00	 1.4177319301e-01	 3.6051091741e+00
 1.4684460379e+00	 1.6581132172e-01	 3.5514485693e+00
 1.4655199810e+00	 1.8994300648e-01	 3.4760323452e+00
 1.4621775435e+00	 2.1415880045e-01	 3.3710595818e+00
 1.4584132651e+00	 2.3844896467e-01	 3.2308937951e+00
 1.4841478331e+00	 1.1872376740e-01	 3.6663548740e+00
 1.4820212882e+00	 1.4283915686e-01	 3.6268444965e+00
 1.4794869855e+00	 1.6705802338e-01	 3.5784633300e+00
 1.4765389283e+00	 1.9137114938e-01	 3.5091615633e+00
 1.4731713596e+00	 2.1576901699e-01	 3.4093102255e+00
 1.4693787783e+00	 2.4024181403e-01	 3.2716136930e+00
 1.4952235632e+00	 1.1960976567e-01	 3.7301466637e+00
 1.4930811486e+00	 1.4390512072e-01	 3.6893171768e+00
 1.4905279332e+00	 1.6830472505e-01	 3.6460306816e+00
 1.4875578755e+00	 1.9279929229e-01	 3.5867643252e+00
 1.4841651757e+00	 2.1737923353e-01	 3.4985017360e+00
 1.4803442916e+00	 2.4203466339e-01	 3.3693685705e+00
 1.4255167253e+00	 2.3307041660e-01	 3.4469648981e+00
 1.4214199559e+00	 2.5687557696e-01	 3.4634146606e+00
 1.4169009916e+00	 2.8073356238e-01	 3.4148306480e+00
 1.4119553302e+00	 3.0463404040e-01	 3.3069217702e+00
 1.4065787776e+00	 3.2856642488e-01	 3.1486356952e+00
 1.4007674621e+00	 3.5251988620e-01	 2.9522994681e+00
 1.4364822385e+00	 2.3486326595e-01	 3.3189721915e+00
 1.4323539556e+00	 2.5885154293e-01	 3.3221524926e+00
 1.4278002300e+00	 2.8289305132e-01	 3.2650046633e+00
 1.4228165251e+00	 3.0697737917e-01	 3.1525582058e+00
 1.4173986143e+00	 3.3109385892e-01	 2.9933359053e+00
 1.4115425964e+00	 3.5523157763e-01	 2.7995229174e+00
 1.4474477518e+00	 2.3665611531e-01	 3.2468134848e+00
 1.4432879552e+00	 2.6082750891e-01	 3.2408353400e+00
 1.4386994684e+00	 2.8505254027e-01	 3.1783704593e+00
 1.4336777199e+00	 3.0932071795e-01	 3.0636897646e+00
 1.4282184511e+00	 3.3362129296e-01	 2.9048286677e+00
 1.4223177308e+00	 3.5794326907e-01	 2.7137865187e+00
 1.4584132651e+00	 2.3844896467e-01	 3.2308937951e+00
 1.4542219549e+00	 2.6280347489e-01	 3.2198797937e+00
 1.4495987068e+00	 2.8721202921e-01	 3.1553196950e+00
 1.4445389148e+00	 3.1166405672e-01	 3.0406431412e+00
 1.4390382878e+00	 3.3614872700e-01	 2.8833327663e+00
 1.4330928651e+00	 3.6065496050e-01	 2.6951559699e+00
 1.4693787783e+00	 2.4024181403e-01	 3.2716136930e+00
 1.4651559545e+00	 2.6477944086e-01	 3.2596912106e+00
 1.4604979452e+00	 2.8937151815e-01	 3.1962244941e+00
 1.4554001096e+00	 3.1400739549e-01	 3.0837155878e+00
 1.4498581246e+00	 3.3867616103e-01	 2.9290259531e+00
 1.4438679994e+00	 3.6336665193e-01	 2.7436426028e+00
 1.4803442916e+00	 2.4203466339e-01	 3.3693685705e+00
 1.4760899542e+00	 2.6675540684e-01	 3.3606628810e+00
 1.4713971836e+00	 2.9153100709e-01	 3.3014364976e+00
 1.4662613045e+00	 3.1635073426e-01	 3.1931738360e+00
 1.4606779613e+00	 3.4120359507e-01	 3.0420437210e+00
 1.4546431337e+00	 3.6607834336e-01	 2.8592019897e+00
 1.4007674621e+00	 3.5251988620e-01	 2.9522994681e+00
 1.3945178489e+00	 3.7648336231e-01	 2.8256443239e+00
 1.3878267536e+00	 4.0044557069e-01	 2.7005667747e+00
 1.3806913555e+00	 4.2439502114e-01	 2.5890513693e+00
 1.3731092106e+00	 4.4832002949e-01	 2.5037638140e+00
 1.3650782638e+00	 4.7220873209e-01	 2.4577181947e+00
 1.4115425964e+00	 3.5523157763e-01	 2.7995229174e+00
 1.4052449093e+00	 3.7937938817e-01	 2.6779497305e+00
 1.3985023440e+00	 4.0352592123e-01	 2.5555636990e+00
 1.3913120582e+00	 4.2765959822e-01	 2.4449903299e+00
 1.3836715891e+00	 4.5176864510e-01	 2.3602564385e+00
 1.3755788659e+00	 4.7584110696e-01	 2.3157339739e+00
 1.4223177308e+00	 3.5794326907e-01	 2.7137865187e+00
 1.4159719697e+00	 3.8227541404e-01	 2.5972815442e+00
 1.4091779344e+00	 4.0660627177e-01	 2.4763608161e+00
 1.4019327610e+00	 4.3092417531e-01	 2.3648448618e+00
 1.3942339677e+00	 4.5521726072e-01	 2.2781904112e+00
 1.3860794679e+00	 4.7947348182e-01	 2.2321930470e+00
 1.4330928651e+00	 3.6065496050e-01	 2.6951559699e+00
 1.4266990301e+00	 3.8517143990e-01	 2.5833916330e+00
 1.4198535248e+00	 4.0968662232e-01	 2.4625662046e+00
 1.4125534637e+00	 4.3418875240e-01	 2.3480867284e+00
 1.4047963462e+00	 4.5866587633e-01	 2.2569099147e+00
 1.3965800699e+00	 4.8310585668e-01	 2.2063216950e+00
 1.4438679994e+00	 3.6336665193e-01	 2.7436426028e+00
 1.4374260904e+00	 3.8806746577e-01	 2.6359909810e+00
 1.4305291152e+00	 4.1276697286e-01	 2.5137491790e+00
 1.4231741664e+00	 4.3745332948e-01	 2.3941517423e+00
 1.4153587248e+00	 4.6211449194e-01	 2.2957266655e+00
 1.4070806720e+00	 4.8673823154e-01	 2.2373178555e+00
 1.4546431337e+00	 3.6607834336e-01	 2.8592019897e+00
 1.4481531508e+00	 3.9096349163e-01	 2.7547514994e+00
 1.4412047057e+00	 4.1584732340e-01	 2.6294423880e+00
 1.4337948692e+00	 4.4071790657e-01	 2.5024421708e+00
 1.4259211033e+00	 4.6556310755e-01	 2.3939226443e+00
 1.4175812740e+00	 4.9037060641e-01	 2.3243541963e+00
 1.3650782638e+00	 4.7220873209e-01	 2.4577181947e+00
 1.3565968607e+00	 4.9604910113e-01	 2.1440520155e+00
 1.3476637580e+00	 5.1982896076e-01	 1.9059274426e+00
 1.3382781346e+00	 5.4353600397e-01	 1.7561461353e+00
 1.3284396002e+00	 5.6715781014e-01	 1.7064003176e+00
 1.3181482046e+00	 5.9068186335e-01	 1.7669479139e+00
 1.3755788659e+00	 4.7584110696e-01	 2.3157339739e+00
 1.3670322211e+00	 4.9986486345e-01	 2.0093917914e+00
 1.3580304023e+00	 5.2382764508e-01	 1.7771971214e+00
 1.3485725818e+00	 5.4771705015e-01	 1.6332096124e+00
 1.3386583664e+00	 5.7152056253e-01	 1.5903288662e+00
 1.3282878062e+00	 5.9522557000e-01	 1.6599589513e+00
 1.3860794679e+00	 4.7947348182e-01	 2.2321930470e+00
 1.3774675816e+00	 5.0368062577e-01	 1.9301466226e+00
 1.3683970466e+00	 5.2782632939e-01	 1.7005282201e+00
 1.3588670290e+00	 5.5189809634e-01	 1.5587096529e+00
 1.3488771326e+00	 5.7588331491e-01	 1.5188475231e+00
 1.3384274078e+00	 5.9976927664e-01	 1.5935370847e+00
 1.3965800699e+00	 4.8310585668e-01	 2.2063216950e+00
 1.3879029421e+00	 5.0749638808e-01	 1.9054254582e+00
 1.3787636909e+00	 5.3182501371e-01	 1.6749211968e+00
 1.3691614761e+00	 5.5607914252e-01	 1.5315470365e+00
 1.3590958987e+00	 5.8024606730e-01	 1.4907658669e+00
 1.3485670094e+00	 6.0431298328e-01	 1.5664085395e+00
 1.4070806720e+00	 4.8673823154e-01	 2.2373178555e+00
 1.3983383025e+00	 5.1131215040e-01	 1.9343139123e+00
 1.3891303352e+00	 5.3582369802e-01	 1.6993587745e+00
 1.3794559233e+00	 5.6026018871e-01	 1.5506109363e+00
 1.3693146649e+00	 5.8460881968e-01	 1.5048884515e+00
 1.3587066109e+00	 6.0885668992e-01	 1.5773014679e+00
 1.4175812740e+00	 4.9037060641e-01	 2.3243541963e+00
 1.4087736630e+00	 5.1512791272e-01	 2.0158776841e+00
 1.3994969795e+00	 5.3982238233e-01	 1.7728097218e+00
 1.3897503705e+00	 5.6444123489e-01	 1.6147830704e+00
 1.3795334310e+00	 5.8897157207e-01	 1.5600193379e+00
 1.3688462125e+00	 6.1340039656e-01	 1.6249508700e+00
 1.3181482046e+00	 5.9068186335e-01	 1.7669479139e+00
 1.3074044449e+00	 6.1409557125e-01	 1.3139274530e+00
 1.2962092722e+00	 6.3738628453e-01	 9.8687839471e-01
 1.2845640979e+00	 6.6054131693e-01	 7.8901118340e-01
 1.2724707980e+00	 6.8354796573e-01	 7.2098126853e-01
 1.2599317165e+00	 7.0639353259e-01	 7.8068725348e-01
 1.3282878062e+00	 5.9522557000e-01	 1.6599589513e+00
 1.3174614021e+00	 6.1881938334e-01	 1.2079199609e+00
 1.3061801128e+00	 6.4228925595e-01	 8.8201254829e-01
 1.2944453602e+00	 6.6562240399e-01	 6.8657994934e-01
 1.2822590349e+00	 6.8880602700e-01	 6.2334273835e-01
 1.2696234989e+00	 7.1182732900e-01	 6.9119590322e-01
 1.3384274078e+00	 5.9976927664e-01	 1.5935370847e+00
 1.3275183594e+00	 6.2354319543e-01	 1.1402388574e+00
 1.3161509533e+00	 6.4719222737e-01	 8.1320194710e-01
 1.3043266225e+00	 6.7070349104e-01	 6.1793253679e-01
 1.2920472718e+00	 6.9406408828e-01	 5.5724289359e-01
 1.2793152814e+00	 7.1726112540e-01	 6.3104794696e-01
 1.3485670094e+00	 6.0431298328e-01	 1.5664085395e+00
 1.3375753167e+00	 6.2826700751e-01	 1.1094906898e+00
 1.3261217939e+00	 6.5209519879e-01	 7.7893769536e-01
 1.3142078848e+00	 6.7578457809e-01	 5.8144752841e-01
 1.3018355087e+00	 6.9932214955e-01	 5.2094922787e-01
 1.2890070638e+00	 7.2269492181e-01	 5.9839959718e-01
 1.3587066109e+00	 6.0885668992e-01	 1.5773014679e+00
 1.3476322739e+00	 6.3299081960e-01	 1.1142924549e+00
 1.3360926344e+00	 6.5699817021e-01	 7.7773009487e-01
 1.3240891471e+00	 6.8086566515e-01	 5.7553157178e-01
 1.3116237456e+00	 7.0458021083e-01	 5.1276617415e-01
 1.2986988462e+00	 7.2812871821e-01	 5.9145277111e-01
 1.3688462125e+00	 6.1340039656e-01	 1.6249508700e+00
 1.3576892312e+00	 6.3771463169e-01	 1.1532768648e+00
 1.3460634750e+00	 6.6190114163e-01	 8.0811425889e-01
 1.3339704094e+00	 6.8594675220e-01	 5.9862534077e-01
 1.3214119825e+00	 7.0983827210e-01	 5.3104141113e-01
 1.3083906287e+00	 7.3356251462e-01	 6.0846173761e-01
 1.2599317165e+00	 7.0639353259e-01	 7.8068725348e-01
 1.2469496686e+00	 7.2906534485e-01	 4.8644957476e-01
 1.2335279416e+00	 7.5155077695e-01	 2.9697883923e-01
 1.2196702953e+00	 7.7383727220e-01	 1.0017199783e-01
 1.2053809609e+00	 7.9591236460e-01	-1.4032489202e-01
 1.1906646391e+00	 8.1776370071e-01	-4.4342331910e-01
 1.2696234989e+00	 7.1182732900e-01	 6.9119590322e-01
 1.2565415891e+00	 7.3467353981e-01	 4.1383362497e-01
 1.2430166181e+00	 7.5733193677e-01	 2.2702720377e-01
 1.2290523745e+00	 7.7978986660e-01	 2.5881237878e-02
 1.2146531222e+00	 8.0203476740e-01	-2.1327564118e-01
 1.1998235979e+00	 8.2405419072e-01	-5.0957622673e-01
 1.2793152814e+00	 7.1726112540e-01	 6.3104794696e-01
 1.2661335097e+00	 7.4028173477e-01	 3.6900685240e-01
 1.2525052946e+00	 7.6311309660e-01	 1.7618937647e-01
 1.2384344537e+00	 7.8574246101e-01	-2.9650693883e-02
 1.2239252834e+00	 8.0815717021e-01	-2.6779896893e-01
 1.2089825567e+00	 8.3034468073e-01	-5.5762081501e-01
 1.2890070638e+00	 7.2269492181e-01	 5.9839959718e-01
 1.2757254302e+00	 7.4588992973e-01	 3.4691517352e-01
 1.2619939710e+00	 7.6889425642e-01	 1.4317427258e-01
 1.2478165329e+00	 7.9169505541e-01	-6.7729305890e-02
 1.2331974446e+00	 8.1427957301e-01	-3.0521433752e-01
 1.2181415154e+00	 8.3663517073e-01	-5.8889009812e-01
 1.2986988462e+00	 7.2812871821e-01	 5.9145277111e-01
 1.2853173507e+00	 7.5149812469e-01	 3.4190453391e-01
 1.2714826475e+00	 7.7467541624e-01	 1.2680254769e-01
 1.2571986121e+00	 7.9764764981e-01	-8.9548022141e-02
 1.2424696059e+00	 8.2040197581e-01	-3.2672816021e-01
 1.2273004742e+00	 8.4292566074e-01	-6.0460244895e-01
 1.3083906287e+00	 7.3356251462e-01	 6.0846173761e-01
 1.2949092712e+00	 7.5710631965e-01	 3.5289204241e-01
 1.2809713240e+00	 7.8045657607e-01	 1.2600145788e-01
 1.2665806913e+00	 8.0360024421e-01	-9.6193408437e-02
 1.2517417671e+00	 8.2652437862e-01	-3.3343909250e-01
 1.2364594329e+00	 8.4921615074e-01	-6.0586693369e-01
 1.1906646391e+00	 8.1776370071e-01	-4.4342331910e-01
 1.1755264965e+00	 8.3937906161e-01	-3.5328686588e-01
 1.1599721611e+00	 8.6074638459e-01	-3.8301187356e-01
 1.1440077164e+00	 8.8185378482e-01	-5.4841163858e-01
 1.1276396948e+00	 9.0268957668e-01	-8.6224199463e-01
 1.1108750687e+00	 9.2324229479e-01	-1.3333618311e+00
 1.1998235979e+00	 8.2405419072e-01	-5.0957622673e-01
 1.1845690080e+00	 8.4583582362e-01	-4.1729630249e-01
 1.1688950239e+00	 8.6736751062e-01	-4.4347737016e-01
 1.1528077758e+00	 8.8863727547e-01	-6.0449368588e-01
 1.1363138463e+00	 9.0963334265e-01	-9.1360865836e-01
 1.1194202615e+00	 9.3034415860e-01	-1.3800902195e+00
 1.2089825567e+00	 8.3034468073e-01	-5.5762081501e-01
 1.1936115195e+00	 8.5229258564e-01	-4.6555520389e-01
 1.1778178866e+00	 8.7398863666e-01	-4.9053014988e-01
 1.1616078352e+00	 8.9542076612e-01	-6.4950512394e-01
 1.1449879978e+00	 9.1657710863e-01	-9.5627866228e-01
 1.1279654543e+00	 9.3744602241e-01	-1.4205639082e+00
 1.2181415154e+00	 8.3663517073e-01	-5.8889009812e-01
 1.2026540311e+00	 8.5874934765e-01	-4.9936432126e-01
 1.1867407494e+00	 8.8060976269e-01	-5.2544066565e-01
 1.1704078945e+00	 9.0220425677e-01	-6.8468931682e-01
 1.1536621493e+00	 9.2352087460e-01	-9.9147305084e-01
 1.1365106472e+00	 9.4454788621e-01	-1.4559815118e+00
 1.2273004742e+00	 8.4292566074e-01	-6.0460244895e-01
 1.2116965426e+00	 8.6520610966e-01	-5.1990891949e-01
 1.1956636122e+00	 8.8723088873e-01	-5.4936240346e-01
 1.1792079539e+00	 9.0898774743e-01	-7.1117057477e-01
 1.1623363008e+00	 9.3046464057e-01	-1.0202911629e+00
 1.1450558400e+00	 9.5164975002e-01	-1.4874234918e+00
 1.2364594329e+00	 8.4921615074e-01	-6.0586693369e-01
 1.2207390541e+00	 8.7166287167e-01	-5.2826408253e-01
 1.2045864750e+00	 8.9385201477e-01	-5.6333713793e-01
 1.1880080132e+00	 9.1577123808e-01	-7.2995933958e-01
 1.1710104523e+00	 9.3740840655e-01	-1.0437157274e+00
 1.1536010328e+00	 9.5875161382e-01	-1.5158504274e+00
 1.1108750687e+00	 9.2324229479e-01	-1.3333618311e+00
 1.0937212417e+00	 9.4350071465e-01	-1.1626429244e+00
 1.0761860379e+00	 9.6345387269e-01	-1.1397445654e+00
 1.0582776903e+00	 9.8309108594e-01	-1.2297779073e+00
 1.0400048278e+00	 1.0024019709e+00	-1.3936320597e+00
 1.0213764617e+00	 1.0213764617e+00	-1.5890922917e+00
 1.1194202615e+00	 9.3034415860e-01	-1.3800902195e+00
 1.1021344820e+00	 9.5075841245e-01	-1.1847841124e+00
 1.0844643921e+00	 9.7086505633e-01	-1.1407935424e+00
 1.0664182879e+00	 9.9065332507e-01	-1.2201948870e+00
 1.0480048649e+00	 1.0101127553e+00	-1.3824598420e+00
 1.0292332037e+00	 1.0292332037e+00	-1.5837367498e+00
 1.1279654543e+00	 9.3744602241e-01	-1.4205639082e+00
 1.1105477223e+00	 9.5801611026e-01	-1.2176513307e+00
 1.0927427462e+00	 9.7827623997e-01	-1.1535909378e+00
 1.0745588856e+00	 9.9821556419e-01	-1.2236513818e+00
 1.0560049021e+00	 1.0178235397e+00	-1.3858186377e+00
 1.0370899457e+00	 1.0370899457e+00	-1.5945246216e+00
 1.1365106472e+00	 9.4454788621e-01	-1.4559815118e+00
 1.1189609627e+00	 9.6527380806e-01	-1.2554647603e+00
 1.1010211004e+00	 9.8568742360e-01	-1.1781139026e+00
 1.0826994832e+00	 1.0057778033e+00	-1.2402185993e+00
 1.0640049392e+00	 1.0255343241e+00	-1.4038986027e+00
 1.0449466878e+00	 1.0449466878e+00	-1.6217863605e+00
 1.1450558400e+00	 9.5164975002e-01	-1.4874234918e+00
 1.1273742030e+00	 9.7253150587e-01	-1.2914623859e+00
 1.1092994545e+00	 9.9309860724e-01	-1.2142231465e+00
 1.0908400808e+00	 1.0133400424e+00	-1.2698569059e+00
 1.0720049764e+00	 1.0332451084e+00	-1.4367856630e+00
 1.0528034298e+00	 1.0528034298e+00	-1.6657557093e+00
 1.1536010328e+00	 9.5875161382e-01	-1.5158504274e+00
 1.1357874433e+00	 9.7978920367e-01	-1.3265685450e+00
 1.1175778086e+00	 1.0005097909e+00	-1.2587931991e+00
 1.0989806784e+00	 1.0209022816e+00	-1.3124100179e+00
 1.0800050135e+00	 1.0409558928e+00	-1.4844558630e+00
 1.0606601718e+00	 1.0606601718e+00	-1.7265642262e+00
 1.0213764617e+00	 1.0213764617e+00	-1.5890922917e+00
 1.0024019709e+00	 1.0400048278e+00	-1.7322106441e+00
 9.8309108594e-01	 1.0582776903e+00	-1.8588946650e+00
 9.6345387269e-01	 1.0761860379e+00	-1.9245776228e+00
 9.4350071465e-01	 1.0937212417e+00	-1.8865508956e+00
 9.2324229479e-01	 1.1108750687e+00	-1.7052706986e+00
 1.0292332037e+00	 1.0292332037e+00	-1.5837367498e+00
 1.0101127553e+00	 1.0480048649e+00	-1.7310919048e+00
 9.9065332507e-01	 1.0664182879e+00	-1.8558739625e+00
 9.7086505633e-01	 1.0844643921e+00	-1.9116748129e+00
 9.5075841245e-01	 1.1021344820e+00	-1.8540035354e+00
 9.3034415860e-01	 1.1194202615e+00	-1.6477548525e+00
 1.0370899457e+00	 1.0370899457e+00	-1.5945246216e+00
 1.0178235397e+00	 1.0560049021e+00	-1.7482105239e+00
 9.9821556419e-01	 1.0745588856e+00	-1.8732719146e+00
 9.7827623997e-01	 1.0927427462e+00	-1.9213599637e+00
 9.5801611026e-01	 1.1105477223e+00	-1.8461009083e+00
 9.3744602241e-01	 1.1279654543e+00	-1.6274037696e+00
 1.0449466878e+00	 1.0449466878e+00	-1.6217863605e+00
 1.0255343241e+00	 1.0640049392e+00	-1.7840445291e+00
 1.0057778033e+00	 1.0826994832e+00	-1.9117238881e+00
 9.8568742360e-01	 1.1010211004e+00	-1.9544310629e+00
 9.6527380806e-01	 1.1189609627e+00	-1.8667726752e+00
 9.4454788621e-01	 1.1365106472e+00	-1.6419592515e+00
 1.0528034298e+00	 1.0528034298e+00	-1.6657557093e+00
 1.0332451084e+00	 1.0720049764e+00	-1.8389838533e+00
 1.0133400424e+00	 1.0908400808e+00	-1.9717865437e+00
 9.9309860724e-01	 1.1092994545e+00	-2.0116174227e+00
 9.7253150587e-01	 1.1273742030e+00	-1.9187509484e+00
 9.5164975002e-01	 1.1450558400e+00	-1.6891610980e+00
 1.0606601718e+00	 1.0606601718e+00	-1.7265642262e+00
 1.0409558928e+00	 1.0800050135e+00	-1.9133250466e+00
 1.0209022816e+00	 1.0989806784e+00	-2.0539327467e+00
 1.0005097909e+00	 1.1175778086e+00	-2.0940100585e+00
 9.7978920367e-01	 1.1357874433e+00	-1.9997253133e+00
 9.5875161382e-01	 1.1536010328e+00	-1.7667562449e+00
 9.2324229479e-01	 1.1108750687e+00	-1.7052706986e+00
 9.0268957668e-01	 1.1276396948e+00	-2.0526784118e+00
 8.8185378482e-01	 1.1440077164e+00	-2.2387552650e+00
 8.6074638459e-01	 1.1599721611e+00	-2.2772079075e+00
 8.3937906161e-01	 1.1755264965e+00	-2.1852421677e+00
 8.1776370071e-01	 1.1906646391e+00	-1.9828050377e+00
 9.3034415860e-01	 1.1194202615e+00	-1.6477548525e+00
 9.0963334265e-01	 1.1363138463e+00	-1.9877005590e+00
 8.8863727547e-01	 1.1528077758e+00	-2.1676016367e+00
 8.6736751062e-01	 1.1688950239e+00	-2.2013663413e+00
 8.4583582362e-01	 1.1845690080e+00	-2.1065061629e+00
 8.2405419072e-01	 1.1998235979e+00	-1.9033347966e+00
 9.3744602241e-01	 1.1279654543e+00	-1.6274037696e+00
 9.1657710863e-01	 1.1449879978e+00	-1.9613831481e+00
 8.9542076612e-01	 1.1616078352e+00	-2.1366307956e+00
 8.7398863666e-01	 1.1778178866e+00	-2.1672739216e+00
 8.5229258564e-01	 1.1936115195e+00	-2.0711427916e+00
 8.3034468073e-01	 1.2089825567e+00	-1.8689303190e+00
 9.4454788621e-01	 1.1365106472e+00	-1.6419592515e+00
 9.2352087460e-01	 1.1536621493e+00	-1.9715311348e+00
 9.0220425677e-01	 1.1704078945e+00	-2.1437119349e+00
 8.8060976269e-01	 1.1867407494e+00	-2.1728619809e+00
 8.5874934765e-01	 1.2026540311e+00	-2.0771455658e+00
 8.3663517073e-01	 1.2181415154e+00	-1.8776493738e+00
 9.5164975002e-01	 1.1450558400e+00	-1.6891610980e+00
 9.3046464057e-01	 1.1623363008e+00	-2.0159494683e+00
 9.0898774743e-01	 1.1792079539e+00	-2.1867106700e+00
 8.8723088873e-01	 1.1956636122e+00	-2.2160545977e+00
 8.6520610966e-01	 1.2116965426e+00	-2.1224970636e+00
 8.4292566074e-01	 1.2273004742e+00	-1.9275352111e+00
 9.5875161382e-01	 1.1536010328e+00	-1.7667562449e+00
 9.3740840655e-01	 1.1710104523e+00	-2.0924466178e+00
 9.1577123808e-01	 1.1880080132e+00	-2.2634923082e+00
 8.9385201477e-01	 1.2045864750e+00	-2.2947716054e+00
 8.7166287167e-01	 1.2207390541e+00	-2.2051716770e+00
 8.4921615074e-01	 1.2364594329e+00	-2.0166190486e+00
 8.1776370071e-01	 1.1906646391e+00	-1.9828050377e+00
 7.9591236460e-01	 1.2053809609e+00	-2.1443507558e+00
 7.7383727220e-01	 1.2196702953e+00	-2.2305656043e+00
 7.5155077695e-01	 1.2335279416e+00	-2.2647630005e+00
 7.2906534485e-01	 1.2469496686e+00	-2.2785296823e+00
 7.0639353259e-01	 1.2599317165e+00	-2.3383559880e+00
 8.2405419072e-01	 1.1998235979e+00	-1.9033347966e+00
 8.0203476740e-01	 1.2146531222e+00	-2.0624133433e+00
 7.7978986660e-01	 1.2290523745e+00	-2.1470253011e+00
 7.5733193677e-01	 1.2430166181e+00	-2.1805504785e+00
 7.3467353981e-01	 1.2565415891e+00	-2.1884635264e+00
 7.1182732900e-01	 1.2696234989e+00	-2.2344099389e+00
 8.3034468073e-01	 1.2089825567e+00	-1.8689303190e+00
 8.0815717021e-01	 1.2239252834e+00	-2.0250888962e+00
 7.8574246101e-01	 1.2384344537e+00	-2.1077656990e+00
 7.6311309660e-01	 1.2525052946e+00	-2.1404114159e+00
 7.4028173477e-01	 1.2661335097e+00	-2.1463084922e+00
 7.1726112540e-01	 1.2793152814e+00	-2.1786490540e+00
 8.3663517073e-01	 1.2181415154e+00	-1.8776493738e+00
 8.1427957301e-01	 1.2331974446e+00	-2.0305536003e+00
 7.9169505541e-01	 1.2478165329e+00	-2.1110862409e+00
 7.6889425642e-01	 1.2619939710e+00	-2.1427746698e+00
 7.4588992973e-01	 1.2757254302e+00	-2.1488938268e+00
 7.2269492181e-01	 1.2890070638e+00	-2.1695664728e+00
 8.4292566074e-01	 1.2273004742e+00	-1.9275352111e+00
 8.2040197581e-01	 1.2424696059e+00	-2.0769642262e+00
 7.9764764981e-01	 1.2571986121e+00	-2.1552623556e+00
 7.7467541624e-01	 1.2714826475e+00	-2.1860408631e+00
 7.5149812469e-01	 1.2853173507e+00	-2.1925797565e+00
 7.2812871821e-01	 1.2986988462e+00	-2.2056136686e+00
 8.4921615074e-01	 1.2364594329e+00	-2.0166190486e+00
 8.2652437862e-01	 1.2517417671e+00	-2.1624604132e+00
 8.0360024421e-01	 1.2665806913e+00	-2.2385475425e+00
 7.8045657607e-01	 1.2809713240e+00	-2.2685842751e+00
 7.5710631965e-01	 1.2949092712e+00	-2.2758569867e+00
 7.3356251462e-01	 1.3083906287e+00	-2.2852038556e+00
 7.0639353259e-01	 1.2599317165e+00	-2.3383559880e+00
 6.8354796573e-01	 1.2724707980e+00	-2.1372430698e+00
 6.6054131693e-01	 1.2845640979e+00	-2.0330235052e+00
 6.3738628453e-01	 1.2962092722e+00	-2.0313677034e+00
 6.1409557125e-01	 1.3074044449e+00	-2.1343776643e+00
 5.9068186335e-01	 1.3181482046e+00	-2.3409051598e+00
 7.1182732900e-01	 1.2696234989e+00	-2.2344099389e+00
 6.8880602700e-01	 1.2822590349e+00	-2.0253903775e+00
 6.6562240399e-01	 1.2944453602e+00	-1.9155387725e+00
 6.4228925595e-01	 1.3061801128e+00	-1.9096897919e+00
 6.1881938334e-01	 1.3174614021e+00	-2.0089988830e+00
 5.9522557000e-01	 1.3282878062e+00	-2.2112720695e+00
 7.1726112540e-01	 1.2793152814e+00	-2.1786490540e+00
 6.9406408828e-01	 1.2920472718e+00	-1.9625023561e+00
 6.7070349104e-01	 1.3043266225e+00	-1.8479943044e+00
 6.4719222737e-01	 1.3161509533e+00	-1.8390876796e+00
 6.2354319543e-01	 1.3275183594e+00	-1.9359513963e+00
 5.9976927664e-01	 1.3384274078e+00	-2.1353020091e+00
 7.2269492181e-01	 1.2890070638e+00	-2.1695664728e+00
 6.9932214955e-01	 1.3018355087e+00	-1.9472024789e+00
 6.7578457809e-01	 1.3142078848e+00	-1.8291509960e+00
 6.5209519879e-01	 1.3261217939e+00	-1.8184667327e+00
 6.2826700751e-01	 1.3375753167e+00	-1.9142919446e+00
 6.0431298328e-01	 1.3485670094e+00	-2.1122097282e+00
 7.2812871821e-01	 1.2986988462e+00	-2.2056136686e+00
 7.0458021083e-01	 1.3116237456e+00	-1.9780696609e+00
 6.8086566515e-01	 1.3240891471e+00	-1.8577223635e+00
 6.5699817021e-01	 1.3360926344e+00	-1.8466822389e+00
 6.3299081960e-01	 1.3476322739e+00	-1.9430246548e+00
 6.0885668992e-01	 1.3587066109e+00	-2.1411550353e+00
 7.3356251462e-01	 1.3083906287e+00	-2.2852038556e+00
 7.0983827210e-01	 1.3214119825e+00	-2.0536415088e+00
 6.8594675220e-01	 1.3339704094e+00	-1.9323776362e+00
 6.6190114163e-01	 1.3460634750e+00	-1.9225423372e+00
 6.3771463169e-01	 1.3576892312e+00	-2.0211038079e+00
 6.1340039656e-01	 1.3688462125e+00	-2.2212454034e+00
 5.9068186335e-01	 1.3181482046e+00	-2.3409051598e+00
 5.6715781014e-01	 1.3284396002e+00	-2.1274115643e+00
 5.4353600397e-01	 1.3382781346e+00	-1.9974985044e+00
 5.1982896076e-01	 1.3476637580e+00	-1.9419177223e+00
 4.9604910113e-01	 1.3565968607e+00	-1.9497401957e+00
 4.7220873209e-01	 1.3650782638e+00	-2.0087620925e+00
 5.9522557000e-01	 1.3282878062e+00	-2.2112720695e+00
 5.7152056253e-01	 1.3386583664e+00	-1.9876657105e+00
 5.4771705015e-01	 1.3485725818e+00	-1.8495448716e+00
 5.2382764508e-01	 1.3580304023e+00	-1.7866260516e+00
 4.9986486345e-01	 1.3670322211e+00	-1.7868847289e+00
 4.7584110696e-01	 1.3755788659e+00	-1.8369776971e+00
 5.9976927664e-01	 1.3384274078e+00	-2.1353020091e+00
 5.7588331491e-01	 1.3488771326e+00	-1.9053096744e+00
 5.5189809634e-01	 1.3588670290e+00	-1.7626069491e+00
 5.2782632939e-01	 1.3683970466e+00	-1.6958188529e+00
 5.0368062577e-01	 1.3774675816e+00	-1.6917665379e+00
 4.7947348182e-01	 1.3860794679e+00	-1.7359063896e+00
 6.0431298328e-01	 1.3485670094e+00	-2.1122097282e+00
 5.8024606730e-01	 1.3590958987e+00	-1.8796690799e+00
 5.5607914252e-01	 1.3691614761e+00	-1.7361287201e+00
 5.3182501371e-01	 1.3787636909e+00	-1.6690653278e+00
 5.0749638808e-01	 1.3879029421e+00	-1.6640861270e+00
 4.8310585668e-01	 1.3965800699e+00	-1.7053851352e+00
 6.0885668992e-01	 1.3587066109e+00	-2.1411550353e+00
 5.8460881968e-01	 1.3693146649e+00	-1.9100141224e+00
 5.6026018871e-01	 1.3794559233e+00	-1.7694984793e+00
 5.3582369802e-01	 1.3891303352e+00	-1.7058789878e+00
 5.1131215040e-01	 1.3983383025e+00	-1.7034885910e+00
 4.8673823154e-01	 1.4070806720e+00	-1.7451960734e+00
 6.1340039656e-01	 1.3688462125e+00	-2.2212454034e+00
 5.8897157207e-01	 1.3795334310e+00	-1.9955619530e+00
 5.6444123489e-01	 1.3897503705e+00	-1.8620510017e+00
 5.3982238233e-01	 1.3994969795e+00	-1.8057196118e+00
 5.1512791272e-01	 1.4087736630e+00	-1.8095653679e+00
 4.9037060641e-01	 1.4175812740e+00	-1.8550680726e+00
 4.7220873209e-01	 1.3650782638e+00	-2.0087620925e+00
 4.4832002949e-01	 1.3731092106e+00	-1.9146435420e+00
 4.2439502114e-01	 1.3806913555e+00	-1.8602199485e+00
 4.0044557069e-01	 1.3878267536e+00	-1.8320903049e+00
 3.7648336231e-01	 1.3945178489e+00	-1.8171717392e+00
 3.5251988620e-01	 1.4007674621e+00	-1.8242892631e+00
 4.7584110696e-01	 1.3755788659e+00	-1.8369776971e+00
 4.5176864510e-01	 1.3836715891e+00	-1.7363895829e+00
 4.2765959822e-01	 1.3913120582e+00	-1.6781701898e+00
 4.0352592123e-01	 1.3985023440e+00	-1.6474862695e+00
 3.7937938817e-01	 1.4052449093e+00	-1.6298380759e+00
 3.5523157763e-01	 1.4115425964e+00	-1.6275733093e+00
 4.7947348182e-01	 1.3860794679e+00	-1.7359063896e+00
 4.5521726072e-01	 1.3942339677e+00	-1.6300551815e+00
 4.3092417531e-01	 1.4019327610e+00	-1.5687506491e+00
 4.0660627177e-01	 1.4091779344e+00	-1.5356656976e+00
 3.8227541404e-01	 1.4159719697e+00	-1.5148219961e+00
 3.5794326907e-01	 1.4223177308e+00	-1.5024017812e+00
 4.8310585668e-01	 1.3965800699e+00	-1.7053851352e+00
 4.5866587633e-01	 1.4047963462e+00	-1.5956500941e+00
 4.3418875240e-01	 1.4125534637e+00	-1.5321488154e+00
 4.0968662232e-01	 1.4198535248e+00	-1.4969973269e+00
 3.8517143990e-01	 1.4266990301e+00	-1.4726754479e+00
 3.6065496050e-01	 1.4330928651e+00	-1.4497250538e+00
 4.8673823154e-01	 1.4070806720e+00	-1.7451960734e+00
 4.6211449194e-01	 1.4153587248e+00	-1.6331291908e+00
 4.3745332948e-01	 1.4231741664e+00	-1.5684974983e+00
 4.1276697286e-01	 1.4305291152e+00	-1.5317956968e+00
 3.8806746577e-01	 1.4374260904e+00	-1.5038969400e+00
 3.6336665193e-01	 1.4438679994e+00	-1.4704203474e+00
 4.9037060641e-01	 1.4175812740e+00	-1.8550680726e+00
 4.6556310755e-01	 1.4259211033e+00	-1.7423938558e+00
 4.4071790657e-01	 1.4337948692e+00	-1.6778760836e+00
 4.1584732340e-01	 1.4412047057e+00	-1.6403222712e+00
 3.9096349163e-01	 1.4481531508e+00	-1.6089325422e+00
 3.6607834336e-01	 1.4546431337e+00	-1.5652890638e+00
 3.5251988620e-01	 1.4007674621e+00	-1.8242892631e+00
 3.2856642488e-01	 1.4065787776e+00	-1.7214871566e+00
 3.0463404040e-01	 1.4119553302e+00	-1.6579898050e+00
 2.8073356238e-01	 1.4169009916e+00	-1.6267364790e+00
 2.5687557696e-01	 1.4214199559e+00	-1.6231990893e+00
 2.3307041660e-01	 1.4255167253e+00	-1.6452821830e+00
 3.5523157763e-01	 1.4115425964e+00	-1.6275733093e+00
 3.3109385892e-01	 1.4173986143e+00	-1.5176761355e+00
 3.0697737917e-01	 1.4228165251e+00	-1.4532741249e+00
 2.8289305132e-01	 1.4278002300e+00	-1.4273948905e+00
 2.5885154293e-01	 1.4323539556e+00	-1.4358542228e+00
 2.3486326595e-01	 1.4364822385e+00	-1.4771384434e+00
 3.5794326907e-01	 1.4223177308e+00	-1.5024017812e+00
 3.3362129296e-01	 1.4282184511e+00	-1.3844304561e+00
 3.0932071795e-01	 1.4336777199e+00	-1.3170460928e+00
 2.8505254027e-01	 1.4386994684e+00	-1.2933786641e+00
 2.6082750891e-01	 1.4432879552e+00	-1.3096217415e+00
 2.3665611531e-01	 1.4474477518e+00	-1.3648960116e+00
 3.6065496050e-01	 1.4330928651e+00	-1.4497250538e+00
 3.3614872700e-01	 1.4390382878e+00	-1.3228866261e+00
 3.1166405672e-01	 1.4445389148e+00	-1.2505742061e+00
 2.8721202921e-01	 1.4495987068e+00	-1.2260340972e+00
 2.6280347489e-01	 1.4542219549e+00	-1.2458723309e+00
 2.3844896467e-01	 1.4584132651e+00	-1.3098981057e+00
 3.6336665193e-01	 1.4438679994e+00	-1.4704203474e+00
 3.3867616103e-01	 1.4498581246e+00	-1.3341267060e+00
 3.1400739549e-01	 1.4554001096e+00	-1.2550890851e+00
 2.8937151815e-01	 1.4604979452e+00	-1.2266840274e+00
 2.6477944086e-01	 1.4651559545e+00	-1.2459654839e+00
 2.4024181403e-01	 1.4693787783e+00	-1.3134868933e+00
 3.6607834336e-01	 1.4546431337e+00	-1.5652890638e+00
 3.4120359507e-01	 1.4606779613e+00	-1.4191759806e+00
 3.1635073426e-01	 1.4662613045e+00	-1.3317814572e+00
 2.9153100709e-01	 1.4713971836e+00	-1.2966261040e+00
 2.6675540684e-01	 1.4760899542e+00	-1.3112480365e+00
 2.4203466339e-01	 1.4803442916e+00	-1.3770022662e+00
 2.3307041660e-01	 1.4255167253e+00	-1.6452821830e+00
 2.0932815081e-01	 1.4291960951e+00	-1.4902368785e+00
 1.8565857776e-01	 1.4324631393e+00	-1.3977232357e+00
 1.6207121672e-01	 1.4353231949e+00	-1.3694337722e+00
 1.3857530143e-01	 1.4377818468e+00	-1.4083011627e+00
 1.1517977434e-01	 1.4398449127e+00	-1.5181024504e+00
 2.3486326595e-01	 1.4364822385e+00	-1.4771384434e+00
 2.1093836736e-01	 1.4401899113e+00	-1.3313350861e+00
 1.8708672066e-01	 1.4434820866e+00	-1.2483803839e+00
 1.6331791838e-01	 1.4463641425e+00	-1.2313761583e+00
 1.3964126529e-01	 1.4488417071e+00	-1.2848021567e+00
 1.1606577261e-01	 1.4509206428e+00	-1.4140837084e+00
 2.3665611531e-01	 1.4474477518e+00	-1.3648960116e+00
 2.1254858390e-01	 1.4511837274e+00	-1.2232163825e+00
 1.8851486357e-01	 1.4545010338e+00	-1.1439873187e+00
 1.6456462005e-01	 1.4574050902e+00	-1.1318156400e+00
 1.4070722915e-01	 1.4599015675e+00	-1.1928355995e+00
 1.1695177087e-01	 1.4619963729e+00	-1.3342379616e+00
 2.3844896467e-01	 1.4584132651e+00	-1.3098981057e+00
 2.1415880045e-01	 1.4621775435e+00	-1.1671239158e+00
 1.8994300648e-01	 1.4655199810e+00	-1.0856376218e+00
 1.6581132172e-01	 1.4684460379e+00	-1.0716503790e+00
 1.4177319301e-01	 1.4709614279e+00	-1.1330625613e+00
 1.1783776914e-01	 1.4730721030e+00	-1.2789521697e+00
 2.4024181403e-01	 1.4693787783e+00	-1.3134868933e+00
 2.1576901699e-01	 1.4731713596e+00	-1.1643085303e+00
 1.9137114938e-01	 1.4765389283e+00	-1.0744393832e+00
 1.6705802338e-01	 1.4794869855e+00	-1.0517979968e+00
 1.4283915686e-01	 1.4820212882e+00	-1.1061857547e+00
 1.1872376740e-01	 1.4841478331e+00	-1.2494090835e+00
 2.4203466339e-01	 1.4803442916e+00	-1.3770022662e+00
 2.1737923353e-01	 1.4841651757e+00	-1.2155272073e+00
 1.9279929229e-01	 1.4875578755e+00	-1.1105711827e+00
 1.6830472505e-01	 1.4905279332e+00	-1.0747441154e+00
 1.4390512072e-01	 1.4930811486e+00	-1.1213858073e+00
 1.1960976567e-01	 1.4952235632e+00	-1.2640059075e+00
 1.1517977434e-01	 1.4398449127e+00	-1.5181024504e+00
 9.1893281613e-02	 1.4415184279e+00	-1.3562013552e+00
 6.8724169025e-02	 1.4428086296e+00	-1.2593152580e+00
 4.5680478661e-02	 1.4437219424e+00	-1.2305297061e+00
 2.2769946373e-02	 1.4442649628e+00	-1.2721561529e+00
 0.0000000000e+00	 1.4444444444e+00	-1.3853543257e+00
 1.1606577261e-01	 1.4509206428e+00	-1.4140837084e+00
 9.2600153011e-02	 1.4526070312e+00	-1.2628991783e+00
 6.9252816479e-02	 1.4539071575e+00	-1.1761562210e+00
 4.6031866959e-02	 1.4548274958e+00	-1.1589681929e+00
 2.2945099807e-02	 1.4553746932e+00	-1.2156378582e+00
 0.0000000000e+00	 1.4555555556e+00	-1.3492434766e+00
 1.1695177087e-01	 1.4619963729e+00	-1.3342379616e+00
 9.3307024408e-02	 1.4636956344e+00	-1.1873614183e+00
 6.9781463933e-02	 1.4650056855e+00	-1.1043434237e+00
 4.6383255256e-02	 1.4659330492e+00	-1.0924548904e+00
 2.3120253241e-02	 1.4664844237e+00	-1.1581209128e+00
 0.0000000000e+00	 1.4666666667e+00	-1.3064685949e+00
 1.1783776914e-01	 1.4730721030e+00	-1.2789521697e+00
 9.4013895805e-02	 1.4747842377e+00	-1.1296414131e+00
 7.0310111387e-02	 1.4761042134e+00	-1.0435670404e+00
 4.6734643554e-02	 1.4770386026e+00	-1.0302929669e+00
 2.3295406674e-02	 1.4775941542e+00	-1.0985035076e+00
 0.0000000000e+00	 1.4777777778e+00	-1.2555108898e+00
 1.1872376740e-01	 1.4841478331e+00	-1.2494090835e+00
 9.4720767202e-02	 1.4858728410e+00	-1.0927255275e+00
 7.0838758841e-02	 1.4872027413e+00	-9.9981032202e-01
 4.7086031851e-02	 1.4881441560e+00	-9.8202610632e-01
 2.3470560108e-02	 1.4887038847e+00	-1.0495963503e+00
 0.0000000000e+00	 1.4888888889e+00	-1.2113018456e+00
 1.1960976567e-01	 1.4952235632e+00	-1.2640059075e+00
 9.5427638599e-02	 1.4969614443e+00	-1.1040130354e+00
 7.1367406295e-02	 1.4983012692e+00	-1.0082485361e+00
 4.7437420148e-02	 1.4992497094e+00	-9.8931859507e-01
 2.3645713541e-02	 1.4998136152e+00	-1.0587312782e+00
 0.0000000000e+00	 1.5000000000e+00	-1.2265956396e+00
 1.5000000000e+00	 0.0000000000e+00	 3.8720674357e+00
 1.4998136152e+00	 2.3645713541e-02	 3.8528923591e+00
 1.4992497094e+00	 4.7437420148e-02	 3.8406481847e+00
 1.4983012692e+00	 7.1367406295e-02	 3.8243962506e+00
 1.4969614443e+00	 9.5427638599e-02	 3.7919426003e+00
 1.4952235632e+00	 1.1960976567e-01	 3.7301466637e+00
 1.5111111111e+00	 0.0000000000e+00	 3.7431174006e+00
 1.5109233456e+00	 2.3820866975e-02	 3.7242220000e+00
 1.5103552628e+00	 4.7788808446e-02	 3.7149688389e+00
 1.5093997971e+00	 7.1896053749e-02	 3.7035522431e+00
 1.5080500476e+00	 9.6134509996e-02	 3.6769298844e+00
 1.5062992933e+00	 1.2049576393e-01	 3.6211254694e+00
 1.5222222222e+00	 0.0000000000e+00	 3.6778651870e+00
 1.5220330761e+00	 2.3996020409e-02	 3.6570996172e+00
 1.5214608162e+00	 4.8140196743e-02	 3.6484443680e+00
 1.5204983251e+00	 7.2424701203e-02	 3.6392482912e+00
 1.5191386509e+00	 9.6841381393e-02	 3.6156448783e+00
 1.5173750234e+00	 1.2138176219e-01	 3.5628479179e+00
 1.5333333333e+00	 0.0000000000e+00	 3.6763240123e+00
 1.5331428066e+00	 2.4171173842e-02	 3.6514283932e+00
 1.5325663696e+00	 4.8491585041e-02	 3.6408522466e+00
 1.5315968530e+00	 7.2953348657e-02	 3.6311235858e+00
 1.5302272542e+00	 9.7548252790e-02	 3.6075791208e+00
 1.5284507535e+00	 1.2226776046e-01	 3.5546517961e+00
 1.5444444444e+00	 0.0000000000e+00	 3.7385123005e+00
 1.5442525371e+00	 2.4346327276e-02	 3.7071161700e+00
 1.5436719230e+00	 4.8842973338e-02	 3.6919740562e+00
 1.5426953809e+00	 7.3481996111e-02	 3.6788209788e+00
 1.5413158575e+00	 9.8255124187e-02	 3.6522275878e+00
 1.5395264836e+00	 1.2315375872e-01	 3.5958784435e+00
 1.5555555556e+00	 0.0000000000e+00	 3.8644534968e+00
 1.5553622676e+00	 2.4521480710e-02	 3.8240752595e+00
 1.5547774764e+00	 4.9194361635e-02	 3.8015952944e+00
 1.5537939088e+00	 7.4010643565e-02	 3.7819867968e+00
 1.5524044608e+00	 9.8961995584e-02	 3.7490885187e+00
 1.5506022137e+00	 1.2403975699e-01	 3.6858725972e+00
 1.4952235632e+00	 1.1960976567e-01	 3.7301466637e+00
 1.4930811486e+00	 1.4390512072e-01	 3.6893171768e+00
 1.4905279332e+00	 1.6830472505e-01	 3.6460306816e+00
 1.4875578755e+00	 1.9279929229e-01	 3.5867643252e+00
 1.4841651757e+00	 2.1737923353e-01	 3.4985017360e+00
 1.4803442916e+00	 2.4203466339e-01	 3.3693685705e+00
 1.5062992933e+00	 1.2049576393e-01	 3.6211254694e+00
 1.5041410089e+00	 1.4497108458e-01	 3.5825346111e+00
 1.5015688808e+00	 1.6955142672e-01	 3.5426965125e+00
 1.4985768227e+00	 1.9422743519e-01	 3.4873245722e+00
 1.4951589918e+00	 2.1898945008e-01	 3.4026199556e+00
 1.4913098049e+00	 2.4382751275e-01	 3.2757696248e+00
 1.5173750234e+00	 1.2138176219e-01	 3.5628479179e+00
 1.5152008693e+00	 1.4603704844e-01	 3.5236799537e+00
 1.5126098285e+00	 1.7079812839e-01	 3.4843168601e+00
 1.5095957699e+00	 1.9565557810e-01	 3.4297309926e+00
 1.5061528080e+00	 2.2059966662e-01	 3.3453606648e+00
 1.5022753182e+00	 2.4562036211e-01	 3.2176018920e+00
 1.5284507535e+00	 1.2226776046e-01	 3.5546517961e+00
 1.5262607297e+00	 1.4710301229e-01	 3.5119275965e+00
 1.5236507761e+00	 1.7204483005e-01	 3.4699039508e+00
 1.5206147172e+00	 1.9708372101e-01	 3.4128380214e+00
 1.5171466241e+00	 2.2220988317e-01	 3.3254278584e+00
 1.5132408314e+00	 2.4741321146e-01	 3.1932965738e+00
 1.5395264836e+00	 1.2315375872e-01	 3.5958784435e+00
 1.5373205900e+00	 1.4816897615e-01	 3.5464562491e+00
 1.5346917238e+00	 1.7329153172e-01	 3.4984756369e+00
 1.5316336644e+00	 1.9851186391e-01	 3.4355076797e+00
 1.5281404402e+00	 2.2382009971e-01	 3.3415358338e+00
 1.5242063447e+00	 2.4920606082e-01	 3.2014311978e+00
 1.5506022137e+00	 1.2403975699e-01	 3.6858725972e+00
 1.5483804504e+00	 1.4923494001e-01	 3.6264488065e+00
 1.5457326714e+00	 1.7453823339e-01	 3.5690552994e+00
 1.5426526116e+00	 1.9994000682e-01	 3.4966095263e+00
 1.5391342563e+00	 2.2543031626e-01	 3.3924092054e+00
 1.5351718580e+00	 2.5099891018e-01	 3.2405972582e+00
 1.4803442916e+00	 2.4203466339e-01	 3.3693685705e+00
 1.4760899542e+00	 2.6675540684e-01	 3.3606628810e+00
 1.4713971836e+00	 2.9153100709e-01	 3.3014364976e+00
 1.4662613045e+00	 3.1635073426e-01	 3.1931738360e+00
 1.4606779613e+00	 3.4120359507e-01	 3.0420437210e+00
 1.4546431337e+00	 3.6607834336e-01	 2.8592019897e+00
 1.4913098049e+00	 2.4382751275e-01	 3.2757696248e+00
 1.4870239539e+00	 2.6873137282e-01	 3.2645912625e+00
 1.4822964220e+00	 2.9369049603e-01	 3.2009663131e+00
 1.4771224993e+00	 3.1869407304e-01	 3.0823982660e+00
 1.4714977981e+00	 3.4373102911e-01	 2.9184930249e+00
 1.4654182681e+00	 3.6879003479e-01	 2.7202380051e+00
 1.5022753182e+00	 2.4562036211e-01	 3.2176018920e+00
 1.4979579535e+00	 2.7070733879e-01	 3.2035604494e+00
 1.4931956604e+00	 2.9584998497e-01	 3.1452066048e+00
 1.4879836941e+00	 3.2103741181e-01	 3.0349895067e+00
 1.4823176348e+00	 3.4625846315e-01	 2.8689678483e+00
 1.4761934024e+00	 3.7150172623e-01	 2.6555866174e+00
 1.5132408314e+00	 2.4741321146e-01	 3.1932965738e+00
 1.5088919532e+00	 2.7268330477e-01	 3.1718598025e+00
 1.5040948988e+00	 2.9800947391e-01	 3.1140062922e+00
 1.4988448890e+00	 3.2338075058e-01	 3.0113168617e+00
 1.4931374716e+00	 3.4878589718e-01	 2.8589139166e+00
 1.4869685367e+00	 3.7421341766e-01	 2.6560927061e+00
 1.5242063447e+00	 2.4920606082e-01	 3.2014311978e+00
 1.5198259529e+00	 2.7465927075e-01	 3.1679649630e+00
 1.5149941372e+00	 3.0016896286e-01	 3.1057584153e+00
 1.5097060838e+00	 3.2572408935e-01	 3.0055220021e+00
 1.5039573083e+00	 3.5131333122e-01	 2.8614306067e+00
 1.4977436710e+00	 3.7692510909e-01	 2.6712042221e+00
 1.5351718580e+00	 2.5099891018e-01	 3.2405972582e+00
 1.5307599525e+00	 2.7663523672e-01	 3.1903695360e+00
 1.5258933756e+00	 3.0232845180e-01	 3.1188789137e+00
 1.5205672787e+00	 3.2806742813e-01	 3.0159652982e+00
 1.5147771451e+00	 3.5384076526e-01	 2.8748462012e+00
 1.5085188054e+00	 3.7963680052e-01	 2.6913109039e+00
 1.4546431337e+00	 3.6607834336e-01	 2.8592019897e+00
 1.4481531508e+00	 3.9096349163e-01	 2.7547514994e+00
 1.4412047057e+00	 4.1584732340e-01	 2.6294423880e+00
 1.4337948692e+00	 4.4071790657e-01	 2.5024421708e+00
 1.4259211033e+00	 4.6556310755e-01	 2.3939226443e+00
 1.4175812740e+00	 4.9037060641e-01	 2.3243541963e+00
 1.4654182681e+00	 3.6879003479e-01	 2.7202380051e+00
 1.4588802112e+00	 3.9385951749e-01	 2.6039472757e+00
 1.4518802961e+00	 4.1892767395e-01	 2.4702885050e+00
 1.4444155719e+00	 4.4398248365e-01	 2.3402163616e+00
 1.4364834819e+00	 4.6901172316e-01	 2.2354535564e+00
 1.4280818760e+00	 4.9400298127e-01	 2.1779663660e+00
 1.4761934024e+00	 3.7150172623e-01	 2.6555866174e+00
 1.4696072716e+00	 3.9675554336e-01	 2.5239708379e+00
 1.4625558865e+00	 4.2200802449e-01	 2.3777938660e+00
 1.4550362746e+00	 4.4724706074e-01	 2.2397110331e+00
 1.4470458604e+00	 4.7246033877e-01	 2.1330721000e+00
 1.4385824781e+00	 4.9763535613e-01	 2.0814109691e+00
 1.4869685367e+00	 3.7421341766e-01	 2.6560927061e+00
 1.4803343319e+00	 3.9965156922e-01	 2.5142696937e+00
 1.4732314769e+00	 4.2508837504e-01	 2.3513245127e+00
 1.4656569774e+00	 4.5051163782e-01	 2.2002252917e+00
 1.4576082389e+00	 4.7590895439e-01	 2.0860260899e+00
 1.4490830801e+00	 5.0126773099e-01	 2.0339009064e+00
 1.4977436710e+00	 3.7692510909e-01	 2.6712042221e+00
 1.4910613923e+00	 4.0254759509e-01	 2.5459490696e+00
 1.4839070673e+00	 4.2816872558e-01	 2.3883021413e+00
 1.4762776801e+00	 4.5377621491e-01	 2.2210348420e+00
 1.4681706175e+00	 4.7935757000e-01	 2.0935434367e+00
 1.4595836821e+00	 5.0490010585e-01	 2.0346332990e+00
 1.5085188054e+00	 3.7963680052e-01	 2.6913109039e+00
 1.5017884527e+00	 4.0544362095e-01	 2.5755891836e+00
 1.4945826577e+00	 4.3124907612e-01	 2.4376916112e+00
 1.4868983828e+00	 4.5704079200e-01	 2.2914304016e+00
 1.4787329960e+00	 4.8280618561e-01	 2.1548349272e+00
 1.4700842841e+00	 5.0853248072e-01	 2.0827926655e+00
 1.4175812740e+00	 4.9037060641e-01	 2.3243541963e+00
 1.4087736630e+00	 5.1512791272e-01	 2.0158776841e+00
 1.3994969795e+00	 5.3982238233e-01	 1.7728097218e+00
 1.3897503705e+00	 5.6444123489e-01	 1.6147830704e+00
 1.3795334310e+00	 5.8897157207e-01	 1.5600193379e+00
 1.3688462125e+00	 6.1340039656e-01	 1.6249508700e+00
 1.4280818760e+00	 4.9400298127e-01	 2.1779663660e+00
 1.4192090235e+00	 5.1894367503e-01	 1.8917818726e+00
 1.4098636238e+00	 5.4382106665e-01	 1.6639737613e+00
 1.4000448177e+00	 5.6862228107e-01	 1.5157386050e+00
 1.3897521972e+00	 5.9333432445e-01	 1.4667982712e+00
 1.3789858141e+00	 6.1794410320e-01	 1.5350113471e+00
 1.4385824781e+00	 4.9763535613e-01	 2.0814109691e+00
 1.4296443839e+00	 5.2275943735e-01	 1.8146440465e+00
 1.4202302681e+00	 5.4781975096e-01	 1.5990093589e+00
 1.4103392649e+00	 5.7280332726e-01	 1.4573203276e+00
 1.3999709633e+00	 5.9769707684e-01	 1.4108457932e+00
 1.3891254157e+00	 6.2248780984e-01	 1.4789110267e+00
 1.4490830801e+00	 5.0126773099e-01	 2.0339009064e+00
 1.4400797444e+00	 5.2657519966e-01	 1.7835733466e+00
 1.4305969123e+00	 5.5181843527e-01	 1.5769324506e+00
 1.4206337121e+00	 5.7698437344e-01	 1.4384611660e+00
 1.4101897295e+00	 6.0205982923e-01	 1.3910213057e+00
 1.3992650172e+00	 6.2703151648e-01	 1.4554442161e+00
 1.4595836821e+00	 5.0490010585e-01	 2.0346332990e+00
 1.4505151049e+00	 5.3039096198e-01	 1.7976702993e+00
 1.4409635566e+00	 5.5581711959e-01	 1.5967582173e+00
 1.4309281593e+00	 5.8116541963e-01	 1.4581017742e+00
 1.4204084956e+00	 6.0642258161e-01	 1.4062009574e+00
 1.4094046188e+00	 6.3157522312e-01	 1.4634314348e+00
 1.4700842841e+00	 5.0853248072e-01	 2.0827926655e+00
 1.4609504653e+00	 5.3420672430e-01	 1.8560303210e+00
 1.4513302009e+00	 5.5981580390e-01	 1.6575049278e+00
 1.4412226065e+00	 5.8534646581e-01	 1.5151947230e+00
 1.4306272618e+00	 6.1078533400e-01	 1.4552821889e+00
 1.4195442204e+00	 6.3611892977e-01	 1.5017243218e+00
 1.3688462125e+00	 6.1340039656e-01	 1.6249508700e+00
 1.3576892312e+00	 6.3771463169e-01	 1.1532768648e+00
 1.3460634750e+00	 6.6190114163e-01	 8.0811425889e-01
 1.3339704094e+00	 6.8594675220e-01	 5.9862534077e-01
 1.3214119825e+00	 7.0983827210e-01	 5.3104141113e-01
 1.3083906287e+00	 7.3356251462e-01	 6.0846173761e-01
 1.3789858141e+00	 6.1794410320e-01	 1.5350113471e+00
 1.3677461885e+00	 6.4243844377e-01	 1.0651505297e+00
 1.3560343155e+00	 6.6680411305e-01	 7.2263454336e-01
 1.3438516717e+00	 6.9102783925e-01	 5.1792914823e-01
 1.3312002194e+00	 7.1509633338e-01	 4.5848009361e-01
 1.3180824111e+00	 7.3899631102e-01	 5.4851414703e-01
 1.3891254157e+00	 6.2248780984e-01	 1.4789110267e+00
 1.3778031457e+00	 6.4716225586e-01	 1.0083776503e+00
 1.3660051561e+00	 6.7170708447e-01	 6.6600622323e-01
 1.3537329340e+00	 6.9610892631e-01	 4.6358801861e-01
 1.3409884563e+00	 7.2035439465e-01	 4.0980076928e-01
 1.3277741935e+00	 7.4443010743e-01	 5.0873538134e-01
 1.3992650172e+00	 6.2703151648e-01	 1.4554442161e+00
 1.3878601030e+00	 6.5188606795e-01	 9.8167317851e-01
 1.3759759967e+00	 6.7661005589e-01	 6.3687048151e-01
 1.3636141963e+00	 7.0119001336e-01	 4.3417309357e-01
 1.3507766932e+00	 7.2561245592e-01	 3.8350620493e-01
 1.3374659760e+00	 7.4986390383e-01	 4.8396038846e-01
 1.4094046188e+00	 6.3157522312e-01	 1.4634314348e+00
 1.3979170603e+00	 6.5660988003e-01	 9.8378870276e-01
 1.3859468372e+00	 6.8151302731e-01	 6.3391579059e-01
 1.3734954586e+00	 7.0627110041e-01	 4.2831356921e-01
 1.3605649301e+00	 7.3087051720e-01	 3.7816797558e-01
 1.3471577584e+00	 7.5529770023e-01	 4.7321381704e-01
 1.4195442204e+00	 6.3611892977e-01	 1.5017243218e+00
 1.4079740175e+00	 6.6133369212e-01	 1.0135176972e+00
 1.3959176778e+00	 6.8641599873e-01	 6.5588350715e-01
 1.3833767209e+00	 7.1135218747e-01	 4.4470263615e-01
 1.3703531670e+00	 7.3612857847e-01	 3.9243274778e-01
 1.3568495408e+00	 7.6073149664e-01	 4.7590346052e-01
 1.3083906287e+00	 7.3356251462e-01	 6.0846173761e-01
 1.2949092712e+00	 7.5710631965e-01	 3.5289204241e-01
 1.2809713240e+00	 7.8045657607e-01	 1.2600145788e-01
 1.2665806913e+00	 8.0360024421e-01	-9.6193408437e-02
 1.2517417671e+00	 8.2652437862e-01	-3.3343909250e-01
 1.2364594329e+00	 8.4921615074e-01	-6.0586693369e-01
 1.3180824111e+00	 7.3899631102e-01	 5.4851414703e-01
 1.3045011918e+00	 7.6271451461e-01	 2.9488580990e-01
 1.2904600005e+00	 7.8623773589e-01	 6.8008565993e-02
 1.2759627705e+00	 8.0955283861e-01	-1.5120222651e-01
 1.2610139284e+00	 8.3264678142e-01	-3.8271470527e-01
 1.2456183917e+00	 8.5550664075e-01	-6.4698281946e-01
 1.3277741935e+00	 7.4443010743e-01	 5.0873538134e-01
 1.3140931123e+00	 7.6832270957e-01	 2.5155732998e-01
 1.2999486769e+00	 7.9201889571e-01	 2.3973461852e-02
 1.2853448497e+00	 8.1550543301e-01	-1.9289412776e-01
 1.2702860896e+00	 8.3876918423e-01	-4.1923712246e-01
 1.2547773505e+00	 8.6179713075e-01	-6.7584309647e-01
 1.3374659760e+00	 7.4986390383e-01	 4.8396038846e-01
 1.3236850328e+00	 7.7393090453e-01	 2.2212900392e-01
 1.3094373534e+00	 7.9780005553e-01	-6.8926973508e-03
 1.2947269289e+00	 8.2145802742e-01	-2.2206680555e-01
 1.2795582508e+00	 8.4489158703e-01	-4.4381007609e-01
 1.2639363092e+00	 8.6808762076e-01	-6.9325476316e-01
 1.3471577584e+00	 7.5529770023e-01	 4.7321381704e-01
 1.3332769534e+00	 7.7953909949e-01	 2.0591037453e-01
 1.3189260299e+00	 8.0358121536e-01	-2.5292555283e-02
 1.3041090081e+00	 8.2741062182e-01	-2.3943196433e-01
 1.2888304121e+00	 8.5101398984e-01	-4.5715076412e-01
 1.2730952680e+00	 8.7437811076e-01	-6.9993697414e-01
 1.3568495408e+00	 7.6073149664e-01	 4.7590346052e-01
 1.3428688739e+00	 7.8514729445e-01	 2.0229308206e-01
 1.3284147064e+00	 8.0936237518e-01	-3.1847695855e-02
 1.3134910872e+00	 8.3336321622e-01	-2.4562053439e-01
 1.2981025733e+00	 8.5713639264e-01	-4.5989512019e-01
 1.2822542268e+00	 8.8066860077e-01	-6.9652634418e-01
 1.2364594329e+00	 8.4921615074e-01	-6.0586693369e-01
 1.2207390541e+00	 8.7166287167e-01	-5.2826408253e-01
 1.2045864750e+00	 8.9385201477e-01	-5.6333713793e-01
 1.1880080132e+00	 9.1577123808e-01	-7.2995933958e-01
 1.1710104523e+00	 9.3740840655e-01	-1.0437157274e+00
 1.1536010328e+00	 9.5875161382e-01	-1.5158504274e+00
 1.2456183917e+00	 8.5550664075e-01	-6.4698281946e-01
 1.2297815656e+00	 8.7811963368e-01	-5.7516767096e-01
 1.2135093378e+00	 9.0047314080e-01	-6.1123283682e-01
 1.1968080726e+00	 9.2255472873e-01	-7.7465259668e-01
 1.1796846038e+00	 9.4435217252e-01	-1.0815888737e+00
 1.1621462257e+00	 9.6585347763e-01	-1.5437930872e+00
 1.2547773505e+00	 8.6179713075e-01	-6.7584309647e-01
 1.2388240771e+00	 8.8457639570e-01	-6.1135556643e-01
 1.2224322005e+00	 9.0709426684e-01	-6.4998280554e-01
 1.2056081319e+00	 9.2933821938e-01	-8.1183201831e-01
 1.1883587553e+00	 9.5129593850e-01	-1.1136788031e+00
 1.1706914185e+00	 9.7295534144e-01	-1.5678219727e+00
 1.2639363092e+00	 8.6808762076e-01	-6.9325476316e-01
 1.2478665886e+00	 8.9103315771e-01	-6.3761207823e-01
 1.2313550633e+00	 9.1371539287e-01	-6.8034622813e-01
 1.2144081913e+00	 9.3612171004e-01	-8.4223059728e-01
 1.1970329068e+00	 9.5823970447e-01	-1.1406930014e+00
 1.1792366114e+00	 9.8005720524e-01	-1.5886218358e+00
 1.2730952680e+00	 8.7437811076e-01	-6.9993697414e-01
 1.2569091001e+00	 8.9748991972e-01	-6.5463228357e-01
 1.2402779261e+00	 9.2033651891e-01	-7.0299095838e-01
 1.2232082507e+00	 9.4290520069e-01	-8.6648721979e-01
 1.2057070583e+00	 9.6518347045e-01	-1.1632414381e+00
 1.1877818042e+00	 9.8715906905e-01	-1.6067759257e+00
 1.2822542268e+00	 8.8066860077e-01	-6.9652634418e-01
 1.2659516116e+00	 9.0394668173e-01	-6.6302732064e-01
 1.2492007889e+00	 9.2695764494e-01	-7.1849878027e-01
 1.2320083100e+00	 9.4968869134e-01	-8.8515187155e-01
 1.2143812098e+00	 9.7212723642e-01	-1.1818416967e+00
 1.1963269970e+00	 9.9426093286e-01	-1.6227710235e+00
 1.1536010328e+00	 9.5875161382e-01	-1.5158504274e+00
 1.1357874433e+00	 9.7978920367e-01	-1.3265685450e+00
 1.1175778086e+00	 1.0005097909e+00	-1.2587931991e+00
 1.0989806784e+00	 1.0209022816e+00	-1.3124100179e+00
 1.0800050135e+00	 1.0409558928e+00	-1.4844558630e+00
 1.0606601718e+00	 1.0606601718e+00	-1.7265642262e+00
 1.1621462257e+00	 9.6585347763e-01	-1.5437930872e+00
 1.1442006836e+00	 9.8704690148e-01	-1.3445248492e+00
 1.1258561628e+00	 1.0079209745e+00	-1.2696368835e+00
 1.1071212760e+00	 1.0284645207e+00	-1.3121981506e+00
 1.0880050506e+00	 1.0486666772e+00	-1.4720024184e+00
 1.0685169138e+00	 1.0685169138e+00	-1.7100691618e+00
 1.1706914185e+00	 9.7295534144e-01	-1.5678219727e+00
 1.1526139239e+00	 9.9430459928e-01	-1.3611745118e+00
 1.1341345169e+00	 1.0153321581e+00	-1.2819249679e+00
 1.1152618736e+00	 1.0360267598e+00	-1.3224675148e+00
 1.0960050878e+00	 1.0563774616e+00	-1.4734980165e+00
 1.0763736558e+00	 1.0763736558e+00	-1.7104290008e+00
 1.1792366114e+00	 9.8005720524e-01	-1.5886218358e+00
 1.1610271643e+00	 1.0015622971e+00	-1.3771725877e+00
 1.1424128711e+00	 1.0227433418e+00	-1.2962922608e+00
 1.1234024713e+00	 1.0435889989e+00	-1.3385253728e+00
 1.1040051249e+00	 1.0640882460e+00	-1.4885645674e+00
 1.0842303978e+00	 1.0842303978e+00	-1.7274341281e+00
 1.1877818042e+00	 9.8715906905e-01	-1.6067759257e+00
 1.1694404046e+00	 1.0088199949e+00	-1.3930684835e+00
 1.1506912252e+00	 1.0301545254e+00	-1.3132632997e+00
 1.1315430689e+00	 1.0511512380e+00	-1.3600986864e+00
 1.1120051620e+00	 1.0717990304e+00	-1.5166698328e+00
 1.0920871398e+00	 1.0920871398e+00	-1.7607508857e+00
 1.1963269970e+00	 9.9426093286e-01	-1.6227710235e+00
 1.1778536449e+00	 1.0160776927e+00	-1.4093108642e+00
 1.1589695793e+00	 1.0375657091e+00	-1.3332571132e+00
 1.1396836665e+00	 1.0587134772e+00	-1.3875883041e+00
 1.1200051992e+00	 1.0795098148e+00	-1.5553329282e+00
 1.0999438818e+00	 1.0999438818e+00	-1.8099160902e+00
 1.0606601718e+00	 1.0606601718e+00	-1.7265642262e+00
 1.0409558928e+00	 1.0800050135e+00	-1.9133250466e+00
 1.0209022816e+00	 1.0989806784e+00	-2.0539327467e+00
 1.0005097909e+00	 1.1175778086e+00	-2.0940100585e+00
 9.7978920367e-01	 1.1357874433e+00	-1.9997253133e+00
 9.5875161382e-01	 1.1536010328e+00	-1.7667562449e+00
 1.0685169138e+00	 1.0685169138e+00	-1.7100691618e+00
 1.0486666772e+00	 1.0880050506e+00	-1.8951428993e+00
 1.0284645207e+00	 1.1071212760e+00	-2.0309068273e+00
 1.0079209745e+00	 1.1258561628e+00	-2.0610171482e+00
 9.8704690148e-01	 1.1442006836e+00	-1.9565926551e+00
 9.6585347763e-01	 1.1621462257e+00	-1.7143411532e+00
 1.0763736558e+00	 1.0763736558e+00	-1.7104290008e+00
 1.0563774616e+00	 1.0960050878e+00	-1.8977496526e+00
 1.0360267598e+00	 1.1152618736e+00	-2.0323042232e+00
 1.0153321581e+00	 1.1341345169e+00	-2.0539155099e+00
 9.9430459928e-01	 1.1526139239e+00	-1.9417730671e+00
 9.7295534144e-01	 1.1706914185e+00	-1.6926429475e+00
 1.0842303978e+00	 1.0842303978e+00	-1.7274341281e+00
 1.0640882460e+00	 1.1040051249e+00	-1.9211061551e+00
 1.0435889989e+00	 1.1234024713e+00	-2.0549374628e+00
 1.0227433418e+00	 1.1424128711e+00	-2.0702925498e+00
 1.0015622971e+00	 1.1610271643e+00	-1.9529090932e+00
 9.8005720524e-01	 1.1792366114e+00	-1.6993484646e+00
 1.0920871398e+00	 1.0920871398e+00	-1.7607508857e+00
 1.0717990304e+00	 1.1120051620e+00	-1.9650170340e+00
 1.0511512380e+00	 1.1315430689e+00	-2.0960882464e+00
 1.0301545254e+00	 1.1506912252e+00	-2.1077682974e+00
 1.0088199949e+00	 1.1694404046e+00	-1.9876724459e+00
 9.8715906905e-01	 1.1877818042e+00	-1.7321698059e+00
 1.0999438818e+00	 1.0999438818e+00	-1.8099160902e+00
 1.0795098148e+00	 1.1200051992e+00	-2.0247135667e+00
 1.0587134772e+00	 1.1396836665e+00	-2.1533510378e+00
 1.0375657091e+00	 1.1589695793e+00	-2.1639995859e+00
 1.0160776927e+00	 1.1778536449e+00	-2.0437679397e+00
 9.9426093286e-01	 1.1963269970e+00	-1.7888480147e+00
 9.5875161382e-01	 1.1536010328e+00	-1.7667562449e+00
 9.3740840655e-01	 1.1710104523e+00	-2.0924466178e+00
 9.1577123808e-01	 1.1880080132e+00	-2.2634923082e+00
 8.9385201477e-01	 1.2045864750e+00	-2.2947716054e+00
 8.7166287167e-01	 1.2207390541e+00	-2.2051716770e+00
 8.4921615074e-01	 1.2364594329e+00	-2.0166190486e+00
 9.6585347763e-01	 1.1621462257e+00	-1.7143411532e+00
 9.4435217252e-01	 1.1796846038e+00	-2.0341666829e+00
 9.2255472873e-01	 1.1968080726e+00	-2.2012794981e+00
 9.0047314080e-01	 1.2135093378e+00	-2.2307165921e+00
 8.7811963368e-01	 1.2297815656e+00	-2.1416278648e+00
 8.5550664075e-01	 1.2456183917e+00	-1.9562601226e+00
 9.7295534144e-01	 1.1706914185e+00	-1.6926429475e+00
 9.5129593850e-01	 1.1883587553e+00	-2.0074489236e+00
 9.2933821938e-01	 1.2056081319e+00	-2.1714793371e+00
 9.0709426684e-01	 1.2224322005e+00	-2.1999552629e+00
 8.8457639570e-01	 1.2388240771e+00	-2.1123156250e+00
 8.6179713075e-01	 1.2547773505e+00	-1.9311526546e+00
 9.8005720524e-01	 1.1792366114e+00	-1.6993484646e+00
 9.5823970447e-01	 1.1970329068e+00	-2.0100500356e+00
 9.3612171004e-01	 1.2144081913e+00	-2.1719130891e+00
 9.1371539287e-01	 1.2313550633e+00	-2.2003708390e+00
 8.9103315771e-01	 1.2478665886e+00	-2.1151801588e+00
 8.6808762076e-01	 1.2639363092e+00	-1.9393063633e+00
 9.8715906905e-01	 1.1877818042e+00	-1.7321698059e+00
 9.6518347045e-01	 1.2057070583e+00	-2.0397467632e+00
 9.4290520069e-01	 1.2232082507e+00	-2.2004166170e+00
 9.2033651891e-01	 1.2402779261e+00	-2.2298555717e+00
 8.9748991972e-01	 1.2569091001e+00	-2.1481701204e+00
 8.7437811076e-01	 1.2730952680e+00	-1.9787289426e+00
 9.9426093286e-01	 1.1963269970e+00	-1.7888480147e+00
 9.7212723642e-01	 1.2143812098e+00	-2.0943393485e+00
 9.4968869134e-01	 1.2320083100e+00	-2.2548435998e+00
 9.2695764494e-01	 1.2492007889e+00	-2.2863137236e+00
 9.0394668173e-01	 1.2659516116e+00	-2.2092403616e+00
 8.8066860077e-01	 1.2822542268e+00	-2.0474285714e+00
 8.4921615074e-01	 1.2364594329e+00	-2.0166190486e+00
 8.2652437862e-01	 1.2517417671e+00	-2.1624604132e+00
 8.0360024421e-01	 1.2665806913e+00	-2.2385475425e+00
 7.8045657607e-01	 1.2809713240e+00	-2.2685842751e+00
 7.5710631965e-01	 1.2949092712e+00	-2.2758569867e+00
 7.3356251462e-01	 1.3083906287e+00	-2.2852038556e+00
 8.5550664075e-01	 1.2456183917e+00	-1.9562601226e+00
 8.3264678142e-01	 1.2610139284e+00	-2.0939019569e+00
 8.0955283861e-01	 1.2759627705e+00	-2.1634883897e+00
 7.8623773589e-01	 1.2904600005e+00	-2.1888111247e+00
 7.6271451461e-01	 1.3045011918e+00	-2.1931502871e+00
 7.3899631102e-01	 1.3180824111e+00	-2.1986945930e+00
 8.6179713075e-01	 1.2547773505e+00	-1.9311526546e+00
 8.3876918423e-01	 1.2702860896e+00	-2.0605662841e+00
 8.1550543301e-01	 1.2853448497e+00	-2.1237696545e+00
 7.9201889571e-01	 1.2999486769e+00	-2.1446544202e+00
 7.6832270957e-01	 1.3140931123e+00	-2.1464984698e+00
 7.4443010743e-01	 1.3277741935e+00	-2.1512023398e+00
 8.6808762076e-01	 1.2639363092e+00	-1.9393063633e+00
 8.4489158703e-01	 1.2795582508e+00	-2.0605575520e+00
 8.2145802742e-01	 1.2947269289e+00	-2.1175963261e+00
 7.9780005553e-01	 1.3094373534e+00	-2.1344281116e+00
 7.7393090453e-01	 1.3236850328e+00	-2.1343339497e+00
 7.4986390383e-01	 1.3374659760e+00	-2.1390758799e+00
 8.7437811076e-01	 1.2730952680e+00	-1.9787289426e+00
 8.5101398984e-01	 1.2888304121e+00	-2.0919718968e+00
 8.2741062182e-01	 1.3041090081e+00	-2.1431596913e+00
 8.0358121536e-01	 1.3189260299e+00	-2.1564271676e+00
 7.7953909949e-01	 1.3332769534e+00	-2.1550653645e+00
 7.5529770023e-01	 1.3471577584e+00	-2.1606945679e+00
 8.8066860077e-01	 1.2822542268e+00	-2.0474285714e+00
 8.5713639264e-01	 1.2981025733e+00	-2.1528997369e+00
 8.3336321622e-01	 1.3134910872e+00	-2.1986394347e+00
 8.0936237518e-01	 1.3284147064e+00	-2.2089294787e+00
 7.8514729445e-01	 1.3428688739e+00	-2.2070792869e+00
 7.6073149664e-01	 1.3568495408e+00	-2.2145652488e+00
 7.3356251462e-01	 1.3083906287e+00	-2.2852038556e+00
 7.0983827210e-01	 1.3214119825e+00	-2.0536415088e+00
 6.8594675220e-01	 1.3339704094e+00	-1.9323776362e+00
 6.6190114163e-01	 1.3460634750e+00	-1.9225423372e+00
 6.3771463169e-01	 1.3576892312e+00	-2.0211038079e+00
 6.1340039656e-01	 1.3688462125e+00	-2.2212454034e+00
 7.3899631102e-01	 1.3180824111e+00	-2.1986945930e+00
 7.1509633338e-01	 1.3312002194e+00	-1.9597229787e+00
 6.9102783925e-01	 1.3438516717e+00	-1.8319535879e+00
 6.6680411305e-01	 1.3560343155e+00	-1.8156432782e+00
 6.4243844377e-01	 1.3677461885e+00	-1.9067605686e+00
 6.1794410320e-01	 1.3789858141e+00	-2.0973740862e+00
 7.4443010743e-01	 1.3277741935e+00	-2.1512023398e+00
 7.2035439465e-01	 1.3409884563e+00	-1.9077599437e+00
 6.9610892631e-01	 1.3537329340e+00	-1.7760191230e+00
 6.7170708447e-01	 1.3660051561e+00	-1.7559971125e+00
 6.4716225586e-01	 1.3778031457e+00	-1.8426208599e+00
 6.2248780984e-01	 1.3891254157e+00	-2.0267979570e+00
 7.4986390383e-01	 1.3374659760e+00	-2.1390758799e+00
 7.2561245592e-01	 1.3507766932e+00	-1.8961793365e+00
 7.0119001336e-01	 1.3636141963e+00	-1.7631033008e+00
 6.7661005589e-01	 1.3759759967e+00	-1.7422419418e+00
 6.5188606795e-01	 1.3878601030e+00	-1.8274388667e+00
 6.2703151648e-01	 1.3992650172e+00	-2.0083943158e+00
 7.5529770023e-01	 1.3471577584e+00	-2.1606945679e+00
 7.3087051720e-01	 1.3605649301e+00	-1.9233799395e+00
 7.0627110041e-01	 1.3734954586e+00	-1.7917039674e+00
 6.8151302731e-01	 1.3859468372e+00	-1.7729817224e+00
 6.5660988003e-01	 1.3979170603e+00	-1.8599318771e+00
 6.3157522312e-01	 1.4094046188e+00	-2.0410010409e+00
 7.6073149664e-01	 1.3568495408e+00	-2.2145652488e+00
 7.3612857847e-01	 1.3703531670e+00	-1.9877356169e+00
 7.1135218747e-01	 1.3833767209e+00	-1.8602908042e+00
 6.8641599873e-01	 1.3959176778e+00	-1.8467891277e+00
 6.6133369212e-01	 1.4079740175e+00	-1.9387829563e+00
 6.3611892977e-01	 1.4195442204e+00	-2.1234190745e+00
 6.1340039656e-01	 1.3688462125e+00	-2.2212454034e+00
 5.8897157207e-01	 1.3795334310e+00	-1.9955619530e+00
 5.6444123489e-01	 1.3897503705e+00	-1.8620510017e+00
 5.3982238233e-01	 1.3994969795e+00	-1.8057196118e+00
 5.1512791272e-01	 1.4087736630e+00	-1.8095653679e+00
 4.9037060641e-01	 1.4175812740e+00	-1.8550680726e+00
 6.1794410320e-01	 1.3789858141e+00	-2.0973740862e+00
 5.9333432445e-01	 1.3897521972e+00	-1.8645408783e+00
 5.6862228107e-01	 1.4000448177e+00	-1.7242258146e+00
 5.4382106665e-01	 1.4098636238e+00	-1.6597894972e+00
 5.1894367503e-01	 1.4192090235e+00	-1.6525196613e+00
 4.9400298127e-01	 1.4280818760e+00	-1.6821419101e+00
 6.2248780984e-01	 1.3891254157e+00	-2.0267979570e+00
 5.9769707684e-01	 1.3999709633e+00	-1.7883835675e+00
 5.7280332726e-01	 1.4103392649e+00	-1.6428005699e+00
 5.4781975096e-01	 1.4202302681e+00	-1.5717075556e+00
 5.2275943735e-01	 1.4296443839e+00	-1.5546233536e+00
 4.9763535613e-01	 1.4385824781e+00	-1.5694571779e+00
 6.2703151648e-01	 1.3992650172e+00	-2.0083943158e+00
 6.0205982923e-01	 1.4101897295e+00	-1.7661323869e+00
 5.7698437344e-01	 1.4206337121e+00	-1.6169907415e+00
 5.5181843527e-01	 1.4305969123e+00	-1.5408698658e+00
 5.2657519966e-01	 1.4400797444e+00	-1.5154599098e+00
 5.0126773099e-01	 1.4490830801e+00	-1.5167906225e+00
 6.3157522312e-01	 1.4094046188e+00	-2.0410010409e+00
 6.0642258161e-01	 1.4204084956e+00	-1.7967870167e+00
 5.8116541963e-01	 1.4309281593e+00	-1.6459661197e+00
 5.5581711959e-01	 1.4409635566e+00	-1.5666241268e+00
 5.3039096198e-01	 1.4505151049e+00	-1.5345620540e+00
 5.0490010585e-01	 1.4595836821e+00	-1.5238662483e+00
 6.3611892977e-01	 1.4195442204e+00	-2.1234190745e+00
 6.1078533400e-01	 1.4306272618e+00	-1.8793067852e+00
 5.8534646581e-01	 1.4412226065e+00	-1.7288529956e+00
 5.5981580390e-01	 1.4513302009e+00	-1.6482716989e+00
 5.3420672430e-01	 1.4609504653e+00	-1.6114136701e+00
 5.0853248072e-01	 1.4700842841e+00	-1.5903570853e+00
 4.9037060641e-01	 1.4175812740e+00	-1.8550680726e+00
 4.6556310755e-01	 1.4259211033e+00	-1.7423938558e+00
 4.4071790657e-01	 1.4337948692e+00	-1.6778760836e+00
 4.1584732340e-01	 1.4412047057e+00	-1.6403222712e+00
 3.9096349163e-01	 1.4481531508e+00	-1.6089325422e+00
 3.6607834336e-01	 1.4546431337e+00	-1.5652890638e+00
 4.9400298127e-01	 1.4280818760e+00	-1.6821419101e+00
 4.6901172316e-01	 1.4364834819e+00	-1.5539150623e+00
 4.4398248365e-01	 1.4444155719e+00	-1.4833419794e+00
 4.1892767395e-01	 1.4518802961e+00	-1.4477416533e+00
 3.9385951749e-01	 1.4588802112e+00	-1.4248053906e+00
 3.6879003479e-01	 1.4654182681e+00	-1.3933031130e+00
 4.9763535613e-01	 1.4385824781e+00	-1.5694571779e+00
 4.7246033877e-01	 1.4470458604e+00	-1.4309596855e+00
 4.4724706074e-01	 1.4550362746e+00	-1.3589955694e+00
 4.2200802449e-01	 1.4625558865e+00	-1.3293243151e+00
 3.9675554336e-01	 1.4696072716e+00	-1.3180569616e+00
 3.7150172623e-01	 1.4761934024e+00	-1.3021744020e+00
 5.0126773099e-01	 1.4490830801e+00	-1.5167906225e+00
 4.7590895439e-01	 1.4576082389e+00	-1.3734055467e+00
 4.5051163782e-01	 1.4656569774e+00	-1.3048253783e+00
 4.2508837504e-01	 1.4732314769e+00	-1.2851777806e+00
 3.9965156922e-01	 1.4803343319e+00	-1.2889205814e+00
 3.7421341766e-01	 1.4869685367e+00	-1.2822300464e+00
 5.0490010585e-01	 1.4595836821e+00	-1.5238662483e+00
 4.7935757000e-01	 1.4681706175e+00	-1.3810788999e+00
 4.5377621491e-01	 1.4762776801e+00	-1.3207697617e+00
 4.2816872558e-01	 1.4839070673e+00	-1.3132902144e+00
 4.0254759509e-01	 1.4910613923e+00	-1.3071307602e+00
 3.7692510909e-01	 1.4977436710e+00	-1.2797395523e+00
 5.0853248072e-01	 1.4700842841e+00	-1.5903570853e+00
 4.8280618561e-01	 1.4787329960e+00	-1.4537559708e+00
 4.5704079200e-01	 1.4868983828e+00	-1.3958589668e+00
 4.3124907612e-01	 1.4945826577e+00	-1.3590492813e+00
 4.0544362095e-01	 1.5017884527e+00	-1.3261546881e+00
 3.7963680052e-01	 1.5085188054e+00	-1.2842608837e+00
 3.6607834336e-01	 1.4546431337e+00	-1.5652890638e+00
 3.4120359507e-01	 1.4606779613e+00	-1.4191759806e+00
 3.1635073426e-01	 1.4662613045e+00	-1.3317814572e+00
 2.9153100709e-01	 1.4713971836e+00	-1.2966261040e+00
 2.6675540684e-01	 1.4760899542e+00	-1.3112480365e+00
 2.4203466339e-01	 1.4803442916e+00	-1.3770022662e+00
 3.6879003479e-01	 1.4654182681e+00	-1.3933031130e+00
 3.4373102911e-01	 1.4714977981e+00	-1.2616279514e+00
 3.1869407304e-01	 1.4771224993e+00	-1.1874837749e+00
 2.9369049603e-01	 1.4822964220e+00	-1.1643483497e+00
 2.6873137282e-01	 1.4870239539e+00	-1.1857663304e+00
 2.4382751275e-01	 1.4913098049e+00	-1.2568201139e+00
 3.7150172623e-01	 1.4761934024e+00	-1.3021744020e+00
 3.4625846315e-01	 1.4823176348e+00	-1.1843106728e+00
 3.2103741181e-01	 1.4879836941e+00	-1.1116406537e+00
 2.9584998497e-01	 1.4931956604e+00	-1.0799798228e+00
 2.7070733879e-01	 1.4979579535e+00	-1.0967688600e+00
 2.4562036211e-01	 1.5022753182e+00	-1.1721099809e+00
 3.7421341766e-01	 1.4869685367e+00	-1.2822300464e+00
 3.4878589718e-01	 1.4931374716e+00	-1.1511835728e+00
 3.2338075058e-01	 1.4988448890e+00	-1.0624974469e+00
 2.9800947391e-01	 1.5040948988e+00	-1.0221668322e+00
 2.7268330477e-01	 1.5088919532e+00	-1.0382214323e+00
 2.4741321146e-01	 1.5132408314e+00	-1.1213390157e+00
 3.7692510909e-01	 1.4977436710e+00	-1.2797395523e+00
 3.5131333122e-01	 1.5039573083e+00	-1.1336398376e+00
 3.2572408935e-01	 1.5097060838e+00	-1.0337543915e+00
 3.0016896286e-01	 1.5149941372e+00	-9.8918453156e-01
 2.7465927075e-01	 1.5198259529e+00	-1.0085529272e+00
 2.4920606082e-01	 1.5242063447e+00	-1.1031090717e+00
 3.7963680052e-01	 1.5085188054e+00	-1.2842608837e+00
 3.5384076526e-01	 1.5147771451e+00	-1.1297254256e+00
 3.2806742813e-01	 1.5205672787e+00	-1.0235610649e+00
 3.0232845180e-01	 1.5258933756e+00	-9.7930860950e-01
 2.7663523672e-01	 1.5307599525e+00	-1.0061869295e+00
 2.5099891018e-01	 1.5351718580e+00	-1.1160121605e+00
 2.4203466339e-01	 1.4803442916e+00	-1.3770022662e+00
 2.1737923353e-01	 1.4841651757e+00	-1.2155272073e+00
 1.9279929229e-01	 1.4875578755e+00	-1.1105711827e+00
 1.6830472505e-01	 1.4905279332e+00	-1.0747441154e+00
 1.4390512072e-01	 1.4930811486e+00	-1.1213858073e+00
 1.1960976567e-01	 1.4952235632e+00	-1.2640059075e+00
 2.4382751275e-01	 1.4913098049e+00	-1.2568201139e+00
 2.1898945008e-01	 1.4951589918e+00	-1.0913152148e+00
 1.9422743519e-01	 1.4985768227e+00	-9.8106713635e-01
 1.6955142672e-01	 1.5015688808e+00	-9.3967065862e-01
 1.4497108458e-01	 1.5041410089e+00	-9.8132585185e-01
 1.2049576393e-01	 1.5062992933e+00	-1.1204265660e+00
 2.4562036211e-01	 1.5022753182e+00	-1.1721099809e+00
 2.2059966662e-01	 1.5061528080e+00	-1.0058365785e+00
 1.9565557810e-01	 1.5095957699e+00	-8.9342742325e-01
 1.7079812839e-01	 1.5126098285e+00	-8.4929594442e-01
 1.4603704844e-01	 1.5152008693e+00	-8.8847804706e-01
 1.2138176219e-01	 1.5173750234e+00	-1.0262248400e+00
 2.4741321146e-01	 1.5132408314e+00	-1.1213390157e+00
 2.2220988317e-01	 1.5171466241e+00	-9.5788600191e-01
 1.9708372101e-01	 1.5206147172e+00	-8.4663952179e-01
 1.7204483005e-01	 1.5236507761e+00	-8.0280841819e-01
 1.4710301229e-01	 1.5262607297e+00	-8.4223728786e-01
 1.2226776046e-01	 1.5284507535e+00	-9.8100458430e-01
 2.4920606082e-01	 1.5242063447e+00	-1.1031090717e+00
 2.2382009971e-01	 1.5281404402e+00	-9.4624474638e-01
 1.9851186391e-01	 1.5316336644e+00	-8.3967593669e-01
 1.7329153172e-01	 1.5346917238e+00	-7.9938119758e-01
 1.4816897615e-01	 1.5373205900e+00	-8.4198387910e-01
 1.2315375872e-01	 1.5395264836e+00	-9.8435679741e-01
 2.5099891018e-01	 1.5351718580e+00	-1.1160121605e+00
 2.2543031626e-01	 1.5391342563e+00	-9.6968123877e-01
 1.9994000682e-01	 1.5426526116e+00	-8.7149462328e-01
 1.7453823339e-01	 1.5457326714e+00	-8.3817233858e-01
 1.4923494001e-01	 1.5483804504e+00	-8.8708366726e-01
 1.2403975699e-01	 1.5506022137e+00	-1.0358596415e+00
 1.1960976567e-01	 1.4952235632e+00	-1.2640059075e+00
 9.5427638599e-02	 1.4969614443e+00	-1.1040130354e+00
 7.1367406295e-02	 1.4983012692e+00	-1.0082485361e+00
 4.7437420148e-02	 1.4992497094e+00	-9.8931859507e-01
 2.3645713541e-02	 1.4998136152e+00	-1.0587312782e+00
 0.0000000000e+00	 1.5000000000e+00	-1.2265956396e+00
 1.2049576393e-01	 1.5062992933e+00	-1.1204265660e+00
 9.6134509996e-02	 1.5080500476e+00	-9.5306748645e-01
 7.1896053749e-02	 1.5093997971e+00	-8.5112540460e-01
 4.7788808446e-02	 1.5103552628e+00	-8.2838638854e-01
 2.3820866975e-02	 1.5109233456e+00	-8.9758006988e-01
 0.0000000000e+00	 1.5111111111e+00	-1.0700825175e+00
 1.2138176219e-01	 1.5173750234e+00	-1.0262248400e+00
 9.6841381393e-02	 1.5191386509e+00	-8.5475704889e-01
 7.2424701203e-02	 1.5204983251e+00	-7.4951357952e-01
 4.8140196743e-02	 1.5214608162e+00	-7.2543041947e-01
 2.3996020409e-02	 1.5220330761e+00	-7.9643077313e-01
 0.0000000000e+00	 1.5222222222e+00	-9.7513273758e-01
 1.2226776046e-01	 1.5284507535e+00	-9.8100458430e-01
 9.7548252790e-02	 1.5302272542e+00	-8.0886195095e-01
 7.2953348657e-02	 1.5315968530e+00	-7.0336515845e-01
 4.8491585041e-02	 1.5325663696e+00	-6.8056678390e-01
 2.4171173842e-02	 1.5331428066e+00	-7.5555221029e-01
 0.0000000000e+00	 1.5333333333e+00	-9.4215319367e-01
 1.2315375872e-01	 1.5395264836e+00	-9.8435679741e-01
 9.8255124187e-02	 1.5413158575e+00	-8.1515310880e-01
 7.3481996111e-02	 1.5426953809e+00	-7.1262726697e-01
 4.8842973338e-02	 1.5436719230e+00	-6.9391162432e-01
 2.4346327276e-02	 1.5442525371e+00	-7.7521882536e-01
 0.0000000000e+00	 1.5444444444e+00	-9.7156241003e-01
 1.2403975699e-01	 1.5506022137e+00	-1.0358596415e+00
 9.8961995584e-02	 1.5524044608e+00	-8.7339202336e-01
 7.4010643565e-02	 1.5537939088e+00	-7.7724185181e-01
 4.9194361635e-02	 1.5547774764e+00	-7.6558083716e-01
 2.4521480710e-02	 1.5553622676e+00	-8.5571032265e-01
 0.0000000000e+00	 1.5555555556e+00	-1.0637901257e+00
 1.5555555556e+00	 0.0000000000e+00	 3.8644534968e+00
 1.5553622676e+00	 2.4521480710e-02	 3.8240752595e+00
 1.5547774764e+00	 4.9194361635e-02	 3.8015952944e+00
 1.5537939088e+00	 7.4010643565e-02	 3.7819867968e+00
 1.5524044608e+00	 9.8961995584e-02	 3.7490885187e+00
 1.5506022137e+00	 1.2403975699e-01	 3.6858725972e+00
 1.5666666667e+00	 0.0000000000e+00	 3.7174964676e+00
 1.5664719981e+00	 2.4696634143e-02	 3.6816982312e+00
 1.5658830298e+00	 4.9545749933e-02	 3.6656754902e+00
 1.5648924367e+00	 7.4539291019e-02	 3.6536735019e+00
 1.5634930641e+00	 9.9668866981e-02	 3.6288349800e+00
 1.5616779438e+00	 1.2492575525e-01	 3.5734561797e+00
 1.5777777778e+00	 0.0000000000e+00	 3.6337088878e+00
 1.5775817285e+00	 2.4871787577e-02	 3.5997565135e+00
 1.5769885832e+00	 4.9897138230e-02	 3.5871296921e+00
 1.5759909647e+00	 7.5067938473e-02	 3.5793838473e+00
 1.5745816674e+00	 1.0037573838e-01	 3.5590069954e+00
 1.5727536739e+00	 1.2581175351e-01	 3.5076627860e+00
 1.5888888889e+00	 0.0000000000e+00	 3.6131417520e+00
 1.5886914590e+00	 2.5046941011e-02	 3.5781888933e+00
 1.5880941366e+00	 5.0248526528e-02	 3.5657689281e+00
 1.5870894926e+00	 7.5596585927e-02	 3.5587892317e+00
 1.5856702707e+00	 1.0108260977e-01	 3.5391282642e+00
 1.5838294040e+00	 1.2669775178e-01	 3.4878642115e+00
 1.6000000000e+00	 0.0000000000e+00	 3.6558500315e+00
 1.5998011895e+00	 2.5222094444e-02	 3.6169375526e+00
 1.5991996900e+00	 5.0599914825e-02	 3.6014070493e+00
 1.5981880205e+00	 7.6125233381e-02	 3.5915634345e+00
 1.5967588739e+00	 1.0178948117e-01	 3.5687246778e+00
 1.5949051341e+00	 1.2758375004e-01	 3.5134346324e+00
 1.6111111111e+00	 0.0000000000e+00	 3.7618925374e+00
 1.6109109200e+00	 2.5397247878e-02	 3.7159479293e+00
 1.6103052434e+00	 5.0951303122e-02	 3.6938605919e+00
 1.6092865484e+00	 7.6653880835e-02	 3.6773824853e+00
 1.6078474772e+00	 1.0249635257e-01	 3.6473242031e+00
 1.6059808642e+00	 1.2846974831e-01	 3.5837505112e+00
 1.5506022137e+00	 1.2403975699e-01	 3.6858725972e+00
 1.5483804504e+00	 1.4923494001e-01	 3.6264488065e+00
 1.5457326714e+00	 1.7453823339e-01	 3.5690552994e+00
 1.5426526116e+00	 1.9994000682e-01	 3.4966095263e+00
 1.5391342563e+00	 2.2543031626e-01	 3.3924092054e+00
 1.5351718580e+00	 2.5099891018e-01	 3.2405972582e+00
 1.5616779438e+00	 1.2492575525e-01	 3.5734561797e+00
 1.5594403107e+00	 1.5030090386e-01	 3.5199266713e+00
 1.5567736191e+00	 1.7578493505e-01	 3.4707332907e+00
 1.5536715588e+00	 2.0136814972e-01	 3.4081548645e+00
 1.5501280724e+00	 2.2704053280e-01	 3.3148090513e+00
 1.5461373712e+00	 2.5279175954e-01	 3.1741053370e+00
 1.5727536739e+00	 1.2581175351e-01	 3.5076627860e+00
 1.5705001711e+00	 1.5136686772e-01	 3.4560477653e+00
 1.5678145667e+00	 1.7703163672e-01	 3.4109022078e+00
 1.5646905061e+00	 2.0279629263e-01	 3.3539058652e+00
 1.5611218885e+00	 2.2865074935e-01	 3.2670319513e+00
 1.5571028845e+00	 2.5458460890e-01	 3.1329866591e+00
 1.5838294040e+00	 1.2669775178e-01	 3.4878642115e+00
 1.5815600315e+00	 1.5243283158e-01	 3.4340319946e+00
 1.5788555144e+00	 1.7827833839e-01	 3.3886346921e+00
 1.5757094533e+00	 2.0422443553e-01	 3.3327962323e+00
 1.5721157047e+00	 2.3026096589e-01	 3.2478845093e+00
 1.5680683978e+00	 2.5637745826e-01	 3.1159358117e+00
 1.5949051341e+00	 1.2758375004e-01	 3.5134346324e+00
 1.5926198918e+00	 1.5349879544e-01	 3.4531023245e+00
 1.5898964620e+00	 1.7952504006e-01	 3.4030077107e+00
 1.5867284005e+00	 2.0565257844e-01	 3.3437659685e+00
 1.5831095208e+00	 2.3187118244e-01	 3.2561824161e+00
 1.5790339111e+00	 2.5817030761e-01	 3.1216601776e+00
 1.6059808642e+00	 1.2846974831e-01	 3.5837505112e+00
 1.6036797522e+00	 1.5456475929e-01	 3.5124847185e+00
 1.6009374097e+00	 1.8077174172e-01	 3.4531025431e+00
 1.5977473477e+00	 2.0708072135e-01	 3.3857614210e+00
 1.5941033369e+00	 2.3348139898e-01	 3.2907505719e+00
 1.5899994243e+00	 2.5996315697e-01	 3.1488801499e+00
 1.5351718580e+00	 2.5099891018e-01	 3.2405972582e+00
 1.5307599525e+00	 2.7663523672e-01	 3.1903695360e+00
 1.5258933756e+00	 3.0232845180e-01	 3.1188789137e+00
 1.5205672787e+00	 3.2806742813e-01	 3.0159652982e+00
 1.5147771451e+00	 3.5384076526e-01	 2.8748462012e+00
 1.5085188054e+00	 3.7963680052e-01	 2.6913109039e+00
 1.5461373712e+00	 2.5279175954e-01	 3.1741053370e+00
 1.5416939522e+00	 2.7861120270e-01	 3.1281165019e+00
 1.5367926140e+00	 3.0448794074e-01	 3.0633521922e+00
 1.5314284735e+00	 3.3041076690e-01	 2.9688172232e+00
 1.5255969818e+00	 3.5636819930e-01	 2.8368118582e+00
 1.5192939397e+00	 3.8234849196e-01	 2.6609021863e+00
 1.5571028845e+00	 2.5458460890e-01	 3.1329866591e+00
 1.5526279518e+00	 2.8058716868e-01	 3.0872242949e+00
 1.5476918524e+00	 3.0664742968e-01	 3.0250919701e+00
 1.5422896684e+00	 3.3275410567e-01	 2.9347630586e+00
 1.5364168186e+00	 3.5889563333e-01	 2.8076133941e+00
 1.5300690740e+00	 3.8506018339e-01	 2.6346487411e+00
 1.5680683978e+00	 2.5637745826e-01	 3.1159358117e+00
 1.5635619515e+00	 2.8256313465e-01	 3.0662833857e+00
 1.5585910908e+00	 3.0880691862e-01	 3.0026062242e+00
 1.5531508632e+00	 3.3509744444e-01	 2.9122519977e+00
 1.5472366553e+00	 3.6142306737e-01	 2.7856664932e+00
 1.5408442083e+00	 3.8777187482e-01	 2.6109955377e+00
 1.5790339111e+00	 2.5817030761e-01	 3.1216601776e+00
 1.5744959512e+00	 2.8453910063e-01	 3.0639020440e+00
 1.5694903292e+00	 3.1096640756e-01	 2.9944268043e+00
 1.5640120581e+00	 3.3744078321e-01	 2.8997643223e+00
 1.5580564921e+00	 3.6395050141e-01	 2.7694263454e+00
 1.5516193427e+00	 3.9048356625e-01	 2.5884524434e+00
 1.5899994243e+00	 2.5996315697e-01	 3.1488801499e+00
 1.5854299508e+00	 2.8651506661e-01	 3.0787066563e+00
 1.5803895676e+00	 3.1312589650e-01	 2.9991098723e+00
 1.5748732529e+00	 3.3978412199e-01	 2.8958119859e+00
 1.5688763288e+00	 3.6647793545e-01	 2.7573883952e+00
 1.5623944770e+00	 3.9319525769e-01	 2.5655929213e+00
 1.5085188054e+00	 3.7963680052e-01	 2.6913109039e+00
 1.5017884527e+00	 4.0544362095e-01	 2.5755891836e+00
 1.4945826577e+00	 4.3124907612e-01	 2.4376916112e+00
 1.4868983828e+00	 4.5704079200e-01	 2.2914304016e+00
 1.4787329960e+00	 4.8280618561e-01	 2.1548349272e+00
 1.4700842841e+00	 5.0853248072e-01	 2.0827926655e+00
 1.5192939397e+00	 3.8234849196e-01	 2.6609021863e+00
 1.5125155131e+00	 4.0833964681e-01	 2.5478986188e+00
 1.5052582481e+00	 4.3432942667e-01	 2.4140657778e+00
 1.4975190856e+00	 4.6030536908e-01	 2.2735961487e+00
 1.4892953746e+00	 4.8625480122e-01	 2.1422177281e+00
 1.4805848862e+00	 5.1216485558e-01	 2.0374256252e+00
 1.5300690740e+00	 3.8506018339e-01	 2.6346487411e+00
 1.5232425734e+00	 4.1123567268e-01	 2.5195621600e+00
 1.5159338385e+00	 4.3740977721e-01	 2.3853313151e+00
 1.5081397883e+00	 4.6356994617e-01	 2.2464922168e+00
 1.4998577531e+00	 4.8970341683e-01	 2.1190653810e+00
 1.4910854882e+00	 5.1579723044e-01	 2.0205099524e+00
 1.5408442083e+00	 3.8777187482e-01	 2.6109955377e+00
 1.5339696338e+00	 4.1413169854e-01	 2.4891588119e+00
 1.5266094290e+00	 4.4049012775e-01	 2.3502124895e+00
 1.5187604910e+00	 4.6683452325e-01	 2.2089977552e+00
 1.5104201317e+00	 4.9315203244e-01	 2.0817899376e+00
 1.5015860902e+00	 5.1942960530e-01	 1.9862590147e+00
 1.5516193427e+00	 3.9048356625e-01	 2.5884524434e+00
 1.5446966942e+00	 4.1702772441e-01	 2.4553345339e+00
 1.5372850194e+00	 4.4357047830e-01	 2.3075020755e+00
 1.5293811938e+00	 4.7009910034e-01	 2.1600614569e+00
 1.5209825102e+00	 4.9660064805e-01	 2.0295036749e+00
 1.5120866923e+00	 5.2306198017e-01	 1.9336717422e+00
 1.5623944770e+00	 3.9319525769e-01	 2.5655929213e+00
 1.5554237546e+00	 4.1992375027e-01	 2.4168007784e+00
 1.5479606098e+00	 4.4665082884e-01	 2.2560597236e+00
 1.5400018965e+00	 4.7336367742e-01	 2.0986997466e+00
 1.5315448887e+00	 5.0004926367e-01	 1.9613869233e+00
 1.5225872943e+00	 5.2669435503e-01	 1.8620982645e+00
 1.4700842841e+00	 5.0853248072e-01	 2.0827926655e+00
 1.4609504653e+00	 5.3420672430e-01	 1.8560303210e+00
 1.4513302009e+00	 5.5981580390e-01	 1.6575049278e+00
 1.4412226065e+00	 5.8534646581e-01	 1.5151947230e+00
 1.4306272618e+00	 6.1078533400e-01	 1.4552821889e+00
 1.4195442204e+00	 6.3611892977e-01	 1.5017243218e+00
 1.4805848862e+00	 5.1216485558e-01	 2.0374256252e+00
 1.4713858258e+00	 5.3802248661e-01	 1.7834370068e+00
 1.4616968452e+00	 5.6381448821e-01	 1.5653884840e+00
 1.4515170537e+00	 5.8952751200e-01	 1.4126840593e+00
 1.4408460280e+00	 6.1514808638e-01	 1.3527794645e+00
 1.4296838220e+00	 6.4066263641e-01	 1.4107425856e+00
 1.4910854882e+00	 5.1579723044e-01	 2.0205099524e+00
 1.4818211863e+00	 5.4183824893e-01	 1.7642087989e+00
 1.4720634895e+00	 5.6781317253e-01	 1.5187854716e+00
 1.4618115008e+00	 5.9370855818e-01	 1.3474650044e+00
 1.4510647941e+00	 6.1951083877e-01	 1.2790634784e+00
 1.4398234235e+00	 6.4520634305e-01	 1.3397985495e+00
 1.5015860902e+00	 5.1942960530e-01	 1.9862590147e+00
 1.4922565467e+00	 5.4565401125e-01	 1.7565352437e+00
 1.4824301338e+00	 5.7181185684e-01	 1.5162959428e+00
 1.4721059480e+00	 5.9788960436e-01	 1.3185115063e+00
 1.4612835603e+00	 6.2387359115e-01	 1.2331855433e+00
 1.4499630251e+00	 6.4975004969e-01	 1.2880362054e+00
 1.5120866923e+00	 5.2306198017e-01	 1.9336717422e+00
 1.5026919072e+00	 5.4946977356e-01	 1.7239344263e+00
 1.4927967781e+00	 5.7581054115e-01	 1.5133717369e+00
 1.4824003952e+00	 6.0207065055e-01	 1.3245396264e+00
 1.4715023264e+00	 6.2823634354e-01	 1.2142346624e+00
 1.4601026267e+00	 6.5429375633e-01	 1.2546455380e+00
 1.5225872943e+00	 5.2669435503e-01	 1.8620982645e+00
 1.5131272677e+00	 5.5328553588e-01	 1.6660030030e+00
 1.5031634224e+00	 5.7980922547e-01	 1.4788475423e+00
 1.4926948424e+00	 6.0625169673e-01	 1.3228345295e+00
 1.4817210926e+00	 6.3259909593e-01	 1.2213231859e+00
 1.4702422283e+00	 6.5883746297e-01	 1.2388675737e+00
 1.4195442204e+00	 6.3611892977e-01	 1.5017243218e+00
 1.4079740175e+00	 6.6133369212e-01	 1.0135176972e+00
 1.3959176778e+00	 6.8641599873e-01	 6.5588350715e-01
 1.3833767209e+00	 7.1135218747e-01	 4.4470263615e-01
 1.3703531670e+00	 7.3612857847e-01	 3.9243274778e-01
 1.3568495408e+00	 7.6073149664e-01	 4.7590346052e-01
 1.4296838220e+00	 6.4066263641e-01	 1.4107425856e+00
 1.4180309748e+00	 6.6605750421e-01	 9.4416429971e-01
 1.4058885183e+00	 6.9131897015e-01	 6.0203722562e-01
 1.3932579831e+00	 7.1643327452e-01	 4.0182308547e-01
 1.3801414039e+00	 7.4138663975e-01	 3.5744123777e-01
 1.3665413233e+00	 7.6616529304e-01	 4.3037933367e-01
 1.4398234235e+00	 6.4520634305e-01	 1.3397985495e+00
 1.4280879321e+00	 6.7078131629e-01	 8.9388946108e-01
 1.4158593589e+00	 6.9622194157e-01	 5.6642557430e-01
 1.4031392454e+00	 7.2151436157e-01	 3.7645913149e-01
 1.3899296408e+00	 7.4664470102e-01	 3.3717129556e-01
 1.3762331057e+00	 7.7159908945e-01	 3.9932615841e-01
 1.4499630251e+00	 6.4975004969e-01	 1.2880362054e+00
 1.4381448894e+00	 6.7550512838e-01	 8.6177528371e-01
 1.4258301994e+00	 7.0112491298e-01	 5.4807339540e-01
 1.4130205077e+00	 7.2659544863e-01	 3.6758055815e-01
 1.3997178777e+00	 7.5190276230e-01	 3.2970853830e-01
 1.3859248881e+00	 7.7703288585e-01	 3.8233200178e-01
 1.4601026267e+00	 6.5429375633e-01	 1.2546455380e+00
 1.4482018466e+00	 6.8022894047e-01	 8.4696306762e-01
 1.4358010400e+00	 7.0602788440e-01	 5.4607823262e-01
 1.4229017700e+00	 7.3167653568e-01	 3.7424352467e-01
 1.4095061147e+00	 7.5716082357e-01	 3.3478105051e-01
 1.3956166706e+00	 7.8246668226e-01	 3.7905021528e-01
 1.4702422283e+00	 6.5883746297e-01	 1.2388675737e+00
 1.4582588039e+00	 6.8495275255e-01	 8.4865866982e-01
 1.4457718805e+00	 7.1093085582e-01	 5.5961600081e-01
 1.4327830323e+00	 7.3675762273e-01	 3.9559654350e-01
 1.4192943516e+00	 7.6241888485e-01	 3.5217902675e-01
 1.4053084530e+00	 7.8790047866e-01	 3.8919446332e-01
 1.3568495408e+00	 7.6073149664e-01	 4.7590346052e-01
 1.3428688739e+00	 7.8514729445e-01	 2.0229308206e-01
 1.3284147064e+00	 8.0936237518e-01	-3.1847695855e-02
 1.3134910872e+00	 8.3336321622e-01	-2.4562053439e-01
 1.2981025733e+00	 8.5713639264e-01	-4.5989512019e-01
 1.2822542268e+00	 8.8066860077e-01	-6.9652634418e-01
 1.3665413233e+00	 7.6616529304e-01	 4.3037933367e-01
 1.3524607944e+00	 7.9075548941e-01	 1.5194812339e-01
 1.3379033828e+00	 8.1514353500e-01	-8.2321558149e-02
 1.3228731664e+00	 8.3931581062e-01	-2.9173255031e-01
 1.3073747345e+00	 8.6325879545e-01	-4.9753437898e-01
 1.2914131855e+00	 8.8695909077e-01	-7.2211762666e-01
 1.3762331057e+00	 7.7159908945e-01	 3.9932615841e-01
 1.3620527149e+00	 7.9636368437e-01	 1.1412523614e-01
 1.3473920593e+00	 8.2092469482e-01	-1.2215493212e-01
 1.3322552456e+00	 8.4526840502e-01	-3.2900461463e-01
 1.3166468958e+00	 8.6938119825e-01	-5.2805123734e-01
 1.3005721443e+00	 8.9324958078e-01	-7.4223059098e-01
 1.3859248881e+00	 7.7703288585e-01	 3.8233200178e-01
 1.3716446355e+00	 8.0197187934e-01	 8.8412972249e-02
 1.3568807358e+00	 8.2670585465e-01	-1.5175319357e-01
 1.3416373248e+00	 8.5122099942e-01	-3.5782940952e-01
 1.3259190570e+00	 8.7550360106e-01	-5.5181855552e-01
 1.3097311030e+00	 8.9954007079e-01	-7.5721117109e-01
 1.3956166706e+00	 7.8246668226e-01	 3.7905021528e-01
 1.3812365560e+00	 8.0758007430e-01	 7.4462338838e-02
 1.3663694123e+00	 8.3248701447e-01	-1.7146131191e-01
 1.3510194040e+00	 8.5717359382e-01	-3.7854043777e-01
 1.3351912183e+00	 8.8162600386e-01	-5.6915039315e-01
 1.3188900618e+00	 9.0583056079e-01	-7.6734601899e-01
 1.4053084530e+00	 7.8790047866e-01	 3.8919446332e-01
 1.3908284765e+00	 8.1318826926e-01	 7.1981737400e-02
 1.3758580887e+00	 8.3826817429e-01	-1.8156898043e-01
 1.3604014832e+00	 8.6312618823e-01	-3.9141720227e-01
 1.3444633795e+00	 8.8774840666e-01	-5.8030721684e-01
 1.3280490206e+00	 9.1212105080e-01	-7.7286771938e-01
 1.2822542268e+00	 8.8066860077e-01	-6.9652634418e-01
 1.2659516116e+00	 9.0394668173e-01	-6.6302732064e-01
 1.2492007889e+00	 9.2695764494e-01	-7.1849878027e-01
 1.2320083100e+00	 9.4968869134e-01	-8.8515187155e-01
 1.2143812098e+00	 9.7212723642e-01	-1.1818416967e+00
 1.1963269970e+00	 9.9426093286e-01	-1.6227710235e+00
 1.2914131855e+00	 8.8695909077e-01	-7.2211762666e-01
 1.2749941231e+00	 9.1040344375e-01	-6.9413179110e-01
 1.2581236516e+00	 9.3357877098e-01	-7.5091874518e-01
 1.2408083694e+00	 9.5647218199e-01	-9.1526383075e-01
 1.2230553613e+00	 9.7907100240e-01	-1.2065982006e+00
 1.2048721899e+00	 1.0013627967e+00	-1.6396493511e+00
 1.3005721443e+00	 8.9324958078e-01	-7.4223059098e-01
 1.2840366347e+00	 9.1686020576e-01	-7.1974142408e-01
 1.2670465144e+00	 9.4019989701e-01	-7.7783012203e-01
 1.2496084287e+00	 9.6325567265e-01	-9.3989741419e-01
 1.2317295128e+00	 9.8601476837e-01	-1.2259986635e+00
 1.2134173827e+00	 1.0084646605e+00	-1.6514394004e+00
 1.3097311030e+00	 8.9954007079e-01	-7.5721117109e-01
 1.2930791462e+00	 9.2331696777e-01	-7.4020239379e-01
 1.2759693772e+00	 9.4682102305e-01	-7.9957328473e-01
 1.2584084881e+00	 9.7003916330e-01	-9.5938264104e-01
 1.2404036643e+00	 9.9295853434e-01	-1.2403601287e+00
 1.2219625755e+00	 1.0155665243e+00	-1.6584449523e+00
 1.3188900618e+00	 9.0583056079e-01	-7.6734601899e-01
 1.3021216577e+00	 9.2977372978e-01	-7.5579931762e-01
 1.2848922400e+00	 9.5344214908e-01	-8.1642395196e-01
 1.2672085474e+00	 9.7682265395e-01	-9.7398098751e-01
 1.2490778158e+00	 9.9990230032e-01	-1.2499264675e+00
 1.2305077684e+00	 1.0226683881e+00	-1.6608913087e+00
 1.3280490206e+00	 9.1212105080e-01	-7.7286771938e-01
 1.3111641692e+00	 9.3623049180e-01	-7.6676048888e-01
 1.2938151028e+00	 9.6006327512e-01	-8.2859841627e-01
 1.2760086068e+00	 9.8360614460e-01	-9.8389059103e-01
 1.2577519673e+00	 1.0068460663e+00	-1.2548735383e+00
 1.2390529612e+00	 1.0297702519e+00	-1.6589303837e+00
 1.1963269970e+00	 9.9426093286e-01	-1.6227710235e+00
 1.1778536449e+00	 1.0160776927e+00	-1.4093108642e+00
 1.1589695793e+00	 1.0375657091e+00	-1.3332571132e+00
 1.1396836665e+00	 1.0587134772e+00	-1.3875883041e+00
 1.1200051992e+00	 1.0795098148e+00	-1.5553329282e+00
 1.0999438818e+00	 1.0999438818e+00	-1.8099160902e+00
 1.2048721899e+00	 1.0013627967e+00	-1.6396493511e+00
 1.1862668852e+00	 1.0233353905e+00	-1.4213413997e+00
 1.1672479335e+00	 1.0449768927e+00	-1.3410144975e+00
 1.1478242641e+00	 1.0662757163e+00	-1.3920793460e+00
 1.1280052363e+00	 1.0872205992e+00	-1.5576948896e+00
 1.1078006239e+00	 1.1078006239e+00	-1.8095760367e+00
 1.2134173827e+00	 1.0084646605e+00	-1.6514394004e+00
 1.1946801255e+00	 1.0305930883e+00	-1.4316424448e+00
 1.1755262876e+00	 1.0523880763e+00	-1.3506299343e+00
 1.1559648617e+00	 1.0738379554e+00	-1.4022959659e+00
 1.1360052734e+00	 1.0949313836e+00	-1.5699770847e+00
 1.1156573659e+00	 1.1156573659e+00	-1.8234251798e+00
 1.2219625755e+00	 1.0155665243e+00	-1.6584449523e+00
 1.2030933659e+00	 1.0378507861e+00	-1.4404463033e+00
 1.1838046417e+00	 1.0597992600e+00	-1.3622702541e+00
 1.1641054593e+00	 1.0814001945e+00	-1.4183488051e+00
 1.1440053106e+00	 1.1026421680e+00	-1.5922466736e+00
 1.1235141079e+00	 1.1235141079e+00	-1.8422946605e+00
 1.2305077684e+00	 1.0226683881e+00	-1.6608913087e+00
 1.2115066062e+00	 1.0451084839e+00	-1.4479025707e+00
 1.1920829959e+00	 1.0672104436e+00	-1.3760148125e+00
 1.1722460570e+00	 1.0889624337e+00	-1.4402558201e+00
 1.1520053477e+00	 1.1103529524e+00	-1.6244725787e+00
 1.1313708499e+00	 1.1313708499e+00	-1.8638423403e+00
 1.2390529612e+00	 1.0297702519e+00	-1.6589303837e+00
 1.2199198465e+00	 1.0523661817e+00	-1.4540830822e+00
 1.2003613500e+00	 1.0746216272e+00	-1.3918602768e+00
 1.1803866546e+00	 1.0965246728e+00	-1.4679468898e+00
 1.1600053849e+00	 1.1180637368e+00	-1.6618481549e+00
 1.1392275919e+00	 1.1392275919e+00	-1.8867684815e+00
 1.0999438818e+00	 1.0999438818e+00	-1.8099160902e+00
 1.0795098148e+00	 1.1200051992e+00	-2.0247135667e+00
 1.0587134772e+00	 1.1396836665e+00	-2.1533510378e+00
 1.0375657091e+00	 1.1589695793e+00	-2.1639995859e+00
 1.0160776927e+00	 1.1778536449e+00	-2.0437679397e+00
 9.9426093286e-01	 1.1963269970e+00	-1.7888480147e+00
 1.1078006239e+00	 1.1078006239e+00	-1.8095760367e+00
 1.0872205992e+00	 1.1280052363e+00	-2.0119835434e+00
 1.0662757163e+00	 1.1478242641e+00	-2.1264586768e+00
 1.0449768927e+00	 1.1672479335e+00	-2.1284401372e+00
 1.0233353905e+00	 1.1862668852e+00	-2.0045976615e+00
 1.0013627967e+00	 1.2048721899e+00	-1.7510111593e+00
 1.1156573659e+00	 1.1156573659e+00	-1.8234251798e+00
 1.0949313836e+00	 1.1360052734e+00	-2.0098472509e+00
 1.0738379554e+00	 1.1559648617e+00	-2.1134985010e+00
 1.0523880763e+00	 1.1755262876e+00	-2.1099870565e+00
 1.0305930883e+00	 1.1946801255e+00	-1.9855530905e+00
 1.0084646605e+00	 1.2134173827e+00	-1.7361847292e+00
 1.1235141079e+00	 1.1235141079e+00	-1.8422946605e+00
 1.1026421680e+00	 1.1440053106e+00	-2.0159326978e+00
 1.0814001945e+00	 1.1641054593e+00	-2.1121589954e+00
 1.0597992600e+00	 1.1838046417e+00	-2.1063716494e+00
 1.0378507861e+00	 1.2030933659e+00	-1.9843934043e+00
 1.0155665243e+00	 1.2219625755e+00	-1.7421438089e+00
 1.1313708499e+00	 1.1313708499e+00	-1.8638423403e+00
 1.1103529524e+00	 1.1520053477e+00	-2.0279300469e+00
 1.0889624337e+00	 1.1722460570e+00	-2.1201877223e+00
 1.0672104436e+00	 1.1920829959e+00	-2.1153804695e+00
 1.0451084839e+00	 1.2115066062e+00	-1.9989285555e+00
 1.0226683881e+00	 1.2305077684e+00	-1.7667092604e+00
 1.1392275919e+00	 1.1392275919e+00	-1.8867684815e+00
 1.1180637368e+00	 1.1600053849e+00	-2.0439474177e+00
 1.0965246728e+00	 1.1803866546e+00	-2.1353956957e+00
 1.0746216272e+00	 1.2003613500e+00	-2.1348594512e+00
 1.0523661817e+00	 1.2199198465e+00	-2.0270231566e+00
 1.0297702519e+00	 1.2390529612e+00	-1.8077513506e+00
 9.9426093286e-01	 1.1963269970e+00	-1.7888480147e+00
 9.7212723642e-01	 1.2143812098e+00	-2.0943393485e+00
 9.4968869134e-01	 1.2320083100e+00	-2.2548435998e+00
 9.2695764494e-01	 1.2492007889e+00	-2.2863137236e+00
 9.0394668173e-01	 1.2659516116e+00	-2.2092403616e+00
 8.8066860077e-01	 1.2822542268e+00	-2.0474285714e+00
 1.0013627967e+00	 1.2048721899e+00	-1.7510111593e+00
 9.7907100240e-01	 1.2230553613e+00	-2.0544035330e+00
 9.5647218199e-01	 1.2408083694e+00	-2.2135710398e+00
 9.3357877098e-01	 1.2581236516e+00	-2.2445554256e+00
 9.1040344375e-01	 1.2749941231e+00	-2.1680500896e+00
 8.8695909077e-01	 1.2914131855e+00	-2.0081199719e+00
 1.0084646605e+00	 1.2134173827e+00	-1.7361847292e+00
 9.8601476837e-01	 1.2317295128e+00	-2.0369993138e+00
 9.6325567265e-01	 1.2496084287e+00	-2.1943472014e+00
 9.4019989701e-01	 1.2670465144e+00	-2.2244012172e+00
 9.1686020576e-01	 1.2840366347e+00	-2.1481004097e+00
 8.9324958078e-01	 1.3005721443e+00	-1.9898106510e+00
 1.0155665243e+00	 1.2219625755e+00	-1.7421438089e+00
 9.9295853434e-01	 1.2404036643e+00	-2.0399772367e+00
 9.7003916330e-01	 1.2584084881e+00	-2.1950911776e+00
 9.4682102305e-01	 1.2759693772e+00	-2.2238350417e+00
 9.2331696777e-01	 1.2930791462e+00	-2.1474395804e+00
 8.9954007079e-01	 1.3097311030e+00	-1.9906156731e+00
 1.0226683881e+00	 1.2305077684e+00	-1.7667092604e+00
 9.9990230032e-01	 1.2490778158e+00	-2.0612263229e+00
 9.7682265395e-01	 1.2672085474e+00	-2.2137529909e+00
 9.5344214908e-01	 1.2848922400e+00	-2.2408641061e+00
 9.2977372978e-01	 1.3021216577e+00	-2.1641314604e+00
 9.0583056079e-01	 1.3188900618e+00	-2.0086581591e+00
 1.0297702519e+00	 1.2390529612e+00	-1.8077513506e+00
 1.0068460663e+00	 1.2577519673e+00	-2.0986775009e+00
 9.8360614460e-01	 1.2760086068e+00	-2.2483168239e+00
 9.6006327512e-01	 1.2938151028e+00	-2.2735219074e+00
 9.3623049180e-01	 1.3111641692e+00	-2.1962583290e+00
 9.1212105080e-01	 1.3280490206e+00	-2.0420719013e+00
 8.8066860077e-01	 1.2822542268e+00	-2.0474285714e+00
 8.5713639264e-01	 1.2981025733e+00	-2.1528997369e+00
 8.3336321622e-01	 1.3134910872e+00	-2.1986394347e+00
 8.0936237518e-01	 1.3284147064e+00	-2.2089294787e+00
 7.8514729445e-01	 1.3428688739e+00	-2.2070792869e+00
 7.6073149664e-01	 1.3568495408e+00	-2.2145652488e+00
 8.8695909077e-01	 1.2914131855e+00	-2.0081199719e+00
 8.6325879545e-01	 1.3073747345e+00	-2.0999634161e+00
 8.3931581062e-01	 1.3228731664e+00	-2.1345449986e+00
 8.1514353500e-01	 1.3379033828e+00	-2.1366346945e+00
 7.9075548941e-01	 1.3524607944e+00	-2.1298873448e+00
 7.6616529304e-01	 1.3665413233e+00	-2.1359459619e+00
 8.9324958078e-01	 1.3005721443e+00	-1.9898106510e+00
 8.6938119825e-01	 1.3166468958e+00	-2.0706661710e+00
 8.4526840502e-01	 1.3322552456e+00	-2.0969065715e+00
 8.2092469482e-01	 1.3473920593e+00	-2.0938083109e+00
 7.9636368437e-01	 1.3620527149e+00	-2.0853800637e+00
 7.7159908945e-01	 1.3762331057e+00	-2.0934285279e+00
 8.9954007079e-01	 1.3097311030e+00	-1.9906156731e+00
 8.7550360106e-01	 1.3259190570e+00	-2.0631380690e+00
 8.5122099942e-01	 1.3416373248e+00	-2.0838773175e+00
 8.2670585465e-01	 1.3568807358e+00	-2.0786369465e+00
 8.0197187934e-01	 1.3716446355e+00	-2.0717897302e+00
 7.7703288585e-01	 1.3859248881e+00	-2.0853045154e+00
 9.0583056079e-01	 1.3188900618e+00	-2.0086581591e+00
 8.8162600386e-01	 1.3351912183e+00	-2.0755115092e+00
 8.5717359382e-01	 1.3510194040e+00	-2.0936073384e+00
 8.3248701447e-01	 1.3663694123e+00	-2.0892991883e+00
 8.0758007430e-01	 1.3812365560e+00	-2.0873361400e+00
 7.8246668226e-01	 1.3956166706e+00	-2.1098491258e+00
 9.1212105080e-01	 1.3280490206e+00	-2.0420719013e+00
 8.8774840666e-01	 1.3444633795e+00	-2.1059235797e+00
 8.6312618823e-01	 1.3604014832e+00	-2.1242457773e+00
 8.3826817429e-01	 1.3758580887e+00	-2.1239674474e+00
 8.1318826926e-01	 1.3908284765e+00	-2.1302282125e+00
 7.8790047866e-01	 1.4053084530e+00	-2.1653225746e+00
 7.6073149664e-01	 1.3568495408e+00	-2.2145652488e+00
 7.3612857847e-01	 1.3703531670e+00	-1.9877356169e+00
 7.1135218747e-01	 1.3833767209e+00	-1.8602908042e+00
 6.8641599873e-01	 1.3959176778e+00	-1.8467891277e+00
 6.6133369212e-01	 1.4079740175e+00	-1.9387829563e+00
 6.3611892977e-01	 1.4195442204e+00	-2.1234190745e+00
 7.6616529304e-01	 1.3665413233e+00	-2.1359459619e+00
 7.4138663975e-01	 1.3801414039e+00	-1.9156667693e+00
 7.1643327452e-01	 1.3932579831e+00	-1.7830480120e+00
 6.9131897015e-01	 1.4058885183e+00	-1.7614233443e+00
 6.6605750421e-01	 1.4180309748e+00	-1.8406493439e+00
 6.4066263641e-01	 1.4296838220e+00	-2.0060446014e+00
 7.7159908945e-01	 1.3762331057e+00	-2.0934285279e+00
 7.4664470102e-01	 1.3899296408e+00	-1.8789096298e+00
 7.2151436157e-01	 1.4031392454e+00	-1.7413464666e+00
 6.9622194157e-01	 1.4158593589e+00	-1.7108688658e+00
 6.7078131629e-01	 1.4280879321e+00	-1.7768974300e+00
 6.4520634305e-01	 1.4398234235e+00	-1.9228816767e+00
 7.7703288585e-01	 1.3859248881e+00	-2.0853045154e+00
 7.5190276230e-01	 1.3997178777e+00	-1.8750725279e+00
 7.2659544863e-01	 1.4130205077e+00	-1.7336171553e+00
 7.0112491298e-01	 1.4258301994e+00	-1.6937332666e+00
 6.7550512838e-01	 1.4381448894e+00	-1.7463177099e+00
 6.4975004969e-01	 1.4499630251e+00	-1.8729101797e+00
 7.8246668226e-01	 1.3956166706e+00	-2.1098491258e+00
 7.5716082357e-01	 1.4095061147e+00	-1.9026085214e+00
 7.3167653568e-01	 1.4229017700e+00	-1.7582743147e+00
 7.0602788440e-01	 1.4358010400e+00	-1.7086011724e+00
 6.8022894047e-01	 1.4482018466e+00	-1.7476717495e+00
 6.5429375633e-01	 1.4601026267e+00	-1.8550753520e+00
 7.8790047866e-01	 1.4053084530e+00	-2.1653225746e+00
 7.6241888485e-01	 1.4192943516e+00	-1.9599492678e+00
 7.3675762273e-01	 1.4327830323e+00	-1.8137184992e+00
 7.1093085582e-01	 1.4457718805e+00	-1.7540372224e+00
 6.8495275255e-01	 1.4582588039e+00	-1.7796950397e+00
 6.5883746297e-01	 1.4702422283e+00	-1.8682905420e+00
 6.3611892977e-01	 1.4195442204e+00	-2.1234190745e+00
 6.1078533400e-01	 1.4306272618e+00	-1.8793067852e+00
 5.8534646581e-01	 1.4412226065e+00	-1.7288529956e+00
 5.5981580390e-01	 1.4513302009e+00	-1.6482716989e+00
 5.3420672430e-01	 1.4609504653e+00	-1.6114136701e+00
 5.0853248072e-01	 1.4700842841e+00	-1.5903570853e+00
 6.4066263641e-01	 1.4296838220e+00	-2.0060446014e+00
 6.1514808638e-01	 1.4408460280e+00	-1.7472250538e+00
 5.8952751200e-01	 1.4515170537e+00	-1.5966531364e+00
 5.6381448821e-01	 1.4616968452e+00	-1.5292721642e+00
 5.3802248661e-01	 1.4713858258e+00	-1.5175220994e+00
 5.1216485558e-01	 1.4805848862e+00	-1.5319505074e+00
 6.4520634305e-01	 1.4398234235e+00	-1.9228816767e+00
 6.1951083877e-01	 1.4510647941e+00	-1.6579888222e+00
 5.9370855818e-01	 1.4618115008e+00	-1.5157176606e+00
 5.6781317253e-01	 1.4720634895e+00	-1.4696766801e+00
 5.4183824893e-01	 1.4818211863e+00	-1.4907814110e+00
 5.1579723044e-01	 1.4910854882e+00	-1.5119844316e+00
 6.4975004969e-01	 1.4499630251e+00	-1.8729101797e+00
 6.2387359115e-01	 1.4612835603e+00	-1.6105935583e+00
 5.9788960436e-01	 1.4721059480e+00	-1.4850717609e+00
 5.7181185684e-01	 1.4824301338e+00	-1.4681983607e+00
 5.4565401125e-01	 1.4922565467e+00	-1.4845322379e+00
 5.1942960530e-01	 1.5015860902e+00	-1.4794041995e+00
 6.5429375633e-01	 1.4601026267e+00	-1.8550753520e+00
 6.2823634354e-01	 1.4715023264e+00	-1.6039997137e+00
 6.0207065055e-01	 1.4824003952e+00	-1.5033751670e+00
 5.7581054115e-01	 1.4927967781e+00	-1.4743700949e+00
 5.4946977356e-01	 1.5026919072e+00	-1.4574656103e+00
 5.2306198017e-01	 1.5120866923e+00	-1.4326182297e+00
 6.5883746297e-01	 1.4702422283e+00	-1.8682905420e+00
 6.3259909593e-01	 1.4817210926e+00	-1.6371132024e+00
 6.0625169673e-01	 1.4926948424e+00	-1.5215158224e+00
 5.7980922547e-01	 1.5031634224e+00	-1.4523447668e+00
 5.5328553588e-01	 1.5131272677e+00	-1.4085925416e+00
 5.2669435503e-01	 1.5225872943e+00	-1.3704206017e+00
 5.0853248072e-01	 1.4700842841e+00	-1.5903570853e+00
 4.8280618561e-01	 1.4787329960e+00	-1.4537559708e+00
 4.5704079200e-01	 1.4868983828e+00	-1.3958589668e+00
 4.3124907612e-01	 1.4945826577e+00	-1.3590492813e+00
 4.0544362095e-01	 1.5017884527e+00	-1.3261546881e+00
 3.7963680052e-01	 1.5085188054e+00	-1.2842608837e+00
 5.1216485558e-01	 1.4805848862e+00	-1.5319505074e+00
 4.8625480122e-01	 1.4892953746e+00	-1.4272382698e+00
 4.6030536908e-01	 1.4975190856e+00	-1.3608300546e+00
 4.3432942667e-01	 1.5052582481e+00	-1.3162802127e+00
 4.0833964681e-01	 1.5125155131e+00	-1.2787648953e+00
 3.8234849196e-01	 1.5192939397e+00	-1.2347997848e+00
 5.1579723044e-01	 1.4910854882e+00	-1.5119844316e+00
 4.8970341683e-01	 1.4998577531e+00	-1.3944394982e+00
 4.6356994617e-01	 1.5081397883e+00	-1.3192376974e+00
 4.3740977721e-01	 1.5159338385e+00	-1.2697739986e+00
 4.1123567268e-01	 1.5232425734e+00	-1.2307238285e+00
 3.8506018339e-01	 1.5300690740e+00	-1.1880685644e+00
 5.1942960530e-01	 1.5015860902e+00	-1.4794041995e+00
 4.9315203244e-01	 1.5104201317e+00	-1.3510106777e+00
 4.6683452325e-01	 1.5187604910e+00	-1.2695091171e+00
 4.4049012775e-01	 1.5266094290e+00	-1.2178567631e+00
 4.1413169854e-01	 1.5339696338e+00	-1.1802651740e+00
 3.8777187482e-01	 1.5408442083e+00	-1.1422187379e+00
 5.2306198017e-01	 1.5120866923e+00	-1.4326182297e+00
 4.9660064805e-01	 1.5209825102e+00	-1.2955582388e+00
 4.7009910034e-01	 1.5293811938e+00	-1.2101399739e+00
 4.4357047830e-01	 1.5372850194e+00	-1.1589201551e+00
 4.1702772441e-01	 1.5446966942e+00	-1.1256848257e+00
 3.9048356625e-01	 1.5516193427e+00	-1.0954603301e+00
 5.2669435503e-01	 1.5225872943e+00	-1.3704206017e+00
 5.0004926367e-01	 1.5315448887e+00	-1.2267581833e+00
 4.7336367742e-01	 1.5400018965e+00	-1.1396931660e+00
 4.4665082884e-01	 1.5479606098e+00	-1.0914203003e+00
 4.1992375027e-01	 1.5554237546e+00	-1.0653399816e+00
 3.9319525769e-01	 1.5623944770e+00	-1.0460611087e+00
 3.7963680052e-01	 1.5085188054e+00	-1.2842608837e+00
 3.5384076526e-01	 1.5147771451e+00	-1.1297254256e+00
 3.2806742813e-01	 1.5205672787e+00	-1.0235610649e+00
 3.0232845180e-01	 1.5258933756e+00	-9.7930860950e-01
 2.7663523672e-01	 1.5307599525e+00	-1.0061869295e+00
 2.5099891018e-01	 1.5351718580e+00	-1.1160121605e+00
 3.8234849196e-01	 1.5192939397e+00	-1.2347997848e+00
 3.5636819930e-01	 1.5255969818e+00	-1.0775143572e+00
 3.3041076690e-01	 1.5314284735e+00	-9.6321386922e-01
 3.0448794074e-01	 1.5367926140e+00	-9.1117954095e-01
 2.7861120270e-01	 1.5416939522e+00	-9.3124345733e-01
 2.5279175954e-01	 1.5461373712e+00	-1.0358123770e+00
 3.8506018339e-01	 1.5300690740e+00	-1.1880685644e+00
 3.5889563333e-01	 1.5364168186e+00	-1.0338558786e+00
 3.3275410567e-01	 1.5422896684e+00	-9.1577151220e-01
 3.0664742968e-01	 1.5476918524e+00	-8.6007937035e-01
 2.8058716868e-01	 1.5526279518e+00	-8.7722609781e-01
 2.5458460890e-01	 1.5571028845e+00	-9.8020081262e-01
 3.8777187482e-01	 1.5408442083e+00	-1.1422187379e+00
 3.6142306737e-01	 1.5472366553e+00	-9.9688160122e-01
 3.3509744444e-01	 1.5531508632e+00	-8.7945759719e-01
 3.0880691862e-01	 1.5585910908e+00	-8.2434854343e-01
 2.8256313465e-01	 1.5635619515e+00	-8.4261624665e-01
 2.5637745826e-01	 1.5680683978e+00	-9.4782258322e-01
 3.9048356625e-01	 1.5516193427e+00	-1.0954603301e+00
 3.6395050141e-01	 1.5580564921e+00	-9.6474625719e-01
 3.3744078321e-01	 1.5640120581e+00	-8.5250866471e-01
 3.1096640756e-01	 1.5694903292e+00	-8.0233176155e-01
 2.8453910063e-01	 1.5744959512e+00	-8.2589236076e-01
 2.5817030761e-01	 1.5790339111e+00	-9.3731412565e-01
 3.9319525769e-01	 1.5623944770e+00	-1.0460611087e+00
 3.6647793545e-01	 1.5688763288e+00	-9.3562965568e-01
 3.3978412199e-01	 1.5748732529e+00	-8.3317584616e-01
 3.1312589650e-01	 1.5803895676e+00	-7.9237936178e-01
 2.8651506661e-01	 1.5854299508e+00	-8.2553109302e-01
 2.5996315697e-01	 1.5899994243e+00	-9.4730411566e-01
 2.5099891018e-01	 1.5351718580e+00	-1.1160121605e+00
 2.2543031626e-01	 1.5391342563e+00	-9.6968123877e-01
 1.9994000682e-01	 1.5426526116e+00	-8.7149462328e-01
 1.7453823339e-01	 1.5457326714e+00	-8.3817233858e-01
 1.4923494001e-01	 1.5483804504e+00	-8.8708366726e-01
 1.2403975699e-01	 1.5506022137e+00	-1.0358596415e+00
 2.5279175954e-01	 1.5461373712e+00	-1.0358123770e+00
 2.2704053280e-01	 1.5501280724e+00	-8.7808792703e-01
 2.0136814972e-01	 1.5536715588e+00	-7.6799621405e-01
 1.7578493505e-01	 1.5567736191e+00	-7.2299824732e-01
 1.5030090386e-01	 1.5594403107e+00	-7.6119794160e-01
 1.2492575525e-01	 1.5616779438e+00	-9.0096389856e-01
 2.5458460890e-01	 1.5571028845e+00	-9.8020081262e-01
 2.2865074935e-01	 1.5611218885e+00	-8.1583185321e-01
 2.0279629263e-01	 1.5646905061e+00	-6.9834601648e-01
 1.7703163672e-01	 1.5678145667e+00	-6.4591165646e-01
 1.5136686772e-01	 1.5705001711e+00	-6.7732843613e-01
 1.2581175351e-01	 1.5727536739e+00	-8.1165977177e-01
 2.5637745826e-01	 1.5680683978e+00	-9.4782258322e-01
 2.3026096589e-01	 1.5721157047e+00	-7.8171464580e-01
 2.0422443553e-01	 1.5757094533e+00	-6.6151986012e-01
 1.7827833839e-01	 1.5788555144e+00	-6.0607751440e-01
 1.5243283158e-01	 1.5815600315e+00	-6.3484098771e-01
 1.2669775178e-01	 1.5838294040e+00	-7.6752229367e-01
 2.5817030761e-01	 1.5790339111e+00	-9.3731412565e-01
 2.3187118244e-01	 1.5831095208e+00	-7.7452569995e-01
 2.0565257844e-01	 1.5867284005e+00	-6.5647915088e-01
 1.7952504006e-01	 1.5898964620e+00	-6.0264544093e-01
 1.5349879544e-01	 1.5926198918e+00	-6.3308639399e-01
 1.2758375004e-01	 1.5949051341e+00	-7.6811284001e-01
 2.5996315697e-01	 1.5899994243e+00	-9.4730411566e-01
 2.3348139898e-01	 1.5941033369e+00	-7.9304287912e-01
 2.0708072135e-01	 1.5977473477e+00	-6.8217138279e-01
 1.8077174172e-01	 1.6009374097e+00	-6.3475007443e-01
 1.5456475929e-01	 1.6036797522e+00	-6.7140062059e-01
 1.2846974831e-01	 1.6059808642e+00	-8.1297922019e-01
 1.2403975699e-01	 1.5506022137e+00	-1.0358596415e+00
 9.8961995584e-02	 1.5524044608e+00	-8.7339202336e-01
 7.4010643565e-02	 1.5537939088e+00	-7.7724185181e-01
 4.9194361635e-02	 1.5547774764e+00	-7.6558083716e-01
 2.4521480710e-02	 1.5553622676e+00	-8.5571032265e-01
 0.0000000000e+00	 1.5555555556e+00	-1.0637901257e+00
 1.2492575525e-01	 1.5616779438e+00	-9.0096389856e-01
 9.9668866981e-02	 1.5634930641e+00	-7.3165149393e-01
 7.4539291019e-02	 1.5648924367e+00	-6.2812790505e-01
 4.9545749933e-02	 1.5658830298e+00	-6.0955018585e-01
 2.4696634143e-02	 1.5664719981e+00	-6.9425621951e-01
 0.0000000000e+00	 1.5666666667e+00	-8.9950308959e-01
 1.2581175351e-01	 1.5727536739e+00	-8.1165977177e-01
 1.0037573838e-01	 1.5745816674e+00	-6.3955484195e-01
 7.5067938473e-02	 1.5759909647e+00	-5.3231345481e-01
 4.9897138230e-02	 1.5769885832e+00	-5.1003018682e-01
 2.4871787577e-02	 1.5775817285e+00	-5.9203339441e-01
 0.0000000000e+00	 1.5777777778e+00	-7.9663443494e-01
 1.2669775178e-01	 1.5838294040e+00	-7.6752229367e-01
 1.0108260977e-01	 1.5856702707e+00	-5.9687252618e-01
 7.5596585927e-02	 1.5870894926e+00	-4.8976407704e-01
 5.0248526528e-02	 1.5880941366e+00	-4.6717725192e-01
 2.5046941011e-02	 1.5886914590e+00	-5.4938078735e-01
 0.0000000000e+00	 1.5888888889e+00	-7.5569330256e-01
 1.2758375004e-01	 1.5949051341e+00	-7.6811284001e-01
 1.0178948117e-01	 1.5967588739e+00	-6.0336422399e-01
 7.6125233381e-02	 1.5981880205e+00	-5.0043833468e-01
 5.0599914825e-02	 1.5991996900e+00	-4.8114531704e-01
 2.5222094444e-02	 1.5998011895e+00	-5.6664003918e-01
 0.0000000000e+00	 1.6000000000e+00	-7.7719721944e-01
 1.2846974831e-01	 1.6059808642e+00	-8.1297922019e-01
 1.0249635257e-01	 1.6078474772e+00	-6.5877880931e-01
 7.6653880835e-02	 1.6092865484e+00	-5.6428766300e-01
 5.0951303122e-02	 1.6103052434e+00	-5.5208565291e-01
 2.5397247878e-02	 1.6109109200e+00	-6.4415524483e-01
 0.0000000000e+00	 1.6111111111e+00	-8.6167180961e-01
 1.6111111111e+00	 0.0000000000e+00	 3.7618925374e+00
 1.6109109200e+00	 2.5397247878e-02	 3.7159479293e+00
 1.6103052434e+00	 5.0951303122e-02	 3.6938605919e+00
 1.6092865484e+00	 7.6653880835e-02	 3.6773824853e+00
 1.6078474772e+00	 1.0249635257e-01	 3.6473242031e+00
 1.6059808642e+00	 1.2846974831e-01	 3.5837505112e+00
 1.6222222222e+00	 0.0000000000e+00	 3.6175646650e+00
 1.6220206505e+00	 2.5572401311e-02	 3.5766712417e+00
 1.6214107968e+00	 5.1302691420e-02	 3.5616779229e+00
 1.6203850763e+00	 7.7182528289e-02	 3.5538532386e+00
 1.6189360805e+00	 1.0320322397e-01	 3.5335693103e+00
 1.6170565943e+00	 1.2935574657e-01	 3.4804783406e+00
 1.6333333333e+00	 0.0000000000e+00	 3.5361211381e+00
 1.6331303810e+00	 2.5747554745e-02	 3.4968781477e+00
 1.6325163502e+00	 5.1654079717e-02	 3.4851480500e+00
 1.6314836043e+00	 7.7711175743e-02	 3.4817733416e+00
 1.6300246838e+00	 1.0391009536e-01	 3.4667489626e+00
 1.6281323244e+00	 1.3024174484e-01	 3.4193781450e+00
 1.6444444444e+00	 0.0000000000e+00	 3.5176432451e+00
 1.6442401114e+00	 2.5922708179e-02	 3.4765368209e+00
 1.6436219037e+00	 5.2005468014e-02	 3.4641110786e+00
 1.6425821322e+00	 7.8239823197e-02	 3.4608441854e+00
 1.6411132871e+00	 1.0461696676e-01	 3.4464196297e+00
 1.6392080545e+00	 1.3112774310e-01	 3.3998597704e+00
 1.6555555556e+00	 0.0000000000e+00	 3.5622153044e+00
 1.6553498419e+00	 2.6097861612e-02	 3.5156178191e+00
 1.6547274571e+00	 5.2356856312e-02	 3.4984088681e+00
 1.6536806601e+00	 7.8768470651e-02	 3.4907684295e+00
 1.6522018904e+00	 1.0532383816e-01	 3.4721388385e+00
 1.6502837846e+00	 1.3201374136e-01	 3.4213343147e+00
 1.6666666667e+00	 0.0000000000e+00	 3.6699245634e+00
 1.6664595724e+00	 2.6273015046e-02	 3.6140939840e+00
 1.6658330105e+00	 5.2708244609e-02	 3.5878849361e+00
 1.6647791880e+00	 7.9297118105e-02	 3.5712499164e+00
 1.6632904937e+00	 1.0603070955e-01	 3.5434651061e+00
 1.6613595147e+00	 1.3289973963e-01	 3.4832140895e+00
 1.6059808642e+00	 1.2846974831e-01	 3.5837505112e+00
 1.6036797522e+00	 1.5456475929e-01	 3.5124847185e+00
 1.6009374097e+00	 1.8077174172e-01	 3.4531025431e+00
 1.5977473477e+00	 2.0708072135e-01	 3.3857614210e+00
 1.5941033369e+00	 2.3348139898e-01	 3.2907505719e+00
 1.5899994243e+00	 2.5996315697e-01	 3.1488801499e+00
 1.6170565943e+00	 1.2935574657e-01	 3.4804783406e+00
 1.6147396125e+00	 1.5563072315e-01	 3.4176749168e+00
 1.6119783573e+00	 1.8201844339e-01	 3.3675938472e+00
 1.6087662950e+00	 2.0850886425e-01	 3.3099745233e+00
 1.6050971530e+00	 2.3509161553e-01	 3.2246266761e+00
 1.6009649376e+00	 2.6175600633e-01	 3.0917992883e+00
 1.6281323244e+00	 1.3024174484e-01	 3.4193781450e+00
 1.6257994729e+00	 1.5669668701e-01	 3.3603505392e+00
 1.6230193050e+00	 1.8326514506e-01	 3.3147517813e+00
 1.6197852422e+00	 2.0993700716e-01	 3.2619625860e+00
 1.6160909691e+00	 2.3670183207e-01	 3.1813675869e+00
 1.6119304509e+00	 2.6354885569e-01	 3.0527021111e+00
 1.6392080545e+00	 1.3112774310e-01	 3.3998597704e+00
 1.6368593333e+00	 1.5776265086e-01	 3.3397723476e+00
 1.6340602526e+00	 1.8451184672e-01	 3.2936954940e+00
 1.6308041894e+00	 2.1136515006e-01	 3.2407149123e+00
 1.6270847852e+00	 2.3831204862e-01	 3.1598486052e+00
 1.6228959641e+00	 2.6534170505e-01	 3.0303695391e+00
 1.6502837846e+00	 1.3201374136e-01	 3.4213343147e+00
 1.6479191936e+00	 1.5882861472e-01	 3.3552032292e+00
 1.6451012003e+00	 1.8575854839e-01	 3.3035477908e+00
 1.6418231366e+00	 2.1279329297e-01	 3.2452267763e+00
 1.6380786014e+00	 2.3992226516e-01	 3.1589542185e+00
 1.6338614774e+00	 2.6713455441e-01	 3.0235959054e+00
 1.6613595147e+00	 1.3289973963e-01	 3.4832140895e+00
 1.6589790540e+00	 1.5989457858e-01	 3.4059081920e+00
 1.6561421480e+00	 1.8700525006e-01	 3.3434351764e+00
 1.6528420839e+00	 2.1422143588e-01	 3.2744995265e+00
 1.6490724175e+00	 2.4153248171e-01	 3.1775782794e+00
 1.6448269907e+00	 2.6892740376e-01	 3.0311892273e+00
 1.5899994243e+00	 2.5996315697e-01	 3.1488801499e+00
 1.5854299508e+00	 2.8651506661e-01	 3.0787066563e+00
 1.5803895676e+00	 3.1312589650e-01	 2.9991098723e+00
 1.5748732529e+00	 3.3978412199e-01	 2.8958119859e+00
 1.5688763288e+00	 3.6647793545e-01	 2.7573883952e+00
 1.5623944770e+00	 3.9319525769e-01	 2.5655929213e+00
 1.6009649376e+00	 2.6175600633e-01	 3.0917992883e+00
 1.5963639505e+00	 2.8849103258e-01	 3.0264512988e+00
 1.5912888060e+00	 3.1528538545e-01	 2.9560426664e+00
 1.5857344478e+00	 3.4212746076e-01	 2.8654486786e+00
 1.5796961656e+00	 3.6900536948e-01	 2.7422490606e+00
 1.5731696113e+00	 3.9590694912e-01	 2.5647445888e+00
 1.6119304509e+00	 2.6354885569e-01	 3.0527021111e+00
 1.6072979501e+00	 2.9046699856e-01	 2.9871497081e+00
 1.6021880444e+00	 3.1744487439e-01	 2.9209065203e+00
 1.5965956426e+00	 3.4447079953e-01	 2.8380160511e+00
 1.5905160023e+00	 3.7153280352e-01	 2.7250320774e+00
 1.5839447456e+00	 3.9861864055e-01	 2.5568841906e+00
 1.6228959641e+00	 2.6534170505e-01	 3.0303695391e+00
 1.6182319498e+00	 2.9244296454e-01	 2.9595158402e+00
 1.6130872828e+00	 3.1960436333e-01	 2.8923762059e+00
 1.6074568375e+00	 3.4681413830e-01	 2.8121799253e+00
 1.6013358391e+00	 3.7406023756e-01	 2.7042086660e+00
 1.5947198799e+00	 4.0133033198e-01	 2.5408499289e+00
 1.6338614774e+00	 2.6713455441e-01	 3.0235959054e+00
 1.6291659495e+00	 2.9441893051e-01	 2.9422822844e+00
 1.6239865212e+00	 3.2176385227e-01	 2.8691515043e+00
 1.6183180323e+00	 3.4915747708e-01	 2.7866387412e+00
 1.6121556758e+00	 3.7658767160e-01	 2.6784924292e+00
 1.6054950143e+00	 4.0404202341e-01	 2.5155363102e+00
 1.6448269907e+00	 2.6892740376e-01	 3.0311892273e+00
 1.6400999491e+00	 2.9639489649e-01	 2.9342006499e+00
 1.6348857596e+00	 3.2392334121e-01	 2.8499577282e+00
 1.6291792272e+00	 3.5150081585e-01	 2.7601242361e+00
 1.6229755126e+00	 3.7911510563e-01	 2.6466952043e+00
 1.6162701486e+00	 4.0675371485e-01	 2.4798929676e+00
 1.5623944770e+00	 3.9319525769e-01	 2.5655929213e+00
 1.5554237546e+00	 4.1992375027e-01	 2.4168007784e+00
 1.5479606098e+00	 4.4665082884e-01	 2.2560597236e+00
 1.5400018965e+00	 4.7336367742e-01	 2.0986997466e+00
 1.5315448887e+00	 5.0004926367e-01	 1.9613869233e+00
 1.5225872943e+00	 5.2669435503e-01	 1.8620982645e+00
 1.5731696113e+00	 3.9590694912e-01	 2.5647445888e+00
 1.5661508150e+00	 4.2281977613e-01	 2.4241301993e+00
 1.5586362002e+00	 4.4973117939e-01	 2.2685127023e+00
 1.5506225992e+00	 4.7662825451e-01	 2.1134337266e+00
 1.5421072673e+00	 5.0349787928e-01	 1.9757424556e+00
 1.5330878963e+00	 5.3032672989e-01	 1.8735788503e+00
 1.5839447456e+00	 3.9861864055e-01	 2.5568841906e+00
 1.5768778753e+00	 4.2571580200e-01	 2.4212037657e+00
 1.5693117906e+00	 4.5281152993e-01	 2.2679434764e+00
 1.5612433020e+00	 4.7989283160e-01	 2.1128115642e+00
 1.5526696458e+00	 5.0694649489e-01	 1.9727965425e+00
 1.5435884983e+00	 5.3395910475e-01	 1.8661593636e+00
 1.5947198799e+00	 4.0133033198e-01	 2.5408499289e+00
 1.5876049357e+00	 4.2861182786e-01	 2.4069848010e+00
 1.5799873810e+00	 4.5589188047e-01	 2.2534473113e+00
 1.5718640047e+00	 4.8315740868e-01	 2.0960656144e+00
 1.5632320244e+00	 5.1039511050e-01	 1.9519223231e+00
 1.5540891004e+00	 5.3759147961e-01	 1.8393562035e+00
 1.6054950143e+00	 4.0404202341e-01	 2.5155363102e+00
 1.5983319961e+00	 4.3150785373e-01	 2.3804946622e+00
 1.5906629714e+00	 4.5897223102e-01	 2.2241787264e+00
 1.5824847074e+00	 4.8642198577e-01	 2.0624881854e+00
 1.5737944029e+00	 5.1384372611e-01	 1.9125530622e+00
 1.5645897024e+00	 5.4122385448e-01	 1.7927455455e+00
 1.6162701486e+00	 4.0675371485e-01	 2.4798929676e+00
 1.6090590565e+00	 4.3440387959e-01	 2.3408113862e+00
 1.6013385618e+00	 4.6205258156e-01	 2.1793499535e+00
 1.5931054102e+00	 4.8968656285e-01	 2.0114297959e+00
 1.5843567815e+00	 5.1729234172e-01	 1.8541801953e+00
 1.5750903044e+00	 5.4485622934e-01	 1.7259611636e+00
 1.5225872943e+00	 5.2669435503e-01	 1.8620982645e+00
 1.5131272677e+00	 5.5328553588e-01	 1.6660030030e+00
 1.5031634224e+00	 5.7980922547e-01	 1.4788475423e+00
 1.4926948424e+00	 6.0625169673e-01	 1.3228345295e+00
 1.4817210926e+00	 6.3259909593e-01	 1.2213231859e+00
 1.4702422283e+00	 6.5883746297e-01	 1.2388675737e+00
 1.5330878963e+00	 5.3032672989e-01	 1.8735788503e+00
 1.5235626281e+00	 5.5710129820e-01	 1.6815318559e+00
 1.5135300667e+00	 5.8380790978e-01	 1.4985796402e+00
 1.5029892896e+00	 6.1043274292e-01	 1.3468821563e+00
 1.4919398587e+00	 6.3696184831e-01	 1.2497417828e+00
 1.4803818298e+00	 6.6338116961e-01	 1.2318239652e+00
 1.5435884983e+00	 5.3395910475e-01	 1.8661593636e+00
 1.5339979886e+00	 5.6091706051e-01	 1.6753832377e+00
 1.5238967110e+00	 5.8780659410e-01	 1.4940885808e+00
 1.5132837368e+00	 6.1461378910e-01	 1.3443602087e+00
 1.5021586249e+00	 6.4132460070e-01	 1.2494142819e+00
 1.4905214314e+00	 6.6792487625e-01	 1.2334357151e+00
 1.5540891004e+00	 5.3759147961e-01	 1.8393562035e+00
 1.5444333491e+00	 5.6473282283e-01	 1.6472484314e+00
 1.5342633553e+00	 5.9180527841e-01	 1.4652421026e+00
 1.5235781840e+00	 6.1879483529e-01	 1.3153139661e+00
 1.5123773910e+00	 6.4568735308e-01	 1.2205643590e+00
 1.5006610330e+00	 6.7246858290e-01	 1.2050534746e+00
 1.5645897024e+00	 5.4122385448e-01	 1.7927455455e+00
 1.5548687095e+00	 5.6854858515e-01	 1.5968768311e+00
 1.5446299996e+00	 5.9580396272e-01	 1.4119638826e+00
 1.5338726312e+00	 6.2297588147e-01	 1.2598419993e+00
 1.5225961572e+00	 6.5005010547e-01	 1.1634659024e+00
 1.5108006345e+00	 6.7701228954e-01	 1.1467448044e+00
 1.5750903044e+00	 5.4485622934e-01	 1.7259611636e+00
 1.5653040700e+00	 5.7236434746e-01	 1.5240735557e+00
 1.5549966439e+00	 5.9980264704e-01	 1.3342309337e+00
 1.5441670784e+00	 6.2715692766e-01	 1.1780933444e+00
 1.5328149234e+00	 6.5441285785e-01	 1.0784399542e+00
 1.5209402361e+00	 6.8155599618e-01	 1.0590028571e+00
 1.4702422283e+00	 6.5883746297e-01	 1.2388675737e+00
 1.4582588039e+00	 6.8495275255e-01	 8.4865866982e-01
 1.4457718805e+00	 7.1093085582e-01	 5.5961600081e-01
 1.4327830323e+00	 7.3675762273e-01	 3.9559654350e-01
 1.4192943516e+00	 7.6241888485e-01	 3.5217902675e-01
 1.4053084530e+00	 7.8790047866e-01	 3.8919446332e-01
 1.4803818298e+00	 6.6338116961e-01	 1.2318239652e+00
 1.4683157612e+00	 6.8967656464e-01	 8.1714021719e-01
 1.4557427211e+00	 7.1583382724e-01	 5.1346488071e-01
 1.4426642946e+00	 7.4183870979e-01	 3.4558882646e-01
 1.4290825885e+00	 7.6767694612e-01	 2.9978124391e-01
 1.4150002354e+00	 7.9333427507e-01	 3.4716015505e-01
 1.4905214314e+00	 6.6792487625e-01	 1.2334357151e+00
 1.4783727184e+00	 6.9440037673e-01	 8.1357420438e-01
 1.4657135617e+00	 7.2073679866e-01	 4.8884027546e-01
 1.4525455569e+00	 7.4691979684e-01	 3.0926319072e-01
 1.4388708254e+00	 7.7293500740e-01	 2.5534218203e-01
 1.4246920179e+00	 7.9876807147e-01	 3.0797495438e-01
 1.5006610330e+00	 6.7246858290e-01	 1.2050534746e+00
 1.4884296757e+00	 6.9912418881e-01	 8.2276031649e-01
 1.4756844022e+00	 7.2563977008e-01	 4.8503749938e-01
 1.4624268192e+00	 7.5200088389e-01	 2.8589380115e-01
 1.4486590623e+00	 7.7819306867e-01	 2.1889297120e-01
 1.4343838003e+00	 8.0420186788e-01	 2.7170970109e-01
 1.5108006345e+00	 6.7701228954e-01	 1.1467448044e+00
 1.4984866330e+00	 7.0384800090e-01	 8.0164755730e-01
 1.4856552428e+00	 7.3054274150e-01	 4.9658236192e-01
 1.4723080815e+00	 7.5708197095e-01	 2.7552734658e-01
 1.4584472992e+00	 7.8345112995e-01	 1.9050541467e-01
 1.4440755827e+00	 8.0963566428e-01	 2.3847014225e-01
 1.5209402361e+00	 6.8155599618e-01	 1.0590028571e+00
 1.5085435902e+00	 7.0857181299e-01	 7.4803656296e-01
 1.4956260833e+00	 7.3544571292e-01	 4.8208011569e-01
 1.4821893438e+00	 7.6216305800e-01	 2.7812236785e-01
 1.4682355361e+00	 7.8870919122e-01	 1.7028726147e-01
 1.4537673652e+00	 8.1506946068e-01	 2.0839215095e-01
 1.4053084530e+00	 7.8790047866e-01	 3.8919446332e-01
 1.3908284765e+00	 8.1318826926e-01	 7.1981737400e-02
 1.3758580887e+00	 8.3826817429e-01	-1.8156898043e-01
 1.3604014832e+00	 8.6312618823e-01	-3.9141720227e-01
 1.3444633795e+00	 8.8774840666e-01	-5.8030721684e-01
 1.3280490206e+00	 9.1212105080e-01	-7.7286771938e-01
 1.4150002354e+00	 7.9333427507e-01	 3.4716015505e-01
 1.4004203970e+00	 8.1879646422e-01	 3.9015705399e-02
 1.3853467652e+00	 8.4404933412e-01	-2.0727617522e-01
 1.3697835624e+00	 8.6907878263e-01	-4.1152009223e-01
 1.3537355407e+00	 8.9387080947e-01	-5.9652529557e-01
 1.3372079793e+00	 9.1841154080e-01	-7.8718146222e-01
 1.4246920179e+00	 7.9876807147e-01	 3.0797495438e-01
 1.4100123176e+00	 8.2440465918e-01	 9.1026162843e-03
 1.3948354417e+00	 8.4983049394e-01	-2.2952871461e-01
 1.3791656416e+00	 8.7503137703e-01	-4.2755214874e-01
 1.3630077020e+00	 8.9999321227e-01	-6.0784011518e-01
 1.3463669381e+00	 9.2470203081e-01	-7.9555595788e-01
 1.4343838003e+00	 8.0420186788e-01	 2.7170970109e-01
 1.4196042381e+00	 8.3001285414e-01	-1.7745425353e-02
 1.4043241181e+00	 8.5561165376e-01	-2.4836546001e-01
 1.3885477208e+00	 8.8098397143e-01	-4.3959412766e-01
 1.3722798632e+00	 9.0611561508e-01	-6.1436454962e-01
 1.3555258969e+00	 9.3099252081e-01	-7.9812632027e-01
 1.4440755827e+00	 8.0963566428e-01	 2.3847014225e-01
 1.4291961586e+00	 8.3562104910e-01	-4.1483499769e-02
 1.4138127946e+00	 8.6139281358e-01	-2.6379361882e-01
 1.3979298000e+00	 8.8693656583e-01	-4.4769531807e-01
 1.3815520244e+00	 9.1223801788e-01	-6.1617919204e-01
 1.3646848556e+00	 9.3728301082e-01	-7.9499355571e-01
 1.4537673652e+00	 8.1506946068e-01	 2.0839215095e-01
 1.4387880792e+00	 8.4122924406e-01	-6.2038783364e-02
 1.4233014711e+00	 8.6717397341e-01	-2.7579376773e-01
 1.4073118792e+00	 8.9288916023e-01	-4.5187865866e-01
 1.3908241857e+00	 9.1836042069e-01	-6.1333754484e-01
 1.3738438144e+00	 9.4357350082e-01	-7.8622980705e-01
 1.3280490206e+00	 9.1212105080e-01	-7.7286771938e-01
 1.3111641692e+00	 9.3623049180e-01	-7.6676048888e-01
 1.2938151028e+00	 9.6006327512e-01	-8.2859841627e-01
 1.2760086068e+00	 9.8360614460e-01	-9.8389059103e-01
 1.2577519673e+00	 1.0068460663e+00	-1.2548735383e+00
 1.2390529612e+00	 1.0297702519e+00	-1.6589303837e+00
 1.3372079793e+00	 9.1841154080e-01	-7.8718146222e-01
 1.3202066807e+00	 9.4268725381e-01	-7.9163225006e-01
 1.3027379655e+00	 9.6668440115e-01	-8.5671519483e-01
 1.2848086662e+00	 9.9038963526e-01	-1.0088204509e+00
 1.2664261188e+00	 1.0137898323e+00	-1.2711166324e+00
 1.2475981540e+00	 1.0368721157e+00	-1.6619070032e+00
 1.3463669381e+00	 9.2470203081e-01	-7.9555595788e-01
 1.3292491922e+00	 9.4914401582e-01	-8.1115812999e-01
 1.3116608283e+00	 9.7330552719e-01	-8.8008550439e-01
 1.2936087255e+00	 9.9717312591e-01	-1.0296574326e+00
 1.2751002703e+00	 1.0207335982e+00	-1.2840320052e+00
 1.2561433469e+00	 1.0439739795e+00	-1.6624972163e+00
 1.3555258969e+00	 9.3099252081e-01	-7.9812632027e-01
 1.3382917037e+00	 9.5560077783e-01	-8.2544948246e-01
 1.3205836911e+00	 9.7992665322e-01	-8.9878571377e-01
 1.3024087849e+00	 1.0039566166e+00	-1.0464333722e+00
 1.2837744218e+00	 1.0276773642e+00	-1.2935996101e+00
 1.2646885397e+00	 1.0510758433e+00	-1.6606244150e+00
 1.3646848556e+00	 9.3728301082e-01	-7.9499355571e-01
 1.3473342152e+00	 9.6205753985e-01	-8.3458170189e-01
 1.3295065539e+00	 9.8654777926e-01	-9.1285347158e-01
 1.3112088442e+00	 1.0107401072e+00	-1.0591377507e+00
 1.2924485732e+00	 1.0346211302e+00	-1.2997525873e+00
 1.2732337326e+00	 1.0581777071e+00	-1.6561599601e+00
 1.3738438144e+00	 9.4357350082e-01	-7.8622980705e-01
 1.3563767268e+00	 9.6851430186e-01	-8.3859946889e-01
 1.3384294166e+00	 9.9316890529e-01	-9.2229293087e-01
 1.3200089036e+00	 1.0175235979e+00	-1.0677228759e+00
 1.3011227247e+00	 1.0415648962e+00	-1.3023823801e+00
 1.2817789254e+00	 1.0652795709e+00	-1.6489282118e+00
 1.2390529612e+00	 1.0297702519e+00	-1.6589303837e+00
 1.2199198465e+00	 1.0523661817e+00	-1.4540830822e+00
 1.2003613500e+00	 1.0746216272e+00	-1.3918602768e+00
 1.1803866546e+00	 1.0965246728e+00	-1.4679468898e+00
 1.1600053849e+00	 1.1180637368e+00	-1.6618481549e+00
 1.1392275919e+00	 1.1392275919e+00	-1.8867684815e+00
 1.2475981540e+00	 1.0368721157e+00	-1.6619070032e+00
 1.2283330868e+00	 1.0596238795e+00	-1.4602598433e+00
 1.2086397042e+00	 1.0820328109e+00	-1.4036431328e+00
 1.1885272522e+00	 1.1040869119e+00	-1.4884669818e+00
 1.1680054220e+00	 1.1257745211e+00	-1.6780049776e+00
 1.1470843339e+00	 1.1470843339e+00	-1.8855411223e+00
 1.2561433469e+00	 1.0439739795e+00	-1.6624972163e+00
 1.2367463272e+00	 1.0668815773e+00	-1.4670037388e+00
 1.2169180583e+00	 1.0894439945e+00	-1.4191924984e+00
 1.1966678498e+00	 1.1116491510e+00	-1.5162375902e+00
 1.1760054591e+00	 1.1334853055e+00	-1.6926357553e+00
 1.1549410759e+00	 1.1549410759e+00	-1.8851987307e+00
 1.2646885397e+00	 1.0510758433e+00	-1.6606244150e+00
 1.2451595675e+00	 1.0741392751e+00	-1.4741441960e+00
 1.2251964124e+00	 1.0968551781e+00	-1.4382471237e+00
 1.2048084474e+00	 1.1192113902e+00	-1.5441823871e+00
 1.1840054963e+00	 1.1411960899e+00	-1.7047993544e+00
 1.1627978180e+00	 1.1627978180e+00	-1.8846826932e+00
 1.2732337326e+00	 1.0581777071e+00	-1.6561599601e+00
 1.2535728078e+00	 1.0813969729e+00	-1.4814536719e+00
 1.2334747666e+00	 1.1042663618e+00	-1.4604832190e+00
 1.2129490451e+00	 1.1267736293e+00	-1.5665493320e+00
 1.1920055334e+00	 1.1489068743e+00	-1.7136415104e+00
 1.1706545600e+00	 1.1706545600e+00	-1.8830225791e+00
 1.2817789254e+00	 1.0652795709e+00	-1.6489282118e+00
 1.2619860481e+00	 1.0886546707e+00	-1.4886525466e+00
 1.2417531207e+00	 1.1116775454e+00	-1.4854861348e+00
 1.2210896427e+00	 1.1343358684e+00	-1.5826807546e+00
 1.2000055705e+00	 1.1566176587e+00	-1.7183919482e+00
 1.1785113020e+00	 1.1785113020e+00	-1.8793333600e+00
 1.1392275919e+00	 1.1392275919e+00	-1.8867684815e+00
 1.1180637368e+00	 1.1600053849e+00	-2.0439474177e+00
 1.0965246728e+00	 1.1803866546e+00	-2.1353956957e+00
 1.0746216272e+00	 1.2003613500e+00	-2.1348594512e+00
 1.0523661817e+00	 1.2199198465e+00	-2.0270231566e+00
 1.0297702519e+00	 1.2390529612e+00	-1.8077513506e+00
 1.1470843339e+00	 1.1470843339e+00	-1.8855411223e+00
 1.1257745211e+00	 1.1680054220e+00	-2.0325505773e+00
 1.1040869119e+00	 1.1885272522e+00	-2.1188749874e+00
 1.0820328109e+00	 1.2086397042e+00	-2.1186921775e+00
 1.0596238795e+00	 1.2283330868e+00	-2.0144239575e+00
 1.0368721157e+00	 1.2475981540e+00	-1.8017799994e+00
 1.1549410759e+00	 1.1549410759e+00	-1.8851987307e+00
 1.1334853055e+00	 1.1760054591e+00	-2.0233677808e+00
 1.1116491510e+00	 1.1966678498e+00	-2.1047195227e+00
 1.0894439945e+00	 1.2169180583e+00	-2.1070119915e+00
 1.0668815773e+00	 1.2367463272e+00	-2.0082141685e+00
 1.0439739795e+00	 1.2561433469e+00	-1.8039144220e+00
 1.1627978180e+00	 1.1627978180e+00	-1.8846826932e+00
 1.1411960899e+00	 1.1840054963e+00	-2.0152402864e+00
 1.1192113902e+00	 1.2048084474e+00	-2.0921301259e+00
 1.0968551781e+00	 1.2251964124e+00	-2.0979057171e+00
 1.0741392751e+00	 1.2451595675e+00	-2.0065081520e+00
 1.0510758433e+00	 1.2646885397e+00	-1.8122815748e+00
 1.1706545600e+00	 1.1706545600e+00	-1.8830225791e+00
 1.1489068743e+00	 1.1920055334e+00	-2.0070984457e+00
 1.1267736293e+00	 1.2129490451e+00	-2.0806143925e+00
 1.1042663618e+00	 1.2334747666e+00	-2.0895351197e+00
 1.0813969729e+00	 1.2535728078e+00	-2.0074888469e+00
 1.0581777071e+00	 1.2732337326e+00	-1.8250700707e+00
 1.1785113020e+00	 1.1785113020e+00	-1.8793333600e+00
 1.1566176587e+00	 1.2000055705e+00	-1.9979590482e+00
 1.1343358684e+00	 1.2210896427e+00	-2.0690866363e+00
 1.1116775454e+00	 1.2417531207e+00	-2.0801484069e+00
 1.0886546707e+00	 1.2619860481e+00	-2.0094117345e+00
 1.0652795709e+00	 1.2817789254e+00	-1.8405339165e+00
 1.0297702519e+00	 1.2390529612e+00	-1.8077513506e+00
 1.0068460663e+00	 1.2577519673e+00	-2.0986775009e+00
 9.8360614460e-01	 1.2760086068e+00	-2.2483168239e+00
 9.6006327512e-01	 1.2938151028e+00	-2.2735219074e+00
 9.3623049180e-01	 1.3111641692e+00	-2.1962583290e+00
 9.1212105080e-01	 1.3280490206e+00	-2.0420719013e+00
 1.0368721157e+00	 1.2475981540e+00	-1.8017799994e+00
 1.0137898323e+00	 1.2664261188e+00	-2.0814773079e+00
 9.9038963526e-01	 1.2848086662e+00	-2.2222657480e+00
 9.6668440115e-01	 1.3027379655e+00	-2.2416364695e+00
 9.4268725381e-01	 1.3202066807e+00	-2.1623018205e+00
 9.1841154080e-01	 1.3372079793e+00	-2.0105917720e+00
 1.0439739795e+00	 1.2561433469e+00	-1.8039144220e+00
 1.0207335982e+00	 1.2751002703e+00	-2.0743028214e+00
 9.9717312591e-01	 1.2936087255e+00	-2.2080927825e+00
 9.7330552719e-01	 1.3116608283e+00	-2.2234706067e+00
 9.4914401582e-01	 1.3292491922e+00	-2.1439523819e+00
 9.2470203081e-01	 1.3463669381e+00	-1.9967067272e+00
 1.0510758433e+00	 1.2646885397e+00	-1.8122815748e+00
 1.0276773642e+00	 1.2837744218e+00	-2.0752754758e+00
 1.0039566166e+00	 1.3024087849e+00	-2.2039061930e+00
 9.7992665322e-01	 1.3205836911e+00	-2.2171156863e+00
 9.5560077783e-01	 1.3382917037e+00	-2.1392846027e+00
 9.3099252081e-01	 1.3555258969e+00	-1.9984783903e+00
 1.0581777071e+00	 1.2732337326e+00	-1.8250700707e+00
 1.0346211302e+00	 1.2924485732e+00	-2.0825712056e+00
 1.0107401072e+00	 1.3112088442e+00	-2.2078613052e+00
 9.8654777926e-01	 1.3295065539e+00	-2.2207025451e+00
 9.6205753985e-01	 1.3473342152e+00	-2.1464049294e+00
 9.3728301082e-01	 1.3646848556e+00	-2.0139927333e+00
 1.0652795709e+00	 1.2817789254e+00	-1.8405339165e+00
 1.0415648962e+00	 1.3011227247e+00	-2.0944239401e+00
 1.0175235979e+00	 1.3200089036e+00	-2.2181637548e+00
 9.9316890529e-01	 1.3384294166e+00	-2.2324044917e+00
 9.6851430186e-01	 1.3563767268e+00	-2.1634544198e+00
 9.4357350082e-01	 1.3738438144e+00	-2.0413625835e+00
 9.1212105080e-01	 1.3280490206e+00	-2.0420719013e+00
 8.8774840666e-01	 1.3444633795e+00	-2.1059235797e+00
 8.6312618823e-01	 1.3604014832e+00	-2.1242457773e+00
 8.3826817429e-01	 1.3758580887e+00	-2.1239674474e+00
 8.1318826926e-01	 1.3908284765e+00	-2.1302282125e+00
 7.8790047866e-01	 1.4053084530e+00	-2.1653225746e+00
 9.1841154080e-01	 1.3372079793e+00	-2.0105917720e+00
 8.9387080947e-01	 1.3537355407e+00	-2.0715329741e+00
 8.6907878263e-01	 1.3697835624e+00	-2.0857477337e+00
 8.4404933412e-01	 1.3853467652e+00	-2.0802220818e+00
 8.1879646422e-01	 1.4004203970e+00	-2.0799782594e+00
 7.9333427507e-01	 1.4150002354e+00	-2.1069766378e+00
 9.2470203081e-01	 1.3463669381e+00	-1.9967067272e+00
 8.9999321227e-01	 1.3630077020e+00	-2.0533762107e+00
 8.7503137703e-01	 1.3791656416e+00	-2.0624154358e+00
 8.4983049394e-01	 1.3948354417e+00	-2.0509035807e+00
 8.2440465918e-01	 1.4100123176e+00	-2.0437693205e+00
 7.9876807147e-01	 1.4246920179e+00	-2.0626487526e+00
 9.3099252081e-01	 1.3555258969e+00	-1.9984783903e+00
 9.0611561508e-01	 1.3722798632e+00	-2.0495801343e+00
 8.8098397143e-01	 1.3885477208e+00	-2.0524492738e+00
 8.5561165376e-01	 1.4043241181e+00	-2.0342968433e+00
 8.3001285414e-01	 1.4196042381e+00	-2.0199839544e+00
 8.0420186788e-01	 1.4343838003e+00	-2.0308339662e+00
 9.3728301082e-01	 1.3646848556e+00	-2.0139927333e+00
 9.1223801788e-01	 1.3815520244e+00	-2.0582867486e+00
 8.8693656583e-01	 1.3979298000e+00	-2.0540559961e+00
 8.6139281358e-01	 1.4138127946e+00	-2.0286848221e+00
 8.3562104910e-01	 1.4291961586e+00	-2.0069950576e+00
 8.0963566428e-01	 1.4440755827e+00	-2.0100106207e+00
 9.4357350082e-01	 1.3738438144e+00	-2.0413625835e+00
 9.1836042069e-01	 1.3908241857e+00	-2.0776555414e+00
 8.9288916023e-01	 1.4073118792e+00	-2.0654508574e+00
 8.6717397341e-01	 1.4233014711e+00	-2.0323504968e+00
 8.4122924406e-01	 1.4387880792e+00	-2.0031676704e+00
 8.1506946068e-01	 1.4537673652e+00	-1.9986419978e+00
 7.8790047866e-01	 1.4053084530e+00	-2.1653225746e+00
 7.6241888485e-01	 1.4192943516e+00	-1.9599492678e+00
 7.3675762273e-01	 1.4327830323e+00	-1.8137184992e+00
 7.1093085582e-01	 1.4457718805e+00	-1.7540372224e+00
 6.8495275255e-01	 1.4582588039e+00	-1.7796950397e+00
 6.5883746297e-01	 1.4702422283e+00	-1.8682905420e+00
 7.9333427507e-01	 1.4150002354e+00	-2.1069766378e+00
 7.6767694612e-01	 1.4290825885e+00	-1.8876181559e+00
 7.4183870979e-01	 1.4426642946e+00	-1.7403881553e+00
 7.1583382724e-01	 1.4557427211e+00	-1.6863790944e+00
 6.8967656464e-01	 1.4683157612e+00	-1.7311469222e+00
 6.6338116961e-01	 1.4803818298e+00	-1.8510430735e+00
 7.9876807147e-01	 1.4246920179e+00	-2.0626487526e+00
 7.7293500740e-01	 1.4388708254e+00	-1.8357001038e+00
 7.4691979684e-01	 1.4525455569e+00	-1.6944297889e+00
 7.2073679866e-01	 1.4657135617e+00	-1.6538854732e+00
 6.9440037673e-01	 1.4783727184e+00	-1.7246863917e+00
 6.6792487625e-01	 1.4905214314e+00	-1.8527021581e+00
 8.0420186788e-01	 1.4343838003e+00	-2.0308339662e+00
 7.7819306867e-01	 1.4486590623e+00	-1.8026957523e+00
 7.5200088389e-01	 1.4624268192e+00	-1.6739061406e+00
 7.2563977008e-01	 1.4756844022e+00	-1.6549264241e+00
 6.9912418881e-01	 1.4884296757e+00	-1.7416600885e+00
 6.7246858290e-01	 1.5006610330e+00	-1.8271888246e+00
 8.0963566428e-01	 1.4440755827e+00	-2.0100106207e+00
 7.8345112995e-01	 1.4584472992e+00	-1.7870860354e+00
 7.5708197095e-01	 1.4723080815e+00	-1.6773226924e+00
 7.3054274150e-01	 1.4856552428e+00	-1.6820504427e+00
 7.0384800090e-01	 1.4984866330e+00	-1.7302444631e+00
 6.7701228954e-01	 1.5108006345e+00	-1.7738021420e+00
 8.1506946068e-01	 1.4537673652e+00	-1.9986419978e+00
 7.8870919122e-01	 1.4682355361e+00	-1.7873335606e+00
 7.6216305800e-01	 1.4821893438e+00	-1.7030076863e+00
 7.3544571292e-01	 1.4956260833e+00	-1.6848780686e+00
 7.0857181299e-01	 1.5085435902e+00	-1.6869947019e+00
 6.8155599618e-01	 1.5209402361e+00	-1.6923508969e+00
 6.5883746297e-01	 1.4702422283e+00	-1.8682905420e+00
 6.3259909593e-01	 1.4817210926e+00	-1.6371132024e+00
 6.0625169673e-01	 1.4926948424e+00	-1.5215158224e+00
 5.7980922547e-01	 1.5031634224e+00	-1.4523447668e+00
 5.5328553588e-01	 1.5131272677e+00	-1.4085925416e+00
 5.2669435503e-01	 1.5225872943e+00	-1.3704206017e+00
 6.6338116961e-01	 1.4803818298e+00	-1.8510430735e+00
 6.3696184831e-01	 1.4919398587e+00	-1.6556056635e+00
 6.1043274292e-01	 1.5029892896e+00	-1.5339233912e+00
 5.8380790978e-01	 1.5135300667e+00	-1.4631306117e+00
 5.5710129820e-01	 1.5235626281e+00	-1.4218545386e+00
 5.3032672989e-01	 1.5330878963e+00	-1.3898977737e+00
 6.6792487625e-01	 1.4905214314e+00	-1.8527021581e+00
 6.4132460070e-01	 1.5021586249e+00	-1.6474094811e+00
 6.1461378910e-01	 1.5132837368e+00	-1.5203310491e+00
 5.8780659410e-01	 1.5238967110e+00	-1.4487048817e+00
 5.6091706051e-01	 1.5339979886e+00	-1.4108236925e+00
 5.3395910475e-01	 1.5435884983e+00	-1.3861652337e+00
 6.7246858290e-01	 1.5006610330e+00	-1.8271888246e+00
 6.4568735308e-01	 1.5123773910e+00	-1.6120951568e+00
 6.1879483529e-01	 1.5235781840e+00	-1.4801948691e+00
 5.9180527841e-01	 1.5342633553e+00	-1.4084088208e+00
 5.6473282283e-01	 1.5444333491e+00	-1.3747265687e+00
 5.3759147961e-01	 1.5540891004e+00	-1.3583357856e+00
 6.7701228954e-01	 1.5108006345e+00	-1.7738021420e+00
 6.5005010547e-01	 1.5225961572e+00	-1.5492972698e+00
 6.2297588147e-01	 1.5338726312e+00	-1.4130352234e+00
 5.9580396272e-01	 1.5446299996e+00	-1.3416477771e+00
 5.6854858515e-01	 1.5548687095e+00	-1.3128532049e+00
 5.4122385448e-01	 1.5645897024e+00	-1.3055846266e+00
 6.8155599618e-01	 1.5209402361e+00	-1.6923508969e+00
 6.5441285785e-01	 1.5328149234e+00	-1.4587123355e+00
 6.2715692766e-01	 1.5441670784e+00	-1.3184348375e+00
 5.9980264704e-01	 1.5549966439e+00	-1.2478894477e+00
 5.7236434746e-01	 1.5653040700e+00	-1.2245555427e+00
 5.4485622934e-01	 1.5750903044e+00	-1.2271479579e+00
 5.2669435503e-01	 1.5225872943e+00	-1.3704206017e+00
 5.0004926367e-01	 1.5315448887e+00	-1.2267581833e+00
 4.7336367742e-01	 1.5400018965e+00	-1.1396931660e+00
 4.4665082884e-01	 1.5479606098e+00	-1.0914203003e+00
 4.1992375027e-01	 1.5554237546e+00	-1.0653399816e+00
 3.9319525769e-01	 1.5623944770e+00	-1.0460611087e+00
 5.3032672989e-01	 1.5330878963e+00	-1.3898977737e+00
 5.0349787928e-01	 1.5421072673e+00	-1.2479648919e+00
 4.7662825451e-01	 1.5506225992e+00	-1.1584327083e+00
 4.4973117939e-01	 1.5586362002e+00	-1.1034321563e+00
 4.2281977613e-01	 1.5661508150e+00	-1.0662966305e+00
 3.9590694912e-01	 1.5731696113e+00	-1.0315547229e+00
 5.3395910475e-01	 1.5435884983e+00	-1.3861652337e+00
 5.0694649489e-01	 1.5526696458e+00	-1.2487089240e+00
 4.7989283160e-01	 1.5612433020e+00	-1.1597910296e+00
 4.5281152993e-01	 1.5693117906e+00	-1.1015170155e+00
 4.2571580200e-01	 1.5768778753e+00	-1.0571931067e+00
 3.9861864055e-01	 1.5839447456e+00	-1.0113082971e+00
 5.3759147961e-01	 1.5540891004e+00	-1.3583357856e+00
 5.1039511050e-01	 1.5632320244e+00	-1.2279615742e+00
 4.8315740868e-01	 1.5718640047e+00	-1.1425991039e+00
 4.5589188047e-01	 1.5799873810e+00	-1.0843681651e+00
 4.2861182786e-01	 1.5876049357e+00	-1.0365892698e+00
 4.0133033198e-01	 1.5947198799e+00	-9.8375430894e-01
 5.4122385448e-01	 1.5645897024e+00	-1.3055846266e+00
 5.1384372611e-01	 1.5737944029e+00	-1.1847557943e+00
 4.8642198577e-01	 1.5824847074e+00	-1.1057484253e+00
 4.5897223102e-01	 1.5906629714e+00	-1.0507378835e+00
 4.3150785373e-01	 1.5983319961e+00	-1.0031020629e+00
 4.0404202341e-01	 1.6054950143e+00	-9.4738005193e-01
 5.4485622934e-01	 1.5750903044e+00	-1.2271479579e+00
 5.1729234172e-01	 1.5843567815e+00	-1.1181849495e+00
 4.8968656285e-01	 1.5931054102e+00	-1.0481899021e+00
 4.6205258156e-01	 1.6013385618e+00	-9.9943646067e-01
 4.3440387959e-01	 1.6090590565e+00	-9.5540464928e-01
 4.0675371485e-01	 1.6162701486e+00	-9.0072688078e-01
 3.9319525769e-01	 1.5623944770e+00	-1.0460611087e+00
 3.6647793545e-01	 1.5688763288e+00	-9.3562965568e-01
 3.3978412199e-01	 1.5748732529e+00	-8.3317584616e-01
 3.1312589650e-01	 1.5803895676e+00	-7.9237936178e-01
 2.8651506661e-01	 1.5854299508e+00	-8.2553109302e-01
 2.5996315697e-01	 1.5899994243e+00	-9.4730411566e-01
 3.9590694912e-01	 1.5731696113e+00	-1.0315547229e+00
 3.6900536948e-01	 1.5796961656e+00	-9.1408596695e-01
 3.4212746076e-01	 1.5857344478e+00	-7.9620559501e-01
 3.1528538545e-01	 1.5912888060e+00	-7.4240582824e-01
 2.8849103258e-01	 1.5963639505e+00	-7.6553650118e-01
 2.6175600633e-01	 1.6009649376e+00	-8.8074686946e-01
 3.9861864055e-01	 1.5839447456e+00	-1.0113082971e+00
 3.7153280352e-01	 1.5905160023e+00	-8.9198549043e-01
 3.4447079953e-01	 1.5965956426e+00	-7.6336797066e-01
 3.1744487439e-01	 1.6021880444e+00	-7.0101167777e-01
 2.9046699856e-01	 1.6072979501e+00	-7.1844035960e-01
 2.6354885569e-01	 1.6119304509e+00	-8.3126500564e-01
 4.0133033198e-01	 1.5947198799e+00	-9.8375430894e-01
 3.7406023756e-01	 1.6013358391e+00	-8.6679280692e-01
 3.4681413830e-01	 1.6074568375e+00	-7.3296856039e-01
 3.1960436333e-01	 1.6130872828e+00	-6.6657667755e-01
 2.9244296454e-01	 1.6182319498e+00	-6.8272918368e-01
 2.6534170505e-01	 1.6228959641e+00	-7.9748283522e-01
 4.0404202341e-01	 1.6054950143e+00	-9.4738005193e-01
 3.7658767160e-01	 1.6121556758e+00	-8.3672220648e-01
 3.4915747708e-01	 1.6183180323e+00	-7.0333416484e-01
 3.2176385227e-01	 1.6239865212e+00	-6.3749166114e-01
 2.9441893051e-01	 1.6291659495e+00	-6.5689201765e-01
 2.6713455441e-01	 1.6338614774e+00	-7.7802023622e-01
 4.0675371485e-01	 1.6162701486e+00	-9.0072688078e-01
 3.7911510563e-01	 1.6229755126e+00	-8.0020314137e-01
 3.5150081585e-01	 1.6291792272e+00	-6.7281446525e-01
 3.2392334121e-01	 1.6348857596e+00	-6.1215992364e-01
 2.9639489649e-01	 1.6400999491e+00	-6.3942158662e-01
 2.6892740376e-01	 1.6448269907e+00	-7.7149359129e-01
 2.5996315697e-01	 1.5899994243e+00	-9.4730411566e-01
 2.3348139898e-01	 1.5941033369e+00	-7.9304287912e-01
 2.0708072135e-01	 1.5977473477e+00	-6.8217138279e-01
 1.8077174172e-01	 1.6009374097e+00	-6.3475007443e-01
 1.5456475929e-01	 1.6036797522e+00	-6.7140062059e-01
 1.2846974831e-01	 1.6059808642e+00	-8.1297922019e-01
 2.6175600633e-01	 1.6009649376e+00	-8.8074686946e-01
 2.3509161553e-01	 1.6050971530e+00	-7.2013156275e-01
 2.0850886425e-01	 1.6087662950e+00	-6.0060487381e-01
 1.8201844339e-01	 1.6119783573e+00	-5.4275442218e-01
 1.5563072315e-01	 1.6147396125e+00	-5.6769559069e-01
 1.2935574657e-01	 1.6170565943e+00	-6.9676158355e-01
 2.6354885569e-01	 1.6119304509e+00	-8.3126500564e-01
 2.3670183207e-01	 1.6160909691e+00	-6.6944486573e-01
 2.0993700716e-01	 1.6197852422e+00	-5.4629054401e-01
 1.8326514506e-01	 1.6230193050e+00	-4.8286872964e-01
 1.5669668701e-01	 1.6257994729e+00	-5.0073313518e-01
 1.3024174484e-01	 1.6281323244e+00	-6.2163300588e-01
 2.6534170505e-01	 1.6228959641e+00	-7.9748283522e-01
 2.3831204862e-01	 1.6270847852e+00	-6.3975067046e-01
 2.1136515006e-01	 1.6308041894e+00	-5.1816433431e-01
 1.8451184672e-01	 1.6340602526e+00	-4.5421830657e-01
 1.5776265086e-01	 1.6368593333e+00	-4.6984562732e-01
 1.3112774310e-01	 1.6392080545e+00	-5.8714663526e-01
 2.6713455441e-01	 1.6338614774e+00	-7.7802023622e-01
 2.3992226516e-01	 1.6380786014e+00	-6.2980760984e-01
 2.1279329297e-01	 1.6418231366e+00	-5.1514962247e-01
 1.8575854839e-01	 1.6451012003e+00	-4.5591400600e-01
 1.5882861472e-01	 1.6479191936e+00	-4.7435041431e-01
 1.3201374136e-01	 1.6502837846e+00	-5.9284124169e-01
 2.6892740376e-01	 1.6448269907e+00	-7.7149359129e-01
 2.4153248171e-01	 1.6490724175e+00	-6.3836579792e-01
 2.1422143588e-01	 1.6528420839e+00	-5.3615777284e-01
 1.8700525006e-01	 1.6561421480e+00	-4.8705261813e-01
 1.5989457858e-01	 1.6589790540e+00	-5.1355007955e-01
 1.3289973963e-01	 1.6613595147e+00	-6.3824137057e-01
 1.2846974831e-01	 1.6059808642e+00	-8.1297922019e-01
 1.0249635257e-01	 1.6078474772e+00	-6.5877880931e-01
 7.6653880835e-02	 1.6092865484e+00	-5.6428766300e-01
 5.0951303122e-02	 1.6103052434e+00	-5.5208565291e-01
 2.5397247878e-02	 1.6109109200e+00	-6.4415524483e-01
 0.0000000000e+00	 1.6111111111e+00	-8.6167180961e-01
 1.2935574657e-01	 1.6170565943e+00	-6.9676158355e-01
 1.0320322397e-01	 1.6189360805e+00	-5.3511041195e-01
 7.7182528289e-02	 1.6203850763e+00	-4.3263534369e-01
 5.1302691420e-02	 1.6214107968e+00	-4.1257037109e-01
 2.5572401311e-02	 1.6220206505e+00	-4.9760855139e-01
 0.0000000000e+00	 1.6222222222e+00	-7.0970935819e-01
 1.3024174484e-01	 1.6281323244e+00	-6.2163300588e-01
 1.0391009536e-01	 1.6300246838e+00	-4.5739719024e-01
 7.7711175743e-02	 1.6314836043e+00	-3.5139098706e-01
 5.1654079717e-02	 1.6325163502e+00	-3.2743427018e-01
 2.5747554745e-02	 1.6331303810e+00	-4.0886390933e-01
 0.0000000000e+00	 1.6333333333e+00	-6.1835980209e-01
 1.3112774310e-01	 1.6392080545e+00	-5.8714663526e-01
 1.0461696676e-01	 1.6411132871e+00	-4.2540485440e-01
 7.8239823197e-02	 1.6425821322e+00	-3.2053771096e-01
 5.2005468014e-02	 1.6436219037e+00	-2.9687809790e-01
 2.5922708179e-02	 1.6442401114e+00	-3.7833521869e-01
 0.0000000000e+00	 1.6444444444e+00	-5.8824100937e-01
 1.3201374136e-01	 1.6502837846e+00	-5.9284124169e-01
 1.0532383816e-01	 1.6522018904e+00	-4.3888695894e-01
 7.8768470651e-02	 1.6536806601e+00	-3.4004967852e-01
 5.2356856312e-02	 1.6547274571e+00	-3.2109769551e-01
 2.6097861612e-02	 1.6553498419e+00	-4.0643623288e-01
 0.0000000000e+00	 1.6555555556e+00	-6.1997603402e-01
 1.3289973963e-01	 1.6613595147e+00	-6.3824137057e-01
 1.0603070955e-01	 1.6632904937e+00	-4.9758495330e-01
 7.9297118105e-02	 1.6647791880e+00	-4.0989206623e-01
 5.2708244609e-02	 1.6658330105e+00	-4.0028390219e-01
 2.6273015046e-02	 1.6664595724e+00	-4.9358041655e-01
 0.0000000000e+00	 1.6666666667e+00	-7.1419294313e-01
 1.6666666667e+00	 0.0000000000e+00	 3.6699245634e+00
 1.6664595724e+00	 2.6273015046e-02	 3.6140939840e+00
 1.6658330105e+00	 5.2708244609e-02	 3.5878849361e+00
 1.6647791880e+00	 7.9297118105e-02	 3.5712499164e+00
 1.6632904937e+00	 1.0603070955e-01	 3.5434651061e+00
 1.6613595147e+00	 1.3289973963e-01	 3.4832140895e+00
 1.6777777778e+00	 0.0000000000e+00	 3.5208209115e+00
 1.6775693029e+00	 2.6448168480e-02	 3.4737863739e+00
 1.6769385639e+00	 5.3059632907e-02	 3.4570947674e+00
 1.6758777159e+00	 7.9825765559e-02	 3.4505523280e+00
 1.6743790970e+00	 1.0673758095e-01	 3.4333527221e+00
 1.6724352448e+00	 1.3378573789e-01	 3.3841329961e+00
 1.6888888889e+00	 0.0000000000e+00	 3.4341783396e+00
 1.6886790334e+00	 2.6623321913e-02	 3.3919527964e+00
 1.6880441173e+00	 5.3411021204e-02	 3.3802764007e+00
 1.6869762439e+00	 8.0354413014e-02	 3.3788891914e+00
 1.6854677003e+00	 1.0744445235e-01	 3.3669869659e+00
 1.6835109749e+00	 1.3467173616e-01	 3.3232475350e+00
 1.7000000000e+00	 0.0000000000e+00	 3.4101091588e+00
 1.6997887639e+00	 2.6798475347e-02	 3.3685895030e+00
 1.6991496707e+00	 5.3762409501e-02	 3.3572954040e+00
 1.6980747718e+00	 8.0883060468e-02	 3.3559857387e+00
 1.6965563036e+00	 1.0815132375e-01	 3.3439481909e+00
 1.6945867050e+00	 1.3555773442e-01	 3.2999938194e+00
 1.7111111111e+00	 0.0000000000e+00	 3.4487278060e+00
 1.7108984943e+00	 2.6973628781e-02	 3.4036942200e+00
 1.7102552241e+00	 5.4113797799e-02	 3.3880182029e+00
 1.7091732997e+00	 8.1411707922e-02	 3.3815676103e+00
 1.7076449069e+00	 1.0885819514e-01	 3.3638170182e+00
 1.7056624351e+00	 1.3644373269e-01	 3.3138085365e+00
 1.7222222222e+00	 0.0000000000e+00	 3.5501507757e+00
 1.7220082248e+00	 2.7148782214e-02	 3.4972660810e+00
 1.7213607775e+00	 5.4465186096e-02	 3.4723120175e+00
 1.7202718276e+00	 8.1940355376e-02	 3.4553608049e+00
 1.7187335101e+00	 1.0956506654e-01	 3.4261743065e+00
 1.7167381652e+00	 1.3732973095e-01	 3.3641289466e+00
 1.6613595147e+00	 1.3289973963e-01	 3.4832140895e+00
 1.6589790540e+00	 1.5989457858e-01	 3.4059081920e+00
 1.6561421480e+00	 1.8700525006e-01	 3.3434351764e+00
 1.6528420839e+00	 2.1422143588e-01	 3.2744995265e+00
 1.6490724175e+00	 2.4153248171e-01	 3.1775782794e+00
 1.6448269907e+00	 2.6892740376e-01	 3.0311892273e+00
 1.6724352448e+00	 1.3378573789e-01	 3.3841329961e+00
 1.6700389143e+00	 1.6096054244e-01	 3.3170527951e+00
 1.6671830956e+00	 1.8825195172e-01	 3.2659670809e+00
 1.6638610311e+00	 2.1564957878e-01	 3.2094714750e+00
 1.6600662336e+00	 2.4314269825e-01	 3.1258423932e+00
 1.6557925040e+00	 2.7072025312e-01	 2.9932747087e+00
 1.6835109749e+00	 1.3467173616e-01	 3.3232475350e+00
 1.6810987747e+00	 1.6202650629e-01	 3.2606969482e+00
 1.6782240433e+00	 1.8949865339e-01	 3.2152027573e+00
 1.6748799783e+00	 2.1707772169e-01	 3.1653339876e+00
 1.6710600497e+00	 2.4475291479e-01	 3.0892425811e+00
 1.6667580172e+00	 2.7251310248e-01	 2.9648682251e+00
 1.6945867050e+00	 1.3555773442e-01	 3.2999938194e+00
 1.6921586351e+00	 1.6309247015e-01	 3.2361377462e+00
 1.6892649909e+00	 1.9074535506e-01	 3.1903113976e+00
 1.6858989255e+00	 2.1850586459e-01	 3.1411443964e+00
 1.6820538658e+00	 2.4636313134e-01	 3.0667450362e+00
 1.6777235305e+00	 2.7430595184e-01	 2.9448698905e+00
 1.7056624351e+00	 1.3644373269e-01	 3.3138085365e+00
 1.7032184954e+00	 1.6415843401e-01	 3.2426737650e+00
 1.7003059386e+00	 1.9199205673e-01	 3.1904652972e+00
 1.6969178728e+00	 2.1993400750e-01	 3.1359656069e+00
 1.6930476819e+00	 2.4797334788e-01	 3.0573249660e+00
 1.6886890438e+00	 2.7609880120e-01	 2.9321933650e+00
 1.7167381652e+00	 1.3732973095e-01	 3.3641289466e+00
 1.7142783558e+00	 1.6522439786e-01	 3.2796051007e+00
 1.7113468862e+00	 1.9323875839e-01	 3.2148399468e+00
 1.7079368200e+00	 2.2136215040e-01	 3.1488662560e+00
 1.7040414981e+00	 2.4958356443e-01	 3.0599668341e+00
 1.6996545570e+00	 2.7789165056e-01	 2.9257661949e+00
 1.6448269907e+00	 2.6892740376e-01	 3.0311892273e+00
 1.6400999491e+00	 2.9639489649e-01	 2.9342006499e+00
 1.6348857596e+00	 3.2392334121e-01	 2.8499577282e+00
 1.6291792272e+00	 3.5150081585e-01	 2.7601242361e+00
 1.6229755126e+00	 3.7911510563e-01	 2.6466952043e+00
 1.6162701486e+00	 4.0675371485e-01	 2.4798929676e+00
 1.6557925040e+00	 2.7072025312e-01	 2.9932747087e+00
 1.6510339488e+00	 2.9837086247e-01	 2.9042905733e+00
 1.6457849980e+00	 3.2608283015e-01	 2.8290606091e+00
 1.6400404220e+00	 3.5384415462e-01	 2.7484792418e+00
 1.6337953493e+00	 3.8164253967e-01	 2.6426048463e+00
 1.6270452829e+00	 4.0946540628e-01	 2.4819739855e+00
 1.6667580172e+00	 2.7251310248e-01	 2.9648682251e+00
 1.6619679484e+00	 3.0034682844e-01	 2.8788802870e+00
 1.6566842363e+00	 3.2824231909e-01	 2.8078637752e+00
 1.6509016169e+00	 3.5618749339e-01	 2.7319722663e+00
 1.6446151861e+00	 3.8416997371e-01	 2.6292155785e+00
 1.6378204172e+00	 4.1217709771e-01	 2.4712953500e+00
 1.6777235305e+00	 2.7430595184e-01	 2.9448698905e+00
 1.6729019481e+00	 3.0232279442e-01	 2.8568242504e+00
 1.6675834747e+00	 3.3040180803e-01	 2.7852087965e+00
 1.6617628117e+00	 3.5853083217e-01	 2.7094676004e+00
 1.6554350228e+00	 3.8669740775e-01	 2.6055133137e+00
 1.6485955516e+00	 4.1488878914e-01	 2.4469746755e+00
 1.6886890438e+00	 2.7609880120e-01	 2.9321933650e+00
 1.6838359478e+00	 3.0429876040e-01	 2.8369964197e+00
 1.6784827131e+00	 3.3256129698e-01	 2.7599639743e+00
 1.6726240066e+00	 3.6087417094e-01	 2.6798648676e+00
 1.6662548596e+00	 3.8922484178e-01	 2.5705329359e+00
 1.6593706859e+00	 4.1760048058e-01	 2.4081798016e+00
 1.6996545570e+00	 2.7789165056e-01	 2.9257661949e+00
 1.6947699474e+00	 3.0627472637e-01	 2.8182906987e+00
 1.6893819515e+00	 3.3472078592e-01	 2.7310249225e+00
 1.6834852014e+00	 3.6321750971e-01	 2.6420997558e+00
 1.6770746963e+00	 3.9175227582e-01	 2.5233573146e+00
 1.6701458202e+00	 4.2031217201e-01	 2.3541276518e+00
 1.6162701486e+00	 4.0675371485e-01	 2.4798929676e+00
 1.6090590565e+00	 4.3440387959e-01	 2.3408113862e+00
 1.6013385618e+00	 4.6205258156e-01	 2.1793499535e+00
 1.5931054102e+00	 4.8968656285e-01	 2.0114297959e+00
 1.5843567815e+00	 5.1729234172e-01	 1.8541801953e+00
 1.5750903044e+00	 5.4485622934e-01	 1.7259611636e+00
 1.6270452829e+00	 4.0946540628e-01	 2.4819739855e+00
 1.6197861168e+00	 4.3729990545e-01	 2.3483940430e+00
 1.6120141523e+00	 4.6513293210e-01	 2.1931474852e+00
 1.6037261129e+00	 4.9295113994e-01	 2.0320201943e+00
 1.5949191600e+00	 5.2074095733e-01	 1.8819797980e+00
 1.5855909065e+00	 5.4848860420e-01	 1.7612097885e+00
 1.6378204172e+00	 4.1217709771e-01	 2.4712953500e+00
 1.6305131772e+00	 4.4019593132e-01	 2.3397841658e+00
 1.6226897427e+00	 4.6821328265e-01	 2.1878044963e+00
 1.6143468156e+00	 4.9621571702e-01	 2.0309543402e+00
 1.6054815386e+00	 5.2418957295e-01	 1.8859895195e+00
 1.5960915085e+00	 5.5212097906e-01	 1.7708700002e+00
 1.6485955516e+00	 4.1488878914e-01	 2.4469746755e+00
 1.6412402376e+00	 4.4309195718e-01	 2.3142476608e+00
 1.6333653331e+00	 4.7129363319e-01	 2.1627397569e+00
 1.6249675184e+00	 4.9948029411e-01	 2.0078066877e+00
 1.6160439171e+00	 5.2763818856e-01	 1.8659408282e+00
 1.6065921105e+00	 5.5575335393e-01	 1.7548304012e+00
 1.6593706859e+00	 4.1760048058e-01	 2.4081798016e+00
 1.6519672980e+00	 4.4598798304e-01	 2.2711010905e+00
 1.6440409235e+00	 4.7437398374e-01	 2.1174225426e+00
 1.6355882211e+00	 5.0274487120e-01	 1.9622014521e+00
 1.6266062956e+00	 5.3108680417e-01	 1.8216136139e+00
 1.6170927126e+00	 5.5938572879e-01	 1.7130260892e+00
 1.6701458202e+00	 4.2031217201e-01	 2.3541276518e+00
 1.6626943583e+00	 4.4888400891e-01	 2.2097103727e+00
 1.6547165139e+00	 4.7745433428e-01	 2.0513711605e+00
 1.6462089239e+00	 5.0600944828e-01	 1.8938109515e+00
 1.6371686742e+00	 5.3453541978e-01	 1.7528343338e+00
 1.6275933146e+00	 5.6301810365e-01	 1.6454365955e+00
 1.5750903044e+00	 5.4485622934e-01	 1.7259611636e+00
 1.5653040700e+00	 5.7236434746e-01	 1.5240735557e+00
 1.5549966439e+00	 5.9980264704e-01	 1.3342309337e+00
 1.5441670784e+00	 6.2715692766e-01	 1.1780933444e+00
 1.5328149234e+00	 6.5441285785e-01	 1.0784399542e+00
 1.5209402361e+00	 6.8155599618e-01	 1.0590028571e+00
 1.5855909065e+00	 5.4848860420e-01	 1.7612097885e+00
 1.5757394305e+00	 5.7618010978e-01	 1.5660758272e+00
 1.5653632881e+00	 6.0380133135e-01	 1.3765883063e+00
 1.5544615255e+00	 6.3133797384e-01	 1.2144035748e+00
 1.5430336895e+00	 6.5877561024e-01	 1.1023277141e+00
 1.5310798377e+00	 6.8609970282e-01	 1.0641489073e+00
 1.5960915085e+00	 5.5212097906e-01	 1.7708700002e+00
 1.5861747909e+00	 5.7999587209e-01	 1.5825535596e+00
 1.5757299324e+00	 6.0780001566e-01	 1.3938271817e+00
 1.5647559727e+00	 6.3551902002e-01	 1.2263072404e+00
 1.5532524557e+00	 6.6313836263e-01	 1.1027946575e+00
 1.5412194393e+00	 6.9064340946e-01	 1.0471057537e+00
 1.6065921105e+00	 5.5575335393e-01	 1.7548304012e+00
 1.5966101514e+00	 5.8381163441e-01	 1.5735208985e+00
 1.5860965767e+00	 6.1179869998e-01	 1.3860840837e+00
 1.5750504199e+00	 6.3970006621e-01	 1.2140597978e+00
 1.5634712218e+00	 6.6750111501e-01	 1.0802117555e+00
 1.5513590408e+00	 6.9518711610e-01	 1.0083567870e+00
 1.6170927126e+00	 5.5938572879e-01	 1.7130260892e+00
 1.6070455119e+00	 5.8762739673e-01	 1.5390367874e+00
 1.5964632210e+00	 6.1579738429e-01	 1.3535381400e+00
 1.5853448671e+00	 6.4388111239e-01	 1.1779566533e+00
 1.5736899880e+00	 6.7186386740e-01	 1.0349868588e+00
 1.5614986424e+00	 6.9973082274e-01	 9.4841884680e-01
 1.6275933146e+00	 5.6301810365e-01	 1.6454365955e+00
 1.6174808723e+00	 5.9144315904e-01	 1.4792026645e+00
 1.6068298653e+00	 6.1979606860e-01	 1.2964085256e+00
 1.5956393143e+00	 6.4806215858e-01	 1.1183303421e+00
 1.5839087541e+00	 6.7622661978e-01	 9.6756160497e-01
 1.5716382440e+00	 7.0427452938e-01	 8.6783884889e-01
 1.5209402361e+00	 6.8155599618e-01	 1.0590028571e+00
 1.5085435902e+00	 7.0857181299e-01	 7.4803656296e-01
 1.4956260833e+00	 7.3544571292e-01	 4.8208011569e-01
 1.4821893438e+00	 7.6216305800e-01	 2.7812236785e-01
 1.4682355361e+00	 7.8870919122e-01	 1.7028726147e-01
 1.4537673652e+00	 8.1506946068e-01	 2.0839215095e-01
 1.5310798377e+00	 6.8609970282e-01	 1.0641489073e+00
 1.5186005475e+00	 7.1329562507e-01	 7.6456887987e-01
 1.5055969239e+00	 7.4034868434e-01	 5.1373628524e-01
 1.4920706061e+00	 7.6724414505e-01	 3.2357163922e-01
 1.4780237730e+00	 7.9396725250e-01	 1.9313962538e-01
 1.4634591476e+00	 8.2050325709e-01	 1.9166063548e-01
 1.5412194393e+00	 6.9064340946e-01	 1.0471057537e+00
 1.5286575048e+00	 7.1801943716e-01	 7.5649202078e-01
 1.5155677644e+00	 7.4525165576e-01	 5.1807567931e-01
 1.5019518684e+00	 7.7232523211e-01	 3.3977221970e-01
 1.4878120099e+00	 7.9922531377e-01	 2.2216445577e-01
 1.4731509300e+00	 8.2593705349e-01	 1.8601105128e-01
 1.5513590408e+00	 6.9518711610e-01	 1.0083567870e+00
 1.5387144620e+00	 7.2274324924e-01	 7.2447525562e-01
 1.5255386050e+00	 7.5015462718e-01	 4.9568657971e-01
 1.5118331307e+00	 7.7740631916e-01	 3.2797190109e-01
 1.4976002468e+00	 8.0448337505e-01	 2.2468960843e-01
 1.4828427125e+00	 8.3137084990e-01	 1.9108937158e-01
 1.5614986424e+00	 6.9973082274e-01	 9.4841884680e-01
 1.5487714193e+00	 7.2746706133e-01	 6.6921560223e-01
 1.5355094455e+00	 7.5505759860e-01	 4.4772423922e-01
 1.5217143929e+00	 7.8248740621e-01	 2.8937197171e-01
 1.5073884837e+00	 8.0974143632e-01	 1.9908724873e-01
 1.4925344949e+00	 8.3680464630e-01	 1.8185914849e-01
 1.5716382440e+00	 7.0427452938e-01	 8.6783884889e-01
 1.5588283766e+00	 7.3219087342e-01	 5.9143423027e-01
 1.5454802861e+00	 7.5996057002e-01	 3.7530283078e-01
 1.5315956552e+00	 7.8756849327e-01	 2.2512822833e-01
 1.5171767206e+00	 8.1499949760e-01	 1.4655805882e-01
 1.5022262773e+00	 8.4223844271e-01	 1.4432689302e-01
 1.4537673652e+00	 8.1506946068e-01	 2.0839215095e-01
 1.4387880792e+00	 8.4122924406e-01	-6.2038783364e-02
 1.4233014711e+00	 8.6717397341e-01	-2.7579376773e-01
 1.4073118792e+00	 8.9288916023e-01	-4.5187865866e-01
 1.3908241857e+00	 9.1836042069e-01	-6.1333754484e-01
 1.3738438144e+00	 9.4357350082e-01	-7.8622980705e-01
 1.4634591476e+00	 8.2050325709e-01	 1.9166063548e-01
 1.4483799997e+00	 8.4683743902e-01	-9.1729681624e-02
 1.4327901476e+00	 8.7295513323e-01	-3.1104186769e-01
 1.4166939584e+00	 8.9884175464e-01	-4.8533022108e-01
 1.4000963469e+00	 9.2448282349e-01	-6.3801475075e-01
 1.3830027731e+00	 9.4986399083e-01	-7.9583202920e-01
 1.4731509300e+00	 8.2593705349e-01	 1.8601105128e-01
 1.4579719202e+00	 8.5244563398e-01	-1.1274156420e-01
 1.4422788240e+00	 8.7873629305e-01	-3.3987718659e-01
 1.4260760376e+00	 9.0479434904e-01	-5.1447218205e-01
 1.4093685082e+00	 9.3060522630e-01	-6.6031381451e-01
 1.3921617319e+00	 9.5615448084e-01	-8.0482458884e-01
 1.4828427125e+00	 8.3137084990e-01	 1.9108937158e-01
 1.4675638407e+00	 8.5805382894e-01	-1.2505106961e-01
 1.4517675005e+00	 8.8451745287e-01	-3.6228717346e-01
 1.4354581168e+00	 9.1074694344e-01	-5.3928657876e-01
 1.4186406694e+00	 9.3672762910e-01	-6.8019435271e-01
 1.4013206907e+00	 9.6244497084e-01	-8.1312757595e-01
 1.4925344949e+00	 8.3680464630e-01	 1.8185914849e-01
 1.4771557613e+00	 8.6366202390e-01	-1.2862393252e-01
 1.4612561770e+00	 8.9029861270e-01	-3.7825130309e-01
 1.4448401960e+00	 9.1669953784e-01	-5.5974938927e-01
 1.4279128306e+00	 9.4285003191e-01	-6.9761079184e-01
 1.4104796494e+00	 9.6873546085e-01	-8.2065569869e-01
 1.5022262773e+00	 8.4223844271e-01	 1.4432689302e-01
 1.4867476818e+00	 8.6927021886e-01	-1.2879981307e-01
 1.4707448535e+00	 8.9607977252e-01	-3.8774616270e-01
 1.4542222752e+00	 9.2265213224e-01	-5.7583566418e-01
 1.4371849919e+00	 9.4897243471e-01	-7.1251752362e-01
 1.4196386082e+00	 9.7502595085e-01	-8.2732344060e-01
 1.3738438144e+00	 9.4357350082e-01	-7.8622980705e-01
 1.3563767268e+00	 9.6851430186e-01	-8.3859946889e-01
 1.3384294166e+00	 9.9316890529e-01	-9.2229293087e-01
 1.3200089036e+00	 1.0175235979e+00	-1.0677228759e+00
 1.3011227247e+00	 1.0415648962e+00	-1.3023823801e+00
 1.2817789254e+00	 1.0652795709e+00	-1.6489282118e+00
 1.3830027731e+00	 9.4986399083e-01	-7.9583202920e-01
 1.3654192383e+00	 9.7497106387e-01	-8.5018448048e-01
 1.3473522794e+00	 9.9979003133e-01	-9.3225818267e-01
 1.3288089630e+00	 1.0243070885e+00	-1.0735684376e+00
 1.3097968762e+00	 1.0485086621e+00	-1.3028022354e+00
 1.2903241182e+00	 1.0723814347e+00	-1.6438279029e+00
 1.3921617319e+00	 9.5615448084e-01	-8.0482458884e-01
 1.3744617498e+00	 9.8142782588e-01	-8.6129619556e-01
 1.3562751422e+00	 1.0064111574e+00	-9.4177944443e-01
 1.3376090223e+00	 1.0310905792e+00	-1.0789494780e+00
 1.3184710277e+00	 1.0554524281e+00	-1.3027565326e+00
 1.2988693111e+00	 1.0794832985e+00	-1.6383596356e+00
 1.4013206907e+00	 9.6244497084e-01	-8.1312757595e-01
 1.3835042613e+00	 9.8788458790e-01	-8.7182796373e-01
 1.3651980050e+00	 1.0130322834e+00	-9.5070826637e-01
 1.3464090817e+00	 1.0378740698e+00	-1.0836625372e+00
 1.3271451792e+00	 1.0623961941e+00	-1.3019760359e+00
 1.3074145039e+00	 1.0865851623e+00	-1.6321806200e+00
 1.4104796494e+00	 9.6873546085e-01	-8.2065569869e-01
 1.3925467728e+00	 9.9434134991e-01	-8.8166574125e-01
 1.3741208678e+00	 1.0196534094e+00	-9.5888574877e-01
 1.3552091410e+00	 1.0446575605e+00	-1.0874896406e+00
 1.3358193307e+00	 1.0693399601e+00	-1.3001719737e+00
 1.3159596967e+00	 1.0936870261e+00	-1.6249226218e+00
 1.4196386082e+00	 9.7502595085e-01	-8.2732344060e-01
 1.4015892843e+00	 1.0007981119e+00	-8.9069325283e-01
 1.3830437305e+00	 1.0262745355e+00	-9.6614768704e-01
 1.3640092004e+00	 1.0514410511e+00	-1.0902034056e+00
 1.3444934822e+00	 1.0762837260e+00	-1.2970410873e+00
 1.3245048896e+00	 1.1007888899e+00	-1.6161969322e+00
 1.2817789254e+00	 1.0652795709e+00	-1.6489282118e+00
 1.2619860481e+00	 1.0886546707e+00	-1.4886525466e+00
 1.2417531207e+00	 1.1116775454e+00	-1.4854861348e+00
 1.2210896427e+00	 1.1343358684e+00	-1.5826807546e+00
 1.2000055705e+00	 1.1566176587e+00	-1.7183919482e+00
 1.1785113020e+00	 1.1785113020e+00	-1.8793333600e+00
 1.2903241182e+00	 1.0723814347e+00	-1.6438279029e+00
 1.2703992884e+00	 1.0959123686e+00	-1.5051721297e+00
 1.2500314748e+00	 1.1190887291e+00	-1.5192636667e+00
 1.2292302403e+00	 1.1418981075e+00	-1.6063945753e+00
 1.2080056077e+00	 1.1643284431e+00	-1.7325289998e+00
 1.1863680440e+00	 1.1863680440e+00	-1.8849127045e+00
 1.2988693111e+00	 1.0794832985e+00	-1.6383596356e+00
 1.2788125288e+00	 1.1031700664e+00	-1.5230242421e+00
 1.2583098290e+00	 1.1264999127e+00	-1.5451356675e+00
 1.2373708379e+00	 1.1494603466e+00	-1.6235317972e+00
 1.2160056448e+00	 1.1720392275e+00	-1.7413453529e+00
 1.1942247860e+00	 1.1942247860e+00	-1.8863665397e+00
 1.3074145039e+00	 1.0865851623e+00	-1.6321806200e+00
 1.2872257691e+00	 1.1104277642e+00	-1.5417604273e+00
 1.2665881831e+00	 1.1339110963e+00	-1.5627550518e+00
 1.2455114355e+00	 1.1570225858e+00	-1.6336508665e+00
 1.2240056820e+00	 1.1797500119e+00	-1.7443040366e+00
 1.2020815280e+00	 1.2020815280e+00	-1.8830605794e+00
 1.3159596967e+00	 1.0936870261e+00	-1.6249226218e+00
 1.2956390094e+00	 1.1176854620e+00	-1.5567877370e+00
 1.2748665373e+00	 1.1413222800e+00	-1.5718451492e+00
 1.2536520331e+00	 1.1645848249e+00	-1.6363815287e+00
 1.2320057191e+00	 1.1874607963e+00	-1.7409405947e+00
 1.2099382700e+00	 1.2099382700e+00	-1.8744345408e+00
 1.3245048896e+00	 1.1007888899e+00	-1.6161969322e+00
 1.3040522497e+00	 1.1249431598e+00	-1.5619845944e+00
 1.2831448914e+00	 1.1487334636e+00	-1.5721966297e+00
 1.2617926308e+00	 1.1721470640e+00	-1.6314218466e+00
 1.2400057562e+00	 1.1951715807e+00	-1.7308602082e+00
 1.2177950120e+00	 1.2177950120e+00	-1.8599993808e+00
 1.1785113020e+00	 1.1785113020e+00	-1.8793333600e+00
 1.1566176587e+00	 1.2000055705e+00	-1.9979590482e+00
 1.1343358684e+00	 1.2210896427e+00	-2.0690866363e+00
 1.1116775454e+00	 1.2417531207e+00	-2.0801484069e+00
 1.0886546707e+00	 1.2619860481e+00	-2.0094117345e+00
 1.0652795709e+00	 1.2817789254e+00	-1.8405339165e+00
 1.1863680440e+00	 1.1863680440e+00	-1.8849127045e+00
 1.1643284431e+00	 1.2080056077e+00	-1.9962110107e+00
 1.1418981075e+00	 1.2292302403e+00	-2.0629102424e+00
 1.1190887291e+00	 1.2500314748e+00	-2.0729185385e+00
 1.0959123686e+00	 1.2703992884e+00	-2.0107207449e+00
 1.0723814347e+00	 1.2903241182e+00	-1.8537485406e+00
 1.1942247860e+00	 1.1942247860e+00	-1.8863665397e+00
 1.1720392275e+00	 1.2160056448e+00	-1.9910586489e+00
 1.1494603466e+00	 1.2373708379e+00	-2.0539974439e+00
 1.1264999127e+00	 1.2583098290e+00	-2.0635775542e+00
 1.1031700664e+00	 1.2788125288e+00	-2.0086811985e+00
 1.0794832985e+00	 1.2988693111e+00	-1.8652098696e+00
 1.2020815280e+00	 1.2020815280e+00	-1.8830605794e+00
 1.1797500119e+00	 1.2240056820e+00	-1.9817756669e+00
 1.1570225858e+00	 1.2455114355e+00	-2.0415259793e+00
 1.1339110963e+00	 1.2665881831e+00	-2.0512020240e+00
 1.1104277642e+00	 1.2872257691e+00	-2.0018103213e+00
 1.0865851623e+00	 1.3074145039e+00	-1.8734130410e+00
 1.2099382700e+00	 1.2099382700e+00	-1.8744345408e+00
 1.1874607963e+00	 1.2320057191e+00	-1.9677112543e+00
 1.1645848249e+00	 1.2536520331e+00	-2.0247506893e+00
 1.1413222800e+00	 1.2748665373e+00	-2.0349473010e+00
 1.1176854620e+00	 1.2956390094e+00	-1.9899041491e+00
 1.0936870261e+00	 1.3159596967e+00	-1.8769329709e+00
 1.2177950120e+00	 1.2177950120e+00	-1.8599993808e+00
 1.1951715807e+00	 1.2400057562e+00	-1.9482874511e+00
 1.1721470640e+00	 1.2617926308e+00	-2.0030010175e+00
 1.1487334636e+00	 1.2831448914e+00	-2.0140451648e+00
 1.1249431598e+00	 1.3040522497e+00	-1.9736163801e+00
 1.1007888899e+00	 1.3245048896e+00	-1.8744281203e+00
 1.0652795709e+00	 1.2817789254e+00	-1.8405339165e+00
 1.0415648962e+00	 1.3011227247e+00	-2.0944239401e+00
 1.0175235979e+00	 1.3200089036e+00	-2.2181637548e+00
 9.9316890529e-01	 1.3384294166e+00	-2.2324044917e+00
 9.6851430186e-01	 1.3563767268e+00	-2.1634544198e+00
 9.4357350082e-01	 1.3738438144e+00	-2.0413625835e+00
 1.0723814347e+00	 1.2903241182e+00	-1.8537485406e+00
 1.0485086621e+00	 1.3097968762e+00	-2.1010561706e+00
 1.0243070885e+00	 1.3288089630e+00	-2.2180804851e+00
 9.9979003133e-01	 1.3473522794e+00	-2.2263210760e+00
 9.7497106387e-01	 1.3654192383e+00	-2.1530513212e+00
 9.4986399083e-01	 1.3830027731e+00	-2.0293162903e+00
 1.0794832985e+00	 1.2988693111e+00	-1.8652098696e+00
 1.0554524281e+00	 1.3184710277e+00	-2.1069197112e+00
 1.0310905792e+00	 1.3376090223e+00	-2.2181316526e+00
 1.0064111574e+00	 1.3562751422e+00	-2.2212723909e+00
 9.8142782588e-01	 1.3744617498e+00	-2.1446590090e+00
 9.5615448084e-01	 1.3921617319e+00	-2.0204078214e+00
 1.0865851623e+00	 1.3074145039e+00	-1.8734130410e+00
 1.0623961941e+00	 1.3271451792e+00	-2.1104823300e+00
 1.0378740698e+00	 1.3464090817e+00	-2.2167480222e+00
 1.0130322834e+00	 1.3651980050e+00	-2.2156471355e+00
 9.8788458790e-01	 1.3835042613e+00	-2.1366235480e+00
 9.6244497084e-01	 1.4013206907e+00	-2.0129443536e+00
 1.0936870261e+00	 1.3159596967e+00	-1.8769329709e+00
 1.0693399601e+00	 1.3358193307e+00	-2.1102827886e+00
 1.0446575605e+00	 1.3552091410e+00	-2.2124222775e+00
 1.0196534094e+00	 1.3741208678e+00	-2.2078867052e+00
 9.9434134991e-01	 1.3925467728e+00	-2.1273344666e+00
 9.6873546085e-01	 1.4104796494e+00	-2.0052674200e+00
 1.1007888899e+00	 1.3245048896e+00	-1.8744281203e+00
 1.0762837260e+00	 1.3444934822e+00	-2.1049343827e+00
 1.0514410511e+00	 1.3640092004e+00	-2.2037123311e+00
 1.0262745355e+00	 1.3830437305e+00	-2.1964882674e+00
 1.0007981119e+00	 1.4015892843e+00	-2.1152275984e+00
 9.7502595085e-01	 1.4196386082e+00	-1.9957555177e+00
 9.4357350082e-01	 1.3738438144e+00	-2.0413625835e+00
 9.1836042069e-01	 1.3908241857e+00	-2.0776555414e+00
 8.9288916023e-01	 1.4073118792e+00	-2.0654508574e+00
 8.6717397341e-01	 1.4233014711e+00	-2.0323504968e+00
 8.4122924406e-01	 1.4387880792e+00	-2.0031676704e+00
 8.1506946068e-01	 1.4537673652e+00	-1.9986419978e+00
 9.4986399083e-01	 1.3830027731e+00	-2.0293162903e+00
 9.2448282349e-01	 1.4000963469e+00	-2.0469555852e+00
 8.9884175464e-01	 1.4166939584e+00	-2.0242724256e+00
 8.7295513323e-01	 1.4327901476e+00	-1.9894998165e+00
 8.4683743902e-01	 1.4483799997e+00	-1.9678127675e+00
 8.2050325709e-01	 1.4634591476e+00	-1.9799913595e+00
 9.5615448084e-01	 1.3921617319e+00	-2.0204078214e+00
 9.3060522630e-01	 1.4093685082e+00	-2.0210885895e+00
 9.0479434904e-01	 1.4260760376e+00	-1.9898516874e+00
 8.7873629305e-01	 1.4422788240e+00	-1.9556080738e+00
 8.5244563398e-01	 1.4579719202e+00	-1.9439270988e+00
 8.2593705349e-01	 1.4731509300e+00	-1.9756454910e+00
 9.6244497084e-01	 1.4013206907e+00	-2.0129443536e+00
 9.3672762910e-01	 1.4186406694e+00	-1.9983238012e+00
 9.1074694344e-01	 1.4354581168e+00	-1.9604324000e+00
 8.8451745287e-01	 1.4517675005e+00	-1.9289092240e+00
 8.5805382894e-01	 1.4675638407e+00	-1.9297532411e+00
 8.3137084990e-01	 1.4828427125e+00	-1.9834000700e+00
 9.6873546085e-01	 1.4104796494e+00	-2.0052674200e+00
 9.4285003191e-01	 1.4279128306e+00	-1.9769561470e+00
 9.1669953784e-01	 1.4448401960e+00	-1.9342756728e+00
 8.9029861270e-01	 1.4612561770e+00	-1.9076467060e+00
 8.6366202390e-01	 1.4771557613e+00	-1.9235359456e+00
 8.3680464630e-01	 1.4925344949e+00	-1.9720857549e+00
 9.7502595085e-01	 1.4196386082e+00	-1.9957555177e+00
 9.4897243471e-01	 1.4371849919e+00	-1.9553086040e+00
 9.2265213224e-01	 1.4542222752e+00	-1.9096621048e+00
 8.9607977252e-01	 1.4707448535e+00	-1.8900753545e+00
 8.6927021886e-01	 1.4867476818e+00	-1.9173033718e+00
 8.4223844271e-01	 1.5022262773e+00	-1.9242706401e+00
 8.1506946068e-01	 1.4537673652e+00	-1.9986419978e+00
 7.8870919122e-01	 1.4682355361e+00	-1.7873335606e+00
 7.6216305800e-01	 1.4821893438e+00	-1.7030076863e+00
 7.3544571292e-01	 1.4956260833e+00	-1.6848780686e+00
 7.0857181299e-01	 1.5085435902e+00	-1.6869947019e+00
 6.8155599618e-01	 1.5209402361e+00	-1.6923508969e+00
 8.2050325709e-01	 1.4634591476e+00	-1.9799913595e+00
 7.9396725250e-01	 1.4780237730e+00	-1.8138568860e+00
 7.6724414505e-01	 1.4920706061e+00	-1.7555076787e+00
 7.4034868434e-01	 1.5055969239e+00	-1.7215954182e+00
 7.1329562507e-01	 1.5186005475e+00	-1.7109706654e+00
 6.8609970282e-01	 1.5310798377e+00	-1.7118768012e+00
 8.2593705349e-01	 1.4731509300e+00	-1.9756454910e+00
 7.9922531377e-01	 1.4878120099e+00	-1.8484235214e+00
 7.7232523211e-01	 1.5019518684e+00	-1.7739838887e+00
 7.4525165576e-01	 1.5155677644e+00	-1.7269211545e+00
 7.1801943716e-01	 1.5286575048e+00	-1.7060495435e+00
 6.9064340946e-01	 1.5412194393e+00	-1.7046178095e+00
 8.3137084990e-01	 1.4828427125e+00	-1.9834000700e+00
 8.0448337505e-01	 1.4976002468e+00	-1.8507526562e+00
 7.7740631916e-01	 1.5118331307e+00	-1.7588781861e+00
 7.5015462718e-01	 1.5255386050e+00	-1.7006626282e+00
 7.2274324924e-01	 1.5387144620e+00	-1.6723273826e+00
 6.9518711610e-01	 1.5513590408e+00	-1.6705229009e+00
 8.3680464630e-01	 1.4925344949e+00	-1.9720857549e+00
 8.0974143632e-01	 1.5073884837e+00	-1.8179768335e+00
 7.8248740621e-01	 1.5217143929e+00	-1.7106573546e+00
 7.5505759860e-01	 1.5355094455e+00	-1.6431809220e+00
 7.2746706133e-01	 1.5487714193e+00	-1.6099497428e+00
 6.9973082274e-01	 1.5614986424e+00	-1.6095936183e+00
 8.4223844271e-01	 1.5022262773e+00	-1.9242706401e+00
 8.1499949760e-01	 1.5171767206e+00	-1.7506891928e+00
 7.8756849327e-01	 1.5315956552e+00	-1.6298120816e+00
 7.5996057002e-01	 1.5454802861e+00	-1.5548652921e+00
 7.3219087342e-01	 1.5588283766e+00	-1.5191091900e+00
 7.0427452938e-01	 1.5716382440e+00	-1.5218817271e+00
 6.8155599618e-01	 1.5209402361e+00	-1.6923508969e+00
 6.5441285785e-01	 1.5328149234e+00	-1.4587123355e+00
 6.2715692766e-01	 1.5441670784e+00	-1.3184348375e+00
 5.9980264704e-01	 1.5549966439e+00	-1.2478894477e+00
 5.7236434746e-01	 1.5653040700e+00	-1.2245555427e+00
 5.4485622934e-01	 1.5750903044e+00	-1.2271479579e+00
 6.8609970282e-01	 1.5310798377e+00	-1.7118768012e+00
 6.5877561024e-01	 1.5430336895e+00	-1.4942443094e+00
 6.3133797384e-01	 1.5544615255e+00	-1.3640811747e+00
 6.0380133135e-01	 1.5653632881e+00	-1.2975369929e+00
 5.7618010978e-01	 1.5757394305e+00	-1.2719275134e+00
 5.4848860420e-01	 1.5855909065e+00	-1.2658594999e+00
 6.9064340946e-01	 1.5412194393e+00	-1.7046178095e+00
 6.6313836263e-01	 1.5532524557e+00	-1.5022111960e+00
 6.3551902002e-01	 1.5647559727e+00	-1.3815940633e+00
 6.0780001566e-01	 1.5757299324e+00	-1.3187228287e+00
 5.7999587209e-01	 1.5861747909e+00	-1.2907821259e+00
 5.5212097906e-01	 1.5960915085e+00	-1.2763072623e+00
 6.9518711610e-01	 1.5513590408e+00	-1.6705229009e+00
 6.6750111501e-01	 1.5634712218e+00	-1.4824697360e+00
 6.3970006621e-01	 1.5750504199e+00	-1.3707323904e+00
 6.1179869998e-01	 1.5860965767e+00	-1.3111025787e+00
 5.8381163441e-01	 1.5966101514e+00	-1.2806667929e+00
 5.5575335393e-01	 1.6065921105e+00	-1.2579262212e+00
 6.9973082274e-01	 1.5614986424e+00	-1.6095936183e+00
 6.7186386740e-01	 1.5736899880e+00	-1.4349304163e+00
 6.4388111239e-01	 1.5853448671e+00	-1.3313096355e+00
 6.1579738429e-01	 1.5964632210e+00	-1.2743869369e+00
 5.8762739673e-01	 1.6070455119e+00	-1.2411840850e+00
 5.5938572879e-01	 1.6170927126e+00	-1.2102061913e+00
 7.0427452938e-01	 1.5716382440e+00	-1.5218817271e+00
 6.7622661978e-01	 1.5839087541e+00	-1.3595553396e+00
 6.4806215858e-01	 1.5956393143e+00	-1.2631919439e+00
 6.1979606860e-01	 1.6068298653e+00	-1.2083399389e+00
 5.9144315904e-01	 1.6174808723e+00	-1.1719901904e+00
 5.6301810365e-01	 1.6275933146e+00	-1.1326904654e+00
 5.4485622934e-01	 1.5750903044e+00	-1.2271479579e+00
 5.1729234172e-01	 1.5843567815e+00	-1.1181849495e+00
 4.8968656285e-01	 1.5931054102e+00	-1.0481899021e+00
 4.6205258156e-01	 1.6013385618e+00	-9.9943646067e-01
 4.3440387959e-01	 1.6090590565e+00	-9.5540464928e-01
 4.0675371485e-01	 1.6162701486e+00	-9.0072688078e-01
 5.4848860420e-01	 1.5855909065e+00	-1.2658594999e+00
 5.2074095733e-01	 1.5949191600e+00	-1.1479870285e+00
 4.9295113994e-01	 1.6037261129e+00	-1.0692531754e+00
 4.6513293210e-01	 1.6120141523e+00	-1.0120991607e+00
 4.3729990545e-01	 1.6197861168e+00	-9.6017045681e-01
 4.0946540628e-01	 1.6270452829e+00	-8.9824965531e-01
 5.5212097906e-01	 1.5960915085e+00	-1.2763072623e+00
 5.2418957295e-01	 1.6054815386e+00	-1.1519556644e+00
 4.9621571702e-01	 1.6143468156e+00	-1.0672128656e+00
 4.6821328265e-01	 1.6226897427e+00	-1.0047332764e+00
 4.4019593132e-01	 1.6305131772e+00	-9.4837594939e-01
 4.1217709771e-01	 1.6378204172e+00	-8.8312359917e-01
 5.5575335393e-01	 1.6065921105e+00	-1.2579262212e+00
 5.2763818856e-01	 1.6160439171e+00	-1.1293743221e+00
 4.9948029411e-01	 1.6249675184e+00	-1.0412007436e+00
 4.7129363319e-01	 1.6333653331e+00	-9.7632018148e-01
 4.4309195718e-01	 1.6412402376e+00	-9.1885509116e-01
 4.1488878914e-01	 1.6485955516e+00	-8.5404013834e-01
 5.5938572879e-01	 1.6170927126e+00	-1.2102061913e+00
 5.3108680417e-01	 1.6266062956e+00	-1.0795815012e+00
 5.0274487120e-01	 1.6355882211e+00	-9.9040334712e-01
 4.7437398374e-01	 1.6440409235e+00	-9.2589528890e-01
 4.4598798304e-01	 1.6519672980e+00	-8.7049471260e-01
 4.1760048058e-01	 1.6593706859e+00	-8.0974196564e-01
 5.6301810365e-01	 1.6275933146e+00	-1.1326904654e+00
 5.3453541978e-01	 1.6371686742e+00	-1.0019695155e+00
 5.0600944828e-01	 1.6462089239e+00	-9.1406089085e-01
 4.7745433428e-01	 1.6547165139e+00	-8.5254708468e-01
 4.4888400891e-01	 1.6626943583e+00	-8.0223365774e-01
 4.2031217201e-01	 1.6701458202e+00	-7.4902229239e-01
 4.0675371485e-01	 1.6162701486e+00	-9.0072688078e-01
 3.7911510563e-01	 1.6229755126e+00	-8.0020314137e-01
 3.5150081585e-01	 1.6291792272e+00	-6.7281446525e-01
 3.2392334121e-01	 1.6348857596e+00	-6.1215992364e-01
 2.9639489649e-01	 1.6400999491e+00	-6.3942158662e-01
 2.6892740376e-01	 1.6448269907e+00	-7.7149359129e-01
 4.0946540628e-01	 1.6270452829e+00	-8.9824965531e-01
 3.8164253967e-01	 1.6337953493e+00	-7.9848244795e-01
 3.5384415462e-01	 1.6400404220e+00	-6.6558079698e-01
 3.2608283015e-01	 1.6457849980e+00	-5.9393997685e-01
 2.9837086247e-01	 1.6510339488e+00	-6.0901653814e-01
 2.7072025312e-01	 1.6557925040e+00	-7.2810539176e-01
 4.1217709771e-01	 1.6378204172e+00	-8.8312359917e-01
 3.8416997371e-01	 1.6446151861e+00	-7.8708851141e-01
 3.5618749339e-01	 1.6509016169e+00	-6.5343336173e-01
 3.2824231909e-01	 1.6566842363e+00	-5.7500585056e-01
 3.0034682844e-01	 1.6619679484e+00	-5.8220280355e-01
 2.7251310248e-01	 1.6667580172e+00	-6.9269727380e-01
 4.1488878914e-01	 1.6485955516e+00	-8.5404013834e-01
 3.8669740775e-01	 1.6554350228e+00	-7.6460518360e-01
 3.5853083217e-01	 1.6617628117e+00	-6.3481625593e-01
 3.3040180803e-01	 1.6675834747e+00	-5.5383243723e-01
 3.0232279442e-01	 1.6729019481e+00	-5.5752591028e-01
 2.7430595184e-01	 1.6777235305e+00	-6.6392355078e-01
 4.1760048058e-01	 1.6593706859e+00	-8.0974196564e-01
 3.8922484178e-01	 1.6662548596e+00	-7.2966485502e-01
 3.6087417094e-01	 1.6726240066e+00	-6.0820273776e-01
 3.3256129698e-01	 1.6784827131e+00	-5.2891201811e-01
 3.0429876040e-01	 1.6838359478e+00	-5.3353878320e-01
 2.7609880120e-01	 1.6886890438e+00	-6.4043768835e-01
 4.2031217201e-01	 1.6701458202e+00	-7.4902229239e-01
 3.9175227582e-01	 1.6770746963e+00	-6.8094782521e-01
 3.6321750971e-01	 1.6834852014e+00	-5.7209691765e-01
 3.3472078592e-01	 1.6893819515e+00	-4.9875568832e-01
 3.0627472637e-01	 1.6947699474e+00	-5.0880293216e-01
 2.7789165056e-01	 1.6996545570e+00	-6.2089328196e-01
 2.6892740376e-01	 1.6448269907e+00	-7.7149359129e-01
 2.4153248171e-01	 1.6490724175e+00	-6.3836579792e-01
 2.1422143588e-01	 1.6528420839e+00	-5.3615777284e-01
 1.8700525006e-01	 1.6561421480e+00	-4.8705261813e-01
 1.5989457858e-01	 1.6589790540e+00	-5.1355007955e-01
 1.3289973963e-01	 1.6613595147e+00	-6.3824137057e-01
 2.7072025312e-01	 1.6557925040e+00	-7.2810539176e-01
 2.4314269825e-01	 1.6600662336e+00	-5.8594715884e-01
 2.1564957878e-01	 1.6638610311e+00	-4.7288139607e-01
 1.8825195172e-01	 1.6671830956e+00	-4.1137739805e-01
 1.6096054244e-01	 1.6700389143e+00	-4.2414368033e-01
 1.3378573789e-01	 1.6724352448e+00	-5.3392884936e-01
 2.7251310248e-01	 1.6667580172e+00	-6.9269727380e-01
 2.4475291479e-01	 1.6710600497e+00	-5.4759897127e-01
 2.1707772169e-01	 1.6748799783e+00	-4.2977094400e-01
 1.8949865339e-01	 1.6782240433e+00	-3.6190370427e-01
 1.6202650629e-01	 1.6810987747e+00	-3.6683997653e-01
 1.3467173616e-01	 1.6835109749e+00	-4.6740369264e-01
 2.7430595184e-01	 1.6777235305e+00	-6.6392355078e-01
 2.4636313134e-01	 1.6820538658e+00	-5.2208760774e-01
 2.1850586459e-01	 1.6858989255e+00	-4.0573732421e-01
 1.9074535506e-01	 1.6892649909e+00	-3.3771585880e-01
 1.6309247015e-01	 1.6921586351e+00	-3.4092148194e-01
 1.3555773442e-01	 1.6945867050e+00	-4.3816685565e-01
 2.7609880120e-01	 1.6886890438e+00	-6.4043768835e-01
 2.4797334788e-01	 1.6930476819e+00	-5.0817288374e-01
 2.1993400750e-01	 1.6969178728e+00	-3.9968080514e-01
 1.9199205673e-01	 1.7003059386e+00	-3.3788500238e-01
 1.6415843401e-01	 1.7032184954e+00	-3.4565642620e-01
 1.3644373269e-01	 1.7056624351e+00	-4.4570523303e-01
 2.7789165056e-01	 1.6996545570e+00	-6.2089328196e-01
 2.4958356443e-01	 1.7040414981e+00	-5.0460882505e-01
 2.2136215040e-01	 1.7079368200e+00	-4.1049159931e-01
 1.9323875839e-01	 1.7113468862e+00	-3.6146951902e-01
 1.6522439786e-01	 1.7142783558e+00	-3.8029904492e-01
 1.3732973095e-01	 1.7167381652e+00	-4.8949183773e-01
 1.3289973963e-01	 1.6613595147e+00	-6.3824137057e-01
 1.0603070955e-01	 1.6632904937e+00	-4.9758495330e-01
 7.9297118105e-02	 1.6647791880e+00	-4.0989206623e-01
 5.2708244609e-02	 1.6658330105e+00	-4.0028390219e-01
 2.6273015046e-02	 1.6664595724e+00	-4.9358041655e-01
 0.0000000000e+00	 1.6666666667e+00	-7.1419294313e-01
 1.3378573789e-01	 1.6724352448e+00	-5.3392884936e-01
 1.0673758095e-01	 1.6743790970e+00	-3.8654706983e-01
 7.9825765559e-02	 1.6758777159e+00	-2.9064900868e-01
 5.3059632907e-02	 1.6769385639e+00	-2.7153701265e-01
 2.6448168480e-02	 1.6775693029e+00	-3.5427599101e-01
 0.0000000000e+00	 1.6777777778e+00	-5.6361219690e-01
 1.3467173616e-01	 1.6835109749e+00	-4.6740369264e-01
 1.0744445235e-01	 1.6854677003e+00	-3.1860757414e-01
 8.0354413014e-02	 1.6869762439e+00	-2.1942812169e-01
 5.3411021204e-02	 1.6880441173e+00	-1.9525708207e-01
 2.6623321913e-02	 1.6886790334e+00	-2.7131358254e-01
 0.0000000000e+00	 1.6888888889e+00	-4.7259107919e-01
 1.3555773442e-01	 1.6945867050e+00	-4.3816685565e-01
 1.0815132375e-01	 1.6965563036e+00	-2.9350260768e-01
 8.0883060468e-02	 1.6980747718e+00	-1.9621083347e-01
 5.3762409501e-02	 1.6991496707e+00	-1.7167561354e-01
 2.6798475347e-02	 1.6997887639e+00	-2.4517414524e-01
 0.0000000000e+00	 1.7000000000e+00	-4.4185393740e-01
 1.3644373269e-01	 1.7056624351e+00	-4.4570523303e-01
 1.0885819514e-01	 1.7076449069e+00	-3.1095564281e-01
 8.1411707922e-02	 1.7091732997e+00	-2.2096837051e-01
 5.4113797799e-02	 1.7102552241e+00	-2.0101731352e-01
 2.6973628781e-02	 1.7108984943e+00	-2.7633603653e-01
 0.0000000000e+00	 1.7111111111e+00	-4.7212737082e-01
 1.3732973095e-01	 1.7167381652e+00	-4.8949183773e-01
 1.0956506654e-01	 1.7187335101e+00	-3.7067757363e-01
 8.1940355376e-02	 1.7202718276e+00	-2.9366178062e-01
 5.4465186096e-02	 1.7213607775e+00	-2.8350006618e-01
 2.7148782214e-02	 1.7220082248e+00	-3.6527496002e-01
 0.0000000000e+00	 1.7222222222e+00	-5.6414015796e-01
 1.7222222222e+00	 0.0000000000e+00	 3.5501507757e+00
 1.7220082248e+00	 2.7148782214e-02	 3.4972660810e+00
 1.7213607775e+00	 5.4465186096e-02	 3.4723120175e+00
 1.7202718276e+00	 8.1940355376e-02	 3.4553608049e+00
 1.7187335101e+00	 1.0956506654e-01	 3.4261743065e+00
 1.7167381652e+00	 1.3732973095e-01	 3.3641289466e+00
 1.7333333333e+00	 0.0000000000e+00	 3.4060599164e+00
 1.7331179553e+00	 2.7323935648e-02	 3.3627167203e+00
 1.7324663309e+00	 5.4816574394e-02	 3.3476960815e+00
 1.7313703555e+00	 8.2469002830e-02	 3.3413868382e+00
 1.7298221134e+00	 1.1027193794e-01	 3.3239499676e+00
 1.7278138953e+00	 1.3821572921e-01	 3.2752051299e+00
 1.7444444444e+00	 0.0000000000e+00	 3.3245515603e+00
 1.7442276858e+00	 2.7499089082e-02	 3.2860068877e+00
 1.7435718843e+00	 5.5167962691e-02	 3.2755595969e+00
 1.7424688835e+00	 8.2997650284e-02	 3.2740211163e+00
 1.7409107167e+00	 1.1097880933e-01	 3.2620628568e+00
 1.7388896254e+00	 1.3910172748e-01	 3.2200620914e+00
 1.7555555556e+00	 0.0000000000e+00	 3.3057567357e+00
 1.7553374163e+00	 2.7674242515e-02	 3.2671515172e+00
 1.7546774377e+00	 5.5519350988e-02	 3.2557875464e+00
 1.7535674114e+00	 8.3526297738e-02	 3.2530104881e+00
 1.7519993200e+00	 1.1168568073e-01	 3.2401193304e+00
 1.7499653555e+00	 1.3998772574e-01	 3.1981692338e+00
 1.7666666667e+00	 0.0000000000e+00	 3.3498080591e+00
 1.7664471467e+00	 2.7849395949e-02	 3.3061664036e+00
 1.7657829911e+00	 5.5870739286e-02	 3.2882650895e+00
 1.7646659393e+00	 8.4054945192e-02	 3.2781014815e+00
 1.7630879233e+00	 1.1239255213e-01	 3.2577252599e+00
 1.7610410856e+00	 1.4087372401e-01	 3.2089957906e+00
 1.7777777778e+00	 0.0000000000e+00	 3.4568396854e+00
 1.7775568772e+00	 2.8024549382e-02	 3.4030681563e+00
 1.7768885445e+00	 5.6222127583e-02	 3.3728775247e+00
 1.7757644672e+00	 8.4583592646e-02	 3.3490402820e+00
 1.7741765266e+00	 1.1309942352e-01	 3.3144860341e+00
 1.7721168156e+00	 1.4175972227e-01	 3.2520108628e+00
 1.7167381652e+00	 1.3732973095e-01	 3.3641289466e+00
 1.7142783558e+00	 1.6522439786e-01	 3.2796051007e+00
 1.7113468862e+00	 1.9323875839e-01	 3.2148399468e+00
 1.7079368200e+00	 2.2136215040e-01	 3.1488662560e+00
 1.7040414981e+00	 2.4958356443e-01	 3.0599668341e+00
 1.6996545570e+00	 2.7789165056e-01	 2.9257661949e+00
 1.7278138953e+00	 1.3821572921e-01	 3.2752051299e+00
 1.7253382161e+00	 1.6629036172e-01	 3.2033192874e+00
 1.7223878339e+00	 1.9448546006e-01	 3.1509242501e+00
 1.7189557672e+00	 2.2279029331e-01	 3.0973672576e+00
 1.7150353142e+00	 2.5119378097e-01	 3.0211227031e+00
 1.7106200703e+00	 2.7968449992e-01	 2.8998410884e+00
 1.7388896254e+00	 1.3910172748e-01	 3.2200620914e+00
 1.7363980765e+00	 1.6735632558e-01	 3.1543706295e+00
 1.7334287815e+00	 1.9573216173e-01	 3.1078802584e+00
 1.7299747144e+00	 2.2421843622e-01	 3.0603612436e+00
 1.7260291303e+00	 2.5280399752e-01	 2.9905806683e+00
 1.7215855836e+00	 2.8147734927e-01	 2.8763059261e+00
 1.7499653555e+00	 1.3998772574e-01	 3.1981692338e+00
 1.7474579369e+00	 1.6842228944e-01	 3.1320956215e+00
 1.7444697292e+00	 1.9697886339e-01	 3.0849260938e+00
 1.7409936617e+00	 2.2564657912e-01	 3.0369680931e+00
 1.7370229464e+00	 2.5441421406e-01	 2.9673878058e+00
 1.7325510969e+00	 2.8327019863e-01	 2.8541653562e+00
 1.7610410856e+00	 1.4087372401e-01	 3.2089957906e+00
 1.7585177972e+00	 1.6948825329e-01	 3.1358316667e+00
 1.7555106768e+00	 1.9822556506e-01	 3.0812826514e+00
 1.7520126089e+00	 2.2707472203e-01	 3.0263132467e+00
 1.7480167625e+00	 2.5602443061e-01	 2.9506006000e+00
 1.7435166101e+00	 2.8506304799e-01	 2.8324384647e+00
 1.7721168156e+00	 1.4175972227e-01	 3.2520108628e+00
 1.7695776576e+00	 1.7055421715e-01	 3.1649171541e+00
 1.7665516245e+00	 1.9947226673e-01	 3.0961737290e+00
 1.7630315561e+00	 2.2850286493e-01	 3.0275279051e+00
 1.7590105786e+00	 2.5763464715e-01	 2.9392852255e+00
 1.7544821234e+00	 2.8685589735e-01	 2.8101591555e+00
 1.6996545570e+00	 2.7789165056e-01	 2.9257661949e+00
 1.6947699474e+00	 3.0627472637e-01	 2.8182906987e+00
 1.6893819515e+00	 3.3472078592e-01	 2.7310249225e+00
 1.6834852014e+00	 3.6321750971e-01	 2.6420997558e+00
 1.6770746963e+00	 3.9175227582e-01	 2.5233573146e+00
 1.6701458202e+00	 4.2031217201e-01	 2.3541276518e+00
 1.7106200703e+00	 2.7968449992e-01	 2.8998410884e+00
 1.7057039471e+00	 3.0825069235e-01	 2.8012458024e+00
 1.7002811899e+00	 3.3688027486e-01	 2.7235775988e+00
 1.6943463963e+00	 3.6556084848e-01	 2.6443014314e+00
 1.6878945331e+00	 3.9427970986e-01	 2.5333580193e+00
 1.6809209545e+00	 4.2302386344e-01	 2.3735384407e+00
 1.7215855836e+00	 2.8147734927e-01	 2.8763059261e+00
 1.7166379467e+00	 3.1022665833e-01	 2.7811669026e+00
 1.7111804283e+00	 3.3903976380e-01	 2.7080785800e+00
 1.7052075911e+00	 3.6790418726e-01	 2.6338841629e+00
 1.6987143698e+00	 3.9680714390e-01	 2.5268459465e+00
 1.6916960889e+00	 4.2573555487e-01	 2.3734834225e+00
 1.7325510969e+00	 2.8327019863e-01	 2.8541653562e+00
 1.7275719464e+00	 3.1220262430e-01	 2.7570485638e+00
 1.7220796667e+00	 3.4119925274e-01	 2.6835513356e+00
 1.7160687860e+00	 3.7024752603e-01	 2.6099425704e+00
 1.7095342066e+00	 3.9933457793e-01	 2.5030918587e+00
 1.7024712232e+00	 4.2844724631e-01	 2.3533728462e+00
 1.7435166101e+00	 2.8506304799e-01	 2.8324384647e+00
 1.7385059461e+00	 3.1417859028e-01	 2.7279061756e+00
 1.7329789051e+00	 3.4335874168e-01	 2.6490479392e+00
 1.7269299808e+00	 3.7259086480e-01	 2.5715282508e+00
 1.7203540433e+00	 4.0186201197e-01	 2.4614093484e+00
 1.7132463575e+00	 4.3115893774e-01	 2.3126601890e+00
 1.7544821234e+00	 2.8685589735e-01	 2.8101591555e+00
 1.7494399457e+00	 3.1615455626e-01	 2.6927764491e+00
 1.7438781435e+00	 3.4551823062e-01	 2.6036496999e+00
 1.7377911756e+00	 3.7493420357e-01	 2.5177443326e+00
 1.7311738801e+00	 4.0438944601e-01	 2.4011539108e+00
 1.7240214918e+00	 4.3387062917e-01	 2.2508410775e+00
 1.6701458202e+00	 4.2031217201e-01	 2.3541276518e+00
 1.6626943583e+00	 4.4888400891e-01	 2.2097103727e+00
 1.6547165139e+00	 4.7745433428e-01	 2.0513711605e+00
 1.6462089239e+00	 5.0600944828e-01	 1.8938109515e+00
 1.6371686742e+00	 5.3453541978e-01	 1.7528343338e+00
 1.6275933146e+00	 5.6301810365e-01	 1.6454365955e+00
 1.6809209545e+00	 4.2302386344e-01	 2.3735384407e+00
 1.6734214187e+00	 4.5178003477e-01	 2.2350521237e+00
 1.6653921043e+00	 4.8053468482e-01	 2.0807973281e+00
 1.6568296266e+00	 5.0927402537e-01	 1.9250793375e+00
 1.6477310527e+00	 5.3798403539e-01	 1.7833108237e+00
 1.6380939166e+00	 5.6665047851e-01	 1.6721142326e+00
 1.6916960889e+00	 4.2573555487e-01	 2.3734834225e+00
 1.6841484791e+00	 4.5467606064e-01	 2.2388413988e+00
 1.6760676947e+00	 4.8361503537e-01	 2.0871521746e+00
 1.6674503293e+00	 5.1253860245e-01	 1.9322638572e+00
 1.6582934313e+00	 5.4143265100e-01	 1.7891394426e+00
 1.6485945186e+00	 5.7028285338e-01	 1.6739752907e+00
 1.7024712232e+00	 4.2844724631e-01	 2.3533728462e+00
 1.6948755395e+00	 4.5757208650e-01	 2.2206258616e+00
 1.6867432851e+00	 4.8669538591e-01	 2.0701210634e+00
 1.6780710321e+00	 5.1580317954e-01	 1.9151860543e+00
 1.6688558098e+00	 5.4488126662e-01	 1.7702749039e+00
 1.6590951207e+00	 5.7391522824e-01	 1.6511034817e+00
 1.7132463575e+00	 4.3115893774e-01	 2.3126601890e+00
 1.7056025998e+00	 4.6046811236e-01	 2.1799963222e+00
 1.6974188756e+00	 4.8977573645e-01	 2.0294318095e+00
 1.6886917348e+00	 5.1906775662e-01	 1.8737086081e+00
 1.6794181884e+00	 5.4832988223e-01	 1.7267111186e+00
 1.6695957227e+00	 5.7754760310e-01	 1.6036191667e+00
 1.7240214918e+00	 4.3387062917e-01	 2.2508410775e+00
 1.7163296602e+00	 4.6336413823e-01	 2.1165854877e+00
 1.7080944660e+00	 4.9285608700e-01	 1.9648532472e+00
 1.6993124375e+00	 5.2233233371e-01	 1.8077337046e+00
 1.6899805669e+00	 5.5177849784e-01	 1.6584793584e+00
 1.6800963247e+00	 5.8117997796e-01	 1.5316772987e+00
 1.6275933146e+00	 5.6301810365e-01	 1.6454365955e+00
 1.6174808723e+00	 5.9144315904e-01	 1.4792026645e+00
 1.6068298653e+00	 6.1979606860e-01	 1.2964085256e+00
 1.5956393143e+00	 6.4806215858e-01	 1.1183303421e+00
 1.5839087541e+00	 6.7622661978e-01	 9.6756160497e-01
 1.5716382440e+00	 7.0427452938e-01	 8.6783884889e-01
 1.6380939166e+00	 5.6665047851e-01	 1.6721142326e+00
 1.6279162328e+00	 5.9525892136e-01	 1.5089068519e+00
 1.6171965096e+00	 6.2379475292e-01	 1.3282638300e+00
 1.6059337615e+00	 6.5224320476e-01	 1.1511478103e+00
 1.5941275203e+00	 6.8058937217e-01	 9.9987950180e-01
 1.5817778456e+00	 7.0881823602e-01	 8.9796156635e-01
 1.6485945186e+00	 5.7028285338e-01	 1.6739752907e+00
 1.6383515933e+00	 5.9907468368e-01	 1.5133580709e+00
 1.6275631539e+00	 6.2779343723e-01	 1.3346968462e+00
 1.6162282087e+00	 6.5642425095e-01	 1.1586044640e+00
 1.6043462864e+00	 6.8495212455e-01	 1.0070985270e+00
 1.5919174471e+00	 7.1336194267e-01	 9.0342332200e-01
 1.6590951207e+00	 5.7391522824e-01	 1.6511034817e+00
 1.6487869537e+00	 6.0289044599e-01	 1.4927757222e+00
 1.6379297982e+00	 6.3179212154e-01	 1.3160579343e+00
 1.6265226559e+00	 6.6060529713e-01	 1.1411767837e+00
 1.6145650526e+00	 6.8931487694e-01	 9.8981668579e-01
 1.6020570487e+00	 7.1790564931e-01	 8.8493963319e-01
 1.6695957227e+00	 5.7754760310e-01	 1.6036191667e+00
 1.6592223142e+00	 6.0670620831e-01	 1.4474124233e+00
 1.6482964425e+00	 6.3579080586e-01	 1.2727266617e+00
 1.6368171031e+00	 6.6478634331e-01	 1.0993659124e+00
 1.6247838188e+00	 6.9367762933e-01	 9.4865161616e-01
 1.6121966503e+00	 7.2244935595e-01	 8.4324019755e-01
 1.6800963247e+00	 5.8117997796e-01	 1.5316772987e+00
 1.6696576747e+00	 6.1052197063e-01	 1.3775517288e+00
 1.6586630868e+00	 6.3978949017e-01	 1.2051092910e+00
 1.6471115502e+00	 6.6896738950e-01	 1.0336949015e+00
 1.6350025849e+00	 6.9804038171e-01	 8.8423758600e-01
 1.6223362519e+00	 7.2699306259e-01	 7.7906563344e-01
 1.5716382440e+00	 7.0427452938e-01	 8.6783884889e-01
 1.5588283766e+00	 7.3219087342e-01	 5.9143423027e-01
 1.5454802861e+00	 7.5996057002e-01	 3.7530283078e-01
 1.5315956552e+00	 7.8756849327e-01	 2.2512822833e-01
 1.5171767206e+00	 8.1499949760e-01	 1.4655805882e-01
 1.5022262773e+00	 8.4223844271e-01	 1.4432689302e-01
 1.5817778456e+00	 7.0881823602e-01	 8.9796156635e-01
 1.5688853338e+00	 7.3691468550e-01	 6.3036855129e-01
 1.5554511267e+00	 7.6486354144e-01	 4.1560183447e-01
 1.5414769175e+00	 7.9264958032e-01	 2.6027089248e-01
 1.5269649575e+00	 8.2025755887e-01	 1.7052810468e-01
 1.5119180598e+00	 8.4767223911e-01	 1.5123812079e-01
 1.5919174471e+00	 7.1336194267e-01	 9.0342332200e-01
 1.5789422911e+00	 7.4163849759e-01	 6.4559521211e-01
 1.5654219672e+00	 7.6976651286e-01	 4.3349898449e-01
 1.5513581798e+00	 7.9773066737e-01	 2.7467902770e-01
 1.5367531944e+00	 8.2551562015e-01	 1.7546782425e-01
 1.5216098422e+00	 8.5310603552e-01	 1.4086265157e-01
 1.6020570487e+00	 7.1790564931e-01	 8.8493963319e-01
 1.5889992484e+00	 7.4636230968e-01	 6.3786566450e-01
 1.5753928078e+00	 7.7466948428e-01	 4.2998274336e-01
 1.5612394421e+00	 8.0281175443e-01	 2.6932622135e-01
 1.5465414314e+00	 8.3077368142e-01	 1.6233621879e-01
 1.5313016246e+00	 8.5853983192e-01	 1.1414507560e-01
 1.6121966503e+00	 7.2244935595e-01	 8.4324019755e-01
 1.5990562056e+00	 7.5108612176e-01	 6.0807098257e-01
 1.5853636483e+00	 7.7957245570e-01	 4.0600129836e-01
 1.5711207044e+00	 8.0789284148e-01	 2.4514595157e-01
 1.5563296683e+00	 8.3603174270e-01	 1.3205222684e-01
 1.5409934071e+00	 8.6397362833e-01	 7.1989835859e-02
 1.6223362519e+00	 7.2699306259e-01	 7.7906563344e-01
 1.6091131629e+00	 7.5580993385e-01	 5.5713489761e-01
 1.5953344889e+00	 7.8447542712e-01	 3.6246352843e-01
 1.5810019667e+00	 8.1297392853e-01	 2.0303257303e-01
 1.5661179052e+00	 8.4128980397e-01	 8.5495723120e-02
 1.5506851895e+00	 8.6940742473e-01	 1.5262233957e-02
 1.5022262773e+00	 8.4223844271e-01	 1.4432689302e-01
 1.4867476818e+00	 8.6927021886e-01	-1.2879981307e-01
 1.4707448535e+00	 8.9607977252e-01	-3.8774616270e-01
 1.4542222752e+00	 9.2265213224e-01	-5.7583566418e-01
 1.4371849919e+00	 9.4897243471e-01	-7.1251752362e-01
 1.4196386082e+00	 9.7502595085e-01	-8.2732344060e-01
 1.5119180598e+00	 8.4767223911e-01	 1.5123812079e-01
 1.4963396023e+00	 8.7487841382e-01	-1.1319954827e-01
 1.4802335299e+00	 9.0186093234e-01	-3.7617430972e-01
 1.4636043544e+00	 9.2860472664e-01	-5.8815995367e-01
 1.4464571531e+00	 9.5509483752e-01	-7.3218525982e-01
 1.4287975670e+00	 9.8131644086e-01	-8.3877213655e-01
 1.5216098422e+00	 8.5310603552e-01	 1.4086265157e-01
 1.5059315228e+00	 8.8048660878e-01	-1.1595500192e-01
 1.4897222064e+00	 9.0764209217e-01	-3.6456063541e-01
 1.4729864336e+00	 9.3455732104e-01	-5.9291798355e-01
 1.4557293144e+00	 9.6121724032e-01	-7.4817385910e-01
 1.4379565257e+00	 9.8760693086e-01	-8.5027797317e-01
 1.5313016246e+00	 8.5853983192e-01	 1.1414507560e-01
 1.5155234434e+00	 8.8609480374e-01	-1.3608154447e-01
 1.4992108829e+00	 9.1342325199e-01	-3.7119327224e-01
 1.4823685127e+00	 9.4050991545e-01	-5.9028996879e-01
 1.4650014756e+00	 9.6733964312e-01	-7.6048941929e-01
 1.4471154845e+00	 9.9389742087e-01	-8.6176543409e-01
 1.5409934071e+00	 8.6397362833e-01	 7.1989835859e-02
 1.5251153639e+00	 8.9170299870e-01	-1.7263628158e-01
 1.5086995594e+00	 9.1920441181e-01	-3.9535604588e-01
 1.4917505919e+00	 9.4646250985e-01	-5.9549323558e-01
 1.4742736368e+00	 9.7346204593e-01	-7.6915811610e-01
 1.4562744432e+00	 1.0001879109e+00	-8.7317993770e-01
 1.5506851895e+00	 8.6940742473e-01	 1.5262233957e-02
 1.5347072844e+00	 8.9731119366e-01	-2.2471700480e-01
 1.5181882358e+00	 9.2498557163e-01	-4.3610669242e-01
 1.5011326711e+00	 9.5241510425e-01	-6.1844155557e-01
 1.4835457981e+00	 9.7958444873e-01	-7.7476833301e-01
 1.4654334020e+00	 1.0064784009e+00	-8.8449298800e-01
 1.4196386082e+00	 9.7502595085e-01	-8.2732344060e-01
 1.4015892843e+00	 1.0007981119e+00	-8.9069325283e-01
 1.3830437305e+00	 1.0262745355e+00	-9.6614768704e-01
 1.3640092004e+00	 1.0514410511e+00	-1.0902034056e+00
 1.3444934822e+00	 1.0762837260e+00	-1.2970410873e+00
 1.3245048896e+00	 1.1007888899e+00	-1.6161969322e+00
 1.4287975670e+00	 9.8131644086e-01	-8.3877213655e-01
 1.4106317958e+00	 1.0072548739e+00	-8.9957215688e-01
 1.3919665933e+00	 1.0328956615e+00	-9.7118145768e-01
 1.3728092597e+00	 1.0582245418e+00	-1.0916325060e+00
 1.3531676337e+00	 1.0832274920e+00	-1.2967713249e+00
 1.3330500824e+00	 1.1078907538e+00	-1.6178628991e+00
 1.4379565257e+00	 9.8760693086e-01	-8.5027797317e-01
 1.4196743073e+00	 1.0137116359e+00	-9.0912196482e-01
 1.4008894561e+00	 1.0395167875e+00	-9.7727036118e-01
 1.3816093191e+00	 1.0650080324e+00	-1.0943372102e+00
 1.3618417852e+00	 1.0901712580e+00	-1.2979149782e+00
 1.3415952752e+00	 1.1149926176e+00	-1.6198466655e+00
 1.4471154845e+00	 9.9389742087e-01	-8.6176543409e-01
 1.4287168188e+00	 1.0201683980e+00	-9.1921841942e-01
 1.4098123189e+00	 1.0461379136e+00	-9.8422159376e-01
 1.3904093785e+00	 1.0717915231e+00	-1.0980384167e+00
 1.3705159367e+00	 1.0971150240e+00	-1.3000916278e+00
 1.3501404681e+00	 1.1220944814e+00	-1.6156648209e+00
 1.4562744432e+00	 1.0001879109e+00	-8.7317993770e-01
 1.4377593304e+00	 1.0266251600e+00	-9.2975650629e-01
 1.4187351816e+00	 1.0527590396e+00	-9.9185873276e-01
 1.3992094378e+00	 1.0785750137e+00	-1.1024694108e+00
 1.3791900882e+00	 1.1040587899e+00	-1.3029281689e+00
 1.3586856609e+00	 1.1291963452e+00	-1.6045819967e+00
 1.4654334020e+00	 1.0064784009e+00	-8.8449298800e-01
 1.4468018419e+00	 1.0330819220e+00	-9.4065559756e-01
 1.4276580444e+00	 1.0593801656e+00	-1.0000268520e+00
 1.4080094972e+00	 1.0853585044e+00	-1.1073809313e+00
 1.3878642397e+00	 1.1110025559e+00	-1.3060638090e+00
 1.3672308537e+00	 1.1362982090e+00	-1.5867916426e+00
 1.3245048896e+00	 1.1007888899e+00	-1.6161969322e+00
 1.3040522497e+00	 1.1249431598e+00	-1.5619845944e+00
 1.2831448914e+00	 1.1487334636e+00	-1.5721966297e+00
 1.2617926308e+00	 1.1721470640e+00	-1.6314218466e+00
 1.2400057562e+00	 1.1951715807e+00	-1.7308602082e+00
 1.2177950120e+00	 1.2177950120e+00	-1.8599993808e+00
 1.3330500824e+00	 1.1078907538e+00	-1.6178628991e+00
 1.3124654900e+00	 1.1322008576e+00	-1.5774877795e+00
 1.2914232455e+00	 1.1561446472e+00	-1.5903611837e+00
 1.2699332284e+00	 1.1797093031e+00	-1.6500098132e+00
 1.2480057934e+00	 1.2028823651e+00	-1.7481311070e+00
 1.2256517541e+00	 1.2256517541e+00	-1.8746302209e+00
 1.3415952752e+00	 1.1149926176e+00	-1.6198466655e+00
 1.3208787304e+00	 1.1394585554e+00	-1.5858342286e+00
 1.2997015997e+00	 1.1635558309e+00	-1.6012561196e+00
 1.2780738260e+00	 1.1872715423e+00	-1.6611511389e+00
 1.2560058305e+00	 1.2105931495e+00	-1.7577276143e+00
 1.2335084961e+00	 1.2335084961e+00	-1.8813167412e+00
 1.3501404681e+00	 1.1220944814e+00	-1.6156648209e+00
 1.3292919707e+00	 1.1467162532e+00	-1.5870366659e+00
 1.3079799538e+00	 1.1709670145e+00	-1.6048234397e+00
 1.2862144236e+00	 1.1948337814e+00	-1.6647185270e+00
 1.2640058676e+00	 1.2183039338e+00	-1.7594535004e+00
 1.2413652381e+00	 1.2413652381e+00	-1.8797928615e+00
 1.3586856609e+00	 1.1291963452e+00	-1.6045819967e+00
 1.3377052110e+00	 1.1539739510e+00	-1.5811632638e+00
 1.3162583080e+00	 1.1783781981e+00	-1.6010609989e+00
 1.2943550212e+00	 1.2023960205e+00	-1.6606413890e+00
 1.2720059048e+00	 1.2260147182e+00	-1.7531704952e+00
 1.2492219801e+00	 1.2492219801e+00	-1.8698520450e+00
 1.3672308537e+00	 1.1362982090e+00	-1.5867916426e+00
 1.3461184513e+00	 1.1612316488e+00	-1.5683344427e+00
 1.3245366621e+00	 1.1857893818e+00	-1.5900194037e+00
 1.3024956189e+00	 1.2099582596e+00	-1.6489028552e+00
 1.2800059419e+00	 1.2337255026e+00	-1.7387954194e+00
 1.2570787221e+00	 1.2570787221e+00	-1.8513445590e+00
 1.2177950120e+00	 1.2177950120e+00	-1.8599993808e+00
 1.1951715807e+00	 1.2400057562e+00	-1.9482874511e+00
 1.1721470640e+00	 1.2617926308e+00	-2.0030010175e+00
 1.1487334636e+00	 1.2831448914e+00	-2.0140451648e+00
 1.1249431598e+00	 1.3040522497e+00	-1.9736163801e+00
 1.1007888899e+00	 1.3245048896e+00	-1.8744281203e+00
 1.2256517541e+00	 1.2256517541e+00	-1.8746302209e+00
 1.2028823651e+00	 1.2480057934e+00	-1.9583062532e+00
 1.1797093031e+00	 1.2699332284e+00	-2.0102678410e+00
 1.1561446472e+00	 1.2914232455e+00	-2.0209566316e+00
 1.1322008576e+00	 1.3124654900e+00	-1.9831929035e+00
 1.1078907538e+00	 1.3330500824e+00	-1.8928825779e+00
 1.2335084961e+00	 1.2335084961e+00	-1.8813167412e+00
 1.2105931495e+00	 1.2560058305e+00	-1.9607733504e+00
 1.1872715423e+00	 1.2780738260e+00	-2.0103122848e+00
 1.1635558309e+00	 1.2997015997e+00	-2.0209152434e+00
 1.1394585554e+00	 1.3208787304e+00	-1.9860322155e+00
 1.1149926176e+00	 1.3415952752e+00	-1.9026086790e+00
 1.2413652381e+00	 1.2413652381e+00	-1.8797928615e+00
 1.2183039338e+00	 1.2640058676e+00	-1.9553371600e+00
 1.1948337814e+00	 1.2862144236e+00	-2.0026938979e+00
 1.1709670145e+00	 1.3079799538e+00	-2.0133867079e+00
 1.1467162532e+00	 1.3292919707e+00	-1.9814996080e+00
 1.1220944814e+00	 1.3501404681e+00	-1.9047510918e+00
 1.2492219801e+00	 1.2492219801e+00	-1.8698520450e+00
 1.2260147182e+00	 1.2720059048e+00	-1.9417078240e+00
 1.2023960205e+00	 1.2943550212e+00	-1.9870363113e+00
 1.1783781981e+00	 1.3162583080e+00	-1.9979032718e+00
 1.1539739510e+00	 1.3377052110e+00	-1.9690293910e+00
 1.1291963452e+00	 1.3586856609e+00	-1.8989132487e+00
 1.2570787221e+00	 1.2570787221e+00	-1.8513445590e+00
 1.2337255026e+00	 1.2800059419e+00	-1.9196545970e+00
 1.2099582596e+00	 1.3024956189e+00	-1.9630247606e+00
 1.1857893818e+00	 1.3245366621e+00	-1.9740613844e+00
 1.1612316488e+00	 1.3461184513e+00	-1.9481227012e+00
 1.1362982090e+00	 1.3672308537e+00	-1.8844927558e+00
 1.1007888899e+00	 1.3245048896e+00	-1.8744281203e+00
 1.0762837260e+00	 1.3444934822e+00	-2.1049343827e+00
 1.0514410511e+00	 1.3640092004e+00	-2.2037123311e+00
 1.0262745355e+00	 1.3830437305e+00	-2.1964882674e+00
 1.0007981119e+00	 1.4015892843e+00	-2.1152275984e+00
 9.7502595085e-01	 1.4196386082e+00	-1.9957555177e+00
 1.1078907538e+00	 1.3330500824e+00	-1.8928825779e+00
 1.0832274920e+00	 1.3531676337e+00	-2.1181845020e+00
 1.0582245418e+00	 1.3728092597e+00	-2.2116787275e+00
 1.0328956615e+00	 1.3919665933e+00	-2.2002835048e+00
 1.0072548739e+00	 1.4106317958e+00	-2.1172708581e+00
 9.8131644086e-01	 1.4287975670e+00	-1.9997842132e+00
 1.1149926176e+00	 1.3415952752e+00	-1.9026086790e+00
 1.0901712580e+00	 1.3618417852e+00	-2.1224487668e+00
 1.0650080324e+00	 1.3816093191e+00	-2.2106771121e+00
 1.0395167875e+00	 1.4008894561e+00	-2.1950923773e+00
 1.0137116359e+00	 1.4196743073e+00	-2.1103766249e+00
 9.8760693086e-01	 1.4379565257e+00	-1.9950906291e+00
 1.1220944814e+00	 1.3501404681e+00	-1.9047510918e+00
 1.0971150240e+00	 1.3705159367e+00	-2.1166100339e+00
 1.0717915231e+00	 1.3904093785e+00	-2.1995171859e+00
 1.0461379136e+00	 1.4098123189e+00	-2.1796457215e+00
 1.0201683980e+00	 1.4287168188e+00	-2.0931963505e+00
 9.9389742087e-01	 1.4471154845e+00	-1.9802512994e+00
 1.1291963452e+00	 1.3586856609e+00	-1.8989132487e+00
 1.1040587899e+00	 1.3791900882e+00	-2.0996392424e+00
 1.0785750137e+00	 1.3992094378e+00	-2.1770862110e+00
 1.0527590396e+00	 1.4187351816e+00	-2.1527412493e+00
 1.0266251600e+00	 1.4377593304e+00	-2.0644376589e+00
 1.0001879109e+00	 1.4562744432e+00	-1.9538883538e+00
 1.1362982090e+00	 1.3672308537e+00	-1.8844927558e+00
 1.1110025559e+00	 1.3878642397e+00	-2.0705989763e+00
 1.0853585044e+00	 1.4080094972e+00	-2.1423523520e+00
 1.0593801656e+00	 1.4276580444e+00	-2.1132466636e+00
 1.0330819220e+00	 1.4468018419e+00	-2.0228672355e+00
 1.0064784009e+00	 1.4654334020e+00	-1.9146721815e+00
 9.7502595085e-01	 1.4196386082e+00	-1.9957555177e+00
 9.4897243471e-01	 1.4371849919e+00	-1.9553086040e+00
 9.2265213224e-01	 1.4542222752e+00	-1.9096621048e+00
 8.9607977252e-01	 1.4707448535e+00	-1.8900753545e+00
 8.6927021886e-01	 1.4867476818e+00	-1.9173033718e+00
 8.4223844271e-01	 1.5022262773e+00	-1.9242706401e+00
 9.8131644086e-01	 1.4287975670e+00	-1.9997842132e+00
 9.5509483752e-01	 1.4464571531e+00	-1.9523275445e+00
 9.2860472664e-01	 1.4636043544e+00	-1.9160018763e+00
 9.0186093234e-01	 1.4802335299e+00	-1.9233414190e+00
 8.7487841382e-01	 1.4963396023e+00	-1.9537200044e+00
 8.4767223911e-01	 1.5119180598e+00	-1.9482257325e+00
 9.8760693086e-01	 1.4379565257e+00	-1.9950906291e+00
 9.6121724032e-01	 1.4557293144e+00	-1.9448283320e+00
 9.3455732104e-01	 1.4729864336e+00	-1.9222293426e+00
 9.0764209217e-01	 1.4897222064e+00	-1.9482287002e+00
 8.8048660878e-01	 1.5059315228e+00	-1.9618596595e+00
 8.5310603552e-01	 1.5216098422e+00	-1.9463339852e+00
 9.9389742087e-01	 1.4471154845e+00	-1.9802512994e+00
 9.6733964312e-01	 1.4650014756e+00	-1.9312508842e+00
 9.4050991545e-01	 1.4823685127e+00	-1.9265369675e+00
 9.1342325199e-01	 1.4992108829e+00	-1.9433886741e+00
 8.8609480374e-01	 1.5155234434e+00	-1.9424082563e+00
 8.5853983192e-01	 1.5313016246e+00	-1.9191720741e+00
 1.0001879109e+00	 1.4562744432e+00	-1.9538883538e+00
 9.7346204593e-01	 1.4742736368e+00	-1.9100721841e+00
 9.4646250985e-01	 1.4917505919e+00	-1.9111643246e+00
 9.1920441181e-01	 1.5086995594e+00	-1.9093296770e+00
 8.9170299870e-01	 1.5251153639e+00	-1.8960695980e+00
 8.6397362833e-01	 1.5409934071e+00	-1.8673370199e+00
 1.0064784009e+00	 1.4654334020e+00	-1.9146721815e+00
 9.7958444873e-01	 1.4835457981e+00	-1.8792643240e+00
 9.5241510425e-01	 1.5011326711e+00	-1.8650605096e+00
 9.2498557163e-01	 1.5181882358e+00	-1.8468780425e+00
 8.9731119366e-01	 1.5347072844e+00	-1.8235640515e+00
 8.6940742473e-01	 1.5506851895e+00	-1.7914449232e+00
 8.4223844271e-01	 1.5022262773e+00	-1.9242706401e+00
 8.1499949760e-01	 1.5171767206e+00	-1.7506891928e+00
 7.8756849327e-01	 1.5315956552e+00	-1.6298120816e+00
 7.5996057002e-01	 1.5454802861e+00	-1.5548652921e+00
 7.3219087342e-01	 1.5588283766e+00	-1.5191091900e+00
 7.0427452938e-01	 1.5716382440e+00	-1.5218817271e+00
 8.4767223911e-01	 1.5119180598e+00	-1.9482257325e+00
 8.2025755887e-01	 1.5269649575e+00	-1.7870737832e+00
 7.9264958032e-01	 1.5414769175e+00	-1.6752287525e+00
 7.6486354144e-01	 1.5554511267e+00	-1.6056736513e+00
 7.3691468550e-01	 1.5688853338e+00	-1.5707425595e+00
 7.0881823602e-01	 1.5817778456e+00	-1.5689779587e+00
 8.5310603552e-01	 1.5216098422e+00	-1.9463339852e+00
 8.2551562015e-01	 1.5367531944e+00	-1.7960880479e+00
 7.9773066737e-01	 1.5513581798e+00	-1.6917803318e+00
 7.6976651286e-01	 1.5654219672e+00	-1.6261587487e+00
 7.4163849759e-01	 1.5789422911e+00	-1.5911651437e+00
 7.1336194267e-01	 1.5919174471e+00	-1.5835045613e+00
 8.5853983192e-01	 1.5313016246e+00	-1.9191720741e+00
 8.3077368142e-01	 1.5465414314e+00	-1.7782736430e+00
 8.0281175443e-01	 1.5612394421e+00	-1.6799717117e+00
 7.7466948428e-01	 1.5753928078e+00	-1.6167866243e+00
 7.4636230968e-01	 1.5889992484e+00	-1.5804438459e+00
 7.1790564931e-01	 1.6020570487e+00	-1.5657644966e+00
 8.6397362833e-01	 1.5409934071e+00	-1.8673370199e+00
 8.3603174270e-01	 1.5563296683e+00	-1.7341930431e+00
 8.0789284148e-01	 1.5711207044e+00	-1.6403289606e+00
 7.7957245570e-01	 1.5853636483e+00	-1.5780447126e+00
 7.5108612176e-01	 1.5990562056e+00	-1.5388590313e+00
 7.2244935595e-01	 1.6121966503e+00	-1.5160987507e+00
 8.6940742473e-01	 1.5506851895e+00	-1.7914449232e+00
 8.4128980397e-01	 1.5661179052e+00	-1.6644283894e+00
 8.1297392853e-01	 1.5810019667e+00	-1.5733982823e+00
 7.8447542712e-01	 1.5953344889e+00	-1.5104409099e+00
 7.5580993385e-01	 1.6091131629e+00	-1.4668776712e+00
 7.2699306259e-01	 1.6223362519e+00	-1.4348841064e+00
 7.0427452938e-01	 1.5716382440e+00	-1.5218817271e+00
 6.7622661978e-01	 1.5839087541e+00	-1.3595553396e+00
 6.4806215858e-01	 1.5956393143e+00	-1.2631919439e+00
 6.1979606860e-01	 1.6068298653e+00	-1.2083399389e+00
 5.9144315904e-01	 1.6174808723e+00	-1.1719901904e+00
 5.6301810365e-01	 1.6275933146e+00	-1.1326904654e+00
 7.0881823602e-01	 1.5817778456e+00	-1.5689779587e+00
 6.8058937217e-01	 1.5941275203e+00	-1.4071114729e+00
 6.5224320476e-01	 1.6059337615e+00	-1.3092524483e+00
 6.2379475292e-01	 1.6171965096e+00	-1.2511285777e+00
 5.9525892136e-01	 1.6279162328e+00	-1.2099767354e+00
 5.6665047851e-01	 1.6380939166e+00	-1.1646540557e+00
 7.1336194267e-01	 1.5919174471e+00	-1.5835045613e+00
 6.8495212455e-01	 1.6043462864e+00	-1.4228470128e+00
 6.5642425095e-01	 1.6162282087e+00	-1.3243748244e+00
 6.2779343723e-01	 1.6275631539e+00	-1.2640217065e+00
 5.9907468368e-01	 1.6383515933e+00	-1.2193030031e+00
 5.7028285338e-01	 1.6485945186e+00	-1.1694232841e+00
 7.1790564931e-01	 1.6020570487e+00	-1.5657644966e+00
 6.8931487694e-01	 1.6145650526e+00	-1.4069431707e+00
 6.6060529713e-01	 1.6265226559e+00	-1.3086120578e+00
 6.3179212154e-01	 1.6379297982e+00	-1.2469376952e+00
 6.0289044599e-01	 1.6487869537e+00	-1.1997467361e+00
 5.7391522824e-01	 1.6590951207e+00	-1.1466299279e+00
 7.2244935595e-01	 1.6121966503e+00	-1.5160987507e+00
 6.9367762933e-01	 1.6247838188e+00	-1.3596223569e+00
 6.6478634331e-01	 1.6368171031e+00	-1.2620611141e+00
 6.3579080586e-01	 1.6482964425e+00	-1.1998412460e+00
 6.0670620831e-01	 1.6592223142e+00	-1.1511339052e+00
 5.7754760310e-01	 1.6695957227e+00	-1.0959554114e+00
 7.2699306259e-01	 1.6223362519e+00	-1.4348841064e+00
 6.9804038171e-01	 1.6350025849e+00	-1.2811461298e+00
 6.6896738950e-01	 1.6471115502e+00	-1.1848610596e+00
 6.3978949017e-01	 1.6586630868e+00	-1.1227416793e+00
 6.1052197063e-01	 1.6696576747e+00	-1.0733371527e+00
 5.8117997796e-01	 1.6800963247e+00	-1.0171293985e+00
 5.6301810365e-01	 1.6275933146e+00	-1.1326904654e+00
 5.3453541978e-01	 1.6371686742e+00	-1.0019695155e+00
 5.0600944828e-01	 1.6462089239e+00	-9.1406089085e-01
 4.7745433428e-01	 1.6547165139e+00	-8.5254708468e-01
 4.4888400891e-01	 1.6626943583e+00	-8.0223365774e-01
 4.2031217201e-01	 1.6701458202e+00	-7.4902229239e-01
 5.6665047851e-01	 1.6380939166e+00	-1.1646540557e+00
 5.3798403539e-01	 1.6477310527e+00	-1.0364751130e+00
 5.0927402537e-01	 1.6568296266e+00	-9.4873833648e-01
 4.8053468482e-01	 1.6653921043e+00	-8.8529505124e-01
 4.5178003477e-01	 1.6734214187e+00	-8.3124780654e-01
 4.2302386344e-01	 1.6809209545e+00	-7.7280651662e-01
 5.7028285338e-01	 1.6485945186e+00	-1.1694232841e+00
 5.4143265100e-01	 1.6582934313e+00	-1.0440348225e+00
 5.1253860245e-01	 1.6674503293e+00	-9.5707014959e-01
 4.8361503537e-01	 1.6760676947e+00	-8.9270363994e-01
 4.5467606064e-01	 1.6841484791e+00	-8.3639256602e-01
 4.2573555487e-01	 1.6916960889e+00	-7.7471551715e-01
 5.7391522824e-01	 1.6590951207e+00	-1.1466299279e+00
 5.4488126662e-01	 1.6688558098e+00	-1.0241584012e+00
 5.1580317954e-01	 1.6780710321e+00	-9.3844037861e-01
 4.8669538591e-01	 1.6867432851e+00	-8.7402898383e-01
 4.5757208650e-01	 1.6948755395e+00	-8.1679568062e-01
 4.2844724631e-01	 1.7024712232e+00	-7.5375013971e-01
 5.7754760310e-01	 1.6695957227e+00	-1.0959554114e+00
 5.4832988223e-01	 1.6794181884e+00	-9.7640547073e-01
 5.1906775662e-01	 1.6886917348e+00	-8.9228267468e-01
 4.8977573645e-01	 1.6974188756e+00	-8.2857608227e-01
 4.6046811236e-01	 1.7056025998e+00	-7.7163256218e-01
 4.3115893774e-01	 1.7132463575e+00	-7.0895725529e-01
 5.8117997796e-01	 1.6800963247e+00	-1.0171293985e+00
 5.5177849784e-01	 1.6899805669e+00	-9.0038427250e-01
 5.2233233371e-01	 1.6993124375e+00	-8.1807920060e-01
 4.9285608700e-01	 1.7080944660e+00	-7.5569785373e-01
 4.6336413823e-01	 1.7163296602e+00	-7.0012547656e-01
 4.3387062917e-01	 1.7240214918e+00	-6.3942907042e-01
 4.2031217201e-01	 1.6701458202e+00	-7.4902229239e-01
 3.9175227582e-01	 1.6770746963e+00	-6.8094782521e-01
 3.6321750971e-01	 1.6834852014e+00	-5.7209691765e-01
 3.3472078592e-01	 1.6893819515e+00	-4.9875568832e-01
 3.0627472637e-01	 1.6947699474e+00	-5.0880293216e-01
 2.7789165056e-01	 1.6996545570e+00	-6.2089328196e-01
 4.2302386344e-01	 1.6809209545e+00	-7.7280651662e-01
 3.9427970986e-01	 1.6878945331e+00	-7.0065013056e-01
 3.6556084848e-01	 1.6943463963e+00	-5.8754805779e-01
 3.3688027486e-01	 1.7002811899e+00	-5.0125504363e-01
 3.0825069235e-01	 1.7057039471e+00	-4.9604836699e-01
 2.7968449992e-01	 1.7106200703e+00	-5.9100177372e-01
 4.2573555487e-01	 1.6916960889e+00	-7.7471551715e-01
 3.9680714390e-01	 1.6987143698e+00	-7.0161229872e-01
 3.6790418726e-01	 1.7052075911e+00	-5.8889838688e-01
 3.3903976380e-01	 1.7111804283e+00	-4.9466032880e-01
 3.1022665833e-01	 1.7166379467e+00	-4.7955264779e-01
 2.8147734927e-01	 1.7215855836e+00	-5.6303538270e-01
 4.2844724631e-01	 1.7024712232e+00	-7.5375013971e-01
 3.9933457793e-01	 1.7095342066e+00	-6.8270140556e-01
 3.7024752603e-01	 1.7160687860e+00	-5.7478731057e-01
 3.4119925274e-01	 1.7220796667e+00	-4.7756553251e-01
 3.1220262430e-01	 1.7275719464e+00	-4.5791293533e-01
 2.8327019863e-01	 1.7325510969e+00	-5.3564118905e-01
 4.3115893774e-01	 1.7132463575e+00	-7.0895725529e-01
 4.0186201197e-01	 1.7203540433e+00	-6.4282875777e-01
 3.7259086480e-01	 1.7269299808e+00	-5.4360051846e-01
 3.4335874168e-01	 1.7329789051e+00	-4.4858871324e-01
 3.1417859028e-01	 1.7385059461e+00	-4.2973965533e-01
 2.8506304799e-01	 1.7435166101e+00	-5.0747062721e-01
 4.3387062917e-01	 1.7240214918e+00	-6.3942907042e-01
 4.0438944601e-01	 1.7311738801e+00	-5.8094930846e-01
 3.7493420357e-01	 1.7377911756e+00	-4.9376624290e-01
 3.4551823062e-01	 1.7438781435e+00	-4.0637344122e-01
 3.1615455626e-01	 1.7494399457e+00	-3.9365768804e-01
 2.8685589735e-01	 1.7544821234e+00	-4.7718045014e-01
 2.7789165056e-01	 1.6996545570e+00	-6.2089328196e-01
 2.4958356443e-01	 1.7040414981e+00	-5.0460882505e-01
 2.2136215040e-01	 1.7079368200e+00	-4.1049159931e-01
 1.9323875839e-01	 1.7113468862e+00	-3.6146951902e-01
 1.6522439786e-01	 1.7142783558e+00	-3.8029904492e-01
 1.3732973095e-01	 1.7167381652e+00	-4.8949183773e-01
 2.7968449992e-01	 1.7106200703e+00	-5.9100177372e-01
 2.5119378097e-01	 1.7150353142e+00	-4.6813510525e-01
 2.2279029331e-01	 1.7189557672e+00	-3.6534892328e-01
 1.9448546006e-01	 1.7223878339e+00	-3.0543268271e-01
 1.6629036172e-01	 1.7253382161e+00	-3.1087818626e-01
 1.3821572921e-01	 1.7278138953e+00	-4.0384352093e-01
 2.8147734927e-01	 1.7215855836e+00	-5.6303538270e-01
 2.5280399752e-01	 1.7260291303e+00	-4.3948749438e-01
 2.2421843622e-01	 1.7299747144e+00	-3.3413129256e-01
 1.9573216173e-01	 1.7334287815e+00	-2.6953456211e-01
 1.6735632558e-01	 1.7363980765e+00	-2.6782894384e-01
 1.3910172748e-01	 1.7388896254e+00	-3.5071364892e-01
 2.8327019863e-01	 1.7325510969e+00	-5.3564118905e-01
 2.5441421406e-01	 1.7370229464e+00	-4.1740759729e-01
 2.2564657912e-01	 1.7409936617e+00	-3.1571544563e-01
 1.9697886339e-01	 1.7444697292e+00	-2.5282358570e-01
 1.6842228944e-01	 1.7474579369e+00	-2.5040336525e-01
 1.3998772574e-01	 1.7499653555e+00	-3.2958470430e-01
 2.8506304799e-01	 1.7435166101e+00	-5.0747062721e-01
 2.5602443061e-01	 1.7480167625e+00	-4.0063428662e-01
 2.2707472203e-01	 1.7520126089e+00	-3.0897006689e-01
 1.9822556506e-01	 1.7555106768e+00	-2.5433647954e-01
 1.6948825329e-01	 1.7585177972e+00	-2.5783971546e-01
 1.4087372401e-01	 1.7610410856e+00	-3.3992475661e-01
 2.8685589735e-01	 1.7544821234e+00	-4.7718045014e-01
 2.5763464715e-01	 1.7590105786e+00	-3.8790446897e-01
 2.2850286493e-01	 1.7630315561e+00	-3.1275638064e-01
 1.9947226673e-01	 1.7665516245e+00	-2.7309871419e-01
 1.7055421715e-01	 1.7695776576e+00	-2.8936280058e-01
 1.4175972227e-01	 1.7721168156e+00	-3.8118768596e-01
 1.3732973095e-01	 1.7167381652e+00	-4.8949183773e-01
 1.0956506654e-01	 1.7187335101e+00	-3.7067757363e-01
 8.1940355376e-02	 1.7202718276e+00	-2.9366178062e-01
 5.4465186096e-02	 1.7213607775e+00	-2.8350006618e-01
 2.7148782214e-02	 1.7220082248e+00	-3.6527496002e-01
 0.0000000000e+00	 1.7222222222e+00	-5.6414015796e-01
 1.3821572921e-01	 1.7278138953e+00	-4.0384352093e-01
 1.1027193794e-01	 1.7298221134e+00	-2.7638174806e-01
 8.2469002830e-02	 1.7313703555e+00	-1.8961467783e-01
 5.4816574394e-02	 1.7324663309e+00	-1.6825422785e-01
 2.7323935648e-02	 1.7331179553e+00	-2.3710214361e-01
 0.0000000000e+00	 1.7333333333e+00	-4.2113146799e-01
 1.3910172748e-01	 1.7388896254e+00	-3.5071364892e-01
 1.1097880933e-01	 1.7409107167e+00	-2.2126384508e-01
 8.2997650284e-02	 1.7424688835e+00	-1.3105193517e-01
 5.5167962691e-02	 1.7435718843e+00	-1.0432677326e-01
 2.7499089082e-02	 1.7442276858e+00	-1.6549045381e-01
 0.0000000000e+00	 1.7444444444e+00	-3.3921941166e-01
 1.3998772574e-01	 1.7499653555e+00	-3.2958470430e-01
 1.1168568073e-01	 1.7519993200e+00	-2.0504458458e-01
 8.3526297738e-02	 1.7535674114e+00	-1.1794871132e-01
 5.5519350988e-02	 1.7546774377e+00	-9.1957477617e-02
 2.7674242515e-02	 1.7553374163e+00	-1.5094831078e-01
 0.0000000000e+00	 1.7555555556e+00	-3.1917889417e-01
 1.4087372401e-01	 1.7610410856e+00	-3.3992475661e-01
 1.1239255213e-01	 1.7630879233e+00	-2.2743130331e-01
 8.4054945192e-02	 1.7646659393e+00	-1.5026897677e-01
 5.5870739286e-02	 1.7657829911e+00	-1.3137814255e-01
 2.7849395949e-02	 1.7664471467e+00	-1.9398024488e-01
 0.0000000000e+00	 1.7666666667e+00	-3.6178572988e-01
 1.4175972227e-01	 1.7721168156e+00	-3.8118768596e-01
 1.1309942352e-01	 1.7741765266e+00	-2.8811808966e-01
 8.4583592646e-02	 1.7757644672e+00	-2.2796558032e-01
 5.6222127583e-02	 1.7768885445e+00	-2.2281261367e-01
 2.8024549382e-02	 1.7775568772e+00	-2.9508688314e-01
 0.0000000000e+00	 1.7777777778e+00	-4.6781661387e-01
 1.7777777778e+00	 0.0000000000e+00	 3.4568396854e+00
 1.7775568772e+00	 2.8024549382e-02	 3.4030681563e+00
 1.7768885445e+00	 5.6222127583e-02	 3.3728775247e+00
 1.7757644672e+00	 8.4583592646e-02	 3.3490402820e+00
 1.7741765266e+00	 1.1309942352e-01	 3.3144860341e+00
 1.7721168156e+00	 1.4175972227e-01	 3.2520108628e+00
 1.7888888889e+00	 0.0000000000e+00	 3.2927316860e+00
 1.7886666077e+00	 2.8199702816e-02	 3.2531316782e+00
 1.7879940979e+00	 5.6573515881e-02	 3.2365032429e+00
 1.7868629951e+00	 8.5112240100e-02	 3.2265519911e+00
 1.7852651299e+00	 1.1380629492e-01	 3.2072469844e+00
 1.7831925457e+00	 1.4264572053e-01	 3.1624792041e+00
 1.8000000000e+00	 0.0000000000e+00	 3.1906282495e+00
 1.7997763382e+00	 2.8374856250e-02	 3.1598916558e+00
 1.7990996513e+00	 5.6924904178e-02	 3.1508067771e+00
 1.7979615231e+00	 8.5640887554e-02	 3.1481476691e+00
 1.7963537332e+00	 1.1451316632e-01	 3.1370643281e+00
 1.7942682758e+00	 1.4353171880e-01	 3.1026875727e+00
 1.8111111111e+00	 0.0000000000e+00	 3.1506908449e+00
 1.8108860687e+00	 2.8550009683e-02	 3.1233894467e+00
 1.8102052047e+00	 5.7276292475e-02	 3.1156962364e+00
 1.8090600510e+00	 8.6169535008e-02	 3.1135954586e+00
 1.8074423365e+00	 1.1522003772e-01	 3.1035661024e+00
 1.8053440059e+00	 1.4441771706e-01	 3.0721304165e+00
 1.8222222222e+00	 0.0000000000e+00	 3.1730817382e+00
 1.8219957992e+00	 2.8725163117e-02	 3.1436665053e+00
 1.8213107581e+00	 5.7627680773e-02	 3.1310791850e+00
 1.8201585789e+00	 8.6698182462e-02	 3.1226625242e+00
 1.8185309398e+00	 1.1592690911e-01	 3.1063792973e+00
 1.8164197360e+00	 1.4530371533e-01	 3.0703015854e+00
 1.8333333333e+00	 0.0000000000e+00	 3.2579639687e+00
 1.8331055296e+00	 2.8900316551e-02	 3.2207643621e+00
 1.8324163115e+00	 5.7979069070e-02	 3.1968626290e+00
 1.8312571068e+00	 8.7226829916e-02	 3.1751150553e+00
 1.8296195431e+00	 1.1663378051e-01	 3.1451298822e+00
 1.8274954661e+00	 1.4618971359e-01	 3.0966943916e+00
 1.7721168156e+00	 1.4175972227e-01	 3.2520108628e+00
 1.7695776576e+00	 1.7055421715e-01	 3.1649171541e+00
 1.7665516245e+00	 1.9947226673e-01	 3.0961737290e+00
 1.7630315561e+00	 2.2850286493e-01	 3.0275279051e+00
 1.7590105786e+00	 2.5763464715e-01	 2.9392852255e+00
 1.7544821234e+00	 2.8685589735e-01	 2.8101591555e+00
 1.7831925457e+00	 1.4264572053e-01	 3.1624792041e+00
 1.7806375179e+00	 1.7162018101e-01	 3.0933234294e+00
 1.7775925721e+00	 2.0071896840e-01	 3.0406484476e+00
 1.7740505033e+00	 2.2993100784e-01	 2.9870433946e+00
 1.7700043948e+00	 2.5924486370e-01	 2.9134952444e+00
 1.7654476367e+00	 2.8864874671e-01	 2.7991814102e+00
 1.7942682758e+00	 1.4353171880e-01	 3.1026875727e+00
 1.7916973783e+00	 1.7268614486e-01	 3.0441463295e+00
 1.7886335198e+00	 2.0196567006e-01	 3.0002965772e+00
 1.7850694506e+00	 2.3135915075e-01	 2.9547078315e+00
 1.7809982109e+00	 2.6085508024e-01	 2.8891781057e+00
 1.7764131499e+00	 2.9044159607e-01	 2.7834661818e+00
 1.8053440059e+00	 1.4441771706e-01	 3.0721304165e+00
 1.8027572386e+00	 1.7375210872e-01	 3.0167573608e+00
 1.7996744674e+00	 2.0321237173e-01	 2.9743848822e+00
 1.7960883978e+00	 2.3278729365e-01	 2.9297077284e+00
 1.7919920270e+00	 2.6246529679e-01	 2.8654705375e+00
 1.7873786632e+00	 2.9223444542e-01	 2.7621364387e+00
 1.8164197360e+00	 1.4530371533e-01	 3.0703015854e+00
 1.8138170990e+00	 1.7481807258e-01	 3.0105286128e+00
 1.8107154151e+00	 2.0445907340e-01	 2.9621827502e+00
 1.8071073450e+00	 2.3421543656e-01	 2.9112352663e+00
 1.8029858431e+00	 2.6407551333e-01	 2.8415191257e+00
 1.7983441765e+00	 2.9402729478e-01	 2.7343304729e+00
 1.8274954661e+00	 1.4618971359e-01	 3.0966943916e+00
 1.8248769594e+00	 1.7588403644e-01	 3.0248328633e+00
 1.8217563627e+00	 2.0570577506e-01	 2.9629623537e+00
 1.8181262922e+00	 2.3564357946e-01	 2.8984885266e+00
 1.8139796592e+00	 2.6568572988e-01	 2.8164806318e+00
 1.8093096898e+00	 2.9582014414e-01	 2.6992023191e+00
 1.7544821234e+00	 2.8685589735e-01	 2.8101591555e+00
 1.7494399457e+00	 3.1615455626e-01	 2.6927764491e+00
 1.7438781435e+00	 3.4551823062e-01	 2.6036496999e+00
 1.7377911756e+00	 3.7493420357e-01	 2.5177443326e+00
 1.7311738801e+00	 4.0438944601e-01	 2.4011539108e+00
 1.7240214918e+00	 4.3387062917e-01	 2.2508410775e+00
 1.7654476367e+00	 2.8864874671e-01	 2.7991814102e+00
 1.7603739454e+00	 3.1813052223e-01	 2.6921945029e+00
 1.7547773819e+00	 3.4767771957e-01	 2.6120053371e+00
 1.7486523705e+00	 3.7727754234e-01	 2.5327694805e+00
 1.7419937168e+00	 4.0691688005e-01	 2.4212852025e+00
 1.7347966262e+00	 4.3658232060e-01	 2.2768767344e+00
 1.7764131499e+00	 2.9044159607e-01	 2.7834661818e+00
 1.7713079451e+00	 3.2010648821e-01	 2.6815138735e+00
 1.7656766203e+00	 3.4983720851e-01	 2.6055740164e+00
 1.7595135653e+00	 3.7962088112e-01	 2.5290034155e+00
 1.7528135536e+00	 4.0944431408e-01	 2.4199189120e+00
 1.7455717605e+00	 4.3929401204e-01	 2.2794444919e+00
 1.7873786632e+00	 2.9223444542e-01	 2.7621364387e+00
 1.7822419447e+00	 3.2208245419e-01	 2.6598796540e+00
 1.7765758587e+00	 3.5199669745e-01	 2.5835680343e+00
 1.7703747602e+00	 3.8196421989e-01	 2.5058207901e+00
 1.7636333903e+00	 4.1197174812e-01	 2.3965630467e+00
 1.7563468948e+00	 4.4200570347e-01	 2.2581871081e+00
 1.7983441765e+00	 2.9402729478e-01	 2.7343304729e+00
 1.7931759444e+00	 3.2405842016e-01	 2.6264592493e+00
 1.7874750971e+00	 3.5415618639e-01	 2.5452305006e+00
 1.7812359550e+00	 3.8430755866e-01	 2.4626332918e+00
 1.7744532271e+00	 4.1449918216e-01	 2.3507630372e+00
 1.7671220291e+00	 4.4471739490e-01	 2.2127845280e+00
 1.8093096898e+00	 2.9582014414e-01	 2.6992023191e+00
 1.8041099440e+00	 3.2603438614e-01	 2.5804429102e+00
 1.7983743355e+00	 3.5631567533e-01	 2.4898360067e+00
 1.7920971499e+00	 3.8665089743e-01	 2.3988888904e+00
 1.7852730638e+00	 4.1702661620e-01	 2.2821008423e+00
 1.7778971635e+00	 4.4742908633e-01	 2.1429528328e+00
 1.7240214918e+00	 4.3387062917e-01	 2.2508410775e+00
 1.7163296602e+00	 4.6336413823e-01	 2.1165854877e+00
 1.7080944660e+00	 4.9285608700e-01	 1.9648532472e+00
 1.6993124375e+00	 5.2233233371e-01	 1.8077337046e+00
 1.6899805669e+00	 5.5177849784e-01	 1.6584793584e+00
 1.6800963247e+00	 5.8117997796e-01	 1.5316772987e+00
 1.7347966262e+00	 4.3658232060e-01	 2.2768767344e+00
 1.7270567206e+00	 4.6626016409e-01	 2.1460901891e+00
 1.7187700564e+00	 4.9593643754e-01	 1.9974253334e+00
 1.7099331403e+00	 5.2559691080e-01	 1.8422284315e+00
 1.7005429454e+00	 5.5522711345e-01	 1.6930380478e+00
 1.6905969268e+00	 5.8481235282e-01	 1.5637759354e+00
 1.7455717605e+00	 4.3929401204e-01	 2.2794444919e+00
 1.7377837810e+00	 4.6915618996e-01	 2.1507072585e+00
 1.7294456468e+00	 4.9901678809e-01	 2.0042691970e+00
 1.7205538430e+00	 5.2886148788e-01	 1.8506630758e+00
 1.7111053240e+00	 5.5867572906e-01	 1.7016485108e+00
 1.7010975288e+00	 5.8844472769e-01	 1.5704231522e+00
 1.7563468948e+00	 4.4200570347e-01	 2.2581871081e+00
 1.7485108414e+00	 4.7205221582e-01	 2.1302150873e+00
 1.7401212372e+00	 5.0209713863e-01	 1.9852956562e+00
 1.7311745457e+00	 5.3212606497e-01	 1.8330758244e+00
 1.7216677025e+00	 5.6212434467e-01	 1.6844697547e+00
 1.7115981308e+00	 5.9207710255e-01	 1.5518911241e+00
 1.7671220291e+00	 4.4471739490e-01	 2.2127845280e+00
 1.7592379017e+00	 4.7494824168e-01	 2.0844283179e+00
 1.7507968276e+00	 5.0517748917e-01	 1.9404501731e+00
 1.7417952485e+00	 5.3539064205e-01	 1.7895372212e+00
 1.7322300811e+00	 5.6557296028e-01	 1.6416901813e+00
 1.7220987328e+00	 5.9570947741e-01	 1.5084777946e+00
 1.7778971635e+00	 4.4742908633e-01	 2.1429528328e+00
 1.7699649621e+00	 4.7784426755e-01	 2.0131966249e+00
 1.7614724180e+00	 5.0825783972e-01	 1.8697114529e+00
 1.7524159512e+00	 5.3865521914e-01	 1.7201485723e+00
 1.7427924596e+00	 5.6902157590e-01	 1.5735257842e+00
 1.7325993349e+00	 5.9934185227e-01	 1.4405048532e+00
 1.6800963247e+00	 5.8117997796e-01	 1.5316772987e+00
 1.6696576747e+00	 6.1052197063e-01	 1.3775517288e+00
 1.6586630868e+00	 6.3978949017e-01	 1.2051092910e+00
 1.6471115502e+00	 6.6896738950e-01	 1.0336949015e+00
 1.6350025849e+00	 6.9804038171e-01	 8.8423758600e-01
 1.6223362519e+00	 7.2699306259e-01	 7.7906563344e-01
 1.6905969268e+00	 5.8481235282e-01	 1.5637759354e+00
 1.6800930351e+00	 6.1433773294e-01	 1.4112378634e+00
 1.6690297311e+00	 6.4378817449e-01	 1.2390258569e+00
 1.6574059974e+00	 6.7314843568e-01	 1.0660196467e+00
 1.6452213511e+00	 7.0240313410e-01	 9.1276282480e-01
 1.6324758534e+00	 7.3153676923e-01	 8.0127542332e-01
 1.7010975288e+00	 5.8844472769e-01	 1.5704231522e+00
 1.6905283956e+00	 6.1815349526e-01	 1.4199827170e+00
 1.6793963754e+00	 6.4778685880e-01	 1.2487705974e+00
 1.6677004446e+00	 6.7732948187e-01	 1.0751647255e+00
 1.6554401172e+00	 7.0676588648e-01	 9.1929441343e-01
 1.6426154550e+00	 7.3608047587e-01	 8.0285016796e-01
 1.7115981308e+00	 5.9207710255e-01	 1.5518911241e+00
 1.7009637561e+00	 6.2196925757e-01	 1.4041691590e+00
 1.6897630197e+00	 6.5178554311e-01	 1.2348289622e+00
 1.6779948918e+00	 6.8151052805e-01	 1.0617101635e+00
 1.6656588834e+00	 7.1112863887e-01	 9.0449946422e-01
 1.6527550566e+00	 7.4062418251e-01	 7.8453748309e-01
 1.7220987328e+00	 5.9570947741e-01	 1.5084777946e+00
 1.7113991165e+00	 6.2578501989e-01	 1.3642014194e+00
 1.7001296639e+00	 6.5578422743e-01	 1.1977027353e+00
 1.6882893390e+00	 6.8569157424e-01	 1.0262467242e+00
 1.6758776495e+00	 7.1549139125e-01	 8.6904971625e-01
 1.6628946582e+00	 7.4516788915e-01	 7.4716228809e-01
 1.7325993349e+00	 5.9934185227e-01	 1.4405048532e+00
 1.7218344770e+00	 6.2960078221e-01	 1.3005028390e+00
 1.7104963082e+00	 6.5978291174e-01	 1.1379075496e+00
 1.6985837862e+00	 6.8987262042e-01	 9.6937317672e-01
 1.6860964157e+00	 7.1985414364e-01	 8.1361854865e-01
 1.6730342597e+00	 7.4971159580e-01	 6.9155227362e-01
 1.6223362519e+00	 7.2699306259e-01	 7.7906563344e-01
 1.6091131629e+00	 7.5580993385e-01	 5.5713489761e-01
 1.5953344889e+00	 7.8447542712e-01	 3.6246352843e-01
 1.5810019667e+00	 8.1297392853e-01	 2.0303257303e-01
 1.5661179052e+00	 8.4128980397e-01	 8.5495723120e-02
 1.5506851895e+00	 8.6940742473e-01	 1.5262233957e-02
 1.6324758534e+00	 7.3153676923e-01	 8.0127542332e-01
 1.6191701202e+00	 7.6053374594e-01	 5.8607205790e-01
 1.6053053294e+00	 7.8937839854e-01	 3.9384820139e-01
 1.5908832290e+00	 8.1805501559e-01	 2.3231080661e-01
 1.5759061421e+00	 8.4654786525e-01	 1.0813450239e-01
 1.5603769720e+00	 8.7484122113e-01	 2.6780113221e-02
 1.6426154550e+00	 7.3608047587e-01	 8.0285016796e-01
 1.6292270774e+00	 7.6525755802e-01	 5.9535199696e-01
 1.6152761700e+00	 7.9428136995e-01	 4.0652391229e-01
 1.6007644913e+00	 8.2313610264e-01	 2.4384674715e-01
 1.5856943790e+00	 8.5180592652e-01	 1.1401544187e-01
 1.5700687544e+00	 8.8027501754e-01	 2.2545046271e-02
 1.6527550566e+00	 7.4062418251e-01	 7.8453748309e-01
 1.6392840347e+00	 7.6998137011e-01	 5.8578989692e-01
 1.6252470105e+00	 7.9918434137e-01	 4.0130321526e-01
 1.6106457536e+00	 8.2821718969e-01	 2.3845065561e-01
 1.5954826159e+00	 8.5706398780e-01	 1.0394649799e-01
 1.5797605368e+00	 8.8570881394e-01	 3.3624847700e-03
 1.6628946582e+00	 7.4516788915e-01	 7.4716228809e-01
 1.6493409920e+00	 7.7470518220e-01	 5.5816503010e-01
 1.6352178511e+00	 8.0408731279e-01	 3.7896287602e-01
 1.6205270159e+00	 8.3329827675e-01	 2.1689698539e-01
 1.6052708528e+00	 8.6232204907e-01	 7.8699643489e-02
 1.5894523193e+00	 8.9114261035e-01	-2.9998448879e-02
 1.6730342597e+00	 7.4971159580e-01	 6.9155227362e-01
 1.6593979493e+00	 7.7942899428e-01	 5.1322172143e-01
 1.6451886917e+00	 8.0899028421e-01	 3.4024486809e-01
 1.6304082782e+00	 8.3837936380e-01	 1.7992540703e-01
 1.6150590897e+00	 8.6758011034e-01	 3.9011915196e-02
 1.5991441017e+00	 8.9657640675e-01	-7.6803896245e-02
 1.5506851895e+00	 8.6940742473e-01	 1.5262233957e-02
 1.5347072844e+00	 8.9731119366e-01	-2.2471700480e-01
 1.5181882358e+00	 9.2498557163e-01	-4.3610669242e-01
 1.5011326711e+00	 9.5241510425e-01	-6.1844155557e-01
 1.4835457981e+00	 9.7958444873e-01	-7.7476833301e-01
 1.4654334020e+00	 1.0064784009e+00	-8.8449298800e-01
 1.5603769720e+00	 8.7484122113e-01	 2.6780113221e-02
 1.5442992050e+00	 9.0291938862e-01	-2.1261021905e-01
 1.5276769123e+00	 9.3076673146e-01	-4.2088188801e-01
 1.5105147503e+00	 9.5836769865e-01	-5.9756605574e-01
 1.4928179593e+00	 9.8570685154e-01	-7.4576123516e-01
 1.4745923608e+00	 1.0127688909e+00	-8.6781950350e-01
 1.5700687544e+00	 8.8027501754e-01	 2.2545046271e-02
 1.5538911255e+00	 9.0852758358e-01	-2.1579179925e-01
 1.5371655888e+00	 9.3654789128e-01	-4.2053176199e-01
 1.5198968295e+00	 9.6432029305e-01	-5.9119069509e-01
 1.5020901205e+00	 9.9182925434e-01	-7.3090483163e-01
 1.4837513195e+00	 1.0190593809e+00	-8.4717644135e-01
 1.5797605368e+00	 8.8570881394e-01	 3.3624847700e-03
 1.5634830460e+00	 9.1413577854e-01	-2.3344859791e-01
 1.5466542653e+00	 9.4232905110e-01	-4.3423398040e-01
 1.5292789087e+00	 9.7027288745e-01	-5.9848217143e-01
 1.5113622818e+00	 9.9795165715e-01	-7.2935262592e-01
 1.4929102783e+00	 1.0253498709e+00	-8.3444550854e-01
 1.5894523193e+00	 8.9114261035e-01	-2.9998448879e-02
 1.5730749665e+00	 9.1974397350e-01	-2.6480457424e-01
 1.5561429417e+00	 9.4811021092e-01	-4.6120431324e-01
 1.5386609879e+00	 9.7622548186e-01	-6.1864650282e-01
 1.5206344430e+00	 1.0040740600e+00	-7.4029887172e-01
 1.5020692371e+00	 1.0316403609e+00	-8.3384250020e-01
 1.5991441017e+00	 8.9657640675e-01	-7.6803896245e-02
 1.5826668871e+00	 9.2535216846e-01	-3.0911970952e-01
 1.5656316182e+00	 9.5389137075e-01	-5.0069553544e-01
 1.5480430671e+00	 9.8217807626e-01	-6.5092791903e-01
 1.5299066043e+00	 1.0101964628e+00	-7.6297745970e-01
 1.5112281958e+00	 1.0379308509e+00	-8.4458856534e-01
 1.4654334020e+00	 1.0064784009e+00	-8.8449298800e-01
 1.4468018419e+00	 1.0330819220e+00	-9.4065559756e-01
 1.4276580444e+00	 1.0593801656e+00	-1.0000268520e+00
 1.4080094972e+00	 1.0853585044e+00	-1.1073809313e+00
 1.3878642397e+00	 1.1110025559e+00	-1.3060638090e+00
 1.3672308537e+00	 1.1362982090e+00	-1.5867916426e+00
 1.4745923608e+00	 1.0127688909e+00	-8.6781950350e-01
 1.4558443534e+00	 1.0395386840e+00	-9.4278580561e-01
 1.4365809072e+00	 1.0660012917e+00	-1.0138009585e+00
 1.4168095565e+00	 1.0921419950e+00	-1.1277012922e+00
 1.3965383912e+00	 1.1179463219e+00	-1.3271187172e+00
 1.3757760466e+00	 1.1434000728e+00	-1.5854624283e+00
 1.4837513195e+00	 1.0190593809e+00	-8.4717644135e-01
 1.4648868649e+00	 1.0459954460e+00	-9.4207244301e-01
 1.4455037700e+00	 1.0726224177e+00	-1.0261093829e+00
 1.4256096159e+00	 1.0989254857e+00	-1.1477241390e+00
 1.4052125427e+00	 1.1248900879e+00	-1.3431447866e+00
 1.3843212394e+00	 1.1505019366e+00	-1.5805983696e+00
 1.4929102783e+00	 1.0253498709e+00	-8.3444550854e-01
 1.4739293764e+00	 1.0524522080e+00	-9.3859666235e-01
 1.4544266328e+00	 1.0792435438e+00	-1.0369250111e+00
 1.4344096752e+00	 1.1057089763e+00	-1.1672894709e+00
 1.4138866942e+00	 1.1318338538e+00	-1.3545341810e+00
 1.3928664323e+00	 1.1576038004e+00	-1.5724813481e+00
 1.5020692371e+00	 1.0316403609e+00	-8.3384250020e-01
 1.4829718879e+00	 1.0589089700e+00	-9.3266904766e-01
 1.4633494955e+00	 1.0858646698e+00	-1.0462619119e+00
 1.4432097346e+00	 1.1124924670e+00	-1.1861827797e+00
 1.4225608457e+00	 1.1387776198e+00	-1.3617196214e+00
 1.4014116251e+00	 1.1647056642e+00	-1.5614335535e+00
 1.5112281958e+00	 1.0379308509e+00	-8.4458856534e-01
 1.4920143994e+00	 1.0653657320e+00	-9.3296695735e-01
 1.4722723583e+00	 1.0924857958e+00	-1.0541804863e+00
 1.4520097940e+00	 1.1192759577e+00	-1.2015422501e+00
 1.4312349972e+00	 1.1457213858e+00	-1.3651702301e+00
 1.4099568179e+00	 1.1718075280e+00	-1.5478141672e+00
 1.3672308537e+00	 1.1362982090e+00	-1.5867916426e+00
 1.3461184513e+00	 1.1612316488e+00	-1.5683344427e+00
 1.3245366621e+00	 1.1857893818e+00	-1.5900194037e+00
 1.3024956189e+00	 1.2099582596e+00	-1.6489028552e+00
 1.2800059419e+00	 1.2337255026e+00	-1.7387954194e+00
 1.2570787221e+00	 1.2570787221e+00	-1.8513445590e+00
 1.3757760466e+00	 1.1434000728e+00	-1.5854624283e+00
 1.3545316916e+00	 1.1684893466e+00	-1.5716095757e+00
 1.3328150162e+00	 1.1932005654e+00	-1.5963862059e+00
 1.3106362165e+00	 1.2175204987e+00	-1.6574829306e+00
 1.2880059790e+00	 1.2414362870e+00	-1.7491863912e+00
 1.2649354641e+00	 1.2649354641e+00	-1.8635085627e+00
 1.3843212394e+00	 1.1505019366e+00	-1.5805983696e+00
 1.3629449320e+00	 1.1757470444e+00	-1.5705249868e+00
 1.3410933704e+00	 1.2006117491e+00	-1.5974802940e+00
 1.3187768141e+00	 1.2250827379e+00	-1.6598052678e+00
 1.2960060162e+00	 1.2491470714e+00	-1.7522708177e+00
 1.2727922061e+00	 1.2727922061e+00	-1.8672556554e+00
 1.3928664323e+00	 1.1576038004e+00	-1.5724813481e+00
 1.3713581723e+00	 1.1830047422e+00	-1.5652979629e+00
 1.3493717245e+00	 1.2080229327e+00	-1.5934595576e+00
 1.3269174117e+00	 1.2326449770e+00	-1.6559725120e+00
 1.3040060533e+00	 1.2568578558e+00	-1.7480988924e+00
 1.2806489481e+00	 1.2806489481e+00	-1.8625847484e+00
 1.4014116251e+00	 1.1647056642e+00	-1.5614335535e+00
 1.3797714126e+00	 1.1902624400e+00	-1.5561862442e+00
 1.3576500786e+00	 1.2154341163e+00	-1.5845230361e+00
 1.3350580093e+00	 1.2402072161e+00	-1.6461296531e+00
 1.3120060905e+00	 1.2645686402e+00	-1.7367647848e+00
 1.2885056902e+00	 1.2885056902e+00	-1.8495407299e+00
 1.4099568179e+00	 1.1718075280e+00	-1.5478141672e+00
 1.3881846529e+00	 1.1975201378e+00	-1.5434848007e+00
 1.3659284328e+00	 1.2228453000e+00	-1.5709077989e+00
 1.3431986069e+00	 1.2477694552e+00	-1.6304610208e+00
 1.3200061276e+00	 1.2722794246e+00	-1.7184037620e+00
 1.2963624322e+00	 1.2963624322e+00	-1.8282117223e+00
 1.2570787221e+00	 1.2570787221e+00	-1.8513445590e+00
 1.2337255026e+00	 1.2800059419e+00	-1.9196545970e+00
 1.2099582596e+00	 1.3024956189e+00	-1.9630247606e+00
 1.1857893818e+00	 1.3245366621e+00	-1.9740613844e+00
 1.1612316488e+00	 1.3461184513e+00	-1.9481227012e+00
 1.1362982090e+00	 1.3672308537e+00	-1.8844927558e+00
 1.2649354641e+00	 1.2649354641e+00	-1.8635085627e+00
 1.2414362870e+00	 1.2880059790e+00	-1.9344465145e+00
 1.2175204987e+00	 1.3106362165e+00	-1.9800479941e+00
 1.1932005654e+00	 1.3328150162e+00	-1.9933279506e+00
 1.1684893466e+00	 1.3545316916e+00	-1.9701589458e+00
 1.1434000728e+00	 1.3757760466e+00	-1.9104985237e+00
 1.2727922061e+00	 1.2727922061e+00	-1.8672556554e+00
 1.2491470714e+00	 1.2960060162e+00	-1.9400117813e+00
 1.2250827379e+00	 1.3187768141e+00	-1.9869796991e+00
 1.2006117491e+00	 1.3410933704e+00	-2.0015788132e+00
 1.1757470444e+00	 1.3629449320e+00	-1.9801942456e+00
 1.1505019366e+00	 1.3843212394e+00	-1.9234598483e+00
 1.2806489481e+00	 1.2806489481e+00	-1.8625847484e+00
 1.2568578558e+00	 1.3040060533e+00	-1.9362906719e+00
 1.2326449770e+00	 1.3269174117e+00	-1.9836986751e+00
 1.2080229327e+00	 1.3493717245e+00	-1.9986264364e+00
 1.1830047422e+00	 1.3713581723e+00	-1.9779678452e+00
 1.1576038004e+00	 1.3928664323e+00	-1.9230339120e+00
 1.2885056902e+00	 1.2885056902e+00	-1.8495407299e+00
 1.2645686402e+00	 1.3120060905e+00	-1.9232718981e+00
 1.2402072161e+00	 1.3350580093e+00	-1.9701348425e+00
 1.2154341163e+00	 1.3576500786e+00	-1.9843372304e+00
 1.1902624400e+00	 1.3797714126e+00	-1.9632758174e+00
 1.1647056642e+00	 1.4014116251e+00	-1.9089375820e+00
 1.2963624322e+00	 1.2963624322e+00	-1.8282117223e+00
 1.2722794246e+00	 1.3200061276e+00	-1.9009900050e+00
 1.2477694552e+00	 1.3431986069e+00	-1.9462667840e+00
 1.2228453000e+00	 1.3659284328e+00	-1.9586292434e+00
 1.1975201378e+00	 1.3881846529e+00	-1.9359689120e+00
 1.1718075280e+00	 1.4099568179e+00	-1.8809454180e+00
 1.1362982090e+00	 1.3672308537e+00	-1.8844927558e+00
 1.1110025559e+00	 1.3878642397e+00	-2.0705989763e+00
 1.0853585044e+00	 1.4080094972e+00	-2.1423523520e+00
 1.0593801656e+00	 1.4276580444e+00	-2.1132466636e+00
 1.0330819220e+00	 1.4468018419e+00	-2.0228672355e+00
 1.0064784009e+00	 1.4654334020e+00	-1.9146721815e+00
 1.1434000728e+00	 1.3757760466e+00	-1.9104985237e+00
 1.1179463219e+00	 1.3965383912e+00	-2.0791038929e+00
 1.0921419950e+00	 1.4168095565e+00	-2.1472588887e+00
 1.0660012917e+00	 1.4365809072e+00	-2.1208559793e+00
 1.0395386840e+00	 1.4558443534e+00	-2.0403994851e+00
 1.0127688909e+00	 1.4745923608e+00	-1.9514517398e+00
 1.1505019366e+00	 1.3843212394e+00	-1.9234598483e+00
 1.1248900879e+00	 1.4052125427e+00	-2.0749022199e+00
 1.0989254857e+00	 1.4256096159e+00	-2.1381201817e+00
 1.0726224177e+00	 1.4455037700e+00	-2.1155791370e+00
 1.0459954460e+00	 1.4648868649e+00	-2.0462124452e+00
 1.0190593809e+00	 1.4837513195e+00	-1.9773161342e+00
 1.1576038004e+00	 1.3928664323e+00	-1.9230339120e+00
 1.1318338538e+00	 1.4138866942e+00	-2.0575323837e+00
 1.1057089763e+00	 1.4344096752e+00	-2.1141659418e+00
 1.0792435438e+00	 1.4544266328e+00	-2.0964803579e+00
 1.0524522080e+00	 1.4739293764e+00	-2.0392052750e+00
 1.0253498709e+00	 1.4929102783e+00	-1.9805647991e+00
 1.1647056642e+00	 1.4014116251e+00	-1.9089375820e+00
 1.1387776198e+00	 1.4225608457e+00	-2.0265955863e+00
 1.1124924670e+00	 1.4432097346e+00	-2.0747620778e+00
 1.0858646698e+00	 1.4633494955e+00	-2.0627070896e+00
 1.0589089700e+00	 1.4829718879e+00	-2.0182012022e+00
 1.0316403609e+00	 1.5020692371e+00	-1.9575086715e+00
 1.1718075280e+00	 1.4099568179e+00	-1.8809454180e+00
 1.1457213858e+00	 1.4312349972e+00	-1.9817542536e+00
 1.1192759577e+00	 1.4520097940e+00	-2.0206911799e+00
 1.0924857958e+00	 1.4722723583e+00	-2.0134930928e+00
 1.0653657320e+00	 1.4920143994e+00	-1.9757603053e+00
 1.0379308509e+00	 1.5112281958e+00	-1.9092275980e+00
 1.0064784009e+00	 1.4654334020e+00	-1.9146721815e+00
 9.7958444873e-01	 1.4835457981e+00	-1.8792643240e+00
 9.5241510425e-01	 1.5011326711e+00	-1.8650605096e+00
 9.2498557163e-01	 1.5181882358e+00	-1.8468780425e+00
 8.9731119366e-01	 1.5347072844e+00	-1.8235640515e+00
 8.6940742473e-01	 1.5506851895e+00	-1.7914449232e+00
 1.0127688909e+00	 1.4745923608e+00	-1.9514517398e+00
 9.8570685154e-01	 1.4928179593e+00	-1.9295271463e+00
 9.5836769865e-01	 1.5105147503e+00	-1.9084611399e+00
 9.3076673146e-01	 1.5276769123e+00	-1.8856449289e+00
 9.0291938862e-01	 1.5442992050e+00	-1.8600926357e+00
 8.7484122113e-01	 1.5603769720e+00	-1.8282280494e+00
 1.0190593809e+00	 1.4837513195e+00	-1.9773161342e+00
 9.9182925434e-01	 1.5020901205e+00	-1.9516701652e+00
 9.6432029305e-01	 1.5198968295e+00	-1.9240314616e+00
 9.3654789128e-01	 1.5371655888e+00	-1.8968149865e+00
 9.0852758358e-01	 1.5538911255e+00	-1.8691990290e+00
 8.8027501754e-01	 1.5700687544e+00	-1.8377026713e+00
 1.0253498709e+00	 1.4929102783e+00	-1.9805647991e+00
 9.9795165715e-01	 1.5113622818e+00	-1.9467015058e+00
 9.7027288745e-01	 1.5292789087e+00	-1.9127126657e+00
 9.4232905110e-01	 1.5466542653e+00	-1.8812645259e+00
 9.1413577854e-01	 1.5634830460e+00	-1.8516958385e+00
 8.8570881394e-01	 1.5797605368e+00	-1.8206180725e+00
 1.0316403609e+00	 1.5020692371e+00	-1.9575086715e+00
 1.0040740600e+00	 1.5206344430e+00	-1.9156331051e+00
 9.7622548186e-01	 1.5386609879e+00	-1.8754518812e+00
 9.4811021092e-01	 1.5561429417e+00	-1.8398778995e+00
 9.1974397350e-01	 1.5730749665e+00	-1.8084057576e+00
 8.9114261035e-01	 1.5894523193e+00	-1.7777355698e+00
 1.0379308509e+00	 1.5112281958e+00	-1.9092275980e+00
 1.0101964628e+00	 1.5299066043e+00	-1.8594791889e+00
 9.8217807626e-01	 1.5480430671e+00	-1.8132007357e+00
 9.5389137075e-01	 1.5656316182e+00	-1.7735461496e+00
 9.2535216846e-01	 1.5826668871e+00	-1.7401603007e+00
 8.9657640675e-01	 1.5991441017e+00	-1.7098273340e+00
 8.6940742473e-01	 1.5506851895e+00	-1.7914449232e+00
 8.4128980397e-01	 1.5661179052e+00	-1.6644283894e+00
 8.1297392853e-01	 1.5810019667e+00	-1.5733982823e+00
 7.8447542712e-01	 1.5953344889e+00	-1.5104409099e+00
 7.5580993385e-01	 1.6091131629e+00	-1.4668776712e+00
 7.2699306259e-01	 1.6223362519e+00	-1.4348841064e+00
 8.7484122113e-01	 1.5603769720e+00	-1.8282280494e+00
 8.4654786525e-01	 1.5759061421e+00	-1.7068891214e+00
 8.1805501559e-01	 1.5908832290e+00	-1.6184883453e+00
 7.8937839854e-01	 1.6053053294e+00	-1.5551379229e+00
 7.6053374594e-01	 1.6191701202e+00	-1.5081987177e+00
 7.3153676923e-01	 1.6324758534e+00	-1.4692265144e+00
 8.8027501754e-01	 1.5700687544e+00	-1.8377026713e+00
 8.5180592652e-01	 1.5856943790e+00	-1.7218577586e+00
 8.2313610264e-01	 1.6007644913e+00	-1.6359122040e+00
 7.9428136995e-01	 1.6152761700e+00	-1.5720078972e+00
 7.6525755802e-01	 1.6292270774e+00	-1.5215519409e+00
 7.3608047587e-01	 1.6426154550e+00	-1.4757675679e+00
 8.8570881394e-01	 1.5797605368e+00	-1.8206180725e+00
 8.5706398780e-01	 1.5954826159e+00	-1.7100242812e+00
 8.2821718969e-01	 1.6106457536e+00	-1.6262983614e+00
 7.9918434137e-01	 1.6252470105e+00	-1.5616152542e+00
 7.6998137011e-01	 1.6392840347e+00	-1.5074348018e+00
 7.4062418251e-01	 1.6527550566e+00	-1.4549247917e+00
 8.9114261035e-01	 1.5894523193e+00	-1.7777355698e+00
 8.6232204907e-01	 1.6052708528e+00	-1.6720924121e+00
 8.3329827675e-01	 1.6205270159e+00	-1.5902906408e+00
 8.0408731279e-01	 1.6352178511e+00	-1.5245411537e+00
 7.7470518220e-01	 1.6493409920e+00	-1.4663627350e+00
 7.4516788915e-01	 1.6628946582e+00	-1.4070169193e+00
 8.9657640675e-01	 1.5991441017e+00	-1.7098273340e+00
 8.6758011034e-01	 1.6150590897e+00	-1.6087785262e+00
 8.3837936380e-01	 1.6304082782e+00	-1.5285471811e+00
 8.0899028421e-01	 1.6451886917e+00	-1.4613825735e+00
 7.7942899428e-01	 1.6593979493e+00	-1.3988683091e+00
 7.4971159580e-01	 1.6730342597e+00	-1.3323694731e+00
 7.2699306259e-01	 1.6223362519e+00	-1.4348841064e+00
 6.9804038171e-01	 1.6350025849e+00	-1.2811461298e+00
 6.6896738950e-01	 1.6471115502e+00	-1.1848610596e+00
 6.3978949017e-01	 1.6586630868e+00	-1.1227416793e+00
 6.1052197063e-01	 1.6696576747e+00	-1.0733371527e+00
 5.8117997796e-01	 1.6800963247e+00	-1.0171293985e+00
 7.3153676923e-01	 1.6324758534e+00	-1.4692265144e+00
 7.0240313410e-01	 1.6452213511e+00	-1.3210389299e+00
 6.7314843568e-01	 1.6574059974e+00	-1.2284344228e+00
 6.4378817449e-01	 1.6690297311e+00	-1.1682832760e+00
 6.1433773294e-01	 1.6800930351e+00	-1.1193957836e+00
 5.8481235282e-01	 1.6905969268e+00	-1.0626149961e+00
 7.3608047587e-01	 1.6426154550e+00	-1.4757675679e+00
 7.0676588648e-01	 1.6554401172e+00	-1.3322402813e+00
 6.7732948187e-01	 1.6677004446e+00	-1.2425337562e+00
 6.4778685880e-01	 1.6793963754e+00	-1.1837039511e+00
 6.1815349526e-01	 1.6905283956e+00	-1.1348577010e+00
 5.8844472769e-01	 1.7010975288e+00	-1.0772417103e+00
 7.4062418251e-01	 1.6527550566e+00	-1.4549247917e+00
 7.1112863887e-01	 1.6656588834e+00	-1.3150831873e+00
 6.8151052805e-01	 1.6779948918e+00	-1.2273988494e+00
 6.5178554311e-01	 1.6897630197e+00	-1.1691414620e+00
 6.2196925757e-01	 1.7009637561e+00	-1.1197500180e+00
 5.9207710255e-01	 1.7115981308e+00	-1.0609179402e+00
 7.4516788915e-01	 1.6628946582e+00	-1.4070169193e+00
 7.1549139125e-01	 1.6758776495e+00	-1.2699324323e+00
 6.8569157424e-01	 1.6882893390e+00	-1.1833044418e+00
 6.5578422743e-01	 1.7001296639e+00	-1.1247712271e+00
 6.2578501989e-01	 1.7113991165e+00	-1.0741397321e+00
 5.9570947741e-01	 1.7220987328e+00	-1.0135936823e+00
 7.4971159580e-01	 1.6730342597e+00	-1.3323694731e+00
 7.1985414364e-01	 1.6860964157e+00	-1.1971825120e+00
 6.8987262042e-01	 1.6985837862e+00	-1.1105583395e+00
 6.5978291174e-01	 1.7104963082e+00	-1.0508046235e+00
 6.2960078221e-01	 1.7218344770e+00	-9.9813219562e-01
 5.9934185227e-01	 1.7325993349e+00	-9.3525916555e-01
 5.8117997796e-01	 1.6800963247e+00	-1.0171293985e+00
 5.5177849784e-01	 1.6899805669e+00	-9.0038427250e-01
 5.2233233371e-01	 1.6993124375e+00	-8.1807920060e-01
 4.9285608700e-01	 1.7080944660e+00	-7.5569785373e-01
 4.6336413823e-01	 1.7163296602e+00	-7.0012547656e-01
 4.3387062917e-01	 1.7240214918e+00	-6.3942907042e-01
 5.8481235282e-01	 1.6905969268e+00	-1.0626149961e+00
 5.5522711345e-01	 1.7005429454e+00	-9.4720899615e-01
 5.2559691080e-01	 1.7099331403e+00	-8.6357876525e-01
 4.9593643754e-01	 1.7187700564e+00	-7.9787172254e-01
 4.6626016409e-01	 1.7270567206e+00	-7.3768768122e-01
 4.3658232060e-01	 1.7347966262e+00	-6.7183743765e-01
 5.8844472769e-01	 1.7010975288e+00	-1.0772417103e+00
 5.5867572906e-01	 1.7111053240e+00	-9.6335696450e-01
 5.2886148788e-01	 1.7205538430e+00	-8.7893316217e-01
 4.9901678809e-01	 1.7294456468e+00	-8.1084210199e-01
 4.6915618996e-01	 1.7377837810e+00	-7.4746363164e-01
 4.3929401204e-01	 1.7455717605e+00	-6.7842172481e-01
 5.9207710255e-01	 1.7115981308e+00	-1.0609179402e+00
 5.6212434467e-01	 1.7216677025e+00	-9.4860733026e-01
 5.3212606497e-01	 1.7311745457e+00	-8.6378573326e-01
 5.0209713863e-01	 1.7401212372e+00	-7.9411147873e-01
 4.7205221582e-01	 1.7485108414e+00	-7.2881172560e-01
 4.4200570347e-01	 1.7563468948e+00	-6.5839508495e-01
 5.9570947741e-01	 1.7220987328e+00	-1.0135936823e+00
 5.6557296028e-01	 1.7322300811e+00	-9.0278211337e-01
 5.3539064205e-01	 1.7417952485e+00	-8.1782344099e-01
 5.0517748917e-01	 1.7507968276e+00	-7.4722619931e-01
 4.7494824168e-01	 1.7592379017e+00	-6.8113395630e-01
 4.4471739490e-01	 1.7671220291e+00	-6.1101351642e-01
 5.9934185227e-01	 1.7325993349e+00	-9.3525916555e-01
 5.6902157590e-01	 1.7427924596e+00	-8.2574498927e-01
 5.3865521914e-01	 1.7524159512e+00	-7.4077580050e-01
 5.0825783972e-01	 1.7614724180e+00	-6.6977553603e-01
 4.7784426755e-01	 1.7699649621e+00	-6.0387510198e-01
 4.4742908633e-01	 1.7778971635e+00	-5.3557516598e-01
 4.3387062917e-01	 1.7240214918e+00	-6.3942907042e-01
 4.0438944601e-01	 1.7311738801e+00	-5.8094930846e-01
 3.7493420357e-01	 1.7377911756e+00	-4.9376624290e-01
 3.4551823062e-01	 1.7438781435e+00	-4.0637344122e-01
 3.1615455626e-01	 1.7494399457e+00	-3.9365768804e-01
 2.8685589735e-01	 1.7544821234e+00	-4.7718045014e-01
 4.3658232060e-01	 1.7347966262e+00	-6.7183743765e-01
 4.0691688005e-01	 1.7419937168e+00	-6.1146608248e-01
 3.7727754234e-01	 1.7486523705e+00	-5.2307485106e-01
 3.4767771957e-01	 1.7547773819e+00	-4.2771146401e-01
 3.1813052223e-01	 1.7603739454e+00	-4.0132922954e-01
 2.8864874671e-01	 1.7654476367e+00	-4.6710562287e-01
 4.3929401204e-01	 1.7455717605e+00	-6.7842172481e-01
 4.0944431408e-01	 1.7528135536e+00	-6.1819330078e-01
 3.7962088112e-01	 1.7595135653e+00	-5.3132498344e-01
 3.4983720851e-01	 1.7656766203e+00	-4.3269757296e-01
 3.2010648821e-01	 1.7713079451e+00	-3.9765945180e-01
 2.9044159607e-01	 1.7764131499e+00	-4.5132117141e-01
 4.4200570347e-01	 1.7563468948e+00	-6.5839508495e-01
 4.1197174812e-01	 1.7636333903e+00	-6.0021006115e-01
 3.8196421989e-01	 1.7703747602e+00	-5.1746527217e-01
 3.5199669745e-01	 1.7765758587e+00	-4.2006941248e-01
 3.2208245419e-01	 1.7822419447e+00	-3.8133717980e-01
 2.9223444542e-01	 1.7873786632e+00	-4.2852258234e-01
 4.4471739490e-01	 1.7671220291e+00	-6.1101351642e-01
 4.1449918216e-01	 1.7744532271e+00	-5.5663685170e-01
 3.8430755866e-01	 1.7812359550e+00	-4.8048385893e-01
 3.5415618639e-01	 1.7874750971e+00	-3.8859568926e-01
 3.2405842016e-01	 1.7931759444e+00	-3.5107012222e-01
 2.9402729478e-01	 1.7983441765e+00	-3.9741410198e-01
 4.4742908633e-01	 1.7778971635e+00	-5.3557516598e-01
 4.1702661620e-01	 1.7852730638e+00	-4.8663496450e-01
 3.8665089743e-01	 1.7920971499e+00	-4.1940790879e-01
 3.5631567533e-01	 1.7983743355e+00	-3.3707762057e-01
 3.2603438614e-01	 1.8041099440e+00	-3.0558607043e-01
 2.9582014414e-01	 1.8093096898e+00	-3.5670971240e-01
 2.8685589735e-01	 1.7544821234e+00	-4.7718045014e-01
 2.5763464715e-01	 1.7590105786e+00	-3.8790446897e-01
 2.2850286493e-01	 1.7630315561e+00	-3.1275638064e-01
 1.9947226673e-01	 1.7665516245e+00	-2.7309871419e-01
 1.7055421715e-01	 1.7695776576e+00	-2.8936280058e-01
 1.4175972227e-01	 1.7721168156e+00	-3.8118768596e-01
 2.8864874671e-01	 1.7654476367e+00	-4.6710562287e-01
 2.5924486370e-01	 1.7700043948e+00	-3.6941531134e-01
 2.2993100784e-01	 1.7740505033e+00	-2.8342253812e-01
 2.0071896840e-01	 1.7775925721e+00	-2.2995925543e-01
 1.7162018101e-01	 1.7806375179e+00	-2.2873551175e-01
 1.4264572053e-01	 1.7831925457e+00	-2.9852873247e-01
 2.9044159607e-01	 1.7764131499e+00	-4.5132117141e-01
 2.6085508024e-01	 1.7809982109e+00	-3.5165295162e-01
 2.3135915075e-01	 1.7850694506e+00	-2.6169353432e-01
 2.0196567006e-01	 1.7886335198e+00	-2.0163932609e-01
 1.7268614486e-01	 1.7916973783e+00	-1.9035878720e-01
 1.4353171880e-01	 1.7942682758e+00	-2.4563503755e-01
 2.9223444542e-01	 1.7873786632e+00	-4.2852258234e-01
 2.6246529679e-01	 1.7919920270e+00	-3.3336748995e-01
 2.3278729365e-01	 1.7960883978e+00	-2.4642335608e-01
 2.0321237173e-01	 1.7996744674e+00	-1.8714156719e-01
 1.7375210872e-01	 1.8027572386e+00	-1.7342353578e-01
 1.4441771706e-01	 1.8053440059e+00	-2.2191968702e-01
 2.9402729478e-01	 1.7983441765e+00	-3.9741410198e-01
 2.6407551333e-01	 1.8029858431e+00	-3.1330976916e-01
 2.3421543656e-01	 1.8071073450e+00	-2.3646062051e-01
 2.0445907340e-01	 1.8107154151e+00	-1.8545894659e-01
 1.7481807258e-01	 1.8138170990e+00	-1.7710838786e-01
 1.4530371533e-01	 1.8164197360e+00	-2.2678245681e-01
 2.9582014414e-01	 1.8093096898e+00	-3.5670971240e-01
 2.6568572988e-01	 1.8139796592e+00	-2.9023215056e-01
 2.3564357946e-01	 1.8181262922e+00	-2.3064917605e-01
 2.0570577506e-01	 1.8217563627e+00	-1.9557521015e-01
 1.7588403644e-01	 1.8248769594e+00	-2.0058002046e-01
 1.4618971359e-01	 1.8274954661e+00	-2.5961003477e-01
 1.4175972227e-01	 1.7721168156e+00	-3.8118768596e-01
 1.1309942352e-01	 1.7741765266e+00	-2.8811808966e-01
 8.4583592646e-02	 1.7757644672e+00	-2.2796558032e-01
 5.6222127583e-02	 1.7768885445e+00	-2.2281261367e-01
 2.8024549382e-02	 1.7775568772e+00	-2.9508688314e-01
 0.0000000000e+00	 1.7777777778e+00	-4.6781661387e-01
 1.4264572053e-01	 1.7831925457e+00	-2.9852873247e-01
 1.1380629492e-01	 1.7852651299e+00	-1.9351553585e-01
 8.5112240100e-02	 1.7868629951e+00	-1.2128308510e-01
 5.6573515881e-02	 1.7879940979e+00	-1.0272381561e-01
 2.8199702816e-02	 1.7886666077e+00	-1.5914064134e-01
 0.0000000000e+00	 1.7888888889e+00	-3.1255288638e-01
 1.4353171880e-01	 1.7942682758e+00	-2.4563503755e-01
 1.1451316632e-01	 1.7963537332e+00	-1.3529903903e-01
 8.5640887554e-02	 1.7979615231e+00	-5.7326067450e-02
 5.6924904178e-02	 1.7990996513e+00	-3.1269485446e-02
 2.8374856250e-02	 1.7997763382e+00	-7.7158180125e-02
 0.0000000000e+00	 1.8000000000e+00	-2.1585598347e-01
 1.4441771706e-01	 1.8053440059e+00	-2.2191968702e-01
 1.1522003772e-01	 1.8074423365e+00	-1.1314699393e-01
 8.6169535008e-02	 1.8090600510e+00	-3.6060855381e-02
 5.7276292475e-02	 1.8102052047e+00	-8.7197089833e-03
 2.8550009683e-02	 1.8108860687e+00	-4.9722215685e-02
 0.0000000000e+00	 1.8111111111e+00	-1.7862311575e-01
 1.4530371533e-01	 1.8164197360e+00	-2.2678245681e-01
 1.1592690911e-01	 1.8185309398e+00	-1.2672451713e-01
 8.6698182462e-02	 1.8201585789e+00	-5.7441789806e-02
 5.7627680773e-02	 1.8213107581e+00	-3.5334983601e-02
 2.8725163117e-02	 1.8219957992e+00	-7.7409224628e-02
 0.0000000000e+00	 1.8222222222e+00	-2.0174939222e-01
 1.4618971359e-01	 1.8274954661e+00	-2.5961003477e-01
 1.1663378051e-01	 1.8296195431e+00	-1.7568359816e-01
 8.7226829916e-02	 1.8312571068e+00	-1.2141132608e-01
 5.7979069070e-02	 1.8324163115e+00	-1.1136628973e-01
 2.8900316551e-02	 1.8331055296e+00	-1.6078950343e-01
 0.0000000000e+00	 1.8333333333e+00	-2.8612788394e-01
 1.8333333333e+00	 0.0000000000e+00	 3.2579639687e+00
 1.8331055296e+00	 2.8900316551e-02	 3.2207643621e+00
 1.8324163115e+00	 5.7979069070e-02	 3.1968626290e+00
 1.8312571068e+00	 8.7226829916e-02	 3.1751150553e+00
 1.8296195431e+00	 1.1663378051e-01	 3.1451298822e+00
 1.8274954661e+00	 1.4618971359e-01	 3.0966943916e+00
 1.8444444444e+00	 0.0000000000e+00	 3.1942607476e+00
 1.8442152601e+00	 2.9075469984e-02	 3.1616172410e+00
 1.8435218649e+00	 5.8330457368e-02	 3.1399096814e+00
 1.8423556347e+00	 8.7755477370e-02	 3.1196746917e+00
 1.8407081464e+00	 1.1734065191e-01	 3.0923349211e+00
 1.8385711962e+00	 1.4707571186e-01	 3.0495606805e+00
 1.8555555556e+00	 0.0000000000e+00	 3.1873958393e+00
 1.8553249906e+00	 2.9250623418e-02	 3.1542553980e+00
 1.8546274183e+00	 5.8681845665e-02	 3.1297987072e+00
 1.8534541627e+00	 8.8284124824e-02	 3.1054905780e+00
 1.8517967496e+00	 1.1804752330e-01	 3.0736659965e+00
 1.8496469263e+00	 1.4796171012e-01	 3.0283220615e+00
 1.8666666667e+00	 0.0000000000e+00	 3.1634051097e+00
 1.8664347211e+00	 2.9425776852e-02	 3.1303258853e+00
 1.8657329717e+00	 5.9033233962e-02	 3.1060792862e+00
 1.8645526906e+00	 8.8812772278e-02	 3.0829534317e+00
 1.8628853529e+00	 1.1875439470e-01	 3.0540933872e+00
 1.8607226564e+00	 1.4884770838e-01	 3.0130968104e+00
 1.8777777778e+00	 0.0000000000e+00	 3.0995177998e+00
 1.8775444516e+00	 2.9600930285e-02	 3.0672792465e+00
 1.8768385251e+00	 5.9384622260e-02	 3.0441185954e+00
 1.8756512185e+00	 8.9341419732e-02	 3.0231379873e+00
 1.8739739562e+00	 1.1946126610e-01	 2.9982827609e+00
 1.8717983865e+00	 1.4973370665e-01	 2.9639407429e+00
 1.8888888889e+00	 0.0000000000e+00	 2.9957483505e+00
 1.8886541821e+00	 2.9776083719e-02	 2.9651722902e+00
 1.8879440785e+00	 5.9736010557e-02	 2.9440244749e+00
 1.8867497464e+00	 8.9870067186e-02	 2.9262100989e+00
 1.8850625595e+00	 1.2016813749e-01	 2.9064623619e+00
 1.8828741166e+00	 1.5061970491e-01	 2.8799461473e+00
 1.8274954661e+00	 1.4618971359e-01	 3.0966943916e+00
 1.8248769594e+00	 1.7588403644e-01	 3.0248328633e+00
 1.8217563627e+00	 2.0570577506e-01	 2.9629623537e+00
 1.8181262922e+00	 2.3564357946e-01	 2.8984885266e+00
 1.8139796592e+00	 2.6568572988e-01	 2.8164806318e+00
 1.8093096898e+00	 2.9582014414e-01	 2.6992023191e+00
 1.8385711962e+00	 1.4707571186e-01	 3.0495606805e+00
 1.8359368197e+00	 1.7695000029e-01	 2.9851064089e+00
 1.8327973104e+00	 2.0695247673e-01	 2.9302986780e+00
 1.8291452395e+00	 2.3707172237e-01	 2.8741066702e+00
 1.8249734753e+00	 2.6729594642e-01	 2.8029513673e+00
 1.8202752030e+00	 2.9761299350e-01	 2.7001620042e+00
 1.8496469263e+00	 1.4796171012e-01	 3.0283220615e+00
 1.8469966801e+00	 1.7801596415e-01	 2.9630730891e+00
 1.8438382581e+00	 2.0819917840e-01	 2.9072945747e+00
 1.8401641867e+00	 2.3849986527e-01	 2.8516908754e+00
 1.8359672914e+00	 2.6890616297e-01	 2.7841957943e+00
 1.8312407163e+00	 2.9940584286e-01	 2.6893508990e+00
 1.8607226564e+00	 1.4884770838e-01	 3.0130968104e+00
 1.8580565404e+00	 1.7908192801e-01	 2.9501556050e+00
 1.8548792057e+00	 2.0944588006e-01	 2.8917256863e+00
 1.8511831339e+00	 2.3992800818e-01	 2.8304971477e+00
 1.8469611076e+00	 2.7051637951e-01	 2.7594474720e+00
 1.8422062296e+00	 3.0119869222e-01	 2.6660228798e+00
 1.8717983865e+00	 1.4973370665e-01	 2.9639407429e+00
 1.8691164008e+00	 1.8014789187e-01	 2.9082981587e+00
 1.8659201534e+00	 2.1069258173e-01	 2.8545849602e+00
 1.8622020812e+00	 2.4135615109e-01	 2.7961286691e+00
 1.8579549237e+00	 2.7212659605e-01	 2.7246009327e+00
 1.8531717428e+00	 3.0299154158e-01	 2.6293531367e+00
 1.8828741166e+00	 1.5061970491e-01	 2.8799461473e+00
 1.8801762612e+00	 1.8121385572e-01	 2.8329452714e+00
 1.8769611010e+00	 2.1193928340e-01	 2.7854159030e+00
 1.8732210284e+00	 2.4278429399e-01	 2.7313716434e+00
 1.8689487398e+00	 2.7373681260e-01	 2.6631919525e+00
 1.8641372561e+00	 3.0478439093e-01	 2.5709605738e+00
 1.8093096898e+00	 2.9582014414e-01	 2.6992023191e+00
 1.8041099440e+00	 3.2603438614e-01	 2.5804429102e+00
 1.7983743355e+00	 3.5631567533e-01	 2.4898360067e+00
 1.7920971499e+00	 3.8665089743e-01	 2.3988888904e+00
 1.7852730638e+00	 4.1702661620e-01	 2.2821008423e+00
 1.7778971635e+00	 4.4742908633e-01	 2.1429528328e+00
 1.8202752030e+00	 2.9761299350e-01	 2.7001620042e+00
 1.8150439437e+00	 3.2801035212e-01	 2.5938773361e+00
 1.8092735739e+00	 3.5847516427e-01	 2.5123642024e+00
 1.8029583447e+00	 3.8899423621e-01	 2.4267659806e+00
 1.7960929006e+00	 4.1955405023e-01	 2.3140431651e+00
 1.7886722978e+00	 4.5014077776e-01	 2.1775440150e+00
 1.8312407163e+00	 2.9940584286e-01	 2.6893508990e+00
 1.8259779434e+00	 3.2998631809e-01	 2.5905455921e+00
 1.8201728123e+00	 3.6063465321e-01	 2.5141144283e+00
 1.8138195396e+00	 3.9133757498e-01	 2.4310454409e+00
 1.8069127373e+00	 4.2208148427e-01	 2.3207468764e+00
 1.7994474321e+00	 4.5285246920e-01	 2.1860641316e+00
 1.8422062296e+00	 3.0119869222e-01	 2.6660228798e+00
 1.8369119430e+00	 3.3196228407e-01	 2.5697564860e+00
 1.8310720507e+00	 3.6279414216e-01	 2.4945020058e+00
 1.8246807344e+00	 3.9368091375e-01	 2.4113160523e+00
 1.8177325741e+00	 4.2460891831e-01	 2.3019275587e+00
 1.8102225664e+00	 4.5556416063e-01	 2.1683524196e+00
 1.8531717428e+00	 3.0299154158e-01	 2.6293531367e+00
 1.8478459427e+00	 3.3393825005e-01	 2.5308427032e+00
 1.8419712891e+00	 3.6495363110e-01	 2.4529754134e+00
 1.8355419293e+00	 3.9602425252e-01	 2.3671990109e+00
 1.8285524108e+00	 4.2713635235e-01	 2.2573330555e+00
 1.8209977007e+00	 4.5827585206e-01	 2.1242795610e+00
 1.8641372561e+00	 3.0478439093e-01	 2.5709605738e+00
 1.8587799423e+00	 3.3591421602e-01	 2.4721902465e+00
 1.8528705275e+00	 3.6711312004e-01	 2.3890257309e+00
 1.8464031241e+00	 3.9836759130e-01	 2.2983472024e+00
 1.8393722476e+00	 4.2966378639e-01	 2.1867426001e+00
 1.8317728351e+00	 4.6098754349e-01	 2.0537466504e+00
 1.7778971635e+00	 4.4742908633e-01	 2.1429528328e+00
 1.7699649621e+00	 4.7784426755e-01	 2.0131966249e+00
 1.7614724180e+00	 5.0825783972e-01	 1.8697114529e+00
 1.7524159512e+00	 5.3865521914e-01	 1.7201485723e+00
 1.7427924596e+00	 5.6902157590e-01	 1.5735257842e+00
 1.7325993349e+00	 5.9934185227e-01	 1.4405048532e+00
 1.7886722978e+00	 4.5014077776e-01	 2.1775440150e+00
 1.7806920225e+00	 4.8074029341e-01	 2.0469536471e+00
 1.7721480084e+00	 5.1133819026e-01	 1.9038312033e+00
 1.7630366539e+00	 5.4191979622e-01	 1.7547117967e+00
 1.7533548382e+00	 5.7247019151e-01	 1.6075603775e+00
 1.7430999369e+00	 6.0297422714e-01	 1.4720731768e+00
 1.7994474321e+00	 4.5285246920e-01	 2.1860641316e+00
 1.7914190829e+00	 4.8363631928e-01	 2.0539715471e+00
 1.7828235989e+00	 5.1441854080e-01	 1.9111144602e+00
 1.7736573567e+00	 5.4518437331e-01	 1.7628321567e+00
 1.7639172167e+00	 5.7591880712e-01	 1.6159643392e+00
 1.7536005389e+00	 6.0660660200e-01	 1.4791775603e+00
 1.8102225664e+00	 4.5556416063e-01	 2.1683524196e+00
 1.8021461432e+00	 4.8653234514e-01	 2.0342173253e+00
 1.7934991893e+00	 5.1749889135e-01	 1.8916490329e+00
 1.7842780594e+00	 5.4844895039e-01	 1.7447094269e+00
 1.7744795952e+00	 5.7936742273e-01	 1.5990390929e+00
 1.7641011410e+00	 6.1023897686e-01	 1.4622097270e+00
 1.8209977007e+00	 4.5827585206e-01	 2.1242795610e+00
 1.8128732036e+00	 4.8942837100e-01	 1.9876876876e+00
 1.8041747797e+00	 5.2057924189e-01	 1.8455499643e+00
 1.7948987621e+00	 5.5171352748e-01	 1.7005674050e+00
 1.7850419738e+00	 5.8281603834e-01	 1.5571061418e+00
 1.7746017430e+00	 6.1387135172e-01	 1.4215768187e+00
 1.8317728351e+00	 4.6098754349e-01	 2.0537466504e+00
 1.8236002640e+00	 4.9232439687e-01	 1.9144078447e+00
 1.8148503701e+00	 5.2365959244e-01	 1.7729581484e+00
 1.8055194649e+00	 5.5497810457e-01	 1.6306523354e+00
 1.7956043523e+00	 5.8626465395e-01	 1.4905052840e+00
 1.7851023450e+00	 6.1750372658e-01	 1.3576993910e+00
 1.7325993349e+00	 5.9934185227e-01	 1.4405048532e+00
 1.7218344770e+00	 6.2960078221e-01	 1.3005028390e+00
 1.7104963082e+00	 6.5978291174e-01	 1.1379075496e+00
 1.6985837862e+00	 6.8987262042e-01	 9.6937317672e-01
 1.6860964157e+00	 7.1985414364e-01	 8.1361854865e-01
 1.6730342597e+00	 7.4971159580e-01	 6.9155227362e-01
 1.7430999369e+00	 6.0297422714e-01	 1.4720731768e+00
 1.7322698375e+00	 6.3341654452e-01	 1.3325300689e+00
 1.7208629525e+00	 6.6378159605e-01	 1.1692428892e+00
 1.7088782334e+00	 6.9405366661e-01	 9.9822800850e-01
 1.6963151818e+00	 7.2421689603e-01	 8.3769213686e-01
 1.6831738613e+00	 7.5425530244e-01	 7.0854686749e-01
 1.7536005389e+00	 6.0660660200e-01	 1.4791775603e+00
 1.7427051979e+00	 6.3723230684e-01	 1.3412115772e+00
 1.7312295968e+00	 6.6778028037e-01	 1.1785746220e+00
 1.7191726806e+00	 6.9823471279e-01	 1.0066096255e+00
 1.7065339480e+00	 7.2857964841e-01	 8.4298543123e-01
 1.6933134629e+00	 7.5879900908e-01	 7.0870702533e-01
 1.7641011410e+00	 6.1023897686e-01	 1.4622097270e+00
 1.7531405584e+00	 6.4104806916e-01	 1.3270236710e+00
 1.7415962411e+00	 6.7177896468e-01	 1.1664521328e+00
 1.7294671278e+00	 7.0241575897e-01	 9.9512933375e-01
 1.7167527142e+00	 7.3294240080e-01	 8.3016131196e-01
 1.7034530645e+00	 7.6334271572e-01	 6.9267975798e-01
 1.7746017430e+00	 6.1387135172e-01	 1.4215768187e+00
 1.7635759189e+00	 6.4486383147e-01	 1.2904525784e+00
 1.7519628854e+00	 6.7577764899e-01	 1.1334285657e+00
 1.7397615749e+00	 7.0659680516e-01	 9.6439542493e-01
 1.7269714803e+00	 7.3730515318e-01	 7.9987231955e-01
 1.7135926660e+00	 7.6788642236e-01	 6.6108057524e-01
 1.7851023450e+00	 6.1750372658e-01	 1.3576993910e+00
 1.7740112793e+00	 6.4867959379e-01	 1.2319922156e+00
 1.7623295297e+00	 6.7977633331e-01	 1.0800583542e+00
 1.7500560221e+00	 7.1077785134e-01	 9.1501045883e-01
 1.7371902465e+00	 7.4166790557e-01	 7.5276224598e-01
 1.7237322676e+00	 7.7243012900e-01	 6.1449442305e-01
 1.6730342597e+00	 7.4971159580e-01	 6.9155227362e-01
 1.6593979493e+00	 7.7942899428e-01	 5.1322172143e-01
 1.6451886917e+00	 8.0899028421e-01	 3.4024486809e-01
 1.6304082782e+00	 8.3837936380e-01	 1.7992540703e-01
 1.6150590897e+00	 8.6758011034e-01	 3.9011915196e-02
 1.5991441017e+00	 8.9657640675e-01	-7.6803896245e-02
 1.6831738613e+00	 7.5425530244e-01	 7.0854686749e-01
 1.6694549065e+00	 7.8415280637e-01	 5.3365565597e-01
 1.6551595322e+00	 8.1389325563e-01	 3.6212674455e-01
 1.6402895404e+00	 8.4346045085e-01	 2.0120117171e-01
 1.6248473266e+00	 8.7283817162e-01	 5.7614823201e-02
 1.6088358841e+00	 9.0201020316e-01	-6.2912388961e-02
 1.6933134629e+00	 7.5879900908e-01	 7.0870702533e-01
 1.6795118638e+00	 7.8887661846e-01	 5.3792316673e-01
 1.6651303728e+00	 8.1879622705e-01	 3.6850485521e-01
 1.6501708027e+00	 8.4854153791e-01	 2.0762399666e-01
 1.6346355635e+00	 8.7809623289e-01	 6.2001443783e-02
 1.6185276666e+00	 9.0744399956e-01	-6.2612861043e-02
 1.7034530645e+00	 7.6334271572e-01	 6.9267975798e-01
 1.6895688211e+00	 7.9360043054e-01	 5.2667374629e-01
 1.6751012133e+00	 8.2369919847e-01	 3.6003190081e-01
 1.6600520650e+00	 8.5362262496e-01	 1.9984991520e-01
 1.6444238004e+00	 8.8335429417e-01	 5.2830832936e-02
 1.6282194490e+00	 9.1287779597e-01	-7.5243801333e-02
 1.7135926660e+00	 7.6788642236e-01	 6.6108057524e-01
 1.6996257783e+00	 7.9832424263e-01	 5.0052571652e-01
 1.6850720539e+00	 8.2860216989e-01	 3.3732958445e-01
 1.6699333273e+00	 8.5870371201e-01	 1.7850395697e-01
 1.6542120373e+00	 8.8861235544e-01	 3.0730840050e-02
 1.6379112314e+00	 9.1831159237e-01	-1.0017531852e-01
 1.7237322676e+00	 7.7243012900e-01	 6.1449442305e-01
 1.7096827356e+00	 8.0304805472e-01	 4.6006720677e-01
 1.6950428944e+00	 8.3350514131e-01	 3.0098962629e-01
 1.6798145896e+00	 8.6378479907e-01	 1.4418119445e-01
 1.6640002742e+00	 8.9387041672e-01	-3.7008186948e-03
 1.6476030139e+00	 9.2374538878e-01	-1.3680804614e-01
 1.5991441017e+00	 8.9657640675e-01	-7.6803896245e-02
 1.5826668871e+00	 9.2535216846e-01	-3.0911970952e-01
 1.5656316182e+00	 9.5389137075e-01	-5.0069553544e-01
 1.5480430671e+00	 9.8217807626e-01	-6.5092791903e-01
 1.5299066043e+00	 1.0101964628e+00	-7.6297745970e-01
 1.5112281958e+00	 1.0379308509e+00	-8.4458856534e-01
 1.6088358841e+00	 9.0201020316e-01	-6.2912388961e-02
 1.5922588076e+00	 9.3096036342e-01	-2.9135942658e-01
 1.5751202947e+00	 9.5967253057e-01	-4.8065797672e-01
 1.5574251463e+00	 9.8813067066e-01	-6.3013246751e-01
 1.5391787655e+00	 1.0163188656e+00	-7.4290197487e-01
 1.5203871546e+00	 1.0442213409e+00	-8.2672577303e-01
 1.6185276666e+00	 9.0744399956e-01	-6.2612861043e-02
 1.6018507281e+00	 9.3656855838e-01	-2.8654992994e-01
 1.5846089712e+00	 9.6545369039e-01	-4.7293007423e-01
 1.5668072255e+00	 9.9408326506e-01	-6.2099237363e-01
 1.5484509267e+00	 1.0224412684e+00	-7.3379811871e-01
 1.5295461133e+00	 1.0505118309e+00	-8.1910277477e-01
 1.6282194490e+00	 9.1287779597e-01	-7.5243801333e-02
 1.6114426487e+00	 9.4217675334e-01	-2.9402831223e-01
 1.5940976476e+00	 9.7123485021e-01	-4.7684799641e-01
 1.5761893047e+00	 1.0000358595e+00	-6.2284305956e-01
 1.5577230880e+00	 1.0285636712e+00	-7.3500027278e-01
 1.5387050721e+00	 1.0568023209e+00	-8.2105197564e-01
 1.6379112314e+00	 9.1831159237e-01	-1.0017531852e-01
 1.6210345692e+00	 9.4778494831e-01	-3.1316390861e-01
 1.6035863241e+00	 9.7701601004e-01	-4.9178100196e-01
 1.5855713839e+00	 1.0059884539e+00	-6.3505411003e-01
 1.5669952492e+00	 1.0346860740e+00	-7.4587827284e-01
 1.5478640309e+00	 1.0630928109e+00	-8.3194273601e-01
 1.6476030139e+00	 9.2374538878e-01	-1.3680804614e-01
 1.6306264897e+00	 9.5339314327e-01	-3.4335718588e-01
 1.6130750006e+00	 9.8279716986e-01	-5.1713031855e-01
 1.5949534631e+00	 1.0119410483e+00	-6.5702814633e-01
 1.5762674104e+00	 1.0408084768e+00	-7.6583628381e-01
 1.5570229896e+00	 1.0693833009e+00	-8.5118025297e-01
 1.5112281958e+00	 1.0379308509e+00	-8.4458856534e-01
 1.4920143994e+00	 1.0653657320e+00	-9.3296695735e-01
 1.4722723583e+00	 1.0924857958e+00	-1.0541804863e+00
 1.4520097940e+00	 1.1192759577e+00	-1.2015422501e+00
 1.4312349972e+00	 1.1457213858e+00	-1.3651702301e+00
 1.4099568179e+00	 1.1718075280e+00	-1.5478141672e+00
 1.5203871546e+00	 1.0442213409e+00	-8.2672577303e-01
 1.5010569109e+00	 1.0718224941e+00	-9.1972361342e-01
 1.4811952211e+00	 1.0991069219e+00	-1.0499993484e+00
 1.4608098533e+00	 1.1260594483e+00	-1.2125182159e+00
 1.4399091487e+00	 1.1526651518e+00	-1.3738278218e+00
 1.4185020108e+00	 1.1789093918e+00	-1.5464457759e+00
 1.5295461133e+00	 1.0505118309e+00	-8.1910277477e-01
 1.5100994225e+00	 1.0782792561e+00	-9.1604646254e-01
 1.4901180839e+00	 1.1057280479e+00	-1.0489634160e+00
 1.4696099127e+00	 1.1328429390e+00	-1.2189493274e+00
 1.4485833002e+00	 1.1596089177e+00	-1.3786619447e+00
 1.4270472036e+00	 1.1860112556e+00	-1.5419053062e+00
 1.5387050721e+00	 1.0568023209e+00	-8.2105197564e-01
 1.5191419340e+00	 1.0847360181e+00	-9.2126193727e-01
 1.4990409466e+00	 1.1123491739e+00	-1.0560311462e+00
 1.4784099720e+00	 1.1396264296e+00	-1.2215250608e+00
 1.4572574517e+00	 1.1665526837e+00	-1.3802507984e+00
 1.4355923964e+00	 1.1931131194e+00	-1.5346683390e+00
 1.5478640309e+00	 1.0630928109e+00	-8.3194273601e-01
 1.5281844455e+00	 1.0911927801e+00	-9.3473517484e-01
 1.5079638094e+00	 1.1189703000e+00	-1.0688898213e+00
 1.4872100314e+00	 1.1464099203e+00	-1.2225331141e+00
 1.4659316032e+00	 1.1734964497e+00	-1.3791950663e+00
 1.4441375893e+00	 1.2002149832e+00	-1.5252336084e+00
 1.5570229896e+00	 1.0693833009e+00	-8.5118025297e-01
 1.5372269570e+00	 1.0976495421e+00	-9.5586890915e-01
 1.5168866722e+00	 1.1255914260e+00	-1.0864627282e+00
 1.4960100907e+00	 1.1531934109e+00	-1.2277308669e+00
 1.4746057547e+00	 1.1804402157e+00	-1.3761145734e+00
 1.4526827821e+00	 1.2073168470e+00	-1.5141197149e+00
 1.4099568179e+00	 1.1718075280e+00	-1.5478141672e+00
 1.3881846529e+00	 1.1975201378e+00	-1.5434848007e+00
 1.3659284328e+00	 1.2228453000e+00	-1.5709077989e+00
 1.3431986069e+00	 1.2477694552e+00	-1.6304610208e+00
 1.3200061276e+00	 1.2722794246e+00	-1.7184037620e+00
 1.2963624322e+00	 1.2963624322e+00	-1.8282117223e+00
 1.4185020108e+00	 1.1789093918e+00	-1.5464457759e+00
 1.3965978932e+00	 1.2047778356e+00	-1.5468862506e+00
 1.3742067869e+00	 1.2302564836e+00	-1.5769746529e+00
 1.3513392046e+00	 1.2553316944e+00	-1.6378456192e+00
 1.3280061647e+00	 1.2799902090e+00	-1.7263150849e+00
 1.3042191742e+00	 1.3042191742e+00	-1.8362714265e+00
 1.4270472036e+00	 1.1860112556e+00	-1.5419053062e+00
 1.4050111336e+00	 1.2120355334e+00	-1.5462965215e+00
 1.3824851411e+00	 1.2376676672e+00	-1.5781766680e+00
 1.3594798022e+00	 1.2628939335e+00	-1.6394469885e+00
 1.3360062019e+00	 1.2877009934e+00	-1.7274803843e+00
 1.3120759162e+00	 1.3120759162e+00	-1.8365708277e+00
 1.4355923964e+00	 1.1931131194e+00	-1.5346683390e+00
 1.4134243739e+00	 1.2192932312e+00	-1.5421224153e+00
 1.3907634952e+00	 1.2450788509e+00	-1.5748599056e+00
 1.3676203998e+00	 1.2704561726e+00	-1.6355571798e+00
 1.3440062390e+00	 1.2954117778e+00	-1.7221427665e+00
 1.3199326582e+00	 1.3199326582e+00	-1.8293071904e+00
 1.4441375893e+00	 1.2002149832e+00	-1.5252336084e+00
 1.4218376142e+00	 1.2265509290e+00	-1.5347946267e+00
 1.3990418493e+00	 1.2524900345e+00	-1.5673956709e+00
 1.3757609974e+00	 1.2780184117e+00	-1.6264953951e+00
 1.3520062761e+00	 1.3031225621e+00	-1.7105748850e+00
 1.3277894002e+00	 1.3277894002e+00	-1.8147101391e+00
 1.4526827821e+00	 1.2073168470e+00	-1.5141197149e+00
 1.4302508545e+00	 1.2338086268e+00	-1.5247645416e+00
 1.4073202035e+00	 1.2599012181e+00	-1.5561774102e+00
 1.3839015950e+00	 1.2855806509e+00	-1.6126049933e+00
 1.3600063133e+00	 1.3108333465e+00	-1.6930760662e+00
 1.3356461422e+00	 1.3356461422e+00	-1.7930389125e+00
 1.2963624322e+00	 1.2963624322e+00	-1.8282117223e+00
 1.2722794246e+00	 1.3200061276e+00	-1.9009900050e+00
 1.2477694552e+00	 1.3431986069e+00	-1.9462667840e+00
 1.2228453000e+00	 1.3659284328e+00	-1.9586292434e+00
 1.1975201378e+00	 1.3881846529e+00	-1.9359689120e+00
 1.1718075280e+00	 1.4099568179e+00	-1.8809454180e+00
 1.3042191742e+00	 1.3042191742e+00	-1.8362714265e+00
 1.2799902090e+00	 1.3280061647e+00	-1.9116898899e+00
 1.2553316944e+00	 1.3513392046e+00	-1.9596004329e+00
 1.2302564836e+00	 1.3742067869e+00	-1.9749626991e+00
 1.2047778356e+00	 1.3965978932e+00	-1.9561561650e+00
 1.1789093918e+00	 1.4185020108e+00	-1.9065089733e+00
 1.3120759162e+00	 1.3120759162e+00	-1.8365708277e+00
 1.2877009934e+00	 1.3360062019e+00	-1.9136132023e+00
 1.2628939335e+00	 1.3594798022e+00	-1.9630659311e+00
 1.2376676672e+00	 1.3824851411e+00	-1.9802459455e+00
 1.2120355334e+00	 1.4050111336e+00	-1.9640078750e+00
 1.1860112556e+00	 1.4270472036e+00	-1.9183405046e+00
 1.3199326582e+00	 1.3199326582e+00	-1.8293071904e+00
 1.2954117778e+00	 1.3440062390e+00	-1.9069111719e+00
 1.2704561726e+00	 1.3676203998e+00	-1.9567669684e+00
 1.2450788509e+00	 1.3907634952e+00	-1.9745311864e+00
 1.2192932312e+00	 1.4134243739e+00	-1.9595183605e+00
 1.1931131194e+00	 1.4355923964e+00	-1.9163676559e+00
 1.3277894002e+00	 1.3277894002e+00	-1.8147101391e+00
 1.3031225621e+00	 1.3520062761e+00	-1.8917705641e+00
 1.2780184117e+00	 1.3757609974e+00	-1.9408462012e+00
 1.2524900345e+00	 1.3990418493e+00	-1.9579131897e+00
 1.2265509290e+00	 1.4218376142e+00	-1.9427281793e+00
 1.2002149832e+00	 1.4441375893e+00	-1.9005679729e+00
 1.3356461422e+00	 1.3356461422e+00	-1.7930389125e+00
 1.3108333465e+00	 1.3600063133e+00	-1.8684110717e+00
 1.2855806509e+00	 1.3839015950e+00	-1.9154827872e+00
 1.2599012181e+00	 1.4073202035e+00	-1.9305269724e+00
 1.2338086268e+00	 1.4302508545e+00	-1.9137219674e+00
 1.2073168470e+00	 1.4526827821e+00	-1.8709668992e+00
 1.1718075280e+00	 1.4099568179e+00	-1.8809454180e+00
 1.1457213858e+00	 1.4312349972e+00	-1.9817542536e+00
 1.1192759577e+00	 1.4520097940e+00	-2.0206911799e+00
 1.0924857958e+00	 1.4722723583e+00	-2.0134930928e+00
 1.0653657320e+00	 1.4920143994e+00	-1.9757603053e+00
 1.0379308509e+00	 1.5112281958e+00	-1.9092275980e+00
 1.1789093918e+00	 1.4185020108e+00	-1.9065089733e+00
 1.1526651518e+00	 1.4399091487e+00	-1.9982145247e+00
 1.1260594483e+00	 1.4608098533e+00	-2.0358724999e+00
 1.0991069219e+00	 1.4811952211e+00	-2.0403652444e+00
 1.0718224941e+00	 1.5010569109e+00	-2.0099834356e+00
 1.0442213409e+00	 1.5203871546e+00	-1.9468396218e+00
 1.1860112556e+00	 1.4270472036e+00	-1.9183405046e+00
 1.1596089177e+00	 1.4485833002e+00	-2.0005750968e+00
 1.1328429390e+00	 1.4696099127e+00	-2.0364337098e+00
 1.1057280479e+00	 1.4901180839e+00	-2.0477230977e+00
 1.0782792561e+00	 1.5100994225e+00	-2.0208565724e+00
 1.0505118309e+00	 1.5295461133e+00	-1.9610616111e+00
 1.1931131194e+00	 1.4355923964e+00	-1.9163676559e+00
 1.1665526837e+00	 1.4572574517e+00	-1.9886655343e+00
 1.1396264296e+00	 1.4784099720e+00	-2.0220941140e+00
 1.1123491739e+00	 1.4990409466e+00	-2.0329912134e+00
 1.0847360181e+00	 1.5191419340e+00	-2.0095171895e+00
 1.0568023209e+00	 1.5387050721e+00	-1.9529697608e+00
 1.2002149832e+00	 1.4441375893e+00	-1.9005679729e+00
 1.1734964497e+00	 1.4659316032e+00	-1.9623693452e+00
 1.1464099203e+00	 1.4872100314e+00	-1.9920388080e+00
 1.1189703000e+00	 1.5079638094e+00	-1.9983802194e+00
 1.0911927801e+00	 1.5281844455e+00	-1.9770938846e+00
 1.0630928109e+00	 1.5478640309e+00	-1.9236338056e+00
 1.2073168470e+00	 1.4526827821e+00	-1.8709668992e+00
 1.1804402157e+00	 1.4746057547e+00	-1.9216221230e+00
 1.1531934109e+00	 1.4960100907e+00	-1.9446532763e+00
 1.1255914260e+00	 1.5168866722e+00	-1.9455901369e+00
 1.0976495421e+00	 1.5372269570e+00	-1.9247046942e+00
 1.0693833009e+00	 1.5570229896e+00	-1.8741154191e+00
 1.0379308509e+00	 1.5112281958e+00	-1.9092275980e+00
 1.0101964628e+00	 1.5299066043e+00	-1.8594791889e+00
 9.8217807626e-01	 1.5480430671e+00	-1.8132007357e+00
 9.5389137075e-01	 1.5656316182e+00	-1.7735461496e+00
 9.2535216846e-01	 1.5826668871e+00	-1.7401603007e+00
 8.9657640675e-01	 1.5991441017e+00	-1.7098273340e+00
 1.0442213409e+00	 1.5203871546e+00	-1.9468396218e+00
 1.0163188656e+00	 1.5391787655e+00	-1.8972114358e+00
 9.8813067066e-01	 1.5574251463e+00	-1.8503959664e+00
 9.5967253057e-01	 1.5751202947e+00	-1.8097553361e+00
 9.3096036342e-01	 1.5922588076e+00	-1.7750593846e+00
 9.0201020316e-01	 1.6088358841e+00	-1.7431593589e+00
 1.0505118309e+00	 1.5295461133e+00	-1.9610616111e+00
 1.0224412684e+00	 1.5484509267e+00	-1.9113170892e+00
 9.9408326506e-01	 1.5668072255e+00	-1.8637179717e+00
 9.6545369039e-01	 1.5846089712e+00	-1.8218269725e+00
 9.3656855838e-01	 1.6018507281e+00	-1.7855314088e+00
 9.0744399956e-01	 1.6185276666e+00	-1.7517432095e+00
 1.0568023209e+00	 1.5387050721e+00	-1.9529697608e+00
 1.0285636712e+00	 1.5577230880e+00	-1.9028182875e+00
 1.0000358595e+00	 1.5761893047e+00	-1.8541374312e+00
 9.7123485021e-01	 1.5940976476e+00	-1.8106817339e+00
 9.4217675334e-01	 1.6114426487e+00	-1.7724474161e+00
 9.1287779597e-01	 1.6282194490e+00	-1.7363996785e+00
 1.0630928109e+00	 1.5478640309e+00	-1.9236338056e+00
 1.0346860740e+00	 1.5669952492e+00	-1.8727331291e+00
 1.0059884539e+00	 1.5855713839e+00	-1.8226234449e+00
 9.7701601004e-01	 1.6035863241e+00	-1.7772411714e+00
 9.4778494831e-01	 1.6210345692e+00	-1.7366817345e+00
 9.1831159237e-01	 1.6379112314e+00	-1.6979551654e+00
 1.0693833009e+00	 1.5570229896e+00	-1.8741154191e+00
 1.0408084768e+00	 1.5762674104e+00	-1.8220741601e+00
 1.0119410483e+00	 1.5949534631e+00	-1.7701421102e+00
 9.8279716986e-01	 1.6130750006e+00	-1.7224263794e+00
 9.5339314327e-01	 1.6306264897e+00	-1.6791107338e+00
 9.2374538878e-01	 1.6476030139e+00	-1.6372405223e+00
 8.9657640675e-01	 1.5991441017e+00	-1.7098273340e+00
 8.6758011034e-01	 1.6150590897e+00	-1.6087785262e+00
 8.3837936380e-01	 1.6304082782e+00	-1.5285471811e+00
 8.0899028421e-01	 1.6451886917e+00	-1.4613825735e+00
 7.7942899428e-01	 1.6593979493e+00	-1.3988683091e+00
 7.4971159580e-01	 1.6730342597e+00	-1.3323694731e+00
 9.0201020316e-01	 1.6088358841e+00	-1.7431593589e+00
 8.7283817162e-01	 1.6248473266e+00	-1.6443642116e+00
 8.4346045085e-01	 1.6402895404e+00	-1.5650369523e+00
 8.1389325563e-01	 1.6551595322e+00	-1.4975081855e+00
 7.8415280637e-01	 1.6694549065e+00	-1.4334670171e+00
 7.5425530244e-01	 1.6831738613e+00	-1.3644208712e+00
 9.0744399956e-01	 1.6185276666e+00	-1.7517432095e+00
 8.7809623289e-01	 1.6346355635e+00	-1.6550985848e+00
 8.4854153791e-01	 1.6501708027e+00	-1.5765475083e+00
 8.1879622705e-01	 1.6651303728e+00	-1.5085029640e+00
 7.8887661846e-01	 1.6795118638e+00	-1.4427644552e+00
 7.5879900908e-01	 1.6933134629e+00	-1.3709908896e+00
 9.1287779597e-01	 1.6282194490e+00	-1.7363996785e+00
 8.8335429417e-01	 1.6444238004e+00	-1.6417461586e+00
 8.5362262496e-01	 1.6600520650e+00	-1.5637846210e+00
 8.2369919847e-01	 1.6751012133e+00	-1.4950109109e+00
 7.9360043054e-01	 1.6895688211e+00	-1.4273394348e+00
 7.6334271572e-01	 1.7034530645e+00	-1.3525895245e+00
 9.1831159237e-01	 1.6379112314e+00	-1.6979551654e+00
 8.8861235544e-01	 1.6542120373e+00	-1.6050793582e+00
 8.5870371201e-01	 1.6699333273e+00	-1.5274641269e+00
 8.2860216989e-01	 1.6850720539e+00	-1.4576880637e+00
 7.9832424263e-01	 1.6996257783e+00	-1.3877845658e+00
 7.6788642236e-01	 1.7135926660e+00	-1.3097421036e+00
 9.2374538878e-01	 1.6476030139e+00	-1.6372405223e+00
 8.9387041672e-01	 1.6640002742e+00	-1.5458774505e+00
 8.6378479907e-01	 1.6798145896e+00	-1.4683109404e+00
 8.3350514131e-01	 1.6950428944e+00	-1.3972015880e+00
 8.0304805472e-01	 1.7096827356e+00	-1.3247054260e+00
 7.7243012900e-01	 1.7237322676e+00	-1.2429885304e+00
 7.4971159580e-01	 1.6730342597e+00	-1.3323694731e+00
 7.1985414364e-01	 1.6860964157e+00	-1.1971825120e+00
 6.8987262042e-01	 1.6985837862e+00	-1.1105583395e+00
 6.5978291174e-01	 1.7104963082e+00	-1.0508046235e+00
 6.2960078221e-01	 1.7218344770e+00	-9.9813219562e-01
 5.9934185227e-01	 1.7325993349e+00	-9.3525916555e-01
 7.5425530244e-01	 1.6831738613e+00	-1.3644208712e+00
 7.2421689603e-01	 1.6963151818e+00	-1.2356329021e+00
 6.9405366661e-01	 1.7088782334e+00	-1.1527826635e+00
 6.6378159605e-01	 1.7208629525e+00	-1.0951384959e+00
 6.3341654452e-01	 1.7322698375e+00	-1.0433306469e+00
 6.0297422714e-01	 1.7430999369e+00	-9.8063756335e-01
 7.5879900908e-01	 1.6933134629e+00	-1.3709908896e+00
 7.2857964841e-01	 1.7065339480e+00	-1.2474628580e+00
 6.9823471279e-01	 1.7191726806e+00	-1.1670093494e+00
 6.6778028037e-01	 1.7312295968e+00	-1.1101907239e+00
 6.3723230684e-01	 1.7427051979e+00	-1.0580929247e+00
 6.0660660200e-01	 1.7536005389e+00	-9.9459987610e-01
 7.6334271572e-01	 1.7034530645e+00	-1.3525895245e+00
 7.3294240080e-01	 1.7167527142e+00	-1.2331416652e+00
 7.0241575897e-01	 1.7294671278e+00	-1.1536350749e+00
 6.7177896468e-01	 1.7415962411e+00	-1.0962740939e+00
 6.4104806916e-01	 1.7531405584e+00	-1.0426366823e+00
 6.1023897686e-01	 1.7641011410e+00	-9.7725780354e-01
 7.6788642236e-01	 1.7135926660e+00	-1.3097421036e+00
 7.3730515318e-01	 1.7269714803e+00	-1.1931601056e+00
 7.0659680516e-01	 1.7397615749e+00	-1.1130820474e+00
 6.7577764899e-01	 1.7519628854e+00	-1.0537304660e+00
 6.4486383147e-01	 1.7635759189e+00	-9.9721166841e-01
 6.1387135172e-01	 1.7746017430e+00	-9.2875761357e-01
 7.7243012900e-01	 1.7237322676e+00	-1.2429885304e+00
 7.4166790557e-01	 1.7371902465e+00	-1.1280248163e+00
 7.1077785134e-01	 1.7500560221e+00	-1.0457961288e+00
 6.7977633331e-01	 1.7623295297e+00	-9.8292908060e-01
 6.4867959379e-01	 1.7740112793e+00	-9.2209820670e-01
 6.1750372658e-01	 1.7851023450e+00	-8.4927878724e-01
 5.9934185227e-01	 1.7325993349e+00	-9.3525916555e-01
 5.6902157590e-01	 1.7427924596e+00	-8.2574498927e-01
 5.3865521914e-01	 1.7524159512e+00	-7.4077580050e-01
 5.0825783972e-01	 1.7614724180e+00	-6.6977553603e-01
 4.7784426755e-01	 1.7699649621e+00	-6.0387510198e-01
 4.4742908633e-01	 1.7778971635e+00	-5.3557516598e-01
 6.0297422714e-01	 1.7430999369e+00	-9.8063756335e-01
 5.7247019151e-01	 1.7533548382e+00	-8.7438802567e-01
 5.4191979622e-01	 1.7630366539e+00	-7.9017302962e-01
 5.1133819026e-01	 1.7721480084e+00	-7.1843863477e-01
 4.8074029341e-01	 1.7806920225e+00	-6.5141893553e-01
 4.5014077776e-01	 1.7886722978e+00	-5.8277220576e-01
 6.0660660200e-01	 1.7536005389e+00	-9.9459987610e-01
 5.7591880712e-01	 1.7639172167e+00	-8.9128852763e-01
 5.4518437331e-01	 1.7736573567e+00	-8.0782946126e-01
 5.1441854080e-01	 1.7828235989e+00	-7.3575870551e-01
 4.8363631928e-01	 1.7914190829e+00	-6.6848773610e-01
 4.5285246920e-01	 1.7994474321e+00	-6.0091193456e-01
 6.1023897686e-01	 1.7641011410e+00	-9.7725780354e-01
 5.7936742273e-01	 1.7744795952e+00	-8.7643462541e-01
 5.4844895039e-01	 1.7842780594e+00	-7.9360011414e-01
 5.1749889135e-01	 1.7934991893e+00	-7.2144964894e-01
 4.8653234514e-01	 1.8021461432e+00	-6.5464814769e-01
 4.5556416063e-01	 1.8102225664e+00	-5.8940977593e-01
 6.1387135172e-01	 1.7746017430e+00	-9.2875761357e-01
 5.8281603834e-01	 1.7850419738e+00	-8.2985110480e-01
 5.5171352748e-01	 1.7948987621e+00	-7.4737819289e-01
 5.2057924189e-01	 1.8041747797e+00	-6.7526452566e-01
 4.8942837100e-01	 1.8128732036e+00	-6.0950640099e-01
 4.5827585206e-01	 1.8209977007e+00	-5.4772063661e-01
 6.1750372658e-01	 1.7851023450e+00	-8.4927878724e-01
 5.8626465395e-01	 1.7956043523e+00	-7.5159820318e-01
 5.5497810457e-01	 1.8055194649e+00	-6.6909402571e-01
 5.2365959244e-01	 1.8148503701e+00	-5.9699462549e-01
 4.9232439687e-01	 1.8236002640e+00	-5.3270750392e-01
 4.6098754349e-01	 1.8317728351e+00	-4.7533820813e-01
 4.4742908633e-01	 1.7778971635e+00	-5.3557516598e-01
 4.1702661620e-01	 1.7852730638e+00	-4.8663496450e-01
 3.8665089743e-01	 1.7920971499e+00	-4.1940790879e-01
 3.5631567533e-01	 1.7983743355e+00	-3.3707762057e-01
 3.2603438614e-01	 1.8041099440e+00	-3.0558607043e-01
 2.9582014414e-01	 1.8093096898e+00	-3.5670971240e-01
 4.5014077776e-01	 1.7886722978e+00	-5.8277220576e-01
 4.1955405023e-01	 1.7960929006e+00	-5.3331465195e-01
 3.8899423621e-01	 1.8029583447e+00	-4.6404030012e-01
 3.5847516427e-01	 1.8092735739e+00	-3.7622316034e-01
 3.2801035212e-01	 1.8150439437e+00	-3.3099938481e-01
 2.9761299350e-01	 1.8202752030e+00	-3.6241275392e-01
 4.5285246920e-01	 1.7994474321e+00	-6.0091193456e-01
 4.2208148427e-01	 1.8069127373e+00	-5.5183354142e-01
 3.9133757498e-01	 1.8138195396e+00	-4.8218918306e-01
 3.6063465321e-01	 1.8201728123e+00	-3.9215813683e-01
 3.2998631809e-01	 1.8259779434e+00	-3.3760026817e-01
 2.9940584286e-01	 1.8312407163e+00	-3.5468952205e-01
 4.5556416063e-01	 1.8102225664e+00	-5.8940977593e-01
 4.2460891831e-01	 1.8177325741e+00	-5.4147494156e-01
 3.9368091375e-01	 1.8246807344e+00	-4.7300584767e-01
 3.6279414216e-01	 1.8310720507e+00	-3.8380555728e-01
 3.3196228407e-01	 1.8369119430e+00	-3.2420387916e-01
 3.0119869222e-01	 1.8422062296e+00	-3.3231211833e-01
 4.5827585206e-01	 1.8209977007e+00	-5.4772063661e-01
 4.2713635235e-01	 1.8285524108e+00	-5.0156054753e-01
 3.9602425252e-01	 1.8355419293e+00	-4.3567842642e-01
 3.6495363110e-01	 1.8419712891e+00	-3.5012636159e-01
 3.3393825005e-01	 1.8478459427e+00	-2.8964977901e-01
 3.0299154158e-01	 1.8531717428e+00	-2.9398295402e-01
 4.6098754349e-01	 1.8317728351e+00	-4.7533820813e-01
 4.2966378639e-01	 1.8393722476e+00	-4.3144985756e-01
 3.9836759130e-01	 1.8464031241e+00	-3.6943141470e-01
 3.6711312004e-01	 1.8528705275e+00	-2.9013897576e-01
 3.3591421602e-01	 1.8587799423e+00	-2.3222677265e-01
 3.0478439093e-01	 1.8641372561e+00	-2.3194845429e-01
 2.9582014414e-01	 1.8093096898e+00	-3.5670971240e-01
 2.6568572988e-01	 1.8139796592e+00	-2.9023215056e-01
 2.3564357946e-01	 1.8181262922e+00	-2.3064917605e-01
 2.0570577506e-01	 1.8217563627e+00	-1.9557521015e-01
 1.7588403644e-01	 1.8248769594e+00	-2.0058002046e-01
 1.4618971359e-01	 1.8274954661e+00	-2.5961003477e-01
 2.9761299350e-01	 1.8202752030e+00	-3.6241275392e-01
 2.6729594642e-01	 1.8249734753e+00	-2.8795600831e-01
 2.3707172237e-01	 1.8291452395e+00	-2.2185423714e-01
 2.0695247673e-01	 1.8327973104e+00	-1.8060685150e-01
 1.7695000029e-01	 1.8359368197e+00	-1.7839224640e-01
 1.4707571186e-01	 1.8385711962e+00	-2.2755541397e-01
 2.9940584286e-01	 1.8312407163e+00	-3.5468952205e-01
 2.6890616297e-01	 1.8359672914e+00	-2.7883262936e-01
 2.3849986527e-01	 1.8401641867e+00	-2.1348591795e-01
 2.0819917840e-01	 1.8438382581e+00	-1.7390561059e-01
 1.7801596415e-01	 1.8469966801e+00	-1.7273183348e-01
 1.4796171012e-01	 1.8496469263e+00	-2.2054599237e-01
 3.0119869222e-01	 1.8422062296e+00	-3.3231211833e-01
 2.7051637951e-01	 1.8469611076e+00	-2.6164750266e-01
 2.3992800818e-01	 1.8511831339e+00	-2.0440237006e-01
 2.0944588006e-01	 1.8548792057e+00	-1.7296789406e-01
 1.7908192801e-01	 1.8580565404e+00	-1.7498474135e-01
 1.4884770838e-01	 1.8607226564e+00	-2.1897107471e-01
 3.0299154158e-01	 1.8531717428e+00	-2.9398295402e-01
 2.7212659605e-01	 1.8579549237e+00	-2.3208484172e-01
 2.4135615109e-01	 1.8622020812e+00	-1.8046684093e-01
 2.1069258173e-01	 1.8659201534e+00	-1.4946807858e-01
 1.8014789187e-01	 1.8691164008e+00	-1.4790013329e-01
 1.4973370665e-01	 1.8717983865e+00	-1.8362107669e-01
 3.0478439093e-01	 1.8641372561e+00	-2.3194845429e-01
 2.7373681260e-01	 1.8689487398e+00	-1.7457945378e-01
 2.4278429399e-01	 1.8732210284e+00	-1.2512980451e-01
 2.1193928340e-01	 1.8769611010e+00	-9.3229120323e-02
 1.8121385572e-01	 1.8801762612e+00	-8.6982752785e-02
 1.5061970491e-01	 1.8828741166e+00	-1.1354376981e-01
 1.4618971359e-01	 1.8274954661e+00	-2.5961003477e-01
 1.1663378051e-01	 1.8296195431e+00	-1.7568359816e-01
 8.7226829916e-02	 1.8312571068e+00	-1.2141132608e-01
 5.7979069070e-02	 1.8324163115e+00	-1.1136628973e-01
 2.8900316551e-02	 1.8331055296e+00	-1.6078950343e-01
 0.0000000000e+00	 1.8333333333e+00	-2.8612788394e-01
 1.4707571186e-01	 1.8385711962e+00	-2.2755541397e-01
 1.1734065191e-01	 1.8407081464e+00	-1.4151665144e-01
 8.7755477370e-02	 1.8423556347e+00	-8.5748507524e-02
 5.8330457368e-02	 1.8435218649e+00	-7.2823173321e-02
 2.9075469984e-02	 1.8442152601e+00	-1.1603862467e-01
 0.0000000000e+00	 1.8444444444e+00	-2.3002265778e-01
 1.4796171012e-01	 1.8496469263e+00	-2.2054599237e-01
 1.1804752330e-01	 1.8517967496e+00	-1.4058587862e-01
 8.8284124824e-02	 1.8534541627e+00	-9.0520378246e-02
 5.8681845665e-02	 1.8546274183e+00	-8.0471512155e-02
 2.9250623418e-02	 1.8553249906e+00	-1.2266931585e-01
 0.0000000000e+00	 1.8555555556e+00	-2.3065130830e-01
 1.4884770838e-01	 1.8607226564e+00	-2.1897107471e-01
 1.1875439470e-01	 1.8628853529e+00	-1.3846384737e-01
 8.8812772278e-02	 1.8645526906e+00	-8.6989062801e-02
 5.9033233962e-02	 1.8657329717e+00	-7.4915154632e-02
 2.9425776852e-02	 1.8664347211e+00	-1.1351993677e-01
 0.0000000000e+00	 1.8666666667e+00	-2.1536292580e-01
 1.4973370665e-01	 1.8717983865e+00	-1.8362107669e-01
 1.1946126610e-01	 1.8739739562e+00	-1.0038335168e-01
 8.9341419732e-02	 1.8756512185e+00	-4.6635618849e-02
 5.9384622260e-02	 1.8768385251e+00	-3.1828313077e-02
 2.9600930285e-02	 1.8775444516e+00	-6.6297009191e-02
 0.0000000000e+00	 1.8777777778e+00	-1.6163233025e-01
 1.5061970491e-01	 1.8828741166e+00	-1.1354376981e-01
 1.2016813749e-01	 1.8850625595e+00	-2.6502539758e-02
 8.9870067186e-02	 1.8867497464e+00	 3.0444491683e-02
 5.9736010557e-02	 1.8879440785e+00	 4.8751252812e-02
 2.9776083719e-02	 1.8886541821e+00	 1.9011802814e-02
 0.0000000000e+00	 1.8888888889e+00	-6.9406434179e-02
 1.8888888889e+00	 0.0000000000e+00	 2.9957483505e+00
 1.8886541821e+00	 2.9776083719e-02	 2.9651722902e+00
 1.8879440785e+00	 5.9736010557e-02	 2.9440244749e+00
 1.8867497464e+00	 8.9870067186e-02	 2.9262100989e+00
 1.8850625595e+00	 1.2016813749e-01	 2.9064623619e+00
 1.8828741166e+00	 1.5061970491e-01	 2.8799461473e+00
 1.9000000000e+00	 0.0000000000e+00	 3.0605182273e+00
 1.8997639125e+00	 2.9951237152e-02	 3.0245103761e+00
 1.8990496319e+00	 6.0087398855e-02	 2.9974464471e+00
 1.8978482743e+00	 9.0398714640e-02	 2.9740189940e+00
 1.8961511628e+00	 1.2087500889e-01	 2.9497340927e+00
 1.8939498467e+00	 1.5150570318e-01	 2.9205202807e+00
 1.9111111111e+00	 0.0000000000e+00	 3.0850862231e+00
 1.9108736430e+00	 3.0126390586e-02	 3.0446293155e+00
 1.9101551853e+00	 6.0438787152e-02	 3.0127645672e+00
 1.9089468023e+00	 9.0927362094e-02	 2.9849574910e+00
 1.9072397661e+00	 1.2158188029e-01	 2.9574710598e+00
 1.9050255768e+00	 1.5239170144e-01	 2.9269807114e+00
 1.9222222222e+00	 0.0000000000e+00	 3.0694744048e+00
 1.9219833735e+00	 3.0301544020e-02	 3.0255925755e+00
 1.9212607387e+00	 6.0790175449e-02	 2.9900921570e+00
 1.9200453302e+00	 9.1456009548e-02	 2.9591953737e+00
 1.9183283694e+00	 1.2228875169e-01	 2.9299042094e+00
 1.9161013069e+00	 1.5327769970e-01	 2.8996223118e+00
 1.9333333333e+00	 0.0000000000e+00	 3.0137051872e+00
 1.9330931040e+00	 3.0476697453e-02	 2.9674641217e+00
 1.9323662921e+00	 6.1141563747e-02	 2.9295431773e+00
 1.9311438581e+00	 9.1984657002e-02	 2.8969031408e+00
 1.9294169727e+00	 1.2299562308e-01	 2.8672651577e+00
 1.9271770370e+00	 1.5416369797e-01	 2.8387404018e+00
 1.9444444444e+00	 0.0000000000e+00	 2.9178013237e+00
 1.9442028345e+00	 3.0651850887e-02	 2.8703084092e+00
 1.9434718455e+00	 6.1492952044e-02	 2.8312322188e+00
 1.9422423860e+00	 9.2513304456e-02	 2.7982519952e+00
 1.9405055760e+00	 1.2370249448e-01	 2.7697861752e+00
 1.9382527671e+00	 1.5504969623e-01	 2.7446307248e+00
 1.8828741166e+00	 1.5061970491e-01	 2.8799461473e+00
 1.8801762612e+00	 1.8121385572e-01	 2.8329452714e+00
 1.8769611010e+00	 2.1193928340e-01	 2.7854159030e+00
 1.8732210284e+00	 2.4278429399e-01	 2.7313716434e+00
 1.8689487398e+00	 2.7373681260e-01	 2.6631919525e+00
 1.8641372561e+00	 3.0478439093e-01	 2.5709605738e+00
 1.8939498467e+00	 1.5150570318e-01	 2.9205202807e+00
 1.8912361215e+00	 1.8227981958e-01	 2.8719918140e+00
 1.8880020487e+00	 2.1318598507e-01	 2.8220672817e+00
 1.8842399756e+00	 2.4421243690e-01	 2.7654603714e+00
 1.8799425559e+00	 2.7534702914e-01	 2.6952715632e+00
 1.8751027694e+00	 3.0657724029e-01	 2.6023300554e+00
 1.9050255768e+00	 1.5239170144e-01	 2.9269807114e+00
 1.9022959819e+00	 1.8334578344e-01	 2.8783782301e+00
 1.8990429963e+00	 2.1443268673e-01	 2.8276140566e+00
 1.8952589228e+00	 2.4564057980e-01	 2.7700890508e+00
 1.8909363720e+00	 2.7695724569e-01	 2.6996145926e+00
 1.8860682827e+00	 3.0837008965e-01	 2.6077589305e+00
 1.9161013069e+00	 1.5327769970e-01	 2.8996223118e+00
 1.9133558422e+00	 1.8441174729e-01	 2.8524647777e+00
 1.9100839440e+00	 2.1567938840e-01	 2.8024799585e+00
 1.9062778701e+00	 2.4706872271e-01	 2.7457411358e+00
 1.9019301881e+00	 2.7856746223e-01	 2.6767587440e+00
 1.8970337959e+00	 3.1016293901e-01	 2.5878321003e+00
 1.9271770370e+00	 1.5416369797e-01	 2.8387404018e+00
 1.9244157026e+00	 1.8547771115e-01	 2.7946116904e+00
 1.9211248916e+00	 2.1692609007e-01	 2.7470879518e+00
 1.9172968173e+00	 2.4849686562e-01	 2.6928982492e+00
 1.9129240043e+00	 2.8017767878e-01	 2.6272384501e+00
 1.9079993092e+00	 3.1195578837e-01	 2.5431293354e+00
 1.9382527671e+00	 1.5504969623e-01	 2.7446307248e+00
 1.9354755630e+00	 1.8654367501e-01	 2.7051791427e+00
 1.9321658393e+00	 2.1817279173e-01	 2.6618601847e+00
 1.9283157645e+00	 2.4992500852e-01	 2.6120401116e+00
 1.9239178204e+00	 2.8178789532e-01	 2.5515847757e+00
 1.9189648225e+00	 3.1374863773e-01	 2.4742251451e+00
 1.8641372561e+00	 3.0478439093e-01	 2.5709605738e+00
 1.8587799423e+00	 3.3591421602e-01	 2.4721902465e+00
 1.8528705275e+00	 3.6711312004e-01	 2.3890257309e+00
 1.8464031241e+00	 3.9836759130e-01	 2.2983472024e+00
 1.8393722476e+00	 4.2966378639e-01	 2.1867426001e+00
 1.8317728351e+00	 4.6098754349e-01	 2.0537466504e+00
 1.8751027694e+00	 3.0657724029e-01	 2.6023300554e+00
 1.8697139420e+00	 3.3789018200e-01	 2.5027216259e+00
 1.8637697659e+00	 3.6927260898e-01	 2.4153796438e+00
 1.8572643190e+00	 4.0071093007e-01	 2.3193705467e+00
 1.8501920843e+00	 4.3219122042e-01	 2.2087766359e+00
 1.8425479694e+00	 4.6369923493e-01	 2.0830704855e+00
 1.8860682827e+00	 3.0837008965e-01	 2.6077589305e+00
 1.8806479417e+00	 3.3986614798e-01	 2.5093915540e+00
 1.8746690043e+00	 3.7143209792e-01	 2.4200929377e+00
 1.8681255138e+00	 4.0305426884e-01	 2.3202815732e+00
 1.8610119211e+00	 4.3471865446e-01	 2.2062119348e+00
 1.8533231037e+00	 4.6641092636e-01	 2.0823938585e+00
 1.8970337959e+00	 3.1016293901e-01	 2.5878321003e+00
 1.8915819413e+00	 3.4184211395e-01	 2.4928200037e+00
 1.8855682427e+00	 3.7359158686e-01	 2.4037821975e+00
 1.8789867087e+00	 4.0539760761e-01	 2.3026908755e+00
 1.8718317579e+00	 4.3724608850e-01	 2.1873812698e+00
 1.8640982380e+00	 4.6912261779e-01	 2.0618739114e+00
 1.9079993092e+00	 3.1195578837e-01	 2.5431293354e+00
 1.9025159410e+00	 3.4381807993e-01	 2.4536195773e+00
 1.8964674811e+00	 3.7575107580e-01	 2.3670965312e+00
 1.8898479035e+00	 4.0774094638e-01	 2.2672237218e+00
 1.8826515946e+00	 4.3977352254e-01	 2.1530198730e+00
 1.8748733724e+00	 4.7183430922e-01	 2.0280287215e+00
 1.9189648225e+00	 3.1374863773e-01	 2.4742251451e+00
 1.9134499406e+00	 3.4579404590e-01	 2.3923953326e+00
 1.9073667195e+00	 3.7791056475e-01	 2.3106772317e+00
 1.9007090984e+00	 4.1008428516e-01	 2.2144890422e+00
 1.8934714314e+00	 4.4230095657e-01	 2.1036985409e+00
 1.8856485067e+00	 4.7454600066e-01	 1.9813860376e+00
 1.8317728351e+00	 4.6098754349e-01	 2.0537466504e+00
 1.8236002640e+00	 4.9232439687e-01	 1.9144078447e+00
 1.8148503701e+00	 5.2365959244e-01	 1.7729581484e+00
 1.8055194649e+00	 5.5497810457e-01	 1.6306523354e+00
 1.7956043523e+00	 5.8626465395e-01	 1.4905052840e+00
 1.7851023450e+00	 6.1750372658e-01	 1.3576993910e+00
 1.8425479694e+00	 4.6369923493e-01	 2.0830704855e+00
 1.8343273244e+00	 4.9522042273e-01	 1.9482799477e+00
 1.8255259605e+00	 5.2673994298e-01	 1.8109450056e+00
 1.8161401676e+00	 5.5824268165e-01	 1.6708585293e+00
 1.8061667309e+00	 5.8971326956e-01	 1.5296917801e+00
 1.7956029471e+00	 6.2113610145e-01	 1.3914310438e+00
 1.8533231037e+00	 4.6641092636e-01	 2.0823938585e+00
 1.8450543847e+00	 4.9811644860e-01	 1.9527610033e+00
 1.8362015509e+00	 5.2982029352e-01	 1.8208828619e+00
 1.8267608703e+00	 5.6150725874e-01	 1.6848498257e+00
 1.8167291094e+00	 5.9316188518e-01	 1.5449092628e+00
 1.8061035491e+00	 6.2476847631e-01	 1.4037815249e+00
 1.8640982380e+00	 4.6912261779e-01	 2.0618739114e+00
 1.8557814451e+00	 5.0101247446e-01	 1.9292646057e+00
 1.8468771413e+00	 5.3290064407e-01	 1.8030150017e+00
 1.8373815731e+00	 5.6477183582e-01	 1.6729476132e+00
 1.8272914880e+00	 5.9661050079e-01	 1.5365422081e+00
 1.8166041511e+00	 6.2840085117e-01	 1.3951824453e+00
 1.8748733724e+00	 4.7183430922e-01	 2.0280287215e+00
 1.8665085055e+00	 5.0390850032e-01	 1.8918234240e+00
 1.8575527317e+00	 5.3598099461e-01	 1.7605248922e+00
 1.8480022758e+00	 5.6803641291e-01	 1.6354890290e+00
 1.8378538665e+00	 6.0005911640e-01	 1.5049862455e+00
 1.8271047531e+00	 6.3203322603e-01	 1.3660712169e+00
 1.8856485067e+00	 4.7454600066e-01	 1.9813860376e+00
 1.8772355659e+00	 5.0680452619e-01	 1.8446558102e+00
 1.8682283222e+00	 5.3906134515e-01	 1.7090699232e+00
 1.8586229785e+00	 5.7130098999e-01	 1.5771607913e+00
 1.8484162450e+00	 6.0350773201e-01	 1.4506463787e+00
 1.8376053552e+00	 6.3566560090e-01	 1.3168890427e+00
 1.7851023450e+00	 6.1750372658e-01	 1.3576993910e+00
 1.7740112793e+00	 6.4867959379e-01	 1.2319922156e+00
 1.7623295297e+00	 6.7977633331e-01	 1.0800583542e+00
 1.7500560221e+00	 7.1077785134e-01	 9.1501045883e-01
 1.7371902465e+00	 7.4166790557e-01	 7.5276224598e-01
 1.7237322676e+00	 7.7243012900e-01	 6.1449442305e-01
 1.7956029471e+00	 6.2113610145e-01	 1.3914310438e+00
 1.7844466398e+00	 6.5249535611e-01	 1.2608877194e+00
 1.7726961740e+00	 6.8377501762e-01	 1.1052945617e+00
 1.7603504693e+00	 7.1495889753e-01	 9.3693606072e-01
 1.7474090126e+00	 7.4603065795e-01	 7.7120210820e-01
 1.7338718692e+00	 7.7697383564e-01	 6.2863366130e-01
 1.8061035491e+00	 6.2476847631e-01	 1.4037815249e+00
 1.7948820003e+00	 6.5631111842e-01	 1.2696754228e+00
 1.7830628183e+00	 6.8777370193e-01	 1.1118392521e+00
 1.7706449165e+00	 7.1913994371e-01	 9.4169611937e-01
 1.7576277788e+00	 7.5039341034e-01	 7.7421969009e-01
 1.7440114708e+00	 7.8151754228e-01	 6.2863965306e-01
 1.8166041511e+00	 6.2840085117e-01	 1.3951824453e+00
 1.8053173607e+00	 6.6012688074e-01	 1.2588454104e+00
 1.7934294626e+00	 6.9177238625e-01	 1.1002263466e+00
 1.7809393637e+00	 7.2332098990e-01	 9.2985436669e-01
 1.7678465449e+00	 7.5475616273e-01	 7.6232477700e-01
 1.7541510723e+00	 7.8606124893e-01	 6.1501525664e-01
 1.8271047531e+00	 6.3203322603e-01	 1.3660712169e+00
 1.8157527212e+00	 6.6394264306e-01	 1.2288868508e+00
 1.8037961069e+00	 6.9577107056e-01	 1.0709814126e+00
 1.7912338109e+00	 7.2750203608e-01	 9.0195807586e-01
 1.7780653111e+00	 7.5911891511e-01	 7.3599934009e-01
 1.7642906739e+00	 7.9060495557e-01	 5.8823644681e-01
 1.8376053552e+00	 6.3566560090e-01	 1.3168890427e+00
 1.8261880817e+00	 6.6775840537e-01	 1.1802857628e+00
 1.8141627512e+00	 6.9976975488e-01	 1.0246191948e+00
 1.8015282581e+00	 7.3168308226e-01	 8.5853534959e-01
 1.7882840772e+00	 7.6348166750e-01	 6.9569845003e-01
 1.7744302755e+00	 7.9514866221e-01	 5.4875326545e-01
 1.7237322676e+00	 7.7243012900e-01	 6.1449442305e-01
 1.7096827356e+00	 8.0304805472e-01	 4.6006720677e-01
 1.6950428944e+00	 8.3350514131e-01	 3.0098962629e-01
 1.6798145896e+00	 8.6378479907e-01	 1.4418119445e-01
 1.6640002742e+00	 8.9387041672e-01	-3.7008186948e-03
 1.6476030139e+00	 9.2374538878e-01	-1.3680804614e-01
 1.7338718692e+00	 7.7697383564e-01	 6.2863366130e-01
 1.7197396929e+00	 8.0777186680e-01	 4.7576660589e-01
 1.7050137350e+00	 8.3840811273e-01	 3.1707252612e-01
 1.6896958519e+00	 8.6886588612e-01	 1.5939188832e-01
 1.6737885112e+00	 8.9912847799e-01	 9.3730182106e-03
 1.6572947963e+00	 9.2917918518e-01	-1.2708346826e-01
 1.7440114708e+00	 7.8151754228e-01	 6.2863965306e-01
 1.7297966501e+00	 8.1249567889e-01	 4.7810129173e-01
 1.7149845755e+00	 8.4331108415e-01	 3.2054590760e-01
 1.6995771142e+00	 8.7394697317e-01	 1.6272501117e-01
 1.6835767481e+00	 9.0438653927e-01	 1.1273106816e-02
 1.6669865787e+00	 9.3461298159e-01	-1.2785670088e-01
 1.7541510723e+00	 7.8606124893e-01	 6.1501525664e-01
 1.7398536074e+00	 8.1721949098e-01	 4.6757719997e-01
 1.7249554161e+00	 8.4821405557e-01	 3.1191885316e-01
 1.7094583765e+00	 8.7902806023e-01	 1.5469215080e-01
 1.6933649850e+00	 9.0964460054e-01	 2.5123760923e-03
 1.6766783612e+00	 9.4004677799e-01	-1.3861496259e-01
 1.7642906739e+00	 7.9060495557e-01	 5.8823644681e-01
 1.7499105647e+00	 8.2194330306e-01	 4.4467394950e-01
 1.7349262567e+00	 8.5311702699e-01	 2.9167451189e-01
 1.7193396388e+00	 8.8410914728e-01	 1.3577913838e-01
 1.7031532219e+00	 9.1490266182e-01	-1.6422051001e-02
 1.6863701436e+00	 9.4548057439e-01	-1.5887156810e-01
 1.7744302755e+00	 7.9514866221e-01	 5.4875326545e-01
 1.7599675219e+00	 8.2666711515e-01	 4.0984583200e-01
 1.7448970972e+00	 8.5801999841e-01	 2.6027112388e-01
 1.7292209011e+00	 8.8919023433e-01	 1.0644710286e-01
 1.7129414588e+00	 9.2016072309e-01	-4.5067777835e-02
 1.6960619260e+00	 9.5091437080e-01	-1.8816482848e-01
 1.6476030139e+00	 9.2374538878e-01	-1.3680804614e-01
 1.6306264897e+00	 9.5339314327e-01	-3.4335718588e-01
 1.6130750006e+00	 9.8279716986e-01	-5.1713031855e-01
 1.5949534631e+00	 1.0119410483e+00	-6.5702814633e-01
 1.5762674104e+00	 1.0408084768e+00	-7.6583628381e-01
 1.5570229896e+00	 1.0693833009e+00	-8.5118025297e-01
 1.6572947963e+00	 9.2917918518e-01	-1.2708346826e-01
 1.6402184102e+00	 9.5900133823e-01	-3.2840316650e-01
 1.6225636770e+00	 9.8857832968e-01	-4.9919410751e-01
 1.6043355423e+00	 1.0178936427e+00	-6.3828715965e-01
 1.5855395717e+00	 1.0469308796e+00	-7.4841060449e-01
 1.5661819484e+00	 1.0756737909e+00	-8.3717384899e-01
 1.6669865787e+00	 9.3461298159e-01	-1.2785670088e-01
 1.6498103308e+00	 9.6460953319e-01	-3.2371097083e-01
 1.6320523535e+00	 9.9435948951e-01	-4.9128234143e-01
 1.6137176215e+00	 1.0238462371e+00	-6.2931650366e-01
 1.5948117329e+00	 1.0530532824e+00	-7.4046509994e-01
 1.5753409072e+00	 1.0819642809e+00	-8.3229881762e-01
 1.6766783612e+00	 9.4004677799e-01	-1.3861496259e-01
 1.6594022513e+00	 9.7021772815e-01	-3.2876233540e-01
 1.6415410300e+00	 1.0001406493e+00	-4.9287303349e-01
 1.6230997007e+00	 1.0297988315e+00	-6.2959194244e-01
 1.6040838942e+00	 1.0591756852e+00	-7.4147427228e-01
 1.5844998659e+00	 1.0882547710e+00	-8.3602870535e-01
 1.6863701436e+00	 9.4548057439e-01	-1.5887156810e-01
 1.6689941718e+00	 9.7582592311e-01	-3.4306580015e-01
 1.6510297065e+00	 1.0059218092e+00	-5.0347195777e-01
 1.6324817799e+00	 1.0357514259e+00	-6.3861820851e-01
 1.6133560554e+00	 1.0652980880e+00	-7.5094304429e-01
 1.5936588247e+00	 1.0945452610e+00	-8.4786916594e-01
 1.6960619260e+00	 9.5091437080e-01	-1.8816482848e-01
 1.6785860923e+00	 9.8143411807e-01	-3.6615558911e-01
 1.6605183829e+00	 1.0117029690e+00	-5.2261151611e-01
 1.6418638591e+00	 1.0417040203e+00	-6.5592786152e-01
 1.6226282166e+00	 1.0714204908e+00	-7.6840561568e-01
 1.6028177834e+00	 1.1008357510e+00	-8.6735681994e-01
 1.5570229896e+00	 1.0693833009e+00	-8.5118025297e-01
 1.5372269570e+00	 1.0976495421e+00	-9.5586890915e-01
 1.5168866722e+00	 1.1255914260e+00	-1.0864627282e+00
 1.4960100907e+00	 1.1531934109e+00	-1.2277308669e+00
 1.4746057547e+00	 1.1804402157e+00	-1.3761145734e+00
 1.4526827821e+00	 1.2073168470e+00	-1.5141197149e+00
 1.5661819484e+00	 1.0756737909e+00	-8.3717384899e-01
 1.5462694685e+00	 1.1041063041e+00	-9.4866072280e-01
 1.5258095350e+00	 1.1322125520e+00	-1.0803419591e+00
 1.5048101501e+00	 1.1599769016e+00	-1.2177551846e+00
 1.4832799062e+00	 1.1873839816e+00	-1.3618913677e+00
 1.4612279749e+00	 1.2144187108e+00	-1.5030174886e+00
 1.5753409072e+00	 1.0819642809e+00	-8.3229881762e-01
 1.5553119800e+00	 1.1105630661e+00	-9.4917440063e-01
 1.5347323977e+00	 1.1388336781e+00	-1.0791272349e+00
 1.5136102095e+00	 1.1667603922e+00	-1.2118859632e+00
 1.4919540577e+00	 1.1943277476e+00	-1.3492753416e+00
 1.4697731678e+00	 1.2215205747e+00	-1.4894019694e+00
 1.5844998659e+00	 1.0882547710e+00	-8.3602870535e-01
 1.5643544915e+00	 1.1170198281e+00	-9.5629730982e-01
 1.5436552605e+00	 1.1454548041e+00	-1.0827065615e+00
 1.5224102688e+00	 1.1735438829e+00	-1.2100319985e+00
 1.5006282092e+00	 1.2012715136e+00	-1.3399491043e+00
 1.4783183606e+00	 1.2286224385e+00	-1.4738649084e+00
 1.5936588247e+00	 1.0945452610e+00	-8.4786916594e-01
 1.5733970030e+00	 1.1234765902e+00	-9.6892784045e-01
 1.5525781233e+00	 1.1520759301e+00	-1.0909693780e+00
 1.5312103282e+00	 1.1803273735e+00	-1.2121036268e+00
 1.5093023607e+00	 1.2082152796e+00	-1.3338439031e+00
 1.4868635534e+00	 1.2357243023e+00	-1.4577005632e+00
 1.6028177834e+00	 1.1008357510e+00	-8.6735681994e-01
 1.5824395145e+00	 1.1299333522e+00	-9.8693020353e-01
 1.5615009861e+00	 1.1586970562e+00	-1.1038064991e+00
 1.5400103875e+00	 1.1871108642e+00	-1.2180126497e+00
 1.5179765122e+00	 1.2151590455e+00	-1.3308925221e+00
 1.4954087463e+00	 1.2428261661e+00	-1.4437977828e+00
 1.4526827821e+00	 1.2073168470e+00	-1.5141197149e+00
 1.4302508545e+00	 1.2338086268e+00	-1.5247645416e+00
 1.4073202035e+00	 1.2599012181e+00	-1.5561774102e+00
 1.3839015950e+00	 1.2855806509e+00	-1.6126049933e+00
 1.3600063133e+00	 1.3108333465e+00	-1.6930760662e+00
 1.3356461422e+00	 1.3356461422e+00	-1.7930389125e+00
 1.4612279749e+00	 1.2144187108e+00	-1.5030174886e+00
 1.4386640949e+00	 1.2410663247e+00	-1.5246784397e+00
 1.4155985576e+00	 1.2673124018e+00	-1.5626405955e+00
 1.3920421926e+00	 1.2931428900e+00	-1.6219985469e+00
 1.3680063504e+00	 1.3185441309e+00	-1.7023841781e+00
 1.3435028843e+00	 1.3435028843e+00	-1.7996711419e+00
 1.4697731678e+00	 1.2215205747e+00	-1.4894019694e+00
 1.4470773352e+00	 1.2483240225e+00	-1.5212653152e+00
 1.4238769117e+00	 1.2747235854e+00	-1.5649794033e+00
 1.4001827903e+00	 1.3007051291e+00	-1.6264889429e+00
 1.3760063876e+00	 1.3262549153e+00	-1.7060196983e+00
 1.3513596263e+00	 1.3513596263e+00	-1.7998524460e+00
 1.4783183606e+00	 1.2286224385e+00	-1.4738649084e+00
 1.4554905755e+00	 1.2555817203e+00	-1.5150467788e+00
 1.4321552659e+00	 1.2821347690e+00	-1.5636560995e+00
 1.4083233879e+00	 1.3082673682e+00	-1.6264883053e+00
 1.3840064247e+00	 1.3339656997e+00	-1.7043518199e+00
 1.3592163683e+00	 1.3592163683e+00	-1.7939139701e+00
 1.4868635534e+00	 1.2357243023e+00	-1.4577005632e+00
 1.4639038158e+00	 1.2628394181e+00	-1.5065517127e+00
 1.4404336200e+00	 1.2895459527e+00	-1.5591422053e+00
 1.4164639855e+00	 1.3158296073e+00	-1.6224206190e+00
 1.3920064618e+00	 1.3416764841e+00	-1.6977647527e+00
 1.3670731103e+00	 1.3670731103e+00	-1.7822055050e+00
 1.4954087463e+00	 1.2428261661e+00	-1.4437977828e+00
 1.4723170561e+00	 1.2700971159e+00	-1.4963130932e+00
 1.4487119742e+00	 1.2969571363e+00	-1.5519154131e+00
 1.4246045831e+00	 1.3233918465e+00	-1.6147187490e+00
 1.4000064990e+00	 1.3493872685e+00	-1.6866548564e+00
 1.3749298523e+00	 1.3749298523e+00	-1.7650927428e+00
 1.3356461422e+00	 1.3356461422e+00	-1.7930389125e+00
 1.3108333465e+00	 1.3600063133e+00	-1.8684110717e+00
 1.2855806509e+00	 1.3839015950e+00	-1.9154827872e+00
 1.2599012181e+00	 1.4073202035e+00	-1.9305269724e+00
 1.2338086268e+00	 1.4302508545e+00	-1.9137219674e+00
 1.2073168470e+00	 1.4526827821e+00	-1.8709668992e+00
 1.3435028843e+00	 1.3435028843e+00	-1.7996711419e+00
 1.3185441309e+00	 1.3680063504e+00	-1.8746719546e+00
 1.2931428900e+00	 1.3920421926e+00	-1.9227512803e+00
 1.2673124018e+00	 1.4155985576e+00	-1.9404948692e+00
 1.2410663247e+00	 1.4386640949e+00	-1.9285155402e+00
 1.2144187108e+00	 1.4612279749e+00	-1.8933470026e+00
 1.3513596263e+00	 1.3513596263e+00	-1.7998524460e+00
 1.3262549153e+00	 1.3760063876e+00	-1.8735463618e+00
 1.3007051291e+00	 1.4001827903e+00	-1.9215969051e+00
 1.2747235854e+00	 1.4238769117e+00	-1.9408740222e+00
 1.2483240225e+00	 1.4470773352e+00	-1.9323987081e+00
 1.2215205747e+00	 1.4697731678e+00	-1.9033182292e+00
 1.3592163683e+00	 1.3592163683e+00	-1.7939139701e+00
 1.3339656997e+00	 1.3840064247e+00	-1.8653318298e+00
 1.3082673682e+00	 1.4083233879e+00	-1.9122837866e+00
 1.2821347690e+00	 1.4321552659e+00	-1.9318924573e+00
 1.2555817203e+00	 1.4554905755e+00	-1.9255578029e+00
 1.2286224385e+00	 1.4783183606e+00	-1.9010167735e+00
 1.3670731103e+00	 1.3670731103e+00	-1.7822055050e+00
 1.3416764841e+00	 1.3920064618e+00	-1.8503485076e+00
 1.3158296073e+00	 1.4164639855e+00	-1.8951029112e+00
 1.2895459527e+00	 1.4404336200e+00	-1.9138094998e+00
 1.2628394181e+00	 1.4639038158e+00	-1.9082149861e+00
 1.2357243023e+00	 1.4868635534e+00	-1.8868567413e+00
 1.3749298523e+00	 1.3749298523e+00	-1.7650927428e+00
 1.3493872685e+00	 1.4000064990e+00	-1.8289365449e+00
 1.3233918465e+00	 1.4246045831e+00	-1.8703696544e+00
 1.2969571363e+00	 1.4487119742e+00	-1.8869134472e+00
 1.2700971159e+00	 1.4723170561e+00	-1.8806260726e+00
 1.2428261661e+00	 1.4954087463e+00	-1.8622010250e+00
 1.2073168470e+00	 1.4526827821e+00	-1.8709668992e+00
 1.1804402157e+00	 1.4746057547e+00	-1.9216221230e+00
 1.1531934109e+00	 1.4960100907e+00	-1.9446532763e+00
 1.1255914260e+00	 1.5168866722e+00	-1.9455901369e+00
 1.0976495421e+00	 1.5372269570e+00	-1.9247046942e+00
 1.0693833009e+00	 1.5570229896e+00	-1.8741154191e+00
 1.2144187108e+00	 1.4612279749e+00	-1.8933470026e+00
 1.1873839816e+00	 1.4832799062e+00	-1.9417178127e+00
 1.1599769016e+00	 1.5048101501e+00	-1.9642225848e+00
 1.1322125520e+00	 1.5258095350e+00	-1.9655125139e+00
 1.1041063041e+00	 1.5462694685e+00	-1.9478216461e+00
 1.0756737909e+00	 1.5661819484e+00	-1.9025850509e+00
 1.2215205747e+00	 1.4697731678e+00	-1.9033182292e+00
 1.1943277476e+00	 1.4919540577e+00	-1.9478242627e+00
 1.1667603922e+00	 1.5136102095e+00	-1.9683863962e+00
 1.1388336781e+00	 1.5347323977e+00	-1.9688277807e+00
 1.1105630661e+00	 1.5553119800e+00	-1.9519264508e+00
 1.0819642809e+00	 1.5753409072e+00	-1.9111597585e+00
 1.2286224385e+00	 1.4783183606e+00	-1.9010167735e+00
 1.2012715136e+00	 1.5006282092e+00	-1.9406606150e+00
 1.1735438829e+00	 1.5224102688e+00	-1.9581646051e+00
 1.1454548041e+00	 1.5436552605e+00	-1.9565933244e+00
 1.1170198281e+00	 1.5643544915e+00	-1.9385926014e+00
 1.0882547710e+00	 1.5844998659e+00	-1.9008987370e+00
 1.2357243023e+00	 1.4868635534e+00	-1.8868567413e+00
 1.2082152796e+00	 1.5093023607e+00	-1.9211653741e+00
 1.1803273735e+00	 1.5312103282e+00	-1.9345309836e+00
 1.1520759301e+00	 1.5525781233e+00	-1.9298204757e+00
 1.1234765902e+00	 1.5733970030e+00	-1.9095339476e+00
 1.0945452610e+00	 1.5936588247e+00	-1.8728460023e+00
 1.2428261661e+00	 1.4954087463e+00	-1.8622010250e+00
 1.2151590455e+00	 1.5179765122e+00	-1.8902319244e+00
 1.1871108642e+00	 1.5400103875e+00	-1.8984142436e+00
 1.1586970562e+00	 1.5615009861e+00	-1.8894755335e+00
 1.1299333522e+00	 1.5824395145e+00	-1.8657608445e+00
 1.1008357510e+00	 1.6028177834e+00	-1.8280288124e+00
 1.0693833009e+00	 1.5570229896e+00	-1.8741154191e+00
 1.0408084768e+00	 1.5762674104e+00	-1.8220741601e+00
 1.0119410483e+00	 1.5949534631e+00	-1.7701421102e+00
 9.8279716986e-01	 1.6130750006e+00	-1.7224263794e+00
 9.5339314327e-01	 1.6306264897e+00	-1.6791107338e+00
 9.2374538878e-01	 1.6476030139e+00	-1.6372405223e+00
 1.0756737909e+00	 1.5661819484e+00	-1.9025850509e+00
 1.0469308796e+00	 1.5855395717e+00	-1.8510905590e+00
 1.0178936427e+00	 1.6043355423e+00	-1.7987256341e+00
 9.8857832968e-01	 1.6225636770e+00	-1.7498352684e+00
 9.5900133823e-01	 1.6402184102e+00	-1.7047586716e+00
 9.2917918518e-01	 1.6572947963e+00	-1.6606443339e+00
 1.0819642809e+00	 1.5753409072e+00	-1.9111597585e+00
 1.0530532824e+00	 1.5948117329e+00	-1.8601901648e+00
 1.0238462371e+00	 1.6137176215e+00	-1.8073751166e+00
 9.9435948951e-01	 1.6320523535e+00	-1.7572830027e+00
 9.6460953319e-01	 1.6498103308e+00	-1.7103944553e+00
 9.3461298159e-01	 1.6669865787e+00	-1.6639486422e+00
 1.0882547710e+00	 1.5844998659e+00	-1.9008987370e+00
 1.0591756852e+00	 1.6040838942e+00	-1.8503831278e+00
 1.0297988315e+00	 1.6230997007e+00	-1.7970544484e+00
 1.0001406493e+00	 1.6415410300e+00	-1.7456886399e+00
 9.7021772815e-01	 1.6594022513e+00	-1.6968924463e+00
 9.4004677799e-01	 1.6766783612e+00	-1.6479820650e+00
 1.0945452610e+00	 1.5936588247e+00	-1.8728460023e+00
 1.0652980880e+00	 1.6133560554e+00	-1.8226674653e+00
 1.0357514259e+00	 1.6324817799e+00	-1.7687184803e+00
 1.0059218092e+00	 1.6510297065e+00	-1.7159652872e+00
 9.7582592311e-01	 1.6689941718e+00	-1.6651240981e+00
 9.4548057439e-01	 1.6863701436e+00	-1.6135732633e+00
 1.1008357510e+00	 1.6028177834e+00	-1.8280288124e+00
 1.0714204908e+00	 1.6226282166e+00	-1.7780275675e+00
 1.0417040203e+00	 1.6418638591e+00	-1.7233116126e+00
 1.0117029690e+00	 1.6605183829e+00	-1.6690187772e+00
 9.8143411807e-01	 1.6785860923e+00	-1.6159567165e+00
 9.5091437080e-01	 1.6960619260e+00	-1.5615497854e+00
 9.2374538878e-01	 1.6476030139e+00	-1.6372405223e+00
 8.9387041672e-01	 1.6640002742e+00	-1.5458774505e+00
 8.6378479907e-01	 1.6798145896e+00	-1.4683109404e+00
 8.3350514131e-01	 1.6950428944e+00	-1.3972015880e+00
 8.0304805472e-01	 1.7096827356e+00	-1.3247054260e+00
 7.7243012900e-01	 1.7237322676e+00	-1.2429885304e+00
 9.2917918518e-01	 1.6572947963e+00	-1.6606443339e+00
 8.9912847799e-01	 1.6737885112e+00	-1.5719287794e+00
 8.6886588612e-01	 1.6896958519e+00	-1.4964007513e+00
 8.3840811273e-01	 1.7050137350e+00	-1.4267277636e+00
 8.0777186680e-01	 1.7197396929e+00	-1.3551166698e+00
 7.7697383564e-01	 1.7338718692e+00	-1.2738433271e+00
 9.3461298159e-01	 1.6669865787e+00	-1.6639486422e+00
 9.0438653927e-01	 1.6835767481e+00	-1.5771385103e+00
 8.7394697317e-01	 1.6995771142e+00	-1.5028585401e+00
 8.4331108415e-01	 1.7149845755e+00	-1.4337817241e+00
 8.1249567889e-01	 1.7297966501e+00	-1.3621690728e+00
 7.8151754228e-01	 1.7440114708e+00	-1.2804147985e+00
 9.4004677799e-01	 1.6766783612e+00	-1.6479820650e+00
 9.0964460054e-01	 1.6933649850e+00	-1.5622979685e+00
 8.7902806023e-01	 1.7094583765e+00	-1.4884352653e+00
 8.4821405557e-01	 1.7249554161e+00	-1.4190702544e+00
 8.1721949098e-01	 1.7398536074e+00	-1.3465209032e+00
 7.8606124893e-01	 1.7541510723e+00	-1.2633080263e+00
 9.4548057439e-01	 1.6863701436e+00	-1.6135732633e+00
 9.1490266182e-01	 1.7031532219e+00	-1.5282010991e+00
 8.8410914728e-01	 1.7193396388e+00	-1.4538869168e+00
 8.5311702699e-01	 1.7349262567e+00	-1.3833073842e+00
 8.2194330306e-01	 1.7499105647e+00	-1.3088396616e+00
 7.9060495557e-01	 1.7642906739e+00	-1.2231390638e+00
 9.5091437080e-01	 1.6960619260e+00	-1.5615497854e+00
 9.2016072309e-01	 1.7129414588e+00	-1.4756434018e+00
 8.8919023433e-01	 1.7292209011e+00	-1.3999735377e+00
 8.5801999841e-01	 1.7448970972e+00	-1.3272134948e+00
 8.2666711515e-01	 1.7599675219e+00	-1.2498012703e+00
 7.9514866221e-01	 1.7744302755e+00	-1.1605342043e+00
 7.7243012900e-01	 1.7237322676e+00	-1.2429885304e+00
 7.4166790557e-01	 1.7371902465e+00	-1.1280248163e+00
 7.1077785134e-01	 1.7500560221e+00	-1.0457961288e+00
 6.7977633331e-01	 1.7623295297e+00	-9.8292908060e-01
 6.4867959379e-01	 1.7740112793e+00	-9.2209820670e-01
 6.1750372658e-01	 1.7851023450e+00	-8.4927878724e-01
 7.7697383564e-01	 1.7338718692e+00	-1.2738433271e+00
 7.4603065795e-01	 1.7474090126e+00	-1.1649273199e+00
 7.1495889753e-01	 1.7603504693e+00	-1.0855322139e+00
 6.8377501762e-01	 1.7726961740e+00	-1.0248818933e+00
 6.5249535611e-01	 1.7844466398e+00	-9.6648851299e-01
 6.2113610145e-01	 1.7956029471e+00	-8.9722944388e-01
 7.8151754228e-01	 1.7440114708e+00	-1.2804147985e+00
 7.5039341034e-01	 1.7576277788e+00	-1.1768999610e+00
 7.1913994371e-01	 1.7706449165e+00	-1.0996522185e+00
 6.8777370193e-01	 1.7830628183e+00	-1.0403629162e+00
 6.5631111842e-01	 1.7948820003e+00	-9.8360516437e-01
 6.2476847631e-01	 1.8061035491e+00	-9.1720444902e-01
 7.8606124893e-01	 1.7541510723e+00	-1.2633080263e+00
 7.5475616273e-01	 1.7678465449e+00	-1.1644846270e+00
 7.2332098990e-01	 1.7809393637e+00	-1.0886589305e+00
 6.9177238625e-01	 1.7934294626e+00	-1.0297965204e+00
 6.6012688074e-01	 1.8053173607e+00	-9.7378042765e-01
 6.2840085117e-01	 1.8166041511e+00	-9.0943058124e-01
 7.9060495557e-01	 1.7642906739e+00	-1.2231390638e+00
 7.5911891511e-01	 1.7780653111e+00	-1.1282357694e+00
 7.2750203608e-01	 1.7912338109e+00	-1.0530713699e+00
 6.9577107056e-01	 1.8037961069e+00	-9.9362807932e-01
 6.6394264306e-01	 1.8157527212e+00	-9.3737177558e-01
 6.3203322603e-01	 1.8271047531e+00	-8.7416343293e-01
 7.9514866221e-01	 1.7744302755e+00	-1.1605342043e+00
 7.6348166750e-01	 1.7882840772e+00	-1.0687197455e+00
 7.3168308226e-01	 1.8015282581e+00	-9.9342291898e-01
 6.9976975488e-01	 1.8141627512e+00	-9.3232226865e-01
 6.6775840537e-01	 1.8261880817e+00	-8.7476034969e-01
 6.3566560090e-01	 1.8376053552e+00	-8.1168602834e-01
 6.1750372658e-01	 1.7851023450e+00	-8.4927878724e-01
 5.8626465395e-01	 1.7956043523e+00	-7.5159820318e-01
 5.5497810457e-01	 1.8055194649e+00	-6.6909402571e-01
 5.2365959244e-01	 1.8148503701e+00	-5.9699462549e-01
 4.9232439687e-01	 1.8236002640e+00	-5.3270750392e-01
 4.6098754349e-01	 1.8317728351e+00	-4.7533820813e-01
 6.2113610145e-01	 1.7956029471e+00	-8.9722944388e-01
 5.8971326956e-01	 1.8061667309e+00	-8.0671007613e-01
 5.5824268165e-01	 1.8161401676e+00	-7.2608339448e-01
 5.2673994298e-01	 1.8255259605e+00	-6.5182742494e-01
 4.9522042273e-01	 1.8343273244e+00	-5.8273130801e-01
 4.6369923493e-01	 1.8425479694e+00	-5.1938201522e-01
 6.2476847631e-01	 1.8061035491e+00	-9.1720444902e-01
 5.9316188518e-01	 1.8167291094e+00	-8.3170717260e-01
 5.6150725874e-01	 1.8267608703e+00	-7.5114879901e-01
 5.2982029352e-01	 1.8362015509e+00	-6.7333343903e-01
 4.9811644860e-01	 1.8450543847e+00	-5.9851627290e-01
 4.6641092636e-01	 1.8533231037e+00	-5.2903832674e-01
 6.2840085117e-01	 1.8166041511e+00	-9.0943058124e-01
 5.9661050079e-01	 1.8272914880e+00	-8.2672575724e-01
 5.6477183582e-01	 1.8373815731e+00	-7.4432261130e-01
 5.3290064407e-01	 1.8468771413e+00	-6.6142928777e-01
 5.0101247446e-01	 1.8557814451e+00	-5.8136581449e-01
 4.6912261779e-01	 1.8640982380e+00	-5.1619336390e-01
 6.3203322603e-01	 1.8271047531e+00	-8.7416343293e-01
 6.0005911640e-01	 1.8378538665e+00	-7.9193326597e-01
 5.6803641291e-01	 1.8480022758e+00	-7.0567014923e-01
 5.3598099461e-01	 1.8575527317e+00	-6.1958164567e-01
 5.0390850032e-01	 1.8665085055e+00	-5.4782922603e-01
 4.7183430922e-01	 1.8748733724e+00	-4.8859990587e-01
 6.3566560090e-01	 1.8376053552e+00	-8.1168602834e-01
 6.0350773201e-01	 1.8484162450e+00	-7.2752708877e-01
 5.7130098999e-01	 1.8586229785e+00	-6.4055386044e-01
 5.3906134515e-01	 1.8682283222e+00	-5.6642636447e-01
 5.0680452619e-01	 1.8772355659e+00	-5.0292726975e-01
 4.7454600066e-01	 1.8856485067e+00	-4.4685810479e-01
 4.6098754349e-01	 1.8317728351e+00	-4.7533820813e-01
 4.2966378639e-01	 1.8393722476e+00	-4.3144985756e-01
 3.9836759130e-01	 1.8464031241e+00	-3.6943141470e-01
 3.6711312004e-01	 1.8528705275e+00	-2.9013897576e-01
 3.3591421602e-01	 1.8587799423e+00	-2.3222677265e-01
 3.0478439093e-01	 1.8641372561e+00	-2.3194845429e-01
 4.6369923493e-01	 1.8425479694e+00	-5.1938201522e-01
 4.3219122042e-01	 1.8501920843e+00	-4.6706901184e-01
 4.0071093007e-01	 1.8572643190e+00	-4.0340332876e-01
 3.6927260898e-01	 1.8637697659e+00	-3.2942917559e-01
 3.3789018200e-01	 1.8697139420e+00	-2.7180901486e-01
 3.0657724029e-01	 1.8751027694e+00	-2.6632005910e-01
 4.6641092636e-01	 1.8533231037e+00	-5.2903832674e-01
 4.3471865446e-01	 1.8610119211e+00	-4.7494940313e-01
 4.0305426884e-01	 1.8681255138e+00	-4.1565838527e-01
 3.7143209792e-01	 1.8746690043e+00	-3.4611264618e-01
 3.3986614798e-01	 1.8806479417e+00	-2.8712087862e-01
 3.0837008965e-01	 1.8860682827e+00	-2.7494288555e-01
 4.6912261779e-01	 1.8640982380e+00	-5.1619336390e-01
 4.3724608850e-01	 1.8718317579e+00	-4.6515289309e-01
 4.0539760761e-01	 1.8789867087e+00	-4.0816580387e-01
 3.7359158686e-01	 1.8855682427e+00	-3.4069830288e-01
 3.4184211395e-01	 1.8915819413e+00	-2.7877456428e-01
 3.1016293901e-01	 1.8970337959e+00	-2.5837122708e-01
 4.7183430922e-01	 1.8748733724e+00	-4.8859990587e-01
 4.3977352254e-01	 1.8826515946e+00	-4.3851432734e-01
 4.0774094638e-01	 1.8898479035e+00	-3.8161166249e-01
 3.7575107580e-01	 1.8964674811e+00	-3.1386514535e-01
 3.4381807993e-01	 1.9025159410e+00	-2.4737943224e-01
 3.1195578837e-01	 1.9079993092e+00	-2.1715902166e-01
 4.7454600066e-01	 1.8856485067e+00	-4.4685810479e-01
 4.4230095657e-01	 1.8934714314e+00	-3.9567126512e-01
 4.1008428516e-01	 1.9007090984e+00	-3.3666612083e-01
 3.7791056475e-01	 1.9073667195e+00	-2.6631027790e-01
 3.4579404590e-01	 1.9134499406e+00	-1.9354166043e-01
 3.1374863773e-01	 1.9189648225e+00	-1.5185957557e-01
 3.0478439093e-01	 1.8641372561e+00	-2.3194845429e-01
 2.7373681260e-01	 1.8689487398e+00	-1.7457945378e-01
 2.4278429399e-01	 1.8732210284e+00	-1.2512980451e-01
 2.1193928340e-01	 1.8769611010e+00	-9.3229120323e-02
 1.8121385572e-01	 1.8801762612e+00	-8.6982752785e-02
 1.5061970491e-01	 1.8828741166e+00	-1.1354376981e-01
 3.0657724029e-01	 1.8751027694e+00	-2.6632005910e-01
 2.7534702914e-01	 1.8799425559e+00	-2.1578915679e-01
 2.4421243690e-01	 1.8842399756e+00	-1.7295457083e-01
 2.1318598507e-01	 1.8880020487e+00	-1.4665603058e-01
 1.8227981958e-01	 1.8912361215e+00	-1.4421303409e-01
 1.5150570318e-01	 1.8939498467e+00	-1.7199429494e-01
 3.0837008965e-01	 1.8860682827e+00	-2.7494288555e-01
 2.7695724569e-01	 1.8909363720e+00	-2.2914199125e-01
 2.4564057980e-01	 1.8952589228e+00	-1.9095659105e-01
 2.1443268673e-01	 1.8990429963e+00	-1.6844549301e-01
 1.8334578344e-01	 1.9022959819e+00	-1.6815451348e-01
 1.5239170144e-01	 1.9050255768e+00	-1.9568253826e-01
 3.1016293901e-01	 1.8970337959e+00	-2.5837122708e-01
 2.7856746223e-01	 1.9019301881e+00	-2.1514005934e-01
 2.4706872271e-01	 1.9062778701e+00	-1.7957941488e-01
 2.1567938840e-01	 1.9100839440e+00	-1.5897757740e-01
 1.8441174729e-01	 1.9133558422e+00	-1.5912046322e-01
 1.5327769970e-01	 1.9161013069e+00	-1.8485340775e-01
 3.1195578837e-01	 1.9079993092e+00	-2.1715902166e-01
 2.8017767878e-01	 1.9129240043e+00	-1.7428672847e-01
 2.4849686562e-01	 1.9172968173e+00	-1.3926895588e-01
 2.1692609007e-01	 1.9211248916e+00	-1.1863533511e-01
 1.8547771115e-01	 1.9244157026e+00	-1.1742732005e-01
 1.5416369797e-01	 1.9271770370e+00	-1.3975477343e-01
 3.1374863773e-01	 1.9189648225e+00	-1.5185957557e-01
 2.8178789532e-01	 1.9239178204e+00	-1.0708642106e-01
 2.4992500852e-01	 1.9283157645e+00	-7.0473338624e-02
 2.1817279173e-01	 1.9321658393e+00	-4.7804695589e-02
 1.8654367501e-01	 1.9354755630e+00	-4.3394623076e-02
 1.5504969623e-01	 1.9382527671e+00	-6.0637439499e-02
 1.5061970491e-01	 1.8828741166e+00	-1.1354376981e-01
 1.2016813749e-01	 1.8850625595e+00	-2.6502539758e-02
 8.9870067186e-02	 1.8867497464e+00	 3.0444491683e-02
 5.9736010557e-02	 1.8879440785e+00	 4.8751252812e-02
 2.9776083719e-02	 1.8886541821e+00	 1.9011802814e-02
 0.0000000000e+00	 1.8888888889e+00	-6.9406434179e-02
 1.5150570318e-01	 1.8939498467e+00	-1.7199429494e-01
 1.2087500889e-01	 1.8961511628e+00	-9.1855525675e-02
 9.0398714640e-02	 1.8978482743e+00	-4.1348553965e-02
 6.0087398855e-02	 1.8990496319e+00	-2.8170850167e-02
 2.9951237152e-02	 1.8997639125e+00	-6.0854819099e-02
 0.0000000000e+00	 1.9000000000e+00	-1.4913048739e-01
 1.5239170144e-01	 1.9050255768e+00	-1.9568253826e-01
 1.2158188029e-01	 1.9072397661e+00	-1.2139677550e-01
 9.0927362094e-02	 1.9089468023e+00	-7.6445975197e-02
 6.0438787152e-02	 1.9101551853e+00	-6.7695936561e-02
 3.0126390586e-02	 1.9108736430e+00	-1.0282141711e-01
 0.0000000000e+00	 1.9111111111e+00	-1.9066395236e-01
 1.5327769970e-01	 1.9161013069e+00	-1.8485340775e-01
 1.2228875169e-01	 1.9183283694e+00	-1.1529913082e-01
 9.1456009548e-02	 1.9200453302e+00	-7.4951540049e-02
 6.0790175449e-02	 1.9212607387e+00	-6.9863642733e-02
 3.0301544020e-02	 1.9219833735e+00	-1.0687038653e-01
 0.0000000000e+00	 1.9222222222e+00	-1.9394079023e-01
 1.5416369797e-01	 1.9271770370e+00	-1.3975477343e-01
 1.2299562308e-01	 1.9294169727e+00	-7.3737952142e-02
 9.1984657002e-02	 1.9311438581e+00	-3.6970796967e-02
 6.1141563747e-02	 1.9323662921e+00	-3.4714408662e-02
 3.0476697453e-02	 1.9330931040e+00	-7.2983769063e-02
 0.0000000000e+00	 1.9333333333e+00	-1.5889332895e-01
 1.5504969623e-01	 1.9382527671e+00	-6.0637439499e-02
 1.2370249448e-01	 1.9405055760e+00	 3.1088841448e-03
 9.2513304456e-02	 1.9422423860e+00	 3.7388908840e-02
 6.1492952044e-02	 1.9434718455e+00	 3.7710491413e-02
 3.0651850887e-02	 1.9442028345e+00	-1.1432933103e-03
 0.0000000000e+00	 1.9444444444e+00	-8.5452309965e-02
 1.9444444444e+00	 0.0000000000e+00	 2.9178013237e+00
 1.9442028345e+00	 3.0651850887e-02	 2.8703084092e+00
 1.9434718455e+00	 6.1492952044e-02	 2.8312322188e+00
 1.9422423860e+00	 9.2513304456e-02	 2.7982519952e+00
 1.9405055760e+00	 1.2370249448e-01	 2.7697861752e+00
 1.9382527671e+00	 1.5504969623e-01	 2.7446307248e+00
 1.9555555556e+00	 0.0000000000e+00	 2.9862450322e+00
 1.9553125650e+00	 3.0827004321e-02	 2.9281864476e+00
 1.9545773989e+00	 6.1844340342e-02	 2.8803126631e+00
 1.9533409139e+00	 9.3041951910e-02	 2.8409637022e+00
 1.9515941793e+00	 1.2440936588e-01	 2.8091902950e+00
 1.9493284972e+00	 1.5593569450e-01	 2.7844016990e+00
 1.9666666667e+00	 0.0000000000e+00	 3.0159619559e+00
 1.9664222954e+00	 3.1002157754e-02	 2.9480439323e+00
 1.9656829523e+00	 6.2195728639e-02	 2.8922325184e+00
 1.9644394419e+00	 9.3570599364e-02	 2.8475045306e+00
 1.9626827826e+00	 1.2511623727e-01	 2.8135171558e+00
 1.9604042273e+00	 1.5682169276e-01	 2.7902662234e+00
 1.9777777778e+00	 0.0000000000e+00	 3.0069528626e+00
 1.9775320259e+00	 3.1177311188e-02	 2.9299319641e+00
 1.9767885057e+00	 6.2547116936e-02	 2.8671019682e+00
 1.9755379698e+00	 9.4099246818e-02	 2.8180503626e+00
 1.9737713858e+00	 1.2582310867e-01	 2.7830127550e+00
 1.9714799574e+00	 1.5770769103e-01	 2.7625425963e+00
 1.9888888889e+00	 0.0000000000e+00	 2.9592193346e+00
 1.9886417564e+00	 3.1352464622e-02	 2.8739024294e+00
 1.9878940591e+00	 6.2898505234e-02	 2.8050319295e+00
 1.9866364977e+00	 9.4627894273e-02	 2.7527776800e+00
 1.9848599891e+00	 1.2652998007e-01	 2.7179234149e+00
 1.9825556875e+00	 1.5859368929e-01	 2.7015489642e+00
 2.0000000000e+00	 0.0000000000e+00	 2.8727637461e+00
 1.9997514869e+00	 3.1527618055e-02	 2.7800079835e+00
 1.9989996125e+00	 6.3249893531e-02	 2.7061340405e+00
 1.9977350256e+00	 9.5156541727e-02	 2.6518635551e+00
 1.9959485924e+00	 1.2723685146e-01	 2.6184957736e+00
 1.9936314176e+00	 1.5947968755e-01	 2.6076033117e+00
 1.9382527671e+00	 1.5504969623e-01	 2.7446307248e+00
 1.9354755630e+00	 1.8654367501e-01	 2.7051791427e+00
 1.9321658393e+00	 2.1817279173e-01	 2.6618601847e+00
 1.9283157645e+00	 2.4992500852e-01	 2.6120401116e+00
 1.9239178204e+00	 2.8178789532e-01	 2.5515847757e+00
 1.9189648225e+00	 3.1374863773e-01	 2.4742251451e+00
 1.9493284972e+00	 1.5593569450e-01	 2.7844016990e+00
 1.9465354233e+00	 1.8760963887e-01	 2.7466051603e+00
 1.9432067869e+00	 2.1941949340e-01	 2.7020592542e+00
 1.9393347117e+00	 2.5135315143e-01	 2.6487802891e+00
 1.9349116365e+00	 2.8339811187e-01	 2.5833279979e+00
 1.9299303357e+00	 3.1554148708e-01	 2.5001797301e+00
 1.9604042273e+00	 1.5682169276e-01	 2.7902662234e+00
 1.9575952837e+00	 1.8867560272e-01	 2.7563856741e+00
 1.9542477346e+00	 2.2066619507e-01	 2.7129933005e+00
 1.9503536590e+00	 2.5278129433e-01	 2.6587326969e+00
 1.9459054526e+00	 2.8500832841e-01	 2.5908380349e+00
 1.9408958490e+00	 3.1733433644e-01	 2.5045180364e+00
 1.9714799574e+00	 1.5770769103e-01	 2.7625425963e+00
 1.9686551440e+00	 1.8974156658e-01	 2.7348937206e+00
 1.9652886822e+00	 2.2191289674e-01	 2.6950862838e+00
 1.9613726062e+00	 2.5420943724e-01	 2.6423662979e+00
 1.9568992687e+00	 2.8661854496e-01	 2.5746209501e+00
 1.9518613623e+00	 3.1912718580e-01	 2.4877735118e+00
 1.9825556875e+00	 1.5859368929e-01	 2.7015489642e+00
 1.9797150044e+00	 1.9080753044e-01	 2.6825018407e+00
 1.9763296299e+00	 2.2315959840e-01	 2.6487610412e+00
 1.9723915534e+00	 2.5563758014e-01	 2.6001479656e+00
 1.9678930848e+00	 2.8822876150e-01	 2.5351793592e+00
 1.9628268755e+00	 3.2092003516e-01	 2.4504743550e+00
 1.9936314176e+00	 1.5947968755e-01	 2.6076033117e+00
 1.9907748648e+00	 1.9187349429e-01	 2.5995820517e+00
 1.9873705775e+00	 2.2440630007e-01	 2.5744392376e+00
 1.9834105006e+00	 2.5706572305e-01	 2.5325424075e+00
 1.9788869010e+00	 2.8983897805e-01	 2.4730123193e+00
 1.9737923888e+00	 3.2271288452e-01	 2.3931433652e+00
 1.9189648225e+00	 3.1374863773e-01	 2.4742251451e+00
 1.9134499406e+00	 3.4579404590e-01	 2.3923953326e+00
 1.9073667195e+00	 3.7791056475e-01	 2.3106772317e+00
 1.9007090984e+00	 4.1008428516e-01	 2.2144890422e+00
 1.8934714314e+00	 4.4230095657e-01	 2.1036985409e+00
 1.8856485067e+00	 4.7454600066e-01	 1.9813860376e+00
 1.9299303357e+00	 3.1554148708e-01	 2.5001797301e+00
 1.9243839403e+00	 3.4777001188e-01	 2.4132963278e+00
 1.9182659579e+00	 3.8007005369e-01	 2.3262633893e+00
 1.9115702932e+00	 4.1242762393e-01	 2.2262325434e+00
 1.9042912681e+00	 4.4482839061e-01	 2.1136127428e+00
 1.8964236410e+00	 4.7725769209e-01	 1.9909971814e+00
 1.9408958490e+00	 3.1733433644e-01	 2.5045180364e+00
 1.9353179400e+00	 3.4974597786e-01	 2.4144018383e+00
 1.9291651963e+00	 3.8222954263e-01	 2.3239527097e+00
 1.9224314881e+00	 4.1477096270e-01	 2.2220049843e+00
 1.9151111049e+00	 4.4735582465e-01	 2.1092813621e+00
 1.9071987753e+00	 4.7996938352e-01	 1.9879032725e+00
 1.9518613623e+00	 3.1912718580e-01	 2.4877735118e+00
 1.9462519396e+00	 3.5172194383e-01	 2.3962756805e+00
 1.9400644347e+00	 3.8438903157e-01	 2.3043313466e+00
 1.9332926829e+00	 4.1711430147e-01	 2.2023654759e+00
 1.9259309416e+00	 4.4988325869e-01	 2.0912317715e+00
 1.9179739097e+00	 4.8268107495e-01	 1.9725961542e+00
 1.9628268755e+00	 3.2092003516e-01	 2.4504743550e+00
 1.9571859393e+00	 3.5369790981e-01	 2.3594738127e+00
 1.9509636731e+00	 3.8654852051e-01	 2.2679710381e+00
 1.9441538778e+00	 4.1945764025e-01	 2.1678577221e+00
 1.9367507784e+00	 4.5241069272e-01	 2.0599751253e+00
 1.9287490440e+00	 4.8539276638e-01	 1.9455508378e+00
 1.9737923888e+00	 3.2271288452e-01	 2.3931433652e+00
 1.9681199389e+00	 3.5567387579e-01	 2.3045441451e+00
 1.9618629115e+00	 3.8870800945e-01	 2.2154292841e+00
 1.9550150726e+00	 4.2180097902e-01	 2.1190102367e+00
 1.9475706151e+00	 4.5493812676e-01	 2.0160066197e+00
 1.9395241783e+00	 4.8810445782e-01	 1.9072258109e+00
 1.8856485067e+00	 4.7454600066e-01	 1.9813860376e+00
 1.8772355659e+00	 5.0680452619e-01	 1.8446558102e+00
 1.8682283222e+00	 5.3906134515e-01	 1.7090699232e+00
 1.8586229785e+00	 5.7130098999e-01	 1.5771607913e+00
 1.8484162450e+00	 6.0350773201e-01	 1.4506463787e+00
 1.8376053552e+00	 6.3566560090e-01	 1.3168890427e+00
 1.8964236410e+00	 4.7725769209e-01	 1.9909971814e+00
 1.8879626262e+00	 5.0970055205e-01	 1.8539527989e+00
 1.8789039126e+00	 5.4214169570e-01	 1.7164609993e+00
 1.8692436813e+00	 5.7456556708e-01	 1.5807623465e+00
 1.8589786236e+00	 6.0695634762e-01	 1.4494562760e+00
 1.8481059572e+00	 6.3929797576e-01	 1.3244808151e+00
 1.9071987753e+00	 4.7996938352e-01	 1.9879032725e+00
 1.8986896866e+00	 5.1259657791e-01	 1.8528410106e+00
 1.8895795030e+00	 5.4522204624e-01	 1.7156128806e+00
 1.8798643840e+00	 5.7783014417e-01	 1.5781790267e+00
 1.8695410021e+00	 6.1040496323e-01	 1.4428902876e+00
 1.8586065592e+00	 6.4293035062e-01	 1.3128159650e+00
 1.9179739097e+00	 4.8268107495e-01	 1.9725961542e+00
 1.9094167470e+00	 5.1549260378e-01	 1.8417581796e+00
 1.9002550934e+00	 5.4830239678e-01	 1.7069064329e+00
 1.8904850867e+00	 5.8109472125e-01	 1.5697326877e+00
 1.8801033807e+00	 6.1385357884e-01	 1.4323493818e+00
 1.8691071613e+00	 6.4656272548e-01	 1.2976192805e+00
 1.9287490440e+00	 4.8539276638e-01	 1.9455508378e+00
 1.9201438074e+00	 5.1838862964e-01	 1.8211251563e+00
 1.9109306838e+00	 5.5138274733e-01	 1.6907058207e+00
 1.9011057895e+00	 5.8435929834e-01	 1.5557289089e+00
 1.8906657592e+00	 6.1730219446e-01	 1.4180791511e+00
 1.8796077633e+00	 6.5019510034e-01	 1.2804212521e+00
 1.9395241783e+00	 4.8810445782e-01	 1.9072258109e+00
 1.9308708678e+00	 5.2128465551e-01	 1.7913462562e+00
 1.9216062742e+00	 5.5446309787e-01	 1.6673589016e+00
 1.9117264922e+00	 5.8762387542e-01	 1.5364574359e+00
 1.9012281378e+00	 6.2075081007e-01	 1.4003100772e+00
 1.8901083653e+00	 6.5382747521e-01	 1.2613923059e+00
 1.8376053552e+00	 6.3566560090e-01	 1.3168890427e+00
 1.8261880817e+00	 6.6775840537e-01	 1.1802857628e+00
 1.8141627512e+00	 6.9976975488e-01	 1.0246191948e+00
 1.8015282581e+00	 7.3168308226e-01	 8.5853534959e-01
 1.7882840772e+00	 7.6348166750e-01	 6.9569845003e-01
 1.7744302755e+00	 7.9514866221e-01	 5.4875326545e-01
 1.8481059572e+00	 6.3929797576e-01	 1.3244808151e+00
 1.8366234421e+00	 6.7157416769e-01	 1.1956195537e+00
 1.8245293955e+00	 7.0376843919e-01	 1.0453298219e+00
 1.8118227053e+00	 7.3586412845e-01	 8.8145419568e-01
 1.7985028434e+00	 7.6784441988e-01	 7.1716699862e-01
 1.7845698770e+00	 7.9969236885e-01	 5.6275645691e-01
 1.8586065592e+00	 6.4293035062e-01	 1.3128159650e+00
 1.8470588026e+00	 6.7538993000e-01	 1.1901898166e+00
 1.8348960397e+00	 7.0776712350e-01	 1.0482368011e+00
 1.8221171525e+00	 7.4004517463e-01	 8.8961032231e-01
 1.8087216096e+00	 7.7220717227e-01	 7.2676514287e-01
 1.7947094786e+00	 8.0423607549e-01	 5.6769445039e-01
 1.8691071613e+00	 6.4656272548e-01	 1.2976192805e+00
 1.8574941631e+00	 6.7920569232e-01	 1.1674600109e+00
 1.8452626840e+00	 7.1176580782e-01	 1.0338358216e+00
 1.8324115996e+00	 7.4422622082e-01	 8.8349108930e-01
 1.8189403757e+00	 7.7656992465e-01	 7.2485131392e-01
 1.8048490802e+00	 8.0877978213e-01	 5.6389779950e-01
 1.8796077633e+00	 6.5019510034e-01	 1.2804212521e+00
 1.8679295235e+00	 6.8302145464e-01	 1.1428726422e+00
 1.8556293283e+00	 7.1576449213e-01	 1.0038612991e+00
 1.8427060468e+00	 7.4840726700e-01	 8.6354256353e-01
 1.8291591419e+00	 7.8093267704e-01	 7.1176119308e-01
 1.8149886818e+00	 8.1332348877e-01	 5.5167600463e-01
 1.8901083653e+00	 6.5382747521e-01	 1.2613923059e+00
 1.8783648840e+00	 6.8683721695e-01	 1.1186680518e+00
 1.8659959726e+00	 7.1976317644e-01	 9.7252066465e-01
 1.8530004940e+00	 7.5258831319e-01	 8.3021402851e-01
 1.8393779080e+00	 7.8529542943e-01	 6.8780862029e-01
 1.8251282833e+00	 8.1786719541e-01	 5.3131844261e-01
 1.7744302755e+00	 7.9514866221e-01	 5.4875326545e-01
 1.7599675219e+00	 8.2666711515e-01	 4.0984583200e-01
 1.7448970972e+00	 8.5801999841e-01	 2.6027112388e-01
 1.7292209011e+00	 8.8919023433e-01	 1.0644710286e-01
 1.7129414588e+00	 9.2016072309e-01	-4.5067777835e-02
 1.6960619260e+00	 9.5091437080e-01	-1.8816482848e-01
 1.7845698770e+00	 7.9969236885e-01	 5.6275645691e-01
 1.7700244792e+00	 8.3139092724e-01	 4.1844675964e-01
 1.7548679378e+00	 8.6292296983e-01	 2.6523163781e-01
 1.7391021634e+00	 8.9427132139e-01	 1.0929428339e-01
 1.7227296957e+00	 9.2541878437e-01	-4.2954868787e-02
 1.7057537085e+00	 9.5634816720e-01	-1.8547661003e-01
 1.7947094786e+00	 8.0423607549e-01	 5.6769445039e-01
 1.7800814365e+00	 8.3611473932e-01	 4.1804667321e-01
 1.7648387783e+00	 8.6782594125e-01	 2.6120497434e-01
 1.7489834257e+00	 8.9935240844e-01	 1.0310486073e-01
 1.7325179326e+00	 9.3067684564e-01	-4.9998071935e-02
 1.7154454909e+00	 9.6178196361e-01	-1.9213468385e-01
 1.8048490802e+00	 8.0877978213e-01	 5.6389779950e-01
 1.7901383937e+00	 8.4083855141e-01	 4.0899465845e-01
 1.7748096189e+00	 8.7272891267e-01	 2.4855845944e-01
 1.7588646879e+00	 9.0443349549e-01	 8.8263264399e-02
 1.7423061695e+00	 9.3593490692e-01	-6.5797627522e-02
 1.7251372733e+00	 9.6721576001e-01	-2.0772614968e-01
 1.8149886818e+00	 8.1332348877e-01	 5.5167600463e-01
 1.8001953510e+00	 8.4556236350e-01	 3.9161923490e-01
 1.7847804594e+00	 8.7763188409e-01	 2.2763912180e-01
 1.7687459502e+00	 9.0951458254e-01	 6.5133652578e-02
 1.7520944064e+00	 9.4119296819e-01	-8.9974284485e-02
 1.7348290558e+00	 9.7264955642e-01	-2.3185913224e-01
 1.8251282833e+00	 8.1786719541e-01	 5.3131844261e-01
 1.8102523083e+00	 8.5028617558e-01	 3.6622933154e-01
 1.7947513000e+00	 8.8253485551e-01	 1.9877471047e-01
 1.7786272125e+00	 9.1459566960e-01	 3.4060967484e-02
 1.7618826433e+00	 9.4645102947e-01	-1.2216821197e-01
 1.7445208382e+00	 9.7808335282e-01	-2.6416166441e-01
 1.6960619260e+00	 9.5091437080e-01	-1.8816482848e-01
 1.6785860923e+00	 9.8143411807e-01	-3.6615558911e-01
 1.6605183829e+00	 1.0117029690e+00	-5.2261151611e-01
 1.6418638591e+00	 1.0417040203e+00	-6.5592786152e-01
 1.6226282166e+00	 1.0714204908e+00	-7.6840561568e-01
 1.6028177834e+00	 1.1008357510e+00	-8.6735681994e-01
 1.7057537085e+00	 9.5634816720e-01	-1.8547661003e-01
 1.6881780129e+00	 9.8704231303e-01	-3.5523007923e-01
 1.6700070594e+00	 1.0174841288e+00	-5.0688406347e-01
 1.6512459383e+00	 1.0476566147e+00	-6.3866005223e-01
 1.6319003779e+00	 1.0775428936e+00	-7.5267219832e-01
 1.6119767422e+00	 1.1071262410e+00	-8.5606480265e-01
 1.7154454909e+00	 9.6178196361e-01	-1.9213468385e-01
 1.6977699334e+00	 9.9265050799e-01	-3.5322138695e-01
 1.6794957359e+00	 1.0232652886e+00	-4.9964099813e-01
 1.6606280174e+00	 1.0536092091e+00	-6.2942466664e-01
 1.6411725391e+00	 1.0836652964e+00	-7.4447813019e-01
 1.6211357010e+00	 1.1134167310e+00	-8.5170559410e-01
 1.7251372733e+00	 9.6721576001e-01	-2.0772614968e-01
 1.7073618539e+00	 9.9825870295e-01	-3.5971738948e-01
 1.6889844124e+00	 1.0290464484e+00	-5.0047425865e-01
 1.6700100966e+00	 1.0595618035e+00	-6.2782070056e-01
 1.6504447003e+00	 1.0897876992e+00	-7.4343194326e-01
 1.6302946597e+00	 1.1197072210e+00	-8.5345908822e-01
 1.7348290558e+00	 9.7264955642e-01	-2.3185913224e-01
 1.7169537745e+00	 1.0038668979e+00	-3.7432753679e-01
 1.6984730888e+00	 1.0348276083e+00	-5.0899817768e-01
 1.6793921758e+00	 1.0655143979e+00	-6.3347063899e-01
 1.6597168616e+00	 1.0959101020e+00	-7.4916702240e-01
 1.6394536185e+00	 1.1259977110e+00	-8.6102142276e-01
 1.7445208382e+00	 9.7808335282e-01	-2.6416166441e-01
 1.7265456950e+00	 1.0094750929e+00	-3.9668171866e-01
 1.7079617653e+00	 1.0406087681e+00	-5.2484833856e-01
 1.6887742550e+00	 1.0714669923e+00	-6.4601930813e-01
 1.6689890228e+00	 1.1020325048e+00	-7.6134045885e-01
 1.6486125773e+00	 1.1322882010e+00	-8.7424387179e-01
 1.6028177834e+00	 1.1008357510e+00	-8.6735681994e-01
 1.5824395145e+00	 1.1299333522e+00	-9.8693020353e-01
 1.5615009861e+00	 1.1586970562e+00	-1.1038064991e+00
 1.5400103875e+00	 1.1871108642e+00	-1.2180126497e+00
 1.5179765122e+00	 1.2151590455e+00	-1.3308925221e+00
 1.4954087463e+00	 1.2428261661e+00	-1.4437977828e+00
 1.6119767422e+00	 1.1071262410e+00	-8.5606480265e-01
 1.5914820261e+00	 1.1363901142e+00	-9.7610193508e-01
 1.5704238489e+00	 1.1653181822e+00	-1.0921516023e+00
 1.5488104469e+00	 1.1938943548e+00	-1.2049885291e+00
 1.5266506637e+00	 1.2221028115e+00	-1.3157405270e+00
 1.5039539391e+00	 1.2499280299e+00	-1.4255509142e+00
 1.6211357010e+00	 1.1134167310e+00	-8.5170559410e-01
 1.6005245376e+00	 1.1428468762e+00	-9.7035966497e-01
 1.5793467116e+00	 1.1719393082e+00	-1.0846142370e+00
 1.5576105062e+00	 1.2006778455e+00	-1.1951606056e+00
 1.5353248152e+00	 1.2290465775e+00	-1.3029035879e+00
 1.5124991320e+00	 1.2570298937e+00	-1.4087719408e+00
 1.6302946597e+00	 1.1197072210e+00	-8.5345908822e-01
 1.6095670491e+00	 1.1493036382e+00	-9.6957723507e-01
 1.5882695744e+00	 1.1785604343e+00	-1.0810930888e+00
 1.5664105656e+00	 1.2074613361e+00	-1.1884525330e+00
 1.5439989667e+00	 1.2359903434e+00	-1.2923304841e+00
 1.5210443248e+00	 1.2641317575e+00	-1.3934349911e+00
 1.6394536185e+00	 1.1259977110e+00	-8.6102142276e-01
 1.6186095606e+00	 1.1557604002e+00	-9.7362957924e-01
 1.5971924372e+00	 1.1851815603e+00	-1.0814879023e+00
 1.5752106250e+00	 1.2142448268e+00	-1.1847889577e+00
 1.5526731182e+00	 1.2429341094e+00	-1.2839708946e+00
 1.5295895176e+00	 1.2712336213e+00	-1.3795149839e+00
 1.6486125773e+00	 1.1322882010e+00	-8.7424387179e-01
 1.6276520721e+00	 1.1622171622e+00	-9.8239268549e-01
 1.6061153000e+00	 1.1918026864e+00	-1.0856994294e+00
 1.5840106843e+00	 1.2210283174e+00	-1.1840954505e+00
 1.5613472697e+00	 1.2498778754e+00	-1.2777753142e+00
 1.5381347105e+00	 1.2783354851e+00	-1.3669875273e+00
 1.4954087463e+00	 1.2428261661e+00	-1.4437977828e+00
 1.4723170561e+00	 1.2700971159e+00	-1.4963130932e+00
 1.4487119742e+00	 1.2969571363e+00	-1.5519154131e+00
 1.4246045831e+00	 1.3233918465e+00	-1.6147187490e+00
 1.4000064990e+00	 1.3493872685e+00	-1.6866548564e+00
 1.3749298523e+00	 1.3749298523e+00	-1.7650927428e+00
 1.5039539391e+00	 1.2499280299e+00	-1.4255509142e+00
 1.4807302965e+00	 1.2773548137e+00	-1.4867637099e+00
 1.4569903283e+00	 1.3043683200e+00	-1.5520587603e+00
 1.4327451807e+00	 1.3309540856e+00	-1.6201501115e+00
 1.4080065361e+00	 1.3570980529e+00	-1.6935437625e+00
 1.3827865943e+00	 1.3827865943e+00	-1.7699596216e+00
 1.5124991320e+00	 1.2570298937e+00	-1.4087719408e+00
 1.4891435368e+00	 1.2846125115e+00	-1.4766956233e+00
 1.4652686824e+00	 1.3117795036e+00	-1.5499291694e+00
 1.4408857784e+00	 1.3385163247e+00	-1.6225422058e+00
 1.4160065732e+00	 1.3648088373e+00	-1.6966885380e+00
 1.3906433363e+00	 1.3906433363e+00	-1.7704079331e+00
 1.5210443248e+00	 1.2641317575e+00	-1.3934349911e+00
 1.4975567771e+00	 1.2918702093e+00	-1.4675880023e+00
 1.4735470366e+00	 1.3191906872e+00	-1.5460131314e+00
 1.4490263760e+00	 1.3460785638e+00	-1.6223414645e+00
 1.4240066104e+00	 1.3725196217e+00	-1.6965054463e+00
 1.3985000783e+00	 1.3985000783e+00	-1.7668309386e+00
 1.5295895176e+00	 1.2712336213e+00	-1.3795149839e+00
 1.5059700174e+00	 1.2991279071e+00	-1.4594453685e+00
 1.4818253907e+00	 1.3266018709e+00	-1.5407920063e+00
 1.4571669736e+00	 1.3536408030e+00	-1.6199911708e+00
 1.4320066475e+00	 1.3802304061e+00	-1.6934114180e+00
 1.4063568204e+00	 1.4063568204e+00	-1.7596269054e+00
 1.5381347105e+00	 1.2783354851e+00	-1.3669875273e+00
 1.5143832577e+00	 1.3063856049e+00	-1.4522634826e+00
 1.4901037449e+00	 1.3340130545e+00	-1.5354254541e+00
 1.4653075712e+00	 1.3612030421e+00	-1.6159284811e+00
 1.4400066847e+00	 1.3879411905e+00	-1.6878211851e+00
 1.4142135624e+00	 1.4142135624e+00	-1.7491963611e+00
 1.3749298523e+00	 1.3749298523e+00	-1.7650927428e+00
 1.3493872685e+00	 1.4000064990e+00	-1.8289365449e+00
 1.3233918465e+00	 1.4246045831e+00	-1.8703696544e+00
 1.2969571363e+00	 1.4487119742e+00	-1.8869134472e+00
 1.2700971159e+00	 1.4723170561e+00	-1.8806260726e+00
 1.2428261661e+00	 1.4954087463e+00	-1.8622010250e+00
 1.3827865943e+00	 1.3827865943e+00	-1.7699596216e+00
 1.3570980529e+00	 1.4080065361e+00	-1.8328123079e+00
 1.3309540856e+00	 1.4327451807e+00	-1.8742826097e+00
 1.3043683200e+00	 1.4569903283e+00	-1.8920112792e+00
 1.2773548137e+00	 1.4807302965e+00	-1.8883085413e+00
 1.2499280299e+00	 1.5039539391e+00	-1.8779875547e+00
 1.3906433363e+00	 1.3906433363e+00	-1.7704079331e+00
 1.3648088373e+00	 1.4160065732e+00	-1.8311083789e+00
 1.3385163247e+00	 1.4408857784e+00	-1.8713560751e+00
 1.3117795036e+00	 1.4652686824e+00	-1.8888672944e+00
 1.2846125115e+00	 1.4891435368e+00	-1.8870295563e+00
 1.2570298937e+00	 1.5124991320e+00	-1.8846443478e+00
 1.3985000783e+00	 1.3985000783e+00	-1.7668309386e+00
 1.3725196217e+00	 1.4240066104e+00	-1.8242072274e+00
 1.3460785638e+00	 1.4490263760e+00	-1.8619634393e+00
 1.3191906872e+00	 1.4735470366e+00	-1.8778441436e+00
 1.2918702093e+00	 1.4975567771e+00	-1.8785535707e+00
 1.2641317575e+00	 1.5210443248e+00	-1.8829076238e+00
 1.4063568204e+00	 1.4063568204e+00	-1.7596269054e+00
 1.3802304061e+00	 1.4320066475e+00	-1.8125009198e+00
 1.3536408030e+00	 1.4571669736e+00	-1.8464925959e+00
 1.3266018709e+00	 1.4818253907e+00	-1.8593261050e+00
 1.2991279071e+00	 1.5059700174e+00	-1.8635471319e+00
 1.2712336213e+00	 1.5295895176e+00	-1.8734727807e+00
 1.4142135624e+00	 1.4142135624e+00	-1.7491963611e+00
 1.3879411905e+00	 1.4400066847e+00	-1.7963885060e+00
 1.3612030421e+00	 1.4653075712e+00	-1.8253434717e+00
 1.3340130545e+00	 1.4901037449e+00	-1.8349866332e+00
 1.3063856049e+00	 1.5143832577e+00	-1.8426293544e+00
 1.2783354851e+00	 1.5381347105e+00	-1.8569955261e+00
 1.2428261661e+00	 1.4954087463e+00	-1.8622010250e+00
 1.2151590455e+00	 1.5179765122e+00	-1.8902319244e+00
 1.1871108642e+00	 1.5400103875e+00	-1.8984142436e+00
 1.1586970562e+00	 1.5615009861e+00	-1.8894755335e+00
 1.1299333522e+00	 1.5824395145e+00	-1.8657608445e+00
 1.1008357510e+00	 1.6028177834e+00	-1.8280288124e+00
 1.2499280299e+00	 1.5039539391e+00	-1.8779875547e+00
 1.2221028115e+00	 1.5266506637e+00	-1.9036542178e+00
 1.1938943548e+00	 1.5488104469e+00	-1.9102099096e+00
 1.1653181822e+00	 1.5704238489e+00	-1.9002890169e+00
 1.1363901142e+00	 1.5914820261e+00	-1.8761277144e+00
 1.1071262410e+00	 1.6119767422e+00	-1.8392744850e+00
 1.2570298937e+00	 1.5124991320e+00	-1.8846443478e+00
 1.2290465775e+00	 1.5353248152e+00	-1.9073148009e+00
 1.2006778455e+00	 1.5576105062e+00	-1.9115839988e+00
 1.1719393082e+00	 1.5793467116e+00	-1.8999840159e+00
 1.1428468762e+00	 1.6005245376e+00	-1.8746325701e+00
 1.1134167310e+00	 1.6211357010e+00	-1.8370977485e+00
 1.2641317575e+00	 1.5210443248e+00	-1.8829076238e+00
 1.2359903434e+00	 1.5439989667e+00	-1.9019779235e+00
 1.2074613361e+00	 1.5664105656e+00	-1.9033307603e+00
 1.1785604343e+00	 1.5882695744e+00	-1.8893868881e+00
 1.1493036382e+00	 1.6095670491e+00	-1.8621361307e+00
 1.1197072210e+00	 1.6302946597e+00	-1.8229963736e+00
 1.2712336213e+00	 1.5295895176e+00	-1.8734727807e+00
 1.2429341094e+00	 1.5526731182e+00	-1.8883671055e+00
 1.2142448268e+00	 1.5752106250e+00	-1.8862037514e+00
 1.1851815603e+00	 1.5971924372e+00	-1.8692832994e+00
 1.1557604002e+00	 1.6186095606e+00	-1.8394584000e+00
 1.1259977110e+00	 1.6394536185e+00	-1.7979867339e+00
 1.2783354851e+00	 1.5381347105e+00	-1.8569955261e+00
 1.2498778754e+00	 1.5613472697e+00	-1.8671662327e+00
 1.2210283174e+00	 1.5840106843e+00	-1.8609168951e+00
 1.1918026864e+00	 1.6061153000e+00	-1.8404192401e+00
 1.1622171622e+00	 1.6276520721e+00	-1.8073796407e+00
 1.1322882010e+00	 1.6486125773e+00	-1.7628857353e+00
 1.1008357510e+00	 1.6028177834e+00	-1.8280288124e+00
 1.0714204908e+00	 1.6226282166e+00	-1.7780275675e+00
 1.0417040203e+00	 1.6418638591e+00	-1.7233116126e+00
 1.0117029690e+00	 1.6605183829e+00	-1.6690187772e+00
 9.8143411807e-01	 1.6785860923e+00	-1.6159567165e+00
 9.5091437080e-01	 1.6960619260e+00	-1.5615497854e+00
 1.1071262410e+00	 1.6119767422e+00	-1.8392744850e+00
 1.0775428936e+00	 1.6319003779e+00	-1.7924479388e+00
 1.0476566147e+00	 1.6512459383e+00	-1.7397690958e+00
 1.0174841288e+00	 1.6700070594e+00	-1.6863695686e+00
 9.8704231303e-01	 1.6881780129e+00	-1.6329742742e+00
 9.5634816720e-01	 1.7057537085e+00	-1.5768847125e+00
 1.1134167310e+00	 1.6211357010e+00	-1.8370977485e+00
 1.0836652964e+00	 1.6411725391e+00	-1.7922597406e+00
 1.0536092091e+00	 1.6606280174e+00	-1.7405071332e+00
 1.0232652886e+00	 1.6794957359e+00	-1.6868925326e+00
 9.9265050799e-01	 1.6977699334e+00	-1.6320384791e+00
 9.6178196361e-01	 1.7154454909e+00	-1.5731060549e+00
 1.1197072210e+00	 1.6302946597e+00	-1.8229963736e+00
 1.0897876992e+00	 1.6504447003e+00	-1.7783908789e+00
 1.0595618035e+00	 1.6700100966e+00	-1.7264387522e+00
 1.0290464484e+00	 1.6889844124e+00	-1.6714871482e+00
 9.9825870295e-01	 1.7073618539e+00	-1.6140350471e+00
 9.6721576001e-01	 1.7251372733e+00	-1.5510841216e+00
 1.1259977110e+00	 1.6394536185e+00	-1.7979867339e+00
 1.0959101020e+00	 1.6597168616e+00	-1.7517498026e+00
 1.0655143979e+00	 1.6793921758e+00	-1.6984607055e+00
 1.0348276083e+00	 1.6984730888e+00	-1.6410398030e+00
 1.0038668979e+00	 1.7169537745e+00	-1.5798397387e+00
 9.7264955642e-01	 1.7348290558e+00	-1.5116823109e+00
 1.1322882010e+00	 1.6486125773e+00	-1.7628857353e+00
 1.1020325048e+00	 1.6689890228e+00	-1.7132240053e+00
 1.0714669923e+00	 1.6887742550e+00	-1.6574520673e+00
 1.0406087681e+00	 1.7079617653e+00	-1.5964224851e+00
 1.0094750929e+00	 1.7265456950e+00	-1.5303171471e+00
 9.7808335282e-01	 1.7445208382e+00	-1.4557559923e+00
 9.5091437080e-01	 1.6960619260e+00	-1.5615497854e+00
 9.2016072309e-01	 1.7129414588e+00	-1.4756434018e+00
 8.8919023433e-01	 1.7292209011e+00	-1.3999735377e+00
 8.5801999841e-01	 1.7448970972e+00	-1.3272134948e+00
 8.2666711515e-01	 1.7599675219e+00	-1.2498012703e+00
 7.9514866221e-01	 1.7744302755e+00	-1.1605342043e+00
 9.5634816720e-01	 1.7057537085e+00	-1.5768847125e+00
 9.2541878437e-01	 1.7227296957e+00	-1.4922933373e+00
 8.9427132139e-01	 1.7391021634e+00	-1.4181505276e+00
 8.6292296983e-01	 1.7548679378e+00	-1.3473720524e+00
 8.3139092724e-01	 1.7700244792e+00	-1.2726998987e+00
 7.9969236885e-01	 1.7845698770e+00	-1.1873137852e+00
 9.6178196361e-01	 1.7154454909e+00	-1.5731060549e+00
 9.3067684564e-01	 1.7325179326e+00	-1.4904673849e+00
 8.9935240844e-01	 1.7489834257e+00	-1.4184060423e+00
 8.6782594125e-01	 1.7648387783e+00	-1.3500727559e+00
 8.3611473932e-01	 1.7800814365e+00	-1.2785118637e+00
 8.0423607549e-01	 1.7947094786e+00	-1.1972902304e+00
 9.6721576001e-01	 1.7251372733e+00	-1.5510841216e+00
 9.3593490692e-01	 1.7423061695e+00	-1.4709863952e+00
 9.0443349549e-01	 1.7588646879e+00	-1.4015078532e+00
 8.7272891267e-01	 1.7748096189e+00	-1.3360258139e+00
 8.4083855141e-01	 1.7901383937e+00	-1.2678846830e+00
 8.0877978213e-01	 1.8048490802e+00	-1.1910428258e+00
 9.7264955642e-01	 1.7348290558e+00	-1.5116823109e+00
 9.4119296819e-01	 1.7520944064e+00	-1.4346679134e+00
 9.0951458254e-01	 1.7687459502e+00	-1.3682238494e+00
 8.7763188409e-01	 1.7847804594e+00	-1.3059447588e+00
 8.4556236350e-01	 1.8001953510e+00	-1.2414721557e+00
 8.1332348877e-01	 1.8149886818e+00	-1.1691598236e+00
 9.7808335282e-01	 1.7445208382e+00	-1.4557559923e+00
 9.4645102947e-01	 1.7618826433e+00	-1.3823251343e+00
 9.1459566960e-01	 1.7786272125e+00	-1.3193210648e+00
 8.8253485551e-01	 1.7947513000e+00	-1.2605455432e+00
 8.5028617558e-01	 1.8102523083e+00	-1.1999335265e+00
 8.1786719541e-01	 1.8251282833e+00	-1.1322376700e+00
 7.9514866221e-01	 1.7744302755e+00	-1.1605342043e+00
 7.6348166750e-01	 1.7882840772e+00	-1.0687197455e+00
 7.3168308226e-01	 1.8015282581e+00	-9.9342291898e-01
 6.9976975488e-01	 1.8141627512e+00	-9.3232226865e-01
 6.6775840537e-01	 1.8261880817e+00	-8.7476034969e-01
 6.3566560090e-01	 1.8376053552e+00	-8.1168602834e-01
 7.9969236885e-01	 1.7845698770e+00	-1.1873137852e+00
 7.6784441988e-01	 1.7985028434e+00	-1.1037832675e+00
 7.3586412845e-01	 1.8118227053e+00	-1.0299653589e+00
 7.0376843919e-01	 1.8245293955e+00	-9.6456969231e-01
 6.7157416769e-01	 1.8366234421e+00	-8.9885665222e-01
 6.3929797576e-01	 1.8481059572e+00	-8.2465885114e-01
 8.0423607549e-01	 1.7947094786e+00	-1.1972902304e+00
 7.7220717227e-01	 1.8087216096e+00	-1.1191020269e+00
 7.4004517463e-01	 1.8221171525e+00	-1.0439590065e+00
 7.0776712350e-01	 1.8348960397e+00	-9.7117422086e-01
 6.7538993000e-01	 1.8470588026e+00	-8.9424890598e-01
 6.4293035062e-01	 1.8586065592e+00	-8.1137327054e-01
 8.0877978213e-01	 1.8048490802e+00	-1.1910428258e+00
 7.7656992465e-01	 1.8189403757e+00	-1.1152344425e+00
 7.4422622082e-01	 1.8324115996e+00	-1.0359182334e+00
 7.1176580782e-01	 1.8452626840e+00	-9.5267329127e-01
 6.7920569232e-01	 1.8574941631e+00	-8.6516344086e-01
 6.4656272548e-01	 1.8691071613e+00	-7.9133708193e-01
 8.1332348877e-01	 1.8149886818e+00	-1.1691598236e+00
 7.8093267704e-01	 1.8291591419e+00	-1.0927491036e+00
 7.4840726700e-01	 1.8427060468e+00	-1.0063149128e+00
 7.1576449213e-01	 1.8556293283e+00	-9.1123265257e-01
 6.8302145464e-01	 1.8679295235e+00	-8.3108078187e-01
 6.5019510034e-01	 1.8796077633e+00	-7.6652688830e-01
 8.1786719541e-01	 1.8251282833e+00	-1.1322376700e+00
 7.8529542943e-01	 1.8393779080e+00	-1.0522240926e+00
 7.5258831319e-01	 1.8530004940e+00	-9.5584153452e-01
 7.1976317644e-01	 1.8659959726e+00	-8.6509291798e-01
 6.8683721695e-01	 1.8783648840e+00	-7.9491985217e-01
 6.5382747521e-01	 1.8901083653e+00	-7.3723194345e-01
 6.3566560090e-01	 1.8376053552e+00	-8.1168602834e-01
 6.0350773201e-01	 1.8484162450e+00	-7.2752708877e-01
 5.7130098999e-01	 1.8586229785e+00	-6.4055386044e-01
 5.3906134515e-01	 1.8682283222e+00	-5.6642636447e-01
 5.0680452619e-01	 1.8772355659e+00	-5.0292726975e-01
 4.7454600066e-01	 1.8856485067e+00	-4.4685810479e-01
 6.3929797576e-01	 1.8481059572e+00	-8.2465885114e-01
 6.0695634762e-01	 1.8589786236e+00	-7.3219173216e-01
 5.7456556708e-01	 1.8692436813e+00	-6.5281058855e-01
 5.4214169570e-01	 1.8789039126e+00	-5.8423716185e-01
 5.0970055205e-01	 1.8879626262e+00	-5.2329369458e-01
 4.7725769209e-01	 1.8964236410e+00	-4.6724465487e-01
 6.4293035062e-01	 1.8586065592e+00	-8.1137327054e-01
 6.1040496323e-01	 1.8695410021e+00	-7.2896413220e-01
 5.7783014417e-01	 1.8798643840e+00	-6.5739712185e-01
 5.4522204624e-01	 1.8895795030e+00	-5.9311823790e-01
 5.1259657791e-01	 1.8986896866e+00	-5.3337389565e-01
 4.7996938352e-01	 1.9071987753e+00	-4.7587952296e-01
 6.4656272548e-01	 1.8691071613e+00	-7.9133708193e-01
 6.1385357884e-01	 1.8801033807e+00	-7.1960638264e-01
 5.8109472125e-01	 1.8904850867e+00	-6.5472369885e-01
 5.4830239678e-01	 1.9002550934e+00	-5.9352125619e-01
 5.1549260378e-01	 1.9094167470e+00	-5.3365881492e-01
 4.8268107495e-01	 1.9179739097e+00	-4.7329015667e-01
 6.5019510034e-01	 1.8796077633e+00	-7.6652688830e-01
 6.1730219446e-01	 1.8906657592e+00	-7.0446831032e-01
 5.8435929834e-01	 1.9011057895e+00	-6.4518313445e-01
 5.5138274733e-01	 1.9109306838e+00	-5.8588061757e-01
 5.1838862964e-01	 1.9201438074e+00	-5.2462251820e-01
 4.8539276638e-01	 1.9287490440e+00	-4.5998772993e-01
 6.5382747521e-01	 1.8901083653e+00	-7.3723194345e-01
 6.2075081007e-01	 1.9012281378e+00	-6.8388280545e-01
 5.8762387542e-01	 1.9117264922e+00	-6.2915118337e-01
 5.5446309787e-01	 1.9216062742e+00	-5.7061377420e-01
 5.2128465551e-01	 1.9308708678e+00	-5.0672246273e-01
 4.8810445782e-01	 1.9395241783e+00	-4.3646736716e-01
 4.7454600066e-01	 1.8856485067e+00	-4.4685810479e-01
 4.4230095657e-01	 1.8934714314e+00	-3.9567126512e-01
 4.1008428516e-01	 1.9007090984e+00	-3.3666612083e-01
 3.7791056475e-01	 1.9073667195e+00	-2.6631027790e-01
 3.4579404590e-01	 1.9134499406e+00	-1.9354166043e-01
 3.1374863773e-01	 1.9189648225e+00	-1.5185957557e-01
 4.7725769209e-01	 1.8964236410e+00	-4.6724465487e-01
 4.4482839061e-01	 1.9042912681e+00	-4.1514345370e-01
 4.1242762393e-01	 1.9115702932e+00	-3.5749140281e-01
 3.8007005369e-01	 1.9182659579e+00	-2.9122001289e-01
 3.4777001188e-01	 1.9243839403e+00	-2.2272509411e-01
 3.1554148708e-01	 1.9299303357e+00	-1.8357081819e-01
 4.7996938352e-01	 1.9071987753e+00	-4.7587952296e-01
 4.4735582465e-01	 1.9151111049e+00	-4.2115748039e-01
 4.1477096270e-01	 1.9224314881e+00	-3.6297293833e-01
 3.8222954263e-01	 1.9291651963e+00	-2.9870717155e-01
 3.4974597786e-01	 1.9353179400e+00	-2.3277167396e-01
 3.1733433644e-01	 1.9408958490e+00	-1.9452012967e-01
 4.8268107495e-01	 1.9179739097e+00	-4.7329015667e-01
 4.4988325869e-01	 1.9259309416e+00	-4.1427579816e-01
 4.1711430147e-01	 1.9332926829e+00	-3.5370458177e-01
 3.8438903157e-01	 1.9400644347e+00	-2.8939249835e-01
 3.5172194383e-01	 1.9462519396e+00	-2.2424050417e-01
 3.1912718580e-01	 1.9518613623e+00	-1.8521981651e-01
 4.8539276638e-01	 1.9287490440e+00	-4.5998772993e-01
 4.5241069272e-01	 1.9367507784e+00	-3.9504534703e-01
 4.1945764025e-01	 1.9441538778e+00	-3.3026560673e-01
 3.8654852051e-01	 1.9509636731e+00	-2.6388324250e-01
 3.5369790981e-01	 1.9571859393e+00	-1.9768692451e-01
 3.2092003516e-01	 1.9628268755e+00	-1.5618128254e-01
 4.8810445782e-01	 1.9395241783e+00	-4.3646736716e-01
 4.5493812676e-01	 1.9475706151e+00	-3.6399773919e-01
 4.2180097902e-01	 1.9550150726e+00	-2.9322085537e-01
 3.8870800945e-01	 1.9618629115e+00	-2.2277327484e-01
 3.5567387579e-01	 1.9681199389e+00	-1.5366214375e-01
 3.2271288452e-01	 1.9737923888e+00	-1.0791472808e-01
 3.1374863773e-01	 1.9189648225e+00	-1.5185957557e-01
 2.8178789532e-01	 1.9239178204e+00	-1.0708642106e-01
 2.4992500852e-01	 1.9283157645e+00	-7.0473338624e-02
 2.1817279173e-01	 1.9321658393e+00	-4.7804695589e-02
 1.8654367501e-01	 1.9354755630e+00	-4.3394623076e-02
 1.5504969623e-01	 1.9382527671e+00	-6.0637439499e-02
 3.1554148708e-01	 1.9299303357e+00	-1.8357081819e-01
 2.8339811187e-01	 1.9349116365e+00	-1.4983914573e-01
 2.5135315143e-01	 1.9393347117e+00	-1.2229753386e-01
 2.1941949340e-01	 1.9432067869e+00	-1.0577911059e-01
 1.8760963887e-01	 1.9465354233e+00	-1.0368266280e-01
 1.5593569450e-01	 1.9493284972e+00	-1.1851599135e-01
 3.1733433644e-01	 1.9408958490e+00	-1.9452012967e-01
 2.8500832841e-01	 1.9459054526e+00	-1.6767991107e-01
 2.5278129433e-01	 1.9503536590e+00	-1.4520056483e-01
 2.2066619507e-01	 1.9542477346e+00	-1.3098217023e-01
 1.8867560272e-01	 1.9575952837e+00	-1.2753038835e-01
 1.5682169276e-01	 1.9604042273e+00	-1.3649170990e-01
 3.1912718580e-01	 1.9518613623e+00	-1.8521981651e-01
 2.8661854496e-01	 1.9568992687e+00	-1.6110789565e-01
 2.5420943724e-01	 1.9613726062e+00	-1.3965882214e-01
 2.2191289674e-01	 1.9652886822e+00	-1.2385943371e-01
 1.8974156658e-01	 1.9686551440e+00	-1.1534630208e-01
 1.5770769103e-01	 1.9714799574e+00	-1.1493179555e-01
 3.2092003516e-01	 1.9628268755e+00	-1.5618128254e-01
 2.8822876150e-01	 1.9678930848e+00	-1.3062264779e-01
 2.5563758014e-01	 1.9723915534e+00	-1.0614978671e-01
 2.2315959840e-01	 1.9763296299e+00	-8.4857763289e-02
 1.9080753044e-01	 1.9797150044e+00	-6.7539963188e-02
 1.5859368929e-01	 1.9825556875e+00	-5.4203852970e-02
 3.2271288452e-01	 1.9737923888e+00	-1.0791472808e-01
 2.8983897805e-01	 1.9788869010e+00	-7.6723868871e-02
 2.5706572305e-01	 1.9834105006e+00	-4.5151888300e-02
 2.2440630007e-01	 1.9873705775e+00	-1.4425249408e-02
 1.9187349429e-01	 1.9907748648e+00	 1.5478028902e-02
 1.5947968755e-01	 1.9936314176e+00	 4.5324074813e-02
 1.5504969623e-01	 1.9382527671e+00	-6.0637439499e-02
 1.2370249448e-01	 1.9405055760e+00	 3.1088841448e-03
 9.2513304456e-02	 1.9422423860e+00	 3.7388908840e-02
 6.1492952044e-02	 1.9434718455e+00	 3.7710491413e-02
 3.0651850887e-02	 1.9442028345e+00	-1.1432933103e-03
 0.0000000000e+00	 1.9444444444e+00	-8.5452309965e-02
 1.5593569450e-01	 1.9493284972e+00	-1.1851599135e-01
 1.2440936588e-01	 1.9515941793e+00	-6.1192101055e-02
 9.3041951910e-02	 1.9533409139e+00	-3.4241240402e-02
 6.1844340342e-02	 1.9545773989e+00	-4.1853701306e-02
 3.0827004321e-02	 1.9553125650e+00	-8.8895665449e-02
 0.0000000000e+00	 1.9555555556e+00	-1.8123855287e-01
 1.5682169276e-01	 1.9604042273e+00	-1.3649170990e-01
 1.2511623727e-01	 1.9626827826e+00	-8.7539924094e-02
 9.3570599364e-02	 1.9644394419e+00	-7.0016736124e-02
 6.2195728639e-02	 1.9656829523e+00	-8.7834337310e-02
 3.1002157754e-02	 1.9664222954e+00	-1.4553103639e-01
 0.0000000000e+00	 1.9666666667e+00	-2.4859084517e-01
 1.5770769103e-01	 1.9714799574e+00	-1.1493179555e-01
 1.2582310867e-01	 1.9737713858e+00	-7.6171061016e-02
 9.4099246818e-02	 1.9755379698e+00	-7.0045273547e-02
 6.2547116936e-02	 1.9767885057e+00	-1.0021457338e-01
 3.1177311188e-02	 1.9775320259e+00	-1.7091456754e-01
 0.0000000000e+00	 1.9777777778e+00	-2.8726516284e-01
 1.5859368929e-01	 1.9825556875e+00	-5.4203852970e-02
 1.2652998007e-01	 1.9848599891e+00	-2.7323339645e-02
 9.4627894273e-02	 1.9866364977e+00	-3.4436512918e-02
 6.2898505234e-02	 1.9878940591e+00	-7.8979868907e-02
 3.1352464622e-02	 1.9886417564e+00	-1.6491384448e-01
 0.0000000000e+00	 1.9888888889e+00	-2.9701987167e-01
 1.5947968755e-01	 1.9936314176e+00	 4.5324074813e-02
 1.2723685146e-01	 1.9959485924e+00	 5.8764036878e-02
 9.5156541727e-02	 1.9977350256e+00	 3.6697912942e-02
 6.3249893531e-02	 1.9989996125e+00	-2.4117972652e-02
 3.1527618055e-02	 1.9997514869e+00	-1.2739883889e-01
 0.0000000000e+00	 2.0000000000e+00	-2.7761566080e-01
