x	y	stress_yy
 1.000000e+00	 0.000000e+00	 9.408544e+01
 9.998606e-01	 1.669417e-02	 9.754873e+01
 9.994388e-01	 3.349713e-02	 1.006756e+02
 9.987290e-01	 5.040273e-02	 1.032801e+02
 9.977257e-01	 6.740460e-02	 1.057814e+02
 9.964238e-01	 8.449607e-02	 1.092320e+02
 1.011765e+00	 0.000000e+00	 1.089664e+02
 1.011624e+00	 1.689057e-02	 9.615090e+01
 1.011197e+00	 3.389121e-02	 8.800368e+01
 1.010479e+00	 5.099571e-02	 8.452408e+01
 1.009464e+00	 6.819760e-02	 8.607792e+01
 1.008146e+00	 8.549014e-02	 9.341341e+01
 1.023529e+00	 0.000000e+00	 1.149005e+02
 1.023387e+00	 1.708698e-02	 9.263119e+01
 1.022955e+00	 3.428529e-02	 7.798068e+01
 1.022228e+00	 5.158868e-02	 7.105847e+01
 1.021202e+00	 6.899059e-02	 7.215404e+01
 1.019869e+00	 8.648421e-02	 8.174406e+01
 1.035294e+00	 0.000000e+00	 1.143890e+02
 1.035150e+00	 1.728338e-02	 8.763738e+01
 1.034713e+00	 3.467938e-02	 6.996171e+01
 1.033978e+00	 5.218165e-02	 6.151080e+01
 1.032940e+00	 6.978359e-02	 6.247827e+01
 1.031592e+00	 8.747828e-02	 7.310372e+01
 1.047059e+00	 0.000000e+00	 1.098207e+02
 1.046913e+00	 1.747978e-02	 8.178809e+01
 1.046471e+00	 3.507346e-02	 6.333081e+01
 1.045728e+00	 5.277463e-02	 5.457031e+01
 1.044678e+00	 7.057658e-02	 5.558795e+01
 1.043314e+00	 8.847235e-02	 6.642254e+01
 1.058824e+00	 0.000000e+00	 1.034781e+02
 1.058676e+00	 1.767618e-02	 7.567447e+01
 1.058229e+00	 3.546754e-02	 5.749939e+01
 1.057478e+00	 5.336760e-02	 4.898448e+01
 1.056415e+00	 7.136958e-02	 5.008537e+01
 1.055037e+00	 8.946642e-02	 6.067814e+01
 9.964238e-01	 8.449607e-02	 1.092320e+02
 9.948182e-01	 1.016702e-01	 1.117647e+02
 9.929039e-01	 1.189198e-01	 1.106384e+02
 9.906762e-01	 1.362375e-01	 1.060171e+02
 9.881307e-01	 1.536156e-01	 9.797336e+01
 9.852630e-01	 1.710460e-01	 8.648352e+01
 1.008146e+00	 8.549014e-02	 9.341341e+01
 1.006522e+00	 1.028663e-01	 1.014138e+02
 1.004585e+00	 1.203189e-01	 1.044818e+02
 1.002331e+00	 1.378403e-01	 1.029205e+02
 9.997558e-01	 1.554228e-01	 9.700371e+01
 9.968544e-01	 1.730583e-01	 8.697379e+01
 1.019869e+00	 8.648421e-02	 8.174406e+01
 1.018226e+00	 1.040624e-01	 9.287762e+01
 1.016266e+00	 1.217180e-01	 9.844570e+01
 1.013986e+00	 1.394431e-01	 9.884545e+01
 1.011381e+00	 1.572300e-01	 9.449092e+01
 1.008446e+00	 1.750706e-01	 8.581207e+01
 1.031592e+00	 8.747828e-02	 7.310372e+01
 1.029929e+00	 1.052586e-01	 8.565600e+01
 1.027948e+00	 1.231170e-01	 9.249643e+01
 1.025641e+00	 1.410459e-01	 9.407319e+01
 1.023006e+00	 1.590373e-01	 9.088101e+01
 1.020037e+00	 1.770829e-01	 8.346102e+01
 1.043314e+00	 8.847235e-02	 6.642254e+01
 1.041633e+00	 1.064547e-01	 7.927107e+01
 1.039629e+00	 1.245161e-01	 8.660194e+01
 1.037296e+00	 1.426487e-01	 8.887240e+01
 1.034631e+00	 1.608445e-01	 8.659992e+01
 1.031628e+00	 1.790952e-01	 8.036243e+01
 1.055037e+00	 8.946642e-02	 6.067814e+01
 1.053337e+00	 1.076508e-01	 7.326617e+01
 1.051310e+00	 1.259151e-01	 8.073150e+01
 1.048951e+00	 1.442515e-01	 8.349970e+01
 1.046256e+00	 1.626518e-01	 8.205457e+01
 1.043220e+00	 1.811076e-01	 7.693841e+01
 9.852630e-01	 1.710460e-01	 8.648352e+01
 9.820692e-01	 1.885207e-01	 7.480200e+01
 9.785454e-01	 2.060313e-01	 6.620919e+01
 9.746881e-01	 2.235690e-01	 6.059284e+01
 9.704941e-01	 2.411251e-01	 5.776699e+01
 9.659603e-01	 2.586904e-01	 5.747002e+01
 9.968544e-01	 1.730583e-01	 8.697379e+01
 9.936230e-01	 1.907386e-01	 7.638456e+01
 9.900577e-01	 2.084551e-01	 6.854821e+01
 9.861550e-01	 2.261992e-01	 6.326995e+01
 9.819116e-01	 2.439618e-01	 6.028674e+01
 9.773245e-01	 2.617339e-01	 5.926598e+01
 1.008446e+00	 1.750706e-01	 8.581207e+01
 1.005177e+00	 1.929565e-01	 7.638355e+01
 1.001570e+00	 2.108790e-01	 6.935452e+01
 9.976219e-01	 2.288294e-01	 6.448248e+01
 9.933292e-01	 2.467986e-01	 6.146316e+01
 9.886888e-01	 2.647773e-01	 5.992975e+01
 1.020037e+00	 1.770829e-01	 8.346102e+01
 1.016730e+00	 1.951744e-01	 7.520702e+01
 1.013082e+00	 2.133029e-01	 6.898473e+01
 1.009089e+00	 2.314597e-01	 6.453750e+01
 1.004747e+00	 2.496354e-01	 6.155443e+01
 1.000053e+00	 2.678207e-01	 5.966992e+01
 1.031628e+00	 1.790952e-01	 8.036243e+01
 1.028284e+00	 1.973923e-01	 7.324462e+01
 1.024595e+00	 2.157268e-01	 6.777934e+01
 1.020556e+00	 2.340899e-01	 6.372818e+01
 1.016164e+00	 2.524721e-01	 6.080698e+01
 1.011417e+00	 2.708641e-01	 5.868558e+01
 1.043220e+00	 1.811076e-01	 7.693841e+01
 1.039838e+00	 1.996102e-01	 7.086857e+01
 1.036107e+00	 2.181507e-01	 6.606361e+01
 1.032023e+00	 2.367201e-01	 6.233458e+01
 1.027582e+00	 2.553089e-01	 5.945625e+01
 1.022781e+00	 2.739075e-01	 5.716688e+01
 9.659603e-01	 2.586904e-01	 5.747002e+01
 9.610841e-01	 2.762559e-01	 5.775746e+01
 9.558632e-01	 2.938119e-01	 5.698556e+01
 9.502956e-01	 3.113490e-01	 5.531807e+01
 9.443796e-01	 3.288574e-01	 5.296209e+01
 9.381138e-01	 3.463271e-01	 5.016841e+01
 9.773245e-01	 2.617339e-01	 5.926598e+01
 9.723910e-01	 2.795059e-01	 5.865891e+01
 9.671087e-01	 2.972685e-01	 5.728961e+01
 9.614756e-01	 3.150120e-01	 5.535929e+01
 9.554899e-01	 3.327263e-01	 5.310573e+01
 9.491504e-01	 3.504016e-01	 5.080336e+01
 9.886888e-01	 2.647773e-01	 5.992975e+01
 9.836979e-01	 2.827560e-01	 5.868807e+01
 9.783541e-01	 3.007252e-01	 5.694782e+01
 9.726555e-01	 3.186749e-01	 5.492263e+01
 9.666003e-01	 3.365952e-01	 5.285527e+01
 9.601871e-01	 3.544760e-01	 5.101735e+01
 1.000053e+00	 2.678207e-01	 5.966992e+01
 9.950047e-01	 2.860061e-01	 5.800175e+01
 9.895996e-01	 3.041818e-01	 5.606288e+01
 9.838355e-01	 3.223378e-01	 5.405513e+01
 9.777106e-01	 3.404641e-01	 5.220128e+01
 9.712237e-01	 3.585504e-01	 5.044754e+01
 1.011417e+00	 2.708641e-01	 5.868558e+01
 1.006312e+00	 2.892562e-01	 5.674961e+01
 1.000845e+00	 3.076384e-01	 5.473277e+01
 9.950154e-01	 3.260007e-01	 5.280160e+01
 9.888210e-01	 3.443330e-01	 5.113464e+01
 9.822603e-01	 3.626249e-01	 4.894919e+01
 1.022781e+00	 2.739075e-01	 5.716688e+01
 1.017618e+00	 2.925062e-01	 5.507455e+01
 1.012090e+00	 3.110950e-01	 5.305101e+01
 1.006195e+00	 3.296637e-01	 5.120473e+01
 9.999313e-01	 3.482019e-01	 4.964653e+01
 9.932970e-01	 3.666993e-01	 4.713523e+01
 9.381138e-01	 3.463271e-01	 5.016841e+01
 9.314973e-01	 3.637482e-01	 4.604993e+01
 9.245295e-01	 3.811105e-01	 3.992460e+01
 9.172101e-01	 3.984038e-01	 3.499625e+01
 9.095393e-01	 4.156178e-01	 3.121966e+01
 9.015177e-01	 4.327422e-01	 2.852937e+01
 9.491504e-01	 3.504016e-01	 5.080336e+01
 9.424561e-01	 3.680276e-01	 4.623983e+01
 9.354063e-01	 3.855942e-01	 4.083164e+01
 9.280008e-01	 4.030910e-01	 3.633280e+01
 9.202398e-01	 4.205075e-01	 3.264458e+01
 9.121238e-01	 4.378332e-01	 2.964636e+01
 9.601871e-01	 3.544760e-01	 5.101735e+01
 9.534149e-01	 3.723070e-01	 4.613769e+01
 9.462831e-01	 3.900778e-01	 4.131379e+01
 9.387915e-01	 4.077781e-01	 3.709262e+01
 9.309403e-01	 4.253971e-01	 3.335505e+01
 9.227299e-01	 4.429243e-01	 2.996266e+01
 9.712237e-01	 3.585504e-01	 5.044754e+01
 9.643737e-01	 3.765864e-01	 4.566549e+01
 9.571599e-01	 3.945615e-01	 4.128567e+01
 9.495822e-01	 4.124652e-01	 3.721375e+01
 9.416407e-01	 4.302867e-01	 3.334232e+01
 9.333360e-01	 4.480154e-01	 2.955152e+01
 9.822603e-01	 3.626249e-01	 4.894919e+01
 9.753325e-01	 3.808658e-01	 4.474980e+01
 9.680367e-01	 3.990452e-01	 4.066685e+01
 9.603729e-01	 4.171523e-01	 3.663816e+01
 9.523412e-01	 4.351763e-01	 3.259928e+01
 9.439421e-01	 4.531065e-01	 2.848411e+01
 9.932970e-01	 3.666993e-01	 4.713523e+01
 9.862913e-01	 3.851452e-01	 4.332157e+01
 9.789136e-01	 4.035288e-01	 3.938161e+01
 9.711636e-01	 4.218394e-01	 3.531159e+01
 9.630417e-01	 4.400660e-01	 3.112029e+01
 9.545482e-01	 4.581976e-01	 2.682965e+01
 9.015177e-01	 4.327422e-01	 2.852937e+01
 8.931462e-01	 4.497664e-01	 2.564920e+01
 8.844262e-01	 4.666801e-01	 2.146417e+01
 8.753594e-01	 4.834728e-01	 1.616392e+01
 8.659480e-01	 5.001341e-01	 9.976205e+00
 8.561945e-01	 5.166537e-01	 3.166716e+00
 9.121238e-01	 4.378332e-01	 2.964636e+01
 9.036538e-01	 4.550577e-01	 2.624868e+01
 8.948312e-01	 4.721704e-01	 2.159011e+01
 8.856577e-01	 4.891607e-01	 1.590944e+01
 8.761356e-01	 5.060180e-01	 9.490188e+00
 8.662674e-01	 5.227319e-01	 2.660336e+00
 9.227299e-01	 4.429243e-01	 2.996266e+01
 9.141614e-01	 4.603491e-01	 2.605282e+01
 9.052362e-01	 4.776608e-01	 2.101168e+01
 8.959561e-01	 4.948486e-01	 1.509477e+01
 8.863232e-01	 5.119020e-01	 8.603951e+00
 8.763402e-01	 5.288102e-01	 1.886970e+00
 9.333360e-01	 4.480154e-01	 2.955152e+01
 9.246691e-01	 4.656405e-01	 2.521129e+01
 9.156413e-01	 4.831511e-01	 1.991662e+01
 9.062544e-01	 5.005365e-01	 1.390850e+01
 8.965108e-01	 5.177859e-01	 7.470777e+00
 8.864131e-01	 5.348885e-01	 9.297900e-01
 9.439421e-01	 4.531065e-01	 2.848411e+01
 9.351767e-01	 4.709318e-01	 2.386829e+01
 9.260463e-01	 4.886415e-01	 1.848556e+01
 9.165528e-01	 5.062244e-01	 1.253203e+01
 9.066984e-01	 5.236698e-01	 6.238372e+00
 8.964860e-01	 5.409668e-01	-1.304463e-01
 9.545482e-01	 4.581976e-01	 2.682965e+01
 9.456843e-01	 4.762232e-01	 2.216287e+01
 9.364513e-01	 4.941318e-01	 1.689234e+01
 9.268511e-01	 5.119124e-01	 1.113998e+01
 9.168861e-01	 5.295538e-01	 5.049174e+00
 9.065589e-01	 5.470451e-01	-1.215262e+00
 8.561945e-01	 5.166537e-01	 3.166716e+00
 8.461019e-01	 5.330211e-01	-3.549817e+00
 8.356738e-01	 5.492262e-01	-9.629884e+00
 8.249137e-01	 5.652587e-01	-1.504628e+01
 8.138260e-01	 5.811086e-01	-1.978509e+01
 8.024153e-01	 5.967660e-01	-2.384575e+01
 8.662674e-01	 5.227319e-01	 2.660336e+00
 8.560561e-01	 5.392919e-01	-4.025998e+00
 8.455052e-01	 5.556876e-01	-1.025416e+01
 8.346186e-01	 5.719088e-01	-1.603750e+01
 8.234005e-01	 5.879452e-01	-2.140947e+01
 8.118555e-01	 6.037868e-01	-2.642347e+01
 8.763402e-01	 5.288102e-01	 1.886970e+00
 8.660102e-01	 5.455628e-01	-4.723519e+00
 8.553367e-01	 5.621491e-01	-1.114632e+01
 8.443235e-01	 5.785589e-01	-1.739262e+01
 8.329749e-01	 5.947817e-01	-2.349467e+01
 8.212957e-01	 6.108075e-01	-2.950562e+01
 8.864131e-01	 5.348885e-01	 9.297900e-01
 8.759644e-01	 5.518336e-01	-5.624057e+00
 8.651681e-01	 5.686106e-01	-1.230933e+01
 8.540283e-01	 5.852090e-01	-1.909377e+01
 8.425493e-01	 6.016183e-01	-2.596138e+01
 8.307359e-01	 6.178283e-01	-3.291252e+01
 8.964860e-01	 5.409668e-01	-1.304463e-01
 8.859185e-01	 5.581044e-01	-6.708779e+00
 8.749996e-01	 5.750721e-01	-1.374470e+01
 8.637332e-01	 5.918591e-01	-2.112254e+01
 8.521237e-01	 6.084549e-01	-2.873253e+01
 8.401761e-01	 6.248491e-01	-3.647123e+01
 9.065589e-01	 5.470451e-01	-1.215262e+00
 8.958727e-01	 5.643753e-01	-7.958374e+00
 8.848310e-01	 5.815336e-01	-1.545255e+01
 8.734381e-01	 5.985092e-01	-2.346002e+01
 8.616982e-01	 6.152914e-01	-3.173312e+01
 8.496162e-01	 6.318699e-01	-4.001519e+01
 8.024153e-01	 5.967660e-01	-2.384575e+01
 7.906866e-01	 6.122211e-01	-2.696188e+01
 7.786453e-01	 6.274644e-01	-2.887370e+01
 7.662971e-01	 6.424864e-01	-2.961087e+01
 7.536483e-01	 6.572779e-01	-2.921689e+01
 7.407053e-01	 6.718301e-01	-2.774914e+01
 8.118555e-01	 6.037868e-01	-2.642347e+01
 7.999888e-01	 6.194237e-01	-3.079497e+01
 7.878058e-01	 6.348463e-01	-3.413000e+01
 7.753124e-01	 6.500450e-01	-3.633063e+01
 7.625147e-01	 6.650106e-01	-3.729664e+01
 7.494195e-01	 6.797340e-01	-3.692628e+01
 8.212957e-01	 6.108075e-01	-2.950562e+01
 8.092910e-01	 6.266263e-01	-3.502370e+01
 7.969663e-01	 6.422282e-01	-3.950667e+01
 7.843276e-01	 6.576037e-01	-4.280430e+01
 7.713812e-01	 6.727433e-01	-4.475617e+01
 7.581336e-01	 6.876379e-01	-4.519261e+01
 8.307359e-01	 6.178283e-01	-3.291252e+01
 8.185932e-01	 6.338289e-01	-3.938115e+01
 8.061269e-01	 6.496102e-01	-4.471184e+01
 7.933429e-01	 6.651624e-01	-4.877492e+01
 7.802476e-01	 6.804760e-01	-5.143045e+01
 7.668478e-01	 6.955418e-01	-5.252915e+01
 8.401761e-01	 6.248491e-01	-3.647123e+01
 8.278954e-01	 6.410315e-01	-4.361103e+01
 8.152874e-01	 6.569921e-01	-4.946546e+01
 8.023582e-01	 6.727210e-01	-5.399573e+01
 7.891141e-01	 6.882087e-01	-5.716055e+01
 7.755620e-01	 7.034456e-01	-5.891649e+01
 8.496162e-01	 6.318699e-01	-4.001519e+01
 8.371976e-01	 6.482341e-01	-4.746715e+01
 8.244479e-01	 6.643740e-01	-5.349861e+01
 8.113734e-01	 6.802797e-01	-5.822969e+01
 7.979805e-01	 6.959413e-01	-6.179336e+01
 7.842762e-01	 7.113495e-01	-6.433485e+01
 7.407053e-01	 6.718301e-01	-2.774914e+01
 7.274750e-01	 6.861342e-01	-2.489903e+01
 7.139646e-01	 7.001818e-01	-2.032134e+01
 7.001818e-01	 7.139646e-01	-1.520227e+01
 6.861342e-01	 7.274750e-01	-6.552081e+00
 6.718301e-01	 7.407053e-01	-5.107010e-02
 7.494195e-01	 6.797340e-01	-3.692628e+01
 7.360335e-01	 6.942064e-01	-3.480459e+01
 7.223642e-01	 7.084192e-01	-3.067019e+01
 7.084192e-01	 7.223642e-01	-2.196306e+01
 6.942064e-01	 7.360335e-01	-1.293121e+01
 6.797340e-01	 7.494195e-01	-6.452050e+00
 7.581336e-01	 6.876379e-01	-4.519261e+01
 7.445921e-01	 7.022785e-01	-4.373126e+01
 7.307638e-01	 7.166566e-01	-3.899366e+01
 7.166566e-01	 7.307638e-01	-2.775955e+01
 7.022785e-01	 7.445921e-01	-1.868058e+01
 6.876379e-01	 7.581336e-01	-1.246869e+01
 7.668478e-01	 6.955418e-01	-5.252915e+01
 7.531506e-01	 7.103507e-01	-5.180115e+01
 7.391634e-01	 7.248941e-01	-4.319117e+01
 7.248941e-01	 7.391634e-01	-3.285450e+01
 7.103507e-01	 7.531506e-01	-2.400346e+01
 6.955418e-01	 7.668478e-01	-1.822714e+01
 7.755620e-01	 7.034456e-01	-5.891649e+01
 7.617091e-01	 7.184229e-01	-5.631658e+01
 7.475630e-01	 7.331315e-01	-4.626474e+01
 7.331315e-01	 7.475630e-01	-3.714689e+01
 7.184229e-01	 7.617091e-01	-2.927567e+01
 7.034456e-01	 7.755620e-01	-2.384690e+01
 7.842762e-01	 7.113495e-01	-6.433485e+01
 7.702676e-01	 7.264950e-01	-5.705694e+01
 7.559626e-01	 7.413689e-01	-4.844940e+01
 7.413689e-01	 7.559626e-01	-4.089332e+01
 7.264950e-01	 7.702676e-01	-3.447003e+01
 7.113495e-01	 7.842762e-01	-2.944114e+01
 6.718301e-01	 7.407053e-01	-5.107010e-02
 6.572779e-01	 7.536483e-01	 3.841530e+00
 6.424864e-01	 7.662971e-01	 5.219840e+00
 6.274644e-01	 7.786453e-01	 4.730930e+00
 6.122211e-01	 7.906866e-01	 3.081166e+00
 5.967660e-01	 8.024153e-01	 1.031509e+00
 6.797340e-01	 7.494195e-01	-6.452050e+00
 6.650106e-01	 7.625147e-01	-2.742650e+00
 6.500450e-01	 7.753124e-01	-1.402710e+00
 6.348463e-01	 7.878058e-01	-1.704502e+00
 6.194237e-01	 7.999888e-01	-2.862783e+00
 6.037868e-01	 8.118555e-01	-4.040010e+00
 6.876379e-01	 7.581336e-01	-1.246869e+01
 6.727433e-01	 7.713812e-01	-9.013884e+00
 6.576037e-01	 7.843276e-01	-7.643056e+00
 6.422282e-01	 7.969663e-01	-7.627980e+00
 6.266263e-01	 8.092910e-01	-8.188584e+00
 6.108075e-01	 8.212957e-01	-8.498170e+00
 6.955418e-01	 7.668478e-01	-1.822714e+01
 6.804760e-01	 7.802476e-01	-1.501571e+01
 6.651624e-01	 7.933429e-01	-1.349573e+01
 6.496102e-01	 8.061269e-01	-1.301579e+01
 6.338289e-01	 8.185932e-01	-1.288211e+01
 6.178283e-01	 8.307359e-01	-1.236327e+01
 7.034456e-01	 7.755620e-01	-2.384690e+01
 6.882087e-01	 7.891141e-01	-2.078874e+01
 6.727210e-01	 8.023582e-01	-1.895456e+01
 6.569921e-01	 8.152874e-01	-1.784437e+01
 6.410315e-01	 8.278954e-01	-1.692900e+01
 6.248491e-01	 8.401761e-01	-1.565384e+01
 7.113495e-01	 7.842762e-01	-2.944114e+01
 6.959413e-01	 7.979805e-01	-2.637082e+01
 6.802797e-01	 8.113734e-01	-2.401273e+01
 6.643740e-01	 8.244479e-01	-2.209031e+01
 6.482341e-01	 8.371976e-01	-2.031464e+01
 6.318699e-01	 8.496162e-01	-1.838678e+01
 5.967660e-01	 8.024153e-01	 1.031509e+00
 5.811086e-01	 8.138260e-01	-1.277495e+00
 5.652587e-01	 8.249137e-01	-4.125922e+00
 5.492262e-01	 8.356738e-01	-7.358584e+00
 5.330211e-01	 8.461019e-01	-1.083789e+01
 5.166537e-01	 8.561945e-01	-1.444443e+01
 6.037868e-01	 8.118555e-01	-4.040010e+00
 5.879452e-01	 8.234005e-01	-5.305491e+00
 5.719088e-01	 8.346186e-01	-7.260840e+00
 5.556876e-01	 8.455052e-01	-9.843435e+00
 5.392919e-01	 8.560561e-01	-1.300734e+01
 5.227319e-01	 8.662674e-01	-1.672337e+01
 6.108075e-01	 8.212957e-01	-8.498170e+00
 5.947817e-01	 8.329749e-01	-8.878531e+00
 5.785589e-01	 8.443235e-01	-1.018978e+01
 5.621491e-01	 8.553367e-01	-1.239092e+01
 5.455628e-01	 8.660102e-01	-1.545431e+01
 5.288102e-01	 8.763402e-01	-1.936561e+01
 6.178283e-01	 8.307359e-01	-1.236327e+01
 6.016183e-01	 8.425493e-01	-1.204962e+01
 5.852090e-01	 8.540283e-01	-1.297384e+01
 5.686106e-01	 8.651681e-01	-1.504808e+01
 5.518336e-01	 8.759644e-01	-1.819211e+01
 5.348885e-01	 8.864131e-01	-2.233366e+01
 6.248491e-01	 8.401761e-01	-1.565384e+01
 6.084549e-01	 8.521237e-01	-1.486857e+01
 5.918591e-01	 8.637332e-01	-1.567059e+01
 5.750721e-01	 8.749996e-01	-1.785910e+01
 5.581044e-01	 8.859185e-01	-2.123278e+01
 5.409668e-01	 8.964860e-01	-2.559106e+01
 6.318699e-01	 8.496162e-01	-1.838678e+01
 6.152914e-01	 8.616982e-01	-1.738219e+01
 5.985092e-01	 8.734381e-01	-1.833431e+01
 5.815336e-01	 8.848310e-01	-2.086546e+01
 5.643753e-01	 8.958727e-01	-2.458712e+01
 5.470451e-01	 9.065589e-01	-2.910230e+01
 5.166537e-01	 8.561945e-01	-1.444443e+01
 5.001341e-01	 8.659480e-01	-1.797388e+01
 4.834728e-01	 8.753594e-01	-2.136362e+01
 4.666801e-01	 8.844262e-01	-2.471655e+01
 4.497664e-01	 8.931462e-01	-2.812981e+01
 4.327422e-01	 9.015177e-01	-3.169454e+01
 5.227319e-01	 8.662674e-01	-1.672337e+01
 5.060180e-01	 8.761356e-01	-2.074365e+01
 4.891607e-01	 8.856577e-01	-2.479109e+01
 4.721704e-01	 8.948312e-01	-2.880298e+01
 4.550577e-01	 9.036538e-01	-3.271403e+01
 4.378332e-01	 9.121238e-01	-3.645699e+01
 5.288102e-01	 8.763402e-01	-1.936561e+01
 5.119020e-01	 8.863232e-01	-2.379602e+01
 4.948486e-01	 8.959561e-01	-2.831680e+01
 4.776608e-01	 9.052362e-01	-3.277447e+01
 4.603491e-01	 9.141614e-01	-3.701743e+01
 4.429243e-01	 9.227299e-01	-4.089689e+01
 5.348885e-01	 8.864131e-01	-2.233366e+01
 5.177859e-01	 8.965108e-01	-2.704486e+01
 5.005365e-01	 9.062544e-01	-3.182391e+01
 4.831511e-01	 9.156413e-01	-3.649885e+01
 4.656405e-01	 9.246691e-01	-4.090515e+01
 4.480154e-01	 9.333360e-01	-4.488668e+01
 5.409668e-01	 8.964860e-01	-2.559106e+01
 5.236698e-01	 9.066984e-01	-3.040726e+01
 5.062244e-01	 9.165528e-01	-3.520028e+01
 4.886415e-01	 9.260463e-01	-3.984934e+01
 4.709318e-01	 9.351767e-01	-4.424789e+01
 4.531065e-01	 9.439421e-01	-4.830409e+01
 5.470451e-01	 9.065589e-01	-2.910230e+01
 5.295538e-01	 9.168861e-01	-3.380342e+01
 5.119124e-01	 9.268511e-01	-3.833817e+01
 4.941318e-01	 9.364513e-01	-4.270427e+01
 4.762232e-01	 9.456843e-01	-4.692159e+01
 4.581976e-01	 9.545482e-01	-5.103179e+01
 4.327422e-01	 9.015177e-01	-3.169454e+01
 4.156178e-01	 9.095393e-01	-3.512445e+01
 3.984038e-01	 9.172101e-01	-3.790196e+01
 3.811105e-01	 9.245295e-01	-3.980385e+01
 3.637482e-01	 9.314973e-01	-4.065649e+01
 3.463271e-01	 9.381138e-01	-3.978099e+01
 4.378332e-01	 9.121238e-01	-3.645699e+01
 4.205075e-01	 9.202398e-01	-3.981831e+01
 4.030910e-01	 9.280008e-01	-4.253546e+01
 3.855942e-01	 9.354063e-01	-4.449628e+01
 3.680276e-01	 9.424561e-01	-4.562798e+01
 3.504016e-01	 9.491504e-01	-4.554350e+01
 4.429243e-01	 9.227299e-01	-4.089689e+01
 4.253971e-01	 9.309403e-01	-4.427664e+01
 4.077781e-01	 9.387915e-01	-4.706062e+01
 3.900778e-01	 9.462831e-01	-4.918575e+01
 3.723070e-01	 9.534149e-01	-5.061918e+01
 3.544760e-01	 9.601871e-01	-5.121298e+01
 4.480154e-01	 9.333360e-01	-4.488668e+01
 4.302867e-01	 9.416407e-01	-4.838271e+01
 4.124652e-01	 9.495822e-01	-5.137178e+01
 3.945615e-01	 9.571599e-01	-5.378004e+01
 3.765864e-01	 9.643737e-01	-5.555574e+01
 3.585504e-01	 9.712237e-01	-5.666911e+01
 4.531065e-01	 9.439421e-01	-4.830409e+01
 4.351763e-01	 9.523412e-01	-5.202462e+01
 4.171523e-01	 9.603729e-01	-5.536764e+01
 3.990452e-01	 9.680367e-01	-5.819072e+01
 3.808658e-01	 9.753325e-01	-6.036632e+01
 3.626249e-01	 9.822603e-01	-6.178235e+01
 4.581976e-01	 9.545482e-01	-5.103179e+01
 4.400660e-01	 9.630417e-01	-5.509499e+01
 4.218394e-01	 9.711636e-01	-5.895103e+01
 4.035288e-01	 9.789136e-01	-6.233292e+01
 3.851452e-01	 9.862913e-01	-6.498242e+01
 3.666993e-01	 9.932970e-01	-6.665140e+01
 3.463271e-01	 9.381138e-01	-3.978099e+01
 3.288574e-01	 9.443796e-01	-3.739431e+01
 3.113490e-01	 9.502956e-01	-3.420365e+01
 2.938119e-01	 9.558632e-01	-3.080822e+01
 2.762559e-01	 9.610841e-01	-2.777924e+01
 2.586904e-01	 9.659603e-01	-2.565807e+01
 3.504016e-01	 9.491504e-01	-4.554350e+01
 3.327263e-01	 9.554899e-01	-4.389012e+01
 3.150120e-01	 9.614756e-01	-4.135283e+01
 2.972685e-01	 9.671087e-01	-3.841134e+01
 2.795059e-01	 9.723910e-01	-3.553004e+01
 2.617339e-01	 9.773245e-01	-3.315623e+01
 3.544760e-01	 9.601871e-01	-5.121298e+01
 3.365952e-01	 9.666003e-01	-5.004406e+01
 3.186749e-01	 9.726555e-01	-4.791305e+01
 3.007252e-01	 9.783541e-01	-4.522180e+01
 2.827560e-01	 9.836979e-01	-4.236686e+01
 2.647773e-01	 9.886888e-01	-3.973777e+01
 3.585504e-01	 9.712237e-01	-5.666911e+01
 3.404641e-01	 9.777106e-01	-5.583623e+01
 3.223378e-01	 9.838355e-01	-5.386886e+01
 3.041818e-01	 9.895996e-01	-5.121159e+01
 2.860061e-01	 9.950047e-01	-4.823090e+01
 2.678207e-01	 1.000053e+00	-4.529367e+01
 3.626249e-01	 9.822603e-01	-6.178235e+01
 3.443330e-01	 9.888210e-01	-6.124776e+01
 3.260007e-01	 9.950154e-01	-5.920559e+01
 3.076384e-01	 1.000845e+00	-5.635408e+01
 2.892562e-01	 1.006312e+00	-5.306615e+01
 2.708641e-01	 1.011417e+00	-4.971996e+01
 3.666993e-01	 9.932970e-01	-6.665140e+01
 3.482019e-01	 9.999313e-01	-6.626078e+01
 3.296637e-01	 1.006195e+00	-6.390942e+01
 3.110950e-01	 1.012090e+00	-6.062399e+01
 2.925062e-01	 1.017618e+00	-5.681922e+01
 2.739075e-01	 1.022781e+00	-5.291741e+01
 2.586904e-01	 9.659603e-01	-2.565807e+01
 2.411251e-01	 9.704941e-01	-2.434907e+01
 2.235690e-01	 9.746881e-01	-2.304604e+01
 2.060313e-01	 9.785454e-01	-2.123868e+01
 1.885207e-01	 9.820692e-01	-1.846731e+01
 1.710460e-01	 9.852630e-01	-1.432332e+01
 2.617339e-01	 9.773245e-01	-3.315623e+01
 2.439618e-01	 9.819116e-01	-3.133425e+01
 2.261992e-01	 9.861550e-01	-2.946660e+01
 2.084551e-01	 9.900577e-01	-2.705029e+01
 1.907386e-01	 9.936230e-01	-2.361831e+01
 1.730583e-01	 9.968544e-01	-1.874077e+01
 2.647773e-01	 9.886888e-01	-3.973777e+01
 2.467986e-01	 9.933292e-01	-3.744702e+01
 2.288294e-01	 9.976219e-01	-3.502815e+01
 2.108790e-01	 1.001570e+00	-3.201309e+01
 1.929565e-01	 1.005177e+00	-2.795773e+01
 1.750706e-01	 1.008446e+00	-2.244342e+01
 2.678207e-01	 1.000053e+00	-4.529367e+01
 2.496354e-01	 1.004747e+00	-4.253381e+01
 2.314597e-01	 1.009089e+00	-3.956343e+01
 2.133029e-01	 1.013082e+00	-3.597584e+01
 1.951744e-01	 1.016730e+00	-3.137884e+01
 1.770829e-01	 1.020037e+00	-2.539638e+01
 2.708641e-01	 1.011417e+00	-4.971996e+01
 2.524721e-01	 1.016164e+00	-4.644810e+01
 2.340899e-01	 1.020556e+00	-4.291279e+01
 2.157268e-01	 1.024595e+00	-3.879415e+01
 1.973923e-01	 1.028284e+00	-3.377982e+01
 1.790952e-01	 1.031628e+00	-2.756644e+01
 2.739075e-01	 1.022781e+00	-5.291741e+01
 2.553089e-01	 1.027582e+00	-4.904996e+01
 2.367201e-01	 1.032023e+00	-4.492379e+01
 2.181507e-01	 1.036107e+00	-4.033020e+01
 1.996102e-01	 1.039838e+00	-3.506345e+01
 1.811076e-01	 1.043220e+00	-2.892194e+01
 1.710460e-01	 9.852630e-01	-1.432332e+01
 1.536156e-01	 9.881307e-01	-8.629398e+00
 1.362375e-01	 9.906762e-01	-2.144091e+00
 1.189198e-01	 9.929039e-01	 4.103914e+00
 1.016702e-01	 9.948182e-01	 9.095341e+00
 8.449607e-02	 9.964238e-01	 1.182363e+01
 1.730583e-01	 9.968544e-01	-1.874077e+01
 1.554228e-01	 9.997558e-01	-1.214226e+01
 1.378403e-01	 1.002331e+00	-4.662625e+00
 1.203189e-01	 1.004585e+00	 2.444788e+00
 1.028663e-01	 1.006522e+00	 7.953810e+00
 8.549014e-02	 1.008146e+00	 1.066917e+01
 1.750706e-01	 1.008446e+00	-2.244342e+01
 1.572300e-01	 1.011381e+00	-1.511702e+01
 1.394431e-01	 1.013986e+00	-6.819612e+00
 1.217180e-01	 1.016266e+00	 1.083074e+00
 1.040624e-01	 1.018226e+00	 7.264477e+00
 8.648421e-02	 1.019869e+00	 1.044100e+01
 1.770829e-01	 1.020037e+00	-2.539638e+01
 1.590373e-01	 1.023006e+00	-1.761649e+01
 1.410459e-01	 1.025641e+00	-8.803445e+00
 1.231170e-01	 1.027948e+00	-3.268558e-01
 1.052586e-01	 1.029929e+00	 6.489161e+00
 8.747828e-02	 1.031592e+00	 1.036960e+01
 1.790952e-01	 1.031628e+00	-2.756644e+01
 1.608445e-01	 1.034631e+00	-1.970076e+01
 1.426487e-01	 1.037296e+00	-1.079412e+01
 1.245161e-01	 1.039629e+00	-2.115155e+00
 1.064547e-01	 1.041633e+00	 5.113820e+00
 8.847235e-02	 1.043314e+00	 9.719956e+00
 1.811076e-01	 1.043220e+00	-2.892194e+01
 1.626518e-01	 1.046256e+00	-2.142731e+01
 1.442515e-01	 1.048951e+00	-1.296370e+01
 1.259151e-01	 1.051310e+00	-4.597364e+00
 1.076508e-01	 1.053337e+00	 2.647207e+00
 8.946642e-02	 1.055037e+00	 7.789703e+00
 8.449607e-02	 9.964238e-01	 1.182363e+01
 6.740460e-02	 9.977257e-01	 9.341240e+00
 5.040273e-02	 9.987290e-01	 2.292914e+00
 3.349713e-02	 9.994388e-01	-4.738392e+00
 1.669417e-02	 9.998606e-01	-6.942100e+00
 0.000000e+00	 1.000000e+00	 6.889051e-01
 8.549014e-02	 1.008146e+00	 1.066917e+01
 6.819760e-02	 1.009464e+00	 8.813168e+00
 5.099571e-02	 1.010479e+00	 3.563355e+00
 3.389121e-02	 1.011197e+00	-1.713769e+00
 1.689057e-02	 1.011624e+00	-3.529733e+00
 0.000000e+00	 1.011765e+00	 1.705885e+00
 8.648421e-02	 1.019869e+00	 1.044100e+01
 6.899059e-02	 1.021202e+00	 9.399739e+00
 5.158868e-02	 1.022228e+00	 5.363915e+00
 3.428529e-02	 1.022955e+00	 7.759222e-01
 1.708698e-02	 1.023387e+00	-1.881366e+00
 0.000000e+00	 1.023529e+00	-9.611373e-02
 8.747828e-02	 1.031592e+00	 1.036960e+01
 6.978359e-02	 1.032940e+00	 1.025542e+01
 5.218165e-02	 1.033978e+00	 7.117273e+00
 3.467938e-02	 1.034713e+00	 2.753979e+00
 1.728338e-02	 1.035150e+00	-1.053024e+00
 0.000000e+00	 1.035294e+00	-2.545192e+00
 8.847235e-02	 1.043314e+00	 9.719956e+00
 7.057658e-02	 1.044678e+00	 1.057263e+01
 5.277463e-02	 1.045728e+00	 8.272027e+00
 3.507346e-02	 1.046471e+00	 4.242631e+00
 1.747978e-02	 1.046913e+00	-1.431682e-01
 0.000000e+00	 1.047059e+00	-3.567066e+00
 8.946642e-02	 1.055037e+00	 7.789703e+00
 7.136958e-02	 1.056415e+00	 9.579667e+00
 5.336760e-02	 1.057478e+00	 8.301259e+00
 3.546754e-02	 1.058229e+00	 5.263106e+00
 1.767618e-02	 1.058676e+00	 1.709665e+00
 0.000000e+00	 1.058824e+00	-1.179639e+00
 1.058824e+00	 0.000000e+00	 1.034781e+02
 1.058676e+00	 1.767618e-02	 7.567447e+01
 1.058229e+00	 3.546754e-02	 5.749939e+01
 1.057478e+00	 5.336760e-02	 4.898448e+01
 1.056415e+00	 7.136958e-02	 5.008537e+01
 1.055037e+00	 8.946642e-02	 6.067814e+01
 1.070588e+00	 0.000000e+00	 9.669391e+01
 1.070439e+00	 1.787258e-02	 6.967358e+01
 1.069987e+00	 3.586163e-02	 5.215647e+01
 1.069227e+00	 5.396057e-02	 4.407453e+01
 1.068153e+00	 7.216257e-02	 4.527596e+01
 1.066760e+00	 9.046050e-02	 5.552176e+01
 1.082353e+00	 0.000000e+00	 9.121897e+01
 1.082202e+00	 1.806899e-02	 6.535684e+01
 1.081746e+00	 3.625571e-02	 4.864078e+01
 1.080977e+00	 5.455355e-02	 4.095076e+01
 1.079891e+00	 7.295557e-02	 4.208321e+01
 1.078482e+00	 9.145457e-02	 5.174828e+01
 1.094118e+00	 0.000000e+00	 8.595437e+01
 1.093965e+00	 1.826539e-02	 6.155127e+01
 1.093504e+00	 3.664980e-02	 4.583733e+01
 1.092727e+00	 5.514652e-02	 3.866863e+01
 1.091629e+00	 7.374856e-02	 3.982514e+01
 1.090205e+00	 9.244864e-02	 4.900825e+01
 1.105882e+00	 0.000000e+00	 8.111333e+01
 1.105728e+00	 1.846179e-02	 5.821988e+01
 1.105262e+00	 3.704388e-02	 4.348552e+01
 1.104477e+00	 5.573949e-02	 3.677968e+01
 1.103367e+00	 7.454156e-02	 3.791035e+01
 1.101928e+00	 9.344271e-02	 4.662227e+01
 1.117647e+00	 0.000000e+00	 7.701898e+01
 1.117491e+00	 1.865819e-02	 5.545581e+01
 1.117020e+00	 3.743796e-02	 4.150660e+01
 1.116227e+00	 5.633247e-02	 3.509023e+01
 1.115105e+00	 7.533455e-02	 3.608605e+01
 1.113650e+00	 9.443678e-02	 4.433284e+01
 1.055037e+00	 8.946642e-02	 6.067814e+01
 1.053337e+00	 1.076508e-01	 7.326617e+01
 1.051310e+00	 1.259151e-01	 8.073150e+01
 1.048951e+00	 1.442515e-01	 8.349970e+01
 1.046256e+00	 1.626518e-01	 8.205457e+01
 1.043220e+00	 1.811076e-01	 7.693841e+01
 1.066760e+00	 9.046050e-02	 5.552176e+01
 1.065041e+00	 1.088469e-01	 6.772334e+01
 1.062991e+00	 1.273142e-01	 7.522191e+01
 1.060606e+00	 1.458543e-01	 7.839214e+01
 1.057881e+00	 1.644590e-01	 7.765738e+01
 1.054811e+00	 1.831199e-01	 7.348989e+01
 1.078482e+00	 9.145457e-02	 5.174828e+01
 1.076744e+00	 1.100430e-01	 6.329375e+01
 1.074672e+00	 1.287132e-01	 7.050990e+01
 1.072261e+00	 1.474571e-01	 7.373516e+01
 1.069506e+00	 1.662663e-01	 7.344536e+01
 1.066402e+00	 1.851322e-01	 6.996001e+01
 1.090205e+00	 9.244864e-02	 4.900825e+01
 1.088448e+00	 1.112392e-01	 5.997968e+01
 1.086354e+00	 1.301123e-01	 6.691608e+01
 1.083916e+00	 1.490599e-01	 7.010561e+01
 1.081131e+00	 1.680735e-01	 6.986940e+01
 1.077994e+00	 1.871445e-01	 6.656196e+01
 1.101928e+00	 9.344271e-02	 4.662227e+01
 1.100152e+00	 1.124353e-01	 5.705373e+01
 1.098035e+00	 1.315114e-01	 6.369279e+01
 1.095571e+00	 1.506627e-01	 6.677871e+01
 1.092756e+00	 1.698807e-01	 6.657537e+01
 1.089585e+00	 1.891568e-01	 6.337154e+01
 1.113650e+00	 9.443678e-02	 4.433284e+01
 1.111856e+00	 1.136314e-01	 5.428214e+01
 1.109716e+00	 1.329104e-01	 6.063340e+01
 1.107226e+00	 1.522655e-01	 6.357841e+01
 1.104381e+00	 1.716880e-01	 6.332555e+01
 1.101176e+00	 1.911691e-01	 6.010000e+01
 1.043220e+00	 1.811076e-01	 7.693841e+01
 1.039838e+00	 1.996102e-01	 7.086857e+01
 1.036107e+00	 2.181507e-01	 6.606361e+01
 1.032023e+00	 2.367201e-01	 6.233458e+01
 1.027582e+00	 2.553089e-01	 5.945625e+01
 1.022781e+00	 2.739075e-01	 5.716688e+01
 1.054811e+00	 1.831199e-01	 7.348989e+01
 1.051392e+00	 2.018281e-01	 6.826992e+01
 1.047619e+00	 2.205746e-01	 6.396640e+01
 1.043490e+00	 2.393503e-01	 6.045128e+01
 1.039000e+00	 2.581457e-01	 5.756962e+01
 1.034146e+00	 2.769509e-01	 5.513941e+01
 1.066402e+00	 1.851322e-01	 6.996001e+01
 1.062946e+00	 2.040460e-01	 6.533979e+01
 1.059132e+00	 2.229985e-01	 6.136708e+01
 1.054957e+00	 2.419805e-01	 5.796723e+01
 1.050417e+00	 2.609824e-01	 5.504711e+01
 1.045510e+00	 2.799944e-01	 5.249485e+01
 1.077994e+00	 1.871445e-01	 6.656196e+01
 1.074499e+00	 2.062638e-01	 6.210980e+01
 1.070644e+00	 2.254224e-01	 5.820771e+01
 1.066423e+00	 2.446108e-01	 5.484583e+01
 1.061835e+00	 2.638192e-01	 5.186577e+01
 1.056874e+00	 2.830378e-01	 4.921662e+01
 1.089585e+00	 1.891568e-01	 6.337154e+01
 1.086053e+00	 2.084817e-01	 5.894421e+01
 1.082156e+00	 2.278463e-01	 5.488838e+01
 1.077890e+00	 2.472410e-01	 5.123856e+01
 1.073252e+00	 2.666560e-01	 4.802924e+01
 1.068238e+00	 2.860812e-01	 4.528873e+01
 1.101176e+00	 1.911691e-01	 6.010000e+01
 1.097607e+00	 2.106996e-01	 5.558104e+01
 1.093668e+00	 2.302702e-01	 5.132962e+01
 1.089357e+00	 2.498712e-01	 4.741014e+01
 1.084670e+00	 2.694927e-01	 4.389260e+01
 1.079603e+00	 2.891246e-01	 4.085298e+01
 1.022781e+00	 2.739075e-01	 5.716688e+01
 1.017618e+00	 2.925062e-01	 5.507455e+01
 1.012090e+00	 3.110950e-01	 5.305101e+01
 1.006195e+00	 3.296637e-01	 5.120473e+01
 9.999313e-01	 3.482019e-01	 4.964653e+01
 9.932970e-01	 3.666993e-01	 4.713523e+01
 1.034146e+00	 2.769509e-01	 5.513941e+01
 1.028925e+00	 2.957563e-01	 5.293089e+01
 1.023336e+00	 3.145516e-01	 5.088251e+01
 1.017375e+00	 3.333266e-01	 4.903934e+01
 1.011042e+00	 3.520708e-01	 4.743964e+01
 1.004334e+00	 3.707737e-01	 4.470099e+01
 1.045510e+00	 2.799944e-01	 5.249485e+01
 1.040232e+00	 2.990064e-01	 5.017578e+01
 1.034581e+00	 3.180082e-01	 4.804159e+01
 1.028555e+00	 3.369895e-01	 4.608546e+01
 1.022152e+00	 3.559398e-01	 4.428633e+01
 1.015370e+00	 3.748482e-01	 4.148370e+01
 1.056874e+00	 2.830378e-01	 4.921662e+01
 1.051539e+00	 3.022564e-01	 4.680168e+01
 1.045827e+00	 3.214648e-01	 4.454212e+01
 1.039735e+00	 3.406525e-01	 4.239050e+01
 1.033262e+00	 3.598087e-01	 4.029604e+01
 1.026407e+00	 3.789226e-01	 3.765960e+01
 1.068238e+00	 2.860812e-01	 4.528873e+01
 1.062846e+00	 3.055065e-01	 4.280124e+01
 1.057072e+00	 3.249214e-01	 4.039728e+01
 1.050915e+00	 3.443154e-01	 3.799971e+01
 1.044373e+00	 3.636776e-01	 3.585030e+01
 1.037444e+00	 3.829971e-01	 3.339842e+01
 1.079603e+00	 2.891246e-01	 4.085298e+01
 1.074153e+00	 3.087566e-01	 3.817479e+01
 1.068318e+00	 3.283780e-01	 3.561957e+01
 1.062095e+00	 3.479783e-01	 3.295632e+01
 1.055483e+00	 3.675465e-01	 3.110509e+01
 1.048480e+00	 3.870715e-01	 2.886376e+01
 9.932970e-01	 3.666993e-01	 4.713523e+01
 9.862913e-01	 3.851452e-01	 4.332157e+01
 9.789136e-01	 4.035288e-01	 3.938161e+01
 9.711636e-01	 4.218394e-01	 3.531159e+01
 9.630417e-01	 4.400660e-01	 3.112029e+01
 9.545482e-01	 4.581976e-01	 2.682965e+01
 1.004334e+00	 3.707737e-01	 4.470099e+01
 9.972501e-01	 3.894246e-01	 4.110232e+01
 9.897904e-01	 4.080125e-01	 3.723090e+01
 9.819543e-01	 4.265265e-01	 3.314324e+01
 9.737421e-01	 4.449556e-01	 2.892272e+01
 9.651543e-01	 4.632887e-01	 2.468017e+01
 1.015370e+00	 3.748482e-01	 4.148370e+01
 1.008209e+00	 3.937040e-01	 3.800944e+01
 1.000667e+00	 4.124961e-01	 3.422214e+01
 9.927451e-01	 4.312136e-01	 3.021694e+01
 9.844426e-01	 4.498452e-01	 2.612530e+01
 9.757604e-01	 4.683797e-01	 2.211566e+01
 1.026407e+00	 3.789226e-01	 3.765960e+01
 1.019168e+00	 3.979833e-01	 3.426427e+01
 1.011544e+00	 4.169798e-01	 3.058587e+01
 1.003536e+00	 4.359007e-01	 2.673708e+01
 9.951430e-01	 4.547348e-01	 2.287169e+01
 9.863665e-01	 4.734708e-01	 1.918514e+01
 1.037444e+00	 3.829971e-01	 3.339842e+01
 1.030126e+00	 4.022627e-01	 3.007975e+01
 1.022421e+00	 4.214634e-01	 2.654388e+01
 1.014326e+00	 4.405878e-01	 2.290051e+01
 1.005844e+00	 4.596244e-01	 1.930055e+01
 9.969726e-01	 4.785619e-01	 1.593673e+01
 1.048480e+00	 3.870715e-01	 2.886376e+01
 1.041085e+00	 4.065421e-01	 2.566095e+01
 1.033298e+00	 4.259471e-01	 2.230974e+01
 1.025117e+00	 4.452749e-01	 1.889687e+01
 1.016544e+00	 4.645141e-01	 1.554587e+01
 1.007579e+00	 4.836530e-01	 1.241767e+01
 9.545482e-01	 4.581976e-01	 2.682965e+01
 9.456843e-01	 4.762232e-01	 2.216287e+01
 9.364513e-01	 4.941318e-01	 1.689234e+01
 9.268511e-01	 5.119124e-01	 1.113998e+01
 9.168861e-01	 5.295538e-01	 5.049174e+00
 9.065589e-01	 5.470451e-01	-1.215262e+00
 9.651543e-01	 4.632887e-01	 2.468017e+01
 9.561919e-01	 4.815146e-01	 2.018359e+01
 9.468563e-01	 4.996222e-01	 1.514146e+01
 9.371495e-01	 5.176003e-01	 9.602947e+00
 9.270737e-01	 5.354377e-01	 3.626273e+00
 9.166317e-01	 5.531233e-01	-2.721057e+00
 9.757604e-01	 4.683797e-01	 2.211566e+01
 9.666995e-01	 4.868060e-01	 1.790043e+01
 9.572613e-01	 5.051125e-01	 1.306474e+01
 9.474478e-01	 5.232882e-01	 7.615832e+00
 9.372613e-01	 5.413216e-01	 1.563720e+00
 9.267046e-01	 5.592016e-01	-5.078516e+00
 9.863665e-01	 4.734708e-01	 1.918514e+01
 9.772071e-01	 4.920973e-01	 1.527313e+01
 9.676663e-01	 5.106029e-01	 1.057591e+01
 9.577462e-01	 5.289761e-01	 5.088779e+00
 9.474489e-01	 5.472056e-01	-1.190670e+00
 9.367775e-01	 5.652799e-01	-8.262097e+00
 9.969726e-01	 4.785619e-01	 1.593673e+01
 9.877147e-01	 4.973887e-01	 1.226432e+01
 9.780713e-01	 5.160932e-01	 7.593629e+00
 9.680445e-01	 5.346640e-01	 1.936983e+00
 9.576366e-01	 5.530895e-01	-4.685620e+00
 9.468504e-01	 5.713582e-01	-1.224610e+01
 1.007579e+00	 4.836530e-01	 1.241767e+01
 9.982223e-01	 5.026801e-01	 8.839393e+00
 9.884764e-01	 5.215836e-01	 4.041147e+00
 9.783428e-01	 5.403519e-01	-1.919571e+00
 9.678242e-01	 5.589734e-01	-8.966573e+00
 9.569232e-01	 5.774365e-01	-1.700465e+01
 9.065589e-01	 5.470451e-01	-1.215262e+00
 8.958727e-01	 5.643753e-01	-7.958374e+00
 8.848310e-01	 5.815336e-01	-1.545255e+01
 8.734381e-01	 5.985092e-01	-2.346002e+01
 8.616982e-01	 6.152914e-01	-3.173312e+01
 8.496162e-01	 6.318699e-01	-4.001519e+01
 9.166317e-01	 5.531233e-01	-2.721057e+00
 9.058268e-01	 5.706461e-01	-9.806640e+00
 8.946625e-01	 5.879951e-01	-1.782334e+01
 8.831429e-01	 6.051593e-01	-2.641460e+01
 8.712726e-01	 6.221280e-01	-3.519840e+01
 8.590564e-01	 6.388906e-01	-4.376875e+01
 9.267046e-01	 5.592016e-01	-5.078516e+00
 9.157809e-01	 5.769170e-01	-1.263145e+01
 9.044939e-01	 5.944565e-01	-2.115631e+01
 8.928478e-01	 6.118094e-01	-3.022121e+01
 8.808470e-01	 6.289646e-01	-3.935916e+01
 8.684966e-01	 6.459114e-01	-4.806994e+01
 9.367775e-01	 5.652799e-01	-8.262097e+00
 9.257351e-01	 5.831878e-01	-1.633163e+01
 9.143254e-01	 6.009180e-01	-2.531721e+01
 9.025527e-01	 6.184595e-01	-3.475369e+01
 8.904214e-01	 6.358012e-01	-4.413696e+01
 8.779368e-01	 6.529322e-01	-5.292600e+01
 9.468504e-01	 5.713582e-01	-1.224610e+01
 9.356892e-01	 5.894586e-01	-2.080907e+01
 9.241569e-01	 6.073795e-01	-3.017625e+01
 9.122575e-01	 6.251096e-01	-3.988995e+01
 8.999959e-01	 6.426377e-01	-4.945538e+01
 8.873770e-01	 6.599530e-01	-5.834262e+01
 9.569232e-01	 5.774365e-01	-1.700465e+01
 9.456434e-01	 5.957295e-01	-2.596854e+01
 9.339883e-01	 6.138410e-01	-3.560782e+01
 9.219624e-01	 6.317597e-01	-4.551180e+01
 9.095703e-01	 6.494743e-01	-5.524001e+01
 8.968171e-01	 6.669737e-01	-6.432397e+01
 8.496162e-01	 6.318699e-01	-4.001519e+01
 8.371976e-01	 6.482341e-01	-4.746715e+01
 8.244479e-01	 6.643740e-01	-5.349861e+01
 8.113734e-01	 6.802797e-01	-5.822969e+01
 7.979805e-01	 6.959413e-01	-6.179336e+01
 7.842762e-01	 7.113495e-01	-6.433485e+01
 8.590564e-01	 6.388906e-01	-4.376875e+01
 8.464998e-01	 6.554367e-01	-5.129338e+01
 8.336085e-01	 6.717560e-01	-5.739324e+01
 8.203887e-01	 6.878383e-01	-6.234734e+01
 8.068470e-01	 7.036740e-01	-6.646312e+01
 7.929904e-01	 7.192534e-01	-6.603247e+01
 8.684966e-01	 6.459114e-01	-4.806994e+01
 8.558020e-01	 6.626393e-01	-5.565288e+01
 8.427690e-01	 6.791379e-01	-6.198570e+01
 8.294039e-01	 6.953970e-01	-6.744109e+01
 8.157134e-01	 7.114067e-01	-7.242898e+01
 8.017045e-01	 7.271573e-01	-6.652577e+01
 8.779368e-01	 6.529322e-01	-5.292600e+01
 8.651042e-01	 6.698419e-01	-6.063178e+01
 8.519295e-01	 6.865198e-01	-6.739182e+01
 8.384192e-01	 7.029557e-01	-7.360937e+01
 8.245799e-01	 7.191394e-01	-7.527220e+01
 8.104187e-01	 7.350612e-01	-6.809270e+01
 8.873770e-01	 6.599530e-01	-5.834262e+01
 8.744064e-01	 6.770445e-01	-6.631131e+01
 8.610901e-01	 6.939018e-01	-7.372126e+01
 8.474345e-01	 7.105143e-01	-8.094518e+01
 8.334463e-01	 7.268721e-01	-7.655418e+01
 8.191329e-01	 7.429651e-01	-7.072015e+01
 8.968171e-01	 6.669737e-01	-6.432397e+01
 8.837086e-01	 6.842471e-01	-7.276802e+01
 8.702506e-01	 7.012837e-01	-8.107782e+01
 8.564497e-01	 7.180730e-01	-8.578272e+01
 8.423128e-01	 7.346048e-01	-7.893089e+01
 8.278471e-01	 7.508689e-01	-7.439665e+01
 7.842762e-01	 7.113495e-01	-6.433485e+01
 7.702676e-01	 7.264950e-01	-5.705694e+01
 7.559626e-01	 7.413689e-01	-4.844940e+01
 7.413689e-01	 7.559626e-01	-4.089332e+01
 7.264950e-01	 7.702676e-01	-3.447003e+01
 7.113495e-01	 7.842762e-01	-2.944114e+01
 7.929904e-01	 7.192534e-01	-6.603247e+01
 7.788262e-01	 7.345672e-01	-5.783740e+01
 7.643621e-01	 7.496064e-01	-5.081225e+01
 7.496064e-01	 7.643621e-01	-4.482740e+01
 7.345672e-01	 7.788262e-01	-3.972914e+01
 7.192534e-01	 7.929904e-01	-3.534027e+01
 8.017045e-01	 7.271573e-01	-6.652577e+01
 7.873847e-01	 7.426394e-01	-5.977278e+01
 7.727617e-01	 7.578438e-01	-5.415730e+01
 7.578438e-01	 7.727617e-01	-4.940796e+01
 7.426394e-01	 7.873847e-01	-4.521924e+01
 7.271573e-01	 8.017045e-01	-4.125286e+01
 8.104187e-01	 7.350612e-01	-6.809270e+01
 7.959432e-01	 7.507115e-01	-6.274922e+01
 7.811613e-01	 7.660812e-01	-5.832405e+01
 7.660812e-01	 7.811613e-01	-5.447777e+01
 7.507115e-01	 7.959432e-01	-5.083353e+01
 7.350612e-01	 8.104187e-01	-4.697890e+01
 8.191329e-01	 7.429651e-01	-7.072015e+01
 8.045018e-01	 7.587837e-01	-6.665879e+01
 7.895609e-01	 7.743186e-01	-6.315990e+01
 7.743186e-01	 7.895609e-01	-5.988731e+01
 7.587837e-01	 8.045018e-01	-5.647078e+01
 7.429651e-01	 8.191329e-01	-5.250793e+01
 8.278471e-01	 7.508689e-01	-7.439665e+01
 8.130603e-01	 7.668559e-01	-7.139916e+01
 7.979605e-01	 7.825561e-01	-6.851972e+01
 7.825561e-01	 7.979605e-01	-6.549435e+01
 7.668559e-01	 8.130603e-01	-6.203499e+01
 7.508689e-01	 8.278471e-01	-5.783088e+01
 7.113495e-01	 7.842762e-01	-2.944114e+01
 6.959413e-01	 7.979805e-01	-2.637082e+01
 6.802797e-01	 8.113734e-01	-2.401273e+01
 6.643740e-01	 8.244479e-01	-2.209031e+01
 6.482341e-01	 8.371976e-01	-2.031464e+01
 6.318699e-01	 8.496162e-01	-1.838678e+01
 7.192534e-01	 7.929904e-01	-3.534027e+01
 7.036740e-01	 8.068470e-01	-3.177305e+01
 6.878383e-01	 8.203887e-01	-2.877067e+01
 6.717560e-01	 8.336085e-01	-2.603290e+01
 6.554367e-01	 8.464998e-01	-2.350772e+01
 6.388906e-01	 8.590564e-01	-2.114736e+01
 7.271573e-01	 8.017045e-01	-4.125286e+01
 7.114067e-01	 8.157134e-01	-3.700838e+01
 6.953970e-01	 8.294039e-01	-3.339250e+01
 6.791379e-01	 8.427690e-01	-3.002902e+01
 6.626393e-01	 8.558020e-01	-2.702398e+01
 6.459114e-01	 8.684966e-01	-2.449667e+01
 7.350612e-01	 8.104187e-01	-4.697890e+01
 7.191394e-01	 8.245799e-01	-4.237761e+01
 7.029557e-01	 8.384192e-01	-3.796286e+01
 6.865198e-01	 8.519295e-01	-3.416806e+01
 6.698419e-01	 8.651042e-01	-3.091682e+01
 6.529322e-01	 8.779368e-01	-2.841410e+01
 7.429651e-01	 8.191329e-01	-5.250793e+01
 7.268721e-01	 8.334463e-01	-4.768818e+01
 7.105143e-01	 8.474345e-01	-4.256193e+01
 6.939018e-01	 8.610901e-01	-3.853473e+01
 6.770445e-01	 8.744064e-01	-3.523655e+01
 6.599530e-01	 8.873770e-01	-3.287914e+01
 7.508689e-01	 8.278471e-01	-5.783088e+01
 7.346048e-01	 8.423128e-01	-5.282631e+01
 7.180730e-01	 8.564497e-01	-4.748588e+01
 7.012837e-01	 8.702506e-01	-4.320933e+01
 6.842471e-01	 8.837086e-01	-4.003054e+01
 6.669737e-01	 8.968171e-01	-3.787135e+01
 6.318699e-01	 8.496162e-01	-1.838678e+01
 6.152914e-01	 8.616982e-01	-1.738219e+01
 5.985092e-01	 8.734381e-01	-1.833431e+01
 5.815336e-01	 8.848310e-01	-2.086546e+01
 5.643753e-01	 8.958727e-01	-2.458712e+01
 5.470451e-01	 9.065589e-01	-2.910230e+01
 6.388906e-01	 8.590564e-01	-2.114736e+01
 6.221280e-01	 8.712726e-01	-2.014723e+01
 6.051593e-01	 8.831429e-01	-2.137749e+01
 5.879951e-01	 8.946625e-01	-2.428912e+01
 5.706461e-01	 9.058268e-01	-2.831312e+01
 5.531233e-01	 9.166317e-01	-3.286405e+01
 6.459114e-01	 8.684966e-01	-2.449667e+01
 6.289646e-01	 8.808470e-01	-2.362783e+01
 6.118094e-01	 8.928478e-01	-2.509365e+01
 5.944565e-01	 9.044939e-01	-2.824563e+01
 5.769170e-01	 9.157809e-01	-3.241074e+01
 5.592016e-01	 9.267046e-01	-3.689571e+01
 6.529322e-01	 8.779368e-01	-2.841410e+01
 6.358012e-01	 8.904214e-01	-2.773211e+01
 6.184595e-01	 9.025527e-01	-2.935972e+01
 6.009180e-01	 9.143254e-01	-3.261832e+01
 5.831878e-01	 9.257351e-01	-3.680484e+01
 5.652799e-01	 9.367775e-01	-4.119615e+01
 6.599530e-01	 8.873770e-01	-3.287914e+01
 6.426377e-01	 8.999959e-01	-3.237135e+01
 6.251096e-01	 9.122575e-01	-3.405710e+01
 6.073795e-01	 9.241569e-01	-3.729480e+01
 5.894586e-01	 9.356892e-01	-4.142281e+01
 5.713582e-01	 9.468504e-01	-4.576367e+01
 6.669737e-01	 8.968171e-01	-3.787135e+01
 6.494743e-01	 9.095703e-01	-3.745981e+01
 6.317597e-01	 9.219624e-01	-3.907152e+01
 6.138410e-01	 9.339883e-01	-4.216673e+01
 5.957295e-01	 9.456434e-01	-4.619446e+01
 5.774365e-01	 9.569232e-01	-5.059602e+01
 5.470451e-01	 9.065589e-01	-2.910230e+01
 5.295538e-01	 9.168861e-01	-3.380342e+01
 5.119124e-01	 9.268511e-01	-3.833817e+01
 4.941318e-01	 9.364513e-01	-4.270427e+01
 4.762232e-01	 9.456843e-01	-4.692159e+01
 4.581976e-01	 9.545482e-01	-5.103179e+01
 5.531233e-01	 9.166317e-01	-3.286405e+01
 5.354377e-01	 9.270737e-01	-3.733085e+01
 5.176003e-01	 9.371495e-01	-4.155632e+01
 4.996222e-01	 9.468563e-01	-4.564766e+01
 4.815146e-01	 9.561919e-01	-4.974056e+01
 4.632887e-01	 9.651543e-01	-5.399813e+01
 5.592016e-01	 9.267046e-01	-3.689571e+01
 5.413216e-01	 9.372613e-01	-4.118534e+01
 5.232882e-01	 9.474478e-01	-4.530894e+01
 5.051125e-01	 9.572613e-01	-4.940120e+01
 4.868060e-01	 9.666995e-01	-5.362754e+01
 4.683797e-01	 9.757604e-01	-5.818278e+01
 5.652799e-01	 9.367775e-01	-4.119615e+01
 5.472056e-01	 9.474489e-01	-4.543402e+01
 5.289761e-01	 9.577462e-01	-4.969099e+01
 5.106029e-01	 9.676663e-01	-5.405005e+01
 4.920973e-01	 9.772071e-01	-5.862309e+01
 4.734708e-01	 9.863665e-01	-6.354984e+01
 5.713582e-01	 9.468504e-01	-4.576367e+01
 5.530895e-01	 9.576366e-01	-5.014058e+01
 5.346640e-01	 9.680445e-01	-5.479286e+01
 5.160932e-01	 9.780713e-01	-5.967527e+01
 4.973887e-01	 9.877147e-01	-6.476560e+01
 4.785619e-01	 9.969726e-01	-7.006447e+01
 5.774365e-01	 9.569232e-01	-5.059602e+01
 5.589734e-01	 9.678242e-01	-5.536545e+01
 5.403519e-01	 9.783428e-01	-6.070059e+01
 5.215836e-01	 9.884764e-01	-6.635396e+01
 5.026801e-01	 9.982223e-01	-7.209134e+01
 4.836530e-01	 1.007579e+00	-7.769289e+01
 4.581976e-01	 9.545482e-01	-5.103179e+01
 4.400660e-01	 9.630417e-01	-5.509499e+01
 4.218394e-01	 9.711636e-01	-5.895103e+01
 4.035288e-01	 9.789136e-01	-6.233292e+01
 3.851452e-01	 9.862913e-01	-6.498242e+01
 3.666993e-01	 9.932970e-01	-6.665140e+01
 4.632887e-01	 9.651543e-01	-5.399813e+01
 4.449556e-01	 9.737421e-01	-5.846577e+01
 4.265265e-01	 9.819543e-01	-6.281728e+01
 4.080125e-01	 9.897904e-01	-6.668025e+01
 3.894246e-01	 9.972501e-01	-6.968682e+01
 3.707737e-01	 1.004334e+00	-7.147581e+01
 4.683797e-01	 9.757604e-01	-5.818278e+01
 4.498452e-01	 9.844426e-01	-6.300395e+01
 4.312136e-01	 9.927451e-01	-6.762530e+01
 4.124961e-01	 1.000667e+00	-7.165976e+01
 3.937040e-01	 1.008209e+00	-7.472369e+01
 3.748482e-01	 1.015370e+00	-7.643909e+01
 4.734708e-01	 9.863665e-01	-6.354984e+01
 4.547348e-01	 9.951430e-01	-6.860129e+01
 4.359007e-01	 1.003536e+00	-7.323067e+01
 4.169798e-01	 1.011544e+00	-7.712397e+01
 3.979833e-01	 1.019168e+00	-7.997240e+01
 3.789226e-01	 1.026407e+00	-8.147426e+01
 4.785619e-01	 9.969726e-01	-7.006447e+01
 4.596244e-01	 1.005844e+00	-7.515373e+01
 4.405878e-01	 1.014326e+00	-7.949477e+01
 4.214634e-01	 1.022421e+00	-8.293134e+01
 4.022627e-01	 1.030126e+00	-8.531718e+01
 3.829971e-01	 1.037444e+00	-8.651690e+01
 4.836530e-01	 1.007579e+00	-7.769289e+01
 4.645141e-01	 1.016544e+00	-8.256122e+01
 4.452749e-01	 1.025117e+00	-8.628443e+01
 4.259471e-01	 1.033298e+00	-8.894595e+01
 4.065421e-01	 1.041085e+00	-9.064682e+01
 3.870715e-01	 1.048480e+00	-9.150502e+01
 3.666993e-01	 9.932970e-01	-6.665140e+01
 3.482019e-01	 9.999313e-01	-6.626078e+01
 3.296637e-01	 1.006195e+00	-6.390942e+01
 3.110950e-01	 1.012090e+00	-6.062399e+01
 2.925062e-01	 1.017618e+00	-5.681922e+01
 2.739075e-01	 1.022781e+00	-5.291741e+01
 3.707737e-01	 1.004334e+00	-7.147581e+01
 3.520708e-01	 1.011042e+00	-7.115154e+01
 3.333266e-01	 1.017375e+00	-6.843136e+01
 3.145516e-01	 1.023336e+00	-6.470394e+01
 2.957563e-01	 1.028925e+00	-6.041049e+01
 2.769509e-01	 1.034146e+00	-5.600036e+01
 3.748482e-01	 1.015370e+00	-7.643909e+01
 3.559398e-01	 1.022152e+00	-7.620559e+01
 3.369895e-01	 1.028555e+00	-7.325180e+01
 3.180082e-01	 1.034581e+00	-6.932304e+01
 2.990064e-01	 1.040232e+00	-6.482313e+01
 2.799944e-01	 1.045510e+00	-6.016372e+01
 3.789226e-01	 1.026407e+00	-8.147426e+01
 3.598087e-01	 1.033262e+00	-8.124189e+01
 3.406525e-01	 1.039735e+00	-7.840065e+01
 3.214648e-01	 1.045827e+00	-7.452529e+01
 3.022564e-01	 1.051539e+00	-7.009854e+01
 2.830378e-01	 1.056874e+00	-6.543172e+01
 3.829971e-01	 1.037444e+00	-8.651690e+01
 3.636776e-01	 1.044373e+00	-8.631469e+01
 3.443154e-01	 1.050915e+00	-8.390669e+01
 3.249214e-01	 1.057072e+00	-8.035295e+01
 3.055065e-01	 1.062846e+00	-7.627648e+01
 2.860812e-01	 1.068238e+00	-7.182769e+01
 3.870715e-01	 1.048480e+00	-9.150502e+01
 3.675465e-01	 1.055483e+00	-9.148605e+01
 3.479783e-01	 1.062095e+00	-8.979761e+01
 3.283780e-01	 1.068318e+00	-8.684666e+01
 3.087566e-01	 1.074153e+00	-8.133669e+01
 2.891246e-01	 1.079603e+00	-7.371874e+01
 2.739075e-01	 1.022781e+00	-5.291741e+01
 2.553089e-01	 1.027582e+00	-4.904996e+01
 2.367201e-01	 1.032023e+00	-4.492379e+01
 2.181507e-01	 1.036107e+00	-4.033020e+01
 1.996102e-01	 1.039838e+00	-3.506345e+01
 1.811076e-01	 1.043220e+00	-2.892194e+01
 2.769509e-01	 1.034146e+00	-5.600036e+01
 2.581457e-01	 1.039000e+00	-5.158166e+01
 2.393503e-01	 1.043490e+00	-4.690155e+01
 2.205746e-01	 1.047619e+00	-4.187213e+01
 2.018281e-01	 1.051392e+00	-3.640555e+01
 1.831199e-01	 1.054811e+00	-3.041466e+01
 2.799944e-01	 1.045510e+00	-6.016372e+01
 2.609824e-01	 1.050417e+00	-5.537782e+01
 2.419805e-01	 1.054957e+00	-5.024120e+01
 2.229985e-01	 1.059132e+00	-4.478237e+01
 2.040460e-01	 1.062946e+00	-3.902777e+01
 1.851322e-01	 1.066402e+00	-3.300194e+01
 2.830378e-01	 1.056874e+00	-6.543172e+01
 2.638192e-01	 1.061835e+00	-6.044181e+01
 2.446108e-01	 1.066423e+00	-5.493099e+01
 2.254224e-01	 1.070644e+00	-4.903994e+01
 2.062638e-01	 1.074499e+00	-4.161261e+01
 1.871445e-01	 1.077994e+00	-3.432657e+01
 2.860812e-01	 1.068238e+00	-7.182769e+01
 2.666560e-01	 1.073252e+00	-6.564570e+01
 2.472410e-01	 1.077890e+00	-5.736810e+01
 2.278463e-01	 1.082156e+00	-4.936182e+01
 2.084817e-01	 1.086053e+00	-4.180558e+01
 1.891568e-01	 1.089585e+00	-3.487131e+01
 2.891246e-01	 1.079603e+00	-7.371874e+01
 2.694927e-01	 1.084670e+00	-6.608182e+01
 2.498712e-01	 1.089357e+00	-5.824730e+01
 2.302702e-01	 1.093668e+00	-5.050154e+01
 2.106996e-01	 1.097607e+00	-4.312473e+01
 1.911691e-01	 1.101176e+00	-3.638991e+01
 1.811076e-01	 1.043220e+00	-2.892194e+01
 1.626518e-01	 1.046256e+00	-2.142731e+01
 1.442515e-01	 1.048951e+00	-1.296370e+01
 1.259151e-01	 1.051310e+00	-4.597364e+00
 1.076508e-01	 1.053337e+00	 2.647207e+00
 8.946642e-02	 1.055037e+00	 7.789703e+00
 1.831199e-01	 1.054811e+00	-3.041466e+01
 1.644590e-01	 1.057881e+00	-2.340981e+01
 1.458543e-01	 1.060606e+00	-1.553126e+01
 1.273142e-01	 1.062991e+00	-7.612651e+00
 1.088469e-01	 1.065041e+00	-4.528277e-01
 9.046050e-02	 1.066760e+00	 5.185856e+00
 1.851322e-01	 1.066402e+00	-3.300194e+01
 1.662663e-01	 1.069506e+00	-2.621572e+01
 1.474571e-01	 1.072261e+00	-1.841812e+01
 1.287132e-01	 1.074672e+00	-1.029395e+01
 1.100430e-01	 1.076744e+00	-2.942652e+00
 9.145457e-02	 1.078482e+00	 3.120632e+00
 1.871445e-01	 1.077994e+00	-3.432657e+01
 1.680735e-01	 1.081131e+00	-2.701901e+01
 1.490599e-01	 1.083916e+00	-1.938930e+01
 1.301123e-01	 1.086354e+00	-1.184993e+01
 1.112392e-01	 1.088448e+00	-4.790580e+00
 9.244864e-02	 1.090205e+00	 1.422004e+00
 1.891568e-01	 1.089585e+00	-3.487131e+01
 1.698807e-01	 1.092756e+00	-2.803442e+01
 1.506627e-01	 1.095571e+00	-2.085947e+01
 1.315114e-01	 1.098035e+00	-1.363370e+01
 1.124353e-01	 1.100152e+00	-6.626963e+00
 9.344271e-02	 1.101928e+00	-9.192189e-02
 1.911691e-01	 1.101176e+00	-3.638991e+01
 1.716880e-01	 1.104381e+00	-2.980203e+01
 1.522655e-01	 1.107226e+00	-2.282523e+01
 1.329104e-01	 1.109716e+00	-1.565587e+01
 1.136314e-01	 1.111856e+00	-8.477833e+00
 9.443678e-02	 1.113650e+00	-1.462966e+00
 8.946642e-02	 1.055037e+00	 7.789703e+00
 7.136958e-02	 1.056415e+00	 9.579667e+00
 5.336760e-02	 1.057478e+00	 8.301259e+00
 3.546754e-02	 1.058229e+00	 5.263106e+00
 1.767618e-02	 1.058676e+00	 1.709665e+00
 0.000000e+00	 1.058824e+00	-1.179639e+00
 9.046050e-02	 1.066760e+00	 5.185856e+00
 7.216257e-02	 1.068153e+00	 7.955788e+00
 5.396057e-02	 1.069227e+00	 7.893049e+00
 3.586163e-02	 1.069987e+00	 6.292013e+00
 1.787258e-02	 1.070439e+00	 4.383405e+00
 0.000000e+00	 1.070588e+00	 3.333426e+00
 9.145457e-02	 1.078482e+00	 3.120632e+00
 7.295557e-02	 1.079891e+00	 6.500579e+00
 5.455355e-02	 1.080977e+00	 7.025049e+00
 3.625571e-02	 1.081746e+00	 5.990551e+00
 1.806899e-02	 1.082202e+00	 4.631945e+00
 0.000000e+00	 1.082353e+00	 4.121379e+00
 9.244864e-02	 1.090205e+00	 1.422004e+00
 7.374856e-02	 1.091629e+00	 5.272444e+00
 5.514652e-02	 1.092727e+00	 6.300171e+00
 3.664980e-02	 1.093504e+00	 5.696908e+00
 1.826539e-02	 1.093965e+00	 4.598789e+00
 0.000000e+00	 1.094118e+00	 4.085460e+00
 9.344271e-02	 1.101928e+00	-9.192189e-02
 7.454156e-02	 1.103367e+00	 4.332835e+00
 5.573949e-02	 1.104477e+00	 5.886818e+00
 3.704388e-02	 1.105262e+00	 5.612626e+00
 1.846179e-02	 1.105728e+00	 4.506035e+00
 0.000000e+00	 1.105882e+00	 3.515337e+00
 9.443678e-02	 1.113650e+00	-1.462966e+00
 7.533455e-02	 1.115105e+00	 3.629820e+00
 5.633247e-02	 1.116227e+00	 5.734869e+00
 3.743796e-02	 1.117020e+00	 5.702684e+00
 1.865819e-02	 1.117491e+00	 4.348349e+00
 0.000000e+00	 1.117647e+00	 2.451203e+00
 1.117647e+00	 0.000000e+00	 7.701898e+01
 1.117491e+00	 1.865819e-02	 5.545581e+01
 1.117020e+00	 3.743796e-02	 4.150660e+01
 1.116227e+00	 5.633247e-02	 3.509023e+01
 1.115105e+00	 7.533455e-02	 3.608605e+01
 1.113650e+00	 9.443678e-02	 4.433284e+01
 1.129412e+00	 0.000000e+00	 7.415305e+01
 1.129254e+00	 1.885459e-02	 5.335876e+01
 1.128778e+00	 3.783205e-02	 3.977624e+01
 1.127976e+00	 5.692544e-02	 3.338339e+01
 1.126843e+00	 7.612755e-02	 3.413989e+01
 1.125373e+00	 9.543085e-02	 4.198676e+01
 1.141176e+00	 0.000000e+00	 7.245758e+01
 1.141017e+00	 1.905100e-02	 5.180723e+01
 1.140536e+00	 3.822613e-02	 3.818137e+01
 1.139726e+00	 5.751841e-02	 3.160074e+01
 1.138581e+00	 7.692054e-02	 3.208100e+01
 1.137095e+00	 9.642492e-02	 3.963265e+01
 1.152941e+00	 0.000000e+00	 7.145110e+01
 1.152781e+00	 1.924740e-02	 5.056707e+01
 1.152294e+00	 3.862022e-02	 3.666445e+01
 1.151476e+00	 5.811139e-02	 2.979098e+01
 1.150319e+00	 7.771354e-02	 2.999440e+01
 1.148818e+00	 9.741900e-02	 3.732247e+01
 1.164706e+00	 0.000000e+00	 7.067164e+01
 1.164544e+00	 1.944380e-02	 4.941363e+01
 1.164052e+00	 3.901430e-02	 3.517036e+01
 1.163226e+00	 5.870436e-02	 2.800095e+01
 1.162057e+00	 7.850653e-02	 2.796177e+01
 1.160541e+00	 9.841307e-02	 3.510627e+01
 1.176471e+00	 0.000000e+00	 6.967568e+01
 1.176307e+00	 1.964020e-02	 4.813127e+01
 1.175810e+00	 3.940838e-02	 3.364623e+01
 1.174975e+00	 5.929733e-02	 2.627572e+01
 1.173795e+00	 7.929953e-02	 2.606167e+01
 1.172263e+00	 9.940714e-02	 3.303224e+01
 1.113650e+00	 9.443678e-02	 4.433284e+01
 1.111856e+00	 1.136314e-01	 5.428214e+01
 1.109716e+00	 1.329104e-01	 6.063340e+01
 1.107226e+00	 1.522655e-01	 6.357841e+01
 1.104381e+00	 1.716880e-01	 6.332555e+01
 1.101176e+00	 1.911691e-01	 6.010000e+01
 1.125373e+00	 9.543085e-02	 4.198676e+01
 1.123559e+00	 1.148275e-01	 5.157286e+01
 1.121397e+00	 1.343095e-01	 5.769083e+01
 1.118881e+00	 1.538683e-01	 6.049064e+01
 1.116006e+00	 1.734952e-01	 6.013225e+01
 1.112768e+00	 1.931814e-01	 5.678591e+01
 1.137095e+00	 9.642492e-02	 3.963265e+01
 1.135263e+00	 1.160237e-01	 4.898100e+01
 1.133079e+00	 1.357085e-01	 5.492249e+01
 1.130536e+00	 1.554711e-01	 5.757483e+01
 1.127631e+00	 1.753025e-01	 5.706187e+01
 1.124359e+00	 1.951937e-01	 5.351382e+01
 1.148818e+00	 9.741900e-02	 3.732247e+01
 1.146967e+00	 1.172198e-01	 4.650145e+01
 1.144760e+00	 1.371076e-01	 5.228667e+01
 1.142191e+00	 1.570739e-01	 5.477301e+01
 1.139257e+00	 1.771097e-01	 5.406013e+01
 1.135950e+00	 1.972060e-01	 5.025281e+01
 1.160541e+00	 9.841307e-02	 3.510627e+01
 1.158671e+00	 1.184159e-01	 4.412948e+01
 1.156441e+00	 1.385066e-01	 4.974359e+01
 1.153846e+00	 1.586766e-01	 5.202979e+01
 1.150882e+00	 1.789169e-01	 5.107524e+01
 1.147542e+00	 1.992183e-01	 4.697353e+01
 1.172263e+00	 9.940714e-02	 3.303224e+01
 1.170374e+00	 1.196120e-01	 4.186075e+01
 1.168122e+00	 1.399057e-01	 4.725529e+01
 1.165501e+00	 1.602794e-01	 4.929227e+01
 1.162507e+00	 1.807242e-01	 4.805778e+01
 1.159133e+00	 2.012306e-01	 4.364814e+01
 1.101176e+00	 1.911691e-01	 6.010000e+01
 1.097607e+00	 2.106996e-01	 5.558104e+01
 1.093668e+00	 2.302702e-01	 5.132962e+01
 1.089357e+00	 2.498712e-01	 4.741014e+01
 1.084670e+00	 2.694927e-01	 4.389260e+01
 1.079603e+00	 2.891246e-01	 4.085298e+01
 1.112768e+00	 1.931814e-01	 5.678591e+01
 1.109161e+00	 2.129175e-01	 5.208402e+01
 1.105181e+00	 2.326941e-01	 4.759347e+01
 1.100824e+00	 2.525014e-01	 4.340115e+01
 1.096087e+00	 2.723295e-01	 3.960378e+01
 1.090967e+00	 2.921680e-01	 3.630836e+01
 1.124359e+00	 1.951937e-01	 5.351382e+01
 1.120714e+00	 2.151354e-01	 4.855838e+01
 1.116693e+00	 2.351180e-01	 4.379476e+01
 1.112291e+00	 2.551317e-01	 3.932436e+01
 1.107505e+00	 2.751662e-01	 3.526098e+01
 1.102331e+00	 2.952114e-01	 3.173120e+01
 1.135950e+00	 1.972060e-01	 5.025281e+01
 1.132268e+00	 2.173533e-01	 4.499983e+01
 1.128205e+00	 2.375419e-01	 3.994313e+01
 1.123758e+00	 2.577619e-01	 3.519087e+01
 1.118923e+00	 2.780030e-01	 3.086446e+01
 1.113695e+00	 2.982549e-01	 2.709894e+01
 1.147542e+00	 1.992183e-01	 4.697353e+01
 1.143822e+00	 2.195712e-01	 4.140462e+01
 1.139718e+00	 2.399658e-01	 3.604824e+01
 1.135225e+00	 2.603921e-01	 3.101175e+01
 1.130340e+00	 2.808398e-01	 2.641494e+01
 1.125060e+00	 3.012983e-01	 2.239043e+01
 1.159133e+00	 2.012306e-01	 4.364814e+01
 1.155376e+00	 2.217891e-01	 3.776952e+01
 1.151230e+00	 2.423897e-01	 3.211977e+01
 1.146692e+00	 2.630223e-01	 2.679806e+01
 1.141758e+00	 2.836765e-01	 2.191356e+01
 1.136424e+00	 3.043417e-01	 1.758583e+01
 1.079603e+00	 2.891246e-01	 4.085298e+01
 1.074153e+00	 3.087566e-01	 3.817479e+01
 1.068318e+00	 3.283780e-01	 3.561957e+01
 1.062095e+00	 3.479783e-01	 3.295632e+01
 1.055483e+00	 3.675465e-01	 3.110509e+01
 1.048480e+00	 3.870715e-01	 2.886376e+01
 1.090967e+00	 2.921680e-01	 3.630836e+01
 1.085460e+00	 3.120066e-01	 3.331785e+01
 1.079563e+00	 3.318347e-01	 3.033099e+01
 1.073275e+00	 3.516413e-01	 2.729090e+01
 1.066593e+00	 3.714154e-01	 2.613466e+01
 1.059517e+00	 3.911459e-01	 2.412970e+01
 1.102331e+00	 2.952114e-01	 3.173120e+01
 1.096767e+00	 3.152567e-01	 2.843594e+01
 1.090809e+00	 3.352913e-01	 2.495437e+01
 1.084455e+00	 3.553042e-01	 2.122521e+01
 1.077704e+00	 3.752843e-01	 2.086402e+01
 1.070553e+00	 3.952204e-01	 1.914172e+01
 1.113695e+00	 2.982549e-01	 2.709894e+01
 1.108073e+00	 3.185068e-01	 2.348296e+01
 1.102054e+00	 3.387479e-01	 1.947816e+01
 1.095635e+00	 3.589671e-01	 1.554134e+01
 1.088814e+00	 3.791532e-01	 1.562857e+01
 1.081590e+00	 3.992948e-01	 1.379241e+01
 1.125060e+00	 3.012983e-01	 2.239043e+01
 1.119380e+00	 3.217568e-01	 1.841516e+01
 1.113300e+00	 3.422045e-01	 1.384580e+01
 1.106815e+00	 3.626300e-01	 1.043232e+01
 1.099924e+00	 3.830221e-01	 1.048497e+01
 1.092627e+00	 4.033692e-01	 8.485531e+00
 1.136424e+00	 3.043417e-01	 1.758583e+01
 1.130687e+00	 3.250069e-01	 1.319104e+01
 1.124545e+00	 3.456611e-01	 8.003564e+00
 1.117995e+00	 3.662930e-01	 5.378515e+00
 1.111035e+00	 3.868910e-01	 5.348944e+00
 1.103663e+00	 4.074437e-01	 3.172916e+00
 1.048480e+00	 3.870715e-01	 2.886376e+01
 1.041085e+00	 4.065421e-01	 2.566095e+01
 1.033298e+00	 4.259471e-01	 2.230974e+01
 1.025117e+00	 4.452749e-01	 1.889687e+01
 1.016544e+00	 4.645141e-01	 1.554587e+01
 1.007579e+00	 4.836530e-01	 1.241767e+01
 1.059517e+00	 3.911459e-01	 2.412970e+01
 1.052044e+00	 4.108215e-01	 2.106417e+01
 1.044174e+00	 4.304307e-01	 1.789493e+01
 1.035908e+00	 4.499620e-01	 1.467817e+01
 1.027244e+00	 4.694037e-01	 1.150080e+01
 1.018185e+00	 4.887441e-01	 8.481074e+00
 1.070553e+00	 3.952204e-01	 1.914172e+01
 1.063003e+00	 4.151009e-01	 1.620749e+01
 1.055051e+00	 4.349144e-01	 1.318983e+01
 1.046699e+00	 4.546491e-01	 1.011882e+01
 1.037945e+00	 4.742933e-01	 7.050325e+00
 1.028791e+00	 4.938352e-01	 4.066645e+00
 1.081590e+00	 3.992948e-01	 1.379241e+01
 1.073962e+00	 4.193803e-01	 1.102000e+01
 1.065928e+00	 4.393980e-01	 8.220339e+00
 1.057489e+00	 4.593362e-01	 5.285561e+00
 1.048645e+00	 4.791829e-01	 2.309908e+00
 1.039397e+00	 4.989262e-01	-6.536574e-01
 1.092627e+00	 4.033692e-01	 8.485531e+00
 1.084920e+00	 4.236597e-01	 5.539839e+00
 1.076805e+00	 4.438817e-01	 2.866784e+00
 1.068280e+00	 4.640233e-01	 2.435037e-01
 1.059346e+00	 4.840725e-01	-2.608553e+00
 1.050003e+00	 5.040173e-01	-5.513714e+00
 1.103663e+00	 4.074437e-01	 3.172916e+00
 1.095879e+00	 4.279391e-01	 6.205902e-02
 1.087682e+00	 4.483653e-01	-2.684529e+00
 1.079071e+00	 4.687104e-01	-5.179512e+00
 1.070046e+00	 4.889622e-01	-7.596566e+00
 1.060609e+00	 5.091084e-01	-1.035295e+01
 1.007579e+00	 4.836530e-01	 1.241767e+01
 9.982223e-01	 5.026801e-01	 8.839393e+00
 9.884764e-01	 5.215836e-01	 4.041147e+00
 9.783428e-01	 5.403519e-01	-1.919571e+00
 9.678242e-01	 5.589734e-01	-8.966573e+00
 9.569232e-01	 5.774365e-01	-1.700465e+01
 1.018185e+00	 4.887441e-01	 8.481074e+00
 1.008730e+00	 5.079714e-01	 4.869852e+00
 9.988814e-01	 5.270740e-01	-1.196362e-01
 9.886412e-01	 5.460399e-01	-6.379198e+00
 9.780118e-01	 5.648574e-01	-1.377019e+01
 9.669961e-01	 5.835147e-01	-2.212326e+01
 1.028791e+00	 4.938352e-01	 4.066645e+00
 1.019237e+00	 5.132628e-01	 3.983861e-01
 1.009286e+00	 5.325643e-01	-4.715975e+00
 9.989395e-01	 5.517278e-01	-1.113376e+01
 9.881994e-01	 5.707413e-01	-1.867409e+01
 9.770690e-01	 5.895930e-01	-2.711774e+01
 1.039397e+00	 4.989262e-01	-6.536574e-01
 1.029745e+00	 5.185542e-01	-4.356869e+00
 1.019691e+00	 5.380547e-01	-9.511581e+00
 1.009238e+00	 5.574157e-01	-1.595640e+01
 9.983871e-01	 5.766252e-01	-2.348792e+01
 9.871419e-01	 5.956713e-01	-3.186066e+01
 1.050003e+00	 5.040173e-01	-5.513714e+00
 1.040253e+00	 5.238455e-01	-9.185457e+00
 1.030096e+00	 5.435450e-01	-1.427856e+01
 1.019536e+00	 5.631036e-01	-2.062826e+01
 1.008575e+00	 5.825091e-01	-2.802783e+01
 9.972147e-01	 6.017496e-01	-3.622855e+01
 1.060609e+00	 5.091084e-01	-1.035295e+01
 1.050760e+00	 5.291369e-01	-1.388422e+01
 1.040501e+00	 5.490354e-01	-1.879701e+01
 1.029835e+00	 5.687915e-01	-2.493810e+01
 1.018762e+00	 5.883931e-01	-3.211616e+01
 1.007288e+00	 6.078278e-01	-4.010171e+01
 9.569232e-01	 5.774365e-01	-1.700465e+01
 9.456434e-01	 5.957295e-01	-2.596854e+01
 9.339883e-01	 6.138410e-01	-3.560782e+01
 9.219624e-01	 6.317597e-01	-4.551180e+01
 9.095703e-01	 6.494743e-01	-5.524001e+01
 8.968171e-01	 6.669737e-01	-6.432397e+01
 9.669961e-01	 5.835147e-01	-2.212326e+01
 9.555975e-01	 6.020003e-01	-3.130811e+01
 9.438198e-01	 6.203025e-01	-4.110090e+01
 9.316673e-01	 6.384098e-01	-5.115205e+01
 9.191447e-01	 6.563109e-01	-6.109054e+01
 9.062573e-01	 6.739945e-01	-7.052547e+01
 9.770690e-01	 5.895930e-01	-2.711774e+01
 9.655516e-01	 6.082711e-01	-3.634520e+01
 9.536512e-01	 6.267640e-01	-4.621184e+01
 9.413721e-01	 6.450599e-01	-5.641895e+01
 9.287191e-01	 6.631474e-01	-6.665143e+01
 9.156975e-01	 6.810153e-01	-7.657903e+01
 9.871419e-01	 5.956713e-01	-3.186066e+01
 9.755058e-01	 6.145420e-01	-4.101672e+01
 9.634827e-01	 6.332255e-01	-5.091887e+01
 9.510770e-01	 6.517100e-01	-6.130943e+01
 9.382935e-01	 6.699840e-01	-7.191602e+01
 9.251377e-01	 6.880361e-01	-8.245264e+01
 9.972147e-01	 6.017496e-01	-3.622855e+01
 9.854599e-01	 6.208128e-01	-4.526094e+01
 9.733141e-01	 6.396869e-01	-5.519991e+01
 9.607819e-01	 6.583601e-01	-6.581931e+01
 9.478680e-01	 6.768206e-01	-7.687671e+01
 9.345779e-01	 6.950568e-01	-8.811439e+01
 1.007288e+00	 6.078278e-01	-4.010171e+01
 9.954141e-01	 6.270836e-01	-4.901739e+01
 9.831456e-01	 6.461484e-01	-5.903259e+01
 9.704867e-01	 6.650102e-01	-6.994342e+01
 9.574424e-01	 6.836572e-01	-8.152503e+01
 9.440180e-01	 7.020776e-01	-9.353245e+01
 8.968171e-01	 6.669737e-01	-6.432397e+01
 8.837086e-01	 6.842471e-01	-7.276802e+01
 8.702506e-01	 7.012837e-01	-8.107782e+01
 8.564497e-01	 7.180730e-01	-8.578272e+01
 8.423128e-01	 7.346048e-01	-7.893089e+01
 8.278471e-01	 7.508689e-01	-7.439665e+01
 9.062573e-01	 6.739945e-01	-7.052547e+01
 8.930108e-01	 6.914497e-01	-7.964586e+01
 8.794111e-01	 7.086656e-01	-8.901589e+01
 8.654650e-01	 7.256317e-01	-8.739707e+01
 8.511792e-01	 7.423374e-01	-8.173516e+01
 8.365612e-01	 7.587728e-01	-7.834709e+01
 9.156975e-01	 6.810153e-01	-7.657903e+01
 9.023130e-01	 6.986523e-01	-8.649956e+01
 8.885717e-01	 7.160476e-01	-9.515605e+01
 8.744802e-01	 7.331903e-01	-8.883830e+01
 8.600457e-01	 7.500701e-01	-8.425106e+01
 8.452754e-01	 7.666767e-01	-8.183546e+01
 9.251377e-01	 6.880361e-01	-8.245264e+01
 9.116152e-01	 7.058549e-01	-9.326941e+01
 8.977322e-01	 7.234295e-01	-9.539458e+01
 8.834955e-01	 7.407490e-01	-9.009631e+01
 8.689121e-01	 7.578028e-01	-8.648946e+01
 8.539896e-01	 7.745806e-01	-8.490934e+01
 9.345779e-01	 6.950568e-01	-8.811439e+01
 9.209173e-01	 7.130575e-01	-9.989692e+01
 9.068927e-01	 7.308114e-01	-9.547774e+01
 8.925108e-01	 7.483077e-01	-9.116252e+01
 8.777786e-01	 7.655355e-01	-8.846182e+01
 8.627038e-01	 7.824845e-01	-8.761545e+01
 9.440180e-01	 7.020776e-01	-9.353245e+01
 9.302195e-01	 7.202601e-01	-1.001248e+02
 9.160533e-01	 7.381934e-01	-9.539387e+01
 9.015260e-01	 7.558663e-01	-9.202971e+01
 8.866450e-01	 7.732682e-01	-9.018019e+01
 8.714180e-01	 7.903884e-01	-8.999965e+01
 8.278471e-01	 7.508689e-01	-7.439665e+01
 8.130603e-01	 7.668559e-01	-7.139916e+01
 7.979605e-01	 7.825561e-01	-6.851972e+01
 7.825561e-01	 7.979605e-01	-6.549435e+01
 7.668559e-01	 8.130603e-01	-6.203499e+01
 7.508689e-01	 8.278471e-01	-5.783088e+01
 8.365612e-01	 7.587728e-01	-7.834709e+01
 8.216188e-01	 7.749280e-01	-7.618547e+01
 8.063601e-01	 7.907935e-01	-7.371515e+01
 7.907935e-01	 8.063601e-01	-7.077135e+01
 7.749280e-01	 8.216188e-01	-6.717700e+01
 7.587728e-01	 8.365612e-01	-6.274348e+01
 8.452754e-01	 7.666767e-01	-8.183546e+01
 8.301773e-01	 7.830002e-01	-8.035447e+01
 8.147596e-01	 7.990309e-01	-7.821767e+01
 7.990309e-01	 8.147596e-01	-7.534622e+01
 7.830002e-01	 8.301773e-01	-7.165807e+01
 7.666767e-01	 8.452754e-01	-6.706820e+01
 8.539896e-01	 7.745806e-01	-8.490934e+01
 8.387359e-01	 7.910724e-01	-8.398848e+01
 8.231592e-01	 8.072684e-01	-8.212492e+01
 8.072684e-01	 8.231592e-01	-7.931294e+01
 7.910724e-01	 8.387359e-01	-7.555007e+01
 7.745806e-01	 8.539896e-01	-7.083682e+01
 8.627038e-01	 7.824845e-01	-8.761545e+01
 8.472944e-01	 7.991445e-01	-8.716750e+01
 8.315588e-01	 8.155058e-01	-8.553156e+01
 8.155058e-01	 8.315588e-01	-8.276265e+01
 7.991445e-01	 8.472944e-01	-7.892287e+01
 7.824845e-01	 8.627038e-01	-7.408078e+01
 8.714180e-01	 7.903884e-01	-8.999965e+01
 8.558529e-01	 8.072167e-01	-8.996932e+01
 8.399584e-01	 8.237432e-01	-8.852947e+01
 8.237432e-01	 8.399584e-01	-8.578382e+01
 8.072167e-01	 8.558529e-01	-8.184452e+01
 7.903884e-01	 8.714180e-01	-7.683117e+01
 7.508689e-01	 8.278471e-01	-5.783088e+01
 7.346048e-01	 8.423128e-01	-5.282631e+01
 7.180730e-01	 8.564497e-01	-4.748588e+01
 7.012837e-01	 8.702506e-01	-4.320933e+01
 6.842471e-01	 8.837086e-01	-4.003054e+01
 6.669737e-01	 8.968171e-01	-3.787135e+01
 7.587728e-01	 8.365612e-01	-6.274348e+01
 7.423374e-01	 8.511792e-01	-5.763121e+01
 7.256317e-01	 8.654650e-01	-5.239853e+01
 7.086656e-01	 8.794111e-01	-4.781552e+01
 6.914497e-01	 8.930108e-01	-4.480643e+01
 6.739945e-01	 9.062573e-01	-4.283629e+01
 7.666767e-01	 8.452754e-01	-6.706820e+01
 7.500701e-01	 8.600457e-01	-6.188900e+01
 7.331903e-01	 8.744802e-01	-5.673940e+01
 7.160476e-01	 8.885717e-01	-5.199650e+01
 6.986523e-01	 9.023130e-01	-4.903150e+01
 6.810153e-01	 9.156975e-01	-4.726019e+01
 7.745806e-01	 8.539896e-01	-7.083682e+01
 7.578028e-01	 8.689121e-01	-6.559479e+01
 7.407490e-01	 8.834955e-01	-6.049067e+01
 7.234295e-01	 8.977322e-01	-5.589869e+01
 7.058549e-01	 9.116152e-01	-5.269031e+01
 6.880361e-01	 9.251377e-01	-5.118187e+01
 7.824845e-01	 8.627038e-01	-7.408078e+01
 7.655355e-01	 8.777786e-01	-6.874480e+01
 7.483077e-01	 8.925108e-01	-6.363614e+01
 7.308114e-01	 9.068927e-01	-5.915293e+01
 7.130575e-01	 9.209173e-01	-5.576725e+01
 6.950568e-01	 9.345779e-01	-5.463782e+01
 7.903884e-01	 8.714180e-01	-7.683117e+01
 7.732682e-01	 8.866450e-01	-7.133627e+01
 7.558663e-01	 9.015260e-01	-6.616108e+01
 7.381934e-01	 9.160533e-01	-6.175357e+01
 7.202601e-01	 9.302195e-01	-5.857273e+01
 7.020776e-01	 9.440180e-01	-5.766232e+01
 6.669737e-01	 8.968171e-01	-3.787135e+01
 6.494743e-01	 9.095703e-01	-3.745981e+01
 6.317597e-01	 9.219624e-01	-3.907152e+01
 6.138410e-01	 9.339883e-01	-4.216673e+01
 5.957295e-01	 9.456434e-01	-4.619446e+01
 5.774365e-01	 9.569232e-01	-5.059602e+01
 6.739945e-01	 9.062573e-01	-4.283629e+01
 6.563109e-01	 9.191447e-01	-4.249826e+01
 6.384098e-01	 9.316673e-01	-4.405895e+01
 6.203025e-01	 9.438198e-01	-4.707992e+01
 6.020003e-01	 9.555975e-01	-5.112020e+01
 5.835147e-01	 9.669961e-01	-5.573915e+01
 6.810153e-01	 9.156975e-01	-4.726019e+01
 6.631474e-01	 9.287191e-01	-4.710179e+01
 6.450599e-01	 9.413721e-01	-4.881490e+01
 6.267640e-01	 9.536512e-01	-5.199929e+01
 6.082711e-01	 9.655516e-01	-5.625652e+01
 5.895930e-01	 9.770690e-01	-6.119243e+01
 6.880361e-01	 9.251377e-01	-5.118187e+01
 6.699840e-01	 9.382935e-01	-5.135498e+01
 6.517100e-01	 9.510770e-01	-5.343386e+01
 6.332255e-01	 9.634827e-01	-5.699537e+01
 6.145420e-01	 9.755058e-01	-6.161810e+01
 5.956713e-01	 9.871419e-01	-6.688510e+01
 6.950568e-01	 9.345779e-01	-5.463782e+01
 6.768206e-01	 9.478680e-01	-5.533829e+01
 6.583601e-01	 9.607819e-01	-5.800580e+01
 6.396869e-01	 9.733141e-01	-6.213512e+01
 6.208128e-01	 9.854599e-01	-6.721844e+01
 6.017496e-01	 9.972147e-01	-7.274865e+01
 7.020776e-01	 9.440180e-01	-5.766232e+01
 6.836572e-01	 9.574424e-01	-5.912822e+01
 6.650102e-01	 9.704867e-01	-6.261644e+01
 6.461484e-01	 9.831456e-01	-6.748223e+01
 6.270836e-01	 9.954141e-01	-7.306984e+01
 6.078278e-01	 1.007288e+00	-7.871675e+01
 5.774365e-01	 9.569232e-01	-5.059602e+01
 5.589734e-01	 9.678242e-01	-5.536545e+01
 5.403519e-01	 9.783428e-01	-6.070059e+01
 5.215836e-01	 9.884764e-01	-6.635396e+01
 5.026801e-01	 9.982223e-01	-7.209134e+01
 4.836530e-01	 1.007579e+00	-7.769289e+01
 5.835147e-01	 9.669961e-01	-5.573915e+01
 5.648574e-01	 9.780118e-01	-6.102209e+01
 5.460399e-01	 9.886412e-01	-6.706053e+01
 5.270740e-01	 9.988814e-01	-7.342668e+01
 5.079714e-01	 1.008730e+00	-7.969689e+01
 4.887441e-01	 1.018185e+00	-8.545410e+01
 5.895930e-01	 9.770690e-01	-6.119243e+01
 5.707413e-01	 9.881994e-01	-6.688620e+01
 5.517278e-01	 9.989395e-01	-7.334797e+01
 5.325643e-01	 1.009286e+00	-8.008331e+01
 5.132628e-01	 1.019237e+00	-8.659808e+01
 4.938352e-01	 1.028791e+00	-9.240136e+01
 5.956713e-01	 9.871419e-01	-6.688510e+01
 5.766252e-01	 9.983871e-01	-7.281333e+01
 5.574157e-01	 1.009238e+00	-7.939411e+01
 5.380547e-01	 1.019691e+00	-8.617643e+01
 5.185542e-01	 1.029745e+00	-9.271085e+01
 4.989262e-01	 1.039397e+00	-9.855214e+01
 6.017496e-01	 9.972147e-01	-7.274865e+01
 5.825091e-01	 1.008575e+00	-7.866430e+01
 5.631036e-01	 1.019536e+00	-8.503646e+01
 5.435450e-01	 1.030096e+00	-9.156411e+01
 5.238455e-01	 1.040253e+00	-9.795408e+01
 5.040173e-01	 1.050003e+00	-1.039228e+02
 6.078278e-01	 1.007288e+00	-7.871675e+01
 5.883931e-01	 1.018762e+00	-8.430496e+01
 5.687915e-01	 1.029835e+00	-9.011851e+01
 5.490354e-01	 1.040501e+00	-9.610959e+01
 5.291369e-01	 1.050760e+00	-1.022495e+02
 5.091084e-01	 1.060609e+00	-1.085285e+02
 4.836530e-01	 1.007579e+00	-7.769289e+01
 4.645141e-01	 1.016544e+00	-8.256122e+01
 4.452749e-01	 1.025117e+00	-8.628443e+01
 4.259471e-01	 1.033298e+00	-8.894595e+01
 4.065421e-01	 1.041085e+00	-9.064682e+01
 3.870715e-01	 1.048480e+00	-9.150502e+01
 4.887441e-01	 1.018185e+00	-8.545410e+01
 4.694037e-01	 1.027244e+00	-9.002071e+01
 4.499620e-01	 1.035908e+00	-9.317531e+01
 4.304307e-01	 1.044174e+00	-9.521099e+01
 4.108215e-01	 1.052044e+00	-9.644532e+01
 3.911459e-01	 1.059517e+00	-9.721834e+01
 4.938352e-01	 1.028791e+00	-9.240136e+01
 4.742933e-01	 1.037945e+00	-9.687017e+01
 4.546491e-01	 1.046699e+00	-9.993526e+01
 4.349144e-01	 1.055051e+00	-1.019623e+02
 4.151009e-01	 1.063003e+00	-1.033440e+02
 3.952204e-01	 1.070553e+00	-1.044977e+02
 4.989262e-01	 1.039397e+00	-9.855214e+01
 4.791829e-01	 1.048645e+00	-1.032201e+02
 4.593362e-01	 1.057489e+00	-1.067182e+02
 4.393980e-01	 1.065928e+00	-1.093518e+02
 4.193803e-01	 1.073962e+00	-1.087853e+02
 3.992948e-01	 1.081590e+00	-1.030373e+02
 5.040173e-01	 1.050003e+00	-1.039228e+02
 4.840725e-01	 1.059346e+00	-1.091761e+02
 4.640233e-01	 1.068280e+00	-1.136713e+02
 4.438817e-01	 1.076805e+00	-1.117022e+02
 4.236597e-01	 1.084920e+00	-1.065741e+02
 4.033692e-01	 1.092627e+00	-1.021292e+02
 5.091084e-01	 1.060609e+00	-1.085285e+02
 4.889622e-01	 1.070046e+00	-1.148393e+02
 4.687104e-01	 1.079071e+00	-1.125430e+02
 4.483653e-01	 1.087682e+00	-1.089384e+02
 4.279391e-01	 1.095879e+00	-1.056305e+02
 4.074437e-01	 1.103663e+00	-1.026933e+02
 3.870715e-01	 1.048480e+00	-9.150502e+01
 3.675465e-01	 1.055483e+00	-9.148605e+01
 3.479783e-01	 1.062095e+00	-8.979761e+01
 3.283780e-01	 1.068318e+00	-8.684666e+01
 3.087566e-01	 1.074153e+00	-8.133669e+01
 2.891246e-01	 1.079603e+00	-7.371874e+01
 3.911459e-01	 1.059517e+00	-9.721834e+01
 3.714154e-01	 1.066593e+00	-9.758702e+01
 3.516413e-01	 1.073275e+00	-9.510604e+01
 3.318347e-01	 1.079563e+00	-8.764761e+01
 3.120066e-01	 1.085460e+00	-8.075100e+01
 2.921680e-01	 1.090967e+00	-7.409114e+01
 3.952204e-01	 1.070553e+00	-1.044977e+02
 3.752843e-01	 1.077704e+00	-9.939544e+01
 3.553042e-01	 1.084455e+00	-9.361437e+01
 3.352913e-01	 1.090809e+00	-8.699840e+01
 3.152567e-01	 1.096767e+00	-8.085216e+01
 2.952114e-01	 1.102331e+00	-7.474911e+01
 3.992948e-01	 1.081590e+00	-1.030373e+02
 3.791532e-01	 1.088814e+00	-9.806820e+01
 3.589671e-01	 1.095635e+00	-9.329928e+01
 3.387479e-01	 1.102054e+00	-8.733089e+01
 3.185068e-01	 1.108073e+00	-8.153090e+01
 2.982549e-01	 1.113695e+00	-7.560991e+01
 4.033692e-01	 1.092627e+00	-1.021292e+02
 3.830221e-01	 1.099924e+00	-9.816087e+01
 3.626300e-01	 1.106815e+00	-9.403602e+01
 3.422045e-01	 1.113300e+00	-8.853577e+01
 3.217568e-01	 1.119380e+00	-8.268231e+01
 3.012983e-01	 1.125060e+00	-7.659407e+01
 4.074437e-01	 1.103663e+00	-1.026933e+02
 3.868910e-01	 1.111035e+00	-9.963708e+01
 3.662930e-01	 1.117995e+00	-9.587523e+01
 3.456611e-01	 1.124545e+00	-9.050799e+01
 3.250069e-01	 1.130687e+00	-8.420559e+01
 3.043417e-01	 1.136424e+00	-7.762520e+01
 2.891246e-01	 1.079603e+00	-7.371874e+01
 2.694927e-01	 1.084670e+00	-6.608182e+01
 2.498712e-01	 1.089357e+00	-5.824730e+01
 2.302702e-01	 1.093668e+00	-5.050154e+01
 2.106996e-01	 1.097607e+00	-4.312473e+01
 1.911691e-01	 1.101176e+00	-3.638991e+01
 2.921680e-01	 1.090967e+00	-7.409114e+01
 2.723295e-01	 1.096087e+00	-6.709035e+01
 2.525014e-01	 1.100824e+00	-5.963731e+01
 2.326941e-01	 1.105181e+00	-5.209991e+01
 2.129175e-01	 1.109161e+00	-4.484042e+01
 1.931814e-01	 1.112768e+00	-3.821404e+01
 2.952114e-01	 1.102331e+00	-7.474911e+01
 2.751662e-01	 1.107505e+00	-6.809148e+01
 2.551317e-01	 1.112291e+00	-6.084670e+01
 2.351180e-01	 1.116693e+00	-5.342945e+01
 2.151354e-01	 1.120714e+00	-4.624936e+01
 1.951937e-01	 1.124359e+00	-3.970925e+01
 2.982549e-01	 1.113695e+00	-7.560991e+01
 2.780030e-01	 1.118923e+00	-6.903527e+01
 2.577619e-01	 1.123758e+00	-6.185189e+01
 2.375419e-01	 1.128205e+00	-5.448761e+01
 2.173533e-01	 1.132268e+00	-4.736577e+01
 1.972060e-01	 1.135950e+00	-4.090337e+01
 3.012983e-01	 1.125060e+00	-7.659407e+01
 2.808398e-01	 1.130340e+00	-6.987375e+01
 2.603921e-01	 1.135225e+00	-6.263023e+01
 2.399658e-01	 1.139718e+00	-5.527191e+01
 2.195712e-01	 1.143822e+00	-4.820326e+01
 1.992183e-01	 1.147542e+00	-4.182305e+01
 3.043417e-01	 1.136424e+00	-7.762520e+01
 2.836765e-01	 1.141758e+00	-7.056081e+01
 2.630223e-01	 1.146692e+00	-6.315990e+01
 2.423897e-01	 1.151230e+00	-5.577988e+01
 2.217891e-01	 1.155376e+00	-4.877482e+01
 2.012306e-01	 1.159133e+00	-4.249383e+01
 1.911691e-01	 1.101176e+00	-3.638991e+01
 1.716880e-01	 1.104381e+00	-2.980203e+01
 1.522655e-01	 1.107226e+00	-2.282523e+01
 1.329104e-01	 1.109716e+00	-1.565587e+01
 1.136314e-01	 1.111856e+00	-8.477833e+00
 9.443678e-02	 1.113650e+00	-1.462966e+00
 1.931814e-01	 1.112768e+00	-3.821404e+01
 1.734952e-01	 1.116006e+00	-3.174974e+01
 1.538683e-01	 1.118881e+00	-2.483669e+01
 1.343095e-01	 1.121397e+00	-1.760762e+01
 1.148275e-01	 1.123559e+00	-1.018683e+01
 9.543085e-02	 1.125373e+00	-2.690823e+00
 1.951937e-01	 1.124359e+00	-3.970925e+01
 1.753025e-01	 1.127631e+00	-3.334083e+01
 1.554711e-01	 1.130536e+00	-2.647415e+01
 1.357085e-01	 1.133079e+00	-1.919883e+01
 1.160237e-01	 1.135263e+00	-1.159891e+01
 9.642492e-02	 1.137095e+00	-3.753430e+00
 1.972060e-01	 1.135950e+00	-4.090337e+01
 1.771097e-01	 1.139257e+00	-3.461260e+01
 1.570739e-01	 1.142191e+00	-2.777822e+01
 1.371076e-01	 1.144760e+00	-2.046666e+01
 1.172198e-01	 1.146967e+00	-1.274035e+01
 9.741900e-02	 1.148818e+00	-4.658366e+00
 1.992183e-01	 1.147542e+00	-4.182305e+01
 1.789169e-01	 1.150882e+00	-3.560083e+01
 1.586766e-01	 1.153846e+00	-2.878783e+01
 1.385066e-01	 1.156441e+00	-2.144669e+01
 1.184159e-01	 1.158671e+00	-1.363637e+01
 9.841307e-02	 1.160541e+00	-5.412873e+00
 2.012306e-01	 1.159133e+00	-4.249383e+01
 1.807242e-01	 1.162507e+00	-3.633980e+01
 1.602794e-01	 1.165501e+00	-2.954032e+01
 1.399057e-01	 1.168122e+00	-2.217304e+01
 1.196120e-01	 1.170374e+00	-1.431112e+01
 9.940714e-02	 1.172263e+00	-6.023873e+00
 9.443678e-02	 1.113650e+00	-1.462966e+00
 7.533455e-02	 1.115105e+00	 3.629820e+00
 5.633247e-02	 1.116227e+00	 5.734869e+00
 3.743796e-02	 1.117020e+00	 5.702684e+00
 1.865819e-02	 1.117491e+00	 4.348349e+00
 0.000000e+00	 1.117647e+00	 2.451203e+00
 9.543085e-02	 1.125373e+00	-2.690823e+00
 7.612755e-02	 1.126843e+00	 3.022037e+00
 5.692544e-02	 1.127976e+00	 5.624013e+00
 3.783205e-02	 1.128778e+00	 5.781930e+00
 1.885459e-02	 1.129254e+00	 4.138267e+00
 0.000000e+00	 1.129412e+00	 1.311149e+00
 9.642492e-02	 1.137095e+00	-3.753430e+00
 7.692054e-02	 1.138581e+00	 2.407578e+00
 5.751841e-02	 1.139726e+00	 5.373514e+00
 3.822613e-02	 1.140536e+00	 5.685298e+00
 1.905100e-02	 1.141017e+00	 3.867357e+00
 0.000000e+00	 1.141176e+00	 4.278292e-01
 9.741900e-02	 1.148818e+00	-4.658366e+00
 7.771354e-02	 1.150319e+00	 1.795093e+00
 5.811139e-02	 1.151476e+00	 4.993890e+00
 3.862022e-02	 1.152294e+00	 5.409130e+00
 1.924740e-02	 1.152781e+00	 3.500136e+00
 0.000000e+00	 1.152941e+00	-2.852464e-01
 9.841307e-02	 1.160541e+00	-5.412873e+00
 7.850653e-02	 1.162057e+00	 1.192909e+00
 5.870436e-02	 1.163226e+00	 4.495252e+00
 3.901430e-02	 1.164052e+00	 4.949930e+00
 1.944380e-02	 1.164544e+00	 3.002563e+00
 0.000000e+00	 1.164706e+00	-9.110753e-01
 9.940714e-02	 1.172263e+00	-6.023873e+00
 7.929953e-02	 1.173795e+00	 6.090385e-01
 5.929733e-02	 1.174975e+00	 3.887324e+00
 3.940838e-02	 1.175810e+00	 4.304353e+00
 1.964020e-02	 1.176307e+00	 2.341962e+00
 0.000000e+00	 1.176471e+00	-1.529334e+00
 1.176471e+00	 0.000000e+00	 6.967568e+01
 1.176307e+00	 1.964020e-02	 4.813127e+01
 1.175810e+00	 3.940838e-02	 3.364623e+01
 1.174975e+00	 5.929733e-02	 2.627572e+01
 1.173795e+00	 7.929953e-02	 2.606167e+01
 1.172263e+00	 9.940714e-02	 3.303224e+01
 1.188235e+00	 0.000000e+00	 6.815019e+01
 1.188070e+00	 1.983660e-02	 4.663826e+01
 1.187568e+00	 3.980247e-02	 3.215172e+01
 1.186725e+00	 5.989031e-02	 2.473415e+01
 1.185533e+00	 8.009253e-02	 2.440373e+01
 1.183986e+00	 1.004012e-01	 3.115208e+01
 1.200000e+00	 0.000000e+00	 6.618332e+01
 1.199833e+00	 2.003301e-02	 4.502663e+01
 1.199327e+00	 4.019655e-02	 3.075870e+01
 1.198475e+00	 6.048328e-02	 2.341159e+01
 1.197271e+00	 8.088552e-02	 2.298375e+01
 1.195709e+00	 1.013953e-01	 2.943857e+01
 1.211765e+00	 0.000000e+00	 6.394172e+01
 1.211596e+00	 2.022941e-02	 4.334646e+01
 1.211085e+00	 4.059063e-02	 2.943529e+01
 1.210225e+00	 6.107625e-02	 2.222894e+01
 1.209009e+00	 8.167852e-02	 2.171019e+01
 1.207431e+00	 1.023894e-01	 2.782241e+01
 1.223529e+00	 0.000000e+00	 6.158559e+01
 1.223359e+00	 2.042581e-02	 4.164590e+01
 1.222843e+00	 4.098472e-02	 2.815091e+01
 1.221974e+00	 6.166923e-02	 2.111024e+01
 1.220747e+00	 8.247151e-02	 2.049518e+01
 1.219154e+00	 1.033834e-01	 2.623715e+01
 1.235294e+00	 0.000000e+00	 5.926905e+01
 1.235122e+00	 2.062221e-02	 3.997131e+01
 1.234601e+00	 4.137880e-02	 2.687618e+01
 1.233724e+00	 6.226220e-02	 1.998254e+01
 1.232485e+00	 8.326451e-02	 1.925429e+01
 1.230876e+00	 1.043775e-01	 2.461901e+01
 1.172263e+00	 9.940714e-02	 3.303224e+01
 1.170374e+00	 1.196120e-01	 4.186075e+01
 1.168122e+00	 1.399057e-01	 4.725529e+01
 1.165501e+00	 1.602794e-01	 4.929227e+01
 1.162507e+00	 1.807242e-01	 4.805778e+01
 1.159133e+00	 2.012306e-01	 4.364814e+01
 1.183986e+00	 1.004012e-01	 3.115208e+01
 1.182078e+00	 1.208081e-01	 3.969016e+01
 1.179803e+00	 1.413048e-01	 4.479202e+01
 1.177156e+00	 1.618822e-01	 4.653341e+01
 1.174132e+00	 1.825314e-01	 4.500396e+01
 1.170724e+00	 2.032429e-01	 4.030795e+01
 1.195709e+00	 1.013953e-01	 2.943857e+01
 1.193782e+00	 1.220043e-01	 3.759131e+01
 1.191485e+00	 1.427038e-01	 4.234121e+01
 1.188811e+00	 1.634850e-01	 4.376268e+01
 1.185757e+00	 1.843387e-01	 4.194698e+01
 1.182316e+00	 2.052552e-01	 3.700313e+01
 1.207431e+00	 1.023894e-01	 2.782241e+01
 1.205486e+00	 1.232004e-01	 3.552940e+01
 1.203166e+00	 1.441029e-01	 3.989242e+01
 1.200466e+00	 1.650878e-01	 4.098384e+01
 1.197382e+00	 1.861459e-01	 3.889465e+01
 1.193907e+00	 2.072675e-01	 3.373544e+01
 1.219154e+00	 1.033834e-01	 2.623715e+01
 1.217189e+00	 1.243965e-01	 3.347119e+01
 1.214847e+00	 1.455019e-01	 3.743582e+01
 1.212121e+00	 1.666906e-01	 3.820074e+01
 1.209007e+00	 1.879532e-01	 3.585476e+01
 1.205498e+00	 2.092798e-01	 3.050688e+01
 1.230876e+00	 1.043775e-01	 2.461901e+01
 1.228893e+00	 1.255926e-01	 3.138485e+01
 1.226528e+00	 1.469010e-01	 3.496221e+01
 1.223776e+00	 1.682934e-01	 3.541737e+01
 1.220632e+00	 1.897604e-01	 3.283510e+01
 1.217090e+00	 2.112921e-01	 2.731969e+01
 1.159133e+00	 2.012306e-01	 4.364814e+01
 1.155376e+00	 2.217891e-01	 3.776952e+01
 1.151230e+00	 2.423897e-01	 3.211977e+01
 1.146692e+00	 2.630223e-01	 2.679806e+01
 1.141758e+00	 2.836765e-01	 2.191356e+01
 1.136424e+00	 3.043417e-01	 1.758583e+01
 1.170724e+00	 2.032429e-01	 4.030795e+01
 1.166929e+00	 2.240070e-01	 3.415401e+01
 1.162742e+00	 2.448136e-01	 2.822858e+01
 1.158159e+00	 2.656526e-01	 2.261924e+01
 1.153175e+00	 2.865133e-01	 1.742071e+01
 1.147788e+00	 3.073851e-01	 1.273517e+01
 1.182316e+00	 2.052552e-01	 3.700313e+01
 1.178483e+00	 2.262249e-01	 3.061469e+01
 1.174254e+00	 2.472375e-01	 2.443195e+01
 1.169626e+00	 2.682828e-01	 1.853142e+01
 1.164593e+00	 2.893501e-01	 1.299458e+01
 1.159152e+00	 3.104285e-01	 7.908127e+00
 1.193907e+00	 2.072675e-01	 3.373544e+01
 1.190037e+00	 2.284428e-01	 2.714479e+01
 1.185767e+00	 2.496614e-01	 2.071975e+01
 1.181093e+00	 2.709130e-01	 1.452628e+01
 1.176010e+00	 2.921868e-01	 8.633764e+00
 1.170517e+00	 3.134720e-01	 3.115301e+00
 1.205498e+00	 2.092798e-01	 3.050688e+01
 1.201591e+00	 2.306606e-01	 2.373816e+01
 1.197279e+00	 2.520853e-01	 1.708263e+01
 1.192560e+00	 2.735432e-01	 1.059620e+01
 1.187428e+00	 2.950236e-01	 4.337331e+00
 1.181881e+00	 3.165154e-01	-1.632643e+00
 1.217090e+00	 2.112921e-01	 2.731969e+01
 1.213144e+00	 2.328785e-01	 2.038922e+01
 1.208791e+00	 2.545092e-01	 1.351196e+01
 1.204026e+00	 2.761734e-01	 6.734266e+00
 1.198846e+00	 2.978604e-01	 1.048204e-01
 1.193245e+00	 3.195588e-01	-6.324992e+00
 1.136424e+00	 3.043417e-01	 1.758583e+01
 1.130687e+00	 3.250069e-01	 1.319104e+01
 1.124545e+00	 3.456611e-01	 8.003564e+00
 1.117995e+00	 3.662930e-01	 5.378515e+00
 1.111035e+00	 3.868910e-01	 5.348944e+00
 1.103663e+00	 4.074437e-01	 3.172916e+00
 1.147788e+00	 3.073851e-01	 1.273517e+01
 1.141994e+00	 3.282570e-01	 7.861773e+00
 1.135790e+00	 3.491177e-01	 2.020418e+00
 1.129175e+00	 3.699559e-01	 4.464458e-01
 1.122145e+00	 3.907600e-01	 3.209393e-01
 1.114700e+00	 4.115181e-01	-2.012530e+00
 1.159152e+00	 3.104285e-01	 7.908127e+00
 1.153301e+00	 3.315071e-01	 2.519850e+00
 1.147036e+00	 3.525743e-01	-3.982242e+00
 1.140355e+00	 3.736188e-01	-4.244323e+00
 1.133256e+00	 3.946289e-01	-4.455166e+00
 1.125737e+00	 4.155926e-01	-6.914100e+00
 1.170517e+00	 3.134720e-01	 3.115301e+00
 1.164608e+00	 3.347571e-01	-2.812872e+00
 1.158281e+00	 3.560309e-01	-9.977914e+00
 1.151535e+00	 3.772818e-01	-8.701238e+00
 1.144366e+00	 3.984978e-01	-8.996557e+00
 1.136773e+00	 4.196670e-01	-1.156501e+01
 1.181881e+00	 3.165154e-01	-1.632643e+00
 1.175915e+00	 3.380072e-01	-8.114890e+00
 1.169527e+00	 3.594875e-01	-1.470247e+01
 1.162715e+00	 3.809447e-01	-1.293215e+01
 1.155476e+00	 4.023667e-01	-1.332048e+01
 1.147810e+00	 4.237414e-01	-1.599794e+01
 1.193245e+00	 3.195588e-01	-6.324992e+00
 1.187222e+00	 3.412573e-01	-1.336503e+01
 1.180772e+00	 3.629442e-01	-1.862939e+01
 1.173895e+00	 3.846076e-01	-1.694530e+01
 1.166587e+00	 4.062356e-01	-1.744423e+01
 1.158846e+00	 4.278159e-01	-2.024507e+01
 1.103663e+00	 4.074437e-01	 3.172916e+00
 1.095879e+00	 4.279391e-01	 6.205902e-02
 1.087682e+00	 4.483653e-01	-2.684529e+00
 1.079071e+00	 4.687104e-01	-5.179512e+00
 1.070046e+00	 4.889622e-01	-7.596566e+00
 1.060609e+00	 5.091084e-01	-1.035295e+01
 1.114700e+00	 4.115181e-01	-2.012530e+00
 1.106838e+00	 4.322185e-01	-5.255993e+00
 1.098559e+00	 4.528490e-01	-8.049542e+00
 1.089861e+00	 4.733975e-01	-1.051278e+01
 1.080747e+00	 4.938518e-01	-1.277391e+01
 1.071215e+00	 5.141995e-01	-1.497874e+01
 1.125737e+00	 4.155926e-01	-6.914100e+00
 1.117797e+00	 4.364979e-01	-1.025888e+01
 1.109435e+00	 4.573326e-01	-1.308626e+01
 1.100652e+00	 4.780846e-01	-1.552076e+01
 1.091447e+00	 4.987414e-01	-1.769687e+01
 1.081821e+00	 5.192906e-01	-1.975924e+01
 1.136773e+00	 4.196670e-01	-1.156501e+01
 1.128756e+00	 4.407773e-01	-1.499708e+01
 1.120312e+00	 4.618163e-01	-1.785870e+01
 1.111443e+00	 4.827717e-01	-2.027737e+01
 1.102148e+00	 5.036310e-01	-2.239139e+01
 1.092427e+00	 5.243817e-01	-2.435001e+01
 1.147810e+00	 4.237414e-01	-1.599794e+01
 1.139714e+00	 4.450566e-01	-1.951991e+01
 1.131189e+00	 4.663000e-01	-2.242923e+01
 1.122234e+00	 4.874588e-01	-2.485452e+01
 1.112848e+00	 5.085207e-01	-2.693546e+01
 1.103033e+00	 5.294728e-01	-2.882302e+01
 1.158846e+00	 4.278159e-01	-2.024507e+01
 1.150673e+00	 4.493360e-01	-2.387555e+01
 1.142066e+00	 4.707836e-01	-2.685863e+01
 1.133024e+00	 4.921459e-01	-2.932217e+01
 1.123549e+00	 5.134103e-01	-3.140493e+01
 1.113640e+00	 5.345638e-01	-3.325676e+01
 1.060609e+00	 5.091084e-01	-1.035295e+01
 1.050760e+00	 5.291369e-01	-1.388422e+01
 1.040501e+00	 5.490354e-01	-1.879701e+01
 1.029835e+00	 5.687915e-01	-2.493810e+01
 1.018762e+00	 5.883931e-01	-3.211616e+01
 1.007288e+00	 6.078278e-01	-4.010171e+01
 1.071215e+00	 5.141995e-01	-1.497874e+01
 1.061268e+00	 5.344283e-01	-1.831058e+01
 1.050906e+00	 5.545257e-01	-2.300787e+01
 1.040133e+00	 5.744794e-01	-2.893279e+01
 1.028950e+00	 5.942770e-01	-3.591446e+01
 1.017360e+00	 6.139061e-01	-4.374880e+01
 1.081821e+00	 5.192906e-01	-1.975924e+01
 1.071775e+00	 5.397196e-01	-2.248898e+01
 1.061311e+00	 5.600161e-01	-2.700576e+01
 1.050431e+00	 5.801673e-01	-3.279188e+01
 1.039138e+00	 6.001609e-01	-3.967378e+01
 1.027433e+00	 6.199844e-01	-4.746319e+01
 1.092427e+00	 5.243817e-01	-2.435001e+01
 1.082283e+00	 5.450110e-01	-2.691770e+01
 1.071716e+00	 5.655064e-01	-3.081843e+01
 1.060730e+00	 5.858553e-01	-3.650792e+01
 1.049325e+00	 6.060449e-01	-4.335541e+01
 1.037506e+00	 6.260627e-01	-5.116638e+01
 1.103033e+00	 5.294728e-01	-2.882302e+01
 1.092791e+00	 5.503024e-01	-3.126896e+01
 1.082121e+00	 5.709968e-01	-3.498058e+01
 1.071028e+00	 5.915432e-01	-4.007265e+01
 1.059513e+00	 6.119288e-01	-4.692102e+01
 1.047579e+00	 6.321410e-01	-5.478175e+01
 1.113640e+00	 5.345638e-01	-3.325676e+01
 1.103298e+00	 5.555938e-01	-3.561799e+01
 1.092526e+00	 5.764871e-01	-3.917907e+01
 1.081326e+00	 5.972311e-01	-4.402845e+01
 1.069700e+00	 6.178127e-01	-5.033262e+01
 1.057652e+00	 6.382192e-01	-5.823449e+01
 1.007288e+00	 6.078278e-01	-4.010171e+01
 9.954141e-01	 6.270836e-01	-4.901739e+01
 9.831456e-01	 6.461484e-01	-5.903259e+01
 9.704867e-01	 6.650102e-01	-6.994342e+01
 9.574424e-01	 6.836572e-01	-8.152503e+01
 9.440180e-01	 7.020776e-01	-9.353245e+01
 1.017360e+00	 6.139061e-01	-4.374880e+01
 1.005368e+00	 6.333545e-01	-5.262368e+01
 9.929771e-01	 6.526099e-01	-6.277138e+01
 9.801916e-01	 6.716603e-01	-7.400992e+01
 9.670168e-01	 6.904937e-01	-8.613135e+01
 9.534582e-01	 7.090984e-01	-9.890236e+01
 1.027433e+00	 6.199844e-01	-4.746319e+01
 1.015322e+00	 6.396253e-01	-5.637896e+01
 1.002809e+00	 6.590714e-01	-6.669338e+01
 9.898965e-01	 6.783104e-01	-7.825464e+01
 9.765912e-01	 6.973303e-01	-9.088219e+01
 9.628984e-01	 7.161192e-01	-1.025267e+02
 1.037506e+00	 6.260627e-01	-5.116638e+01
 1.025276e+00	 6.458962e-01	-6.016851e+01
 1.012640e+00	 6.655329e-01	-7.066311e+01
 9.996013e-01	 6.849605e-01	-8.253644e+01
 9.861657e-01	 7.041669e-01	-9.564567e+01
 9.723386e-01	 7.231400e-01	-1.010735e+02
 1.047579e+00	 6.321410e-01	-5.478175e+01
 1.035231e+00	 6.521670e-01	-6.388090e+01
 1.022471e+00	 6.719944e-01	-7.454912e+01
 1.009306e+00	 6.916106e-01	-8.671850e+01
 9.957401e-01	 7.110034e-01	-1.002939e+02
 9.817788e-01	 7.301607e-01	-9.977123e+01
 1.057652e+00	 6.382192e-01	-5.823449e+01
 1.045185e+00	 6.584378e-01	-6.740781e+01
 1.032303e+00	 6.784558e-01	-7.822385e+01
 1.019011e+00	 6.982607e-01	-9.066803e+01
 1.005315e+00	 7.178400e-01	-1.014697e+02
 9.912189e-01	 7.371815e-01	-9.857428e+01
 9.440180e-01	 7.020776e-01	-9.353245e+01
 9.302195e-01	 7.202601e-01	-1.001248e+02
 9.160533e-01	 7.381934e-01	-9.539387e+01
 9.015260e-01	 7.558663e-01	-9.202971e+01
 8.866450e-01	 7.732682e-01	-9.018019e+01
 8.714180e-01	 7.903884e-01	-8.999965e+01
 9.534582e-01	 7.090984e-01	-9.890236e+01
 9.395217e-01	 7.274627e-01	-9.909329e+01
 9.252138e-01	 7.455753e-01	-9.528347e+01
 9.105413e-01	 7.634250e-01	-9.281008e+01
 8.955115e-01	 7.810008e-01	-9.173916e+01
 8.801321e-01	 7.982922e-01	-9.214164e+01
 9.628984e-01	 7.161192e-01	-1.025267e+02
 9.488239e-01	 7.346653e-01	-9.824963e+01
 9.343743e-01	 7.529572e-01	-9.528832e+01
 9.195565e-01	 7.709836e-01	-9.362037e+01
 9.043779e-01	 7.887335e-01	-9.322573e+01
 8.888463e-01	 8.061961e-01	-9.408625e+01
 9.723386e-01	 7.231400e-01	-1.010735e+02
 9.581261e-01	 7.418679e-01	-9.756870e+01
 9.435349e-01	 7.603392e-01	-9.540082e+01
 9.285718e-01	 7.785423e-01	-9.446193e+01
 9.132444e-01	 7.964662e-01	-9.464170e+01
 8.975605e-01	 8.141000e-01	-9.582739e+01
 9.817788e-01	 7.301607e-01	-9.977123e+01
 9.674283e-01	 7.490705e-01	-9.702734e+01
 9.526954e-01	 7.677211e-01	-9.561467e+01
 9.375871e-01	 7.861010e-01	-9.533703e+01
 9.221108e-01	 8.041989e-01	-9.598975e+01
 9.062747e-01	 8.220039e-01	-9.736017e+01
 9.912189e-01	 7.371815e-01	-9.857428e+01
 9.767305e-01	 7.562731e-01	-9.660429e+01
 9.618559e-01	 7.751030e-01	-9.592485e+01
 9.466023e-01	 7.936596e-01	-9.624889e+01
 9.309773e-01	 8.119316e-01	-9.727349e+01
 9.149889e-01	 8.299078e-01	-9.868086e+01
 8.714180e-01	 7.903884e-01	-8.999965e+01
 8.558529e-01	 8.072167e-01	-8.996932e+01
 8.399584e-01	 8.237432e-01	-8.852947e+01
 8.237432e-01	 8.399584e-01	-8.578382e+01
 8.072167e-01	 8.558529e-01	-8.184452e+01
 7.903884e-01	 8.714180e-01	-7.683117e+01
 8.801321e-01	 7.982922e-01	-9.214164e+01
 8.644115e-01	 8.152889e-01	-9.244433e+01
 8.483580e-01	 8.319807e-01	-9.112329e+01
 8.319807e-01	 8.483580e-01	-8.833410e+01
 8.152889e-01	 8.644115e-01	-8.424171e+01
 7.982922e-01	 8.801321e-01	-7.901926e+01
 8.888463e-01	 8.061961e-01	-9.408625e+01
 8.729700e-01	 8.233610e-01	-9.458344e+01
 8.567576e-01	 8.402181e-01	-9.325346e+01
 8.402181e-01	 8.567576e-01	-9.032139e+01
 8.233610e-01	 8.729700e-01	-8.602449e+01
 8.061961e-01	 8.888463e-01	-8.061065e+01
 8.975605e-01	 8.141000e-01	-9.582739e+01
 8.815285e-01	 8.314332e-01	-9.637474e+01
 8.651572e-01	 8.484555e-01	-9.491436e+01
 8.484555e-01	 8.651572e-01	-9.175795e+01
 8.314332e-01	 8.815285e-01	-8.723405e+01
 8.141000e-01	 8.975605e-01	-8.168595e+01
 9.062747e-01	 8.220039e-01	-9.736017e+01
 8.900870e-01	 8.395054e-01	-9.780778e+01
 8.735567e-01	 8.566930e-01	-9.610156e+01
 8.566930e-01	 8.735567e-01	-9.265649e+01
 8.395054e-01	 8.900870e-01	-8.791089e+01
 8.220039e-01	 9.062747e-01	-8.232353e+01
 9.149889e-01	 8.299078e-01	-9.868086e+01
 8.986456e-01	 8.475775e-01	-9.887342e+01
 8.819563e-01	 8.649304e-01	-9.681169e+01
 8.649304e-01	 8.819563e-01	-9.303016e+01
 8.475775e-01	 8.986456e-01	-8.809485e+01
 8.299078e-01	 9.149889e-01	-8.259966e+01
 7.903884e-01	 8.714180e-01	-7.683117e+01
 7.732682e-01	 8.866450e-01	-7.133627e+01
 7.558663e-01	 9.015260e-01	-6.616108e+01
 7.381934e-01	 9.160533e-01	-6.175357e+01
 7.202601e-01	 9.302195e-01	-5.857273e+01
 7.020776e-01	 9.440180e-01	-5.766232e+01
 7.982922e-01	 8.801321e-01	-7.901926e+01
 7.810008e-01	 8.955115e-01	-7.336460e+01
 7.634250e-01	 9.105413e-01	-6.817009e+01
 7.455753e-01	 9.252138e-01	-6.392001e+01
 7.274627e-01	 9.395217e-01	-6.111469e+01
 7.090984e-01	 9.534582e-01	-6.050829e+01
 8.061961e-01	 8.888463e-01	-8.061065e+01
 7.887335e-01	 9.043779e-01	-7.490220e+01
 7.709836e-01	 9.195565e-01	-6.985447e+01
 7.529572e-01	 9.343743e-01	-6.593661e+01
 7.346653e-01	 9.488239e-01	-6.363506e+01
 7.161192e-01	 9.628984e-01	-6.345000e+01
 8.141000e-01	 8.975605e-01	-8.168595e+01
 7.964662e-01	 9.132444e-01	-7.605992e+01
 7.785423e-01	 9.285718e-01	-7.132785e+01
 7.603392e-01	 9.435349e-01	-6.789389e+01
 7.418679e-01	 9.581261e-01	-6.617695e+01
 7.231400e-01	 9.723386e-01	-6.660752e+01
 8.220039e-01	 9.062747e-01	-8.232353e+01
 8.041989e-01	 9.221108e-01	-7.694519e+01
 7.861010e-01	 9.375871e-01	-7.270033e+01
 7.677211e-01	 9.526954e-01	-6.987969e+01
 7.490705e-01	 9.674283e-01	-6.878255e+01
 7.301607e-01	 9.817788e-01	-6.971428e+01
 8.299078e-01	 9.149889e-01	-8.259966e+01
 8.119316e-01	 9.309773e-01	-7.766220e+01
 7.936596e-01	 9.466023e-01	-7.407863e+01
 7.751030e-01	 9.618559e-01	-7.197928e+01
 7.562731e-01	 9.767305e-01	-7.149321e+01
 7.371815e-01	 9.912189e-01	-7.274676e+01
 7.020776e-01	 9.440180e-01	-5.766232e+01
 6.836572e-01	 9.574424e-01	-5.912822e+01
 6.650102e-01	 9.704867e-01	-6.261644e+01
 6.461484e-01	 9.831456e-01	-6.748223e+01
 6.270836e-01	 9.954141e-01	-7.306984e+01
 6.078278e-01	 1.007288e+00	-7.871675e+01
 7.090984e-01	 9.534582e-01	-6.050829e+01
 6.904937e-01	 9.670168e-01	-6.284580e+01
 6.716603e-01	 9.801916e-01	-6.716599e+01
 6.526099e-01	 9.929771e-01	-7.270659e+01
 6.333545e-01	 1.005368e+00	-7.868655e+01
 6.139061e-01	 1.017360e+00	-8.431117e+01
 7.161192e-01	 9.628984e-01	-6.345000e+01
 6.973303e-01	 9.765912e-01	-6.648006e+01
 6.783104e-01	 9.898965e-01	-7.140815e+01
 6.590714e-01	 1.002809e+00	-7.736519e+01
 6.396253e-01	 1.015322e+00	-8.354838e+01
 6.199844e-01	 1.027433e+00	-8.913926e+01
 7.231400e-01	 9.723386e-01	-6.660752e+01
 7.041669e-01	 9.861657e-01	-6.990985e+01
 6.849605e-01	 9.996013e-01	-7.520917e+01
 6.655329e-01	 1.012640e+00	-8.135255e+01
 6.458962e-01	 1.025276e+00	-8.761592e+01
 6.260627e-01	 1.037506e+00	-9.326230e+01
 7.301607e-01	 9.817788e-01	-6.971428e+01
 7.110034e-01	 9.957401e-01	-7.301796e+01
 6.916106e-01	 1.009306e+00	-7.843978e+01
 6.719944e-01	 1.022471e+00	-8.456662e+01
 6.521670e-01	 1.035231e+00	-9.085068e+01
 6.321410e-01	 1.047579e+00	-9.673866e+01
 7.371815e-01	 9.912189e-01	-7.274676e+01
 7.178400e-01	 1.005315e+00	-7.582458e+01
 6.982607e-01	 1.019011e+00	-8.097500e+01
 6.784558e-01	 1.032303e+00	-8.690864e+01
 6.584378e-01	 1.045185e+00	-9.321503e+01
 6.382192e-01	 1.057652e+00	-9.962390e+01
 6.078278e-01	 1.007288e+00	-7.871675e+01
 5.883931e-01	 1.018762e+00	-8.430496e+01
 5.687915e-01	 1.029835e+00	-9.011851e+01
 5.490354e-01	 1.040501e+00	-9.610959e+01
 5.291369e-01	 1.050760e+00	-1.022495e+02
 5.091084e-01	 1.060609e+00	-1.085285e+02
 6.139061e-01	 1.017360e+00	-8.431117e+01
 5.942770e-01	 1.028950e+00	-8.950661e+01
 5.744794e-01	 1.040133e+00	-9.484059e+01
 5.545257e-01	 1.050906e+00	-1.004966e+02
 5.344283e-01	 1.061268e+00	-1.066878e+02
 5.141995e-01	 1.071215e+00	-1.136551e+02
 6.199844e-01	 1.027433e+00	-8.913926e+01
 6.001609e-01	 1.039138e+00	-9.422983e+01
 5.801673e-01	 1.050431e+00	-9.962765e+01
 5.600161e-01	 1.061311e+00	-1.056057e+02
 5.397196e-01	 1.071775e+00	-1.121053e+02
 5.192906e-01	 1.081821e+00	-1.093287e+02
 6.260627e-01	 1.037506e+00	-9.326230e+01
 6.060449e-01	 1.049325e+00	-9.862308e+01
 5.858553e-01	 1.060730e+00	-1.046586e+02
 5.655064e-01	 1.071716e+00	-1.113044e+02
 5.450110e-01	 1.082283e+00	-1.083218e+02
 5.243817e-01	 1.092427e+00	-1.065935e+02
 6.321410e-01	 1.047579e+00	-9.673866e+01
 6.119288e-01	 1.059513e+00	-1.028286e+02
 5.915432e-01	 1.071028e+00	-1.101051e+02
 5.709968e-01	 1.082121e+00	-1.079675e+02
 5.503024e-01	 1.092791e+00	-1.061930e+02
 5.294728e-01	 1.103033e+00	-1.056712e+02
 6.382192e-01	 1.057652e+00	-9.962390e+01
 6.178127e-01	 1.069700e+00	-1.069827e+02
 5.972311e-01	 1.081326e+00	-1.069677e+02
 5.764871e-01	 1.092526e+00	-1.060191e+02
 5.555938e-01	 1.103298e+00	-1.058165e+02
 5.345638e-01	 1.113640e+00	-1.065532e+02
 5.091084e-01	 1.060609e+00	-1.085285e+02
 4.889622e-01	 1.070046e+00	-1.148393e+02
 4.687104e-01	 1.079071e+00	-1.125430e+02
 4.483653e-01	 1.087682e+00	-1.089384e+02
 4.279391e-01	 1.095879e+00	-1.056305e+02
 4.074437e-01	 1.103663e+00	-1.026933e+02
 5.141995e-01	 1.071215e+00	-1.136551e+02
 4.938518e-01	 1.080747e+00	-1.111301e+02
 4.733975e-01	 1.089861e+00	-1.089586e+02
 4.528490e-01	 1.098559e+00	-1.071791e+02
 4.322185e-01	 1.106838e+00	-1.055749e+02
 4.115181e-01	 1.114700e+00	-1.039062e+02
 5.192906e-01	 1.081821e+00	-1.093287e+02
 4.987414e-01	 1.091447e+00	-1.077563e+02
 4.780846e-01	 1.100652e+00	-1.068943e+02
 4.573326e-01	 1.109435e+00	-1.063857e+02
 4.364979e-01	 1.117797e+00	-1.058436e+02
 4.155926e-01	 1.125737e+00	-1.048539e+02
 5.243817e-01	 1.092427e+00	-1.065935e+02
 5.036310e-01	 1.102148e+00	-1.061160e+02
 4.827717e-01	 1.111443e+00	-1.061724e+02
 4.618163e-01	 1.120312e+00	-1.063671e+02
 4.407773e-01	 1.128756e+00	-1.062743e+02
 4.196670e-01	 1.136773e+00	-1.054406e+02
 5.294728e-01	 1.103033e+00	-1.056712e+02
 5.085207e-01	 1.112848e+00	-1.060953e+02
 4.874588e-01	 1.122234e+00	-1.066219e+02
 4.663000e-01	 1.131189e+00	-1.069398e+02
 4.450566e-01	 1.139714e+00	-1.067112e+02
 4.237414e-01	 1.147810e+00	-1.055739e+02
 5.345638e-01	 1.113640e+00	-1.065532e+02
 5.134103e-01	 1.123549e+00	-1.075846e+02
 4.921459e-01	 1.133024e+00	-1.080788e+02
 4.707836e-01	 1.142066e+00	-1.079275e+02
 4.493360e-01	 1.150673e+00	-1.070043e+02
 4.278159e-01	 1.158846e+00	-1.051652e+02
 4.074437e-01	 1.103663e+00	-1.026933e+02
 3.868910e-01	 1.111035e+00	-9.963708e+01
 3.662930e-01	 1.117995e+00	-9.587523e+01
 3.456611e-01	 1.124545e+00	-9.050799e+01
 3.250069e-01	 1.130687e+00	-8.420559e+01
 3.043417e-01	 1.136424e+00	-7.762520e+01
 4.115181e-01	 1.114700e+00	-1.039062e+02
 3.907600e-01	 1.122145e+00	-1.014803e+02
 3.699559e-01	 1.129175e+00	-9.783787e+01
 3.491177e-01	 1.135790e+00	-9.245485e+01
 3.282570e-01	 1.141994e+00	-8.557251e+01
 3.073851e-01	 1.147788e+00	-7.843212e+01
 4.155926e-01	 1.125737e+00	-1.048539e+02
 3.946289e-01	 1.133256e+00	-1.026805e+02
 3.736188e-01	 1.140355e+00	-9.901383e+01
 3.525743e-01	 1.147036e+00	-9.368364e+01
 3.315071e-01	 1.153301e+00	-8.635789e+01
 3.104285e-01	 1.159152e+00	-7.882499e+01
 4.196670e-01	 1.136773e+00	-1.054406e+02
 3.984978e-01	 1.144366e+00	-1.032131e+02
 3.772818e-01	 1.151535e+00	-9.942679e+01
 3.560309e-01	 1.158281e+00	-9.424095e+01
 3.347571e-01	 1.164608e+00	-8.661677e+01
 3.134720e-01	 1.170517e+00	-7.885031e+01
 4.237414e-01	 1.147810e+00	-1.055739e+02
 4.023667e-01	 1.155476e+00	-1.030546e+02
 3.809447e-01	 1.162715e+00	-9.909963e+01
 3.594875e-01	 1.169527e+00	-9.395543e+01
 3.380072e-01	 1.175915e+00	-8.640202e+01
 3.165154e-01	 1.181881e+00	-7.855271e+01
 4.278159e-01	 1.158846e+00	-1.051652e+02
 4.062356e-01	 1.166587e+00	-1.021824e+02
 3.846076e-01	 1.173895e+00	-9.805445e+01
 3.629442e-01	 1.180772e+00	-9.295795e+01
 3.412573e-01	 1.187222e+00	-8.576440e+01
 3.195588e-01	 1.193245e+00	-7.797507e+01
 3.043417e-01	 1.136424e+00	-7.762520e+01
 2.836765e-01	 1.141758e+00	-7.056081e+01
 2.630223e-01	 1.146692e+00	-6.315990e+01
 2.423897e-01	 1.151230e+00	-5.577988e+01
 2.217891e-01	 1.155376e+00	-4.877482e+01
 2.012306e-01	 1.159133e+00	-4.249383e+01
 3.073851e-01	 1.147788e+00	-7.843212e+01
 2.865133e-01	 1.153175e+00	-7.100256e+01
 2.656526e-01	 1.158159e+00	-6.344311e+01
 2.448136e-01	 1.162742e+00	-5.605306e+01
 2.240070e-01	 1.166929e+00	-4.912901e+01
 2.032429e-01	 1.170724e+00	-4.296342e+01
 3.104285e-01	 1.159152e+00	-7.882499e+01
 2.893501e-01	 1.164593e+00	-7.115699e+01
 2.682828e-01	 1.169626e+00	-6.351057e+01
 2.472375e-01	 1.174254e+00	-5.614330e+01
 2.262249e-01	 1.178483e+00	-4.931071e+01
 2.052552e-01	 1.182316e+00	-4.326504e+01
 3.134720e-01	 1.170517e+00	-7.885031e+01
 2.921868e-01	 1.176010e+00	-7.105610e+01
 2.709130e-01	 1.181093e+00	-6.338317e+01
 2.496614e-01	 1.185767e+00	-5.606326e+01
 2.284428e-01	 1.190037e+00	-4.932676e+01
 2.072675e-01	 1.193907e+00	-4.340157e+01
 3.165154e-01	 1.181881e+00	-7.855271e+01
 2.950236e-01	 1.187428e+00	-7.073057e+01
 2.735432e-01	 1.192560e+00	-6.308093e+01
 2.520853e-01	 1.197279e+00	-5.582506e+01
 2.306606e-01	 1.201591e+00	-4.918365e+01
 2.092798e-01	 1.205498e+00	-4.337574e+01
 3.195588e-01	 1.193245e+00	-7.797507e+01
 2.978604e-01	 1.198846e+00	-7.020988e+01
 2.761734e-01	 1.204026e+00	-6.262305e+01
 2.545092e-01	 1.208791e+00	-5.544028e+01
 2.328785e-01	 1.213144e+00	-4.888760e+01
 2.112921e-01	 1.217090e+00	-4.319012e+01
 2.012306e-01	 1.159133e+00	-4.249383e+01
 1.807242e-01	 1.162507e+00	-3.633980e+01
 1.602794e-01	 1.165501e+00	-2.954032e+01
 1.399057e-01	 1.168122e+00	-2.217304e+01
 1.196120e-01	 1.170374e+00	-1.431112e+01
 9.940714e-02	 1.172263e+00	-6.023873e+00
 2.032429e-01	 1.170724e+00	-4.296342e+01
 1.825314e-01	 1.174132e+00	-3.688546e+01
 1.618822e-01	 1.177156e+00	-3.010189e+01
 1.413048e-01	 1.179803e+00	-2.271292e+01
 1.208081e-01	 1.182078e+00	-1.481312e+01
 1.004012e-01	 1.183986e+00	-6.491992e+00
 2.052552e-01	 1.182316e+00	-4.326504e+01
 1.843387e-01	 1.185757e+00	-3.727242e+01
 1.634850e-01	 1.188811e+00	-3.051616e+01
 1.427038e-01	 1.191485e+00	-2.311583e+01
 1.220043e-01	 1.193782e+00	-1.518454e+01
 1.013953e-01	 1.195709e+00	-6.829577e+00
 2.072675e-01	 1.193907e+00	-4.340157e+01
 1.861459e-01	 1.197382e+00	-3.750181e+01
 1.650878e-01	 1.200466e+00	-3.078540e+01
 1.441029e-01	 1.203166e+00	-2.338808e+01
 1.232004e-01	 1.205486e+00	-1.543876e+01
 1.023894e-01	 1.207431e+00	-7.060183e+00
 2.092798e-01	 1.205498e+00	-4.337574e+01
 1.879532e-01	 1.209007e+00	-3.757467e+01
 1.666906e-01	 1.212121e+00	-3.091173e+01
 1.455019e-01	 1.214847e+00	-2.353569e+01
 1.243965e-01	 1.217189e+00	-1.558864e+01
 1.033834e-01	 1.219154e+00	-7.206429e+00
 2.112921e-01	 1.217090e+00	-4.319012e+01
 1.897604e-01	 1.220632e+00	-3.749195e+01
 1.682934e-01	 1.223776e+00	-3.089713e+01
 1.469010e-01	 1.226528e+00	-2.356446e+01
 1.255926e-01	 1.228893e+00	-1.564649e+01
 1.043775e-01	 1.230876e+00	-7.290046e+00
 9.940714e-02	 1.172263e+00	-6.023873e+00
 7.929953e-02	 1.173795e+00	 6.090385e-01
 5.929733e-02	 1.174975e+00	 3.887324e+00
 3.940838e-02	 1.175810e+00	 4.304353e+00
 1.964020e-02	 1.176307e+00	 2.341962e+00
 0.000000e+00	 1.176471e+00	-1.529334e+00
 1.004012e-01	 1.183986e+00	-6.491992e+00
 8.009253e-02	 1.185533e+00	 1.148811e-01
 5.989031e-02	 1.186725e+00	 3.304703e+00
 3.980247e-02	 1.187568e+00	 3.630155e+00
 1.983660e-02	 1.188070e+00	 1.630062e+00
 0.000000e+00	 1.188235e+00	-2.170550e+00
 1.013953e-01	 1.195709e+00	-6.829577e+00
 8.088552e-02	 1.197271e+00	-2.451849e-01
 6.048328e-02	 1.198475e+00	 2.853133e+00
 4.019655e-02	 1.199327e+00	 3.069004e+00
 2.003301e-02	 1.199833e+00	 9.909459e-01
 0.000000e+00	 1.200000e+00	-2.807743e+00
 1.023894e-01	 1.207431e+00	-7.060183e+00
 8.167852e-02	 1.209009e+00	-5.029277e-01
 6.107625e-02	 1.210225e+00	 2.499775e+00
 4.059063e-02	 1.211085e+00	 2.594333e+00
 2.022941e-02	 1.211596e+00	 4.118448e-01
 0.000000e+00	 1.211765e+00	-3.432208e+00
 1.033834e-01	 1.219154e+00	-7.206429e+00
 8.247151e-02	 1.220747e+00	-6.888712e-01
 6.166923e-02	 1.221974e+00	 2.213069e+00
 4.098472e-02	 1.222843e+00	 2.180612e+00
 2.042581e-02	 1.223359e+00	-1.195144e-01
 0.000000e+00	 1.223529e+00	-4.035573e+00
 1.043775e-01	 1.230876e+00	-7.290046e+00
 8.326451e-02	 1.232485e+00	-8.323544e-01
 6.226220e-02	 1.233724e+00	 1.962677e+00
 4.137880e-02	 1.234601e+00	 1.803290e+00
 2.062221e-02	 1.235122e+00	-6.149313e-01
 0.000000e+00	 1.235294e+00	-4.609783e+00
 1.235294e+00	 0.000000e+00	 5.926905e+01
 1.235122e+00	 2.062221e-02	 3.997131e+01
 1.234601e+00	 4.137880e-02	 2.687618e+01
 1.233724e+00	 6.226220e-02	 1.998254e+01
 1.232485e+00	 8.326451e-02	 1.925429e+01
 1.230876e+00	 1.043775e-01	 2.461901e+01
 1.247059e+00	 0.000000e+00	 5.709067e+01
 1.246885e+00	 2.081861e-02	 3.833076e+01
 1.246359e+00	 4.177289e-02	 2.556140e+01
 1.245474e+00	 6.285517e-02	 1.877141e+01
 1.244223e+00	 8.405750e-02	 1.791895e+01
 1.242599e+00	 1.053716e-01	 2.293042e+01
 1.258824e+00	 0.000000e+00	 5.498737e+01
 1.258648e+00	 2.101502e-02	 3.667648e+01
 1.258117e+00	 4.216697e-02	 2.417605e+01
 1.257224e+00	 6.344815e-02	 1.746570e+01
 1.255961e+00	 8.485050e-02	 1.649695e+01
 1.254322e+00	 1.063656e-01	 2.119227e+01
 1.270588e+00	 0.000000e+00	 5.286894e+01
 1.270411e+00	 2.121142e-02	 3.497091e+01
 1.269875e+00	 4.256105e-02	 2.272049e+01
 1.268973e+00	 6.404112e-02	 1.608891e+01
 1.267699e+00	 8.564349e-02	 1.502010e+01
 1.266044e+00	 1.073597e-01	 1.942986e+01
 1.282353e+00	 0.000000e+00	 5.064850e+01
 1.282174e+00	 2.140782e-02	 3.317789e+01
 1.281633e+00	 4.295514e-02	 2.119512e+01
 1.280723e+00	 6.463409e-02	 1.466376e+01
 1.279437e+00	 8.643649e-02	 1.351917e+01
 1.277767e+00	 1.083538e-01	 1.766770e+01
 1.294118e+00	 0.000000e+00	 4.824232e+01
 1.293937e+00	 2.160422e-02	 3.126260e+01
 1.293391e+00	 4.334922e-02	 1.960040e+01
 1.292473e+00	 6.522707e-02	 1.321225e+01
 1.291174e+00	 8.722948e-02	 1.202394e+01
 1.289490e+00	 1.093479e-01	 1.592956e+01
 1.230876e+00	 1.043775e-01	 2.461901e+01
 1.228893e+00	 1.255926e-01	 3.138485e+01
 1.226528e+00	 1.469010e-01	 3.496221e+01
 1.223776e+00	 1.682934e-01	 3.541737e+01
 1.220632e+00	 1.897604e-01	 3.283510e+01
 1.217090e+00	 2.112921e-01	 2.731969e+01
 1.242599e+00	 1.053716e-01	 2.293042e+01
 1.240597e+00	 1.267887e-01	 2.926718e+01
 1.238210e+00	 1.483000e-01	 3.248958e+01
 1.235431e+00	 1.698962e-01	 3.266065e+01
 1.232257e+00	 1.915676e-01	 2.986089e+01
 1.228681e+00	 2.133044e-01	 2.418934e+01
 1.254322e+00	 1.063656e-01	 2.119227e+01
 1.252301e+00	 1.279849e-01	 2.714433e+01
 1.249891e+00	 1.496991e-01	 3.004471e+01
 1.247087e+00	 1.714990e-01	 2.995413e+01
 1.243882e+00	 1.933749e-01	 2.695028e+01
 1.240272e+00	 2.153168e-01	 2.112884e+01
 1.266044e+00	 1.073597e-01	 1.942986e+01
 1.264004e+00	 1.291810e-01	 2.502941e+01
 1.261572e+00	 1.510982e-01	 2.763202e+01
 1.258742e+00	 1.731018e-01	 2.729701e+01
 1.255507e+00	 1.951821e-01	 2.410067e+01
 1.251864e+00	 2.173291e-01	 1.813722e+01
 1.277767e+00	 1.083538e-01	 1.766770e+01
 1.275708e+00	 1.303771e-01	 2.293523e+01
 1.273253e+00	 1.524972e-01	 2.525596e+01
 1.270397e+00	 1.747046e-01	 2.468876e+01
 1.267132e+00	 1.969894e-01	 2.130984e+01
 1.263455e+00	 2.193414e-01	 1.521380e+01
 1.289490e+00	 1.093479e-01	 1.592956e+01
 1.287412e+00	 1.315732e-01	 2.087431e+01
 1.284934e+00	 1.538963e-01	 2.292106e+01
 1.282052e+00	 1.763074e-01	 2.212911e+01
 1.278757e+00	 1.987966e-01	 1.857592e+01
 1.275046e+00	 2.213537e-01	 1.235828e+01
 1.217090e+00	 2.112921e-01	 2.731969e+01
 1.213144e+00	 2.328785e-01	 2.038922e+01
 1.208791e+00	 2.545092e-01	 1.351196e+01
 1.204026e+00	 2.761734e-01	 6.734266e+00
 1.198846e+00	 2.978604e-01	 1.048204e-01
 1.193245e+00	 3.195588e-01	-6.324992e+00
 1.228681e+00	 2.133044e-01	 2.418934e+01
 1.224698e+00	 2.350964e-01	 1.710374e+01
 1.220304e+00	 2.569331e-01	 1.000982e+01
 1.215493e+00	 2.788037e-01	 2.944594e+00
 1.210263e+00	 3.006971e-01	-4.052501e+00
 1.204609e+00	 3.226022e-01	-1.093916e+01
 1.240272e+00	 2.153168e-01	 2.112884e+01
 1.236252e+00	 2.373143e-01	 1.389234e+01
 1.231816e+00	 2.593570e-01	 6.587423e+00
 1.226960e+00	 2.814339e-01	-7.583286e-01
 1.221681e+00	 3.035339e-01	-8.114782e+00
 1.215974e+00	 3.256456e-01	-1.544878e+01
 1.251864e+00	 2.173291e-01	 1.813722e+01
 1.247806e+00	 2.395322e-01	 1.075734e+01
 1.243328e+00	 2.617809e-01	 3.250470e+00
 1.238427e+00	 2.840641e-01	-4.365328e+00
 1.233098e+00	 3.063707e-01	-1.206931e+01
 1.227338e+00	 3.286890e-01	-1.983751e+01
 1.263455e+00	 2.193414e-01	 1.521380e+01
 1.259359e+00	 2.417501e-01	 7.701312e+00
 1.254841e+00	 2.642048e-01	 4.827056e-03
 1.249894e+00	 2.866943e-01	-7.867178e+00
 1.244516e+00	 3.092074e-01	-1.590342e+01
 1.238702e+00	 3.317325e-01	-2.408919e+01
 1.275046e+00	 2.213537e-01	 1.235828e+01
 1.270913e+00	 2.439680e-01	 4.727054e+00
 1.266353e+00	 2.666287e-01	-3.143500e+00
 1.261361e+00	 2.893246e-01	-1.125460e+01
 1.255933e+00	 3.120442e-01	-1.960450e+01
 1.250066e+00	 3.347759e-01	-2.818778e+01
 1.193245e+00	 3.195588e-01	-6.324992e+00
 1.187222e+00	 3.412573e-01	-1.336503e+01
 1.180772e+00	 3.629442e-01	-1.862939e+01
 1.173895e+00	 3.846076e-01	-1.694530e+01
 1.166587e+00	 4.062356e-01	-1.744423e+01
 1.158846e+00	 4.278159e-01	-2.024507e+01
 1.204609e+00	 3.226022e-01	-1.093916e+01
 1.198528e+00	 3.445073e-01	-1.853040e+01
 1.192018e+00	 3.664008e-01	-2.230541e+01
 1.185075e+00	 3.882705e-01	-2.073143e+01
 1.177697e+00	 4.101045e-01	-2.135826e+01
 1.169883e+00	 4.318903e-01	-2.429489e+01
 1.215974e+00	 3.256456e-01	-1.544878e+01
 1.209835e+00	 3.477574e-01	-2.357825e+01
 1.203263e+00	 3.698574e-01	-2.572202e+01
 1.196254e+00	 3.919335e-01	-2.427559e+01
 1.188807e+00	 4.139734e-01	-2.503757e+01
 1.180920e+00	 4.359647e-01	-2.810622e+01
 1.227338e+00	 3.286890e-01	-1.983751e+01
 1.221142e+00	 3.510075e-01	-2.848813e+01
 1.214509e+00	 3.733140e-01	-2.888427e+01
 1.207434e+00	 3.955964e-01	-2.757825e+01
 1.199918e+00	 4.178423e-01	-2.847701e+01
 1.191956e+00	 4.400392e-01	-3.166728e+01
 1.238702e+00	 3.317325e-01	-2.408919e+01
 1.232449e+00	 3.542575e-01	-3.323985e+01
 1.225754e+00	 3.767706e-01	-3.179766e+01
 1.218614e+00	 3.992593e-01	-3.064050e+01
 1.211028e+00	 4.217112e-01	-3.167230e+01
 1.202993e+00	 4.441136e-01	-3.496744e+01
 1.250066e+00	 3.347759e-01	-2.818778e+01
 1.243756e+00	 3.575076e-01	-3.757769e+01
 1.236999e+00	 3.802272e-01	-3.446812e+01
 1.229794e+00	 4.029223e-01	-3.346408e+01
 1.222138e+00	 4.255801e-01	-3.462002e+01
 1.214030e+00	 4.481880e-01	-3.799716e+01
 1.158846e+00	 4.278159e-01	-2.024507e+01
 1.150673e+00	 4.493360e-01	-2.387555e+01
 1.142066e+00	 4.707836e-01	-2.685863e+01
 1.133024e+00	 4.921459e-01	-2.932217e+01
 1.123549e+00	 5.134103e-01	-3.140493e+01
 1.113640e+00	 5.345638e-01	-3.325676e+01
 1.169883e+00	 4.318903e-01	-2.429489e+01
 1.161632e+00	 4.536154e-01	-2.804316e+01
 1.152943e+00	 4.752673e-01	-3.110600e+01
 1.143815e+00	 4.968330e-01	-3.360984e+01
 1.134249e+00	 5.182999e-01	-3.569184e+01
 1.124246e+00	 5.396549e-01	-3.750019e+01
 1.180920e+00	 4.359647e-01	-2.810622e+01
 1.172591e+00	 4.578948e-01	-3.195837e+01
 1.163819e+00	 4.797509e-01	-3.507834e+01
 1.154606e+00	 5.015201e-01	-3.759141e+01
 1.144950e+00	 5.231895e-01	-3.963418e+01
 1.134852e+00	 5.447460e-01	-4.135488e+01
 1.191956e+00	 4.400392e-01	-3.166728e+01
 1.183550e+00	 4.621742e-01	-3.560441e+01
 1.174696e+00	 4.842346e-01	-3.875819e+01
 1.165396e+00	 5.062072e-01	-4.125305e+01
 1.155650e+00	 5.280791e-01	-4.322602e+01
 1.145458e+00	 5.498371e-01	-4.482708e+01
 1.202993e+00	 4.441136e-01	-3.496744e+01
 1.194508e+00	 4.664536e-01	-3.896589e+01
 1.185573e+00	 4.887182e-01	-4.212950e+01
 1.176187e+00	 5.108943e-01	-4.458221e+01
 1.166350e+00	 5.329688e-01	-4.646246e+01
 1.156064e+00	 5.549282e-01	-4.792364e+01
 1.214030e+00	 4.481880e-01	-3.799716e+01
 1.205467e+00	 4.707330e-01	-4.202867e+01
 1.196450e+00	 4.932019e-01	-4.517756e+01
 1.186978e+00	 5.155815e-01	-4.756758e+01
 1.177051e+00	 5.378584e-01	-4.933958e+01
 1.166670e+00	 5.600193e-01	-5.065195e+01
 1.113640e+00	 5.345638e-01	-3.325676e+01
 1.103298e+00	 5.555938e-01	-3.561799e+01
 1.092526e+00	 5.764871e-01	-3.917907e+01
 1.081326e+00	 5.972311e-01	-4.402845e+01
 1.069700e+00	 6.178127e-01	-5.033262e+01
 1.057652e+00	 6.382192e-01	-5.823449e+01
 1.124246e+00	 5.396549e-01	-3.750019e+01
 1.113806e+00	 5.608851e-01	-3.976601e+01
 1.102932e+00	 5.819775e-01	-4.316636e+01
 1.091625e+00	 6.029190e-01	-4.778194e+01
 1.079888e+00	 6.236967e-01	-5.370059e+01
 1.067725e+00	 6.442975e-01	-6.114983e+01
 1.134852e+00	 5.447460e-01	-4.135488e+01
 1.124314e+00	 5.661765e-01	-4.347859e+01
 1.113337e+00	 5.874678e-01	-4.667624e+01
 1.101923e+00	 6.086069e-01	-5.102912e+01
 1.090076e+00	 6.295806e-01	-5.662598e+01
 1.077798e+00	 6.503758e-01	-6.356313e+01
 1.145458e+00	 5.498371e-01	-4.482708e+01
 1.134821e+00	 5.714679e-01	-4.677612e+01
 1.123742e+00	 5.929582e-01	-4.974274e+01
 1.112221e+00	 6.142948e-01	-5.381701e+01
 1.100263e+00	 6.354645e-01	-5.909672e+01
 1.087871e+00	 6.564541e-01	-6.568751e+01
 1.156064e+00	 5.549282e-01	-4.792364e+01
 1.145329e+00	 5.767592e-01	-4.967907e+01
 1.134147e+00	 5.984486e-01	-5.239951e+01
 1.122520e+00	 6.199827e-01	-5.619175e+01
 1.110451e+00	 6.413485e-01	-6.117059e+01
 1.097944e+00	 6.625324e-01	-6.745892e+01
 1.166670e+00	 5.600193e-01	-5.065195e+01
 1.155836e+00	 5.820506e-01	-5.220798e+01
 1.144552e+00	 6.039389e-01	-5.467981e+01
 1.132818e+00	 6.256707e-01	-5.819867e+01
 1.120639e+00	 6.472324e-01	-6.290416e+01
 1.108016e+00	 6.686106e-01	-6.894412e+01
 1.057652e+00	 6.382192e-01	-5.823449e+01
 1.045185e+00	 6.584378e-01	-6.740781e+01
 1.032303e+00	 6.784558e-01	-7.822385e+01
 1.019011e+00	 6.982607e-01	-9.066803e+01
 1.005315e+00	 7.178400e-01	-1.014697e+02
 9.912189e-01	 7.371815e-01	-9.857428e+01
 1.067725e+00	 6.442975e-01	-6.114983e+01
 1.055139e+00	 6.647087e-01	-7.040678e+01
 1.042134e+00	 6.849173e-01	-8.140994e+01
 1.028716e+00	 7.049108e-01	-9.418755e+01
 1.014889e+00	 7.246766e-01	-9.959755e+01
 1.000659e+00	 7.442023e-01	-9.746286e+01
 1.077798e+00	 6.503758e-01	-6.356313e+01
 1.065093e+00	 6.709795e-01	-7.262049e+01
 1.051966e+00	 6.913788e-01	-8.392183e+01
 1.038421e+00	 7.115609e-01	-9.716109e+01
 1.024463e+00	 7.315132e-01	-9.773740e+01
 1.010099e+00	 7.512231e-01	-9.643042e+01
 1.087871e+00	 6.564541e-01	-6.568751e+01
 1.075047e+00	 6.772503e-01	-7.424607e+01
 1.061797e+00	 6.978403e-01	-8.577128e+01
 1.048126e+00	 7.182110e-01	-9.660886e+01
 1.034038e+00	 7.383497e-01	-9.590749e+01
 1.019539e+00	 7.582438e-01	-9.545480e+01
 1.097944e+00	 6.625324e-01	-6.745892e+01
 1.085001e+00	 6.835212e-01	-7.576255e+01
 1.071629e+00	 7.043018e-01	-8.697615e+01
 1.057831e+00	 7.248611e-01	-9.387623e+01
 1.043612e+00	 7.451863e-01	-9.412639e+01
 1.028980e+00	 7.652646e-01	-9.451561e+01
 1.108016e+00	 6.686106e-01	-6.894412e+01
 1.094955e+00	 6.897920e-01	-7.707227e+01
 1.081460e+00	 7.107633e-01	-8.817905e+01
 1.067535e+00	 7.315112e-01	-9.118024e+01
 1.053187e+00	 7.520229e-01	-9.241298e+01
 1.038420e+00	 7.722854e-01	-9.359418e+01
 9.912189e-01	 7.371815e-01	-9.857428e+01
 9.767305e-01	 7.562731e-01	-9.660429e+01
 9.618559e-01	 7.751030e-01	-9.592485e+01
 9.466023e-01	 7.936596e-01	-9.624889e+01
 9.309773e-01	 8.119316e-01	-9.727349e+01
 9.149889e-01	 8.299078e-01	-9.868086e+01
 1.000659e+00	 7.442023e-01	-9.746286e+01
 9.860327e-01	 7.634757e-01	-9.627597e+01
 9.710165e-01	 7.824850e-01	-9.626157e+01
 9.556176e-01	 8.012183e-01	-9.706239e+01
 9.398437e-01	 8.196642e-01	-9.829907e+01
 9.237030e-01	 8.378117e-01	-9.957159e+01
 1.010099e+00	 7.512231e-01	-9.643042e+01
 9.953349e-01	 7.706783e-01	-9.599306e+01
 9.801770e-01	 7.898669e-01	-9.651020e+01
 9.646328e-01	 8.087770e-01	-9.759754e+01
 9.487102e-01	 8.273969e-01	-9.884596e+01
 9.324172e-01	 8.457156e-01	-9.982304e+01
 1.019539e+00	 7.582438e-01	-9.545480e+01
 1.004637e+00	 7.778809e-01	-9.569938e+01
 9.893375e-01	 7.972488e-01	-9.660203e+01
 9.736481e-01	 8.163356e-01	-9.779342e+01
 9.575766e-01	 8.351296e-01	-9.888000e+01
 9.411314e-01	 8.536194e-01	-9.944557e+01
 1.028980e+00	 7.652646e-01	-9.451561e+01
 1.013939e+00	 7.850835e-01	-9.534179e+01
 9.984981e-01	 8.046308e-01	-9.647187e+01
 9.826634e-01	 8.238943e-01	-9.759228e+01
 9.664431e-01	 8.428623e-01	-9.836925e+01
 9.498456e-01	 8.615233e-01	-9.845011e+01
 1.038420e+00	 7.722854e-01	-9.359418e+01
 1.023241e+00	 7.922861e-01	-9.487006e+01
 1.007659e+00	 8.120127e-01	-9.605785e+01
 9.916786e-01	 8.314530e-01	-9.693945e+01
 9.753095e-01	 8.505950e-01	-9.728389e+01
 9.585598e-01	 8.694272e-01	-9.684809e+01
 9.149889e-01	 8.299078e-01	-9.868086e+01
 8.986456e-01	 8.475775e-01	-9.887342e+01
 8.819563e-01	 8.649304e-01	-9.681169e+01
 8.649304e-01	 8.819563e-01	-9.303016e+01
 8.475775e-01	 8.986456e-01	-8.809485e+01
 8.299078e-01	 9.149889e-01	-8.259966e+01
 9.237030e-01	 8.378117e-01	-9.957159e+01
 9.072041e-01	 8.556497e-01	-9.938885e+01
 8.903559e-01	 8.731678e-01	-9.694079e+01
 8.731678e-01	 8.903559e-01	-9.286574e+01
 8.556497e-01	 9.072041e-01	-8.784090e+01
 8.378117e-01	 9.237030e-01	-8.257800e+01
 9.324172e-01	 8.457156e-01	-9.982304e+01
 9.157626e-01	 8.637219e-01	-9.921168e+01
 8.987555e-01	 8.814053e-01	-9.643475e+01
 8.814053e-01	 8.987555e-01	-9.218809e+01
 8.637219e-01	 9.157626e-01	-8.721032e+01
 8.457156e-01	 9.324172e-01	-8.227816e+01
 9.411314e-01	 8.536194e-01	-9.944557e+01
 9.243212e-01	 8.717940e-01	-9.839364e+01
 9.071551e-01	 8.896427e-01	-9.536452e+01
 8.896427e-01	 9.071551e-01	-9.106650e+01
 8.717940e-01	 9.243212e-01	-8.625127e+01
 8.536194e-01	 9.411314e-01	-8.170914e+01
 9.498456e-01	 8.615233e-01	-9.845011e+01
 9.328797e-01	 8.798662e-01	-9.698551e+01
 9.155547e-01	 8.978801e-01	-9.379935e+01
 8.978801e-01	 9.155547e-01	-8.956860e+01
 8.798662e-01	 9.328797e-01	-8.501100e+01
 8.615233e-01	 9.498456e-01	-8.088044e+01
 9.585598e-01	 8.694272e-01	-9.684809e+01
 9.414382e-01	 8.879384e-01	-9.503712e+01
 9.239542e-01	 9.061176e-01	-9.180684e+01
 9.061176e-01	 9.239542e-01	-8.776041e+01
 8.879384e-01	 9.414382e-01	-8.353589e+01
 8.694272e-01	 9.585598e-01	-7.980206e+01
 8.299078e-01	 9.149889e-01	-8.259966e+01
 8.119316e-01	 9.309773e-01	-7.766220e+01
 7.936596e-01	 9.466023e-01	-7.407863e+01
 7.751030e-01	 9.618559e-01	-7.197928e+01
 7.562731e-01	 9.767305e-01	-7.149321e+01
 7.371815e-01	 9.912189e-01	-7.274676e+01
 8.378117e-01	 9.237030e-01	-8.257800e+01
 8.196642e-01	 9.398437e-01	-7.818937e+01
 8.012183e-01	 9.556176e-01	-7.528821e+01
 7.824850e-01	 9.710165e-01	-7.385292e+01
 7.634757e-01	 9.860327e-01	-7.385094e+01
 7.442023e-01	 1.000659e+00	-7.523832e+01
 8.457156e-01	 9.324172e-01	-8.227816e+01
 8.273969e-01	 9.487102e-01	-7.841976e+01
 8.087770e-01	 9.646328e-01	-7.606238e+01
 7.898669e-01	 9.801770e-01	-7.509436e+01
 7.706783e-01	 9.953349e-01	-7.538720e+01
 7.512231e-01	 1.010099e+00	-7.679564e+01
 8.536194e-01	 9.411314e-01	-8.170914e+01
 8.351296e-01	 9.575766e-01	-7.832846e+01
 8.163356e-01	 9.736481e-01	-7.636870e+01
 7.972488e-01	 9.893375e-01	-7.568835e+01
 7.778809e-01	 1.004637e+00	-7.612675e+01
 7.582438e-01	 1.019539e+00	-7.750449e+01
 8.615233e-01	 9.498456e-01	-8.088044e+01
 8.428623e-01	 9.664431e-01	-7.789228e+01
 8.238943e-01	 9.826634e-01	-7.617675e+01
 8.046308e-01	 9.984981e-01	-7.562094e+01
 7.850835e-01	 1.013939e+00	-7.609417e+01
 7.652646e-01	 1.028980e+00	-7.744820e+01
 8.694272e-01	 9.585598e-01	-7.980206e+01
 8.505950e-01	 9.753095e-01	-7.708968e+01
 8.314530e-01	 9.916786e-01	-7.545796e+01
 8.120127e-01	 1.007659e+00	-7.487944e+01
 7.922861e-01	 1.023241e+00	-7.531386e+01
 7.722854e-01	 1.038420e+00	-7.670775e+01
 7.371815e-01	 9.912189e-01	-7.274676e+01
 7.178400e-01	 1.005315e+00	-7.582458e+01
 6.982607e-01	 1.019011e+00	-8.097500e+01
 6.784558e-01	 1.032303e+00	-8.690864e+01
 6.584378e-01	 1.045185e+00	-9.321503e+01
 6.382192e-01	 1.057652e+00	-9.962390e+01
 7.442023e-01	 1.000659e+00	-7.523832e+01
 7.246766e-01	 1.014889e+00	-7.804381e+01
 7.049108e-01	 1.028716e+00	-8.276124e+01
 6.849173e-01	 1.042134e+00	-8.864612e+01
 6.647087e-01	 1.055139e+00	-9.523127e+01
 6.442975e-01	 1.067725e+00	-1.025252e+02
 7.512231e-01	 1.010099e+00	-7.679564e+01
 7.315132e-01	 1.024463e+00	-7.940416e+01
 7.115609e-01	 1.038421e+00	-8.390376e+01
 6.913788e-01	 1.051966e+00	-9.017213e+01
 6.709795e-01	 1.065093e+00	-9.746807e+01
 6.503758e-01	 1.077798e+00	-1.013221e+02
 7.582438e-01	 1.019539e+00	-7.750449e+01
 7.383497e-01	 1.034038e+00	-8.004177e+01
 7.182110e-01	 1.048126e+00	-8.460574e+01
 6.978403e-01	 1.061797e+00	-9.157556e+01
 6.772503e-01	 1.075047e+00	-9.777164e+01
 6.564541e-01	 1.087871e+00	-9.828442e+01
 7.652646e-01	 1.028980e+00	-7.744820e+01
 7.451863e-01	 1.043612e+00	-8.008845e+01
 7.248611e-01	 1.057831e+00	-8.504803e+01
 7.043018e-01	 1.071629e+00	-9.284991e+01
 6.835212e-01	 1.085001e+00	-9.491046e+01
 6.625324e-01	 1.097944e+00	-9.616828e+01
 7.722854e-01	 1.038420e+00	-7.670775e+01
 7.520229e-01	 1.053187e+00	-7.967189e+01
 7.315112e-01	 1.067535e+00	-8.532698e+01
 7.107633e-01	 1.081460e+00	-9.009557e+01
 6.897920e-01	 1.094955e+00	-9.293503e+01
 6.686106e-01	 1.108016e+00	-9.494311e+01
 6.382192e-01	 1.057652e+00	-9.962390e+01
 6.178127e-01	 1.069700e+00	-1.069827e+02
 5.972311e-01	 1.081326e+00	-1.069677e+02
 5.764871e-01	 1.092526e+00	-1.060191e+02
 5.555938e-01	 1.103298e+00	-1.058165e+02
 5.345638e-01	 1.113640e+00	-1.065532e+02
 6.442975e-01	 1.067725e+00	-1.025252e+02
 6.236967e-01	 1.079888e+00	-1.044222e+02
 6.029190e-01	 1.091625e+00	-1.043483e+02
 5.819775e-01	 1.102932e+00	-1.049962e+02
 5.608851e-01	 1.113806e+00	-1.062498e+02
 5.396549e-01	 1.124246e+00	-1.079724e+02
 6.503758e-01	 1.077798e+00	-1.013221e+02
 6.295806e-01	 1.090076e+00	-1.013735e+02
 6.086069e-01	 1.101923e+00	-1.024392e+02
 5.874678e-01	 1.113337e+00	-1.042265e+02
 5.661765e-01	 1.124314e+00	-1.064118e+02
 5.447460e-01	 1.134852e+00	-1.086426e+02
 6.564541e-01	 1.087871e+00	-9.828442e+01
 6.354645e-01	 1.100263e+00	-9.919950e+01
 6.142948e-01	 1.112221e+00	-1.010875e+02
 5.929582e-01	 1.123742e+00	-1.035596e+02
 5.714679e-01	 1.134821e+00	-1.061921e+02
 5.498371e-01	 1.145458e+00	-1.085282e+02
 6.625324e-01	 1.097944e+00	-9.616828e+01
 6.413485e-01	 1.110451e+00	-9.778965e+01
 6.199827e-01	 1.122520e+00	-1.001457e+02
 5.984486e-01	 1.134147e+00	-1.028508e+02
 5.767592e-01	 1.145329e+00	-1.054848e+02
 5.549282e-01	 1.156064e+00	-1.075951e+02
 6.686106e-01	 1.108016e+00	-9.494311e+01
 6.472324e-01	 1.120639e+00	-9.703754e+01
 6.256707e-01	 1.132818e+00	-9.947221e+01
 6.039389e-01	 1.144552e+00	-1.019610e+02
 5.820506e-01	 1.155836e+00	-1.041883e+02
 5.600193e-01	 1.166670e+00	-1.058106e+02
 5.345638e-01	 1.113640e+00	-1.065532e+02
 5.134103e-01	 1.123549e+00	-1.075846e+02
 4.921459e-01	 1.133024e+00	-1.080788e+02
 4.707836e-01	 1.142066e+00	-1.079275e+02
 4.493360e-01	 1.150673e+00	-1.070043e+02
 4.278159e-01	 1.158846e+00	-1.051652e+02
 5.396549e-01	 1.124246e+00	-1.079724e+02
 5.182999e-01	 1.134249e+00	-1.092716e+02
 4.968330e-01	 1.143815e+00	-1.094382e+02
 4.752673e-01	 1.152943e+00	-1.085881e+02
 4.536154e-01	 1.161632e+00	-1.068277e+02
 4.318903e-01	 1.169883e+00	-1.042536e+02
 5.447460e-01	 1.134852e+00	-1.086426e+02
 5.231895e-01	 1.144950e+00	-1.099415e+02
 5.015201e-01	 1.154606e+00	-1.097591e+02
 4.797509e-01	 1.163819e+00	-1.083625e+02
 4.578948e-01	 1.172591e+00	-1.060153e+02
 4.359647e-01	 1.180920e+00	-1.029760e+02
 5.498371e-01	 1.145458e+00	-1.085282e+02
 5.280791e-01	 1.155650e+00	-1.096336e+02
 5.062072e-01	 1.165396e+00	-1.091254e+02
 4.842346e-01	 1.174696e+00	-1.073516e+02
 4.621742e-01	 1.183550e+00	-1.046592e+02
 4.400392e-01	 1.191956e+00	-1.013922e+02
 5.549282e-01	 1.156064e+00	-1.075951e+02
 5.329688e-01	 1.166350e+00	-1.083858e+02
 5.108943e-01	 1.176187e+00	-1.076183e+02
 4.887182e-01	 1.185573e+00	-1.056528e+02
 4.664536e-01	 1.194508e+00	-1.028482e+02
 4.441136e-01	 1.202993e+00	-9.955981e+01
 5.600193e-01	 1.166670e+00	-1.058106e+02
 5.378584e-01	 1.177051e+00	-1.062350e+02
 5.155815e-01	 1.186978e+00	-1.053161e+02
 4.932019e-01	 1.196450e+00	-1.033600e+02
 4.707330e-01	 1.205467e+00	-1.006680e+02
 4.481880e-01	 1.214030e+00	-9.753462e+01
 4.278159e-01	 1.158846e+00	-1.051652e+02
 4.062356e-01	 1.166587e+00	-1.021824e+02
 3.846076e-01	 1.173895e+00	-9.805445e+01
 3.629442e-01	 1.180772e+00	-9.295795e+01
 3.412573e-01	 1.187222e+00	-8.576440e+01
 3.195588e-01	 1.193245e+00	-7.797507e+01
 4.318903e-01	 1.169883e+00	-1.042536e+02
 4.101045e-01	 1.177697e+00	-1.008485e+02
 3.882705e-01	 1.185075e+00	-9.660485e+01
 3.664008e-01	 1.192018e+00	-9.161651e+01
 3.445073e-01	 1.198528e+00	-8.487205e+01
 3.226022e-01	 1.204609e+00	-7.717990e+01
 4.359647e-01	 1.180920e+00	-1.029760e+02
 4.139734e-01	 1.188807e+00	-9.933490e+01
 3.919335e-01	 1.196254e+00	-9.504968e+01
 3.698574e-01	 1.203263e+00	-9.016297e+01
 3.477574e-01	 1.209835e+00	-8.384870e+01
 3.256456e-01	 1.215974e+00	-7.619696e+01
 4.400392e-01	 1.191956e+00	-1.013922e+02
 4.178423e-01	 1.199918e+00	-9.766494e+01
 3.955964e-01	 1.207434e+00	-9.338847e+01
 3.733140e-01	 1.214509e+00	-8.858510e+01
 3.510075e-01	 1.221142e+00	-8.267745e+01
 3.286890e-01	 1.227338e+00	-7.501883e+01
 4.441136e-01	 1.202993e+00	-9.955981e+01
 4.217112e-01	 1.211028e+00	-9.586105e+01
 3.992593e-01	 1.218614e+00	-9.162089e+01
 3.767706e-01	 1.225754e+00	-8.687118e+01
 3.542575e-01	 1.232449e+00	-8.134198e+01
 3.317325e-01	 1.238702e+00	-7.363834e+01
 4.481880e-01	 1.214030e+00	-9.753462e+01
 4.255801e-01	 1.222138e+00	-9.394502e+01
 4.029223e-01	 1.229794e+00	-8.974671e+01
 3.802272e-01	 1.236999e+00	-8.500999e+01
 3.575076e-01	 1.243756e+00	-7.978924e+01
 3.347759e-01	 1.250066e+00	-7.204849e+01
 3.195588e-01	 1.193245e+00	-7.797507e+01
 2.978604e-01	 1.198846e+00	-7.020988e+01
 2.761734e-01	 1.204026e+00	-6.262305e+01
 2.545092e-01	 1.208791e+00	-5.544028e+01
 2.328785e-01	 1.213144e+00	-4.888760e+01
 2.112921e-01	 1.217090e+00	-4.319012e+01
 3.226022e-01	 1.204609e+00	-7.717990e+01
 3.006971e-01	 1.210263e+00	-6.948921e+01
 2.788037e-01	 1.215493e+00	-6.197846e+01
 2.569331e-01	 1.220304e+00	-5.487886e+01
 2.350964e-01	 1.224698e+00	-4.842267e+01
 2.133044e-01	 1.228681e+00	-4.284195e+01
 3.256456e-01	 1.215974e+00	-7.619696e+01
 3.035339e-01	 1.221681e+00	-6.854785e+01
 2.814339e-01	 1.226960e+00	-6.111232e+01
 2.593570e-01	 1.231816e+00	-5.411474e+01
 2.373143e-01	 1.236252e+00	-4.778108e+01
 2.153168e-01	 1.240272e+00	-4.233756e+01
 3.286890e-01	 1.227338e+00	-7.501883e+01
 3.063707e-01	 1.233098e+00	-6.739039e+01
 2.840641e-01	 1.238427e+00	-6.003711e+01
 2.617809e-01	 1.243328e+00	-5.316465e+01
 2.395322e-01	 1.247806e+00	-4.698044e+01
 2.173291e-01	 1.251864e+00	-4.169249e+01
 3.317325e-01	 1.238702e+00	-7.363834e+01
 3.092074e-01	 1.244516e+00	-6.602115e+01
 2.866943e-01	 1.249894e+00	-5.876481e+01
 2.642048e-01	 1.254841e+00	-5.204461e+01
 2.417501e-01	 1.259359e+00	-4.603764e+01
 2.193414e-01	 1.263455e+00	-4.092168e+01
 3.347759e-01	 1.250066e+00	-7.204849e+01
 3.120442e-01	 1.255933e+00	-6.444428e+01
 2.893246e-01	 1.261361e+00	-5.730688e+01
 2.666287e-01	 1.266353e+00	-5.077002e+01
 2.439680e-01	 1.270913e+00	-4.496894e+01
 2.213537e-01	 1.275046e+00	-4.003948e+01
 2.112921e-01	 1.217090e+00	-4.319012e+01
 1.897604e-01	 1.220632e+00	-3.749195e+01
 1.682934e-01	 1.223776e+00	-3.089713e+01
 1.469010e-01	 1.226528e+00	-2.356446e+01
 1.255926e-01	 1.228893e+00	-1.564649e+01
 1.043775e-01	 1.230876e+00	-7.290046e+00
 2.133044e-01	 1.228681e+00	-4.284195e+01
 1.915676e-01	 1.232257e+00	-3.725309e+01
 1.698962e-01	 1.235431e+00	-3.073568e+01
 1.483000e-01	 1.238210e+00	-2.346122e+01
 1.267887e-01	 1.240597e+00	-1.559562e+01
 1.053716e-01	 1.242599e+00	-7.299538e+00
 2.153168e-01	 1.240272e+00	-4.233756e+01
 1.933749e-01	 1.243882e+00	-3.686543e+01
 1.714990e-01	 1.247087e+00	-3.042655e+01
 1.496991e-01	 1.249891e+00	-2.321341e+01
 1.279849e-01	 1.252301e+00	-1.541332e+01
 1.063656e-01	 1.254322e+00	-7.208639e+00
 2.173291e-01	 1.251864e+00	-4.169249e+01
 1.951821e-01	 1.255507e+00	-3.634128e+01
 1.731018e-01	 1.258742e+00	-2.997901e+01
 1.510982e-01	 1.261572e+00	-2.282719e+01
 1.291810e-01	 1.264004e+00	-1.510240e+01
 1.073597e-01	 1.266044e+00	-7.016295e+00
 2.193414e-01	 1.263455e+00	-4.092168e+01
 1.969894e-01	 1.267132e+00	-3.569247e+01
 1.747046e-01	 1.270397e+00	-2.940195e+01
 1.524972e-01	 1.273253e+00	-2.230849e+01
 1.303771e-01	 1.275708e+00	-1.466553e+01
 1.083538e-01	 1.277767e+00	-6.721462e+00
 2.213537e-01	 1.275046e+00	-4.003948e+01
 1.987966e-01	 1.278757e+00	-3.493034e+01
 1.763074e-01	 1.282052e+00	-2.870391e+01
 1.538963e-01	 1.284934e+00	-2.166298e+01
 1.315732e-01	 1.287412e+00	-1.410526e+01
 1.093479e-01	 1.289490e+00	-6.323110e+00
 1.043775e-01	 1.230876e+00	-7.290046e+00
 8.326451e-02	 1.232485e+00	-8.323544e-01
 6.226220e-02	 1.233724e+00	 1.962677e+00
 4.137880e-02	 1.234601e+00	 1.803290e+00
 2.062221e-02	 1.235122e+00	-6.149313e-01
 0.000000e+00	 1.235294e+00	-4.609783e+00
 1.053716e-01	 1.242599e+00	-7.299538e+00
 8.405750e-02	 1.244223e+00	-9.346539e-01
 6.285517e-02	 1.245474e+00	 1.738582e+00
 4.177289e-02	 1.246359e+00	 1.457689e+00
 2.081861e-02	 1.246885e+00	-1.050551e+00
 0.000000e+00	 1.247059e+00	-5.071064e+00
 1.063656e-01	 1.254322e+00	-7.208639e+00
 8.485050e-02	 1.255961e+00	-9.757564e-01
 6.344815e-02	 1.257224e+00	 1.551582e+00
 4.216697e-02	 1.258117e+00	 1.152139e+00
 2.101502e-02	 1.258648e+00	-1.404955e+00
 0.000000e+00	 1.258824e+00	-5.361439e+00
 1.073597e-01	 1.266044e+00	-7.016295e+00
 8.564349e-02	 1.267699e+00	-9.522899e-01
 6.404112e-02	 1.268973e+00	 1.403400e+00
 4.256105e-02	 1.269875e+00	 8.824428e-01
 2.121142e-02	 1.270411e+00	-1.692830e+00
 0.000000e+00	 1.270588e+00	-5.510933e+00
 1.083538e-01	 1.277767e+00	-6.721462e+00
 8.643649e-02	 1.279437e+00	-8.609853e-01
 6.463409e-02	 1.280723e+00	 1.295714e+00
 4.295514e-02	 1.281633e+00	 6.445669e-01
 2.140782e-02	 1.282174e+00	-1.928320e+00
 0.000000e+00	 1.282353e+00	-5.548466e+00
 1.093479e-01	 1.289490e+00	-6.323110e+00
 8.722948e-02	 1.291174e+00	-6.986707e-01
 6.522707e-02	 1.292473e+00	 1.230157e+00
 4.334922e-02	 1.293391e+00	 4.346366e-01
 2.160422e-02	 1.293937e+00	-2.125048e+00
 0.000000e+00	 1.294118e+00	-5.501907e+00
 1.294118e+00	 0.000000e+00	 4.824232e+01
 1.293937e+00	 2.160422e-02	 3.126260e+01
 1.293391e+00	 4.334922e-02	 1.960040e+01
 1.292473e+00	 6.522707e-02	 1.321225e+01
 1.291174e+00	 8.722948e-02	 1.202394e+01
 1.289490e+00	 1.093479e-01	 1.592956e+01
 1.305882e+00	 0.000000e+00	 4.560091e+01
 1.305700e+00	 2.180062e-02	 2.921646e+01
 1.305150e+00	 4.374330e-02	 1.795328e+01
 1.304223e+00	 6.582004e-02	 1.176201e+01
 1.302912e+00	 8.802248e-02	 1.055943e+01
 1.301212e+00	 1.103419e-01	 1.422739e+01
 1.317647e+00	 0.000000e+00	 4.276223e+01
 1.317463e+00	 2.199703e-02	 2.707357e+01
 1.316908e+00	 4.413739e-02	 1.628046e+01
 1.315972e+00	 6.641301e-02	 1.032926e+01
 1.314650e+00	 8.881547e-02	 9.129929e+00
 1.312935e+00	 1.113360e-01	 1.255485e+01
 1.329412e+00	 0.000000e+00	 3.977473e+01
 1.329227e+00	 2.219343e-02	 2.486331e+01
 1.328666e+00	 4.453147e-02	 1.459660e+01
 1.327722e+00	 6.700599e-02	 8.918243e+00
 1.326388e+00	 8.960847e-02	 7.733479e+00
 1.324658e+00	 1.123301e-01	 1.090793e+01
 1.341176e+00	 0.000000e+00	 3.668515e+01
 1.340990e+00	 2.238983e-02	 2.261408e+01
 1.340424e+00	 4.492556e-02	 1.291594e+01
 1.339472e+00	 6.759896e-02	 7.533148e+00
 1.338126e+00	 9.040146e-02	 6.368318e+00
 1.336380e+00	 1.133241e-01	 9.282943e+00
 1.352941e+00	 0.000000e+00	 3.353859e+01
 1.352753e+00	 2.258623e-02	 2.035332e+01
 1.352182e+00	 4.531964e-02	 1.125226e+01
 1.351222e+00	 6.819193e-02	 6.178104e+00
 1.349864e+00	 9.119446e-02	 5.032854e+00
 1.348103e+00	 1.143182e-01	 7.676456e+00
 1.289490e+00	 1.093479e-01	 1.592956e+01
 1.287412e+00	 1.315732e-01	 2.087431e+01
 1.284934e+00	 1.538963e-01	 2.292106e+01
 1.282052e+00	 1.763074e-01	 2.212911e+01
 1.278757e+00	 1.987966e-01	 1.857592e+01
 1.275046e+00	 2.213537e-01	 1.235828e+01
 1.301212e+00	 1.103419e-01	 1.422739e+01
 1.299115e+00	 1.327693e-01	 1.884483e+01
 1.296616e+00	 1.552953e-01	 2.061828e+01
 1.293707e+00	 1.779102e-01	 1.960804e+01
 1.290382e+00	 2.006039e-01	 1.589381e+01
 1.286638e+00	 2.233660e-01	 9.575803e+00
 1.312935e+00	 1.113360e-01	 1.255485e+01
 1.310819e+00	 1.339655e-01	 1.683447e+01
 1.308297e+00	 1.566944e-01	 1.833473e+01
 1.305362e+00	 1.795130e-01	 1.711731e+01
 1.302007e+00	 2.024111e-01	 1.326465e+01
 1.298229e+00	 2.253783e-01	 6.881233e+00
 1.324658e+00	 1.123301e-01	 1.090793e+01
 1.322523e+00	 1.351616e-01	 1.483997e+01
 1.319978e+00	 1.580934e-01	 1.606938e+01
 1.317017e+00	 1.811158e-01	 1.465952e+01
 1.313633e+00	 2.042183e-01	 1.069616e+01
 1.309820e+00	 2.273906e-01	 4.288831e+00
 1.336380e+00	 1.133241e-01	 9.282943e+00
 1.334227e+00	 1.363577e-01	 1.285840e+01
 1.331659e+00	 1.594925e-01	 1.382143e+01
 1.328672e+00	 1.827186e-01	 1.223743e+01
 1.325258e+00	 2.060256e-01	 8.196070e+00
 1.321412e+00	 2.294029e-01	 1.812649e+00
 1.348103e+00	 1.143182e-01	 7.676456e+00
 1.345930e+00	 1.375538e-01	 1.088707e+01
 1.343341e+00	 1.608916e-01	 1.159032e+01
 1.340327e+00	 1.843214e-01	 9.853955e+00
 1.336883e+00	 2.078328e-01	 5.772072e+00
 1.333003e+00	 2.314152e-01	-5.334639e-01
 1.275046e+00	 2.213537e-01	 1.235828e+01
 1.270913e+00	 2.439680e-01	 4.727054e+00
 1.266353e+00	 2.666287e-01	-3.143500e+00
 1.261361e+00	 2.893246e-01	-1.125460e+01
 1.255933e+00	 3.120442e-01	-1.960450e+01
 1.250066e+00	 3.347759e-01	-2.818778e+01
 1.286638e+00	 2.233660e-01	 9.575803e+00
 1.282467e+00	 2.461859e-01	 1.853126e+00
 1.277865e+00	 2.690526e-01	-6.162079e+00
 1.272828e+00	 2.919548e-01	-1.448214e+01
 1.267351e+00	 3.148810e-01	-2.311644e+01
 1.261430e+00	 3.378193e-01	-3.207063e+01
 1.298229e+00	 2.253783e-01	 6.881233e+00
 1.294021e+00	 2.484038e-01	-8.900654e-01
 1.289377e+00	 2.714765e-01	-9.005939e+00
 1.284295e+00	 2.945850e-01	-1.749257e+01
 1.278769e+00	 3.177177e-01	-2.637353e+01
 1.272795e+00	 3.408627e-01	-3.566899e+01
 1.309820e+00	 2.273906e-01	 4.288831e+00
 1.305574e+00	 2.506217e-01	-3.482076e+00
 1.300890e+00	 2.739004e-01	-1.165057e+01
 1.295762e+00	 2.972152e-01	-2.025933e+01
 1.290186e+00	 3.205545e-01	-2.934919e+01
 1.284159e+00	 3.439061e-01	-3.895814e+01
 1.321412e+00	 2.294029e-01	 1.812649e+00
 1.317128e+00	 2.528396e-01	-5.902863e+00
 1.312402e+00	 2.763243e-01	-1.407196e+01
 1.307229e+00	 2.998455e-01	-2.275647e+01
 1.301604e+00	 3.233913e-01	-3.201737e+01
 1.295523e+00	 3.469495e-01	-4.191382e+01
 1.333003e+00	 2.314152e-01	-5.334639e-01
 1.328682e+00	 2.550574e-01	-8.132767e+00
 1.323914e+00	 2.787482e-01	-1.624662e+01
 1.318696e+00	 3.024757e-01	-2.495853e+01
 1.313021e+00	 3.262280e-01	-3.435254e+01
 1.306887e+00	 3.499930e-01	-4.451218e+01
 1.250066e+00	 3.347759e-01	-2.818778e+01
 1.243756e+00	 3.575076e-01	-3.757769e+01
 1.236999e+00	 3.802272e-01	-3.446812e+01
 1.229794e+00	 4.029223e-01	-3.346408e+01
 1.222138e+00	 4.255801e-01	-3.462002e+01
 1.214030e+00	 4.481880e-01	-3.799716e+01
 1.261430e+00	 3.378193e-01	-3.207063e+01
 1.255063e+00	 3.607577e-01	-3.978320e+01
 1.248245e+00	 3.836838e-01	-3.686332e+01
 1.240974e+00	 4.065852e-01	-3.602100e+01
 1.233249e+00	 4.294491e-01	-3.729621e+01
 1.225066e+00	 4.522625e-01	-4.073444e+01
 1.272795e+00	 3.408627e-01	-3.566899e+01
 1.266370e+00	 3.640077e-01	-4.165660e+01
 1.259490e+00	 3.871404e-01	-3.895346e+01
 1.252154e+00	 4.102481e-01	-3.829044e+01
 1.244359e+00	 4.333180e-01	-3.968899e+01
 1.236103e+00	 4.563369e-01	-4.317465e+01
 1.284159e+00	 3.439061e-01	-3.895814e+01
 1.277677e+00	 3.672578e-01	-4.320472e+01
 1.270736e+00	 3.905970e-01	-4.074875e+01
 1.263334e+00	 4.139111e-01	-4.028546e+01
 1.255469e+00	 4.371869e-01	-4.181377e+01
 1.247140e+00	 4.604114e-01	-4.533521e+01
 1.295523e+00	 3.469495e-01	-4.191382e+01
 1.288983e+00	 3.705079e-01	-4.443475e+01
 1.281981e+00	 3.940537e-01	-4.225966e+01
 1.274514e+00	 4.175740e-01	-4.201925e+01
 1.266580e+00	 4.410558e-01	-4.368607e+01
 1.258176e+00	 4.644858e-01	-4.723360e+01
 1.306887e+00	 3.499930e-01	-4.451218e+01
 1.300290e+00	 3.737580e-01	-4.535417e+01
 1.293227e+00	 3.975103e-01	-4.349689e+01
 1.285694e+00	 4.212369e-01	-4.350521e+01
 1.277690e+00	 4.449247e-01	-4.532151e+01
 1.269213e+00	 4.685602e-01	-4.888736e+01
 1.214030e+00	 4.481880e-01	-3.799716e+01
 1.205467e+00	 4.707330e-01	-4.202867e+01
 1.196450e+00	 4.932019e-01	-4.517756e+01
 1.186978e+00	 5.155815e-01	-4.756758e+01
 1.177051e+00	 5.378584e-01	-4.933958e+01
 1.166670e+00	 5.600193e-01	-5.065195e+01
 1.225066e+00	 4.522625e-01	-4.073444e+01
 1.216426e+00	 4.750124e-01	-4.477138e+01
 1.207327e+00	 4.976855e-01	-4.788327e+01
 1.197768e+00	 5.202686e-01	-5.019539e+01
 1.187751e+00	 5.427480e-01	-5.185284e+01
 1.177276e+00	 5.651103e-01	-5.302113e+01
 1.236103e+00	 4.563369e-01	-4.317465e+01
 1.227385e+00	 4.792918e-01	-4.719357e+01
 1.218204e+00	 5.021692e-01	-5.024813e+01
 1.208559e+00	 5.249557e-01	-5.246809e+01
 1.198452e+00	 5.476376e-01	-5.400557e+01
 1.187882e+00	 5.702014e-01	-5.503562e+01
 1.247140e+00	 4.604114e-01	-4.533521e+01
 1.238343e+00	 4.835712e-01	-4.931357e+01
 1.229080e+00	 5.066528e-01	-5.228941e+01
 1.219350e+00	 5.296428e-01	-5.439984e+01
 1.209152e+00	 5.525273e-01	-5.580663e+01
 1.198488e+00	 5.752925e-01	-5.669680e+01
 1.258176e+00	 4.644858e-01	-4.723360e+01
 1.249302e+00	 4.878506e-01	-5.114978e+01
 1.239957e+00	 5.111365e-01	-5.402449e+01
 1.230141e+00	 5.343299e-01	-5.600503e+01
 1.219853e+00	 5.574169e-01	-5.726537e+01
 1.209094e+00	 5.803836e-01	-5.800676e+01
 1.269213e+00	 4.685602e-01	-4.888736e+01
 1.260261e+00	 4.921299e-01	-5.272062e+01
 1.250834e+00	 5.156201e-01	-5.547089e+01
 1.240931e+00	 5.390170e-01	-5.729831e+01
 1.230553e+00	 5.623065e-01	-5.839154e+01
 1.219700e+00	 5.854747e-01	-5.896834e+01
 1.166670e+00	 5.600193e-01	-5.065195e+01
 1.155836e+00	 5.820506e-01	-5.220798e+01
 1.144552e+00	 6.039389e-01	-5.467981e+01
 1.132818e+00	 6.256707e-01	-5.819867e+01
 1.120639e+00	 6.472324e-01	-6.290416e+01
 1.108016e+00	 6.686106e-01	-6.894412e+01
 1.177276e+00	 5.651103e-01	-5.302113e+01
 1.166344e+00	 5.873420e-01	-5.438772e+01
 1.154957e+00	 6.094293e-01	-5.661985e+01
 1.143116e+00	 6.313586e-01	-5.987488e+01
 1.130826e+00	 6.531163e-01	-6.431907e+01
 1.118089e+00	 6.746889e-01	-7.012739e+01
 1.187882e+00	 5.702014e-01	-5.503562e+01
 1.176852e+00	 5.926333e-01	-5.622501e+01
 1.165362e+00	 6.149196e-01	-5.822660e+01
 1.153415e+00	 6.370465e-01	-6.121962e+01
 1.141014e+00	 6.590002e-01	-6.539325e+01
 1.128162e+00	 6.807672e-01	-7.094635e+01
 1.198488e+00	 5.752925e-01	-5.669680e+01
 1.187359e+00	 5.979247e-01	-5.771403e+01
 1.175767e+00	 6.204100e-01	-5.949003e+01
 1.163713e+00	 6.427344e-01	-6.222176e+01
 1.151201e+00	 6.648842e-01	-6.611769e+01
 1.138235e+00	 6.868455e-01	-7.139741e+01
 1.209094e+00	 5.803836e-01	-5.800676e+01
 1.197867e+00	 6.032161e-01	-5.884995e+01
 1.186172e+00	 6.259003e-01	-6.040126e+01
 1.174011e+00	 6.484223e-01	-6.287138e+01
 1.161389e+00	 6.707681e-01	-6.648451e+01
 1.148308e+00	 6.929237e-01	-7.147794e+01
 1.219700e+00	 5.854747e-01	-5.896834e+01
 1.208374e+00	 6.085074e-01	-5.962892e+01
 1.196577e+00	 6.313907e-01	-6.095255e+01
 1.184310e+00	 6.541102e-01	-6.315974e+01
 1.171577e+00	 6.766520e-01	-6.648694e+01
 1.158381e+00	 6.990020e-01	-7.118622e+01
 1.108016e+00	 6.686106e-01	-6.894412e+01
 1.094955e+00	 6.897920e-01	-7.707227e+01
 1.081460e+00	 7.107633e-01	-8.817905e+01
 1.067535e+00	 7.315112e-01	-9.118024e+01
 1.053187e+00	 7.520229e-01	-9.241298e+01
 1.038420e+00	 7.722854e-01	-9.359418e+01
 1.118089e+00	 6.746889e-01	-7.012739e+01
 1.104910e+00	 6.960629e-01	-7.809425e+01
 1.091292e+00	 7.172247e-01	-8.746501e+01
 1.077240e+00	 7.381613e-01	-8.856474e+01
 1.062761e+00	 7.588594e-01	-9.046332e+01
 1.047860e+00	 7.793062e-01	-9.236919e+01
 1.128162e+00	 6.807672e-01	-7.094635e+01
 1.114864e+00	 7.023337e-01	-7.870401e+01
 1.101123e+00	 7.236862e-01	-8.473427e+01
 1.086945e+00	 7.448114e-01	-8.606149e+01
 1.072335e+00	 7.656960e-01	-8.801868e+01
 1.057300e+00	 7.863269e-01	-9.056718e+01
 1.138235e+00	 6.868455e-01	-7.139741e+01
 1.124818e+00	 7.086045e-01	-7.890601e+01
 1.110955e+00	 7.301477e-01	-8.208650e+01
 1.096650e+00	 7.514615e-01	-8.357511e+01
 1.081910e+00	 7.725326e-01	-8.561741e+01
 1.066740e+00	 7.933477e-01	-8.824185e+01
 1.148308e+00	 6.929237e-01	-7.147794e+01
 1.134772e+00	 7.148754e-01	-7.848982e+01
 1.120786e+00	 7.366092e-01	-7.950789e+01
 1.106355e+00	 7.581116e-01	-8.110257e+01
 1.091484e+00	 7.793692e-01	-8.317977e+01
 1.076181e+00	 8.003685e-01	-8.563737e+01
 1.158381e+00	 6.990020e-01	-7.118622e+01
 1.144726e+00	 7.211462e-01	-7.586409e+01
 1.130617e+00	 7.430707e-01	-7.698494e+01
 1.116060e+00	 7.647617e-01	-7.864080e+01
 1.101059e+00	 7.862057e-01	-8.071420e+01
 1.085621e+00	 8.073893e-01	-8.307732e+01
 1.038420e+00	 7.722854e-01	-9.359418e+01
 1.023241e+00	 7.922861e-01	-9.487006e+01
 1.007659e+00	 8.120127e-01	-9.605785e+01
 9.916786e-01	 8.314530e-01	-9.693945e+01
 9.753095e-01	 8.505950e-01	-9.728389e+01
 9.585598e-01	 8.694272e-01	-9.684809e+01
 1.047860e+00	 7.793062e-01	-9.236919e+01
 1.032544e+00	 7.994887e-01	-9.401328e+01
 1.016819e+00	 8.193946e-01	-9.519758e+01
 1.000694e+00	 8.390116e-01	-9.580768e+01
 9.841760e-01	 8.583277e-01	-9.572450e+01
 9.672739e-01	 8.773311e-01	-9.482448e+01
 1.057300e+00	 7.863269e-01	-9.056718e+01
 1.041846e+00	 8.066913e-01	-9.257477e+01
 1.025980e+00	 8.267766e-01	-9.380995e+01
 1.009709e+00	 8.465703e-01	-9.423987e+01
 9.930424e-01	 8.660603e-01	-9.383367e+01
 9.759881e-01	 8.852350e-01	-9.256226e+01
 1.066740e+00	 7.933477e-01	-8.824185e+01
 1.051148e+00	 8.138939e-01	-9.061678e+01
 1.035140e+00	 8.341585e-01	-9.195649e+01
 1.018724e+00	 8.541289e-01	-9.228807e+01
 1.001909e+00	 8.737930e-01	-9.164584e+01
 9.847023e-01	 8.931389e-01	-9.007078e+01
 1.076181e+00	 8.003685e-01	-8.563737e+01
 1.060450e+00	 8.210965e-01	-8.820034e+01
 1.044301e+00	 8.415404e-01	-8.969748e+01
 1.027740e+00	 8.616876e-01	-9.000340e+01
 1.010775e+00	 8.815257e-01	-8.919514e+01
 9.934165e-01	 9.010427e-01	-8.735992e+01
 1.085621e+00	 8.073893e-01	-8.307732e+01
 1.069752e+00	 8.282991e-01	-8.538527e+01
 1.053461e+00	 8.489224e-01	-8.709205e+01
 1.036755e+00	 8.692463e-01	-8.743614e+01
 1.019642e+00	 8.892584e-01	-8.651540e+01
 1.002131e+00	 9.089466e-01	-8.444014e+01
 9.585598e-01	 8.694272e-01	-9.684809e+01
 9.414382e-01	 8.879384e-01	-9.503712e+01
 9.239542e-01	 9.061176e-01	-9.180684e+01
 9.061176e-01	 9.239542e-01	-8.776041e+01
 8.879384e-01	 9.414382e-01	-8.353589e+01
 8.694272e-01	 9.585598e-01	-7.980206e+01
 9.672739e-01	 8.773311e-01	-9.482448e+01
 9.499968e-01	 8.960105e-01	-9.273500e+01
 9.323538e-01	 9.143550e-01	-8.950112e+01
 9.143550e-01	 9.323538e-01	-8.564602e+01
 8.960105e-01	 9.499968e-01	-8.172148e+01
 8.773311e-01	 9.672739e-01	-7.830409e+01
 9.759881e-01	 8.852350e-01	-9.256226e+01
 9.585553e-01	 9.040827e-01	-9.022389e+01
 9.407534e-01	 9.225924e-01	-8.693686e+01
 9.225924e-01	 9.407534e-01	-8.317344e+01
 9.040827e-01	 9.585553e-01	-7.943017e+01
 8.852350e-01	 9.759881e-01	-7.622445e+01
 9.847023e-01	 8.931389e-01	-9.007078e+01
 9.671138e-01	 9.121549e-01	-8.749124e+01
 9.491530e-01	 9.308299e-01	-8.409265e+01
 9.308299e-01	 9.491530e-01	-8.032460e+01
 9.121549e-01	 9.671138e-01	-7.665868e+01
 8.931389e-01	 9.847023e-01	-7.358527e+01
 9.934165e-01	 9.010427e-01	-8.735992e+01
 9.756723e-01	 9.202270e-01	-8.452581e+01
 9.575526e-01	 9.390673e-01	-8.094870e+01
 9.390673e-01	 9.575526e-01	-7.708292e+01
 9.202270e-01	 9.756723e-01	-7.340469e+01
 9.010427e-01	 9.934165e-01	-7.040868e+01
 1.002131e+00	 9.089466e-01	-8.444014e+01
 9.842309e-01	 9.282992e-01	-8.131766e+01
 9.659522e-01	 9.473047e-01	-7.748673e+01
 9.473047e-01	 9.659522e-01	-7.343325e+01
 9.282992e-01	 9.842309e-01	-6.966677e+01
 9.089466e-01	 1.002131e+00	-6.671684e+01
 8.694272e-01	 9.585598e-01	-7.980206e+01
 8.505950e-01	 9.753095e-01	-7.708968e+01
 8.314530e-01	 9.916786e-01	-7.545796e+01
 8.120127e-01	 1.007659e+00	-7.487944e+01
 7.922861e-01	 1.023241e+00	-7.531386e+01
 7.722854e-01	 1.038420e+00	-7.670775e+01
 8.773311e-01	 9.672739e-01	-7.830409e+01
 8.583277e-01	 9.841760e-01	-7.577223e+01
 8.390116e-01	 1.000694e+00	-7.415859e+01
 8.193946e-01	 1.016819e+00	-7.353261e+01
 7.994887e-01	 1.032544e+00	-7.395655e+01
 7.793062e-01	 1.047860e+00	-7.548440e+01
 8.852350e-01	 9.759881e-01	-7.622445e+01
 8.660603e-01	 9.930424e-01	-7.383550e+01
 8.465703e-01	 1.009709e+00	-7.227929e+01
 8.267766e-01	 1.025980e+00	-7.168990e+01
 8.066913e-01	 1.041846e+00	-7.219757e+01
 7.863269e-01	 1.057300e+00	-7.392738e+01
 8.931389e-01	 9.847023e-01	-7.358527e+01
 8.737930e-01	 1.001909e+00	-7.132448e+01
 8.541289e-01	 1.018724e+00	-6.987358e+01
 8.341585e-01	 1.035140e+00	-6.939978e+01
 8.138939e-01	 1.051148e+00	-7.006781e+01
 7.933477e-01	 1.066740e+00	-7.203837e+01
 9.010427e-01	 9.934165e-01	-7.040868e+01
 8.815257e-01	 1.010775e+00	-6.828339e+01
 8.616876e-01	 1.027740e+00	-6.699382e+01
 8.415404e-01	 1.044301e+00	-6.670976e+01
 8.210965e-01	 1.060450e+00	-6.759780e+01
 8.003685e-01	 1.076181e+00	-7.003810e+01
 9.089466e-01	 1.002131e+00	-6.671684e+01
 8.892584e-01	 1.019642e+00	-6.475564e+01
 8.692463e-01	 1.036755e+00	-6.369130e+01
 8.489224e-01	 1.053461e+00	-6.366643e+01
 8.282991e-01	 1.069752e+00	-6.481766e+01
 8.073893e-01	 1.085621e+00	-6.831683e+01
 7.722854e-01	 1.038420e+00	-7.670775e+01
 7.520229e-01	 1.053187e+00	-7.967189e+01
 7.315112e-01	 1.067535e+00	-8.532698e+01
 7.107633e-01	 1.081460e+00	-9.009557e+01
 6.897920e-01	 1.094955e+00	-9.293503e+01
 6.686106e-01	 1.108016e+00	-9.494311e+01
 7.793062e-01	 1.047860e+00	-7.548440e+01
 7.588594e-01	 1.062761e+00	-7.889752e+01
 7.381613e-01	 1.077240e+00	-8.381065e+01
 7.172247e-01	 1.091292e+00	-8.768063e+01
 6.960629e-01	 1.104910e+00	-9.127101e+01
 6.746889e-01	 1.118089e+00	-9.390104e+01
 7.863269e-01	 1.057300e+00	-7.392738e+01
 7.656960e-01	 1.072335e+00	-7.766469e+01
 7.448114e-01	 1.086945e+00	-8.129943e+01
 7.236862e-01	 1.101123e+00	-8.524131e+01
 7.023337e-01	 1.114864e+00	-8.929680e+01
 6.807672e-01	 1.128162e+00	-9.236272e+01
 7.933477e-01	 1.066740e+00	-7.203837e+01
 7.725326e-01	 1.081910e+00	-7.536370e+01
 7.514615e-01	 1.096650e+00	-7.889709e+01
 7.301477e-01	 1.110955e+00	-8.275851e+01
 7.086045e-01	 1.124818e+00	-8.699404e+01
 6.868455e-01	 1.138235e+00	-9.034135e+01
 8.003685e-01	 1.076181e+00	-7.003810e+01
 7.793692e-01	 1.091484e+00	-7.323233e+01
 7.581116e-01	 1.106355e+00	-7.655184e+01
 7.366092e-01	 1.120786e+00	-8.018578e+01
 7.148754e-01	 1.134772e+00	-8.433288e+01
 6.929237e-01	 1.148308e+00	-8.784997e+01
 8.073893e-01	 1.085621e+00	-6.831683e+01
 7.862057e-01	 1.101059e+00	-7.122938e+01
 7.647617e-01	 1.116060e+00	-7.421370e+01
 7.430707e-01	 1.130617e+00	-7.747823e+01
 7.211462e-01	 1.144726e+00	-8.124228e+01
 6.990020e-01	 1.158381e+00	-8.490149e+01
 6.686106e-01	 1.108016e+00	-9.494311e+01
 6.472324e-01	 1.120639e+00	-9.703754e+01
 6.256707e-01	 1.132818e+00	-9.947221e+01
 6.039389e-01	 1.144552e+00	-1.019610e+02
 5.820506e-01	 1.155836e+00	-1.041883e+02
 5.600193e-01	 1.166670e+00	-1.058106e+02
 6.746889e-01	 1.118089e+00	-9.390104e+01
 6.531163e-01	 1.130826e+00	-9.626770e+01
 6.313586e-01	 1.143116e+00	-9.857572e+01
 6.094293e-01	 1.154957e+00	-1.006688e+02
 5.873420e-01	 1.166344e+00	-1.023679e+02
 5.651103e-01	 1.177276e+00	-1.034721e+02
 6.807672e-01	 1.128162e+00	-9.236272e+01
 6.590002e-01	 1.141014e+00	-9.490291e+01
 6.370465e-01	 1.153415e+00	-9.709631e+01
 6.149196e-01	 1.165362e+00	-9.888377e+01
 5.926333e-01	 1.176852e+00	-1.001883e+02
 5.702014e-01	 1.187882e+00	-1.009151e+02
 6.868455e-01	 1.138235e+00	-9.034135e+01
 6.648842e-01	 1.151201e+00	-9.298630e+01
 6.427344e-01	 1.163713e+00	-9.509237e+01
 6.204100e-01	 1.175767e+00	-9.666573e+01
 5.979247e-01	 1.187359e+00	-9.769776e+01
 5.752925e-01	 1.198488e+00	-9.816474e+01
 6.929237e-01	 1.148308e+00	-8.784997e+01
 6.707681e-01	 1.161389e+00	-9.055980e+01
 6.484223e-01	 1.174011e+00	-9.262049e+01
 6.259003e-01	 1.186172e+00	-9.407266e+01
 6.032161e-01	 1.197867e+00	-9.494338e+01
 5.803836e-01	 1.209094e+00	-9.524565e+01
 6.990020e-01	 1.158381e+00	-8.490149e+01
 6.766520e-01	 1.171577e+00	-8.766416e+01
 6.541102e-01	 1.184310e+00	-8.973556e+01
 6.313907e-01	 1.196577e+00	-9.116075e+01
 6.085074e-01	 1.208374e+00	-9.197070e+01
 5.854747e-01	 1.219700e+00	-9.218173e+01
 5.600193e-01	 1.166670e+00	-1.058106e+02
 5.378584e-01	 1.177051e+00	-1.062350e+02
 5.155815e-01	 1.186978e+00	-1.053161e+02
 4.932019e-01	 1.196450e+00	-1.033600e+02
 4.707330e-01	 1.205467e+00	-1.006680e+02
 4.481880e-01	 1.214030e+00	-9.753462e+01
 5.651103e-01	 1.177276e+00	-1.034721e+02
 5.427480e-01	 1.187751e+00	-1.035784e+02
 5.202686e-01	 1.197768e+00	-1.025860e+02
 4.976855e-01	 1.207327e+00	-1.007259e+02
 4.750124e-01	 1.216426e+00	-9.821974e+01
 4.522625e-01	 1.225066e+00	-9.527875e+01
 5.702014e-01	 1.187882e+00	-1.009151e+02
 5.476376e-01	 1.198452e+00	-1.007903e+02
 5.249557e-01	 1.208559e+00	-9.973634e+01
 5.021692e-01	 1.218204e+00	-9.793156e+01
 4.792918e-01	 1.227385e+00	-9.554190e+01
 4.563369e-01	 1.236103e+00	-9.272000e+01
 5.752925e-01	 1.198488e+00	-9.816474e+01
 5.525273e-01	 1.209152e+00	-9.787247e+01
 5.296428e-01	 1.219350e+00	-9.675547e+01
 5.066528e-01	 1.229080e+00	-9.496152e+01
 4.835712e-01	 1.238343e+00	-9.262401e+01
 4.604114e-01	 1.247140e+00	-8.986113e+01
 5.803836e-01	 1.209094e+00	-9.524565e+01
 5.574169e-01	 1.219853e+00	-9.482678e+01
 5.343299e-01	 1.230141e+00	-9.363235e+01
 5.111365e-01	 1.239957e+00	-9.180102e+01
 4.878506e-01	 1.249302e+00	-8.945612e+01
 4.644858e-01	 1.258176e+00	-8.670494e+01
 5.854747e-01	 1.219700e+00	-9.218173e+01
 5.623065e-01	 1.230553e+00	-9.165519e+01
 5.390170e-01	 1.240931e+00	-9.035648e+01
 5.156201e-01	 1.250834e+00	-8.843595e+01
 4.921299e-01	 1.260261e+00	-8.602881e+01
 4.685602e-01	 1.269213e+00	-8.325428e+01
 4.481880e-01	 1.214030e+00	-9.753462e+01
 4.255801e-01	 1.222138e+00	-9.394502e+01
 4.029223e-01	 1.229794e+00	-8.974671e+01
 3.802272e-01	 1.236999e+00	-8.500999e+01
 3.575076e-01	 1.243756e+00	-7.978924e+01
 3.347759e-01	 1.250066e+00	-7.204849e+01
 4.522625e-01	 1.225066e+00	-9.527875e+01
 4.294491e-01	 1.233249e+00	-9.180282e+01
 4.065852e-01	 1.240974e+00	-8.764079e+01
 3.836838e-01	 1.248245e+00	-8.290769e+01
 3.607577e-01	 1.255063e+00	-7.770382e+01
 3.378193e-01	 1.261430e+00	-7.024670e+01
 4.563369e-01	 1.236103e+00	-9.272000e+01
 4.333180e-01	 1.244359e+00	-8.931759e+01
 4.102481e-01	 1.252154e+00	-8.519477e+01
 3.871404e-01	 1.259490e+00	-8.049573e+01
 3.640077e-01	 1.266370e+00	-7.535053e+01
 3.408627e-01	 1.272795e+00	-6.824329e+01
 4.604114e-01	 1.247140e+00	-8.986113e+01
 4.371869e-01	 1.255469e+00	-8.650596e+01
 4.139111e-01	 1.263334e+00	-8.243303e+01
 3.905970e-01	 1.270736e+00	-7.780057e+01
 3.672578e-01	 1.277677e+00	-7.275268e+01
 3.439061e-01	 1.284159e+00	-6.605036e+01
 4.644858e-01	 1.258176e+00	-8.670494e+01
 4.410558e-01	 1.266580e+00	-8.338410e+01
 4.175740e-01	 1.274514e+00	-7.937919e+01
 3.940537e-01	 1.281981e+00	-7.484782e+01
 3.705079e-01	 1.288983e+00	-6.993285e+01
 3.469495e-01	 1.295523e+00	-6.367950e+01
 4.685602e-01	 1.269213e+00	-8.325428e+01
 4.449247e-01	 1.277690e+00	-7.996771e+01
 4.212369e-01	 1.285694e+00	-7.605616e+01
 3.975103e-01	 1.293227e+00	-7.166230e+01
 3.737580e-01	 1.300290e+00	-6.691291e+01
 3.499930e-01	 1.306887e+00	-6.114186e+01
 3.347759e-01	 1.250066e+00	-7.204849e+01
 3.120442e-01	 1.255933e+00	-6.444428e+01
 2.893246e-01	 1.261361e+00	-5.730688e+01
 2.666287e-01	 1.266353e+00	-5.077002e+01
 2.439680e-01	 1.270913e+00	-4.496894e+01
 2.213537e-01	 1.275046e+00	-4.003948e+01
 3.378193e-01	 1.261430e+00	-7.024670e+01
 3.148810e-01	 1.267351e+00	-6.267378e+01
 2.919548e-01	 1.272828e+00	-5.566738e+01
 2.690526e-01	 1.277865e+00	-4.932104e+01
 2.461859e-01	 1.282467e+00	-4.372948e+01
 2.233660e-01	 1.286638e+00	-3.898791e+01
 3.408627e-01	 1.272795e+00	-6.824329e+01
 3.177177e-01	 1.278769e+00	-6.072389e+01
 2.945850e-01	 1.284295e+00	-5.384259e+01
 2.714765e-01	 1.289377e+00	-4.766630e+01
 2.484038e-01	 1.294021e+00	-4.226290e+01
 2.253783e-01	 1.298229e+00	-3.770070e+01
 3.439061e-01	 1.284159e+00	-6.605036e+01
 3.205545e-01	 1.290186e+00	-5.859877e+01
 2.972152e-01	 1.295762e+00	-5.183203e+01
 2.739004e-01	 1.300890e+00	-4.580356e+01
 2.506217e-01	 1.305574e+00	-4.056771e+01
 2.273906e-01	 1.309820e+00	-3.617926e+01
 3.469495e-01	 1.295523e+00	-6.367950e+01
 3.233913e-01	 1.301604e+00	-5.630237e+01
 2.998455e-01	 1.307229e+00	-4.963515e+01
 2.763243e-01	 1.312402e+00	-4.373059e+01
 2.528396e-01	 1.317128e+00	-3.864242e+01
 2.294029e-01	 1.321412e+00	-3.442490e+01
 3.499930e-01	 1.306887e+00	-6.114186e+01
 3.262280e-01	 1.313021e+00	-5.383845e+01
 3.024757e-01	 1.318696e+00	-4.725139e+01
 2.787482e-01	 1.323914e+00	-4.144518e+01
 2.550574e-01	 1.328682e+00	-3.648553e+01
 2.314152e-01	 1.333003e+00	-3.243883e+01
 2.213537e-01	 1.275046e+00	-4.003948e+01
 1.987966e-01	 1.278757e+00	-3.493034e+01
 1.763074e-01	 1.282052e+00	-2.870391e+01
 1.538963e-01	 1.284934e+00	-2.166298e+01
 1.315732e-01	 1.287412e+00	-1.410526e+01
 1.093479e-01	 1.289490e+00	-6.323110e+00
 2.233660e-01	 1.286638e+00	-3.898791e+01
 2.006039e-01	 1.290382e+00	-3.400544e+01
 1.779102e-01	 1.293707e+00	-2.785903e+01
 1.552953e-01	 1.296616e+00	-2.089212e+01
 1.327693e-01	 1.299115e+00	-1.344301e+01
 1.103419e-01	 1.301212e+00	-5.844356e+00
 2.253783e-01	 1.298229e+00	-3.770070e+01
 2.024111e-01	 1.302007e+00	-3.286421e+01
 1.795130e-01	 1.305362e+00	-2.684083e+01
 1.566944e-01	 1.308297e+00	-1.999997e+01
 1.339655e-01	 1.310819e+00	-1.270610e+01
 1.113360e-01	 1.312935e+00	-5.318061e+00
 2.273906e-01	 1.309820e+00	-3.617926e+01
 2.042183e-01	 1.313633e+00	-3.151133e+01
 1.811158e-01	 1.317017e+00	-2.565645e+01
 1.580934e-01	 1.319978e+00	-1.899565e+01
 1.351616e-01	 1.322523e+00	-1.190553e+01
 1.123301e-01	 1.324658e+00	-4.757436e+00
 2.294029e-01	 1.321412e+00	-3.442490e+01
 2.060256e-01	 1.325258e+00	-2.995130e+01
 1.827186e-01	 1.328672e+00	-2.431272e+01
 1.594925e-01	 1.331659e+00	-1.788790e+01
 1.363577e-01	 1.334227e+00	-1.105189e+01
 1.133241e-01	 1.336380e+00	-4.175202e+00
 2.314152e-01	 1.333003e+00	-3.243883e+01
 2.078328e-01	 1.336883e+00	-2.818841e+01
 1.843214e-01	 1.340327e+00	-2.281621e+01
 1.608916e-01	 1.343341e+00	-1.668514e+01
 1.375538e-01	 1.345930e+00	-1.015537e+01
 1.143182e-01	 1.348103e+00	-3.583615e+00
 1.093479e-01	 1.289490e+00	-6.323110e+00
 8.722948e-02	 1.291174e+00	-6.986707e-01
 6.522707e-02	 1.292473e+00	 1.230157e+00
 4.334922e-02	 1.293391e+00	 4.346366e-01
 2.160422e-02	 1.293937e+00	-2.125048e+00
 0.000000e+00	 1.294118e+00	-5.501907e+00
 1.103419e-01	 1.301212e+00	-5.844356e+00
 8.802248e-02	 1.302912e+00	-4.676061e-01
 6.582004e-02	 1.304223e+00	 1.233003e+00
 4.374330e-02	 1.305150e+00	 2.975808e-01
 2.180062e-02	 1.305700e+00	-2.245935e+00
 0.000000e+00	 1.305882e+00	-5.384186e+00
 1.113360e-01	 1.312935e+00	-5.318061e+00
 8.881547e-02	 1.314650e+00	-1.819904e-01
 6.641301e-02	 1.315972e+00	 1.320832e+00
 4.413739e-02	 1.316908e+00	 2.759191e-01
 2.199703e-02	 1.317463e+00	-2.243410e+00
 0.000000e+00	 1.317647e+00	-5.178676e+00
 1.123301e-01	 1.324658e+00	-4.757436e+00
 8.960847e-02	 1.326388e+00	 1.437775e-01
 6.700599e-02	 1.327722e+00	 1.481058e+00
 4.453147e-02	 1.328666e+00	 3.624799e-01
 2.219343e-02	 1.329227e+00	-2.115046e+00
 0.000000e+00	 1.329412e+00	-4.868609e+00
 1.133241e-01	 1.336380e+00	-4.175202e+00
 9.040146e-02	 1.338126e+00	 4.958241e-01
 6.759896e-02	 1.339472e+00	 1.701551e+00
 4.492556e-02	 1.340424e+00	 5.503535e-01
 2.238983e-02	 1.340990e+00	-1.858498e+00
 0.000000e+00	 1.341176e+00	-4.437809e+00
 1.143182e-01	 1.348103e+00	-3.583615e+00
 9.119446e-02	 1.349864e+00	 8.607786e-01
 6.819193e-02	 1.351222e+00	 1.970618e+00
 4.531964e-02	 1.352182e+00	 8.328810e-01
 2.258623e-02	 1.352753e+00	-1.471494e+00
 0.000000e+00	 1.352941e+00	-3.870658e+00
 1.352941e+00	 0.000000e+00	 3.353859e+01
 1.352753e+00	 2.258623e-02	 2.035332e+01
 1.352182e+00	 4.531964e-02	 1.125226e+01
 1.351222e+00	 6.819193e-02	 6.178104e+00
 1.349864e+00	 9.119446e-02	 5.032854e+00
 1.348103e+00	 1.143182e-01	 7.676456e+00
 1.364706e+00	 0.000000e+00	 3.033314e+01
 1.364516e+00	 2.278263e-02	 1.807275e+01
 1.363940e+00	 4.571372e-02	 9.593535e+00
 1.362971e+00	 6.878491e-02	 4.841135e+00
 1.361602e+00	 9.198745e-02	 3.719545e+00
 1.359825e+00	 1.153123e-01	 6.089701e+00
 1.376471e+00	 0.000000e+00	 2.703806e+01
 1.376279e+00	 2.297904e-02	 1.576010e+01
 1.375698e+00	 4.610781e-02	 7.942424e+00
 1.374721e+00	 6.937788e-02	 3.537366e+00
 1.373340e+00	 9.278045e-02	 2.454073e+00
 1.371548e+00	 1.163064e-01	 4.556949e+00
 1.388235e+00	 0.000000e+00	 2.365400e+01
 1.388042e+00	 2.317544e-02	 1.343565e+01
 1.387456e+00	 4.650189e-02	 6.333563e+00
 1.386471e+00	 6.997085e-02	 2.310461e+00
 1.385078e+00	 9.357345e-02	 1.283676e+00
 1.383271e+00	 1.173004e-01	 3.123450e+00
 1.400000e+00	 0.000000e+00	 2.018162e+01
 1.399805e+00	 2.337184e-02	 1.111899e+01
 1.399214e+00	 4.689598e-02	 4.800475e+00
 1.398221e+00	 7.056383e-02	 1.202698e+00
 1.396816e+00	 9.436644e-02	 2.541126e-01
 1.394993e+00	 1.182945e-01	 1.833070e+00
 1.411765e+00	 0.000000e+00	 1.662152e+01
 1.411568e+00	 2.356824e-02	 8.829110e+00
 1.410972e+00	 4.729006e-02	 3.375622e+00
 1.409970e+00	 7.115680e-02	 2.550308e-01
 1.408554e+00	 9.515944e-02	-5.902720e-01
 1.406716e+00	 1.192886e-01	 7.283553e-01
 1.348103e+00	 1.143182e-01	 7.676456e+00
 1.345930e+00	 1.375538e-01	 1.088707e+01
 1.343341e+00	 1.608916e-01	 1.159032e+01
 1.340327e+00	 1.843214e-01	 9.853955e+00
 1.336883e+00	 2.078328e-01	 5.772072e+00
 1.333003e+00	 2.314152e-01	-5.334639e-01
 1.359825e+00	 1.153123e-01	 6.089701e+00
 1.357634e+00	 1.387499e-01	 8.938796e+00
 1.355022e+00	 1.622906e-01	 9.400737e+00
 1.351982e+00	 1.859241e-01	 7.543722e+00
 1.348508e+00	 2.096401e-01	 3.464220e+00
 1.344594e+00	 2.334275e-01	-2.711517e+00
 1.371548e+00	 1.163064e-01	 4.556949e+00
 1.369338e+00	 1.399461e-01	 7.054674e+00
 1.366703e+00	 1.636897e-01	 7.298103e+00
 1.363637e+00	 1.875269e-01	 5.351793e+00
 1.360133e+00	 2.114473e-01	 1.310010e+00
 1.356186e+00	 2.354398e-01	-4.701672e+00
 1.383271e+00	 1.173004e-01	 3.123450e+00
 1.381042e+00	 1.411422e-01	 5.273738e+00
 1.378384e+00	 1.650887e-01	 5.312454e+00
 1.375292e+00	 1.891297e-01	 3.296484e+00
 1.371758e+00	 2.132545e-01	-6.866066e-01
 1.367777e+00	 2.374521e-01	-6.516894e+00
 1.394993e+00	 1.182945e-01	 1.833070e+00
 1.392745e+00	 1.423383e-01	 3.633880e+00
 1.390065e+00	 1.664878e-01	 3.473009e+00
 1.386947e+00	 1.907325e-01	 1.395717e+00
 1.383383e+00	 2.150618e-01	-2.521560e+00
 1.379368e+00	 2.394644e-01	-8.169439e+00
 1.406716e+00	 1.192886e-01	 7.283553e-01
 1.404449e+00	 1.435344e-01	 2.171894e+00
 1.401747e+00	 1.678868e-01	 1.808211e+00
 1.398602e+00	 1.923353e-01	-3.329612e-01
 1.395008e+00	 2.168690e-01	-4.190667e+00
 1.390960e+00	 2.414767e-01	-9.670877e+00
 1.333003e+00	 2.314152e-01	-5.334639e-01
 1.328682e+00	 2.550574e-01	-8.132767e+00
 1.323914e+00	 2.787482e-01	-1.624662e+01
 1.318696e+00	 3.024757e-01	-2.495853e+01
 1.313021e+00	 3.262280e-01	-3.435254e+01
 1.306887e+00	 3.499930e-01	-4.451218e+01
 1.344594e+00	 2.334275e-01	-2.711517e+00
 1.340236e+00	 2.572753e-01	-1.014576e+01
 1.335427e+00	 2.811721e-01	-1.816782e+01
 1.330163e+00	 3.051059e-01	-2.688047e+01
 1.324439e+00	 3.290648e-01	-3.638781e+01
 1.318252e+00	 3.530364e-01	-4.679417e+01
 1.356186e+00	 2.354398e-01	-4.701672e+00
 1.351789e+00	 2.594932e-01	-1.194716e+01
 1.346939e+00	 2.835960e-01	-1.986607e+01
 1.341630e+00	 3.077361e-01	-2.857321e+01
 1.335857e+00	 3.319016e-01	-3.818404e+01
 1.329616e+00	 3.560798e-01	-4.881343e+01
 1.367777e+00	 2.374521e-01	-6.516894e+00
 1.363343e+00	 2.617111e-01	-1.356366e+01
 1.358451e+00	 2.860199e-01	-2.137301e+01
 1.353096e+00	 3.103664e-01	-3.006470e+01
 1.347274e+00	 3.347383e-01	-3.975700e+01
 1.340980e+00	 3.591232e-01	-4.936252e+01
 1.379368e+00	 2.394644e-01	-8.169439e+00
 1.374897e+00	 2.639290e-01	-1.502075e+01
 1.369964e+00	 2.884438e-01	-2.271886e+01
 1.364563e+00	 3.129966e-01	-3.138156e+01
 1.358692e+00	 3.375751e-01	-4.112154e+01
 1.352344e+00	 3.621666e-01	-4.908907e+01
 1.390960e+00	 2.414767e-01	-9.670877e+00
 1.386451e+00	 2.661469e-01	-1.634278e+01
 1.381476e+00	 2.908676e-01	-2.393255e+01
 1.376030e+00	 3.156268e-01	-3.254919e+01
 1.370109e+00	 3.404119e-01	-4.229165e+01
 1.363709e+00	 3.652100e-01	-4.867812e+01
 1.306887e+00	 3.499930e-01	-4.451218e+01
 1.300290e+00	 3.737580e-01	-4.535417e+01
 1.293227e+00	 3.975103e-01	-4.349689e+01
 1.285694e+00	 4.212369e-01	-4.350521e+01
 1.277690e+00	 4.449247e-01	-4.532151e+01
 1.269213e+00	 4.685602e-01	-4.888736e+01
 1.318252e+00	 3.530364e-01	-4.679417e+01
 1.311597e+00	 3.770080e-01	-4.602529e+01
 1.304472e+00	 4.009669e-01	-4.450410e+01
 1.296874e+00	 4.248998e-01	-4.476132e+01
 1.288800e+00	 4.487936e-01	-4.671154e+01
 1.280249e+00	 4.726347e-01	-5.026728e+01
 1.329616e+00	 3.560798e-01	-4.881343e+01
 1.322904e+00	 3.802581e-01	-4.650723e+01
 1.315718e+00	 4.044235e-01	-4.531062e+01
 1.308054e+00	 4.285628e-01	-4.578473e+01
 1.299911e+00	 4.526625e-01	-4.782465e+01
 1.291286e+00	 4.767091e-01	-5.132330e+01
 1.340980e+00	 3.591232e-01	-4.936252e+01
 1.334211e+00	 3.835082e-01	-4.680325e+01
 1.326963e+00	 4.078801e-01	-4.590655e+01
 1.319234e+00	 4.322257e-01	-4.655860e+01
 1.311021e+00	 4.565314e-01	-4.864312e+01
 1.302323e+00	 4.807835e-01	-5.204262e+01
 1.352344e+00	 3.621666e-01	-4.908907e+01
 1.345518e+00	 3.867582e-01	-4.691705e+01
 1.338209e+00	 4.113367e-01	-4.628288e+01
 1.330414e+00	 4.358886e-01	-4.706727e+01
 1.322131e+00	 4.604003e-01	-4.915045e+01
 1.313359e+00	 4.848580e-01	-5.241353e+01
 1.363709e+00	 3.652100e-01	-4.867812e+01
 1.356825e+00	 3.900083e-01	-4.685275e+01
 1.349454e+00	 4.147933e-01	-4.643150e+01
 1.341594e+00	 4.395516e-01	-4.729620e+01
 1.333242e+00	 4.642693e-01	-4.933132e+01
 1.324396e+00	 4.889324e-01	-5.242536e+01
 1.269213e+00	 4.685602e-01	-4.888736e+01
 1.260261e+00	 4.921299e-01	-5.272062e+01
 1.250834e+00	 5.156201e-01	-5.547089e+01
 1.240931e+00	 5.390170e-01	-5.729831e+01
 1.230553e+00	 5.623065e-01	-5.839154e+01
 1.219700e+00	 5.854747e-01	-5.896834e+01
 1.280249e+00	 4.726347e-01	-5.026728e+01
 1.271220e+00	 4.964093e-01	-5.398664e+01
 1.261711e+00	 5.201038e-01	-5.658706e+01
 1.251722e+00	 5.437041e-01	-5.824141e+01
 1.241254e+00	 5.671961e-01	-5.915286e+01
 1.230307e+00	 5.905658e-01	-5.955531e+01
 1.291286e+00	 4.767091e-01	-5.132330e+01
 1.282179e+00	 5.006887e-01	-5.489231e+01
 1.272588e+00	 5.245874e-01	-5.732148e+01
 1.262513e+00	 5.483912e-01	-5.879365e+01
 1.251954e+00	 5.720857e-01	-5.952366e+01
 1.240913e+00	 5.956568e-01	-5.975891e+01
 1.302323e+00	 4.807835e-01	-5.204262e+01
 1.293137e+00	 5.049681e-01	-5.543265e+01
 1.283464e+00	 5.290711e-01	-5.767724e+01
 1.273303e+00	 5.530783e-01	-5.896643e+01
 1.262655e+00	 5.769754e-01	-5.952410e+01
 1.251519e+00	 6.007479e-01	-5.960846e+01
 1.313359e+00	 4.848580e-01	-5.241353e+01
 1.304096e+00	 5.092475e-01	-5.560356e+01
 1.294341e+00	 5.335548e-01	-5.765802e+01
 1.284094e+00	 5.577654e-01	-5.877154e+01
 1.273355e+00	 5.818650e-01	-5.917438e+01
 1.262125e+00	 6.058390e-01	-5.913303e+01
 1.324396e+00	 4.889324e-01	-5.242536e+01
 1.315055e+00	 5.135269e-01	-5.540172e+01
 1.305218e+00	 5.380384e-01	-5.726808e+01
 1.294885e+00	 5.624525e-01	-5.822105e+01
 1.284056e+00	 5.867546e-01	-5.849476e+01
 1.272731e+00	 6.109301e-01	-5.836150e+01
 1.219700e+00	 5.854747e-01	-5.896834e+01
 1.208374e+00	 6.085074e-01	-5.962892e+01
 1.196577e+00	 6.313907e-01	-6.095255e+01
 1.184310e+00	 6.541102e-01	-6.315974e+01
 1.171577e+00	 6.766520e-01	-6.648694e+01
 1.158381e+00	 6.990020e-01	-7.118622e+01
 1.230307e+00	 5.905658e-01	-5.955531e+01
 1.218882e+00	 6.137988e-01	-6.003058e+01
 1.206982e+00	 6.368810e-01	-6.113081e+01
 1.194608e+00	 6.597982e-01	-6.308253e+01
 1.181764e+00	 6.825360e-01	-6.613044e+01
 1.168454e+00	 7.050803e-01	-7.053709e+01
 1.240913e+00	 5.956568e-01	-5.975891e+01
 1.229390e+00	 6.190902e-01	-6.006085e+01
 1.217387e+00	 6.423714e-01	-6.095240e+01
 1.204906e+00	 6.654861e-01	-6.266243e+01
 1.191952e+00	 6.884199e-01	-6.543930e+01
 1.178527e+00	 7.111586e-01	-6.955045e+01
 1.251519e+00	 6.007479e-01	-5.960846e+01
 1.239897e+00	 6.243816e-01	-5.975566e+01
 1.227792e+00	 6.478617e-01	-6.045422e+01
 1.215205e+00	 6.711740e-01	-6.193181e+01
 1.202140e+00	 6.943038e-01	-6.443587e+01
 1.188599e+00	 7.172369e-01	-6.772180e+01
 1.262125e+00	 6.058390e-01	-5.913303e+01
 1.250405e+00	 6.296729e-01	-5.915046e+01
 1.238197e+00	 6.533521e-01	-5.967270e+01
 1.225503e+00	 6.768619e-01	-6.092269e+01
 1.212327e+00	 7.001878e-01	-6.314257e+01
 1.198672e+00	 7.233151e-01	-6.530551e+01
 1.272731e+00	 6.109301e-01	-5.836150e+01
 1.260912e+00	 6.349643e-01	-5.828032e+01
 1.248602e+00	 6.588424e-01	-5.864385e+01
 1.235801e+00	 6.825498e-01	-5.966687e+01
 1.222515e+00	 7.060717e-01	-6.158183e+01
 1.208745e+00	 7.293934e-01	-6.292449e+01
 1.158381e+00	 6.990020e-01	-7.118622e+01
 1.144726e+00	 7.211462e-01	-7.586409e+01
 1.130617e+00	 7.430707e-01	-7.698494e+01
 1.116060e+00	 7.647617e-01	-7.864080e+01
 1.101059e+00	 7.862057e-01	-8.071420e+01
 1.085621e+00	 8.073893e-01	-8.307732e+01
 1.168454e+00	 7.050803e-01	-7.053709e+01
 1.154680e+00	 7.274170e-01	-7.332757e+01
 1.140449e+00	 7.495322e-01	-7.451462e+01
 1.125765e+00	 7.714118e-01	-7.618294e+01
 1.110633e+00	 7.930423e-01	-7.820116e+01
 1.095061e+00	 8.144100e-01	-8.042581e+01
 1.178527e+00	 7.111586e-01	-6.955045e+01
 1.164634e+00	 7.336879e-01	-7.086450e+01
 1.150280e+00	 7.559937e-01	-7.207309e+01
 1.135469e+00	 7.780619e-01	-7.369411e+01
 1.120208e+00	 7.998789e-01	-7.558956e+01
 1.104501e+00	 8.214308e-01	-7.760894e+01
 1.188599e+00	 7.172369e-01	-6.772180e+01
 1.174589e+00	 7.399587e-01	-6.843915e+01
 1.160112e+00	 7.624551e-01	-6.961699e+01
 1.145174e+00	 7.847120e-01	-7.113012e+01
 1.129782e+00	 8.067154e-01	-7.284110e+01
 1.113941e+00	 8.284516e-01	-7.460074e+01
 1.198672e+00	 7.233151e-01	-6.530551e+01
 1.184543e+00	 7.462295e-01	-6.601685e+01
 1.169943e+00	 7.689166e-01	-6.710427e+01
 1.154879e+00	 7.913621e-01	-6.844817e+01
 1.139356e+00	 8.135520e-01	-6.991865e+01
 1.123381e+00	 8.354724e-01	-7.137599e+01
 1.208745e+00	 7.293934e-01	-6.292449e+01
 1.194497e+00	 7.525004e-01	-6.356396e+01
 1.179775e+00	 7.753781e-01	-6.449415e+01
 1.164584e+00	 7.980122e-01	-6.560673e+01
 1.148931e+00	 8.203886e-01	-6.678615e+01
 1.132822e+00	 8.424932e-01	-6.791019e+01
 1.085621e+00	 8.073893e-01	-8.307732e+01
 1.069752e+00	 8.282991e-01	-8.538527e+01
 1.053461e+00	 8.489224e-01	-8.709205e+01
 1.036755e+00	 8.692463e-01	-8.743614e+01
 1.019642e+00	 8.892584e-01	-8.651540e+01
 1.002131e+00	 9.089466e-01	-8.444014e+01
 1.095061e+00	 8.144100e-01	-8.042581e+01
 1.079055e+00	 8.355017e-01	-8.245828e+01
 1.062622e+00	 8.563043e-01	-8.404470e+01
 1.045770e+00	 8.768049e-01	-8.444869e+01
 1.028508e+00	 8.969911e-01	-8.344445e+01
 1.010845e+00	 9.168505e-01	-8.115612e+01
 1.104501e+00	 8.214308e-01	-7.760894e+01
 1.088357e+00	 8.427043e-01	-7.935746e+01
 1.071782e+00	 8.636862e-01	-8.045450e+01
 1.054785e+00	 8.843636e-01	-8.090079e+01
 1.037375e+00	 9.047237e-01	-7.983528e+01
 1.019559e+00	 9.247544e-01	-7.738900e+01
 1.113941e+00	 8.284516e-01	-7.460074e+01
 1.097659e+00	 8.499069e-01	-7.602705e+01
 1.080943e+00	 8.710682e-01	-7.675890e+01
 1.063801e+00	 8.919223e-01	-7.683763e+01
 1.046241e+00	 9.124564e-01	-7.574350e+01
 1.028273e+00	 9.326583e-01	-7.320327e+01
 1.123381e+00	 8.354724e-01	-7.137599e+01
 1.106961e+00	 8.571095e-01	-7.245625e+01
 1.090103e+00	 8.784501e-01	-7.281993e+01
 1.072816e+00	 8.994809e-01	-7.235278e+01
 1.055108e+00	 9.201891e-01	-7.122373e+01
 1.036987e+00	 9.405622e-01	-6.866211e+01
 1.132822e+00	 8.424932e-01	-6.791019e+01
 1.116263e+00	 8.643121e-01	-6.863446e+01
 1.099264e+00	 8.858320e-01	-6.863974e+01
 1.081831e+00	 9.070396e-01	-6.783249e+01
 1.063974e+00	 9.279218e-01	-6.632965e+01
 1.045702e+00	 9.484660e-01	-6.382743e+01
 1.002131e+00	 9.089466e-01	-8.444014e+01
 9.842309e-01	 9.282992e-01	-8.131766e+01
 9.659522e-01	 9.473047e-01	-7.748673e+01
 9.473047e-01	 9.659522e-01	-7.343325e+01
 9.282992e-01	 9.842309e-01	-6.966677e+01
 9.089466e-01	 1.002131e+00	-6.671684e+01
 1.010845e+00	 9.168505e-01	-8.115612e+01
 9.927894e-01	 9.363714e-01	-7.776478e+01
 9.743517e-01	 9.555422e-01	-7.369326e+01
 9.555422e-01	 9.743517e-01	-6.945931e+01
 9.363714e-01	 9.927894e-01	-6.560628e+01
 9.168505e-01	 1.010845e+00	-6.269931e+01
 1.019559e+00	 9.247544e-01	-7.738900e+01
 1.001348e+00	 9.444435e-01	-7.381705e+01
 9.827513e-01	 9.637796e-01	-6.960773e+01
 9.637796e-01	 9.827513e-01	-6.528540e+01
 9.444435e-01	 1.001348e+00	-6.140039e+01
 9.247544e-01	 1.019559e+00	-5.852517e+01
 1.028273e+00	 9.326583e-01	-7.320327e+01
 1.009906e+00	 9.525157e-01	-6.954205e+01
 9.911509e-01	 9.720170e-01	-6.529142e+01
 9.720170e-01	 9.911509e-01	-6.095768e+01
 9.525157e-01	 1.009906e+00	-5.707200e+01
 9.326583e-01	 1.028273e+00	-5.418661e+01
 1.036987e+00	 9.405622e-01	-6.866211e+01
 1.018465e+00	 9.605879e-01	-6.500597e+01
 9.995505e-01	 9.802545e-01	-6.080437e+01
 9.802545e-01	 9.995505e-01	-5.652157e+01
 9.605879e-01	 1.018465e+00	-5.264402e+01
 9.405622e-01	 1.036987e+00	-4.967687e+01
 1.045702e+00	 9.484660e-01	-6.382743e+01
 1.027024e+00	 9.686600e-01	-6.027361e+01
 1.007950e+00	 9.884919e-01	-5.620546e+01
 9.884919e-01	 1.007950e+00	-5.202176e+01
 9.686600e-01	 1.027024e+00	-4.813938e+01
 9.484660e-01	 1.045702e+00	-4.499015e+01
 9.089466e-01	 1.002131e+00	-6.671684e+01
 8.892584e-01	 1.019642e+00	-6.475564e+01
 8.692463e-01	 1.036755e+00	-6.369130e+01
 8.489224e-01	 1.053461e+00	-6.366643e+01
 8.282991e-01	 1.069752e+00	-6.481766e+01
 8.073893e-01	 1.085621e+00	-6.831683e+01
 9.168505e-01	 1.010845e+00	-6.269931e+01
 8.969911e-01	 1.028508e+00	-6.088159e+01
 8.768049e-01	 1.045770e+00	-5.999463e+01
 8.563043e-01	 1.062622e+00	-6.015939e+01
 8.355017e-01	 1.079055e+00	-6.293078e+01
 8.144100e-01	 1.095061e+00	-6.645290e+01
 9.247544e-01	 1.019559e+00	-5.852517e+01
 9.047237e-01	 1.037375e+00	-5.674944e+01
 8.843636e-01	 1.054785e+00	-5.586809e+01
 8.636862e-01	 1.071782e+00	-5.612263e+01
 8.427043e-01	 1.088357e+00	-6.094664e+01
 8.214308e-01	 1.104501e+00	-6.411057e+01
 9.326583e-01	 1.028273e+00	-5.418661e+01
 9.124564e-01	 1.046241e+00	-5.232536e+01
 8.919223e-01	 1.063801e+00	-5.126737e+01
 8.710682e-01	 1.080943e+00	-5.417546e+01
 8.499069e-01	 1.097659e+00	-5.854621e+01
 8.284516e-01	 1.113941e+00	-6.127709e+01
 9.405622e-01	 1.036987e+00	-4.967687e+01
 9.201891e-01	 1.055108e+00	-4.757735e+01
 8.994809e-01	 1.072816e+00	-4.669943e+01
 8.784501e-01	 1.090103e+00	-5.189449e+01
 8.571095e-01	 1.106961e+00	-5.568708e+01
 8.354724e-01	 1.123381e+00	-5.794009e+01
 9.484660e-01	 1.045702e+00	-4.499015e+01
 9.279218e-01	 1.063974e+00	-4.247527e+01
 9.070396e-01	 1.081831e+00	-4.477611e+01
 8.858320e-01	 1.099264e+00	-4.922128e+01
 8.643121e-01	 1.116263e+00	-5.232820e+01
 8.424932e-01	 1.132822e+00	-5.408756e+01
 8.073893e-01	 1.085621e+00	-6.831683e+01
 7.862057e-01	 1.101059e+00	-7.122938e+01
 7.647617e-01	 1.116060e+00	-7.421370e+01
 7.430707e-01	 1.130617e+00	-7.747823e+01
 7.211462e-01	 1.144726e+00	-8.124228e+01
 6.990020e-01	 1.158381e+00	-8.490149e+01
 8.144100e-01	 1.095061e+00	-6.645290e+01
 7.930423e-01	 1.110633e+00	-6.902555e+01
 7.714118e-01	 1.125765e+00	-7.163835e+01
 7.495322e-01	 1.140449e+00	-7.451866e+01
 7.274170e-01	 1.154680e+00	-7.790600e+01
 7.050803e-01	 1.168454e+00	-8.162404e+01
 8.214308e-01	 1.104501e+00	-6.411057e+01
 7.998789e-01	 1.120208e+00	-6.633030e+01
 7.780619e-01	 1.135469e+00	-6.863776e+01
 7.559937e-01	 1.150280e+00	-7.124630e+01
 7.336879e-01	 1.164634e+00	-7.438091e+01
 7.111586e-01	 1.178527e+00	-7.815584e+01
 8.284516e-01	 1.113941e+00	-6.127709e+01
 8.067154e-01	 1.129782e+00	-6.316108e+01
 7.847120e-01	 1.145174e+00	-6.524663e+01
 7.624551e-01	 1.160112e+00	-6.770107e+01
 7.399587e-01	 1.174589e+00	-7.070096e+01
 7.172369e-01	 1.188599e+00	-7.443103e+01
 8.354724e-01	 1.123381e+00	-5.794009e+01
 8.135520e-01	 1.139356e+00	-5.953470e+01
 7.913621e-01	 1.154879e+00	-6.149846e+01
 7.689166e-01	 1.169943e+00	-6.392150e+01
 7.462295e-01	 1.184543e+00	-6.689895e+01
 7.233151e-01	 1.198672e+00	-7.053033e+01
 8.424932e-01	 1.132822e+00	-5.408756e+01
 8.203886e-01	 1.148931e+00	-5.546739e+01
 7.980122e-01	 1.164584e+00	-5.742559e+01
 7.753781e-01	 1.179775e+00	-5.994481e+01
 7.525004e-01	 1.194497e+00	-6.300655e+01
 7.293934e-01	 1.208745e+00	-6.659138e+01
 6.990020e-01	 1.158381e+00	-8.490149e+01
 6.766520e-01	 1.171577e+00	-8.766416e+01
 6.541102e-01	 1.184310e+00	-8.973556e+01
 6.313907e-01	 1.196577e+00	-9.116075e+01
 6.085074e-01	 1.208374e+00	-9.197070e+01
 5.854747e-01	 1.219700e+00	-9.218173e+01
 7.050803e-01	 1.168454e+00	-8.162404e+01
 6.825360e-01	 1.181764e+00	-8.446053e+01
 6.597982e-01	 1.194608e+00	-8.656727e+01
 6.368810e-01	 1.206982e+00	-8.798837e+01
 6.137988e-01	 1.218882e+00	-8.875294e+01
 5.905658e-01	 1.230307e+00	-8.887459e+01
 7.111586e-01	 1.178527e+00	-7.815584e+01
 6.884199e-01	 1.191952e+00	-8.108996e+01
 6.654861e-01	 1.204906e+00	-8.320912e+01
 6.423714e-01	 1.217387e+00	-8.457484e+01
 6.190902e-01	 1.229390e+00	-8.523375e+01
 5.956568e-01	 1.240913e+00	-8.521703e+01
 7.172369e-01	 1.188599e+00	-7.443103e+01
 6.943038e-01	 1.202140e+00	-7.756215e+01
 6.711740e-01	 1.215205e+00	-7.966073e+01
 6.478617e-01	 1.227792e+00	-8.091680e+01
 6.243816e-01	 1.239897e+00	-8.141345e+01
 6.007479e-01	 1.251519e+00	-8.121916e+01
 7.233151e-01	 1.198672e+00	-7.053033e+01
 7.001878e-01	 1.212327e+00	-7.388676e+01
 6.768619e-01	 1.225503e+00	-7.592198e+01
 6.533521e-01	 1.238197e+00	-7.701129e+01
 6.296729e-01	 1.250405e+00	-7.729258e+01
 6.058390e-01	 1.262125e+00	-7.689097e+01
 7.293934e-01	 1.208745e+00	-6.659138e+01
 7.060717e-01	 1.222515e+00	-7.007340e+01
 6.825498e-01	 1.235801e+00	-7.199303e+01
 6.588424e-01	 1.248602e+00	-7.285566e+01
 6.349643e-01	 1.260912e+00	-7.287191e+01
 6.109301e-01	 1.272731e+00	-7.224229e+01
 5.854747e-01	 1.219700e+00	-9.218173e+01
 5.623065e-01	 1.230553e+00	-9.165519e+01
 5.390170e-01	 1.240931e+00	-9.035648e+01
 5.156201e-01	 1.250834e+00	-8.843595e+01
 4.921299e-01	 1.260261e+00	-8.602881e+01
 4.685602e-01	 1.269213e+00	-8.325428e+01
 5.905658e-01	 1.230307e+00	-8.887459e+01
 5.671961e-01	 1.241254e+00	-8.822948e+01
 5.437041e-01	 1.251722e+00	-8.681081e+01
 5.201038e-01	 1.261711e+00	-8.478542e+01
 4.964093e-01	 1.271220e+00	-8.230533e+01
 4.726347e-01	 1.280249e+00	-7.950683e+01
 5.956568e-01	 1.240913e+00	-8.521703e+01
 5.720857e-01	 1.251954e+00	-8.443361e+01
 5.483912e-01	 1.262513e+00	-8.290175e+01
 5.245874e-01	 1.272588e+00	-8.079407e+01
 5.006887e-01	 1.282179e+00	-7.826802e+01
 4.767091e-01	 1.291286e+00	-7.546493e+01
 6.007479e-01	 1.251519e+00	-8.121916e+01
 5.769754e-01	 1.262655e+00	-8.028760e+01
 5.530783e-01	 1.273303e+00	-7.865393e+01
 5.290711e-01	 1.283464e+00	-7.648612e+01
 5.049681e-01	 1.293137e+00	-7.393598e+01
 4.807835e-01	 1.302323e+00	-7.113823e+01
 6.058390e-01	 1.262125e+00	-7.689097e+01
 5.818650e-01	 1.273355e+00	-7.581099e+01
 5.577654e-01	 1.284094e+00	-7.409130e+01
 5.335548e-01	 1.294341e+00	-7.188512e+01
 5.092475e-01	 1.304096e+00	-6.932783e+01
 4.848580e-01	 1.313359e+00	-6.653616e+01
 6.109301e-01	 1.272731e+00	-7.224229e+01
 5.867546e-01	 1.284056e+00	-7.102284e+01
 5.624525e-01	 1.294885e+00	-6.923718e+01
 5.380384e-01	 1.305218e+00	-6.701397e+01
 5.135269e-01	 1.315055e+00	-6.446167e+01
 4.889324e-01	 1.324396e+00	-6.166795e+01
 4.685602e-01	 1.269213e+00	-8.325428e+01
 4.449247e-01	 1.277690e+00	-7.996771e+01
 4.212369e-01	 1.285694e+00	-7.605616e+01
 3.975103e-01	 1.293227e+00	-7.166230e+01
 3.737580e-01	 1.300290e+00	-6.691291e+01
 3.499930e-01	 1.306887e+00	-6.114186e+01
 4.726347e-01	 1.280249e+00	-7.950683e+01
 4.487936e-01	 1.288800e+00	-7.626161e+01
 4.248998e-01	 1.296874e+00	-7.245194e+01
 4.009669e-01	 1.304472e+00	-6.820502e+01
 3.770080e-01	 1.311597e+00	-6.363099e+01
 3.530364e-01	 1.318252e+00	-5.836814e+01
 4.767091e-01	 1.291286e+00	-7.546493e+01
 4.526625e-01	 1.299911e+00	-7.226081e+01
 4.285628e-01	 1.308054e+00	-6.853749e+01
 4.044235e-01	 1.315718e+00	-6.441938e+01
 3.802581e-01	 1.322904e+00	-6.001316e+01
 3.560798e-01	 1.329616e+00	-5.528818e+01
 4.807835e-01	 1.302323e+00	-7.113823e+01
 4.565314e-01	 1.311021e+00	-6.796604e+01
 4.322257e-01	 1.319234e+00	-6.430974e+01
 4.078801e-01	 1.326963e+00	-6.030324e+01
 3.835082e-01	 1.334211e+00	-5.606262e+01
 3.591232e-01	 1.340980e+00	-5.168592e+01
 4.848580e-01	 1.313359e+00	-6.653616e+01
 4.604003e-01	 1.322131e+00	-6.337815e+01
 4.358886e-01	 1.330414e+00	-5.976581e+01
 4.113367e-01	 1.338209e+00	-5.585463e+01
 3.867582e-01	 1.345518e+00	-5.178253e+01
 3.621666e-01	 1.352344e+00	-4.766966e+01
 4.889324e-01	 1.324396e+00	-6.166795e+01
 4.642693e-01	 1.333242e+00	-5.849802e+01
 4.395516e-01	 1.341594e+00	-5.490304e+01
 4.147933e-01	 1.349454e+00	-5.107171e+01
 3.900083e-01	 1.356825e+00	-4.717601e+01
 3.652100e-01	 1.363709e+00	-4.337075e+01
 3.499930e-01	 1.306887e+00	-6.114186e+01
 3.262280e-01	 1.313021e+00	-5.383845e+01
 3.024757e-01	 1.318696e+00	-4.725139e+01
 2.787482e-01	 1.323914e+00	-4.144518e+01
 2.550574e-01	 1.328682e+00	-3.648553e+01
 2.314152e-01	 1.333003e+00	-3.243883e+01
 3.530364e-01	 1.318252e+00	-5.836814e+01
 3.290648e-01	 1.324439e+00	-5.116510e+01
 3.051059e-01	 1.330163e+00	-4.468905e+01
 2.811721e-01	 1.335427e+00	-3.901287e+01
 2.572753e-01	 1.340236e+00	-3.421088e+01
 2.334275e-01	 1.344594e+00	-3.035817e+01
 3.560798e-01	 1.329616e+00	-5.528818e+01
 3.319016e-01	 1.335857e+00	-4.825079e+01
 3.077361e-01	 1.341630e+00	-4.197321e+01
 2.835960e-01	 1.346939e+00	-3.651811e+01
 2.594932e-01	 1.351789e+00	-3.194960e+01
 2.354398e-01	 1.356186e+00	-2.833268e+01
 3.591232e-01	 1.340980e+00	-5.168592e+01
 3.347383e-01	 1.347274e+00	-4.511414e+01
 3.103664e-01	 1.353096e+00	-3.912774e+01
 2.860199e-01	 1.358451e+00	-3.398634e+01
 2.617111e-01	 1.363343e+00	-2.972558e+01
 2.374521e-01	 1.367777e+00	-2.638193e+01
 3.621666e-01	 1.352344e+00	-4.766966e+01
 3.375751e-01	 1.358692e+00	-4.177310e+01
 3.129966e-01	 1.364563e+00	-3.617567e+01
 2.884438e-01	 1.369964e+00	-3.144213e+01
 2.639290e-01	 1.374897e+00	-2.756181e+01
 2.394644e-01	 1.379368e+00	-2.452483e+01
 3.652100e-01	 1.363709e+00	-4.337075e+01
 3.404119e-01	 1.370109e+00	-3.824495e+01
 3.156268e-01	 1.376030e+00	-3.313918e+01
 2.908676e-01	 1.381476e+00	-2.890914e+01
 2.661469e-01	 1.386451e+00	-2.548051e+01
 2.414767e-01	 1.390960e+00	-2.277958e+01
 2.314152e-01	 1.333003e+00	-3.243883e+01
 2.078328e-01	 1.336883e+00	-2.818841e+01
 1.843214e-01	 1.340327e+00	-2.281621e+01
 1.608916e-01	 1.343341e+00	-1.668514e+01
 1.375538e-01	 1.345930e+00	-1.015537e+01
 1.143182e-01	 1.348103e+00	-3.583615e+00
 2.334275e-01	 1.344594e+00	-3.035817e+01
 2.096401e-01	 1.348508e+00	-2.634661e+01
 1.859241e-01	 1.351982e+00	-2.125177e+01
 1.622906e-01	 1.355022e+00	-1.542367e+01
 1.387499e-01	 1.357634e+00	-9.210501e+00
 1.153123e-01	 1.359825e+00	-2.957880e+00
 2.354398e-01	 1.356186e+00	-2.833268e+01
 2.114473e-01	 1.360133e+00	-2.455700e+01
 1.875269e-01	 1.363637e+00	-1.970652e+01
 1.636897e-01	 1.366703e+00	-1.413730e+01
 1.399461e-01	 1.369338e+00	-8.204037e+00
 1.163064e-01	 1.371548e+00	-2.259200e+00
 2.374521e-01	 1.367777e+00	-2.638193e+01
 2.132545e-01	 1.371758e+00	-2.283400e+01
 1.891297e-01	 1.375292e+00	-1.818991e+01
 1.650887e-01	 1.378384e+00	-1.283028e+01
 1.411422e-01	 1.381042e+00	-7.134267e+00
 1.173004e-01	 1.383271e+00	-1.478699e+00
 2.394644e-01	 1.379368e+00	-2.452483e+01
 2.150618e-01	 1.383383e+00	-2.119150e+01
 1.907325e-01	 1.386947e+00	-1.671107e+01
 1.664878e-01	 1.390065e+00	-1.150667e+01
 1.423383e-01	 1.392745e+00	-5.999509e+00
 1.182945e-01	 1.394993e+00	-6.077769e-01
 2.414767e-01	 1.390960e+00	-2.277958e+01
 2.168690e-01	 1.395008e+00	-1.964290e+01
 1.923353e-01	 1.398602e+00	-1.527876e+01
 1.678868e-01	 1.401747e+00	-1.017038e+01
 1.435344e-01	 1.404449e+00	-4.798105e+00
 1.192886e-01	 1.406716e+00	 3.619054e-01
 1.143182e-01	 1.348103e+00	-3.583615e+00
 9.119446e-02	 1.349864e+00	 8.607786e-01
 6.819193e-02	 1.351222e+00	 1.970618e+00
 4.531964e-02	 1.352182e+00	 8.328810e-01
 2.258623e-02	 1.352753e+00	-1.471494e+00
 0.000000e+00	 1.352941e+00	-3.870658e+00
 1.153123e-01	 1.359825e+00	-2.957880e+00
 9.198745e-02	 1.361602e+00	 1.251392e+00
 6.878491e-02	 1.362971e+00	 2.271872e+00
 4.571372e-02	 1.363940e+00	 1.165997e+00
 2.278263e-02	 1.364516e+00	-1.006829e+00
 0.000000e+00	 1.364706e+00	-3.193350e+00
 1.163064e-01	 1.371548e+00	-2.259200e+00
 9.278045e-02	 1.373340e+00	 1.698848e+00
 6.937788e-02	 1.374721e+00	 2.606383e+00
 4.610781e-02	 1.375698e+00	 1.516123e+00
 2.297904e-02	 1.376279e+00	-5.203494e-01
 0.000000e+00	 1.376471e+00	-2.455780e+00
 1.173004e-01	 1.383271e+00	-1.478699e+00
 9.357345e-02	 1.385078e+00	 2.217431e+00
 6.997085e-02	 1.386471e+00	 2.988596e+00
 4.650189e-02	 1.387456e+00	 1.892282e+00
 2.317544e-02	 1.388042e+00	-1.435901e-02
 0.000000e+00	 1.388235e+00	-1.677780e+00
 1.182945e-01	 1.394993e+00	-6.077769e-01
 9.436644e-02	 1.396816e+00	 2.820965e+00
 7.056383e-02	 1.398221e+00	 3.432489e+00
 4.689598e-02	 1.399214e+00	 2.303204e+00
 2.337184e-02	 1.399805e+00	 5.089213e-01
 0.000000e+00	 1.400000e+00	-8.785120e-01
 1.192886e-01	 1.406716e+00	 3.619054e-01
 9.515944e-02	 1.408554e+00	 3.522831e+00
 7.115680e-02	 1.409970e+00	 3.951585e+00
 4.729006e-02	 1.410972e+00	 2.757336e+00
 2.356824e-02	 1.411568e+00	 1.047350e+00
 0.000000e+00	 1.411765e+00	-7.650244e-02
 1.411765e+00	 0.000000e+00	 1.662152e+01
 1.411568e+00	 2.356824e-02	 8.829110e+00
 1.410972e+00	 4.729006e-02	 3.375622e+00
 1.409970e+00	 7.115680e-02	 2.550308e-01
 1.408554e+00	 9.515944e-02	-5.902720e-01
 1.406716e+00	 1.192886e-01	 7.283553e-01
 1.423529e+00	 0.000000e+00	 1.299941e+01
 1.423331e+00	 2.376465e-02	 6.559727e+00
 1.422731e+00	 4.768414e-02	 2.054067e+00
 1.421720e+00	 7.174977e-02	-5.161246e-01
 1.420292e+00	 9.595243e-02	-1.204630e+00
 1.418439e+00	 1.202826e-01	-1.228381e-01
 1.435294e+00	 0.000000e+00	 8.500558e+00
 1.435094e+00	 2.396105e-02	 3.445168e+00
 1.434489e+00	 4.807823e-02	 1.509160e-02
 1.433470e+00	 7.234275e-02	-1.797808e+00
 1.432030e+00	 9.674543e-02	-2.062364e+00
 1.430161e+00	 1.212767e-01	-9.118859e-01
 1.447059e+00	 0.000000e+00	 3.606180e+00
 1.446857e+00	 2.415745e-02	-1.481176e-01
 1.446247e+00	 4.847231e-02	-2.596881e+00
 1.445220e+00	 7.293572e-02	-3.779025e+00
 1.443768e+00	 9.753842e-02	-3.797399e+00
 1.441884e+00	 1.222708e-01	-2.822589e+00
 1.458824e+00	 0.000000e+00	-9.640266e-01
 1.458620e+00	 2.435385e-02	-3.488328e+00
 1.458005e+00	 4.886639e-02	-4.977349e+00
 1.456969e+00	 7.352869e-02	-5.522113e+00
 1.455506e+00	 9.833142e-02	-5.280692e+00
 1.453607e+00	 1.232649e-01	-4.481927e+00
 1.470588e+00	 0.000000e+00	-5.197398e+00
 1.470383e+00	 2.455025e-02	-6.580655e+00
 1.469763e+00	 4.926048e-02	-7.144782e+00
 1.468719e+00	 7.412167e-02	-7.053691e+00
 1.467244e+00	 9.912441e-02	-6.541349e+00
 1.465329e+00	 1.242589e-01	-5.915279e+00
 1.406716e+00	 1.192886e-01	 7.283553e-01
 1.404449e+00	 1.435344e-01	 2.171894e+00
 1.401747e+00	 1.678868e-01	 1.808211e+00
 1.398602e+00	 1.923353e-01	-3.329612e-01
 1.395008e+00	 2.168690e-01	-4.190667e+00
 1.390960e+00	 2.414767e-01	-9.670877e+00
 1.418439e+00	 1.202826e-01	-1.228381e-01
 1.416153e+00	 1.447305e-01	 9.647696e-01
 1.413428e+00	 1.692859e-01	 3.931946e-01
 1.410257e+00	 1.939381e-01	-1.821859e+00
 1.406633e+00	 2.186763e-01	-5.633226e+00
 1.402551e+00	 2.434890e-01	-1.096035e+01
 1.430161e+00	 1.212767e-01	-9.118859e-01
 1.427857e+00	 1.459267e-01	 5.986825e-02
 1.425109e+00	 1.706849e-01	-7.104552e-01
 1.421912e+00	 1.955409e-01	-2.996206e+00
 1.418258e+00	 2.204835e-01	-6.756417e+00
 1.414142e+00	 2.455013e-01	-1.191558e+01
 1.441884e+00	 1.222708e-01	-2.822589e+00
 1.439560e+00	 1.471228e-01	-2.074120e+00
 1.436790e+00	 1.720840e-01	-2.636865e+00
 1.433567e+00	 1.971437e-01	-4.513970e+00
 1.429883e+00	 2.222908e-01	-7.683575e+00
 1.425734e+00	 2.475137e-01	-1.245733e+01
 1.453607e+00	 1.232649e-01	-4.481927e+00
 1.451264e+00	 1.483189e-01	-4.072265e+00
 1.448472e+00	 1.734831e-01	-4.815715e+00
 1.445222e+00	 1.987465e-01	-6.702281e+00
 1.441508e+00	 2.240980e-01	-9.694367e+00
 1.437325e+00	 2.495260e-01	-1.372642e+01
 1.465329e+00	 1.242589e-01	-5.915279e+00
 1.462968e+00	 1.495150e-01	-5.853205e+00
 1.460153e+00	 1.748821e-01	-6.785120e+00
 1.456877e+00	 2.003493e-01	-8.681228e+00
 1.453133e+00	 2.259052e-01	-1.148075e+01
 1.448916e+00	 2.515383e-01	-1.509153e+01
 1.390960e+00	 2.414767e-01	-9.670877e+00
 1.386451e+00	 2.661469e-01	-1.634278e+01
 1.381476e+00	 2.908676e-01	-2.393255e+01
 1.376030e+00	 3.156268e-01	-3.254919e+01
 1.370109e+00	 3.404119e-01	-4.229165e+01
 1.363709e+00	 3.652100e-01	-4.867812e+01
 1.402551e+00	 2.434890e-01	-1.096035e+01
 1.398004e+00	 2.683648e-01	-1.745384e+01
 1.392988e+00	 2.932915e-01	-2.490928e+01
 1.387497e+00	 3.182570e-01	-3.342768e+01
 1.381527e+00	 3.432486e-01	-4.309569e+01
 1.375073e+00	 3.682535e-01	-4.796908e+01
 1.414142e+00	 2.455013e-01	-1.191558e+01
 1.409558e+00	 2.705827e-01	-1.819367e+01
 1.404500e+00	 2.957154e-01	-2.545368e+01
 1.398964e+00	 3.208872e-01	-3.379679e+01
 1.392944e+00	 3.460854e-01	-4.330833e+01
 1.386437e+00	 3.712969e-01	-4.679039e+01
 1.425734e+00	 2.475137e-01	-1.245733e+01
 1.421112e+00	 2.728006e-01	-1.846154e+01
 1.416013e+00	 2.981393e-01	-2.546019e+01
 1.410431e+00	 3.235175e-01	-3.356268e+01
 1.404362e+00	 3.489222e-01	-4.286381e+01
 1.397801e+00	 3.743403e-01	-4.514806e+01
 1.437325e+00	 2.495260e-01	-1.372642e+01
 1.432666e+00	 2.750185e-01	-1.869970e+01
 1.427525e+00	 3.005632e-01	-2.482631e+01
 1.421898e+00	 3.261477e-01	-3.263416e+01
 1.415780e+00	 3.517589e-01	-4.169811e+01
 1.409166e+00	 3.773837e-01	-4.304839e+01
 1.448916e+00	 2.515383e-01	-1.509153e+01
 1.444219e+00	 2.772364e-01	-1.950183e+01
 1.439037e+00	 3.029871e-01	-2.491152e+01
 1.433365e+00	 3.287779e-01	-3.153349e+01
 1.427197e+00	 3.545957e-01	-3.974889e+01
 1.420530e+00	 3.804271e-01	-4.049799e+01
 1.363709e+00	 3.652100e-01	-4.867812e+01
 1.356825e+00	 3.900083e-01	-4.685275e+01
 1.349454e+00	 4.147933e-01	-4.643150e+01
 1.341594e+00	 4.395516e-01	-4.729620e+01
 1.333242e+00	 4.642693e-01	-4.933132e+01
 1.324396e+00	 4.889324e-01	-5.242536e+01
 1.375073e+00	 3.682535e-01	-4.796908e+01
 1.368132e+00	 3.932584e-01	-4.646297e+01
 1.360699e+00	 4.182499e-01	-4.624449e+01
 1.352774e+00	 4.432145e-01	-4.719330e+01
 1.344352e+00	 4.681382e-01	-4.919370e+01
 1.335433e+00	 4.930068e-01	-5.213618e+01
 1.386437e+00	 3.712969e-01	-4.679039e+01
 1.379438e+00	 3.965084e-01	-4.563192e+01
 1.371945e+00	 4.217065e-01	-4.567221e+01
 1.363954e+00	 4.468774e-01	-4.677575e+01
 1.355462e+00	 4.720071e-01	-4.881057e+01
 1.346469e+00	 4.970813e-01	-5.164988e+01
 1.397801e+00	 3.743403e-01	-4.514806e+01
 1.390745e+00	 3.997585e-01	-4.441059e+01
 1.383190e+00	 4.251632e-01	-4.479305e+01
 1.375134e+00	 4.505404e-01	-4.613199e+01
 1.366573e+00	 4.758760e-01	-4.826340e+01
 1.357506e+00	 5.011557e-01	-5.102433e+01
 1.409166e+00	 3.773837e-01	-4.304839e+01
 1.402052e+00	 4.030086e-01	-4.284888e+01
 1.394436e+00	 4.286198e-01	-4.368340e+01
 1.386314e+00	 4.542033e-01	-4.534817e+01
 1.377683e+00	 4.797449e-01	-4.763162e+01
 1.368543e+00	 5.052302e-01	-5.031615e+01
 1.420530e+00	 3.804271e-01	-4.049799e+01
 1.413359e+00	 4.062586e-01	-4.099557e+01
 1.405681e+00	 4.320764e-01	-4.241778e+01
 1.397494e+00	 4.578662e-01	-4.450825e+01
 1.388794e+00	 4.836138e-01	-4.699273e+01
 1.379579e+00	 5.093046e-01	-4.958079e+01
 1.324396e+00	 4.889324e-01	-5.242536e+01
 1.315055e+00	 5.135269e-01	-5.540172e+01
 1.305218e+00	 5.380384e-01	-5.726808e+01
 1.294885e+00	 5.624525e-01	-5.822105e+01
 1.284056e+00	 5.867546e-01	-5.849476e+01
 1.272731e+00	 6.109301e-01	-5.836150e+01
 1.335433e+00	 4.930068e-01	-5.213618e+01
 1.326014e+00	 5.178063e-01	-5.491273e+01
 1.316095e+00	 5.425221e-01	-5.659922e+01
 1.305676e+00	 5.671396e-01	-5.739718e+01
 1.294756e+00	 5.916442e-01	-5.754824e+01
 1.283337e+00	 6.160212e-01	-5.733483e+01
 1.346469e+00	 4.970813e-01	-5.164988e+01
 1.336973e+00	 5.220857e-01	-5.424397e+01
 1.326972e+00	 5.470057e-01	-5.574577e+01
 1.316466e+00	 5.718267e-01	-5.636995e+01
 1.305456e+00	 5.965338e-01	-5.637525e+01
 1.293943e+00	 6.211123e-01	-5.606522e+01
 1.357506e+00	 5.011557e-01	-5.102433e+01
 1.347931e+00	 5.263651e-01	-5.342515e+01
 1.337849e+00	 5.514894e-01	-5.471646e+01
 1.327257e+00	 5.765138e-01	-5.513404e+01
 1.316157e+00	 6.014235e-01	-5.496311e+01
 1.304549e+00	 6.262034e-01	-5.453904e+01
 1.368543e+00	 5.052302e-01	-5.031615e+01
 1.358890e+00	 5.306445e-01	-5.248572e+01
 1.348725e+00	 5.559730e-01	-5.352043e+01
 1.338048e+00	 5.812009e-01	-5.368499e+01
 1.326857e+00	 6.063131e-01	-5.330026e+01
 1.315155e+00	 6.312944e-01	-5.274384e+01
 1.379579e+00	 5.093046e-01	-4.958079e+01
 1.369849e+00	 5.349239e-01	-5.145477e+01
 1.359602e+00	 5.604567e-01	-5.216716e+01
 1.348838e+00	 5.858880e-01	-5.201918e+01
 1.337558e+00	 6.112027e-01	-5.137619e+01
 1.325761e+00	 6.363855e-01	-5.066829e+01
 1.272731e+00	 6.109301e-01	-5.836150e+01
 1.260912e+00	 6.349643e-01	-5.828032e+01
 1.248602e+00	 6.588424e-01	-5.864385e+01
 1.235801e+00	 6.825498e-01	-5.966687e+01
 1.222515e+00	 7.060717e-01	-6.158183e+01
 1.208745e+00	 7.293934e-01	-6.292449e+01
 1.283337e+00	 6.160212e-01	-5.733483e+01
 1.271420e+00	 6.402557e-01	-5.716510e+01
 1.259007e+00	 6.643328e-01	-5.736714e+01
 1.246100e+00	 6.882377e-01	-5.814618e+01
 1.232702e+00	 7.119556e-01	-5.972343e+01
 1.218818e+00	 7.354717e-01	-6.051729e+01
 1.293943e+00	 6.211123e-01	-5.606522e+01
 1.281928e+00	 6.455470e-01	-5.579426e+01
 1.269412e+00	 6.698231e-01	-5.581534e+01
 1.256398e+00	 6.939256e-01	-5.632475e+01
 1.242890e+00	 7.178396e-01	-5.744586e+01
 1.228891e+00	 7.415500e-01	-5.803817e+01
 1.304549e+00	 6.262034e-01	-5.453904e+01
 1.292435e+00	 6.508384e-01	-5.415777e+01
 1.279817e+00	 6.753135e-01	-5.398477e+01
 1.266697e+00	 6.996136e-01	-5.420798e+01
 1.253078e+00	 7.237235e-01	-5.500965e+01
 1.238964e+00	 7.476282e-01	-5.549088e+01
 1.315155e+00	 6.312944e-01	-5.274384e+01
 1.302943e+00	 6.561298e-01	-5.224665e+01
 1.290222e+00	 6.808039e-01	-5.187258e+01
 1.276995e+00	 7.053015e-01	-5.180186e+01
 1.263265e+00	 7.296074e-01	-5.251817e+01
 1.249037e+00	 7.537065e-01	-5.287892e+01
 1.325761e+00	 6.363855e-01	-5.066829e+01
 1.313450e+00	 6.614211e-01	-5.005293e+01
 1.300627e+00	 6.862942e-01	-4.947678e+01
 1.287293e+00	 7.109894e-01	-4.911296e+01
 1.273453e+00	 7.354913e-01	-4.996124e+01
 1.259110e+00	 7.597848e-01	-5.020556e+01
 1.208745e+00	 7.293934e-01	-6.292449e+01
 1.194497e+00	 7.525004e-01	-6.356396e+01
 1.179775e+00	 7.753781e-01	-6.449415e+01
 1.164584e+00	 7.980122e-01	-6.560673e+01
 1.148931e+00	 8.203886e-01	-6.678615e+01
 1.132822e+00	 8.424932e-01	-6.791019e+01
 1.218818e+00	 7.354717e-01	-6.051729e+01
 1.204451e+00	 7.587712e-01	-6.103118e+01
 1.189606e+00	 7.818396e-01	-6.176523e+01
 1.174289e+00	 8.046623e-01	-6.262175e+01
 1.158505e+00	 8.272252e-01	-6.349893e+01
 1.142262e+00	 8.495139e-01	-6.429127e+01
 1.228891e+00	 7.415500e-01	-5.803817e+01
 1.214405e+00	 7.650421e-01	-5.840211e+01
 1.199438e+00	 7.883011e-01	-5.893699e+01
 1.183994e+00	 8.113124e-01	-5.954919e+01
 1.168080e+00	 8.340617e-01	-6.014267e+01
 1.151702e+00	 8.565347e-01	-6.061947e+01
 1.238964e+00	 7.476282e-01	-5.549088e+01
 1.224359e+00	 7.713129e-01	-5.569265e+01
 1.209269e+00	 7.947626e-01	-5.603031e+01
 1.193699e+00	 8.179625e-01	-5.640787e+01
 1.177654e+00	 8.408983e-01	-5.672736e+01
 1.161142e+00	 8.635555e-01	-5.688928e+01
 1.249037e+00	 7.537065e-01	-5.287892e+01
 1.234313e+00	 7.775837e-01	-5.291802e+01
 1.219101e+00	 8.012240e-01	-5.306523e+01
 1.203404e+00	 8.246126e-01	-5.321589e+01
 1.187229e+00	 8.477349e-01	-5.326248e+01
 1.170582e+00	 8.705763e-01	-5.309520e+01
 1.259110e+00	 7.597848e-01	-5.020556e+01
 1.244268e+00	 7.838546e-01	-5.009287e+01
 1.228932e+00	 8.076855e-01	-5.006105e+01
 1.213108e+00	 8.312627e-01	-4.999061e+01
 1.196803e+00	 8.545714e-01	-4.975712e+01
 1.180023e+00	 8.775970e-01	-4.923180e+01
 1.132822e+00	 8.424932e-01	-6.791019e+01
 1.116263e+00	 8.643121e-01	-6.863446e+01
 1.099264e+00	 8.858320e-01	-6.863974e+01
 1.081831e+00	 9.070396e-01	-6.783249e+01
 1.063974e+00	 9.279218e-01	-6.632965e+01
 1.045702e+00	 9.484660e-01	-6.382743e+01
 1.142262e+00	 8.495139e-01	-6.429127e+01
 1.125566e+00	 8.715148e-01	-6.466583e+01
 1.108424e+00	 8.932140e-01	-6.431995e+01
 1.090846e+00	 9.145982e-01	-6.318695e+01
 1.072840e+00	 9.356545e-01	-6.119497e+01
 1.054416e+00	 9.563699e-01	-5.873251e+01
 1.151702e+00	 8.565347e-01	-6.061947e+01
 1.134868e+00	 8.787174e-01	-6.064695e+01
 1.117585e+00	 9.005959e-01	-5.993941e+01
 1.099862e+00	 9.221569e-01	-5.846508e+01
 1.081707e+00	 9.433872e-01	-5.618824e+01
 1.063130e+00	 9.642738e-01	-5.336954e+01
 1.161142e+00	 8.635555e-01	-5.688928e+01
 1.144170e+00	 8.859200e-01	-5.655648e+01
 1.126746e+00	 9.079778e-01	-5.546672e+01
 1.108877e+00	 9.297156e-01	-5.363090e+01
 1.090573e+00	 9.511198e-01	-5.105831e+01
 1.071844e+00	 9.721777e-01	-4.775675e+01
 1.170582e+00	 8.705763e-01	-5.309520e+01
 1.153472e+00	 8.931226e-01	-5.237364e+01
 1.135906e+00	 9.153598e-01	-5.087134e+01
 1.117892e+00	 9.372742e-01	-4.864946e+01
 1.099440e+00	 9.588525e-01	-4.577095e+01
 1.080558e+00	 9.800816e-01	-4.230033e+01
 1.180023e+00	 8.775970e-01	-4.923180e+01
 1.162774e+00	 9.003252e-01	-4.807818e+01
 1.145067e+00	 9.227417e-01	-4.612356e+01
 1.126908e+00	 9.448329e-01	-4.348680e+01
 1.108306e+00	 9.665852e-01	-4.029291e+01
 1.089272e+00	 9.879855e-01	-3.667252e+01
 1.045702e+00	 9.484660e-01	-6.382743e+01
 1.027024e+00	 9.686600e-01	-6.027361e+01
 1.007950e+00	 9.884919e-01	-5.620546e+01
 9.884919e-01	 1.007950e+00	-5.202176e+01
 9.686600e-01	 1.027024e+00	-4.813938e+01
 9.484660e-01	 1.045702e+00	-4.499015e+01
 1.054416e+00	 9.563699e-01	-5.873251e+01
 1.035582e+00	 9.767322e-01	-5.532316e+01
 1.016350e+00	 9.967293e-01	-5.141382e+01
 9.967293e-01	 1.016350e+00	-4.732563e+01
 9.767322e-01	 1.035582e+00	-4.339302e+01
 9.563699e-01	 1.054416e+00	-3.996097e+01
 1.063130e+00	 9.642738e-01	-5.336954e+01
 1.044141e+00	 9.848044e-01	-5.009531e+01
 1.024749e+00	 1.004967e+00	-4.632065e+01
 1.004967e+00	 1.024749e+00	-4.228779e+01
 9.848044e-01	 1.044141e+00	-3.824750e+01
 9.642738e-01	 1.063130e+00	-3.445684e+01
 1.071844e+00	 9.721777e-01	-4.775675e+01
 1.052699e+00	 9.928765e-01	-4.459801e+01
 1.033149e+00	 1.013204e+00	-4.094218e+01
 1.013204e+00	 1.033149e+00	-3.693319e+01
 9.928765e-01	 1.052699e+00	-3.273701e+01
 9.721777e-01	 1.071844e+00	-2.874556e+01
 1.080558e+00	 9.800816e-01	-4.230033e+01
 1.061258e+00	 1.000949e+00	-3.883976e+01
 1.041548e+00	 1.021442e+00	-3.529495e+01
 1.021442e+00	 1.041548e+00	-3.128679e+01
 1.000949e+00	 1.061258e+00	-2.689535e+01
 9.800816e-01	 1.080558e+00	-2.719906e+01
 1.089272e+00	 9.879855e-01	-3.667252e+01
 1.069816e+00	 1.009021e+00	-3.282959e+01
 1.049948e+00	 1.029679e+00	-2.939571e+01
 1.029679e+00	 1.049948e+00	-2.537348e+01
 1.009021e+00	 1.069816e+00	-2.075603e+01
 9.879855e-01	 1.089272e+00	-2.544485e+01
 9.484660e-01	 1.045702e+00	-4.499015e+01
 9.279218e-01	 1.063974e+00	-4.247527e+01
 9.070396e-01	 1.081831e+00	-4.477611e+01
 8.858320e-01	 1.099264e+00	-4.922128e+01
 8.643121e-01	 1.116263e+00	-5.232820e+01
 8.424932e-01	 1.132822e+00	-5.408756e+01
 9.563699e-01	 1.054416e+00	-3.996097e+01
 9.356545e-01	 1.072840e+00	-3.757708e+01
 9.145982e-01	 1.090846e+00	-4.256586e+01
 8.932140e-01	 1.108424e+00	-4.620895e+01
 8.715148e-01	 1.125566e+00	-4.862204e+01
 8.495139e-01	 1.142262e+00	-4.993794e+01
 9.642738e-01	 1.063130e+00	-3.445684e+01
 9.433872e-01	 1.081707e+00	-3.584845e+01
 9.221569e-01	 1.099862e+00	-4.007464e+01
 9.005959e-01	 1.117585e+00	-4.296241e+01
 8.787174e-01	 1.134868e+00	-4.475271e+01
 8.565347e-01	 1.151702e+00	-4.570923e+01
 9.721777e-01	 1.071844e+00	-2.874556e+01
 9.511198e-01	 1.090573e+00	-3.385265e+01
 9.297156e-01	 1.108877e+00	-3.732897e+01
 9.079778e-01	 1.126746e+00	-3.950176e+01
 8.859200e-01	 1.144170e+00	-4.072733e+01
 8.635555e-01	 1.161142e+00	-4.138938e+01
 9.800816e-01	 1.080558e+00	-2.719906e+01
 9.588525e-01	 1.099440e+00	-3.161499e+01
 9.372742e-01	 1.117892e+00	-3.435449e+01
 9.153598e-01	 1.135906e+00	-3.584638e+01
 8.931226e-01	 1.153472e+00	-3.655278e+01
 8.705763e-01	 1.170582e+00	-3.696669e+01
 9.879855e-01	 1.089272e+00	-2.544485e+01
 9.665852e-01	 1.108306e+00	-2.915992e+01
 9.448329e-01	 1.126908e+00	-3.117592e+01
 9.227417e-01	 1.145067e+00	-3.201499e+01
 9.003252e-01	 1.162774e+00	-3.223564e+01
 8.775970e-01	 1.180023e+00	-3.242977e+01
 8.424932e-01	 1.132822e+00	-5.408756e+01
 8.203886e-01	 1.148931e+00	-5.546739e+01
 7.980122e-01	 1.164584e+00	-5.742559e+01
 7.753781e-01	 1.179775e+00	-5.994481e+01
 7.525004e-01	 1.194497e+00	-6.300655e+01
 7.293934e-01	 1.208745e+00	-6.659138e+01
 8.495139e-01	 1.142262e+00	-4.993794e+01
 8.272252e-01	 1.158505e+00	-5.118254e+01
 8.046623e-01	 1.174289e+00	-5.320103e+01
 7.818396e-01	 1.189606e+00	-5.586171e+01
 7.587712e-01	 1.204451e+00	-5.902564e+01
 7.354717e-01	 1.218818e+00	-6.254752e+01
 8.565347e-01	 1.151702e+00	-4.570923e+01
 8.340617e-01	 1.168080e+00	-4.687320e+01
 8.113124e-01	 1.183994e+00	-4.895223e+01
 7.883011e-01	 1.199438e+00	-5.171626e+01
 7.650421e-01	 1.214405e+00	-5.492343e+01
 7.415500e-01	 1.228891e+00	-5.832169e+01
 8.635555e-01	 1.161142e+00	-4.138938e+01
 8.408983e-01	 1.177654e+00	-4.251031e+01
 8.179625e-01	 1.193699e+00	-4.464333e+01
 7.947626e-01	 1.209269e+00	-4.747553e+01
 7.713129e-01	 1.224359e+00	-5.067928e+01
 7.476282e-01	 1.238964e+00	-5.391439e+01
 8.705763e-01	 1.170582e+00	-3.696669e+01
 8.477349e-01	 1.187229e+00	-3.806571e+01
 8.246126e-01	 1.203404e+00	-4.023957e+01
 8.012240e-01	 1.219101e+00	-4.310763e+01
 7.775837e-01	 1.234313e+00	-4.627318e+01
 7.537065e-01	 1.249037e+00	-4.932608e+01
 8.775970e-01	 1.180023e+00	-3.242977e+01
 8.545714e-01	 1.196803e+00	-3.351209e+01
 8.312627e-01	 1.213108e+00	-3.570727e+01
 8.076855e-01	 1.228932e+00	-3.858165e+01
 7.838546e-01	 1.244268e+00	-4.168575e+01
 7.597848e-01	 1.259110e+00	-4.455719e+01
 7.293934e-01	 1.208745e+00	-6.659138e+01
 7.060717e-01	 1.222515e+00	-7.007340e+01
 6.825498e-01	 1.235801e+00	-7.199303e+01
 6.588424e-01	 1.248602e+00	-7.285566e+01
 6.349643e-01	 1.260912e+00	-7.287191e+01
 6.109301e-01	 1.272731e+00	-7.224229e+01
 7.354717e-01	 1.218818e+00	-6.254752e+01
 7.119556e-01	 1.232702e+00	-6.604173e+01
 6.882377e-01	 1.246100e+00	-6.781218e+01
 6.643328e-01	 1.259007e+00	-6.843116e+01
 6.402557e-01	 1.271420e+00	-6.818105e+01
 6.160212e-01	 1.283337e+00	-6.733649e+01
 7.415500e-01	 1.228891e+00	-5.832169e+01
 7.178396e-01	 1.242890e+00	-6.159217e+01
 6.939256e-01	 1.256398e+00	-6.334378e+01
 6.698231e-01	 1.269412e+00	-6.374647e+01
 6.455470e-01	 1.281928e+00	-6.326806e+01
 6.211123e-01	 1.293943e+00	-6.223669e+01
 7.476282e-01	 1.238964e+00	-5.391439e+01
 7.237235e-01	 1.253078e+00	-5.685376e+01
 6.996136e-01	 1.266697e+00	-5.862645e+01
 6.753135e-01	 1.279817e+00	-5.883957e+01
 6.508384e-01	 1.292435e+00	-5.816097e+01
 6.262034e-01	 1.304549e+00	-5.695215e+01
 7.537065e-01	 1.249037e+00	-4.932608e+01
 7.296074e-01	 1.263265e+00	-5.194806e+01
 7.053015e-01	 1.276995e+00	-5.369786e+01
 6.808039e-01	 1.290222e+00	-5.374744e+01
 6.561298e-01	 1.302943e+00	-5.288711e+01
 6.312944e-01	 1.315155e+00	-5.149209e+01
 7.597848e-01	 1.259110e+00	-4.455719e+01
 7.354913e-01	 1.273453e+00	-4.689434e+01
 7.109894e-01	 1.287293e+00	-4.859468e+01
 6.862942e-01	 1.300627e+00	-4.850613e+01
 6.614211e-01	 1.313450e+00	-4.747314e+01
 6.363855e-01	 1.325761e+00	-4.586560e+01
 6.109301e-01	 1.272731e+00	-7.224229e+01
 5.867546e-01	 1.284056e+00	-7.102284e+01
 5.624525e-01	 1.294885e+00	-6.923718e+01
 5.380384e-01	 1.305218e+00	-6.701397e+01
 5.135269e-01	 1.315055e+00	-6.446167e+01
 4.889324e-01	 1.324396e+00	-6.166795e+01
 6.160212e-01	 1.283337e+00	-6.733649e+01
 5.916442e-01	 1.294756e+00	-6.598801e+01
 5.671396e-01	 1.305676e+00	-6.413203e+01
 5.425221e-01	 1.316095e+00	-6.187877e+01
 5.178063e-01	 1.326014e+00	-5.931622e+01
 4.930068e-01	 1.335433e+00	-5.650972e+01
 6.211123e-01	 1.293943e+00	-6.223669e+01
 5.965338e-01	 1.305456e+00	-6.075292e+01
 5.718267e-01	 1.316466e+00	-5.878968e+01
 5.470057e-01	 1.326972e+00	-5.646023e+01
 5.220857e-01	 1.336973e+00	-5.385486e+01
 4.970813e-01	 1.346469e+00	-5.104048e+01
 6.262034e-01	 1.304549e+00	-5.695215e+01
 6.014235e-01	 1.316157e+00	-5.530906e+01
 5.765138e-01	 1.327257e+00	-5.319368e+01
 5.514894e-01	 1.337849e+00	-5.074325e+01
 5.263651e-01	 1.347931e+00	-4.807260e+01
 5.011557e-01	 1.357506e+00	-4.527352e+01
 6.312944e-01	 1.315155e+00	-5.149209e+01
 6.063131e-01	 1.326857e+00	-4.964836e+01
 5.812009e-01	 1.338048e+00	-4.732825e+01
 5.559730e-01	 1.348725e+00	-4.471340e+01
 5.306445e-01	 1.358890e+00	-4.196476e+01
 5.052302e-01	 1.368543e+00	-3.922177e+01
 6.363855e-01	 1.325761e+00	-4.586560e+01
 6.112027e-01	 1.337558e+00	-4.376319e+01
 5.858880e-01	 1.348838e+00	-4.117830e+01
 5.604567e-01	 1.359602e+00	-3.835681e+01
 5.349239e-01	 1.369849e+00	-3.552692e+01
 5.093046e-01	 1.379579e+00	-3.289790e+01
 4.889324e-01	 1.324396e+00	-6.166795e+01
 4.642693e-01	 1.333242e+00	-5.849802e+01
 4.395516e-01	 1.341594e+00	-5.490304e+01
 4.147933e-01	 1.349454e+00	-5.107171e+01
 3.900083e-01	 1.356825e+00	-4.717601e+01
 3.652100e-01	 1.363709e+00	-4.337075e+01
 4.930068e-01	 1.335433e+00	-5.650972e+01
 4.681382e-01	 1.344352e+00	-5.333734e+01
 4.432145e-01	 1.352774e+00	-4.979228e+01
 4.182499e-01	 1.360699e+00	-4.608377e+01
 3.932584e-01	 1.368132e+00	-4.240494e+01
 3.682535e-01	 1.375073e+00	-3.893217e+01
 4.970813e-01	 1.346469e+00	-5.104048e+01
 4.720071e-01	 1.355462e+00	-4.792739e+01
 4.468774e-01	 1.363954e+00	-4.453015e+01
 4.217065e-01	 1.371945e+00	-4.104242e+01
 3.965084e-01	 1.379438e+00	-3.764135e+01
 3.712969e-01	 1.386437e+00	-3.448695e+01
 5.011557e-01	 1.357506e+00	-4.527352e+01
 4.758760e-01	 1.366573e+00	-4.229783e+01
 4.505404e-01	 1.375134e+00	-3.915194e+01
 4.251632e-01	 1.383190e+00	-3.597873e+01
 3.997585e-01	 1.390745e+00	-3.290316e+01
 3.743403e-01	 1.397801e+00	-3.003191e+01
 5.052302e-01	 1.368543e+00	-3.922177e+01
 4.797449e-01	 1.377683e+00	-3.647750e+01
 4.542033e-01	 1.386314e+00	-3.369189e+01
 4.286198e-01	 1.394436e+00	-3.092282e+01
 4.030086e-01	 1.402052e+00	-2.820775e+01
 3.773837e-01	 1.409166e+00	-2.556403e+01
 5.093046e-01	 1.379579e+00	-3.289790e+01
 4.836138e-01	 1.388794e+00	-3.049437e+01
 4.578662e-01	 1.397494e+00	-2.818325e+01
 4.320764e-01	 1.405681e+00	-2.590393e+01
 4.062586e-01	 1.413359e+00	-2.357203e+01
 3.804271e-01	 1.420530e+00	-2.108041e+01
 3.652100e-01	 1.363709e+00	-4.337075e+01
 3.404119e-01	 1.370109e+00	-3.824495e+01
 3.156268e-01	 1.376030e+00	-3.313918e+01
 2.908676e-01	 1.381476e+00	-2.890914e+01
 2.661469e-01	 1.386451e+00	-2.548051e+01
 2.414767e-01	 1.390960e+00	-2.277958e+01
 3.682535e-01	 1.375073e+00	-3.893217e+01
 3.432486e-01	 1.381527e+00	-3.458150e+01
 3.182570e-01	 1.387497e+00	-2.993498e+01
 2.932915e-01	 1.392988e+00	-2.615547e+01
 2.683648e-01	 1.398004e+00	-2.312181e+01
 2.434890e-01	 1.402551e+00	-2.071326e+01
 3.712969e-01	 1.386437e+00	-3.448695e+01
 3.460854e-01	 1.392944e+00	-3.080597e+01
 3.208872e-01	 1.398964e+00	-2.644176e+01
 2.957154e-01	 1.404500e+00	-2.291000e+01
 2.705827e-01	 1.409558e+00	-2.009240e+01
 2.455013e-01	 1.414142e+00	-1.787105e+01
 3.743403e-01	 1.397801e+00	-3.003191e+01
 3.489222e-01	 1.404362e+00	-2.689284e+01
 3.235175e-01	 1.410431e+00	-2.262497e+01
 2.981393e-01	 1.416013e+00	-1.913778e+01
 2.728006e-01	 1.421112e+00	-1.636437e+01
 2.475137e-01	 1.425734e+00	-1.423821e+01
 3.773837e-01	 1.409166e+00	-2.556403e+01
 3.517589e-01	 1.415780e+00	-2.281737e+01
 3.261477e-01	 1.421898e+00	-1.845110e+01
 3.005632e-01	 1.427525e+00	-1.480495e+01
 2.750185e-01	 1.432666e+00	-1.348510e+01
 2.495260e-01	 1.437325e+00	-1.264077e+01
 3.804271e-01	 1.420530e+00	-2.108041e+01
 3.545957e-01	 1.427197e+00	-1.855556e+01
 3.287779e-01	 1.433365e+00	-1.635241e+01
 3.029871e-01	 1.439037e+00	-1.458837e+01
 2.772364e-01	 1.444219e+00	-1.276676e+01
 2.515383e-01	 1.448916e+00	-1.118420e+01
 2.414767e-01	 1.390960e+00	-2.277958e+01
 2.168690e-01	 1.395008e+00	-1.964290e+01
 1.923353e-01	 1.398602e+00	-1.527876e+01
 1.678868e-01	 1.401747e+00	-1.017038e+01
 1.435344e-01	 1.404449e+00	-4.798105e+00
 1.192886e-01	 1.406716e+00	 3.619054e-01
 2.434890e-01	 1.402551e+00	-2.071326e+01
 2.186763e-01	 1.406633e+00	-1.776126e+01
 1.939381e-01	 1.410257e+00	-1.353484e+01
 1.692859e-01	 1.413428e+00	-8.568333e+00
 1.447305e-01	 1.416153e+00	-3.392273e+00
 1.202826e-01	 1.418439e+00	 1.468243e+00
 2.455013e-01	 1.414142e+00	-1.787105e+01
 2.204835e-01	 1.418258e+00	-1.511017e+01
 1.955409e-01	 1.421912e+00	-1.112115e+01
 1.706849e-01	 1.425109e+00	-6.454948e+00
 1.459267e-01	 1.427857e+00	-1.658041e+00
 1.212767e-01	 1.430161e+00	 2.642557e+00
 2.475137e-01	 1.425734e+00	-1.423821e+01
 2.222908e-01	 1.429883e+00	-1.203618e+01
 1.971437e-01	 1.433567e+00	-9.091244e+00
 1.720840e-01	 1.436790e+00	-5.119759e+00
 1.471228e-01	 1.439560e+00	-7.432591e-01
 1.222708e-01	 1.441884e+00	 3.428966e+00
 2.495260e-01	 1.437325e+00	-1.264077e+01
 2.240980e-01	 1.441508e+00	-1.093685e+01
 1.987465e-01	 1.445222e+00	-7.803116e+00
 1.734831e-01	 1.448472e+00	-3.824492e+00
 1.483189e-01	 1.451264e+00	 4.248244e-01
 1.232649e-01	 1.453607e+00	 4.382947e+00
 2.515383e-01	 1.448916e+00	-1.118420e+01
 2.259052e-01	 1.453133e+00	-9.088144e+00
 2.003493e-01	 1.456877e+00	-5.872899e+00
 1.748821e-01	 1.460153e+00	-2.044372e+00
 1.495150e-01	 1.462968e+00	 1.902278e+00
 1.242589e-01	 1.465329e+00	 5.483863e+00
 1.192886e-01	 1.406716e+00	 3.619054e-01
 9.515944e-02	 1.408554e+00	 3.522831e+00
 7.115680e-02	 1.409970e+00	 3.951585e+00
 4.729006e-02	 1.410972e+00	 2.757336e+00
 2.356824e-02	 1.411568e+00	 1.047350e+00
 0.000000e+00	 1.411765e+00	-7.650244e-02
 1.202826e-01	 1.418439e+00	 1.468243e+00
 9.595243e-02	 1.420292e+00	 4.292338e+00
 7.174977e-02	 1.421720e+00	 4.467080e+00
 4.768414e-02	 1.422731e+00	 3.133923e+00
 2.376465e-02	 1.423331e+00	 1.430854e+00
 0.000000e+00	 1.423529e+00	 4.888138e-01
 1.212767e-01	 1.430161e+00	 2.642557e+00
 9.674543e-02	 1.432030e+00	 5.051796e+00
 7.234275e-02	 1.433470e+00	 5.069147e+00
 4.807823e-02	 1.434489e+00	 3.787220e+00
 2.396105e-02	 1.435094e+00	 2.300134e+00
 0.000000e+00	 1.435294e+00	 1.699866e+00
 1.222708e-01	 1.441884e+00	 3.428966e+00
 9.753842e-02	 1.443768e+00	 5.793762e+00
 7.293572e-02	 1.445220e+00	 5.875026e+00
 4.847231e-02	 1.446247e+00	 4.767425e+00
 2.415745e-02	 1.446857e+00	 3.566830e+00
 0.000000e+00	 1.447059e+00	 3.366647e+00
 1.232649e-01	 1.453607e+00	 4.382947e+00
 9.833142e-02	 1.455506e+00	 6.575709e+00
 7.352869e-02	 1.456969e+00	 6.616565e+00
 4.886639e-02	 1.458005e+00	 5.588515e+00
 2.435385e-02	 1.458620e+00	 4.575978e+00
 0.000000e+00	 1.458824e+00	 4.661137e+00
 1.242589e-01	 1.465329e+00	 5.483863e+00
 9.912441e-02	 1.467244e+00	 7.375631e+00
 7.412167e-02	 1.468719e+00	 7.271250e+00
 4.926048e-02	 1.469763e+00	 6.228648e+00
 2.455025e-02	 1.470383e+00	 5.307893e+00
 0.000000e+00	 1.470588e+00	 5.567601e+00
 1.470588e+00	 0.000000e+00	-5.197398e+00
 1.470383e+00	 2.455025e-02	-6.580655e+00
 1.469763e+00	 4.926048e-02	-7.144782e+00
 1.468719e+00	 7.412167e-02	-7.053691e+00
 1.467244e+00	 9.912441e-02	-6.541349e+00
 1.465329e+00	 1.242589e-01	-5.915279e+00
 1.482353e+00	 0.000000e+00	-9.128320e+00
 1.482146e+00	 2.474666e-02	-9.405877e+00
 1.481521e+00	 4.965456e-02	-9.079587e+00
 1.480469e+00	 7.471464e-02	-8.387262e+00
 1.478982e+00	 9.991741e-02	-7.638593e+00
 1.477052e+00	 1.252530e-01	-7.218395e+00
 1.494118e+00	 0.000000e+00	-1.280147e+01
 1.493909e+00	 2.494306e-02	-1.195686e+01
 1.493279e+00	 5.004865e-02	-1.077097e+01
 1.492219e+00	 7.530761e-02	-9.537351e+00
 1.490720e+00	 1.007104e-01	-8.621039e+00
 1.488774e+00	 1.262471e-01	-8.461574e+00
 1.505882e+00	 0.000000e+00	-1.621985e+01
 1.505672e+00	 2.513946e-02	-1.425629e+01
 1.505037e+00	 5.044273e-02	-1.224950e+01
 1.503968e+00	 7.590059e-02	-1.053093e+01
 1.502458e+00	 1.015034e-01	-9.501014e+00
 1.500497e+00	 1.272411e-01	-9.631877e+00
 1.517647e+00	 0.000000e+00	-1.938636e+01
 1.517436e+00	 2.533586e-02	-1.632618e+01
 1.516795e+00	 5.083681e-02	-1.354482e+01
 1.515718e+00	 7.649356e-02	-1.139419e+01
 1.514196e+00	 1.022964e-01	-1.029054e+01
 1.512220e+00	 1.282352e-01	-1.071687e+01
 1.529412e+00	 0.000000e+00	-2.230383e+01
 1.529199e+00	 2.553226e-02	-1.818787e+01
 1.528553e+00	 5.123090e-02	-1.468570e+01
 1.527468e+00	 7.708653e-02	-1.215258e+01
 1.525933e+00	 1.030894e-01	-1.100137e+01
 1.523942e+00	 1.292293e-01	-1.170460e+01
 1.465329e+00	 1.242589e-01	-5.915279e+00
 1.462968e+00	 1.495150e-01	-5.853205e+00
 1.460153e+00	 1.748821e-01	-6.785120e+00
 1.456877e+00	 2.003493e-01	-8.681228e+00
 1.453133e+00	 2.259052e-01	-1.148075e+01
 1.448916e+00	 2.515383e-01	-1.509153e+01
 1.477052e+00	 1.252530e-01	-7.218395e+00
 1.474672e+00	 1.507111e-01	-7.525090e+00
 1.471834e+00	 1.762812e-01	-8.645511e+00
 1.468532e+00	 2.019521e-01	-1.053040e+01
 1.464758e+00	 2.277125e-01	-1.309689e+01
 1.460508e+00	 2.535506e-01	-1.622810e+01
 1.488774e+00	 1.262471e-01	-8.461574e+00
 1.486375e+00	 1.519073e-01	-9.160347e+00
 1.483515e+00	 1.776802e-01	-1.046315e+01
 1.480187e+00	 2.035549e-01	-1.230844e+01
 1.476384e+00	 2.295197e-01	-1.460072e+01
 1.472099e+00	 2.555629e-01	-1.721015e+01
 1.500497e+00	 1.272411e-01	-9.631877e+00
 1.498079e+00	 1.531034e-01	-1.072235e+01
 1.495196e+00	 1.790793e-01	-1.219111e+01
 1.491842e+00	 2.051577e-01	-1.397144e+01
 1.488009e+00	 2.313270e-01	-1.596448e+01
 1.483690e+00	 2.575752e-01	-1.803901e+01
 1.512220e+00	 1.282352e-01	-1.071687e+01
 1.509783e+00	 1.542995e-01	-1.217572e+01
 1.506878e+00	 1.804783e-01	-1.378409e+01
 1.503497e+00	 2.067605e-01	-1.547701e+01
 1.499634e+00	 2.331342e-01	-1.716144e+01
 1.495282e+00	 2.595875e-01	-1.871619e+01
 1.523942e+00	 1.292293e-01	-1.170460e+01
 1.521487e+00	 1.554956e-01	-1.348631e+01
 1.518559e+00	 1.818774e-01	-1.519830e+01
 1.515152e+00	 2.083633e-01	-1.678423e+01
 1.511259e+00	 2.349414e-01	-1.816589e+01
 1.506873e+00	 2.615998e-01	-1.924334e+01
 1.448916e+00	 2.515383e-01	-1.509153e+01
 1.444219e+00	 2.772364e-01	-1.950183e+01
 1.439037e+00	 3.029871e-01	-2.491152e+01
 1.433365e+00	 3.287779e-01	-3.153349e+01
 1.427197e+00	 3.545957e-01	-3.974889e+01
 1.420530e+00	 3.804271e-01	-4.049799e+01
 1.460508e+00	 2.535506e-01	-1.622810e+01
 1.455773e+00	 2.794542e-01	-2.003046e+01
 1.450550e+00	 3.054110e-01	-2.484631e+01
 1.444832e+00	 3.314081e-01	-3.090311e+01
 1.438615e+00	 3.574324e-01	-3.834948e+01
 1.431894e+00	 3.834705e-01	-3.798678e+01
 1.472099e+00	 2.555629e-01	-1.721015e+01
 1.467327e+00	 2.816721e-01	-2.038833e+01
 1.462062e+00	 3.078349e-01	-2.463090e+01
 1.456299e+00	 3.340384e-01	-3.016665e+01
 1.450032e+00	 3.602692e-01	-3.628236e+01
 1.443258e+00	 3.865140e-01	-3.642085e+01
 1.483690e+00	 2.575752e-01	-1.803901e+01
 1.478881e+00	 2.838900e-01	-2.060239e+01
 1.473574e+00	 3.102588e-01	-2.429821e+01
 1.467766e+00	 3.366686e-01	-2.934350e+01
 1.461450e+00	 3.631060e-01	-3.435734e+01
 1.454623e+00	 3.895574e-01	-3.496409e+01
 1.495282e+00	 2.595875e-01	-1.871619e+01
 1.490434e+00	 2.861079e-01	-2.069898e+01
 1.485087e+00	 3.126827e-01	-2.388036e+01
 1.479233e+00	 3.392988e-01	-2.845270e+01
 1.472867e+00	 3.659427e-01	-3.254864e+01
 1.465987e+00	 3.926008e-01	-3.353995e+01
 1.506873e+00	 2.615998e-01	-1.924334e+01
 1.501988e+00	 2.883258e-01	-2.070387e+01
 1.496599e+00	 3.151066e-01	-2.340871e+01
 1.490699e+00	 3.419290e-01	-2.751294e+01
 1.484285e+00	 3.687795e-01	-3.083113e+01
 1.477351e+00	 3.956442e-01	-3.207408e+01
 1.420530e+00	 3.804271e-01	-4.049799e+01
 1.413359e+00	 4.062586e-01	-4.099557e+01
 1.405681e+00	 4.320764e-01	-4.241778e+01
 1.397494e+00	 4.578662e-01	-4.450825e+01
 1.388794e+00	 4.836138e-01	-4.699273e+01
 1.379579e+00	 5.093046e-01	-4.958079e+01
 1.431894e+00	 3.834705e-01	-3.798678e+01
 1.424666e+00	 4.095087e-01	-3.891476e+01
 1.416927e+00	 4.355330e-01	-4.097597e+01
 1.408674e+00	 4.615291e-01	-4.348765e+01
 1.399904e+00	 4.874827e-01	-4.612329e+01
 1.390616e+00	 5.133790e-01	-4.853159e+01
 1.443258e+00	 3.865140e-01	-3.642085e+01
 1.435973e+00	 4.127588e-01	-3.742654e+01
 1.428172e+00	 4.389896e-01	-3.920896e+01
 1.419853e+00	 4.651921e-01	-4.203869e+01
 1.411014e+00	 4.913516e-01	-4.471342e+01
 1.401652e+00	 5.174535e-01	-4.686226e+01
 1.454623e+00	 3.895574e-01	-3.496409e+01
 1.447280e+00	 4.160089e-01	-3.634665e+01
 1.439418e+00	 4.424462e-01	-3.823852e+01
 1.431033e+00	 4.688550e-01	-4.030366e+01
 1.422125e+00	 4.952205e-01	-4.271122e+01
 1.412689e+00	 5.215279e-01	-4.459776e+01
 1.465987e+00	 3.926008e-01	-3.353995e+01
 1.458586e+00	 4.192589e-01	-3.517115e+01
 1.450663e+00	 4.459028e-01	-3.707457e+01
 1.442213e+00	 4.725179e-01	-3.896333e+01
 1.433235e+00	 4.990894e-01	-4.051139e+01
 1.423726e+00	 5.256023e-01	-4.176286e+01
 1.477351e+00	 3.956442e-01	-3.207408e+01
 1.469893e+00	 4.225090e-01	-3.378266e+01
 1.461908e+00	 4.493594e-01	-3.554654e+01
 1.453393e+00	 4.761809e-01	-3.715609e+01
 1.444345e+00	 5.029584e-01	-3.837621e+01
 1.434762e+00	 5.296768e-01	-3.894624e+01
 1.379579e+00	 5.093046e-01	-4.958079e+01
 1.369849e+00	 5.349239e-01	-5.145477e+01
 1.359602e+00	 5.604567e-01	-5.216716e+01
 1.348838e+00	 5.858880e-01	-5.201918e+01
 1.337558e+00	 6.112027e-01	-5.137619e+01
 1.325761e+00	 6.363855e-01	-5.066829e+01
 1.390616e+00	 5.133790e-01	-4.853159e+01
 1.380808e+00	 5.392032e-01	-5.004715e+01
 1.370479e+00	 5.649403e-01	-5.043148e+01
 1.359629e+00	 5.905751e-01	-5.000779e+01
 1.348258e+00	 6.160923e-01	-4.916896e+01
 1.336367e+00	 6.414766e-01	-4.837815e+01
 1.401652e+00	 5.174535e-01	-4.686226e+01
 1.391767e+00	 5.434826e-01	-4.802640e+01
 1.381356e+00	 5.694240e-01	-4.817925e+01
 1.370420e+00	 5.952622e-01	-4.763002e+01
 1.358959e+00	 6.209820e-01	-4.675698e+01
 1.346974e+00	 6.465677e-01	-4.600814e+01
 1.412689e+00	 5.215279e-01	-4.459776e+01
 1.402725e+00	 5.477620e-01	-4.549257e+01
 1.392233e+00	 5.739076e-01	-4.555388e+01
 1.381211e+00	 5.999493e-01	-4.504164e+01
 1.369659e+00	 6.258716e-01	-4.427829e+01
 1.357580e+00	 6.516588e-01	-4.364951e+01
 1.423726e+00	 5.256023e-01	-4.176286e+01
 1.413684e+00	 5.520414e-01	-4.254324e+01
 1.403109e+00	 5.783913e-01	-4.269494e+01
 1.392001e+00	 6.046364e-01	-4.239424e+01
 1.380360e+00	 6.307612e-01	-4.186735e+01
 1.368186e+00	 6.567499e-01	-4.139136e+01
 1.434762e+00	 5.296768e-01	-3.894624e+01
 1.424643e+00	 5.563208e-01	-3.927361e+01
 1.413986e+00	 5.828749e-01	-3.973837e+01
 1.402792e+00	 6.093235e-01	-3.983540e+01
 1.391060e+00	 6.356508e-01	-3.965513e+01
 1.378792e+00	 6.618409e-01	-3.932076e+01
 1.325761e+00	 6.363855e-01	-5.066829e+01
 1.313450e+00	 6.614211e-01	-5.005293e+01
 1.300627e+00	 6.862942e-01	-4.947678e+01
 1.287293e+00	 7.109894e-01	-4.911296e+01
 1.273453e+00	 7.354913e-01	-4.996124e+01
 1.259110e+00	 7.597848e-01	-5.020556e+01
 1.336367e+00	 6.414766e-01	-4.837815e+01
 1.323958e+00	 6.667125e-01	-4.768791e+01
 1.311032e+00	 6.917846e-01	-4.691724e+01
 1.297592e+00	 7.166773e-01	-4.643308e+01
 1.283641e+00	 7.413753e-01	-4.738384e+01
 1.269182e+00	 7.658631e-01	-4.748679e+01
 1.346974e+00	 6.465677e-01	-4.600814e+01
 1.334466e+00	 6.720039e-01	-4.529377e+01
 1.321437e+00	 6.972749e-01	-4.431649e+01
 1.307890e+00	 7.223652e-01	-4.403480e+01
 1.293828e+00	 7.472592e-01	-4.480478e+01
 1.279255e+00	 7.719414e-01	-4.471100e+01
 1.357580e+00	 6.516588e-01	-4.364951e+01
 1.344973e+00	 6.772952e-01	-4.290932e+01
 1.331842e+00	 7.027653e-01	-4.167761e+01
 1.318188e+00	 7.280531e-01	-4.166564e+01
 1.304016e+00	 7.531431e-01	-4.217579e+01
 1.289328e+00	 7.780196e-01	-4.184068e+01
 1.368186e+00	 6.567499e-01	-4.139136e+01
 1.355481e+00	 6.825866e-01	-4.057286e+01
 1.342247e+00	 7.082556e-01	-3.900430e+01
 1.328487e+00	 7.337411e-01	-3.928286e+01
 1.314203e+00	 7.590271e-01	-3.945001e+01
 1.299401e+00	 7.840979e-01	-3.883936e+01
 1.378792e+00	 6.618409e-01	-3.932076e+01
 1.365988e+00	 6.878780e-01	-3.832221e+01
 1.352652e+00	 7.137460e-01	-3.630088e+01
 1.338785e+00	 7.394290e-01	-3.684489e+01
 1.324391e+00	 7.649110e-01	-3.658187e+01
 1.309474e+00	 7.901762e-01	-3.567155e+01
 1.259110e+00	 7.597848e-01	-5.020556e+01
 1.244268e+00	 7.838546e-01	-5.009287e+01
 1.228932e+00	 8.076855e-01	-5.006105e+01
 1.213108e+00	 8.312627e-01	-4.999061e+01
 1.196803e+00	 8.545714e-01	-4.975712e+01
 1.180023e+00	 8.775970e-01	-4.923180e+01
 1.269182e+00	 7.658631e-01	-4.748679e+01
 1.254222e+00	 7.901254e-01	-4.721300e+01
 1.238763e+00	 8.141470e-01	-4.700016e+01
 1.222813e+00	 8.379128e-01	-4.670888e+01
 1.206377e+00	 8.614080e-01	-4.619178e+01
 1.189463e+00	 8.846178e-01	-4.529421e+01
 1.279255e+00	 7.719414e-01	-4.471100e+01
 1.264176e+00	 7.963962e-01	-4.425056e+01
 1.248595e+00	 8.206085e-01	-4.384767e+01
 1.232518e+00	 8.445629e-01	-4.333902e+01
 1.215952e+00	 8.682446e-01	-4.254968e+01
 1.198903e+00	 8.916386e-01	-4.129391e+01
 1.289328e+00	 7.780196e-01	-4.184068e+01
 1.274130e+00	 8.026671e-01	-4.118459e+01
 1.258426e+00	 8.270700e-01	-4.059641e+01
 1.242223e+00	 8.512131e-01	-3.988496e+01
 1.225526e+00	 8.750812e-01	-3.884325e+01
 1.208343e+00	 8.986594e-01	-3.724944e+01
 1.299401e+00	 7.840979e-01	-3.883936e+01
 1.284084e+00	 8.089379e-01	-3.799469e+01
 1.268258e+00	 8.335315e-01	-3.723930e+01
 1.251928e+00	 8.578632e-01	-3.635035e+01
 1.235101e+00	 8.819177e-01	-3.508442e+01
 1.217783e+00	 9.056801e-01	-3.317863e+01
 1.309474e+00	 7.901762e-01	-3.567155e+01
 1.294038e+00	 8.152087e-01	-3.466091e+01
 1.278089e+00	 8.399929e-01	-3.376935e+01
 1.261633e+00	 8.645133e-01	-3.273863e+01
 1.244675e+00	 8.887543e-01	-3.128462e+01
 1.227223e+00	 9.127009e-01	-2.909863e+01
 1.180023e+00	 8.775970e-01	-4.923180e+01
 1.162774e+00	 9.003252e-01	-4.807818e+01
 1.145067e+00	 9.227417e-01	-4.612356e+01
 1.126908e+00	 9.448329e-01	-4.348680e+01
 1.108306e+00	 9.665852e-01	-4.029291e+01
 1.089272e+00	 9.879855e-01	-3.667252e+01
 1.189463e+00	 8.846178e-01	-4.529421e+01
 1.172077e+00	 9.075278e-01	-4.369522e+01
 1.154227e+00	 9.301237e-01	-4.128986e+01
 1.135923e+00	 9.523916e-01	-3.825068e+01
 1.117173e+00	 9.743179e-01	-3.476068e+01
 1.097987e+00	 9.958893e-01	-3.101250e+01
 1.198903e+00	 8.916386e-01	-4.129391e+01
 1.181379e+00	 9.147304e-01	-3.927708e+01
 1.163388e+00	 9.375056e-01	-3.646704e+01
 1.144938e+00	 9.599502e-01	-3.307502e+01
 1.126039e+00	 9.820506e-01	-2.932587e+01
 1.106701e+00	 1.003793e+00	-2.545694e+01
 1.208343e+00	 8.986594e-01	-3.724944e+01
 1.190681e+00	 9.219330e-01	-3.484404e+01
 1.172548e+00	 9.448875e-01	-3.167104e+01
 1.153953e+00	 9.675089e-01	-2.796566e+01
 1.134906e+00	 9.897832e-01	-2.397874e+01
 1.115415e+00	 1.011697e+00	-1.997550e+01
 1.217783e+00	 9.056801e-01	-3.317863e+01
 1.199983e+00	 9.291356e-01	-3.041565e+01
 1.181709e+00	 9.522695e-01	-2.691719e+01
 1.162969e+00	 9.750676e-01	-2.292810e+01
 1.143772e+00	 9.975159e-01	-1.870973e+01
 1.124129e+00	 1.019601e+00	-1.453866e+01
 1.227223e+00	 9.127009e-01	-2.909863e+01
 1.209285e+00	 9.363382e-01	-2.601073e+01
 1.190869e+00	 9.596514e-01	-2.222022e+01
 1.171984e+00	 9.826262e-01	-1.796755e+01
 1.152639e+00	 1.005249e+00	-1.350945e+01
 1.132843e+00	 1.027505e+00	-9.117681e+00
 1.089272e+00	 9.879855e-01	-3.667252e+01
 1.069816e+00	 1.009021e+00	-3.282959e+01
 1.049948e+00	 1.029679e+00	-2.939571e+01
 1.029679e+00	 1.049948e+00	-2.537348e+01
 1.009021e+00	 1.069816e+00	-2.075603e+01
 9.879855e-01	 1.089272e+00	-2.544485e+01
 1.097987e+00	 9.958893e-01	-3.101250e+01
 1.078375e+00	 1.017093e+00	-2.708246e+01
 1.058348e+00	 1.037916e+00	-2.332051e+01
 1.037916e+00	 1.058348e+00	-1.920142e+01
 1.017093e+00	 1.078375e+00	-1.829041e+01
 9.958893e-01	 1.097987e+00	-2.337507e+01
 1.106701e+00	 1.003793e+00	-2.545694e+01
 1.086933e+00	 1.025165e+00	-2.147051e+01
 1.066747e+00	 1.046154e+00	-1.711666e+01
 1.046154e+00	 1.066747e+00	-1.274755e+01
 1.025165e+00	 1.086933e+00	-1.637948e+01
 1.003793e+00	 1.106701e+00	-2.086420e+01
 1.115415e+00	 1.011697e+00	-1.997550e+01
 1.095492e+00	 1.033237e+00	-1.586493e+01
 1.075147e+00	 1.054391e+00	-1.099036e+01
 1.054391e+00	 1.075147e+00	-8.168038e+00
 1.033237e+00	 1.095492e+00	-1.406342e+01
 1.011697e+00	 1.115415e+00	-1.790309e+01
 1.124129e+00	 1.019601e+00	-1.453866e+01
 1.104050e+00	 1.041310e+00	-1.021959e+01
 1.083546e+00	 1.062629e+00	-4.989705e+00
 1.062629e+00	 1.083546e+00	-5.982950e+00
 1.041310e+00	 1.104050e+00	-1.131047e+01
 1.019601e+00	 1.124129e+00	-1.448282e+01
 1.132843e+00	 1.027505e+00	-9.117681e+00
 1.112609e+00	 1.049382e+00	-4.489694e+00
 1.091946e+00	 1.070866e+00	 1.216832e+00
 1.070866e+00	 1.091946e+00	-3.402249e+00
 1.049382e+00	 1.112609e+00	-8.089773e+00
 1.027505e+00	 1.132843e+00	-1.059467e+01
 9.879855e-01	 1.089272e+00	-2.544485e+01
 9.665852e-01	 1.108306e+00	-2.915992e+01
 9.448329e-01	 1.126908e+00	-3.117592e+01
 9.227417e-01	 1.145067e+00	-3.201499e+01
 9.003252e-01	 1.162774e+00	-3.223564e+01
 8.775970e-01	 1.180023e+00	-3.242977e+01
 9.958893e-01	 1.097987e+00	-2.337507e+01
 9.743179e-01	 1.117173e+00	-2.638537e+01
 9.523916e-01	 1.135923e+00	-2.772327e+01
 9.301237e-01	 1.154227e+00	-2.798446e+01
 9.075278e-01	 1.172077e+00	-2.780280e+01
 8.846178e-01	 1.189463e+00	-2.784684e+01
 1.003793e+00	 1.106701e+00	-2.086420e+01
 9.820506e-01	 1.126039e+00	-2.318299e+01
 9.599502e-01	 1.144938e+00	-2.392998e+01
 9.375056e-01	 1.163388e+00	-2.374350e+01
 9.147304e-01	 1.181379e+00	-2.330040e+01
 8.916386e-01	 1.198903e+00	-2.331235e+01
 1.011697e+00	 1.115415e+00	-1.790309e+01
 9.897832e-01	 1.134906e+00	-1.956683e+01
 9.675089e-01	 1.153953e+00	-1.982459e+01
 9.448875e-01	 1.172548e+00	-1.932719e+01
 9.219330e-01	 1.190681e+00	-1.876292e+01
 8.986594e-01	 1.208343e+00	-1.885375e+01
 1.019601e+00	 1.124129e+00	-1.448282e+01
 9.975159e-01	 1.143772e+00	-1.555043e+01
 9.750676e-01	 1.162969e+00	-1.543468e+01
 9.522695e-01	 1.181709e+00	-1.476946e+01
 9.291356e-01	 1.199983e+00	-1.422369e+01
 9.056801e-01	 1.217783e+00	-1.449762e+01
 1.027505e+00	 1.132843e+00	-1.059467e+01
 1.005249e+00	 1.152639e+00	-1.114684e+01
 9.826262e-01	 1.171984e+00	-1.078693e+01
 9.596514e-01	 1.190869e+00	-1.010317e+01
 9.363382e-01	 1.209285e+00	-9.715004e+00
 9.127009e-01	 1.227223e+00	-1.026967e+01
 8.775970e-01	 1.180023e+00	-3.242977e+01
 8.545714e-01	 1.196803e+00	-3.351209e+01
 8.312627e-01	 1.213108e+00	-3.570727e+01
 8.076855e-01	 1.228932e+00	-3.858165e+01
 7.838546e-01	 1.244268e+00	-4.168575e+01
 7.597848e-01	 1.259110e+00	-4.455719e+01
 8.846178e-01	 1.189463e+00	-2.784684e+01
 8.614080e-01	 1.206377e+00	-2.894715e+01
 8.379128e-01	 1.222813e+00	-3.116538e+01
 8.141470e-01	 1.238763e+00	-3.402753e+01
 7.901254e-01	 1.254222e+00	-3.704466e+01
 7.658631e-01	 1.269182e+00	-3.971603e+01
 8.916386e-01	 1.198903e+00	-2.331235e+01
 8.682446e-01	 1.215952e+00	-2.449822e+01
 8.445629e-01	 1.232518e+00	-2.675927e+01
 8.206085e-01	 1.248595e+00	-2.959184e+01
 7.963962e-01	 1.264176e+00	-3.247794e+01
 7.719414e-01	 1.279255e+00	-3.488866e+01
 8.986594e-01	 1.208343e+00	-1.885375e+01
 8.750812e-01	 1.225526e+00	-2.018259e+01
 8.512131e-01	 1.242223e+00	-2.249547e+01
 8.270700e-01	 1.258426e+00	-2.526942e+01
 8.026671e-01	 1.274130e+00	-2.796761e+01
 7.780196e-01	 1.289328e+00	-3.004280e+01
 9.056801e-01	 1.217783e+00	-1.449762e+01
 8.819177e-01	 1.235101e+00	-1.601703e+01
 8.578632e-01	 1.251928e+00	-1.838029e+01
 8.335315e-01	 1.268258e+00	-2.105527e+01
 8.089379e-01	 1.284084e+00	-2.349620e+01
 7.840979e-01	 1.299401e+00	-2.514718e+01
 9.127009e-01	 1.227223e+00	-1.026967e+01
 8.887543e-01	 1.244675e+00	-1.201772e+01
 8.645133e-01	 1.261633e+00	-1.441979e+01
 8.399929e-01	 1.278089e+00	-1.694449e+01
 8.152087e-01	 1.294038e+00	-1.904676e+01
 7.901762e-01	 1.309474e+00	-2.017146e+01
 7.597848e-01	 1.259110e+00	-4.455719e+01
 7.354913e-01	 1.273453e+00	-4.689434e+01
 7.109894e-01	 1.287293e+00	-4.859468e+01
 6.862942e-01	 1.300627e+00	-4.850613e+01
 6.614211e-01	 1.313450e+00	-4.747314e+01
 6.363855e-01	 1.325761e+00	-4.586560e+01
 7.658631e-01	 1.269182e+00	-3.971603e+01
 7.413753e-01	 1.283641e+00	-4.175717e+01
 7.166773e-01	 1.297592e+00	-4.324126e+01
 6.917846e-01	 1.311032e+00	-4.306592e+01
 6.667125e-01	 1.323958e+00	-4.182852e+01
 6.414766e-01	 1.336367e+00	-3.998277e+01
 7.719414e-01	 1.279255e+00	-3.488866e+01
 7.472592e-01	 1.293828e+00	-3.655996e+01
 7.223652e-01	 1.307890e+00	-3.761070e+01
 6.972749e-01	 1.321437e+00	-3.733774e+01
 6.720039e-01	 1.334466e+00	-3.584277e+01
 6.465677e-01	 1.346974e+00	-3.376471e+01
 7.780196e-01	 1.289328e+00	-3.004280e+01
 7.531431e-01	 1.304016e+00	-3.126076e+01
 7.280531e-01	 1.318188e+00	-3.180043e+01
 7.027653e-01	 1.331842e+00	-3.129863e+01
 6.772952e-01	 1.344973e+00	-2.951243e+01
 6.516588e-01	 1.357580e+00	-2.723646e+01
 7.840979e-01	 1.299401e+00	-2.514718e+01
 7.590271e-01	 1.314203e+00	-2.581891e+01
 7.337411e-01	 1.328487e+00	-2.577055e+01
 7.082556e-01	 1.342247e+00	-2.492655e+01
 6.825866e-01	 1.355481e+00	-2.283439e+01
 6.567499e-01	 1.368186e+00	-2.042249e+01
 7.901762e-01	 1.309474e+00	-2.017146e+01
 7.649110e-01	 1.324391e+00	-2.019499e+01
 7.394290e-01	 1.338785e+00	-1.948236e+01
 7.137460e-01	 1.352652e+00	-1.820036e+01
 6.878780e-01	 1.365988e+00	-1.580581e+01
 6.618409e-01	 1.378792e+00	-1.334672e+01
 6.363855e-01	 1.325761e+00	-4.586560e+01
 6.112027e-01	 1.337558e+00	-4.376319e+01
 5.858880e-01	 1.348838e+00	-4.117830e+01
 5.604567e-01	 1.359602e+00	-3.835681e+01
 5.349239e-01	 1.369849e+00	-3.552692e+01
 5.093046e-01	 1.379579e+00	-3.289790e+01
 6.414766e-01	 1.336367e+00	-3.998277e+01
 6.160923e-01	 1.348258e+00	-3.762266e+01
 5.905751e-01	 1.359629e+00	-3.480636e+01
 5.649403e-01	 1.370479e+00	-3.182339e+01
 5.392032e-01	 1.380808e+00	-2.894816e+01
 5.133790e-01	 1.390616e+00	-2.643825e+01
 6.465677e-01	 1.346974e+00	-3.376471e+01
 6.209820e-01	 1.358959e+00	-3.123352e+01
 5.952622e-01	 1.370420e+00	-2.832064e+01
 5.694240e-01	 1.381356e+00	-2.529955e+01
 5.434826e-01	 1.391767e+00	-2.242889e+01
 5.174535e-01	 1.401652e+00	-1.995092e+01
 6.516588e-01	 1.357580e+00	-2.723646e+01
 6.258716e-01	 1.369659e+00	-2.464393e+01
 5.999493e-01	 1.381211e+00	-2.177396e+01
 5.739076e-01	 1.392233e+00	-1.882573e+01
 5.477620e-01	 1.402725e+00	-1.598175e+01
 5.215279e-01	 1.412689e+00	-1.340677e+01
 6.567499e-01	 1.368186e+00	-2.042249e+01
 6.307612e-01	 1.380360e+00	-1.790071e+01
 6.046364e-01	 1.392001e+00	-1.521761e+01
 5.783913e-01	 1.403109e+00	-1.244126e+01
 5.520414e-01	 1.413684e+00	-9.619115e+00
 5.256023e-01	 1.423726e+00	-6.777678e+00
 6.618409e-01	 1.378792e+00	-1.334672e+01
 6.356508e-01	 1.391060e+00	-1.104943e+01
 6.093235e-01	 1.402792e+00	-8.701481e+00
 5.828749e-01	 1.413986e+00	-6.184421e+00
 5.563208e-01	 1.424643e+00	-3.353086e+00
 5.296768e-01	 1.434762e+00	-5.260037e+00
 5.093046e-01	 1.379579e+00	-3.289790e+01
 4.836138e-01	 1.388794e+00	-3.049437e+01
 4.578662e-01	 1.397494e+00	-2.818325e+01
 4.320764e-01	 1.405681e+00	-2.590393e+01
 4.062586e-01	 1.413359e+00	-2.357203e+01
 3.804271e-01	 1.420530e+00	-2.108041e+01
 5.133790e-01	 1.390616e+00	-2.643825e+01
 4.874827e-01	 1.399904e+00	-2.431008e+01
 4.615291e-01	 1.408674e+00	-2.233539e+01
 4.355330e-01	 1.416927e+00	-2.037039e+01
 4.095087e-01	 1.424666e+00	-1.824459e+01
 3.834705e-01	 1.431894e+00	-1.791783e+01
 5.174535e-01	 1.401652e+00	-1.995092e+01
 4.913516e-01	 1.411014e+00	-1.782384e+01
 4.651921e-01	 1.419853e+00	-1.578404e+01
 4.389896e-01	 1.428172e+00	-1.370625e+01
 4.127588e-01	 1.435973e+00	-1.668180e+01
 3.865140e-01	 1.443258e+00	-1.841145e+01
 5.215279e-01	 1.412689e+00	-1.340677e+01
 4.952205e-01	 1.422125e+00	-1.097106e+01
 4.688550e-01	 1.431033e+00	-1.040857e+01
 4.424462e-01	 1.439418e+00	-1.407574e+01
 4.160089e-01	 1.447280e+00	-1.647404e+01
 3.895574e-01	 1.454623e+00	-1.739887e+01
 5.256023e-01	 1.423726e+00	-6.777678e+00
 4.990894e-01	 1.433235e+00	-7.534248e+00
 4.725179e-01	 1.442213e+00	-1.116855e+01
 4.459028e-01	 1.450663e+00	-1.360264e+01
 4.192589e-01	 1.458586e+00	-1.483902e+01
 3.926008e-01	 1.465987e+00	-1.488742e+01
 5.296768e-01	 1.434762e+00	-5.260037e+00
 5.029584e-01	 1.444345e+00	-8.986580e+00
 4.761809e-01	 1.453393e+00	-1.110828e+01
 4.493594e-01	 1.461908e+00	-1.192289e+01
 4.225090e-01	 1.469893e+00	-1.174100e+01
 3.956442e-01	 1.477351e+00	-1.088422e+01
 3.804271e-01	 1.420530e+00	-2.108041e+01
 3.545957e-01	 1.427197e+00	-1.855556e+01
 3.287779e-01	 1.433365e+00	-1.635241e+01
 3.029871e-01	 1.439037e+00	-1.458837e+01
 2.772364e-01	 1.444219e+00	-1.276676e+01
 2.515383e-01	 1.448916e+00	-1.118420e+01
 3.834705e-01	 1.431894e+00	-1.791783e+01
 3.574324e-01	 1.438615e+00	-1.924929e+01
 3.314081e-01	 1.444832e+00	-1.692398e+01
 3.054110e-01	 1.450550e+00	-1.420272e+01
 2.794542e-01	 1.455773e+00	-1.154034e+01
 2.535506e-01	 1.460508e+00	-9.352836e+00
 3.865140e-01	 1.443258e+00	-1.841145e+01
 3.602692e-01	 1.450032e+00	-1.901729e+01
 3.340384e-01	 1.456299e+00	-1.638743e+01
 3.078349e-01	 1.462062e+00	-1.312488e+01
 2.816721e-01	 1.467327e+00	-1.004600e+01
 2.555629e-01	 1.472099e+00	-7.584423e+00
 3.895574e-01	 1.454623e+00	-1.739887e+01
 3.631060e-01	 1.461450e+00	-1.742273e+01
 3.366686e-01	 1.467766e+00	-1.481496e+01
 3.102588e-01	 1.473574e+00	-1.143183e+01
 2.838900e-01	 1.478881e+00	-8.350556e+00
 2.575752e-01	 1.483690e+00	-5.923083e+00
 3.926008e-01	 1.465987e+00	-1.488742e+01
 3.659427e-01	 1.472867e+00	-1.451388e+01
 3.392988e-01	 1.479233e+00	-1.227653e+01
 3.126827e-01	 1.485087e+00	-9.198183e+00
 2.861079e-01	 1.490434e+00	-6.518768e+00
 2.595875e-01	 1.495282e+00	-4.411588e+00
 3.956442e-01	 1.477351e+00	-1.088422e+01
 3.687795e-01	 1.484285e+00	-1.033752e+01
 3.419290e-01	 1.490699e+00	-8.840007e+00
 3.151066e-01	 1.496599e+00	-6.496303e+00
 2.883258e-01	 1.501988e+00	-4.613428e+00
 2.615998e-01	 1.506873e+00	-3.091415e+00
 2.515383e-01	 1.448916e+00	-1.118420e+01
 2.259052e-01	 1.453133e+00	-9.088144e+00
 2.003493e-01	 1.456877e+00	-5.872899e+00
 1.748821e-01	 1.460153e+00	-2.044372e+00
 1.495150e-01	 1.462968e+00	 1.902278e+00
 1.242589e-01	 1.465329e+00	 5.483863e+00
 2.535506e-01	 1.460508e+00	-9.352836e+00
 2.277125e-01	 1.464758e+00	-6.967570e+00
 2.019521e-01	 1.468532e+00	-3.736554e+00
 1.762812e-01	 1.471834e+00	-1.011653e-01
 1.507111e-01	 1.474672e+00	 3.508046e+00
 1.252530e-01	 1.477052e+00	 6.672261e+00
 2.555629e-01	 1.472099e+00	-7.584423e+00
 2.295197e-01	 1.476384e+00	-5.066187e+00
 2.035549e-01	 1.480187e+00	-1.827256e+00
 1.776802e-01	 1.483515e+00	 1.696094e+00
 1.519073e-01	 1.486375e+00	 5.078825e+00
 1.262471e-01	 1.488774e+00	 7.908006e+00
 2.575752e-01	 1.483690e+00	-5.923083e+00
 2.313270e-01	 1.488009e+00	-3.404455e+00
 2.051577e-01	 1.491842e+00	-1.497812e-01
 1.790793e-01	 1.495196e+00	 3.351760e+00
 1.531034e-01	 1.498079e+00	 6.622966e+00
 1.272411e-01	 1.500497e+00	 9.199718e+00
 2.595875e-01	 1.495282e+00	-4.411588e+00
 2.331342e-01	 1.499634e+00	-2.002214e+00
 2.067605e-01	 1.503497e+00	 1.291226e+00
 1.804783e-01	 1.506878e+00	 4.870039e+00
 1.542995e-01	 1.509783e+00	 8.148554e+00
 1.282352e-01	 1.512220e+00	 1.055574e+01
 2.615998e-01	 1.506873e+00	-3.091415e+00
 2.349414e-01	 1.511259e+00	-8.787137e-01
 2.083633e-01	 1.515152e+00	 2.491251e+00
 1.818774e-01	 1.518559e+00	 6.254997e+00
 1.554956e-01	 1.521487e+00	 9.663414e+00
 1.292293e-01	 1.523942e+00	 1.198416e+01
 1.242589e-01	 1.465329e+00	 5.483863e+00
 9.912441e-02	 1.467244e+00	 7.375631e+00
 7.412167e-02	 1.468719e+00	 7.271250e+00
 4.926048e-02	 1.469763e+00	 6.228648e+00
 2.455025e-02	 1.470383e+00	 5.307893e+00
 0.000000e+00	 1.470588e+00	 5.567601e+00
 1.252530e-01	 1.477052e+00	 6.672261e+00
 9.991741e-02	 1.478982e+00	 8.204543e+00
 7.471464e-02	 1.480469e+00	 7.887892e+00
 4.965456e-02	 1.481521e+00	 6.771791e+00
 2.474666e-02	 1.482146e+00	 5.908225e+00
 0.000000e+00	 1.482353e+00	 6.348071e+00
 1.262471e-01	 1.488774e+00	 7.908006e+00
 1.007104e-01	 1.490720e+00	 9.093396e+00
 7.530761e-02	 1.492219e+00	 8.535808e+00
 5.004865e-02	 1.493279e+00	 7.322013e+00
 2.494306e-02	 1.493909e+00	 6.540416e+00
 0.000000e+00	 1.494118e+00	 7.277282e+00
 1.272411e-01	 1.500497e+00	 9.199718e+00
 1.015034e-01	 1.502458e+00	 1.005041e+01
 7.590059e-02	 1.503968e+00	 9.223578e+00
 5.044273e-02	 1.505037e+00	 7.887936e+00
 2.513946e-02	 1.505672e+00	 7.211772e+00
 0.000000e+00	 1.505882e+00	 8.358848e+00
 1.282352e-01	 1.512220e+00	 1.055574e+01
 1.022964e-01	 1.514196e+00	 1.108355e+01
 7.649356e-02	 1.515718e+00	 9.959509e+00
 5.083681e-02	 1.516795e+00	 8.477911e+00
 2.533586e-02	 1.517436e+00	 7.929373e+00
 0.000000e+00	 1.517647e+00	 9.596270e+00
 1.292293e-01	 1.523942e+00	 1.198416e+01
 1.030894e-01	 1.525933e+00	 1.220053e+01
 7.708653e-02	 1.527468e+00	 1.075165e+01
 5.123090e-02	 1.528553e+00	 9.100031e+00
 2.553226e-02	 1.529199e+00	 8.700078e+00
 0.000000e+00	 1.529412e+00	 1.099294e+01
 1.529412e+00	 0.000000e+00	-2.230383e+01
 1.529199e+00	 2.553226e-02	-1.818787e+01
 1.528553e+00	 5.123090e-02	-1.468570e+01
 1.527468e+00	 7.708653e-02	-1.215258e+01
 1.525933e+00	 1.030894e-01	-1.100137e+01
 1.523942e+00	 1.292293e-01	-1.170460e+01
 1.541176e+00	 0.000000e+00	-2.493379e+01
 1.540962e+00	 2.572867e-02	-1.987435e+01
 1.540312e+00	 5.162498e-02	-1.573075e+01
 1.539218e+00	 7.767951e-02	-1.285612e+01
 1.537671e+00	 1.038824e-01	-1.165411e+01
 1.535665e+00	 1.302234e-01	-1.258067e+01
 1.552941e+00	 0.000000e+00	-2.724681e+01
 1.552725e+00	 2.592507e-02	-2.140264e+01
 1.552070e+00	 5.201907e-02	-1.671052e+01
 1.550967e+00	 7.827248e-02	-1.352731e+01
 1.549409e+00	 1.046754e-01	-1.225468e+01
 1.547388e+00	 1.312174e-01	-1.334062e+01
 1.564706e+00	 0.000000e+00	-2.925879e+01
 1.564488e+00	 2.612147e-02	-2.276976e+01
 1.563828e+00	 5.241315e-02	-1.761145e+01
 1.562717e+00	 7.886545e-02	-1.415021e+01
 1.561147e+00	 1.054684e-01	-1.279284e+01
 1.559110e+00	 1.322115e-01	-1.398783e+01
 1.576471e+00	 0.000000e+00	-3.098518e+01
 1.576251e+00	 2.631787e-02	-2.397284e+01
 1.575586e+00	 5.280723e-02	-1.842044e+01
 1.574467e+00	 7.945843e-02	-1.470943e+01
 1.572885e+00	 1.062614e-01	-1.325872e+01
 1.570833e+00	 1.332056e-01	-1.452566e+01
 1.588235e+00	 0.000000e+00	-3.244095e+01
 1.588014e+00	 2.651427e-02	-2.500914e+01
 1.587344e+00	 5.320132e-02	-1.912480e+01
 1.586217e+00	 8.005140e-02	-1.519008e+01
 1.584623e+00	 1.070544e-01	-1.364282e+01
 1.582555e+00	 1.341996e-01	-1.495747e+01
 1.523942e+00	 1.292293e-01	-1.170460e+01
 1.521487e+00	 1.554956e-01	-1.348631e+01
 1.518559e+00	 1.818774e-01	-1.519830e+01
 1.515152e+00	 2.083633e-01	-1.678423e+01
 1.511259e+00	 2.349414e-01	-1.816589e+01
 1.506873e+00	 2.615998e-01	-1.924334e+01
 1.535665e+00	 1.302234e-01	-1.258067e+01
 1.533190e+00	 1.566917e-01	-1.461994e+01
 1.530240e+00	 1.832765e-01	-1.640199e+01
 1.526807e+00	 2.099661e-01	-1.788020e+01
 1.522884e+00	 2.367487e-01	-1.899261e+01
 1.518464e+00	 2.636121e-01	-1.966237e+01
 1.547388e+00	 1.312174e-01	-1.334062e+01
 1.544894e+00	 1.578879e-01	-1.557604e+01
 1.541921e+00	 1.846755e-01	-1.740704e+01
 1.538462e+00	 2.115689e-01	-1.879206e+01
 1.534509e+00	 2.385559e-01	-1.967944e+01
 1.530056e+00	 2.656244e-01	-2.000801e+01
 1.559110e+00	 1.322115e-01	-1.398783e+01
 1.556598e+00	 1.590840e-01	-1.637148e+01
 1.553603e+00	 1.860746e-01	-1.823577e+01
 1.550117e+00	 2.131717e-01	-1.953966e+01
 1.546134e+00	 2.403632e-01	-2.023586e+01
 1.541647e+00	 2.676367e-01	-2.027163e+01
 1.570833e+00	 1.332056e-01	-1.452566e+01
 1.568302e+00	 1.602801e-01	-1.702272e+01
 1.565284e+00	 1.874736e-01	-1.890998e+01
 1.561772e+00	 2.147744e-01	-2.014241e+01
 1.557759e+00	 2.421704e-01	-2.067127e+01
 1.553238e+00	 2.696490e-01	-2.044506e+01
 1.582555e+00	 1.341996e-01	-1.495747e+01
 1.580005e+00	 1.614762e-01	-1.754588e+01
 1.576965e+00	 1.888727e-01	-1.945098e+01
 1.573427e+00	 2.163772e-01	-2.061931e+01
 1.569384e+00	 2.439777e-01	-2.099495e+01
 1.564830e+00	 2.716613e-01	-2.052055e+01
 1.506873e+00	 2.615998e-01	-1.924334e+01
 1.501988e+00	 2.883258e-01	-2.070387e+01
 1.496599e+00	 3.151066e-01	-2.340871e+01
 1.490699e+00	 3.419290e-01	-2.751294e+01
 1.484285e+00	 3.687795e-01	-3.083113e+01
 1.477351e+00	 3.956442e-01	-3.207408e+01
 1.518464e+00	 2.636121e-01	-1.966237e+01
 1.513542e+00	 2.905437e-01	-2.066702e+01
 1.508111e+00	 3.175305e-01	-2.291725e+01
 1.502166e+00	 3.445593e-01	-2.652966e+01
 1.495703e+00	 3.716163e-01	-2.917032e+01
 1.488715e+00	 3.986876e-01	-3.052334e+01
 1.530056e+00	 2.656244e-01	-2.000801e+01
 1.525096e+00	 2.927616e-01	-2.060478e+01
 1.519623e+00	 3.199544e-01	-2.240032e+01
 1.513633e+00	 3.471895e-01	-2.548285e+01
 1.507120e+00	 3.744530e-01	-2.754032e+01
 1.500079e+00	 4.017310e-01	-2.890681e+01
 1.541647e+00	 2.676367e-01	-2.027163e+01
 1.536649e+00	 2.949795e-01	-2.049277e+01
 1.531136e+00	 3.223783e-01	-2.183013e+01
 1.525100e+00	 3.498197e-01	-2.435344e+01
 1.518538e+00	 3.772898e-01	-2.592964e+01
 1.511444e+00	 4.047745e-01	-2.724457e+01
 1.553238e+00	 2.696490e-01	-2.044506e+01
 1.548203e+00	 2.971974e-01	-2.030756e+01
 1.542648e+00	 3.248022e-01	-2.117995e+01
 1.536567e+00	 3.524499e-01	-2.312320e+01
 1.529955e+00	 3.801266e-01	-2.432696e+01
 1.522808e+00	 4.078179e-01	-2.555594e+01
 1.564830e+00	 2.716613e-01	-2.052055e+01
 1.559757e+00	 2.994153e-01	-2.002662e+01
 1.554160e+00	 3.272261e-01	-2.042406e+01
 1.548034e+00	 3.550801e-01	-2.177466e+01
 1.541373e+00	 3.829633e-01	-2.272121e+01
 1.534172e+00	 4.108613e-01	-2.385957e+01
 1.477351e+00	 3.956442e-01	-3.207408e+01
 1.469893e+00	 4.225090e-01	-3.378266e+01
 1.461908e+00	 4.493594e-01	-3.554654e+01
 1.453393e+00	 4.761809e-01	-3.715609e+01
 1.444345e+00	 5.029584e-01	-3.837621e+01
 1.434762e+00	 5.296768e-01	-3.894624e+01
 1.488715e+00	 3.986876e-01	-3.052334e+01
 1.481200e+00	 4.257591e-01	-3.217748e+01
 1.473154e+00	 4.528160e-01	-3.373914e+01
 1.464573e+00	 4.798438e-01	-3.507705e+01
 1.455456e+00	 5.068273e-01	-3.604880e+01
 1.445799e+00	 5.337512e-01	-3.650067e+01
 1.500079e+00	 4.017310e-01	-2.890681e+01
 1.492507e+00	 4.290091e-01	-3.045995e+01
 1.484399e+00	 4.562727e-01	-3.185628e+01
 1.475753e+00	 4.835067e-01	-3.301789e+01
 1.466566e+00	 5.106962e-01	-3.386560e+01
 1.456836e+00	 5.378257e-01	-3.431882e+01
 1.511444e+00	 4.047745e-01	-2.724457e+01
 1.503814e+00	 4.322592e-01	-2.867609e+01
 1.495645e+00	 4.597293e-01	-2.994749e+01
 1.486933e+00	 4.871697e-01	-3.100961e+01
 1.477676e+00	 5.145651e-01	-3.181759e+01
 1.467872e+00	 5.419001e-01	-3.233084e+01
 1.522808e+00	 4.078179e-01	-2.555594e+01
 1.515121e+00	 4.355093e-01	-2.687043e+01
 1.506890e+00	 4.631859e-01	-2.806067e+01
 1.498113e+00	 4.908326e-01	-2.908211e+01
 1.488787e+00	 5.184340e-01	-2.989590e+01
 1.478909e+00	 5.459745e-01	-3.046880e+01
 1.534172e+00	 4.108613e-01	-2.385957e+01
 1.526428e+00	 4.387593e-01	-2.508604e+01
 1.518136e+00	 4.666425e-01	-2.624214e+01
 1.509293e+00	 4.944955e-01	-2.726427e+01
 1.499897e+00	 5.223029e-01	-2.809171e+01
 1.489945e+00	 5.500490e-01	-2.866662e+01
 1.434762e+00	 5.296768e-01	-3.894624e+01
 1.424643e+00	 5.563208e-01	-3.927361e+01
 1.413986e+00	 5.828749e-01	-3.973837e+01
 1.402792e+00	 6.093235e-01	-3.983540e+01
 1.391060e+00	 6.356508e-01	-3.965513e+01
 1.378792e+00	 6.618409e-01	-3.932076e+01
 1.445799e+00	 5.337512e-01	-3.650067e+01
 1.435602e+00	 5.606002e-01	-3.662383e+01
 1.424863e+00	 5.873586e-01	-3.688818e+01
 1.413583e+00	 6.140106e-01	-3.738845e+01
 1.401761e+00	 6.405404e-01	-3.748124e+01
 1.389398e+00	 6.669320e-01	-3.714392e+01
 1.456836e+00	 5.378257e-01	-3.431882e+01
 1.446561e+00	 5.648796e-01	-3.458413e+01
 1.435740e+00	 5.918422e-01	-3.476073e+01
 1.424373e+00	 6.186977e-01	-3.491168e+01
 1.412461e+00	 6.454301e-01	-3.506357e+01
 1.400004e+00	 6.720231e-01	-3.452785e+01
 1.467872e+00	 5.419001e-01	-3.233084e+01
 1.457519e+00	 5.691590e-01	-3.270717e+01
 1.446617e+00	 5.963259e-01	-3.295947e+01
 1.435164e+00	 6.233848e-01	-3.280666e+01
 1.423162e+00	 6.503197e-01	-3.234977e+01
 1.410610e+00	 6.771142e-01	-3.149920e+01
 1.478909e+00	 5.459745e-01	-3.046880e+01
 1.468478e+00	 5.734384e-01	-3.087309e+01
 1.457494e+00	 6.008096e-01	-3.104877e+01
 1.445955e+00	 6.280720e-01	-3.074348e+01
 1.433862e+00	 6.552093e-01	-2.967164e+01
 1.421216e+00	 6.822053e-01	-2.808446e+01
 1.489945e+00	 5.500490e-01	-2.866662e+01
 1.479437e+00	 5.777178e-01	-2.896543e+01
 1.468370e+00	 6.052932e-01	-2.889425e+01
 1.456745e+00	 6.327591e-01	-2.827320e+01
 1.444562e+00	 6.600989e-01	-2.689743e+01
 1.431822e+00	 6.872964e-01	-2.453710e+01
 1.378792e+00	 6.618409e-01	-3.932076e+01
 1.365988e+00	 6.878780e-01	-3.832221e+01
 1.352652e+00	 7.137460e-01	-3.630088e+01
 1.338785e+00	 7.394290e-01	-3.684489e+01
 1.324391e+00	 7.649110e-01	-3.658187e+01
 1.309474e+00	 7.901762e-01	-3.567155e+01
 1.389398e+00	 6.669320e-01	-3.714392e+01
 1.376496e+00	 6.931694e-01	-3.583591e+01
 1.363057e+00	 7.192363e-01	-3.402150e+01
 1.349083e+00	 7.451169e-01	-3.420821e+01
 1.334579e+00	 7.707949e-01	-3.357975e+01
 1.319547e+00	 7.962545e-01	-3.246815e+01
 1.400004e+00	 6.720231e-01	-3.452785e+01
 1.387004e+00	 6.984607e-01	-3.283759e+01
 1.373462e+00	 7.247267e-01	-3.142561e+01
 1.359382e+00	 7.508048e-01	-3.134305e+01
 1.344766e+00	 7.766789e-01	-3.055252e+01
 1.329620e+00	 8.023328e-01	-2.941732e+01
 1.410610e+00	 6.771142e-01	-3.149920e+01
 1.397511e+00	 7.037521e-01	-2.943051e+01
 1.383867e+00	 7.302170e-01	-2.855777e+01
 1.369680e+00	 7.564927e-01	-2.837634e+01
 1.354954e+00	 7.825628e-01	-2.760382e+01
 1.339693e+00	 8.084110e-01	-2.656892e+01
 1.421216e+00	 6.822053e-01	-2.808446e+01
 1.408019e+00	 7.090435e-01	-2.571555e+01
 1.394272e+00	 7.357074e-01	-2.553265e+01
 1.379978e+00	 7.621806e-01	-2.543106e+01
 1.365141e+00	 7.884467e-01	-2.483406e+01
 1.349765e+00	 8.144893e-01	-2.397121e+01
 1.431822e+00	 6.872964e-01	-2.453710e+01
 1.418526e+00	 7.143348e-01	-2.179832e+01
 1.404677e+00	 7.411977e-01	-2.246140e+01
 1.390277e+00	 7.678685e-01	-2.262647e+01
 1.375329e+00	 7.943307e-01	-2.234056e+01
 1.359838e+00	 8.205676e-01	-2.167089e+01
 1.309474e+00	 7.901762e-01	-3.567155e+01
 1.294038e+00	 8.152087e-01	-3.466091e+01
 1.278089e+00	 8.399929e-01	-3.376935e+01
 1.261633e+00	 8.645133e-01	-3.273863e+01
 1.244675e+00	 8.887543e-01	-3.128462e+01
 1.227223e+00	 9.127009e-01	-2.909863e+01
 1.319547e+00	 7.962545e-01	-3.246815e+01
 1.303992e+00	 8.214796e-01	-3.136517e+01
 1.287921e+00	 8.464544e-01	-3.035474e+01
 1.271338e+00	 8.711634e-01	-2.916329e+01
 1.254250e+00	 8.955909e-01	-2.748808e+01
 1.236664e+00	 9.197217e-01	-2.499864e+01
 1.329620e+00	 8.023328e-01	-2.941732e+01
 1.313947e+00	 8.277504e-01	-2.829765e+01
 1.297752e+00	 8.529159e-01	-2.714016e+01
 1.281042e+00	 8.778135e-01	-2.569891e+01
 1.263824e+00	 9.024274e-01	-2.370024e+01
 1.246104e+00	 9.267425e-01	-2.084398e+01
 1.339693e+00	 8.084110e-01	-2.656892e+01
 1.323901e+00	 8.340213e-01	-2.545133e+01
 1.307584e+00	 8.593774e-01	-2.408426e+01
 1.290747e+00	 8.844636e-01	-2.229149e+01
 1.273398e+00	 9.092640e-01	-1.987498e+01
 1.255544e+00	 9.337632e-01	-1.661586e+01
 1.349765e+00	 8.144893e-01	-2.397121e+01
 1.333855e+00	 8.402921e-01	-2.281924e+01
 1.317415e+00	 8.658389e-01	-2.114683e+01
 1.300452e+00	 8.911137e-01	-1.888850e+01
 1.282973e+00	 9.161006e-01	-1.596744e+01
 1.264984e+00	 9.407840e-01	-1.229592e+01
 1.359838e+00	 8.205676e-01	-2.167089e+01
 1.343809e+00	 8.465629e-01	-2.039453e+01
 1.327247e+00	 8.723004e-01	-1.828872e+01
 1.310157e+00	 8.977638e-01	-1.543886e+01
 1.292547e+00	 9.229372e-01	-1.193395e+01
 1.274424e+00	 9.478048e-01	-7.866231e+00
 1.227223e+00	 9.127009e-01	-2.909863e+01
 1.209285e+00	 9.363382e-01	-2.601073e+01
 1.190869e+00	 9.596514e-01	-2.222022e+01
 1.171984e+00	 9.826262e-01	-1.796755e+01
 1.152639e+00	 1.005249e+00	-1.350945e+01
 1.132843e+00	 1.027505e+00	-9.117681e+00
 1.236664e+00	 9.197217e-01	-2.499864e+01
 1.218588e+00	 9.435408e-01	-2.159755e+01
 1.200030e+00	 9.670333e-01	-1.755473e+01
 1.180999e+00	 9.901849e-01	-1.308205e+01
 1.161505e+00	 1.012981e+00	-8.405529e+00
 1.141558e+00	 1.035409e+00	-3.764252e+00
 1.246104e+00	 9.267425e-01	-2.084398e+01
 1.227890e+00	 9.507434e-01	-1.713975e+01
 1.209190e+00	 9.744153e-01	-1.290454e+01
 1.190014e+00	 9.977435e-01	-8.287652e+00
 1.170371e+00	 1.020714e+00	-3.447747e+00
 1.150272e+00	 1.043313e+00	 1.447979e+00
 1.255544e+00	 9.337632e-01	-1.661586e+01
 1.237192e+00	 9.579460e-01	-1.264828e+01
 1.218351e+00	 9.817972e-01	-8.296985e+00
 1.199030e+00	 1.005302e+00	-3.615561e+00
 1.179238e+00	 1.028447e+00	 1.340582e+00
 1.158986e+00	 1.051217e+00	 6.514458e+00
 1.264984e+00	 9.407840e-01	-1.229592e+01
 1.246494e+00	 9.651486e-01	-8.133613e+00
 1.227511e+00	 9.891791e-01	-3.758479e+00
 1.208045e+00	 1.012861e+00	 9.040824e-01
 1.188104e+00	 1.036179e+00	 5.936960e+00
 1.167700e+00	 1.059120e+00	 1.143089e+01
 1.274424e+00	 9.478048e-01	-7.866231e+00
 1.255796e+00	 9.723512e-01	-3.605823e+00
 1.236672e+00	 9.965611e-01	 6.854773e-01
 1.217060e+00	 1.020420e+00	 5.242148e+00
 1.196971e+00	 1.043912e+00	 1.031967e+01
 1.176414e+00	 1.067024e+00	 1.619320e+01
 1.132843e+00	 1.027505e+00	-9.117681e+00
 1.112609e+00	 1.049382e+00	-4.489694e+00
 1.091946e+00	 1.070866e+00	 1.216832e+00
 1.070866e+00	 1.091946e+00	-3.402249e+00
 1.049382e+00	 1.112609e+00	-8.089773e+00
 1.027505e+00	 1.132843e+00	-1.059467e+01
 1.141558e+00	 1.035409e+00	-3.764252e+00
 1.121167e+00	 1.057454e+00	 1.256333e+00
 1.100346e+00	 1.079104e+00	 3.208928e+00
 1.079104e+00	 1.100346e+00	-1.096707e+00
 1.057454e+00	 1.121167e+00	-4.531185e+00
 1.035409e+00	 1.141558e+00	-6.398235e+00
 1.150272e+00	 1.043313e+00	 1.447979e+00
 1.129726e+00	 1.065526e+00	 6.930494e+00
 1.108745e+00	 1.087341e+00	 4.977824e+00
 1.087341e+00	 1.108745e+00	 1.336846e+00
 1.065526e+00	 1.129726e+00	-7.747233e-01
 1.043313e+00	 1.150272e+00	-2.059184e+00
 1.158986e+00	 1.051217e+00	 6.514458e+00
 1.138284e+00	 1.073598e+00	 1.137401e+01
 1.117145e+00	 1.095579e+00	 6.872311e+00
 1.095579e+00	 1.117145e+00	 3.968419e+00
 1.073598e+00	 1.138284e+00	 3.011797e+00
 1.051217e+00	 1.158986e+00	 2.421996e+00
 1.167700e+00	 1.059120e+00	 1.143089e+01
 1.146843e+00	 1.081670e+00	 1.264298e+01
 1.125544e+00	 1.103816e+00	 8.920396e+00
 1.103816e+00	 1.125544e+00	 6.826205e+00
 1.081670e+00	 1.146843e+00	 6.534868e+00
 1.059120e+00	 1.167700e+00	 7.044899e+00
 1.176414e+00	 1.067024e+00	 1.619320e+01
 1.155401e+00	 1.089743e+00	 1.398119e+01
 1.133944e+00	 1.112053e+00	 1.114952e+01
 1.112053e+00	 1.133944e+00	 9.937821e+00
 1.089743e+00	 1.155401e+00	 1.031308e+01
 1.067024e+00	 1.176414e+00	 1.180920e+01
 1.027505e+00	 1.132843e+00	-1.059467e+01
 1.005249e+00	 1.152639e+00	-1.114684e+01
 9.826262e-01	 1.171984e+00	-1.078693e+01
 9.596514e-01	 1.190869e+00	-1.010317e+01
 9.363382e-01	 1.209285e+00	-9.715004e+00
 9.127009e-01	 1.227223e+00	-1.026967e+01
 1.035409e+00	 1.141558e+00	-6.398235e+00
 1.012981e+00	 1.161505e+00	-6.543861e+00
 9.901849e-01	 1.180999e+00	-6.083393e+00
 9.670333e-01	 1.200030e+00	-5.525114e+00
 9.435408e-01	 1.218588e+00	-5.403074e+00
 9.197217e-01	 1.236664e+00	-6.274131e+00
 1.043313e+00	 1.150272e+00	-2.059184e+00
 1.020714e+00	 1.170371e+00	-1.929896e+00
 9.977435e-01	 1.190014e+00	-1.519180e+00
 9.744153e-01	 1.209190e+00	-1.215696e+00
 9.507434e-01	 1.227890e+00	-1.426496e+00
 9.267425e-01	 1.246104e+00	-2.574793e+00
 1.051217e+00	 1.158986e+00	 2.421996e+00
 1.028447e+00	 1.179238e+00	 2.681780e+00
 1.005302e+00	 1.199030e+00	 2.890487e+00
 9.817972e-01	 1.218351e+00	 2.817854e+00
 9.579460e-01	 1.237192e+00	 2.224506e+00
 9.337632e-01	 1.255544e+00	 8.631772e-01
 1.059120e+00	 1.167700e+00	 7.044899e+00
 1.036179e+00	 1.188104e+00	 7.278347e+00
 1.012861e+00	 1.208045e+00	 7.130894e+00
 9.891791e-01	 1.227511e+00	 6.568578e+00
 9.651486e-01	 1.246494e+00	 5.559460e+00
 9.407840e-01	 1.264984e+00	 4.073612e+00
 1.067024e+00	 1.176414e+00	 1.180920e+01
 1.043912e+00	 1.196971e+00	 1.184743e+01
 1.020420e+00	 1.217060e+00	 1.118782e+01
 9.965611e-01	 1.236672e+00	 1.002977e+01
 9.723512e-01	 1.255796e+00	 8.587659e+00
 9.478048e-01	 1.274424e+00	 7.089383e+00
 9.127009e-01	 1.227223e+00	-1.026967e+01
 8.887543e-01	 1.244675e+00	-1.201772e+01
 8.645133e-01	 1.261633e+00	-1.441979e+01
 8.399929e-01	 1.278089e+00	-1.694449e+01
 8.152087e-01	 1.294038e+00	-1.904676e+01
 7.901762e-01	 1.309474e+00	-2.017146e+01
 9.197217e-01	 1.236664e+00	-6.274131e+00
 8.955909e-01	 1.254250e+00	-8.198234e+00
 8.711634e-01	 1.271338e+00	-1.053055e+01
 8.464544e-01	 1.287921e+00	-1.277473e+01
 8.214796e-01	 1.303992e+00	-1.442207e+01
 7.962545e-01	 1.319547e+00	-1.495489e+01
 9.267425e-01	 1.246104e+00	-2.574793e+00
 9.024274e-01	 1.263824e+00	-4.524502e+00
 8.778135e-01	 1.281042e+00	-6.586598e+00
 8.529159e-01	 1.297752e+00	-8.357758e+00
 8.277504e-01	 1.313947e+00	-9.426407e+00
 8.023328e-01	 1.329620e+00	-9.375527e+00
 9.337632e-01	 1.255544e+00	 8.631772e-01
 9.092640e-01	 1.273398e+00	-9.420916e-01
 8.844636e-01	 1.290747e+00	-2.531330e+00
 8.593774e-01	 1.307584e+00	-3.650888e+00
 8.340213e-01	 1.323901e+00	-4.045726e+00
 8.084110e-01	 1.339693e+00	-3.461283e+00
 9.407840e-01	 1.264984e+00	 4.073612e+00
 9.161006e-01	 1.282973e+00	 2.601844e+00
 8.911137e-01	 1.300452e+00	 1.690198e+00
 8.658389e-01	 1.317415e+00	 1.387306e+00
 8.402921e-01	 1.333855e+00	 1.733603e+00
 8.144893e-01	 1.349765e+00	 2.760779e+00
 9.478048e-01	 1.274424e+00	 7.089383e+00
 9.229372e-01	 1.292547e+00	 6.158623e+00
 8.977638e-01	 1.310157e+00	 6.131336e+00
 8.723004e-01	 1.327247e+00	 6.797052e+00
 8.465629e-01	 1.343809e+00	 7.924835e+00
 8.205676e-01	 1.359838e+00	 9.264419e+00
 7.901762e-01	 1.309474e+00	-2.017146e+01
 7.649110e-01	 1.324391e+00	-2.019499e+01
 7.394290e-01	 1.338785e+00	-1.948236e+01
 7.137460e-01	 1.352652e+00	-1.820036e+01
 6.878780e-01	 1.365988e+00	-1.580581e+01
 6.618409e-01	 1.378792e+00	-1.334672e+01
 7.962545e-01	 1.319547e+00	-1.495489e+01
 7.707949e-01	 1.334579e+00	-1.435195e+01
 7.451169e-01	 1.349083e+00	-1.306982e+01
 7.192363e-01	 1.363057e+00	-1.131381e+01
 6.931694e-01	 1.376496e+00	-8.817984e+00
 6.669320e-01	 1.389398e+00	-6.356335e+00
 8.023328e-01	 1.329620e+00	-9.375527e+00
 7.766789e-01	 1.344766e+00	-8.320649e+00
 7.508048e-01	 1.359382e+00	-6.739277e+00
 7.247267e-01	 1.373462e+00	-4.764961e+00
 6.984607e-01	 1.387004e+00	-2.276919e+00
 6.720231e-01	 1.400004e+00	 2.451273e-01
 8.084110e-01	 1.339693e+00	-3.461283e+00
 7.825628e-01	 1.354954e+00	-2.163005e+00
 7.564927e-01	 1.369680e+00	-5.599042e-01
 7.302170e-01	 1.383867e+00	 1.379877e+00
 7.037521e-01	 1.397511e+00	 3.798237e+00
 6.771142e-01	 1.410610e+00	 6.498619e+00
 8.144893e-01	 1.349765e+00	 2.760779e+00
 7.884467e-01	 1.365141e+00	 4.060923e+00
 7.621806e-01	 1.379978e+00	 5.401206e+00
 7.357074e-01	 1.394272e+00	 7.070367e+00
 7.090435e-01	 1.408019e+00	 9.388702e+00
 6.822053e-01	 1.421216e+00	 1.244368e+01
 8.205676e-01	 1.359838e+00	 9.264419e+00
 7.943307e-01	 1.375329e+00	 1.029287e+01
 7.678685e-01	 1.390277e+00	 1.107896e+01
 7.411977e-01	 1.404677e+00	 1.225767e+01
 7.143348e-01	 1.418526e+00	 1.447611e+01
 6.872964e-01	 1.431822e+00	 1.565062e+01
 6.618409e-01	 1.378792e+00	-1.334672e+01
 6.356508e-01	 1.391060e+00	-1.104943e+01
 6.093235e-01	 1.402792e+00	-8.701481e+00
 5.828749e-01	 1.413986e+00	-6.184421e+00
 5.563208e-01	 1.424643e+00	-3.353086e+00
 5.296768e-01	 1.434762e+00	-5.260037e+00
 6.669320e-01	 1.389398e+00	-6.356335e+00
 6.405404e-01	 1.401761e+00	-4.216662e+00
 6.140106e-01	 1.413583e+00	-2.020595e+00
 5.873586e-01	 1.424863e+00	 4.904075e-01
 5.606002e-01	 1.435602e+00	-2.379997e+00
 5.337512e-01	 1.445799e+00	-6.940985e+00
 6.720231e-01	 1.400004e+00	 2.451273e-01
 6.454301e-01	 1.412461e+00	 2.563005e+00
 6.186977e-01	 1.424373e+00	 5.134524e+00
 5.918422e-01	 1.435740e+00	 2.138366e+00
 5.648796e-01	 1.446561e+00	-3.270425e+00
 5.378257e-01	 1.456836e+00	-6.953652e+00
 6.771142e-01	 1.410610e+00	 6.498619e+00
 6.503197e-01	 1.423162e+00	 9.380689e+00
 6.233848e-01	 1.435164e+00	 7.391057e+00
 5.963259e-01	 1.446617e+00	 1.763677e+00
 5.691590e-01	 1.457519e+00	-2.645086e+00
 5.419001e-01	 1.467872e+00	-5.329224e+00
 6.822053e-01	 1.421216e+00	 1.244368e+01
 6.552093e-01	 1.433862e+00	 1.208338e+01
 6.280720e-01	 1.445955e+00	 6.851041e+00
 6.008096e-01	 1.457494e+00	 2.593185e+00
 5.734384e-01	 1.468478e+00	-4.628407e-01
 5.459745e-01	 1.478909e+00	-2.097989e+00
 6.872964e-01	 1.431822e+00	 1.565062e+01
 6.600989e-01	 1.444562e+00	 1.069602e+01
 6.327591e-01	 1.456745e+00	 7.107732e+00
 6.052932e-01	 1.468370e+00	 4.711972e+00
 5.777178e-01	 1.479437e+00	 3.316198e+00
 5.500490e-01	 1.489945e+00	 2.710627e+00
 5.296768e-01	 1.434762e+00	-5.260037e+00
 5.029584e-01	 1.444345e+00	-8.986580e+00
 4.761809e-01	 1.453393e+00	-1.110828e+01
 4.493594e-01	 1.461908e+00	-1.192289e+01
 4.225090e-01	 1.469893e+00	-1.174100e+01
 3.956442e-01	 1.477351e+00	-1.088422e+01
 5.337512e-01	 1.445799e+00	-6.940985e+00
 5.068273e-01	 1.455456e+00	-9.446352e+00
 4.798438e-01	 1.464573e+00	-1.008233e+01
 4.528160e-01	 1.473154e+00	-9.415006e+00
 4.257591e-01	 1.481200e+00	-8.028240e+00
 3.986876e-01	 1.488715e+00	-6.520163e+00
 5.378257e-01	 1.456836e+00	-6.953652e+00
 5.106962e-01	 1.466566e+00	-8.427875e+00
 4.835067e-01	 1.475753e+00	-8.079299e+00
 4.562727e-01	 1.484399e+00	-6.583527e+00
 4.290091e-01	 1.492507e+00	-4.635808e+00
 4.017310e-01	 1.500079e+00	-2.946832e+00
 5.419001e-01	 1.467872e+00	-5.329224e+00
 5.145651e-01	 1.477676e+00	-6.028305e+00
 4.871697e-01	 1.486933e+00	-5.226180e+00
 4.597293e-01	 1.495645e+00	-3.552890e+00
 4.322592e-01	 1.503814e+00	-1.656966e+00
 4.047745e-01	 1.511444e+00	-2.014705e-01
 5.459745e-01	 1.478909e+00	-2.097989e+00
 5.184340e-01	 1.488787e+00	-2.341931e+00
 4.908326e-01	 1.498113e+00	-1.646213e+00
 4.631859e-01	 1.506890e+00	-4.438550e-01
 4.355093e-01	 1.515121e+00	 8.177778e-01
 4.078179e-01	 1.522808e+00	 1.679757e+00
 5.500490e-01	 1.489945e+00	 2.710627e+00
 5.223029e-01	 1.499897e+00	 2.539719e+00
 4.944955e-01	 1.509293e+00	 2.540981e+00
 4.666425e-01	 1.518136e+00	 2.626363e+00
 4.387593e-01	 1.526428e+00	 2.700561e+00
 4.108613e-01	 1.534172e+00	 2.661726e+00
 3.956442e-01	 1.477351e+00	-1.088422e+01
 3.687795e-01	 1.484285e+00	-1.033752e+01
 3.419290e-01	 1.490699e+00	-8.840007e+00
 3.151066e-01	 1.496599e+00	-6.496303e+00
 2.883258e-01	 1.501988e+00	-4.613428e+00
 2.615998e-01	 1.506873e+00	-3.091415e+00
 3.986876e-01	 1.488715e+00	-6.520163e+00
 3.716163e-01	 1.495703e+00	-6.016710e+00
 3.445593e-01	 1.502166e+00	-5.387365e+00
 3.175305e-01	 1.508111e+00	-3.841843e+00
 2.905437e-01	 1.513542e+00	-2.768107e+00
 2.636121e-01	 1.518464e+00	-1.807922e+00
 4.017310e-01	 1.500079e+00	-2.946832e+00
 3.744530e-01	 1.507120e+00	-2.632234e+00
 3.471895e-01	 1.513633e+00	-2.723569e+00
 3.199544e-01	 1.519623e+00	-1.663522e+00
 2.927616e-01	 1.525096e+00	-1.040892e+00
 2.656244e-01	 1.530056e+00	-3.604058e-01
 4.047745e-01	 1.511444e+00	-2.014705e-01
 3.772898e-01	 1.518538e+00	-1.668723e-01
 3.498197e-01	 1.525100e+00	-8.005709e-01
 3.223783e-01	 1.531136e+00	 9.699079e-02
 2.949795e-01	 1.536649e+00	 6.188909e-01
 2.676367e-01	 1.541647e+00	 1.279028e+00
 4.078179e-01	 1.522808e+00	 1.679757e+00
 3.801266e-01	 1.529955e+00	 1.396046e+00
 3.524499e-01	 1.536567e+00	 4.282108e-01
 3.248022e-01	 1.542648e+00	 1.496254e+00
 2.971974e-01	 1.548203e+00	 2.260378e+00
 2.696490e-01	 1.553238e+00	 3.137419e+00
 4.108613e-01	 1.534172e+00	 2.661726e+00
 3.829633e-01	 1.541373e+00	 2.072667e+00
 3.550801e-01	 1.548034e+00	 1.007942e+00
 3.272261e-01	 1.554160e+00	 2.589124e+00
 2.994153e-01	 1.559757e+00	 3.931227e+00
 2.716613e-01	 1.564830e+00	 5.240987e+00
 2.615998e-01	 1.506873e+00	-3.091415e+00
 2.349414e-01	 1.511259e+00	-8.787137e-01
 2.083633e-01	 1.515152e+00	 2.491251e+00
 1.818774e-01	 1.518559e+00	 6.254997e+00
 1.554956e-01	 1.521487e+00	 9.663414e+00
 1.292293e-01	 1.523942e+00	 1.198416e+01
 2.636121e-01	 1.518464e+00	-1.807922e+00
 2.367487e-01	 1.522884e+00	 2.294848e-01
 2.099661e-01	 1.526807e+00	 3.674813e+00
 1.832765e-01	 1.530240e+00	 7.610774e+00
 1.566917e-01	 1.533190e+00	 1.113580e+01
 1.302234e-01	 1.535665e+00	 1.336716e+01
 2.656244e-01	 1.530056e+00	-3.604058e-01
 2.385559e-01	 1.534509e+00	 1.601358e+00
 2.115689e-01	 1.538462e+00	 5.063557e+00
 1.846755e-01	 1.541921e+00	 9.030268e+00
 1.578879e-01	 1.544894e+00	 1.252235e+01
 1.312174e-01	 1.547388e+00	 1.458095e+01
 2.676367e-01	 1.541647e+00	 1.279028e+00
 2.403632e-01	 1.546134e+00	 3.241276e+00
 2.131717e-01	 1.550117e+00	 6.648929e+00
 1.860746e-01	 1.553603e+00	 1.050086e+01
 1.590840e-01	 1.556598e+00	 1.381351e+01
 1.322115e-01	 1.559110e+00	 1.562442e+01
 2.696490e-01	 1.553238e+00	 3.137419e+00
 2.421704e-01	 1.557759e+00	 5.153463e+00
 2.147744e-01	 1.561772e+00	 8.422620e+00
 1.874736e-01	 1.565284e+00	 1.201029e+01
 1.602801e-01	 1.568302e+00	 1.499999e+01
 1.332056e-01	 1.570833e+00	 1.649651e+01
 2.716613e-01	 1.564830e+00	 5.240987e+00
 2.439777e-01	 1.569384e+00	 7.341998e+00
 2.163772e-01	 1.573427e+00	 1.037655e+01
 1.888727e-01	 1.576965e+00	 1.354667e+01
 1.614762e-01	 1.580005e+00	 1.607277e+01
 1.341996e-01	 1.582555e+00	 1.719617e+01
 1.292293e-01	 1.523942e+00	 1.198416e+01
 1.030894e-01	 1.525933e+00	 1.220053e+01
 7.708653e-02	 1.527468e+00	 1.075165e+01
 5.123090e-02	 1.528553e+00	 9.100031e+00
 2.553226e-02	 1.529199e+00	 8.700078e+00
 0.000000e+00	 1.529412e+00	 1.099294e+01
 1.302234e-01	 1.535665e+00	 1.336716e+01
 1.038824e-01	 1.537671e+00	 1.329128e+01
 7.767951e-02	 1.539218e+00	 1.155068e+01
 5.162498e-02	 1.540312e+00	 9.757052e+00
 2.572867e-02	 1.540962e+00	 9.509765e+00
 0.000000e+00	 1.541176e+00	 1.239014e+01
 1.312174e-01	 1.547388e+00	 1.458095e+01
 1.046754e-01	 1.549409e+00	 1.424490e+01
 7.827248e-02	 1.550967e+00	 1.230728e+01
 5.201907e-02	 1.552070e+00	 1.045022e+01
 2.592507e-02	 1.552725e+00	 1.034073e+01
 0.000000e+00	 1.552941e+00	 1.362474e+01
 1.322115e-01	 1.559110e+00	 1.562442e+01
 1.054684e-01	 1.561147e+00	 1.506748e+01
 7.886545e-02	 1.562717e+00	 1.302915e+01
 5.241315e-02	 1.563828e+00	 1.118503e+01
 2.612147e-02	 1.564488e+00	 1.119425e+01
 0.000000e+00	 1.564706e+00	 1.469352e+01
 1.332056e-01	 1.570833e+00	 1.649651e+01
 1.062614e-01	 1.572885e+00	 1.576494e+01
 7.945843e-02	 1.574467e+00	 1.372377e+01
 5.280723e-02	 1.575586e+00	 1.196684e+01
 2.631787e-02	 1.576251e+00	 1.207159e+01
 0.000000e+00	 1.576471e+00	 1.559338e+01
 1.341996e-01	 1.582555e+00	 1.719617e+01
 1.070544e-01	 1.584623e+00	 1.634303e+01
 8.005140e-02	 1.586217e+00	 1.439838e+01
 5.320132e-02	 1.587344e+00	 1.280083e+01
 2.651427e-02	 1.588014e+00	 1.297396e+01
 0.000000e+00	 1.588235e+00	 1.632127e+01
 1.588235e+00	 0.000000e+00	-3.244095e+01
 1.588014e+00	 2.651427e-02	-2.500914e+01
 1.587344e+00	 5.320132e-02	-1.912480e+01
 1.586217e+00	 8.005140e-02	-1.519008e+01
 1.584623e+00	 1.070544e-01	-1.364282e+01
 1.582555e+00	 1.341996e-01	-1.495747e+01
 1.600000e+00	 0.000000e+00	-3.366379e+01
 1.599777e+00	 2.671068e-02	-2.587520e+01
 1.599102e+00	 5.359540e-02	-1.970279e+01
 1.597966e+00	 8.064437e-02	-1.556996e+01
 1.596361e+00	 1.078474e-01	-1.393449e+01
 1.594278e+00	 1.351937e-01	-1.528932e+01
 1.611765e+00	 0.000000e+00	-3.467847e+01
 1.611540e+00	 2.690708e-02	-2.656983e+01
 1.610860e+00	 5.398948e-02	-2.014377e+01
 1.609716e+00	 8.123735e-02	-1.584055e+01
 1.608099e+00	 1.086404e-01	-1.413315e+01
 1.606001e+00	 1.361878e-01	-1.552787e+01
 1.623529e+00	 0.000000e+00	-3.548031e+01
 1.623303e+00	 2.710348e-02	-2.709373e+01
 1.622618e+00	 5.438357e-02	-2.045189e+01
 1.621466e+00	 8.183032e-02	-1.600770e+01
 1.619837e+00	 1.094334e-01	-1.424468e+01
 1.617723e+00	 1.371819e-01	-1.567740e+01
 1.635294e+00	 0.000000e+00	-3.606477e+01
 1.635066e+00	 2.729988e-02	-2.744756e+01
 1.634376e+00	 5.477765e-02	-2.063124e+01
 1.633216e+00	 8.242329e-02	-1.607718e+01
 1.631575e+00	 1.102263e-01	-1.427486e+01
 1.629446e+00	 1.381759e-01	-1.574214e+01
 1.647059e+00	 0.000000e+00	-3.642745e+01
 1.646829e+00	 2.749628e-02	-2.763202e+01
 1.646135e+00	 5.517174e-02	-2.068584e+01
 1.644965e+00	 8.301627e-02	-1.605464e+01
 1.643313e+00	 1.110193e-01	-1.422937e+01
 1.641169e+00	 1.391700e-01	-1.572630e+01
 1.582555e+00	 1.341996e-01	-1.495747e+01
 1.580005e+00	 1.614762e-01	-1.754588e+01
 1.576965e+00	 1.888727e-01	-1.945098e+01
 1.573427e+00	 2.163772e-01	-2.061931e+01
 1.569384e+00	 2.439777e-01	-2.099495e+01
 1.564830e+00	 2.716613e-01	-2.052055e+01
 1.594278e+00	 1.351937e-01	-1.528932e+01
 1.591709e+00	 1.626723e-01	-1.795725e+01
 1.588646e+00	 1.902717e-01	-1.987388e+01
 1.585082e+00	 2.179800e-01	-2.097614e+01
 1.581009e+00	 2.457849e-01	-2.119924e+01
 1.576421e+00	 2.736736e-01	-2.047775e+01
 1.606001e+00	 1.361878e-01	-1.552787e+01
 1.603413e+00	 1.638685e-01	-1.826426e+01
 1.600327e+00	 1.916708e-01	-2.018122e+01
 1.596737e+00	 2.195828e-01	-2.120809e+01
 1.592634e+00	 2.475921e-01	-2.127349e+01
 1.588012e+00	 2.756859e-01	-2.030651e+01
 1.617723e+00	 1.371819e-01	-1.567740e+01
 1.615117e+00	 1.650646e-01	-1.846943e+01
 1.612009e+00	 1.930699e-01	-2.037506e+01
 1.608392e+00	 2.211856e-01	-2.131801e+01
 1.604259e+00	 2.493994e-01	-2.122253e+01
 1.599604e+00	 2.776982e-01	-2.001471e+01
 1.629446e+00	 1.381759e-01	-1.574214e+01
 1.626820e+00	 1.662607e-01	-1.857536e+01
 1.623690e+00	 1.944689e-01	-2.045758e+01
 1.620047e+00	 2.227884e-01	-2.130883e+01
 1.615884e+00	 2.512066e-01	-2.105120e+01
 1.611195e+00	 2.797106e-01	-1.961022e+01
 1.641169e+00	 1.391700e-01	-1.572630e+01
 1.638524e+00	 1.674568e-01	-1.858467e+01
 1.635371e+00	 1.958680e-01	-2.043100e+01
 1.631702e+00	 2.243912e-01	-2.118355e+01
 1.627509e+00	 2.530139e-01	-2.076436e+01
 1.622786e+00	 2.817229e-01	-1.910084e+01
 1.564830e+00	 2.716613e-01	-2.052055e+01
 1.559757e+00	 2.994153e-01	-2.002662e+01
 1.554160e+00	 3.272261e-01	-2.042406e+01
 1.548034e+00	 3.550801e-01	-2.177466e+01
 1.541373e+00	 3.829633e-01	-2.272121e+01
 1.534172e+00	 4.108613e-01	-2.385957e+01
 1.576421e+00	 2.736736e-01	-2.047775e+01
 1.571311e+00	 3.016332e-01	-1.962889e+01
 1.565673e+00	 3.296500e-01	-1.955657e+01
 1.559501e+00	 3.577104e-01	-2.031577e+01
 1.552790e+00	 3.858001e-01	-2.114377e+01
 1.545536e+00	 4.139047e-01	-2.220429e+01
 1.588012e+00	 2.756859e-01	-2.030651e+01
 1.582864e+00	 3.038510e-01	-1.911500e+01
 1.577185e+00	 3.320739e-01	-1.859601e+01
 1.570968e+00	 3.603406e-01	-1.882678e+01
 1.564208e+00	 3.886369e-01	-1.963014e+01
 1.556901e+00	 4.169481e-01	-2.062047e+01
 1.599604e+00	 2.776982e-01	-2.001471e+01
 1.594418e+00	 3.060689e-01	-1.849559e+01
 1.588697e+00	 3.344978e-01	-1.755393e+01
 1.582435e+00	 3.629708e-01	-1.739407e+01
 1.575626e+00	 3.914736e-01	-1.817557e+01
 1.568265e+00	 4.199915e-01	-1.909859e+01
 1.611195e+00	 2.797106e-01	-1.961022e+01
 1.605972e+00	 3.082868e-01	-1.778115e+01
 1.600210e+00	 3.369217e-01	-1.644180e+01
 1.593902e+00	 3.656010e-01	-1.601606e+01
 1.587043e+00	 3.943104e-01	-1.677533e+01
 1.579629e+00	 4.230350e-01	-1.762927e+01
 1.622786e+00	 2.817229e-01	-1.910084e+01
 1.617526e+00	 3.105047e-01	-1.698212e+01
 1.611722e+00	 3.393456e-01	-1.527094e+01
 1.605369e+00	 3.682313e-01	-1.469110e+01
 1.598461e+00	 3.971472e-01	-1.542472e+01
 1.590993e+00	 4.260784e-01	-1.620327e+01
 1.534172e+00	 4.108613e-01	-2.385957e+01
 1.526428e+00	 4.387593e-01	-2.508604e+01
 1.518136e+00	 4.666425e-01	-2.624214e+01
 1.509293e+00	 4.944955e-01	-2.726427e+01
 1.499897e+00	 5.223029e-01	-2.809171e+01
 1.489945e+00	 5.500490e-01	-2.866662e+01
 1.545536e+00	 4.139047e-01	-2.220429e+01
 1.537735e+00	 4.420094e-01	-2.336272e+01
 1.529381e+00	 4.700991e-01	-2.449385e+01
 1.520473e+00	 4.981584e-01	-2.550800e+01
 1.511007e+00	 5.261718e-01	-2.631407e+01
 1.500982e+00	 5.541234e-01	-2.681946e+01
 1.556901e+00	 4.169481e-01	-2.062047e+01
 1.549041e+00	 4.452595e-01	-2.170374e+01
 1.540627e+00	 4.735557e-01	-2.278013e+01
 1.531653e+00	 5.018214e-01	-2.374318e+01
 1.522118e+00	 5.300407e-01	-2.448163e+01
 1.512019e+00	 5.581978e-01	-2.487939e+01
 1.568265e+00	 4.199915e-01	-1.909859e+01
 1.560348e+00	 4.485095e-01	-2.009648e+01
 1.551872e+00	 4.770123e-01	-2.108994e+01
 1.542833e+00	 5.054843e-01	-2.196483e+01
 1.533228e+00	 5.339096e-01	-2.259984e+01
 1.523055e+00	 5.622723e-01	-2.286637e+01
 1.579629e+00	 4.230350e-01	-1.762927e+01
 1.571655e+00	 4.517596e-01	-1.852852e+01
 1.563118e+00	 4.804689e-01	-1.941239e+01
 1.554013e+00	 5.091472e-01	-2.016800e+01
 1.544338e+00	 5.377785e-01	-2.067384e+01
 1.534092e+00	 5.663467e-01	-2.079966e+01
 1.590993e+00	 4.260784e-01	-1.620327e+01
 1.582962e+00	 4.550097e-01	-1.698767e+01
 1.574363e+00	 4.839255e-01	-1.773677e+01
 1.565193e+00	 5.128102e-01	-1.834769e+01
 1.555449e+00	 5.416475e-01	-1.870846e+01
 1.545129e+00	 5.704211e-01	-1.869779e+01
 1.489945e+00	 5.500490e-01	-2.866662e+01
 1.479437e+00	 5.777178e-01	-2.896543e+01
 1.468370e+00	 6.052932e-01	-2.889425e+01
 1.456745e+00	 6.327591e-01	-2.827320e+01
 1.444562e+00	 6.600989e-01	-2.689743e+01
 1.431822e+00	 6.872964e-01	-2.453710e+01
 1.500982e+00	 5.541234e-01	-2.681946e+01
 1.490396e+00	 5.819972e-01	-2.692968e+01
 1.479247e+00	 6.097769e-01	-2.655483e+01
 1.467536e+00	 6.374462e-01	-2.559721e+01
 1.455263e+00	 6.649885e-01	-2.394433e+01
 1.442428e+00	 6.923874e-01	-2.146872e+01
 1.512019e+00	 5.581978e-01	-2.487939e+01
 1.501354e+00	 5.862765e-01	-2.480805e+01
 1.490124e+00	 6.142605e-01	-2.419650e+01
 1.478327e+00	 6.421333e-01	-2.300570e+01
 1.465963e+00	 6.698782e-01	-2.118947e+01
 1.453034e+00	 6.974785e-01	-1.869408e+01
 1.523055e+00	 5.622723e-01	-2.286637e+01
 1.512313e+00	 5.905559e-01	-2.263079e+01
 1.501001e+00	 6.187442e-01	-2.184752e+01
 1.489118e+00	 6.468204e-01	-2.051320e+01
 1.476664e+00	 6.747678e-01	-1.862240e+01
 1.463641e+00	 7.025696e-01	-1.616706e+01
 1.534092e+00	 5.663467e-01	-2.079966e+01
 1.523272e+00	 5.948353e-01	-2.042710e+01
 1.511878e+00	 6.232278e-01	-1.953517e+01
 1.499908e+00	 6.515075e-01	-1.813367e+01
 1.487364e+00	 6.796574e-01	-1.623280e+01
 1.474247e+00	 7.076607e-01	-1.384266e+01
 1.545129e+00	 5.704211e-01	-1.869779e+01
 1.534231e+00	 5.991147e-01	-1.822516e+01
 1.522754e+00	 6.277115e-01	-1.728579e+01
 1.510699e+00	 6.561946e-01	-1.588046e+01
 1.498065e+00	 6.845470e-01	-1.401044e+01
 1.484853e+00	 7.127518e-01	-1.167696e+01
 1.431822e+00	 6.872964e-01	-2.453710e+01
 1.418526e+00	 7.143348e-01	-2.179832e+01
 1.404677e+00	 7.411977e-01	-2.246140e+01
 1.390277e+00	 7.678685e-01	-2.262647e+01
 1.375329e+00	 7.943307e-01	-2.234056e+01
 1.359838e+00	 8.205676e-01	-2.167089e+01
 1.442428e+00	 6.923874e-01	-2.146872e+01
 1.429034e+00	 7.196262e-01	-1.884642e+01
 1.415082e+00	 7.466881e-01	-1.960202e+01
 1.400575e+00	 7.735565e-01	-2.003330e+01
 1.385517e+00	 8.002146e-01	-2.000319e+01
 1.369911e+00	 8.266459e-01	-1.941140e+01
 1.453034e+00	 6.974785e-01	-1.869408e+01
 1.439542e+00	 7.249176e-01	-1.693639e+01
 1.425487e+00	 7.521785e-01	-1.708414e+01
 1.410873e+00	 7.792444e-01	-1.759627e+01
 1.395704e+00	 8.060985e-01	-1.761078e+01
 1.379984e+00	 8.327241e-01	-1.691124e+01
 1.463641e+00	 7.025696e-01	-1.616706e+01
 1.450049e+00	 7.302089e-01	-1.519117e+01
 1.435892e+00	 7.576688e-01	-1.527253e+01
 1.421172e+00	 7.849323e-01	-1.524432e+01
 1.405892e+00	 8.119825e-01	-1.512266e+01
 1.390057e+00	 8.388024e-01	-1.417830e+01
 1.474247e+00	 7.076607e-01	-1.384266e+01
 1.460557e+00	 7.355003e-01	-1.353910e+01
 1.446297e+00	 7.631592e-01	-1.364750e+01
 1.431470e+00	 7.906202e-01	-1.309235e+01
 1.416080e+00	 8.178664e-01	-1.249920e+01
 1.400130e+00	 8.448807e-01	-1.122014e+01
 1.484853e+00	 7.127518e-01	-1.167696e+01
 1.471064e+00	 7.407917e-01	-1.191045e+01
 1.456702e+00	 7.686495e-01	-1.191105e+01
 1.441768e+00	 7.963081e-01	-1.122501e+01
 1.426267e+00	 8.237503e-01	-9.701797e+00
 1.410203e+00	 8.509590e-01	-8.043965e+00
 1.359838e+00	 8.205676e-01	-2.167089e+01
 1.343809e+00	 8.465629e-01	-2.039453e+01
 1.327247e+00	 8.723004e-01	-1.828872e+01
 1.310157e+00	 8.977638e-01	-1.543886e+01
 1.292547e+00	 9.229372e-01	-1.193395e+01
 1.274424e+00	 9.478048e-01	-7.866231e+00
 1.369911e+00	 8.266459e-01	-1.941140e+01
 1.353763e+00	 8.528338e-01	-1.790031e+01
 1.337078e+00	 8.787619e-01	-1.531978e+01
 1.319862e+00	 9.044139e-01	-1.189857e+01
 1.302122e+00	 9.297737e-01	-7.883553e+00
 1.283865e+00	 9.548256e-01	-3.538643e+00
 1.379984e+00	 8.327241e-01	-1.691124e+01
 1.363717e+00	 8.591046e-01	-1.510019e+01
 1.346909e+00	 8.852233e-01	-1.212546e+01
 1.329567e+00	 9.110640e-01	-8.305318e+00
 1.311696e+00	 9.366103e-01	-3.985537e+00
 1.293305e+00	 9.618463e-01	 4.621086e-01
 1.390057e+00	 8.388024e-01	-1.417830e+01
 1.373671e+00	 8.653754e-01	-1.204691e+01
 1.356741e+00	 8.916848e-01	-8.779070e+00
 1.339272e+00	 9.177141e-01	-4.729891e+00
 1.321271e+00	 9.434469e-01	-2.863360e-01
 1.302745e+00	 9.688671e-01	 4.134480e+00
 1.400130e+00	 8.448807e-01	-1.122014e+01
 1.383626e+00	 8.716463e-01	-8.791536e+00
 1.366572e+00	 8.981463e-01	-5.351666e+00
 1.348977e+00	 9.243642e-01	-1.240923e+00
 1.330845e+00	 9.502834e-01	 3.169070e+00
 1.312185e+00	 9.758879e-01	 7.477091e+00
 1.410203e+00	 8.509590e-01	-8.043965e+00
 1.393580e+00	 8.779171e-01	-5.383574e+00
 1.376404e+00	 9.046078e-01	-1.912169e+00
 1.358681e+00	 9.310143e-01	 2.095035e+00
 1.340419e+00	 9.571200e-01	 6.337103e+00
 1.321625e+00	 9.829087e-01	 1.048872e+01
 1.274424e+00	 9.478048e-01	-7.866231e+00
 1.255796e+00	 9.723512e-01	-3.605823e+00
 1.236672e+00	 9.965611e-01	 6.854773e-01
 1.217060e+00	 1.020420e+00	 5.242148e+00
 1.196971e+00	 1.043912e+00	 1.031967e+01
 1.176414e+00	 1.067024e+00	 1.619320e+01
 1.283865e+00	 9.548256e-01	-3.538643e+00
 1.265099e+00	 9.795538e-01	 7.232409e-01
 1.245832e+00	 1.003943e+00	 4.910133e+00
 1.226075e+00	 1.027978e+00	 9.403065e+00
 1.205837e+00	 1.051645e+00	 1.461566e+01
 1.185128e+00	 1.074928e+00	 1.922567e+01
 1.293305e+00	 9.618463e-01	 4.621086e-01
 1.274401e+00	 9.867564e-01	 4.676190e+00
 1.254993e+00	 1.011325e+00	 8.848502e+00
 1.235091e+00	 1.035537e+00	 1.344961e+01
 1.214704e+00	 1.059377e+00	 1.898949e+01
 1.193843e+00	 1.082832e+00	 2.034213e+01
 1.302745e+00	 9.688671e-01	 4.134480e+00
 1.283703e+00	 9.939590e-01	 8.294159e+00
 1.264154e+00	 1.018707e+00	 1.256113e+01
 1.244106e+00	 1.043096e+00	 1.743973e+01
 1.223570e+00	 1.067110e+00	 2.347579e+01
 1.202557e+00	 1.090736e+00	 2.179382e+01
 1.312185e+00	 9.758879e-01	 7.477091e+00
 1.293005e+00	 1.001162e+00	 1.161722e+01
 1.273314e+00	 1.026089e+00	 1.610694e+01
 1.253121e+00	 1.050654e+00	 2.142980e+01
 1.232437e+00	 1.074843e+00	 2.653336e+01
 1.211271e+00	 1.098640e+00	 2.357840e+01
 1.321625e+00	 9.829087e-01	 1.048872e+01
 1.302307e+00	 1.008364e+00	 1.468441e+01
 1.282475e+00	 1.033471e+00	 1.954328e+01
 1.262136e+00	 1.058213e+00	 2.547473e+01
 1.241303e+00	 1.082575e+00	 2.787476e+01
 1.219985e+00	 1.106544e+00	 2.569388e+01
 1.176414e+00	 1.067024e+00	 1.619320e+01
 1.155401e+00	 1.089743e+00	 1.398119e+01
 1.133944e+00	 1.112053e+00	 1.114952e+01
 1.112053e+00	 1.133944e+00	 9.937821e+00
 1.089743e+00	 1.155401e+00	 1.031308e+01
 1.067024e+00	 1.176414e+00	 1.180920e+01
 1.185128e+00	 1.074928e+00	 1.922567e+01
 1.163960e+00	 1.097815e+00	 1.554646e+01
 1.142343e+00	 1.120291e+00	 1.360164e+01
 1.120291e+00	 1.142343e+00	 1.319911e+01
 1.097815e+00	 1.163960e+00	 1.411682e+01
 1.074928e+00	 1.185128e+00	 1.610341e+01
 1.193843e+00	 1.082832e+00	 2.034213e+01
 1.172519e+00	 1.105887e+00	 1.745533e+01
 1.150743e+00	 1.128528e+00	 1.626137e+01
 1.128528e+00	 1.150743e+00	 1.645342e+01
 1.105887e+00	 1.172519e+00	 1.768819e+01
 1.082832e+00	 1.193843e+00	 1.958733e+01
 1.202557e+00	 1.090736e+00	 2.179382e+01
 1.181077e+00	 1.113959e+00	 1.966570e+01
 1.159143e+00	 1.136766e+00	 1.907122e+01
 1.136766e+00	 1.159143e+00	 1.965051e+01
 1.113959e+00	 1.181077e+00	 2.100540e+01
 1.090736e+00	 1.202557e+00	 2.270117e+01
 1.211271e+00	 1.098640e+00	 2.357840e+01
 1.189636e+00	 1.122031e+00	 2.213694e+01
 1.167542e+00	 1.145003e+00	 2.197561e+01
 1.145003e+00	 1.167542e+00	 2.274182e+01
 1.122031e+00	 1.189636e+00	 2.404749e+01
 1.098640e+00	 1.211271e+00	 2.547072e+01
 1.219985e+00	 1.106544e+00	 2.569388e+01
 1.198194e+00	 1.130103e+00	 2.482986e+01
 1.175942e+00	 1.153241e+00	 2.492079e+01
 1.153241e+00	 1.175942e+00	 2.568045e+01
 1.130103e+00	 1.198194e+00	 2.679438e+01
 1.106544e+00	 1.219985e+00	 2.792126e+01
 1.067024e+00	 1.176414e+00	 1.180920e+01
 1.043912e+00	 1.196971e+00	 1.184743e+01
 1.020420e+00	 1.217060e+00	 1.118782e+01
 9.965611e-01	 1.236672e+00	 1.002977e+01
 9.723512e-01	 1.255796e+00	 8.587659e+00
 9.478048e-01	 1.274424e+00	 7.089383e+00
 1.074928e+00	 1.185128e+00	 1.610341e+01
 1.051645e+00	 1.205837e+00	 1.616667e+01
 1.027978e+00	 1.226075e+00	 1.498512e+01
 1.003943e+00	 1.245832e+00	 1.329500e+01
 9.795538e-01	 1.265099e+00	 1.153412e+01
 9.548256e-01	 1.283865e+00	 1.016377e+01
 1.082832e+00	 1.193843e+00	 1.958733e+01
 1.059377e+00	 1.214704e+00	 2.006484e+01
 1.035537e+00	 1.235091e+00	 1.850945e+01
 1.011325e+00	 1.254993e+00	 1.650854e+01
 9.867564e-01	 1.274401e+00	 1.464049e+01
 9.618463e-01	 1.293305e+00	 1.351248e+01
 1.090736e+00	 1.202557e+00	 2.270117e+01
 1.067110e+00	 1.223570e+00	 2.360515e+01
 1.043096e+00	 1.244106e+00	 2.183943e+01
 1.018707e+00	 1.264154e+00	 1.973846e+01
 9.939590e-01	 1.283703e+00	 1.794012e+01
 9.688671e-01	 1.302745e+00	 1.711189e+01
 1.098640e+00	 1.211271e+00	 2.547072e+01
 1.074843e+00	 1.232437e+00	 2.650922e+01
 1.050654e+00	 1.253121e+00	 2.505146e+01
 1.026089e+00	 1.273314e+00	 2.305091e+01
 1.001162e+00	 1.293005e+00	 2.146544e+01
 9.758879e-01	 1.312185e+00	 2.093909e+01
 1.106544e+00	 1.219985e+00	 2.792126e+01
 1.082575e+00	 1.241303e+00	 2.877242e+01
 1.058213e+00	 1.262136e+00	 2.821983e+01
 1.033471e+00	 1.282475e+00	 2.651019e+01
 1.008364e+00	 1.302307e+00	 2.524802e+01
 9.829087e-01	 1.321625e+00	 2.497185e+01
 9.478048e-01	 1.274424e+00	 7.089383e+00
 9.229372e-01	 1.292547e+00	 6.158623e+00
 8.977638e-01	 1.310157e+00	 6.131336e+00
 8.723004e-01	 1.327247e+00	 6.797052e+00
 8.465629e-01	 1.343809e+00	 7.924835e+00
 8.205676e-01	 1.359838e+00	 9.264419e+00
 9.548256e-01	 1.283865e+00	 1.016377e+01
 9.297737e-01	 1.302122e+00	 9.858447e+00
 9.044139e-01	 1.319862e+00	 1.069748e+01
 8.787619e-01	 1.337078e+00	 1.224035e+01
 8.528338e-01	 1.353763e+00	 1.401532e+01
 8.266459e-01	 1.369911e+00	 1.552214e+01
 9.618463e-01	 1.293305e+00	 1.351248e+01
 9.366103e-01	 1.311696e+00	 1.374818e+01
 9.110640e-01	 1.329567e+00	 1.519902e+01
 8.852233e-01	 1.346909e+00	 1.730408e+01
 8.591046e-01	 1.363717e+00	 1.946622e+01
 8.327241e-01	 1.379984e+00	 2.105556e+01
 9.688671e-01	 1.302745e+00	 1.711189e+01
 9.434469e-01	 1.321271e+00	 1.775467e+01
 9.177141e-01	 1.339272e+00	 1.954760e+01
 8.916848e-01	 1.356741e+00	 2.191655e+01
 8.653754e-01	 1.373671e+00	 2.425183e+01
 8.388024e-01	 1.390057e+00	 2.591170e+01
 9.758879e-01	 1.312185e+00	 2.093909e+01
 9.502834e-01	 1.330845e+00	 2.180690e+01
 9.243642e-01	 1.348977e+00	 2.365741e+01
 8.981463e-01	 1.366572e+00	 2.600815e+01
 8.716463e-01	 1.383626e+00	 2.834722e+01
 8.448807e-01	 1.400130e+00	 3.013623e+01
 9.829087e-01	 1.321625e+00	 2.497185e+01
 9.571200e-01	 1.340419e+00	 2.583592e+01
 9.310143e-01	 1.358681e+00	 2.744518e+01
 9.046078e-01	 1.376404e+00	 2.951129e+01
 8.779171e-01	 1.393580e+00	 3.172816e+01
 8.509590e-01	 1.410203e+00	 3.377357e+01
 8.205676e-01	 1.359838e+00	 9.264419e+00
 7.943307e-01	 1.375329e+00	 1.029287e+01
 7.678685e-01	 1.390277e+00	 1.107896e+01
 7.411977e-01	 1.404677e+00	 1.225767e+01
 7.143348e-01	 1.418526e+00	 1.447611e+01
 6.872964e-01	 1.431822e+00	 1.565062e+01
 8.266459e-01	 1.369911e+00	 1.552214e+01
 8.002146e-01	 1.385517e+00	 1.621869e+01
 7.735565e-01	 1.400575e+00	 1.652763e+01
 7.466881e-01	 1.415082e+00	 1.739665e+01
 7.196262e-01	 1.429034e+00	 1.947073e+01
 6.923874e-01	 1.442428e+00	 1.388982e+01
 8.327241e-01	 1.379984e+00	 2.105556e+01
 8.060985e-01	 1.395704e+00	 2.163700e+01
 7.792444e-01	 1.410873e+00	 2.193250e+01
 7.521785e-01	 1.425487e+00	 2.304964e+01
 7.249176e-01	 1.439542e+00	 1.847148e+01
 6.974785e-01	 1.453034e+00	 1.355982e+01
 8.388024e-01	 1.390057e+00	 2.591170e+01
 8.119825e-01	 1.405892e+00	 2.665761e+01
 7.849323e-01	 1.421172e+00	 2.742352e+01
 7.576688e-01	 1.435892e+00	 2.467749e+01
 7.302089e-01	 1.450049e+00	 1.865867e+01
 7.025696e-01	 1.463641e+00	 1.462937e+01
 8.448807e-01	 1.400130e+00	 3.013623e+01
 8.178664e-01	 1.416080e+00	 3.138715e+01
 7.906202e-01	 1.431470e+00	 3.146883e+01
 7.631592e-01	 1.446297e+00	 2.519661e+01
 7.355003e-01	 1.460557e+00	 2.009068e+01
 7.076607e-01	 1.474247e+00	 1.706810e+01
 8.509590e-01	 1.410203e+00	 3.377357e+01
 8.237503e-01	 1.426267e+00	 3.592924e+01
 7.963081e-01	 1.441768e+00	 3.171449e+01
 7.686495e-01	 1.456702e+00	 2.669488e+01
 7.407917e-01	 1.471064e+00	 2.282431e+01
 7.127518e-01	 1.484853e+00	 2.084649e+01
 6.872964e-01	 1.431822e+00	 1.565062e+01
 6.600989e-01	 1.444562e+00	 1.069602e+01
 6.327591e-01	 1.456745e+00	 7.107732e+00
 6.052932e-01	 1.468370e+00	 4.711972e+00
 5.777178e-01	 1.479437e+00	 3.316198e+00
 5.500490e-01	 1.489945e+00	 2.710627e+00
 6.923874e-01	 1.442428e+00	 1.388982e+01
 6.649885e-01	 1.455263e+00	 1.014965e+01
 6.374462e-01	 1.467536e+00	 8.247892e+00
 6.097769e-01	 1.479247e+00	 7.622231e+00
 5.819972e-01	 1.490396e+00	 7.680857e+00
 5.541234e-01	 1.500982e+00	 7.806460e+00
 6.974785e-01	 1.453034e+00	 1.355982e+01
 6.698782e-01	 1.465963e+00	 1.089412e+01
 6.421333e-01	 1.478327e+00	 1.019354e+01
 6.142605e-01	 1.490124e+00	 1.067720e+01
 5.862765e-01	 1.501354e+00	 1.152939e+01
 5.581978e-01	 1.512019e+00	 1.190487e+01
 7.025696e-01	 1.463641e+00	 1.462937e+01
 6.747678e-01	 1.476664e+00	 1.282009e+01
 6.468204e-01	 1.489118e+00	 1.280127e+01
 6.187442e-01	 1.501001e+00	 1.373965e+01
 5.905559e-01	 1.512313e+00	 1.476698e+01
 5.622723e-01	 1.523055e+00	 1.498578e+01
 7.076607e-01	 1.474247e+00	 1.706810e+01
 6.796574e-01	 1.487364e+00	 1.582131e+01
 6.515075e-01	 1.499908e+00	 1.593181e+01
 6.232278e-01	 1.511878e+00	 1.667626e+01
 5.948353e-01	 1.523272e+00	 1.730152e+01
 5.663467e-01	 1.534092e+00	 1.702966e+01
 7.127518e-01	 1.484853e+00	 2.084649e+01
 6.845470e-01	 1.498065e+00	 1.979458e+01
 6.561946e-01	 1.510699e+00	 1.944979e+01
 6.277115e-01	 1.522754e+00	 1.935749e+01
 5.991147e-01	 1.534231e+00	 1.904351e+01
 5.704211e-01	 1.545129e+00	 1.801748e+01
 5.500490e-01	 1.489945e+00	 2.710627e+00
 5.223029e-01	 1.499897e+00	 2.539719e+00
 4.944955e-01	 1.509293e+00	 2.540981e+00
 4.666425e-01	 1.518136e+00	 2.626363e+00
 4.387593e-01	 1.526428e+00	 2.700561e+00
 4.108613e-01	 1.534172e+00	 2.661726e+00
 5.541234e-01	 1.500982e+00	 7.806460e+00
 5.261718e-01	 1.511007e+00	 7.414370e+00
 4.981584e-01	 1.520473e+00	 6.514617e+00
 4.700991e-01	 1.529381e+00	 5.365847e+00
 4.420094e-01	 1.537735e+00	 4.226373e+00
 4.139047e-01	 1.545536e+00	 3.352785e+00
 5.581978e-01	 1.512019e+00	 1.190487e+01
 5.300407e-01	 1.522118e+00	 1.117456e+01
 5.018214e-01	 1.531653e+00	 9.592848e+00
 4.735557e-01	 1.540627e+00	 7.625054e+00
 4.452595e-01	 1.549041e+00	 5.739836e+00
 4.169481e-01	 1.556901e+00	 4.406552e+00
 5.622723e-01	 1.523055e+00	 1.498578e+01
 5.339096e-01	 1.533228e+00	 1.387182e+01
 5.054843e-01	 1.542833e+00	 1.186508e+01
 4.770123e-01	 1.551872e+00	 9.500729e+00
 4.485095e-01	 1.560348e+00	 7.317734e+00
 4.199915e-01	 1.568265e+00	 5.855803e+00
 5.663467e-01	 1.534092e+00	 1.702966e+01
 5.377785e-01	 1.544338e+00	 1.555616e+01
 5.091472e-01	 1.554013e+00	 1.341811e+01
 4.804689e-01	 1.563118e+00	 1.108680e+01
 4.517596e-01	 1.571655e+00	 9.034608e+00
 4.230350e-01	 1.579629e+00	 7.732342e+00
 5.704211e-01	 1.545129e+00	 1.801748e+01
 5.416475e-01	 1.555449e+00	 1.627613e+01
 5.128102e-01	 1.565193e+00	 1.433622e+01
 4.839255e-01	 1.574363e+00	 1.247448e+01
 4.550097e-01	 1.582962e+00	 1.096284e+01
 4.260784e-01	 1.590993e+00	 1.006703e+01
 4.108613e-01	 1.534172e+00	 2.661726e+00
 3.829633e-01	 1.541373e+00	 2.072667e+00
 3.550801e-01	 1.548034e+00	 1.007942e+00
 3.272261e-01	 1.554160e+00	 2.589124e+00
 2.994153e-01	 1.559757e+00	 3.931227e+00
 2.716613e-01	 1.564830e+00	 5.240987e+00
 4.139047e-01	 1.545536e+00	 3.352785e+00
 3.858001e-01	 1.552790e+00	 2.566076e+00
 3.577104e-01	 1.559501e+00	 1.569676e+00
 3.296500e-01	 1.565673e+00	 3.668266e+00
 3.016332e-01	 1.571311e+00	 5.625675e+00
 2.736736e-01	 1.576421e+00	 7.362509e+00
 4.169481e-01	 1.556901e+00	 4.406552e+00
 3.886369e-01	 1.564208e+00	 3.560893e+00
 3.603406e-01	 1.570968e+00	 2.797077e+00
 3.320739e-01	 1.577185e+00	 4.960612e+00
 3.038510e-01	 1.582864e+00	 7.282396e+00
 2.756859e-01	 1.588012e+00	 9.247703e+00
 4.199915e-01	 1.568265e+00	 5.855803e+00
 3.914736e-01	 1.575626e+00	 5.045424e+00
 3.629708e-01	 1.582435e+00	 4.405892e+00
 3.344978e-01	 1.588697e+00	 6.422128e+00
 3.060689e-01	 1.594418e+00	 8.865397e+00
 2.776982e-01	 1.599604e+00	 1.088191e+01
 4.230350e-01	 1.579629e+00	 7.732342e+00
 3.943104e-01	 1.587043e+00	 7.008278e+00
 3.656010e-01	 1.593902e+00	 6.360528e+00
 3.369217e-01	 1.600210e+00	 8.010022e+00
 3.082868e-01	 1.605972e+00	 1.033970e+01
 2.797106e-01	 1.611195e+00	 1.225085e+01
 4.260784e-01	 1.590993e+00	 1.006703e+01
 3.971472e-01	 1.598461e+00	 9.438361e+00
 3.682313e-01	 1.605369e+00	 8.626379e+00
 3.393456e-01	 1.611722e+00	 9.682694e+00
 3.105047e-01	 1.617526e+00	 1.167129e+01
 2.817229e-01	 1.622786e+00	 1.334068e+01
 2.716613e-01	 1.564830e+00	 5.240987e+00
 2.439777e-01	 1.569384e+00	 7.341998e+00
 2.163772e-01	 1.573427e+00	 1.037655e+01
 1.888727e-01	 1.576965e+00	 1.354667e+01
 1.614762e-01	 1.580005e+00	 1.607277e+01
 1.341996e-01	 1.582555e+00	 1.719617e+01
 2.736736e-01	 1.576421e+00	 7.362509e+00
 2.457849e-01	 1.581009e+00	 9.519061e+00
 2.179800e-01	 1.585082e+00	 1.229408e+01
 1.902717e-01	 1.588646e+00	 1.503132e+01
 1.626723e-01	 1.591709e+00	 1.709302e+01
 1.351937e-01	 1.594278e+00	 1.786170e+01
 2.756859e-01	 1.588012e+00	 9.247703e+00
 2.475921e-01	 1.592634e+00	 1.139894e+01
 2.195828e-01	 1.596737e+00	 1.397625e+01
 1.916708e-01	 1.600327e+00	 1.640725e+01
 1.638685e-01	 1.603413e+00	 1.813787e+01
 1.361878e-01	 1.606001e+00	 1.863387e+01
 2.776982e-01	 1.599604e+00	 1.088191e+01
 2.493994e-01	 1.604259e+00	 1.298863e+01
 2.211856e-01	 1.608392e+00	 1.544131e+01
 1.930699e-01	 1.612009e+00	 1.769483e+01
 1.650646e-01	 1.615117e+00	 1.922207e+01
 1.371819e-01	 1.617723e+00	 1.951537e+01
 2.797106e-01	 1.611195e+00	 1.225085e+01
 2.512066e-01	 1.615884e+00	 1.429488e+01
 2.227884e-01	 1.620047e+00	 1.670693e+01
 1.944689e-01	 1.623690e+00	 1.891385e+01
 1.662607e-01	 1.626820e+00	 2.035998e+01
 1.381759e-01	 1.629446e+00	 2.050877e+01
 2.817229e-01	 1.622786e+00	 1.334068e+01
 2.530139e-01	 1.627509e+00	 1.532424e+01
 2.243912e-01	 1.631702e+00	 1.779029e+01
 1.958680e-01	 1.635371e+00	 2.008353e+01
 1.674568e-01	 1.638524e+00	 2.156549e+01
 1.391700e-01	 1.641169e+00	 2.161660e+01
 1.341996e-01	 1.582555e+00	 1.719617e+01
 1.070544e-01	 1.584623e+00	 1.634303e+01
 8.005140e-02	 1.586217e+00	 1.439838e+01
 5.320132e-02	 1.587344e+00	 1.280083e+01
 2.651427e-02	 1.588014e+00	 1.297396e+01
 0.000000e+00	 1.588235e+00	 1.632127e+01
 1.351937e-01	 1.594278e+00	 1.786170e+01
 1.078474e-01	 1.596361e+00	 1.691023e+01
 8.064437e-02	 1.597966e+00	 1.507180e+01
 5.359540e-02	 1.599102e+00	 1.362834e+01
 2.671068e-02	 1.599777e+00	 1.384843e+01
 0.000000e+00	 1.600000e+00	 1.698289e+01
 1.361878e-01	 1.606001e+00	 1.863387e+01
 1.086404e-01	 1.608099e+00	 1.756610e+01
 8.123735e-02	 1.609716e+00	 1.575148e+01
 5.398948e-02	 1.610860e+00	 1.438375e+01
 2.690708e-02	 1.611540e+00	 1.464424e+01
 0.000000e+00	 1.611765e+00	 1.769787e+01
 1.371819e-01	 1.617723e+00	 1.951537e+01
 1.094334e-01	 1.619837e+00	 1.830300e+01
 8.183032e-02	 1.621466e+00	 1.642764e+01
 5.438357e-02	 1.622618e+00	 1.506177e+01
 2.710348e-02	 1.623303e+00	 1.536575e+01
 0.000000e+00	 1.623529e+00	 1.848379e+01
 1.381759e-01	 1.629446e+00	 2.050877e+01
 1.102263e-01	 1.631575e+00	 1.911351e+01
 8.242329e-02	 1.633216e+00	 1.709078e+01
 5.477765e-02	 1.634376e+00	 1.565730e+01
 2.729988e-02	 1.635066e+00	 1.601718e+01
 0.000000e+00	 1.635294e+00	 1.935774e+01
 1.391700e-01	 1.641169e+00	 2.161660e+01
 1.110193e-01	 1.643313e+00	 1.999044e+01
 8.301627e-02	 1.644965e+00	 1.773170e+01
 5.517174e-02	 1.646135e+00	 1.616535e+01
 2.749628e-02	 1.646829e+00	 1.660261e+01
 0.000000e+00	 1.647059e+00	 2.033630e+01
 1.647059e+00	 0.000000e+00	-3.642745e+01
 1.646829e+00	 2.749628e-02	-2.763202e+01
 1.646135e+00	 5.517174e-02	-2.068584e+01
 1.644965e+00	 8.301627e-02	-1.605464e+01
 1.643313e+00	 1.110193e-01	-1.422937e+01
 1.641169e+00	 1.391700e-01	-1.572630e+01
 1.658824e+00	 0.000000e+00	-3.655589e+01
 1.658592e+00	 2.769269e-02	-2.764829e+01
 1.657893e+00	 5.556582e-02	-2.062343e+01
 1.656715e+00	 8.360924e-02	-1.594939e+01
 1.655051e+00	 1.118123e-01	-1.411611e+01
 1.652891e+00	 1.401641e-01	-1.563535e+01
 1.670588e+00	 0.000000e+00	-3.643463e+01
 1.670355e+00	 2.788909e-02	-2.749695e+01
 1.669651e+00	 5.595990e-02	-2.045273e+01
 1.668465e+00	 8.420221e-02	-1.577237e+01
 1.666789e+00	 1.126053e-01	-1.394430e+01
 1.664614e+00	 1.411581e-01	-1.547469e+01
 1.682353e+00	 0.000000e+00	-3.605505e+01
 1.682118e+00	 2.808549e-02	-2.717785e+01
 1.681409e+00	 5.635399e-02	-2.017910e+01
 1.680215e+00	 8.479519e-02	-1.553151e+01
 1.678527e+00	 1.133983e-01	-1.372144e+01
 1.676337e+00	 1.421522e-01	-1.524842e+01
 1.694118e+00	 0.000000e+00	-3.540876e+01
 1.693882e+00	 2.828189e-02	-2.669086e+01
 1.693167e+00	 5.674807e-02	-1.980779e+01
 1.691964e+00	 8.538816e-02	-1.523455e+01
 1.690265e+00	 1.141913e-01	-1.345488e+01
 1.688059e+00	 1.431463e-01	-1.496063e+01
 1.705882e+00	 0.000000e+00	-3.448761e+01
 1.705645e+00	 2.847829e-02	-2.603584e+01
 1.704925e+00	 5.714215e-02	-1.934394e+01
 1.703714e+00	 8.598113e-02	-1.488908e+01
 1.702003e+00	 1.149843e-01	-1.315187e+01
 1.699782e+00	 1.441403e-01	-1.461537e+01
 1.641169e+00	 1.391700e-01	-1.572630e+01
 1.638524e+00	 1.674568e-01	-1.858467e+01
 1.635371e+00	 1.958680e-01	-2.043100e+01
 1.631702e+00	 2.243912e-01	-2.118355e+01
 1.627509e+00	 2.530139e-01	-2.076436e+01
 1.622786e+00	 2.817229e-01	-1.910084e+01
 1.652891e+00	 1.401641e-01	-1.563535e+01
 1.650228e+00	 1.686529e-01	-1.850223e+01
 1.647052e+00	 1.972670e-01	-2.030222e+01
 1.643357e+00	 2.259940e-01	-2.095238e+01
 1.639134e+00	 2.548211e-01	-2.037574e+01
 1.634378e+00	 2.837352e-01	-1.850284e+01
 1.664614e+00	 1.411581e-01	-1.547469e+01
 1.661932e+00	 1.698491e-01	-1.833136e+01
 1.658734e+00	 1.986661e-01	-2.007588e+01
 1.655012e+00	 2.275968e-01	-2.062353e+01
 1.650760e+00	 2.566284e-01	-1.989811e+01
 1.645969e+00	 2.857475e-01	-1.783362e+01
 1.676337e+00	 1.421522e-01	-1.524842e+01
 1.673635e+00	 1.710452e-01	-1.807245e+01
 1.670415e+00	 2.000651e-01	-1.975102e+01
 1.666667e+00	 2.291996e-01	-2.019707e+01
 1.662385e+00	 2.584356e-01	-1.933503e+01
 1.657560e+00	 2.877598e-01	-1.710261e+01
 1.688059e+00	 1.431463e-01	-1.496063e+01
 1.685339e+00	 1.722413e-01	-1.772597e+01
 1.682096e+00	 2.014642e-01	-1.932685e+01
 1.678322e+00	 2.308024e-01	-1.967326e+01
 1.674010e+00	 2.602428e-01	-1.869011e+01
 1.669152e+00	 2.897721e-01	-1.631915e+01
 1.699782e+00	 1.441403e-01	-1.461537e+01
 1.697043e+00	 1.734374e-01	-1.729253e+01
 1.693777e+00	 2.028633e-01	-1.880271e+01
 1.689977e+00	 2.324052e-01	-1.905247e+01
 1.685635e+00	 2.620501e-01	-1.796705e+01
 1.680743e+00	 2.917844e-01	-1.549250e+01
 1.622786e+00	 2.817229e-01	-1.910084e+01
 1.617526e+00	 3.105047e-01	-1.698212e+01
 1.611722e+00	 3.393456e-01	-1.527094e+01
 1.605369e+00	 3.682313e-01	-1.469110e+01
 1.598461e+00	 3.971472e-01	-1.542472e+01
 1.590993e+00	 4.260784e-01	-1.620327e+01
 1.634378e+00	 2.837352e-01	-1.850284e+01
 1.629080e+00	 3.127226e-01	-1.611439e+01
 1.623234e+00	 3.417695e-01	-1.405420e+01
 1.616836e+00	 3.708615e-01	-1.341606e+01
 1.609878e+00	 3.999839e-01	-1.411774e+01
 1.602358e+00	 4.291218e-01	-1.481558e+01
 1.645969e+00	 2.857475e-01	-1.783362e+01
 1.640633e+00	 3.149405e-01	-1.519741e+01
 1.634746e+00	 3.441934e-01	-1.280990e+01
 1.628302e+00	 3.734917e-01	-1.219488e+01
 1.621296e+00	 4.028207e-01	-1.285657e+01
 1.613722e+00	 4.321652e-01	-1.346982e+01
 1.657560e+00	 2.877598e-01	-1.710261e+01
 1.652187e+00	 3.171584e-01	-1.424660e+01
 1.646259e+00	 3.466173e-01	-1.155733e+01
 1.639769e+00	 3.761219e-01	-1.103622e+01
 1.632714e+00	 4.056575e-01	-1.164846e+01
 1.625086e+00	 4.352086e-01	-1.216964e+01
 1.669152e+00	 2.897721e-01	-1.631915e+01
 1.663741e+00	 3.193763e-01	-1.327717e+01
 1.657771e+00	 3.490412e-01	-1.031547e+01
 1.651236e+00	 3.787522e-01	-9.948354e+00
 1.644131e+00	 4.084942e-01	-1.050035e+01
 1.636450e+00	 4.382520e-01	-1.091846e+01
 1.680743e+00	 2.917844e-01	-1.549250e+01
 1.675295e+00	 3.215942e-01	-1.230411e+01
 1.669283e+00	 3.514651e-01	-9.102983e+00
 1.662703e+00	 3.813824e-01	-8.939248e+00
 1.655549e+00	 4.113310e-01	-9.418859e+00
 1.647815e+00	 4.412955e-01	-9.719487e+00
 1.590993e+00	 4.260784e-01	-1.620327e+01
 1.582962e+00	 4.550097e-01	-1.698767e+01
 1.574363e+00	 4.839255e-01	-1.773677e+01
 1.565193e+00	 5.128102e-01	-1.834769e+01
 1.555449e+00	 5.416475e-01	-1.870846e+01
 1.545129e+00	 5.704211e-01	-1.869779e+01
 1.602358e+00	 4.291218e-01	-1.481558e+01
 1.594269e+00	 4.582598e-01	-1.547741e+01
 1.585608e+00	 4.873822e-01	-1.608176e+01
 1.576373e+00	 5.164731e-01	-1.653951e+01
 1.566559e+00	 5.455164e-01	-1.675258e+01
 1.556165e+00	 5.744956e-01	-1.661359e+01
 1.613722e+00	 4.321652e-01	-1.346982e+01
 1.605576e+00	 4.615098e-01	-1.400908e+01
 1.596854e+00	 4.908388e-01	-1.447125e+01
 1.587553e+00	 5.201360e-01	-1.477985e+01
 1.577669e+00	 5.493853e-01	-1.484980e+01
 1.567202e+00	 5.785700e-01	-1.458706e+01
 1.625086e+00	 4.352086e-01	-1.216964e+01
 1.616883e+00	 4.647599e-01	-1.258234e+01
 1.608099e+00	 4.942954e-01	-1.290238e+01
 1.598733e+00	 5.237989e-01	-1.306479e+01
 1.588780e+00	 5.532542e-01	-1.299669e+01
 1.578239e+00	 5.826445e-01	-1.261683e+01
 1.636450e+00	 4.382520e-01	-1.091846e+01
 1.628190e+00	 4.680100e-01	-1.119673e+01
 1.619345e+00	 4.977520e-01	-1.137220e+01
 1.609913e+00	 5.274619e-01	-1.139039e+01
 1.599890e+00	 5.571231e-01	-1.118980e+01
 1.589275e+00	 5.867189e-01	-1.070140e+01
 1.647815e+00	 4.412955e-01	-9.719487e+00
 1.639496e+00	 4.712600e-01	-9.851645e+00
 1.630590e+00	 5.012086e-01	-9.877725e+00
 1.621093e+00	 5.311248e-01	-9.752682e+00
 1.611000e+00	 5.609920e-01	-9.425589e+00
 1.600312e+00	 5.907933e-01	-8.839156e+00
 1.545129e+00	 5.704211e-01	-1.869779e+01
 1.534231e+00	 5.991147e-01	-1.822516e+01
 1.522754e+00	 6.277115e-01	-1.728579e+01
 1.510699e+00	 6.561946e-01	-1.588046e+01
 1.498065e+00	 6.845470e-01	-1.401044e+01
 1.484853e+00	 7.127518e-01	-1.167696e+01
 1.556165e+00	 5.744956e-01	-1.661359e+01
 1.545190e+00	 6.033941e-01	-1.606266e+01
 1.533631e+00	 6.321951e-01	-1.510412e+01
 1.521490e+00	 6.608817e-01	-1.371944e+01
 1.508765e+00	 6.894367e-01	-1.188922e+01
 1.495459e+00	 7.178429e-01	-9.965572e+00
 1.567202e+00	 5.785700e-01	-1.458706e+01
 1.556148e+00	 6.076735e-01	-1.395972e+01
 1.544508e+00	 6.366788e-01	-1.297960e+01
 1.532280e+00	 6.655688e-01	-1.160992e+01
 1.519466e+00	 6.943263e-01	-9.811544e+00
 1.506065e+00	 7.229340e-01	-8.407116e+00
 1.578239e+00	 5.826445e-01	-1.261683e+01
 1.567107e+00	 6.119529e-01	-1.191732e+01
 1.555385e+00	 6.411624e-01	-1.091466e+01
 1.543071e+00	 6.702559e-01	-9.554836e+00
 1.530166e+00	 6.992159e-01	-7.779891e+00
 1.516671e+00	 7.280250e-01	-6.836722e+00
 1.589275e+00	 5.867189e-01	-1.070140e+01
 1.578066e+00	 6.162323e-01	-9.936278e+00
 1.566262e+00	 6.456461e-01	-8.911486e+00
 1.553862e+00	 6.749430e-01	-7.556872e+00
 1.540867e+00	 7.041055e-01	-5.796477e+00
 1.527277e+00	 7.331161e-01	-5.257682e+00
 1.600312e+00	 5.907933e-01	-8.839156e+00
 1.589025e+00	 6.205117e-01	-8.017199e+00
 1.577139e+00	 6.501297e-01	-6.972055e+00
 1.564653e+00	 6.796301e-01	-5.618452e+00
 1.551567e+00	 7.089951e-01	-3.863278e+00
 1.537883e+00	 7.382072e-01	-3.673083e+00
 1.484853e+00	 7.127518e-01	-1.167696e+01
 1.471064e+00	 7.407917e-01	-1.191045e+01
 1.456702e+00	 7.686495e-01	-1.191105e+01
 1.441768e+00	 7.963081e-01	-1.122501e+01
 1.426267e+00	 8.237503e-01	-9.701797e+00
 1.410203e+00	 8.509590e-01	-8.043965e+00
 1.495459e+00	 7.178429e-01	-9.965572e+00
 1.481572e+00	 7.460830e-01	-1.026213e+01
 1.467107e+00	 7.741399e-01	-1.009231e+01
 1.452067e+00	 8.019960e-01	-9.217552e+00
 1.436455e+00	 8.296342e-01	-7.383456e+00
 1.420276e+00	 8.570373e-01	-4.909238e+00
 1.506065e+00	 7.229340e-01	-8.407116e+00
 1.492080e+00	 7.513744e-01	-8.597346e+00
 1.477512e+00	 7.796302e-01	-8.269721e+00
 1.462365e+00	 8.076839e-01	-7.229225e+00
 1.446642e+00	 8.355182e-01	-5.267932e+00
 1.430348e+00	 8.631155e-01	-2.165664e+00
 1.516671e+00	 7.280250e-01	-6.836722e+00
 1.502587e+00	 7.566658e-01	-6.917101e+00
 1.487917e+00	 7.851206e-01	-6.440619e+00
 1.472663e+00	 8.133719e-01	-5.252568e+00
 1.456830e+00	 8.414021e-01	-3.188018e+00
 1.440421e+00	 8.691938e-01	-7.229269e-02
 1.527277e+00	 7.331161e-01	-5.257682e+00
 1.513095e+00	 7.619571e-01	-5.222262e+00
 1.498322e+00	 7.906109e-01	-4.602291e+00
 1.482962e+00	 8.190598e-01	-3.280203e+00
 1.467018e+00	 8.472860e-01	-1.130643e+00
 1.450494e+00	 8.752721e-01	 1.979217e+00
 1.537883e+00	 7.382072e-01	-3.673083e+00
 1.523602e+00	 7.672485e-01	-3.513552e+00
 1.508727e+00	 7.961013e-01	-2.751981e+00
 1.493260e+00	 8.247477e-01	-1.304834e+00
 1.477205e+00	 8.531700e-01	 9.170235e-01
 1.460567e+00	 8.813504e-01	 4.008166e+00
 1.410203e+00	 8.509590e-01	-8.043965e+00
 1.393580e+00	 8.779171e-01	-5.383574e+00
 1.376404e+00	 9.046078e-01	-1.912169e+00
 1.358681e+00	 9.310143e-01	 2.095035e+00
 1.340419e+00	 9.571200e-01	 6.337103e+00
 1.321625e+00	 9.829087e-01	 1.048872e+01
 1.420276e+00	 8.570373e-01	-4.909238e+00
 1.403534e+00	 8.841879e-01	-2.069131e+00
 1.386235e+00	 9.110693e-01	 1.371511e+00
 1.368386e+00	 9.376644e-01	 5.223313e+00
 1.349994e+00	 9.639566e-01	 9.278583e+00
 1.331065e+00	 9.899295e-01	 1.331225e+01
 1.430348e+00	 8.631155e-01	-2.165664e+00
 1.413488e+00	 8.904588e-01	 9.545864e-01
 1.396067e+00	 9.175308e-01	 4.392865e+00
 1.378091e+00	 9.443145e-01	 8.145645e+00
 1.359568e+00	 9.707932e-01	 1.208911e+01
 1.340506e+00	 9.969502e-01	 1.608806e+01
 1.440421e+00	 8.691938e-01	-7.229269e-02
 1.423442e+00	 8.967296e-01	 3.712134e+00
 1.405898e+00	 9.239922e-01	 7.176208e+00
 1.387796e+00	 9.509646e-01	 1.088127e+01
 1.369143e+00	 9.776297e-01	 1.477821e+01
 1.349946e+00	 1.003971e+00	 1.881148e+01
 1.450494e+00	 8.752721e-01	 1.979217e+00
 1.433396e+00	 9.030005e-01	 5.956378e+00
 1.415730e+00	 9.304537e-01	 9.745298e+00
 1.397501e+00	 9.576147e-01	 1.344902e+01
 1.378717e+00	 9.844663e-01	 1.735522e+01
 1.359386e+00	 1.010992e+00	 2.147807e+01
 1.460567e+00	 8.813504e-01	 4.008166e+00
 1.443350e+00	 9.092713e-01	 7.840400e+00
 1.425561e+00	 9.369152e-01	 1.212335e+01
 1.407206e+00	 9.642648e-01	 1.586730e+01
 1.388291e+00	 9.913029e-01	 1.982938e+01
 1.368826e+00	 1.018013e+00	 2.408364e+01
 1.321625e+00	 9.829087e-01	 1.048872e+01
 1.302307e+00	 1.008364e+00	 1.468441e+01
 1.282475e+00	 1.033471e+00	 1.954328e+01
 1.262136e+00	 1.058213e+00	 2.547473e+01
 1.241303e+00	 1.082575e+00	 2.787476e+01
 1.219985e+00	 1.106544e+00	 2.569388e+01
 1.331065e+00	 9.899295e-01	 1.331225e+01
 1.311610e+00	 1.015567e+00	 1.764464e+01
 1.291635e+00	 1.040853e+00	 2.295175e+01
 1.271152e+00	 1.065772e+00	 2.954807e+01
 1.250169e+00	 1.090308e+00	 2.939455e+01
 1.228699e+00	 1.114448e+00	 2.792662e+01
 1.340506e+00	 9.969502e-01	 1.608806e+01
 1.320912e+00	 1.022769e+00	 2.060939e+01
 1.300796e+00	 1.048235e+00	 2.636070e+01
 1.280167e+00	 1.073330e+00	 3.279243e+01
 1.259036e+00	 1.098041e+00	 3.092743e+01
 1.237414e+00	 1.122351e+00	 3.006755e+01
 1.349946e+00	 1.003971e+00	 1.881148e+01
 1.330214e+00	 1.029972e+00	 2.356122e+01
 1.309956e+00	 1.055617e+00	 2.974702e+01
 1.289182e+00	 1.080889e+00	 3.374141e+01
 1.267902e+00	 1.105773e+00	 3.246460e+01
 1.246128e+00	 1.130255e+00	 3.212185e+01
 1.359386e+00	 1.010992e+00	 2.147807e+01
 1.339516e+00	 1.037175e+00	 2.648332e+01
 1.319117e+00	 1.062998e+00	 3.308837e+01
 1.298197e+00	 1.088447e+00	 3.475618e+01
 1.276769e+00	 1.113506e+00	 3.399778e+01
 1.254842e+00	 1.138159e+00	 3.409481e+01
 1.368826e+00	 1.018013e+00	 2.408364e+01
 1.348818e+00	 1.044377e+00	 2.935944e+01
 1.328277e+00	 1.070380e+00	 3.636314e+01
 1.307213e+00	 1.096006e+00	 3.582170e+01
 1.285635e+00	 1.121239e+00	 3.551916e+01
 1.263556e+00	 1.146063e+00	 3.599182e+01
 1.219985e+00	 1.106544e+00	 2.569388e+01
 1.198194e+00	 1.130103e+00	 2.482986e+01
 1.175942e+00	 1.153241e+00	 2.492079e+01
 1.153241e+00	 1.175942e+00	 2.568045e+01
 1.130103e+00	 1.198194e+00	 2.679438e+01
 1.106544e+00	 1.219985e+00	 2.792126e+01
 1.228699e+00	 1.114448e+00	 2.792662e+01
 1.206753e+00	 1.138176e+00	 2.752890e+01
 1.184341e+00	 1.161478e+00	 2.776153e+01
 1.161478e+00	 1.184341e+00	 2.842753e+01
 1.138176e+00	 1.206753e+00	 2.931049e+01
 1.114448e+00	 1.228699e+00	 3.017534e+01
 1.237414e+00	 1.122351e+00	 3.006755e+01
 1.215311e+00	 1.146248e+00	 3.005635e+01
 1.192741e+00	 1.169715e+00	 3.040379e+01
 1.169715e+00	 1.192741e+00	 3.098993e+01
 1.146248e+00	 1.215311e+00	 3.168270e+01
 1.122351e+00	 1.237414e+00	 3.233816e+01
 1.246128e+00	 1.130255e+00	 3.212185e+01
 1.223870e+00	 1.154320e+00	 3.243059e+01
 1.201141e+00	 1.177953e+00	 3.287164e+01
 1.177953e+00	 1.201141e+00	 3.339021e+01
 1.154320e+00	 1.223870e+00	 3.392514e+01
 1.130255e+00	 1.246128e+00	 3.440879e+01
 1.254842e+00	 1.138159e+00	 3.409481e+01
 1.232428e+00	 1.162392e+00	 3.466972e+01
 1.209540e+00	 1.186190e+00	 3.518875e+01
 1.186190e+00	 1.209540e+00	 3.565057e+01
 1.162392e+00	 1.232428e+00	 3.605179e+01
 1.138159e+00	 1.254842e+00	 3.638654e+01
 1.263556e+00	 1.146063e+00	 3.599182e+01
 1.240987e+00	 1.170464e+00	 3.679161e+01
 1.217940e+00	 1.194428e+00	 3.737838e+01
 1.194428e+00	 1.217940e+00	 3.779282e+01
 1.170464e+00	 1.240987e+00	 3.807646e+01
 1.146063e+00	 1.263556e+00	 3.827097e+01
 1.106544e+00	 1.219985e+00	 2.792126e+01
 1.082575e+00	 1.241303e+00	 2.877242e+01
 1.058213e+00	 1.262136e+00	 2.821983e+01
 1.033471e+00	 1.282475e+00	 2.651019e+01
 1.008364e+00	 1.302307e+00	 2.524802e+01
 9.829087e-01	 1.321625e+00	 2.497185e+01
 1.114448e+00	 1.228699e+00	 3.017534e+01
 1.090308e+00	 1.250169e+00	 3.092297e+01
 1.065772e+00	 1.271152e+00	 3.131862e+01
 1.040853e+00	 1.291635e+00	 2.995433e+01
 1.015567e+00	 1.311610e+00	 2.901652e+01
 9.899295e-01	 1.331065e+00	 2.891280e+01
 1.122351e+00	 1.237414e+00	 3.233816e+01
 1.098041e+00	 1.259036e+00	 3.299800e+01
 1.073330e+00	 1.280167e+00	 3.406011e+01
 1.048235e+00	 1.300796e+00	 3.317079e+01
 1.022769e+00	 1.320912e+00	 3.248310e+01
 9.969502e-01	 1.340506e+00	 3.250202e+01
 1.130255e+00	 1.246128e+00	 3.440879e+01
 1.105773e+00	 1.267902e+00	 3.498393e+01
 1.080889e+00	 1.289182e+00	 3.606004e+01
 1.055617e+00	 1.309956e+00	 3.614705e+01
 1.029972e+00	 1.330214e+00	 3.565378e+01
 1.003971e+00	 1.349946e+00	 3.577330e+01
 1.138159e+00	 1.254842e+00	 3.638654e+01
 1.113506e+00	 1.276769e+00	 3.686778e+01
 1.088447e+00	 1.298197e+00	 3.791130e+01
 1.062998e+00	 1.319117e+00	 3.887096e+01
 1.037175e+00	 1.339516e+00	 3.853445e+01
 1.010992e+00	 1.359386e+00	 3.875951e+01
 1.146063e+00	 1.263556e+00	 3.827097e+01
 1.121239e+00	 1.285635e+00	 3.863715e+01
 1.096006e+00	 1.307213e+00	 3.959984e+01
 1.070380e+00	 1.328277e+00	 4.133077e+01
 1.044377e+00	 1.348818e+00	 4.113088e+01
 1.018013e+00	 1.368826e+00	 4.149267e+01
 9.829087e-01	 1.321625e+00	 2.497185e+01
 9.571200e-01	 1.340419e+00	 2.583592e+01
 9.310143e-01	 1.358681e+00	 2.744518e+01
 9.046078e-01	 1.376404e+00	 2.951129e+01
 8.779171e-01	 1.393580e+00	 3.172816e+01
 8.509590e-01	 1.410203e+00	 3.377357e+01
 9.899295e-01	 1.331065e+00	 2.891280e+01
 9.639566e-01	 1.349994e+00	 2.965805e+01
 9.376644e-01	 1.368386e+00	 3.094763e+01
 9.110693e-01	 1.386235e+00	 3.271086e+01
 8.841879e-01	 1.403534e+00	 3.487194e+01
 8.570373e-01	 1.420276e+00	 3.735020e+01
 9.969502e-01	 1.340506e+00	 3.250202e+01
 9.707932e-01	 1.359568e+00	 3.317281e+01
 9.443145e-01	 1.378091e+00	 3.429664e+01
 9.175308e-01	 1.396067e+00	 3.596715e+01
 8.904588e-01	 1.413488e+00	 3.828230e+01
 8.631155e-01	 1.430348e+00	 4.057177e+01
 1.003971e+00	 1.349946e+00	 3.577330e+01
 9.776297e-01	 1.369143e+00	 3.643641e+01
 9.509646e-01	 1.387796e+00	 3.755209e+01
 9.239922e-01	 1.405898e+00	 3.932616e+01
 8.967296e-01	 1.423442e+00	 4.197493e+01
 8.691938e-01	 1.440421e+00	 4.068586e+01
 1.010992e+00	 1.359386e+00	 3.875951e+01
 9.844663e-01	 1.378717e+00	 3.950352e+01
 9.576147e-01	 1.397501e+00	 4.077224e+01
 9.304537e-01	 1.415730e+00	 4.283263e+01
 9.030005e-01	 1.433396e+00	 4.423683e+01
 8.752721e-01	 1.450494e+00	 4.134462e+01
 1.018013e+00	 1.368826e+00	 4.149267e+01
 9.913029e-01	 1.388291e+00	 4.242736e+01
 9.642648e-01	 1.407206e+00	 4.401377e+01
 9.369152e-01	 1.425561e+00	 4.653009e+01
 9.092713e-01	 1.443350e+00	 4.512204e+01
 8.813504e-01	 1.460567e+00	 4.252393e+01
 8.509590e-01	 1.410203e+00	 3.377357e+01
 8.237503e-01	 1.426267e+00	 3.592924e+01
 7.963081e-01	 1.441768e+00	 3.171449e+01
 7.686495e-01	 1.456702e+00	 2.669488e+01
 7.407917e-01	 1.471064e+00	 2.282431e+01
 7.127518e-01	 1.484853e+00	 2.084649e+01
 8.570373e-01	 1.420276e+00	 3.735020e+01
 8.296342e-01	 1.436455e+00	 3.669523e+01
 8.019960e-01	 1.452067e+00	 3.245282e+01
 7.741399e-01	 1.467107e+00	 2.876448e+01
 7.460830e-01	 1.481572e+00	 2.609095e+01
 7.178429e-01	 1.495459e+00	 2.488645e+01
 8.631155e-01	 1.430348e+00	 4.057177e+01
 8.355182e-01	 1.446642e+00	 3.686080e+01
 8.076839e-01	 1.462365e+00	 3.355201e+01
 7.796302e-01	 1.477512e+00	 3.087779e+01
 7.513744e-01	 1.492080e+00	 2.905626e+01
 7.229340e-01	 1.506065e+00	 2.828996e+01
 8.691938e-01	 1.440421e+00	 4.068586e+01
 8.414021e-01	 1.456830e+00	 3.753102e+01
 8.133719e-01	 1.472663e+00	 3.493181e+01
 7.851206e-01	 1.487917e+00	 3.296295e+01
 7.566658e-01	 1.502587e+00	 3.167825e+01
 7.280250e-01	 1.516671e+00	 3.111022e+01
 8.752721e-01	 1.450494e+00	 4.134462e+01
 8.472860e-01	 1.467018e+00	 3.864239e+01
 8.190598e-01	 1.482962e+00	 3.651430e+01
 7.906109e-01	 1.498322e+00	 3.495023e+01
 7.619571e-01	 1.513095e+00	 3.391623e+01
 7.331161e-01	 1.527277e+00	 3.335475e+01
 8.813504e-01	 1.460567e+00	 4.252393e+01
 8.531700e-01	 1.477205e+00	 4.013327e+01
 8.247477e-01	 1.493260e+00	 3.822384e+01
 7.961013e-01	 1.508727e+00	 3.677190e+01
 7.672485e-01	 1.523602e+00	 3.573074e+01
 7.382072e-01	 1.537883e+00	 3.503097e+01
 7.127518e-01	 1.484853e+00	 2.084649e+01
 6.845470e-01	 1.498065e+00	 1.979458e+01
 6.561946e-01	 1.510699e+00	 1.944979e+01
 6.277115e-01	 1.522754e+00	 1.935749e+01
 5.991147e-01	 1.534231e+00	 1.904351e+01
 5.704211e-01	 1.545129e+00	 1.801748e+01
 7.178429e-01	 1.495459e+00	 2.488645e+01
 6.894367e-01	 1.508765e+00	 2.387285e+01
 6.608817e-01	 1.521490e+00	 2.281464e+01
 6.321951e-01	 1.533631e+00	 2.168207e+01
 6.033941e-01	 1.545190e+00	 2.032019e+01
 5.744956e-01	 1.556165e+00	 1.856699e+01
 7.229340e-01	 1.506065e+00	 2.828996e+01
 6.943263e-01	 1.519466e+00	 2.729032e+01
 6.655688e-01	 1.532280e+00	 2.562342e+01
 6.366788e-01	 1.544508e+00	 2.368303e+01
 6.076735e-01	 1.556148e+00	 2.155348e+01
 5.785700e-01	 1.567202e+00	 1.931843e+01
 7.280250e-01	 1.516671e+00	 3.111022e+01
 6.992159e-01	 1.530166e+00	 3.009669e+01
 6.702559e-01	 1.543071e+00	 2.794856e+01
 6.411624e-01	 1.555385e+00	 2.543336e+01
 6.119529e-01	 1.567107e+00	 2.279658e+01
 5.826445e-01	 1.578239e+00	 2.028663e+01
 7.331161e-01	 1.527277e+00	 3.335475e+01
 7.041055e-01	 1.540867e+00	 3.234027e+01
 6.749430e-01	 1.553862e+00	 2.986045e+01
 6.456461e-01	 1.566262e+00	 2.700404e+01
 6.162323e-01	 1.578066e+00	 2.410120e+01
 5.867189e-01	 1.589275e+00	 2.148594e+01
 7.382072e-01	 1.537883e+00	 3.503097e+01
 7.089951e-01	 1.551567e+00	 3.406799e+01
 6.796301e-01	 1.564653e+00	 3.142750e+01
 6.501297e-01	 1.577139e+00	 2.846402e+01
 6.205117e-01	 1.589025e+00	 2.551761e+01
 5.907933e-01	 1.600312e+00	 2.293032e+01
 5.704211e-01	 1.545129e+00	 1.801748e+01
 5.416475e-01	 1.555449e+00	 1.627613e+01
 5.128102e-01	 1.565193e+00	 1.433622e+01
 4.839255e-01	 1.574363e+00	 1.247448e+01
 4.550097e-01	 1.582962e+00	 1.096284e+01
 4.260784e-01	 1.590993e+00	 1.006703e+01
 5.744956e-01	 1.556165e+00	 1.856699e+01
 5.455164e-01	 1.566559e+00	 1.668768e+01
 5.164731e-01	 1.576373e+00	 1.509696e+01
 4.873822e-01	 1.585608e+00	 1.384411e+01
 4.582598e-01	 1.594269e+00	 1.296726e+01
 4.291218e-01	 1.602358e+00	 1.249337e+01
 5.785700e-01	 1.567202e+00	 1.931843e+01
 5.493853e-01	 1.577669e+00	 1.739950e+01
 5.201360e-01	 1.587553e+00	 1.609371e+01
 4.908388e-01	 1.596854e+00	 1.528502e+01
 4.615098e-01	 1.605576e+00	 1.484187e+01
 4.321652e-01	 1.613722e+00	 1.461825e+01
 5.826445e-01	 1.578239e+00	 2.028663e+01
 5.532542e-01	 1.588780e+00	 1.838867e+01
 5.237989e-01	 1.598733e+00	 1.728367e+01
 4.942954e-01	 1.608099e+00	 1.675092e+01
 4.647599e-01	 1.616883e+00	 1.655193e+01
 4.352086e-01	 1.625086e+00	 1.643208e+01
 5.867189e-01	 1.589275e+00	 2.148594e+01
 5.571231e-01	 1.599890e+00	 1.963286e+01
 5.274619e-01	 1.609913e+00	 1.862514e+01
 4.977520e-01	 1.619345e+00	 1.819676e+01
 4.680100e-01	 1.628190e+00	 1.806364e+01
 4.382520e-01	 1.636450e+00	 1.792555e+01
 5.907933e-01	 1.600312e+00	 2.293032e+01
 5.609920e-01	 1.611000e+00	 2.111034e+01
 5.311248e-01	 1.621093e+00	 2.007757e+01
 5.012086e-01	 1.630590e+00	 1.957872e+01
 4.712600e-01	 1.639496e+00	 1.934410e+01
 4.412955e-01	 1.647815e+00	 1.908954e+01
 4.260784e-01	 1.590993e+00	 1.006703e+01
 3.971472e-01	 1.598461e+00	 9.438361e+00
 3.682313e-01	 1.605369e+00	 8.626379e+00
 3.393456e-01	 1.611722e+00	 9.682694e+00
 3.105047e-01	 1.617526e+00	 1.167129e+01
 2.817229e-01	 1.622786e+00	 1.334068e+01
 4.291218e-01	 1.602358e+00	 1.249337e+01
 3.999839e-01	 1.609878e+00	 1.191172e+01
 3.708615e-01	 1.616836e+00	 1.087266e+01
 3.417695e-01	 1.623234e+00	 1.128623e+01
 3.127226e-01	 1.629080e+00	 1.289882e+01
 2.837352e-01	 1.634378e+00	 1.432935e+01
 4.321652e-01	 1.613722e+00	 1.461825e+01
 4.028207e-01	 1.621296e+00	 1.402234e+01
 3.734917e-01	 1.628302e+00	 1.281094e+01
 3.441934e-01	 1.634746e+00	 1.271539e+01
 3.149405e-01	 1.640633e+00	 1.409979e+01
 2.857475e-01	 1.645969e+00	 1.540985e+01
 4.352086e-01	 1.625086e+00	 1.643208e+01
 4.056575e-01	 1.632714e+00	 1.578585e+01
 3.761219e-01	 1.639769e+00	 1.447023e+01
 3.466173e-01	 1.646259e+00	 1.400178e+01
 3.171584e-01	 1.652187e+00	 1.529872e+01
 2.877598e-01	 1.657560e+00	 1.659087e+01
 4.382520e-01	 1.636450e+00	 1.792555e+01
 4.084942e-01	 1.644131e+00	 1.721743e+01
 3.787522e-01	 1.651236e+00	 1.587869e+01
 3.490412e-01	 1.657771e+00	 1.517607e+01
 3.193763e-01	 1.663741e+00	 1.651938e+01
 2.897721e-01	 1.669152e+00	 1.788085e+01
 4.412955e-01	 1.647815e+00	 1.908954e+01
 4.113310e-01	 1.655549e+00	 1.833182e+01
 3.813824e-01	 1.662703e+00	 1.706370e+01
 3.514651e-01	 1.669283e+00	 1.626809e+01
 3.215942e-01	 1.675295e+00	 1.778490e+01
 2.917844e-01	 1.680743e+00	 1.928798e+01
 2.817229e-01	 1.622786e+00	 1.334068e+01
 2.530139e-01	 1.627509e+00	 1.532424e+01
 2.243912e-01	 1.631702e+00	 1.779029e+01
 1.958680e-01	 1.635371e+00	 2.008353e+01
 1.674568e-01	 1.638524e+00	 2.156549e+01
 1.391700e-01	 1.641169e+00	 2.161660e+01
 2.837352e-01	 1.634378e+00	 1.432935e+01
 2.548211e-01	 1.639134e+00	 1.628349e+01
 2.259940e-01	 1.643357e+00	 1.883595e+01
 1.972670e-01	 1.647052e+00	 2.124181e+01
 1.686529e-01	 1.650228e+00	 2.277238e+01
 1.401641e-01	 1.652891e+00	 2.271776e+01
 2.857475e-01	 1.645969e+00	 1.540985e+01
 2.566284e-01	 1.650760e+00	 1.737048e+01
 2.275968e-01	 1.655012e+00	 1.996747e+01
 1.986661e-01	 1.658734e+00	 2.240398e+01
 1.698491e-01	 1.661932e+00	 2.389920e+01
 1.411581e-01	 1.664614e+00	 2.369113e+01
 2.877598e-01	 1.657560e+00	 1.659087e+01
 2.584356e-01	 1.662385e+00	 1.857837e+01
 2.291996e-01	 1.666667e+00	 2.117045e+01
 2.000651e-01	 1.670415e+00	 2.355522e+01
 1.710452e-01	 1.673635e+00	 2.493695e+01
 1.421522e-01	 1.676337e+00	 2.453900e+01
 2.897721e-01	 1.669152e+00	 1.788085e+01
 2.602428e-01	 1.674010e+00	 1.990053e+01
 2.308024e-01	 1.678322e+00	 2.243088e+01
 2.014642e-01	 1.682096e+00	 2.468107e+01
 1.722413e-01	 1.685339e+00	 2.587689e+01
 1.431463e-01	 1.688059e+00	 2.526362e+01
 2.917844e-01	 1.680743e+00	 1.928798e+01
 2.620501e-01	 1.685635e+00	 2.133044e+01
 2.324052e-01	 1.689977e+00	 2.373512e+01
 2.028633e-01	 1.693777e+00	 2.576747e+01
 1.734374e-01	 1.697043e+00	 2.671049e+01
 1.441403e-01	 1.699782e+00	 2.586717e+01
 1.391700e-01	 1.641169e+00	 2.161660e+01
 1.110193e-01	 1.643313e+00	 1.999044e+01
 8.301627e-02	 1.644965e+00	 1.773170e+01
 5.517174e-02	 1.646135e+00	 1.616535e+01
 2.749628e-02	 1.646829e+00	 1.660261e+01
 0.000000e+00	 1.647059e+00	 2.033630e+01
 1.401641e-01	 1.652891e+00	 2.271776e+01
 1.118123e-01	 1.655051e+00	 2.084100e+01
 8.360924e-02	 1.656715e+00	 1.833305e+01
 5.556582e-02	 1.657893e+00	 1.663326e+01
 2.769269e-02	 1.658592e+00	 1.716590e+01
 0.000000e+00	 1.658824e+00	 2.133491e+01
 1.411581e-01	 1.664614e+00	 2.369113e+01
 1.126053e-01	 1.666789e+00	 2.158515e+01
 8.420221e-02	 1.668465e+00	 1.889251e+01
 5.595990e-02	 1.669651e+00	 1.711695e+01
 2.788909e-02	 1.670355e+00	 1.774594e+01
 0.000000e+00	 1.670588e+00	 2.224513e+01
 1.421522e-01	 1.676337e+00	 2.453900e+01
 1.133983e-01	 1.678527e+00	 2.223461e+01
 8.479519e-02	 1.680215e+00	 1.942328e+01
 5.635399e-02	 1.681409e+00	 1.762424e+01
 2.808549e-02	 1.682118e+00	 1.833939e+01
 0.000000e+00	 1.682353e+00	 2.304780e+01
 1.431463e-01	 1.688059e+00	 2.526362e+01
 1.141913e-01	 1.690265e+00	 2.280077e+01
 8.538816e-02	 1.691964e+00	 1.993819e+01
 5.674807e-02	 1.693167e+00	 1.816271e+01
 2.828189e-02	 1.693882e+00	 1.894303e+01
 0.000000e+00	 1.694118e+00	 2.372427e+01
 1.441403e-01	 1.699782e+00	 2.586717e+01
 1.149843e-01	 1.702003e+00	 2.329472e+01
 8.598113e-02	 1.703714e+00	 2.044971e+01
 5.714215e-02	 1.704925e+00	 1.873976e+01
 2.847829e-02	 1.705645e+00	 1.955369e+01
 0.000000e+00	 1.705882e+00	 2.425643e+01
 1.705882e+00	 0.000000e+00	-3.448761e+01
 1.705645e+00	 2.847829e-02	-2.603584e+01
 1.704925e+00	 5.714215e-02	-1.934394e+01
 1.703714e+00	 8.598113e-02	-1.488908e+01
 1.702003e+00	 1.149843e-01	-1.315187e+01
 1.699782e+00	 1.441403e-01	-1.461537e+01
 1.717647e+00	 0.000000e+00	-3.330135e+01
 1.717408e+00	 2.867470e-02	-2.521039e+01
 1.716683e+00	 5.753624e-02	-1.878292e+01
 1.715464e+00	 8.657411e-02	-1.449356e+01
 1.713741e+00	 1.157773e-01	-1.281514e+01
 1.711504e+00	 1.451344e-01	-1.421749e+01
 1.729412e+00	 0.000000e+00	-3.186890e+01
 1.729171e+00	 2.887110e-02	-2.420938e+01
 1.728441e+00	 5.793032e-02	-1.811124e+01
 1.727214e+00	 8.716708e-02	-1.403731e+01
 1.725479e+00	 1.165703e-01	-1.244414e+01
 1.723227e+00	 1.461285e-01	-1.378064e+01
 1.741176e+00	 0.000000e+00	-3.019590e+01
 1.740934e+00	 2.906750e-02	-2.302871e+01
 1.740199e+00	 5.832441e-02	-1.732085e+01
 1.738963e+00	 8.776005e-02	-1.351432e+01
 1.737217e+00	 1.173633e-01	-1.204111e+01
 1.734950e+00	 1.471226e-01	-1.332168e+01
 1.752941e+00	 0.000000e+00	-2.828785e+01
 1.752697e+00	 2.926390e-02	-2.166439e+01
 1.751957e+00	 5.871849e-02	-1.640392e+01
 1.750713e+00	 8.835303e-02	-1.291879e+01
 1.748955e+00	 1.181563e-01	-1.160828e+01
 1.746672e+00	 1.481166e-01	-1.285716e+01
 1.764706e+00	 0.000000e+00	-2.615008e+01
 1.764460e+00	 2.946030e-02	-2.011259e+01
 1.763716e+00	 5.911257e-02	-1.535290e+01
 1.762463e+00	 8.894600e-02	-1.224512e+01
 1.760692e+00	 1.189493e-01	-1.114792e+01
 1.758395e+00	 1.491107e-01	-1.240324e+01
 1.699782e+00	 1.441403e-01	-1.461537e+01
 1.697043e+00	 1.734374e-01	-1.729253e+01
 1.693777e+00	 2.028633e-01	-1.880271e+01
 1.689977e+00	 2.324052e-01	-1.905247e+01
 1.685635e+00	 2.620501e-01	-1.796705e+01
 1.680743e+00	 2.917844e-01	-1.549250e+01
 1.711504e+00	 1.451344e-01	-1.421749e+01
 1.708746e+00	 1.746335e-01	-1.677593e+01
 1.705458e+00	 2.042623e-01	-1.818059e+01
 1.701632e+00	 2.340080e-01	-1.833570e+01
 1.697260e+00	 2.638573e-01	-1.716748e+01
 1.692334e+00	 2.937967e-01	-1.462650e+01
 1.723227e+00	 1.461285e-01	-1.378064e+01
 1.720450e+00	 1.758297e-01	-1.620065e+01
 1.717140e+00	 2.056614e-01	-1.748844e+01
 1.713287e+00	 2.356108e-01	-1.754855e+01
 1.708885e+00	 2.656646e-01	-1.630958e+01
 1.703925e+00	 2.958090e-01	-1.372662e+01
 1.734950e+00	 1.471226e-01	-1.332168e+01
 1.732154e+00	 1.770258e-01	-1.559779e+01
 1.728821e+00	 2.070604e-01	-1.676401e+01
 1.724942e+00	 2.372136e-01	-1.672780e+01
 1.720510e+00	 2.674718e-01	-1.542144e+01
 1.715517e+00	 2.978213e-01	-1.280449e+01
 1.746672e+00	 1.481166e-01	-1.285716e+01
 1.743858e+00	 1.782219e-01	-1.499769e+01
 1.740502e+00	 2.084595e-01	-1.604413e+01
 1.736597e+00	 2.388164e-01	-1.590935e+01
 1.732135e+00	 2.692790e-01	-1.453052e+01
 1.727108e+00	 2.998336e-01	-1.187157e+01
 1.758395e+00	 1.491107e-01	-1.240324e+01
 1.755561e+00	 1.794180e-01	-1.443001e+01
 1.752183e+00	 2.098585e-01	-1.536482e+01
 1.748252e+00	 2.404192e-01	-1.512832e+01
 1.743760e+00	 2.710863e-01	-1.366374e+01
 1.738699e+00	 3.018459e-01	-1.093922e+01
 1.680743e+00	 2.917844e-01	-1.549250e+01
 1.675295e+00	 3.215942e-01	-1.230411e+01
 1.669283e+00	 3.514651e-01	-9.102983e+00
 1.662703e+00	 3.813824e-01	-8.939248e+00
 1.655549e+00	 4.113310e-01	-9.418859e+00
 1.647815e+00	 4.412955e-01	-9.719487e+00
 1.692334e+00	 2.937967e-01	-1.462650e+01
 1.686848e+00	 3.238121e-01	-1.133351e+01
 1.680796e+00	 3.538890e-01	-7.926795e+00
 1.674170e+00	 3.840126e-01	-8.002636e+00
 1.666966e+00	 4.141678e-01	-8.394892e+00
 1.659179e+00	 4.443389e-01	-8.561239e+00
 1.703925e+00	 2.958090e-01	-1.372662e+01
 1.698402e+00	 3.260300e-01	-1.035804e+01
 1.692308e+00	 3.563129e-01	-6.771664e+00
 1.685637e+00	 3.866428e-01	-7.107716e+00
 1.678384e+00	 4.170045e-01	-7.398855e+00
 1.670543e+00	 4.473823e-01	-7.422176e+00
 1.715517e+00	 2.978213e-01	-1.280449e+01
 1.709956e+00	 3.282478e-01	-9.372612e+00
 1.703820e+00	 3.587368e-01	-5.850325e+00
 1.697104e+00	 3.892731e-01	-6.225898e+00
 1.689801e+00	 4.198413e-01	-6.406810e+00
 1.681907e+00	 4.504257e-01	-6.290406e+00
 1.727108e+00	 2.998336e-01	-1.187157e+01
 1.721510e+00	 3.304657e-01	-8.372487e+00
 1.715333e+00	 3.611607e-01	-5.049812e+00
 1.708571e+00	 3.919033e-01	-5.329251e+00
 1.701219e+00	 4.226781e-01	-5.395348e+00
 1.693272e+00	 4.534691e-01	-5.154235e+00
 1.738699e+00	 3.018459e-01	-1.093922e+01
 1.733063e+00	 3.326836e-01	-7.353236e+00
 1.726845e+00	 3.635846e-01	-4.230505e+00
 1.720038e+00	 3.945335e-01	-4.390483e+00
 1.712637e+00	 4.255148e-01	-4.341570e+00
 1.704636e+00	 4.565125e-01	-4.002157e+00
 1.647815e+00	 4.412955e-01	-9.719487e+00
 1.639496e+00	 4.712600e-01	-9.851645e+00
 1.630590e+00	 5.012086e-01	-9.877725e+00
 1.621093e+00	 5.311248e-01	-9.752682e+00
 1.611000e+00	 5.609920e-01	-9.425589e+00
 1.600312e+00	 5.907933e-01	-8.839156e+00
 1.659179e+00	 4.443389e-01	-8.561239e+00
 1.650803e+00	 4.745101e-01	-8.536006e+00
 1.641836e+00	 5.046652e-01	-8.411611e+00
 1.632272e+00	 5.347877e-01	-8.150567e+00
 1.622111e+00	 5.648609e-01	-7.710284e+00
 1.611348e+00	 5.948678e-01	-7.042569e+00
 1.670543e+00	 4.473823e-01	-7.422176e+00
 1.662110e+00	 4.777602e-01	-7.240221e+00
 1.653081e+00	 5.081218e-01	-6.975409e+00
 1.643452e+00	 5.384507e-01	-6.595124e+00
 1.633221e+00	 5.687298e-01	-6.061427e+00
 1.622385e+00	 5.989422e-01	-5.330517e+00
 1.681907e+00	 4.504257e-01	-6.290406e+00
 1.673417e+00	 4.810102e-01	-5.965728e+00
 1.664327e+00	 5.115784e-01	-5.579122e+00
 1.654632e+00	 5.421136e-01	-5.100206e+00
 1.644332e+00	 5.725987e-01	-4.492066e+00
 1.633422e+00	 6.030166e-01	-3.710665e+00
 1.693272e+00	 4.534691e-01	-5.154235e+00
 1.684724e+00	 4.842603e-01	-4.713799e+00
 1.675572e+00	 5.150350e-01	-4.232351e+00
 1.665812e+00	 5.457765e-01	-3.679152e+00
 1.655442e+00	 5.764677e-01	-3.014747e+00
 1.644458e+00	 6.070911e-01	-2.190315e+00
 1.704636e+00	 4.565125e-01	-4.002157e+00
 1.696031e+00	 4.875104e-01	-3.485543e+00
 1.686817e+00	 5.184917e-01	-2.944304e+00
 1.676992e+00	 5.494395e-01	-2.344802e+00
 1.666552e+00	 5.803366e-01	-1.641536e+00
 1.655495e+00	 6.111655e-01	-7.764213e-01
 1.600312e+00	 5.907933e-01	-8.839156e+00
 1.589025e+00	 6.205117e-01	-8.017199e+00
 1.577139e+00	 6.501297e-01	-6.972055e+00
 1.564653e+00	 6.796301e-01	-5.618452e+00
 1.551567e+00	 7.089951e-01	-3.863278e+00
 1.537883e+00	 7.382072e-01	-3.673083e+00
 1.611348e+00	 5.948678e-01	-7.042569e+00
 1.599984e+00	 6.247911e-01	-6.175373e+00
 1.588015e+00	 6.546134e-01	-5.111440e+00
 1.575443e+00	 6.843172e-01	-3.753155e+00
 1.562268e+00	 7.138848e-01	-1.993206e+00
 1.548489e+00	 7.432983e-01	-2.100958e+00
 1.622385e+00	 5.989422e-01	-5.330517e+00
 1.610942e+00	 6.290705e-01	-4.426690e+00
 1.598892e+00	 6.590971e-01	-3.341676e+00
 1.586234e+00	 6.890043e-01	-1.970005e+00
 1.572968e+00	 7.187744e-01	-5.219112e-01
 1.559095e+00	 7.483894e-01	-5.579572e-01
 1.633422e+00	 6.030166e-01	-3.710665e+00
 1.621901e+00	 6.333498e-01	-2.772382e+00
 1.609769e+00	 6.635807e-01	-1.659929e+00
 1.597025e+00	 6.936914e-01	-2.643862e-01
 1.583668e+00	 7.236640e-01	 8.871539e-01
 1.569701e+00	 7.534805e-01	 9.551658e-01
 1.644458e+00	 6.070911e-01	-2.190315e+00
 1.632860e+00	 6.376292e-01	-1.213486e+00
 1.620646e+00	 6.680644e-01	-6.327561e-02
 1.607815e+00	 6.983785e-01	 1.368366e+00
 1.594369e+00	 7.285536e-01	 2.266580e+00
 1.580308e+00	 7.585715e-01	 2.437788e+00
 1.655495e+00	 6.111655e-01	-7.764213e-01
 1.643819e+00	 6.419086e-01	 2.491475e-01
 1.631523e+00	 6.725480e-01	 1.451293e+00
 1.618606e+00	 7.030656e-01	 2.932959e+00
 1.605069e+00	 7.334433e-01	 3.618278e+00
 1.590914e+00	 7.636626e-01	 3.889414e+00
 1.537883e+00	 7.382072e-01	-3.673083e+00
 1.523602e+00	 7.672485e-01	-3.513552e+00
 1.508727e+00	 7.961013e-01	-2.751981e+00
 1.493260e+00	 8.247477e-01	-1.304834e+00
 1.477205e+00	 8.531700e-01	 9.170235e-01
 1.460567e+00	 8.813504e-01	 4.008166e+00
 1.548489e+00	 7.432983e-01	-2.100958e+00
 1.534110e+00	 7.725399e-01	-1.816432e+00
 1.519132e+00	 8.015916e-01	-9.251260e-01
 1.503558e+00	 8.304356e-01	 6.283473e-01
 1.487393e+00	 8.590539e-01	 2.903155e+00
 1.470640e+00	 8.874287e-01	 5.962217e+00
 1.559095e+00	 7.483894e-01	-5.579572e-01
 1.544618e+00	 7.778313e-01	-1.582139e-01
 1.529537e+00	 8.070820e-01	 8.383865e-01
 1.513857e+00	 8.361235e-01	 2.467663e+00
 1.497581e+00	 8.649378e-01	 4.767885e+00
 1.480713e+00	 8.935069e-01	 7.779845e+00
 1.569701e+00	 7.534805e-01	 9.551658e-01
 1.555125e+00	 7.831226e-01	 1.457858e+00
 1.539942e+00	 8.125723e-01	 2.534837e+00
 1.524155e+00	 8.418114e-01	 4.210759e+00
 1.507768e+00	 8.708218e-01	 6.511894e+00
 1.490786e+00	 8.995852e-01	 9.466242e+00
 1.580308e+00	 7.585715e-01	 2.437788e+00
 1.565633e+00	 7.884140e-01	 3.028743e+00
 1.550347e+00	 8.180627e-01	 4.160722e+00
 1.534454e+00	 8.474994e-01	 5.855465e+00
 1.517956e+00	 8.767057e-01	 8.135962e+00
 1.500859e+00	 9.056635e-01	 1.102658e+01
 1.590914e+00	 7.636626e-01	 3.889414e+00
 1.576140e+00	 7.937054e-01	 4.551591e+00
 1.560752e+00	 8.235531e-01	 5.712746e+00
 1.544752e+00	 8.531873e-01	 7.399783e+00
 1.528143e+00	 8.825896e-01	 9.640965e+00
 1.510931e+00	 9.117418e-01	 1.246603e+01
 1.460567e+00	 8.813504e-01	 4.008166e+00
 1.443350e+00	 9.092713e-01	 7.840400e+00
 1.425561e+00	 9.369152e-01	 1.212335e+01
 1.407206e+00	 9.642648e-01	 1.586730e+01
 1.388291e+00	 9.913029e-01	 1.982938e+01
 1.368826e+00	 1.018013e+00	 2.408364e+01
 1.470640e+00	 8.874287e-01	 5.962217e+00
 1.453305e+00	 9.155421e-01	 9.656046e+00
 1.435393e+00	 9.433767e-01	 1.391077e+01
 1.416911e+00	 9.709149e-01	 1.809983e+01
 1.397866e+00	 9.981394e-01	 2.216596e+01
 1.378266e+00	 1.025033e+00	 2.658954e+01
 1.480713e+00	 8.935069e-01	 7.779845e+00
 1.463259e+00	 9.218130e-01	 1.134663e+01
 1.445224e+00	 9.498382e-01	 1.542229e+01
 1.426615e+00	 9.775650e-01	 2.010516e+01
 1.407440e+00	 1.004976e+00	 2.432969e+01
 1.387707e+00	 1.032054e+00	 2.896301e+01
 1.490786e+00	 8.995852e-01	 9.466242e+00
 1.473213e+00	 9.280838e-01	 1.292133e+01
 1.455055e+00	 9.562997e-01	 1.685653e+01
 1.436320e+00	 9.842151e-01	 2.150621e+01
 1.417015e+00	 1.011813e+00	 2.632880e+01
 1.397147e+00	 1.039075e+00	 3.120878e+01
 1.500859e+00	 9.056635e-01	 1.102658e+01
 1.483167e+00	 9.343546e-01	 1.438919e+01
 1.464887e+00	 9.627611e-01	 1.822421e+01
 1.446025e+00	 9.908652e-01	 2.277301e+01
 1.426589e+00	 1.018649e+00	 2.817142e+01
 1.406587e+00	 1.046096e+00	 3.333158e+01
 1.510931e+00	 9.117418e-01	 1.246603e+01
 1.493121e+00	 9.406255e-01	 1.575914e+01
 1.474718e+00	 9.692226e-01	 1.953588e+01
 1.455730e+00	 9.975153e-01	 2.403268e+01
 1.436164e+00	 1.025486e+00	 2.949646e+01
 1.416027e+00	 1.053116e+00	 3.533613e+01
 1.368826e+00	 1.018013e+00	 2.408364e+01
 1.348818e+00	 1.044377e+00	 2.935944e+01
 1.328277e+00	 1.070380e+00	 3.636314e+01
 1.307213e+00	 1.096006e+00	 3.582170e+01
 1.285635e+00	 1.121239e+00	 3.551916e+01
 1.263556e+00	 1.146063e+00	 3.599182e+01
 1.378266e+00	 1.025033e+00	 2.658954e+01
 1.358121e+00	 1.051580e+00	 3.214500e+01
 1.337438e+00	 1.077762e+00	 3.737238e+01
 1.316228e+00	 1.103565e+00	 3.689644e+01
 1.294502e+00	 1.128972e+00	 3.699089e+01
 1.272270e+00	 1.153967e+00	 3.778118e+01
 1.387707e+00	 1.032054e+00	 2.896301e+01
 1.367423e+00	 1.058782e+00	 3.480689e+01
 1.346598e+00	 1.085144e+00	 3.804179e+01
 1.325243e+00	 1.111123e+00	 3.795180e+01
 1.303368e+00	 1.136704e+00	 3.838376e+01
 1.280984e+00	 1.161871e+00	 3.943233e+01
 1.397147e+00	 1.039075e+00	 3.120878e+01
 1.376725e+00	 1.065985e+00	 3.734659e+01
 1.355759e+00	 1.092526e+00	 3.874501e+01
 1.334259e+00	 1.118682e+00	 3.899269e+01
 1.312235e+00	 1.144437e+00	 3.970342e+01
 1.289699e+00	 1.169775e+00	 4.095250e+01
 1.406587e+00	 1.046096e+00	 3.333158e+01
 1.386027e+00	 1.073188e+00	 3.928845e+01
 1.364919e+00	 1.099908e+00	 3.948747e+01
 1.343274e+00	 1.126241e+00	 4.002416e+01
 1.321101e+00	 1.152170e+00	 4.095559e+01
 1.298413e+00	 1.177679e+00	 4.234896e+01
 1.416027e+00	 1.053116e+00	 3.533613e+01
 1.395329e+00	 1.080390e+00	 3.975593e+01
 1.374080e+00	 1.107290e+00	 4.027472e+01
 1.352289e+00	 1.133799e+00	 4.105137e+01
 1.329968e+00	 1.159902e+00	 4.214611e+01
 1.307127e+00	 1.185583e+00	 4.362905e+01
 1.263556e+00	 1.146063e+00	 3.599182e+01
 1.240987e+00	 1.170464e+00	 3.679161e+01
 1.217940e+00	 1.194428e+00	 3.737838e+01
 1.194428e+00	 1.217940e+00	 3.779282e+01
 1.170464e+00	 1.240987e+00	 3.807646e+01
 1.146063e+00	 1.263556e+00	 3.827097e+01
 1.272270e+00	 1.153967e+00	 3.778118e+01
 1.249545e+00	 1.178536e+00	 3.876726e+01
 1.226339e+00	 1.202665e+00	 3.940763e+01
 1.202665e+00	 1.226339e+00	 3.977720e+01
 1.178536e+00	 1.249545e+00	 3.995379e+01
 1.153967e+00	 1.272270e+00	 4.001723e+01
 1.280984e+00	 1.161871e+00	 3.943233e+01
 1.258104e+00	 1.186609e+00	 4.056168e+01
 1.234739e+00	 1.210903e+00	 4.123449e+01
 1.210903e+00	 1.234739e+00	 4.155559e+01
 1.186609e+00	 1.258104e+00	 4.163459e+01
 1.161871e+00	 1.280984e+00	 4.158486e+01
 1.289699e+00	 1.169775e+00	 4.095250e+01
 1.266662e+00	 1.194681e+00	 4.218356e+01
 1.243138e+00	 1.219140e+00	 4.286822e+01
 1.219140e+00	 1.243138e+00	 4.313696e+01
 1.194681e+00	 1.266662e+00	 4.312684e+01
 1.169775e+00	 1.289699e+00	 4.298018e+01
 1.298413e+00	 1.177679e+00	 4.234896e+01
 1.275221e+00	 1.202753e+00	 4.364160e+01
 1.251538e+00	 1.227377e+00	 4.431803e+01
 1.227377e+00	 1.251538e+00	 4.453029e+01
 1.202753e+00	 1.275221e+00	 4.443852e+01
 1.177679e+00	 1.298413e+00	 4.420960e+01
 1.307127e+00	 1.185583e+00	 4.362905e+01
 1.283779e+00	 1.210825e+00	 4.494452e+01
 1.259938e+00	 1.235615e+00	 4.559318e+01
 1.235615e+00	 1.259938e+00	 4.574454e+01
 1.210825e+00	 1.283779e+00	 4.557765e+01
 1.185583e+00	 1.307127e+00	 4.527958e+01
 1.146063e+00	 1.263556e+00	 3.827097e+01
 1.121239e+00	 1.285635e+00	 3.863715e+01
 1.096006e+00	 1.307213e+00	 3.959984e+01
 1.070380e+00	 1.328277e+00	 4.133077e+01
 1.044377e+00	 1.348818e+00	 4.113088e+01
 1.018013e+00	 1.368826e+00	 4.149267e+01
 1.153967e+00	 1.272270e+00	 4.001723e+01
 1.128972e+00	 1.294502e+00	 4.026344e+01
 1.103565e+00	 1.316228e+00	 4.112754e+01
 1.077762e+00	 1.337438e+00	 4.289624e+01
 1.051580e+00	 1.358121e+00	 4.349380e+01
 1.025033e+00	 1.378266e+00	 4.402094e+01
 1.161871e+00	 1.280984e+00	 4.158486e+01
 1.136704e+00	 1.303368e+00	 4.172917e+01
 1.111123e+00	 1.325243e+00	 4.250797e+01
 1.085144e+00	 1.346598e+00	 4.420997e+01
 1.058782e+00	 1.367423e+00	 4.566938e+01
 1.032054e+00	 1.387707e+00	 4.637185e+01
 1.169775e+00	 1.289699e+00	 4.298018e+01
 1.144437e+00	 1.312235e+00	 4.303915e+01
 1.118682e+00	 1.334259e+00	 4.374514e+01
 1.092526e+00	 1.355759e+00	 4.538909e+01
 1.065985e+00	 1.376725e+00	 4.765652e+01
 1.039075e+00	 1.397147e+00	 4.854584e+01
 1.177679e+00	 1.298413e+00	 4.420960e+01
 1.152170e+00	 1.321101e+00	 4.419828e+01
 1.126241e+00	 1.343274e+00	 4.484315e+01
 1.099908e+00	 1.364919e+00	 4.643765e+01
 1.073188e+00	 1.386027e+00	 4.926888e+01
 1.046096e+00	 1.406587e+00	 5.054339e+01
 1.185583e+00	 1.307127e+00	 4.527958e+01
 1.159902e+00	 1.329968e+00	 4.521153e+01
 1.133799e+00	 1.352289e+00	 4.580624e+01
 1.107290e+00	 1.374080e+00	 4.735983e+01
 1.080390e+00	 1.395329e+00	 5.016217e+01
 1.053116e+00	 1.416027e+00	 5.236499e+01
 1.018013e+00	 1.368826e+00	 4.149267e+01
 9.913029e-01	 1.388291e+00	 4.242736e+01
 9.642648e-01	 1.407206e+00	 4.401377e+01
 9.369152e-01	 1.425561e+00	 4.653009e+01
 9.092713e-01	 1.443350e+00	 4.512204e+01
 8.813504e-01	 1.460567e+00	 4.252393e+01
 1.025033e+00	 1.378266e+00	 4.402094e+01
 9.981394e-01	 1.397866e+00	 4.520968e+01
 9.709149e-01	 1.416911e+00	 4.719455e+01
 9.433767e-01	 1.435393e+00	 4.833025e+01
 9.155421e-01	 1.453305e+00	 4.626289e+01
 8.874287e-01	 1.470640e+00	 4.392910e+01
 1.032054e+00	 1.387707e+00	 4.637185e+01
 1.004976e+00	 1.407440e+00	 4.781897e+01
 9.775650e-01	 1.426615e+00	 5.019794e+01
 9.498382e-01	 1.445224e+00	 4.927890e+01
 9.218130e-01	 1.463259e+00	 4.739785e+01
 8.935069e-01	 1.480713e+00	 4.528833e+01
 1.039075e+00	 1.397147e+00	 4.854584e+01
 1.011813e+00	 1.417015e+00	 5.025746e+01
 9.842151e-01	 1.436320e+00	 5.147942e+01
 9.562997e-01	 1.455055e+00	 5.026049e+01
 9.280838e-01	 1.473213e+00	 4.853687e+01
 8.995852e-01	 1.490786e+00	 4.661222e+01
 1.046096e+00	 1.406587e+00	 5.054339e+01
 1.018649e+00	 1.426589e+00	 5.252735e+01
 9.908652e-01	 1.446025e+00	 5.240652e+01
 9.627611e-01	 1.464887e+00	 5.128391e+01
 9.343546e-01	 1.483167e+00	 4.968974e+01
 9.056635e-01	 1.500859e+00	 4.791123e+01
 1.053116e+00	 1.416027e+00	 5.236499e+01
 1.025486e+00	 1.436164e+00	 5.373707e+01
 9.975153e-01	 1.455730e+00	 5.340058e+01
 9.692226e-01	 1.474718e+00	 5.235796e+01
 9.406255e-01	 1.493121e+00	 5.086614e+01
 9.117418e-01	 1.510931e+00	 4.919566e+01
 8.813504e-01	 1.460567e+00	 4.252393e+01
 8.531700e-01	 1.477205e+00	 4.013327e+01
 8.247477e-01	 1.493260e+00	 3.822384e+01
 7.961013e-01	 1.508727e+00	 3.677190e+01
 7.672485e-01	 1.523602e+00	 3.573074e+01
 7.382072e-01	 1.537883e+00	 3.503097e+01
 8.874287e-01	 1.470640e+00	 4.392910e+01
 8.590539e-01	 1.487393e+00	 4.174717e+01
 8.304356e-01	 1.503558e+00	 3.991119e+01
 8.015916e-01	 1.519132e+00	 3.841903e+01
 7.725399e-01	 1.534110e+00	 3.724822e+01
 7.432983e-01	 1.548489e+00	 3.635607e+01
 8.935069e-01	 1.480713e+00	 4.528833e+01
 8.649378e-01	 1.497581e+00	 4.327501e+01
 8.361235e-01	 1.513857e+00	 4.148305e+01
 8.070820e-01	 1.529537e+00	 3.993218e+01
 7.778313e-01	 1.544618e+00	 3.862429e+01
 7.483894e-01	 1.559095e+00	 3.754328e+01
 8.995852e-01	 1.490786e+00	 4.661222e+01
 8.708218e-01	 1.507768e+00	 4.472749e+01
 8.418114e-01	 1.524155e+00	 4.294923e+01
 8.125723e-01	 1.539942e+00	 4.131934e+01
 7.831226e-01	 1.555125e+00	 3.986413e+01
 7.534805e-01	 1.569701e+00	 3.859403e+01
 9.056635e-01	 1.500859e+00	 4.791123e+01
 8.767057e-01	 1.517956e+00	 4.611514e+01
 8.474994e-01	 1.534454e+00	 4.431940e+01
 8.180627e-01	 1.550347e+00	 4.258837e+01
 7.884140e-01	 1.565633e+00	 4.097288e+01
 7.585715e-01	 1.580308e+00	 3.950979e+01
 9.117418e-01	 1.510931e+00	 4.919566e+01
 8.825896e-01	 1.528143e+00	 4.744830e+01
 8.531873e-01	 1.544752e+00	 4.560308e+01
 8.235531e-01	 1.560752e+00	 4.374705e+01
 7.937054e-01	 1.576140e+00	 4.195565e+01
 7.636626e-01	 1.590914e+00	 4.029210e+01
 7.382072e-01	 1.537883e+00	 3.503097e+01
 7.089951e-01	 1.551567e+00	 3.406799e+01
 6.796301e-01	 1.564653e+00	 3.142750e+01
 6.501297e-01	 1.577139e+00	 2.846402e+01
 6.205117e-01	 1.589025e+00	 2.551761e+01
 5.907933e-01	 1.600312e+00	 2.293032e+01
 7.432983e-01	 1.548489e+00	 3.635607e+01
 7.138848e-01	 1.562268e+00	 3.549414e+01
 6.843172e-01	 1.575443e+00	 3.278307e+01
 6.546134e-01	 1.588015e+00	 2.982121e+01
 6.247911e-01	 1.599984e+00	 2.692347e+01
 5.948678e-01	 1.611348e+00	 2.440376e+01
 7.483894e-01	 1.559095e+00	 3.754328e+01
 7.187744e-01	 1.572968e+00	 3.654495e+01
 6.890043e-01	 1.586234e+00	 3.401134e+01
 6.590971e-01	 1.598892e+00	 3.103500e+01
 6.290705e-01	 1.610942e+00	 2.816263e+01
 5.989422e-01	 1.622385e+00	 2.568393e+01
 7.534805e-01	 1.569701e+00	 3.859403e+01
 7.236640e-01	 1.583668e+00	 3.743490e+01
 6.936914e-01	 1.597025e+00	 3.510563e+01
 6.635807e-01	 1.609769e+00	 3.210019e+01
 6.333498e-01	 1.621901e+00	 2.923347e+01
 6.030166e-01	 1.633422e+00	 2.677481e+01
 7.585715e-01	 1.580308e+00	 3.950979e+01
 7.285536e-01	 1.594369e+00	 3.818455e+01
 6.983785e-01	 1.607815e+00	 3.605943e+01
 6.680644e-01	 1.620646e+00	 3.301172e+01
 6.376292e-01	 1.632860e+00	 3.013440e+01
 6.070911e-01	 1.644458e+00	 2.768028e+01
 7.636626e-01	 1.590914e+00	 4.029210e+01
 7.334433e-01	 1.605069e+00	 3.879250e+01
 7.030656e-01	 1.618606e+00	 3.686635e+01
 6.725480e-01	 1.631523e+00	 3.376462e+01
 6.419086e-01	 1.643819e+00	 3.086387e+01
 6.111655e-01	 1.655495e+00	 2.840404e+01
 5.907933e-01	 1.600312e+00	 2.293032e+01
 5.609920e-01	 1.611000e+00	 2.111034e+01
 5.311248e-01	 1.621093e+00	 2.007757e+01
 5.012086e-01	 1.630590e+00	 1.957872e+01
 4.712600e-01	 1.639496e+00	 1.934410e+01
 4.412955e-01	 1.647815e+00	 1.908954e+01
 5.948678e-01	 1.611348e+00	 2.440376e+01
 5.648609e-01	 1.622111e+00	 2.259162e+01
 5.347877e-01	 1.632272e+00	 2.147248e+01
 5.046652e-01	 1.641836e+00	 2.083110e+01
 4.745101e-01	 1.650803e+00	 2.043838e+01
 4.443389e-01	 1.659179e+00	 2.005296e+01
 5.989422e-01	 1.622385e+00	 2.568393e+01
 5.687298e-01	 1.633221e+00	 2.386777e+01
 5.384507e-01	 1.643452e+00	 2.267618e+01
 5.081218e-01	 1.653081e+00	 2.192556e+01
 4.777602e-01	 1.662110e+00	 2.142066e+01
 4.473823e-01	 1.670543e+00	 2.095591e+01
 6.030166e-01	 1.633422e+00	 2.677481e+01
 5.725987e-01	 1.644332e+00	 2.494809e+01
 5.421136e-01	 1.654632e+00	 2.370086e+01
 5.115784e-01	 1.664327e+00	 2.287489e+01
 4.810102e-01	 1.673417e+00	 2.230218e+01
 4.504257e-01	 1.681907e+00	 2.180606e+01
 6.070911e-01	 1.644458e+00	 2.768028e+01
 5.764677e-01	 1.655442e+00	 2.584161e+01
 5.457765e-01	 1.665812e+00	 2.455834e+01
 5.150350e-01	 1.675572e+00	 2.369149e+01
 4.842603e-01	 1.684724e+00	 2.309382e+01
 4.534691e-01	 1.693272e+00	 2.261085e+01
 6.111655e-01	 1.655495e+00	 2.840404e+01
 5.803366e-01	 1.666552e+00	 2.655708e+01
 5.494395e-01	 1.676992e+00	 2.526011e+01
 5.184917e-01	 1.686817e+00	 2.438739e+01
 4.875104e-01	 1.696031e+00	 2.380616e+01
 4.565125e-01	 1.704636e+00	 2.337750e+01
 4.412955e-01	 1.647815e+00	 1.908954e+01
 4.113310e-01	 1.655549e+00	 1.833182e+01
 3.813824e-01	 1.662703e+00	 1.706370e+01
 3.514651e-01	 1.669283e+00	 1.626809e+01
 3.215942e-01	 1.675295e+00	 1.778490e+01
 2.917844e-01	 1.680743e+00	 1.928798e+01
 4.443389e-01	 1.659179e+00	 2.005296e+01
 4.141678e-01	 1.666966e+00	 1.927993e+01
 3.840126e-01	 1.674170e+00	 1.814106e+01
 3.538890e-01	 1.680796e+00	 1.732606e+01
 3.238121e-01	 1.686848e+00	 1.906869e+01
 2.937967e-01	 1.692334e+00	 2.072920e+01
 4.473823e-01	 1.670543e+00	 2.095591e+01
 4.170045e-01	 1.678384e+00	 2.020578e+01
 3.866428e-01	 1.685637e+00	 1.920993e+01
 3.563129e-01	 1.692308e+00	 1.837948e+01
 3.260300e-01	 1.698402e+00	 2.033027e+01
 2.958090e-01	 1.703925e+00	 2.211856e+01
 4.504257e-01	 1.681907e+00	 2.180606e+01
 4.198413e-01	 1.689801e+00	 2.111335e+01
 3.892731e-01	 1.697104e+00	 2.027214e+01
 3.587368e-01	 1.703820e+00	 1.957767e+01
 3.282478e-01	 1.709956e+00	 2.157138e+01
 2.978213e-01	 1.715517e+00	 2.345963e+01
 4.534691e-01	 1.693272e+00	 2.261085e+01
 4.226781e-01	 1.701219e+00	 2.200647e+01
 3.919033e-01	 1.708571e+00	 2.132938e+01
 3.611607e-01	 1.715333e+00	 2.084227e+01
 3.304657e-01	 1.721510e+00	 2.279366e+01
 2.998336e-01	 1.727108e+00	 2.475589e+01
 4.565125e-01	 1.704636e+00	 2.337750e+01
 4.255148e-01	 1.712637e+00	 2.288886e+01
 3.945335e-01	 1.720038e+00	 2.238331e+01
 3.635846e-01	 1.726845e+00	 2.209527e+01
 3.326836e-01	 1.733063e+00	 2.399872e+01
 3.018459e-01	 1.738699e+00	 2.601069e+01
 2.917844e-01	 1.680743e+00	 1.928798e+01
 2.620501e-01	 1.685635e+00	 2.133044e+01
 2.324052e-01	 1.689977e+00	 2.373512e+01
 2.028633e-01	 1.693777e+00	 2.576747e+01
 1.734374e-01	 1.697043e+00	 2.671049e+01
 1.441403e-01	 1.699782e+00	 2.586717e+01
 2.937967e-01	 1.692334e+00	 2.072920e+01
 2.638573e-01	 1.697260e+00	 2.277152e+01
 2.340080e-01	 1.701632e+00	 2.501108e+01
 2.042623e-01	 1.705458e+00	 2.678622e+01
 1.746335e-01	 1.708746e+00	 2.745372e+01
 1.451344e-01	 1.711504e+00	 2.639093e+01
 2.958090e-01	 1.703925e+00	 2.211856e+01
 2.656646e-01	 1.708885e+00	 2.413494e+01
 2.356108e-01	 1.713287e+00	 2.619907e+01
 2.056614e-01	 1.717140e+00	 2.772057e+01
 1.758297e-01	 1.720450e+00	 2.812818e+01
 1.461285e-01	 1.723227e+00	 2.687153e+01
 2.978213e-01	 1.715517e+00	 2.345963e+01
 2.674718e-01	 1.720510e+00	 2.542585e+01
 2.372136e-01	 1.724942e+00	 2.730415e+01
 2.070604e-01	 1.728821e+00	 2.857386e+01
 1.770258e-01	 1.732154e+00	 2.873391e+01
 1.471226e-01	 1.734950e+00	 2.730417e+01
 2.998336e-01	 1.727108e+00	 2.475589e+01
 2.692790e-01	 1.732135e+00	 2.664927e+01
 2.388164e-01	 1.736597e+00	 2.833124e+01
 2.084595e-01	 1.740502e+00	 2.934936e+01
 1.782219e-01	 1.743858e+00	 2.927096e+01
 1.481166e-01	 1.746672e+00	 2.768420e+01
 3.018459e-01	 1.738699e+00	 2.601069e+01
 2.710863e-01	 1.743760e+00	 2.781005e+01
 2.404192e-01	 1.748252e+00	 2.928513e+01
 2.098585e-01	 1.752183e+00	 3.005023e+01
 1.794180e-01	 1.755561e+00	 2.973937e+01
 1.491107e-01	 1.758395e+00	 2.800708e+01
 1.441403e-01	 1.699782e+00	 2.586717e+01
 1.149843e-01	 1.702003e+00	 2.329472e+01
 8.598113e-02	 1.703714e+00	 2.044971e+01
 5.714215e-02	 1.704925e+00	 1.873976e+01
 2.847829e-02	 1.705645e+00	 1.955369e+01
 0.000000e+00	 1.705882e+00	 2.425643e+01
 1.451344e-01	 1.711504e+00	 2.639093e+01
 1.157773e-01	 1.713741e+00	 2.374756e+01
 8.657411e-02	 1.715464e+00	 2.095669e+01
 5.753624e-02	 1.716683e+00	 1.932589e+01
 2.867470e-02	 1.717408e+00	 2.014356e+01
 0.000000e+00	 1.717647e+00	 2.467435e+01
 1.461285e-01	 1.723227e+00	 2.687153e+01
 1.165703e-01	 1.725479e+00	 2.417738e+01
 8.716708e-02	 1.727214e+00	 2.144400e+01
 5.793032e-02	 1.728441e+00	 1.988331e+01
 2.887110e-02	 1.729171e+00	 2.068816e+01
 0.000000e+00	 1.729412e+00	 2.502820e+01
 1.471226e-01	 1.734950e+00	 2.730417e+01
 1.173633e-01	 1.737217e+00	 2.457567e+01
 8.776005e-02	 1.738963e+00	 2.190310e+01
 5.832441e-02	 1.740199e+00	 2.040698e+01
 2.906750e-02	 1.740934e+00	 2.118939e+01
 0.000000e+00	 1.741176e+00	 2.533013e+01
 1.481166e-01	 1.746672e+00	 2.768420e+01
 1.181563e-01	 1.748955e+00	 2.493415e+01
 8.835303e-02	 1.750713e+00	 2.232564e+01
 5.871849e-02	 1.751957e+00	 2.089197e+01
 2.926390e-02	 1.752697e+00	 2.164906e+01
 0.000000e+00	 1.752941e+00	 2.559196e+01
 1.491107e-01	 1.758395e+00	 2.800708e+01
 1.189493e-01	 1.760692e+00	 2.524475e+01
 8.894600e-02	 1.762463e+00	 2.270351e+01
 5.911257e-02	 1.763716e+00	 2.133349e+01
 2.946030e-02	 1.764460e+00	 2.206898e+01
 0.000000e+00	 1.764706e+00	 2.582521e+01
 1.764706e+00	 0.000000e+00	-2.615008e+01
 1.764460e+00	 2.946030e-02	-2.011259e+01
 1.763716e+00	 5.911257e-02	-1.535290e+01
 1.762463e+00	 8.894600e-02	-1.224512e+01
 1.760692e+00	 1.189493e-01	-1.114792e+01
 1.758395e+00	 1.491107e-01	-1.240324e+01
 1.776471e+00	 0.000000e+00	-2.376729e+01
 1.776223e+00	 2.965671e-02	-1.838058e+01
 1.775474e+00	 5.950666e-02	-1.417573e+01
 1.774213e+00	 8.953897e-02	-1.149105e+01
 1.772430e+00	 1.197423e-01	-1.064780e+01
 1.770118e+00	 1.501048e-01	-1.194895e+01
 1.788235e+00	 0.000000e+00	-2.126063e+01
 1.787986e+00	 2.985311e-02	-1.654321e+01
 1.787232e+00	 5.990074e-02	-1.288973e+01
 1.785962e+00	 9.013195e-02	-1.064630e+01
 1.784168e+00	 1.205353e-01	-1.008441e+01
 1.781840e+00	 1.510988e-01	-1.146216e+01
 1.800000e+00	 0.000000e+00	-1.916618e+01
 1.799749e+00	 3.004951e-02	-1.494717e+01
 1.798990e+00	 6.029483e-02	-1.164861e+01
 1.797712e+00	 9.072492e-02	-9.613401e+00
 1.795906e+00	 1.213283e-01	-9.158941e+00
 1.793563e+00	 1.520929e-01	-1.057421e+01
 1.811765e+00	 0.000000e+00	-1.709595e+01
 1.811512e+00	 3.024591e-02	-1.340226e+01
 1.810748e+00	 6.068891e-02	-1.045514e+01
 1.809462e+00	 9.131789e-02	-8.607162e+00
 1.807644e+00	 1.221213e-01	-8.185761e+00
 1.805285e+00	 1.530870e-01	-9.490246e+00
 1.823529e+00	 0.000000e+00	-1.505465e+01
 1.823275e+00	 3.044231e-02	-1.190517e+01
 1.822506e+00	 6.108299e-02	-9.299923e+00
 1.821212e+00	 9.191087e-02	-7.613794e+00
 1.819382e+00	 1.229143e-01	-7.197545e+00
 1.817008e+00	 1.540811e-01	-8.374715e+00
 1.758395e+00	 1.491107e-01	-1.240324e+01
 1.755561e+00	 1.794180e-01	-1.443001e+01
 1.752183e+00	 2.098585e-01	-1.536482e+01
 1.748252e+00	 2.404192e-01	-1.512832e+01
 1.743760e+00	 2.710863e-01	-1.366374e+01
 1.738699e+00	 3.018459e-01	-1.093922e+01
 1.770118e+00	 1.501048e-01	-1.194895e+01
 1.767265e+00	 1.806141e-01	-1.389896e+01
 1.763865e+00	 2.112576e-01	-1.475056e+01
 1.759907e+00	 2.420220e-01	-1.442872e+01
 1.755385e+00	 2.728935e-01	-1.287892e+01
 1.750291e+00	 3.038582e-01	-1.006934e+01
 1.781840e+00	 1.510988e-01	-1.146216e+01
 1.778969e+00	 1.818103e-01	-1.337964e+01
 1.775546e+00	 2.126567e-01	-1.419603e+01
 1.771562e+00	 2.436247e-01	-1.383154e+01
 1.767010e+00	 2.747008e-01	-1.222526e+01
 1.761882e+00	 3.058705e-01	-9.337432e+00
 1.793563e+00	 1.520929e-01	-1.057421e+01
 1.790673e+00	 1.830064e-01	-1.256548e+01
 1.787227e+00	 2.140557e-01	-1.358704e+01
 1.783217e+00	 2.452275e-01	-1.333680e+01
 1.778635e+00	 2.765080e-01	-1.171613e+01
 1.773473e+00	 3.078828e-01	-8.774619e+00
 1.805285e+00	 1.530870e-01	-9.490246e+00
 1.802376e+00	 1.842025e-01	-1.134214e+01
 1.798908e+00	 2.154548e-01	-1.229346e+01
 1.794872e+00	 2.468303e-01	-1.221634e+01
 1.790260e+00	 2.783153e-01	-1.098299e+01
 1.785065e+00	 3.098951e-01	-8.411385e+00
 1.817008e+00	 1.540811e-01	-8.374715e+00
 1.814080e+00	 1.853986e-01	-1.009218e+01
 1.810589e+00	 2.168538e-01	-1.099450e+01
 1.806527e+00	 2.484331e-01	-1.092912e+01
 1.801885e+00	 2.801225e-01	-9.743324e+00
 1.796656e+00	 3.119074e-01	-7.284491e+00
 1.738699e+00	 3.018459e-01	-1.093922e+01
 1.733063e+00	 3.326836e-01	-7.353236e+00
 1.726845e+00	 3.635846e-01	-4.230505e+00
 1.720038e+00	 3.945335e-01	-4.390483e+00
 1.712637e+00	 4.255148e-01	-4.341570e+00
 1.704636e+00	 4.565125e-01	-4.002157e+00
 1.750291e+00	 3.038582e-01	-1.006934e+01
 1.744617e+00	 3.349015e-01	-6.373855e+00
 1.738357e+00	 3.660085e-01	-3.436721e+00
 1.731505e+00	 3.971637e-01	-3.451214e+00
 1.724054e+00	 4.283516e-01	-3.286005e+00
 1.716000e+00	 4.595560e-01	-2.873865e+00
 1.761882e+00	 3.058705e-01	-9.337432e+00
 1.756171e+00	 3.371194e-01	-5.527992e+00
 1.749869e+00	 3.684324e-01	-2.758236e+00
 1.742972e+00	 3.997939e-01	-2.598978e+00
 1.735472e+00	 4.311883e-01	-2.305135e+00
 1.727364e+00	 4.625994e-01	-1.824608e+00
 1.773473e+00	 3.078828e-01	-8.774619e+00
 1.767725e+00	 3.393373e-01	-4.862631e+00
 1.761382e+00	 3.708563e-01	-2.238063e+00
 1.754439e+00	 4.024242e-01	-1.874917e+00
 1.746889e+00	 4.340251e-01	-1.429673e+00
 1.738728e+00	 4.656428e-01	-8.660334e-01
 1.785065e+00	 3.098951e-01	-8.411385e+00
 1.779278e+00	 3.415552e-01	-4.423724e+00
 1.772894e+00	 3.732802e-01	-1.917997e+00
 1.765906e+00	 4.050544e-01	-1.319000e+00
 1.758307e+00	 4.368619e-01	-6.894195e-01
 1.750093e+00	 4.686862e-01	-9.369271e-03
 1.796656e+00	 3.119074e-01	-7.284491e+00
 1.790832e+00	 3.437731e-01	-3.807663e+00
 1.784406e+00	 3.757040e-01	-1.838662e+00
 1.777372e+00	 4.076846e-01	-9.700609e-01
 1.769724e+00	 4.396986e-01	-1.132959e-01
 1.761457e+00	 4.717296e-01	 7.345648e-01
 1.704636e+00	 4.565125e-01	-4.002157e+00
 1.696031e+00	 4.875104e-01	-3.485543e+00
 1.686817e+00	 5.184917e-01	-2.944304e+00
 1.676992e+00	 5.494395e-01	-2.344802e+00
 1.666552e+00	 5.803366e-01	-1.641536e+00
 1.655495e+00	 6.111655e-01	-7.764213e-01
 1.716000e+00	 4.595560e-01	-2.873865e+00
 1.707338e+00	 4.907604e-01	-2.314712e+00
 1.698063e+00	 5.219483e-01	-1.735244e+00
 1.688172e+00	 5.531024e-01	-1.099131e+00
 1.677663e+00	 5.842055e-01	-3.553424e-01
 1.666532e+00	 6.152400e-01	 5.626525e-01
 1.727364e+00	 4.625994e-01	-1.824608e+00
 1.718645e+00	 4.940105e-01	-1.228960e+00
 1.709308e+00	 5.254049e-01	-6.055779e-01
 1.699352e+00	 5.567653e-01	 8.164461e-02
 1.688773e+00	 5.880744e-01	 8.848213e-01
 1.677568e+00	 6.193144e-01	 1.872908e+00
 1.738728e+00	 4.656428e-01	-8.660334e-01
 1.729951e+00	 4.972606e-01	-2.201917e-01
 1.720554e+00	 5.288615e-01	 4.652403e-01
 1.710532e+00	 5.604282e-01	 1.223275e+00
 1.699883e+00	 5.919433e-01	 2.102717e+00
 1.688605e+00	 6.233888e-01	 3.169012e+00
 1.750093e+00	 4.686862e-01	-9.369271e-03
 1.741258e+00	 5.005107e-01	 7.196020e-01
 1.731799e+00	 5.323181e-01	 1.497355e+00
 1.721712e+00	 5.640912e-01	 2.350978e+00
 1.710994e+00	 5.958122e-01	 3.321634e+00
 1.699641e+00	 6.274633e-01	 4.465401e+00
 1.761457e+00	 4.717296e-01	 7.345648e-01
 1.752565e+00	 5.037607e-01	 1.598348e+00
 1.743045e+00	 5.357747e-01	 2.510522e+00
 1.732892e+00	 5.677541e-01	 3.489458e+00
 1.722104e+00	 5.996811e-01	 4.564404e+00
 1.710678e+00	 6.315377e-01	 5.776287e+00
 1.655495e+00	 6.111655e-01	-7.764213e-01
 1.643819e+00	 6.419086e-01	 2.491475e-01
 1.631523e+00	 6.725480e-01	 1.451293e+00
 1.618606e+00	 7.030656e-01	 2.932959e+00
 1.605069e+00	 7.334433e-01	 3.618278e+00
 1.590914e+00	 7.636626e-01	 3.889414e+00
 1.666532e+00	 6.152400e-01	 5.626525e-01
 1.654778e+00	 6.461880e-01	 1.650701e+00
 1.642399e+00	 6.770317e-01	 2.911931e+00
 1.629397e+00	 7.077527e-01	 4.444528e+00
 1.615770e+00	 7.383329e-01	 4.941196e+00
 1.601520e+00	 7.687537e-01	 5.300320e+00
 1.677568e+00	 6.193144e-01	 1.872908e+00
 1.665736e+00	 6.504674e-01	 3.029342e+00
 1.653276e+00	 6.815153e-01	 4.342212e+00
 1.640187e+00	 7.124398e-01	 5.909757e+00
 1.626470e+00	 7.432225e-01	 6.225522e+00
 1.612126e+00	 7.738448e-01	 6.655139e+00
 1.688605e+00	 6.233888e-01	 3.169012e+00
 1.676695e+00	 6.547468e-01	 4.388879e+00
 1.664153e+00	 6.859990e-01	 5.738536e+00
 1.650978e+00	 7.171269e-01	 7.182343e+00
 1.637171e+00	 7.481121e-01	 7.460379e+00
 1.622732e+00	 7.789359e-01	 7.945264e+00
 1.699641e+00	 6.274633e-01	 4.465401e+00
 1.687654e+00	 6.590262e-01	 5.733173e+00
 1.675030e+00	 6.904826e-01	 7.097553e+00
 1.661769e+00	 7.218140e-01	 8.322897e+00
 1.647871e+00	 7.530017e-01	 8.635278e+00
 1.633338e+00	 7.840270e-01	 9.162420e+00
 1.710678e+00	 6.315377e-01	 5.776287e+00
 1.698613e+00	 6.633056e-01	 7.066140e+00
 1.685907e+00	 6.949663e-01	 8.416162e+00
 1.672560e+00	 7.265011e-01	 9.417253e+00
 1.658572e+00	 7.578914e-01	 9.740105e+00
 1.643944e+00	 7.891180e-01	 1.029865e+01
 1.590914e+00	 7.636626e-01	 3.889414e+00
 1.576140e+00	 7.937054e-01	 4.551591e+00
 1.560752e+00	 8.235531e-01	 5.712746e+00
 1.544752e+00	 8.531873e-01	 7.399783e+00
 1.528143e+00	 8.825896e-01	 9.640965e+00
 1.510931e+00	 9.117418e-01	 1.246603e+01
 1.601520e+00	 7.687537e-01	 5.300320e+00
 1.586648e+00	 7.989967e-01	 6.018890e+00
 1.571157e+00	 8.290434e-01	 7.194224e+00
 1.555050e+00	 8.588752e-01	 8.860600e+00
 1.538331e+00	 8.884736e-01	 1.105387e+01
 1.521004e+00	 9.178200e-01	 1.381157e+01
 1.612126e+00	 7.738448e-01	 6.655139e+00
 1.597156e+00	 8.042881e-01	 7.421253e+00
 1.581562e+00	 8.345338e-01	 8.608459e+00
 1.565349e+00	 8.645631e-01	 1.025489e+01
 1.548519e+00	 8.943575e-01	 1.240024e+01
 1.531077e+00	 9.238983e-01	 1.508584e+01
 1.622732e+00	 7.789359e-01	 7.945264e+00
 1.607663e+00	 8.095795e-01	 8.753357e+00
 1.591967e+00	 8.400241e-01	 9.952432e+00
 1.575647e+00	 8.702510e-01	 1.158103e+01
 1.558706e+00	 9.002414e-01	 1.367901e+01
 1.541150e+00	 9.299766e-01	 1.628760e+01
 1.633338e+00	 7.840270e-01	 9.162420e+00
 1.618171e+00	 8.148708e-01	 1.001013e+01
 1.602372e+00	 8.455145e-01	 1.122332e+01
 1.585945e+00	 8.759389e-01	 1.283756e+01
 1.568894e+00	 9.061253e-01	 1.488925e+01
 1.551223e+00	 9.360549e-01	 1.741571e+01
 1.643944e+00	 7.891180e-01	 1.029865e+01
 1.628678e+00	 8.201622e-01	 1.118674e+01
 1.612777e+00	 8.510048e-01	 1.241847e+01
 1.596244e+00	 8.816268e-01	 1.402315e+01
 1.579082e+00	 9.120093e-01	 1.603019e+01
 1.561296e+00	 9.421332e-01	 1.846921e+01
 1.510931e+00	 9.117418e-01	 1.246603e+01
 1.493121e+00	 9.406255e-01	 1.575914e+01
 1.474718e+00	 9.692226e-01	 1.953588e+01
 1.455730e+00	 9.975153e-01	 2.403268e+01
 1.436164e+00	 1.025486e+00	 2.949646e+01
 1.416027e+00	 1.053116e+00	 3.533613e+01
 1.521004e+00	 9.178200e-01	 1.381157e+01
 1.503075e+00	 9.468963e-01	 1.704237e+01
 1.484550e+00	 9.756841e-01	 2.077492e+01
 1.465435e+00	 1.004165e+00	 2.523669e+01
 1.445738e+00	 1.032322e+00	 3.066599e+01
 1.425467e+00	 1.060137e+00	 3.713094e+01
 1.531077e+00	 9.238983e-01	 1.508584e+01
 1.513029e+00	 9.531671e-01	 1.824321e+01
 1.494381e+00	 9.821456e-01	 2.191744e+01
 1.475140e+00	 1.010815e+00	 2.633066e+01
 1.455312e+00	 1.039159e+00	 3.171654e+01
 1.434907e+00	 1.067158e+00	 3.831927e+01
 1.541150e+00	 9.299766e-01	 1.628760e+01
 1.522984e+00	 9.594380e-01	 1.936036e+01
 1.504213e+00	 9.886071e-01	 2.296305e+01
 1.484845e+00	 1.017466e+00	 2.731607e+01
 1.464887e+00	 1.045995e+00	 3.265226e+01
 1.444348e+00	 1.074179e+00	 3.871907e+01
 1.551223e+00	 9.360549e-01	 1.741571e+01
 1.532938e+00	 9.657088e-01	 2.039267e+01
 1.514044e+00	 9.950686e-01	 2.391152e+01
 1.494550e+00	 1.024116e+00	 2.819448e+01
 1.474461e+00	 1.052832e+00	 3.347735e+01
 1.453788e+00	 1.081200e+00	 3.837898e+01
 1.561296e+00	 9.421332e-01	 1.846921e+01
 1.542892e+00	 9.719797e-01	 2.133912e+01
 1.523876e+00	 1.001530e+00	 2.476273e+01
 1.504254e+00	 1.030766e+00	 2.896753e+01
 1.484036e+00	 1.059669e+00	 3.419600e+01
 1.463228e+00	 1.088220e+00	 3.812992e+01
 1.416027e+00	 1.053116e+00	 3.533613e+01
 1.395329e+00	 1.080390e+00	 3.975593e+01
 1.374080e+00	 1.107290e+00	 4.027472e+01
 1.352289e+00	 1.133799e+00	 4.105137e+01
 1.329968e+00	 1.159902e+00	 4.214611e+01
 1.307127e+00	 1.185583e+00	 4.362905e+01
 1.425467e+00	 1.060137e+00	 3.713094e+01
 1.404632e+00	 1.087593e+00	 4.021727e+01
 1.383240e+00	 1.114672e+00	 4.104677e+01
 1.361304e+00	 1.141358e+00	 4.204318e+01
 1.338834e+00	 1.167635e+00	 4.327225e+01
 1.315841e+00	 1.193486e+00	 4.480920e+01
 1.434907e+00	 1.067158e+00	 3.831927e+01
 1.413934e+00	 1.094795e+00	 4.059720e+01
 1.392401e+00	 1.122054e+00	 4.175065e+01
 1.370320e+00	 1.148917e+00	 4.297466e+01
 1.347700e+00	 1.175368e+00	 4.433462e+01
 1.324555e+00	 1.201390e+00	 4.590454e+01
 1.444348e+00	 1.074179e+00	 3.871907e+01
 1.423236e+00	 1.101998e+00	 4.091129e+01
 1.401561e+00	 1.129436e+00	 4.240243e+01
 1.379335e+00	 1.156475e+00	 4.386030e+01
 1.356567e+00	 1.183100e+00	 4.534417e+01
 1.333269e+00	 1.209294e+00	 4.692060e+01
 1.453788e+00	 1.081200e+00	 3.837898e+01
 1.432538e+00	 1.109201e+00	 4.097897e+01
 1.410722e+00	 1.136818e+00	 4.301802e+01
 1.388350e+00	 1.164034e+00	 4.471444e+01
 1.365433e+00	 1.190833e+00	 4.631176e+01
 1.341984e+00	 1.217198e+00	 4.786300e+01
 1.463228e+00	 1.088220e+00	 3.812992e+01
 1.441840e+00	 1.116403e+00	 4.085179e+01
 1.419883e+00	 1.144200e+00	 4.361315e+01
 1.397365e+00	 1.171593e+00	 4.555132e+01
 1.374300e+00	 1.198566e+00	 4.724826e+01
 1.350698e+00	 1.225102e+00	 4.873746e+01
 1.307127e+00	 1.185583e+00	 4.362905e+01
 1.283779e+00	 1.210825e+00	 4.494452e+01
 1.259938e+00	 1.235615e+00	 4.559318e+01
 1.235615e+00	 1.259938e+00	 4.574454e+01
 1.210825e+00	 1.283779e+00	 4.557765e+01
 1.185583e+00	 1.307127e+00	 4.527958e+01
 1.315841e+00	 1.193486e+00	 4.480920e+01
 1.292338e+00	 1.218897e+00	 4.611181e+01
 1.268337e+00	 1.243852e+00	 4.670316e+01
 1.243852e+00	 1.268337e+00	 4.677233e+01
 1.218897e+00	 1.292338e+00	 4.651963e+01
 1.193486e+00	 1.315841e+00	 4.615489e+01
 1.324555e+00	 1.201390e+00	 4.590454e+01
 1.300896e+00	 1.226969e+00	 4.715753e+01
 1.276737e+00	 1.252090e+00	 4.765046e+01
 1.252090e+00	 1.276737e+00	 4.760008e+01
 1.226969e+00	 1.300896e+00	 4.723665e+01
 1.201390e+00	 1.324555e+00	 4.680217e+01
 1.333269e+00	 1.209294e+00	 4.692060e+01
 1.309455e+00	 1.235042e+00	 4.808244e+01
 1.285136e+00	 1.260327e+00	 4.843400e+01
 1.260327e+00	 1.285136e+00	 4.822760e+01
 1.235042e+00	 1.309455e+00	 4.773205e+01
 1.209294e+00	 1.333269e+00	 4.723068e+01
 1.341984e+00	 1.217198e+00	 4.786300e+01
 1.318014e+00	 1.243114e+00	 4.888750e+01
 1.293536e+00	 1.268565e+00	 4.905294e+01
 1.268565e+00	 1.293536e+00	 4.865492e+01
 1.243114e+00	 1.318014e+00	 4.800927e+01
 1.217198e+00	 1.341984e+00	 4.744964e+01
 1.350698e+00	 1.225102e+00	 4.873746e+01
 1.326572e+00	 1.251186e+00	 4.957390e+01
 1.301936e+00	 1.276802e+00	 4.950667e+01
 1.276802e+00	 1.301936e+00	 4.888233e+01
 1.251186e+00	 1.326572e+00	 4.807191e+01
 1.225102e+00	 1.350698e+00	 4.746827e+01
 1.185583e+00	 1.307127e+00	 4.527958e+01
 1.159902e+00	 1.329968e+00	 4.521153e+01
 1.133799e+00	 1.352289e+00	 4.580624e+01
 1.107290e+00	 1.374080e+00	 4.735983e+01
 1.080390e+00	 1.395329e+00	 5.016217e+01
 1.053116e+00	 1.416027e+00	 5.236499e+01
 1.193486e+00	 1.315841e+00	 4.615489e+01
 1.167635e+00	 1.338834e+00	 4.604480e+01
 1.141358e+00	 1.361304e+00	 4.660982e+01
 1.114672e+00	 1.383240e+00	 4.814313e+01
 1.087593e+00	 1.404632e+00	 5.093146e+01
 1.060137e+00	 1.425467e+00	 5.399883e+01
 1.201390e+00	 1.324555e+00	 4.680217e+01
 1.175368e+00	 1.347700e+00	 4.667040e+01
 1.148917e+00	 1.370320e+00	 4.723744e+01
 1.122054e+00	 1.392401e+00	 4.878221e+01
 1.094795e+00	 1.413934e+00	 5.157628e+01
 1.067158e+00	 1.434907e+00	 5.521595e+01
 1.209294e+00	 1.333269e+00	 4.723068e+01
 1.183100e+00	 1.356567e+00	 4.710285e+01
 1.156475e+00	 1.379335e+00	 4.770537e+01
 1.129436e+00	 1.401561e+00	 4.929184e+01
 1.101998e+00	 1.423236e+00	 5.210684e+01
 1.074179e+00	 1.444348e+00	 5.606261e+01
 1.217198e+00	 1.341984e+00	 4.744964e+01
 1.190833e+00	 1.365433e+00	 4.735648e+01
 1.164034e+00	 1.388350e+00	 4.802968e+01
 1.136818e+00	 1.410722e+00	 4.968659e+01
 1.109201e+00	 1.432538e+00	 5.271150e+01
 1.081200e+00	 1.453788e+00	 5.658435e+01
 1.225102e+00	 1.350698e+00	 4.746827e+01
 1.198566e+00	 1.374300e+00	 4.744550e+01
 1.171593e+00	 1.397365e+00	 4.822620e+01
 1.144200e+00	 1.419883e+00	 4.998088e+01
 1.116403e+00	 1.441840e+00	 5.361651e+01
 1.088220e+00	 1.463228e+00	 5.722515e+01
 1.053116e+00	 1.416027e+00	 5.236499e+01
 1.025486e+00	 1.436164e+00	 5.373707e+01
 9.975153e-01	 1.455730e+00	 5.340058e+01
 9.692226e-01	 1.474718e+00	 5.235796e+01
 9.406255e-01	 1.493121e+00	 5.086614e+01
 9.117418e-01	 1.510931e+00	 4.919566e+01
 1.060137e+00	 1.425467e+00	 5.399883e+01
 1.032322e+00	 1.445738e+00	 5.473671e+01
 1.004165e+00	 1.465435e+00	 5.441062e+01
 9.756841e-01	 1.484550e+00	 5.340334e+01
 9.468963e-01	 1.503075e+00	 5.196484e+01
 9.178200e-01	 1.521004e+00	 5.035736e+01
 1.067158e+00	 1.434907e+00	 5.521595e+01
 1.039159e+00	 1.455312e+00	 5.575251e+01
 1.010815e+00	 1.475140e+00	 5.537591e+01
 9.821456e-01	 1.494381e+00	 5.433164e+01
 9.531671e-01	 1.513029e+00	 5.287880e+01
 9.238983e-01	 1.531077e+00	 5.128814e+01
 1.074179e+00	 1.444348e+00	 5.606261e+01
 1.045995e+00	 1.464887e+00	 5.677960e+01
 1.017466e+00	 1.484845e+00	 5.628963e+01
 9.886071e-01	 1.504213e+00	 5.513807e+01
 9.594380e-01	 1.522984e+00	 5.360897e+01
 9.299766e-01	 1.541150e+00	 5.199802e+01
 1.081200e+00	 1.453788e+00	 5.658435e+01
 1.052832e+00	 1.474461e+00	 5.781339e+01
 1.024116e+00	 1.494550e+00	 5.714528e+01
 9.950686e-01	 1.514044e+00	 5.581813e+01
 9.657088e-01	 1.532938e+00	 5.415638e+01
 9.360549e-01	 1.551223e+00	 5.249685e+01
 1.088220e+00	 1.463228e+00	 5.722515e+01
 1.059669e+00	 1.484036e+00	 5.884955e+01
 1.030766e+00	 1.504254e+00	 5.793664e+01
 1.001530e+00	 1.523876e+00	 5.636751e+01
 9.719797e-01	 1.542892e+00	 5.452217e+01
 9.421332e-01	 1.561296e+00	 5.279438e+01
 9.117418e-01	 1.510931e+00	 4.919566e+01
 8.825896e-01	 1.528143e+00	 4.744830e+01
 8.531873e-01	 1.544752e+00	 4.560308e+01
 8.235531e-01	 1.560752e+00	 4.374705e+01
 7.937054e-01	 1.576140e+00	 4.195565e+01
 7.636626e-01	 1.590914e+00	 4.029210e+01
 9.178200e-01	 1.521004e+00	 5.035736e+01
 8.884736e-01	 1.538331e+00	 4.863211e+01
 8.588752e-01	 1.555050e+00	 4.673283e+01
 8.290434e-01	 1.571157e+00	 4.476139e+01
 7.989967e-01	 1.586648e+00	 4.280947e+01
 7.687537e-01	 1.601520e+00	 4.095776e+01
 9.238983e-01	 1.531077e+00	 5.128814e+01
 8.943575e-01	 1.548519e+00	 4.957711e+01
 8.645631e-01	 1.565349e+00	 4.764941e+01
 8.345338e-01	 1.581562e+00	 4.560593e+01
 8.042881e-01	 1.597156e+00	 4.353791e+01
 7.738448e-01	 1.612126e+00	 4.152617e+01
 9.299766e-01	 1.541150e+00	 5.199802e+01
 9.002414e-01	 1.558706e+00	 5.030142e+01
 8.702510e-01	 1.575647e+00	 4.837422e+01
 8.400241e-01	 1.591967e+00	 4.630081e+01
 8.095795e-01	 1.607663e+00	 4.415569e+01
 7.789359e-01	 1.622732e+00	 4.200277e+01
 9.360549e-01	 1.551223e+00	 5.249685e+01
 9.061253e-01	 1.568894e+00	 5.082281e+01
 8.759389e-01	 1.585945e+00	 4.892819e+01
 8.455145e-01	 1.602372e+00	 4.686575e+01
 8.148708e-01	 1.618171e+00	 4.467724e+01
 7.840270e-01	 1.633338e+00	 4.239299e+01
 9.421332e-01	 1.561296e+00	 5.279438e+01
 9.120093e-01	 1.579082e+00	 5.115869e+01
 8.816268e-01	 1.596244e+00	 4.933184e+01
 8.510048e-01	 1.612777e+00	 4.732005e+01
 8.201622e-01	 1.628678e+00	 4.511671e+01
 7.891180e-01	 1.643944e+00	 4.270215e+01
 7.636626e-01	 1.590914e+00	 4.029210e+01
 7.334433e-01	 1.605069e+00	 3.879250e+01
 7.030656e-01	 1.618606e+00	 3.686635e+01
 6.725480e-01	 1.631523e+00	 3.376462e+01
 6.419086e-01	 1.643819e+00	 3.086387e+01
 6.111655e-01	 1.655495e+00	 2.840404e+01
 7.687537e-01	 1.601520e+00	 4.095776e+01
 7.383329e-01	 1.615770e+00	 3.927955e+01
 7.077527e-01	 1.629397e+00	 3.753649e+01
 6.770317e-01	 1.642399e+00	 3.435782e+01
 6.461880e-01	 1.654778e+00	 3.141094e+01
 6.152400e-01	 1.666532e+00	 2.893286e+01
 7.738448e-01	 1.612126e+00	 4.152617e+01
 7.432225e-01	 1.626470e+00	 3.966526e+01
 7.124398e-01	 1.640187e+00	 3.807679e+01
 6.815153e-01	 1.653276e+00	 3.478702e+01
 6.504674e-01	 1.665736e+00	 3.176303e+01
 6.193144e-01	 1.677568e+00	 2.925483e+01
 7.789359e-01	 1.622732e+00	 4.200277e+01
 7.481121e-01	 1.637171e+00	 3.994658e+01
 7.171269e-01	 1.650978e+00	 3.827881e+01
 6.859990e-01	 1.664153e+00	 3.504267e+01
 6.547468e-01	 1.676695e+00	 3.191611e+01
 6.233888e-01	 1.688605e+00	 2.937545e+01
 7.840270e-01	 1.633338e+00	 4.239299e+01
 7.530017e-01	 1.647871e+00	 4.012063e+01
 7.218140e-01	 1.661769e+00	 3.820636e+01
 6.904826e-01	 1.675030e+00	 3.511543e+01
 6.590262e-01	 1.687654e+00	 3.186622e+01
 6.274633e-01	 1.699641e+00	 2.930003e+01
 7.891180e-01	 1.643944e+00	 4.270215e+01
 7.578914e-01	 1.658572e+00	 4.018469e+01
 7.265011e-01	 1.672560e+00	 3.798243e+01
 6.949663e-01	 1.685907e+00	 3.499617e+01
 6.633056e-01	 1.698613e+00	 3.160949e+01
 6.315377e-01	 1.710678e+00	 2.903374e+01
 6.111655e-01	 1.655495e+00	 2.840404e+01
 5.803366e-01	 1.666552e+00	 2.655708e+01
 5.494395e-01	 1.676992e+00	 2.526011e+01
 5.184917e-01	 1.686817e+00	 2.438739e+01
 4.875104e-01	 1.696031e+00	 2.380616e+01
 4.565125e-01	 1.704636e+00	 2.337750e+01
 6.152400e-01	 1.666532e+00	 2.893286e+01
 5.842055e-01	 1.677663e+00	 2.708847e+01
 5.531024e-01	 1.688172e+00	 2.581155e+01
 5.219483e-01	 1.698063e+00	 2.497879e+01
 4.907604e-01	 1.707338e+00	 2.446055e+01
 4.595560e-01	 1.716000e+00	 2.412172e+01
 6.193144e-01	 1.677568e+00	 2.925483e+01
 5.880744e-01	 1.688773e+00	 2.743376e+01
 5.567653e-01	 1.699352e+00	 2.622289e+01
 5.254049e-01	 1.709308e+00	 2.548579e+01
 4.940105e-01	 1.718645e+00	 2.507974e+01
 4.625994e-01	 1.727364e+00	 2.485663e+01
 6.233888e-01	 1.688605e+00	 2.937545e+01
 5.919433e-01	 1.699883e+00	 2.760728e+01
 5.604282e-01	 1.710532e+00	 2.651228e+01
 5.288615e-01	 1.720554e+00	 2.592573e+01
 4.972606e-01	 1.729951e+00	 2.567593e+01
 4.656428e-01	 1.738728e+00	 2.558531e+01
 6.274633e-01	 1.699641e+00	 2.930003e+01
 5.958122e-01	 1.710994e+00	 2.762292e+01
 5.640912e-01	 1.721712e+00	 2.669735e+01
 5.323181e-01	 1.731799e+00	 2.631543e+01
 5.005107e-01	 1.741258e+00	 2.626093e+01
 4.686862e-01	 1.750093e+00	 2.631071e+01
 6.315377e-01	 1.710678e+00	 2.903374e+01
 5.996811e-01	 1.722104e+00	 2.749420e+01
 5.677541e-01	 1.732892e+00	 2.679525e+01
 5.357747e-01	 1.743045e+00	 2.667126e+01
 5.037607e-01	 1.752565e+00	 2.684625e+01
 4.717296e-01	 1.761457e+00	 2.703568e+01
 4.565125e-01	 1.704636e+00	 2.337750e+01
 4.255148e-01	 1.712637e+00	 2.288886e+01
 3.945335e-01	 1.720038e+00	 2.238331e+01
 3.635846e-01	 1.726845e+00	 2.209527e+01
 3.326836e-01	 1.733063e+00	 2.399872e+01
 3.018459e-01	 1.738699e+00	 2.601069e+01
 4.595560e-01	 1.716000e+00	 2.412172e+01
 4.283516e-01	 1.724054e+00	 2.375874e+01
 3.971637e-01	 1.731505e+00	 2.341062e+01
 3.660085e-01	 1.738357e+00	 2.329584e+01
 3.349015e-01	 1.744617e+00	 2.514046e+01
 3.038582e-01	 1.750291e+00	 2.719298e+01
 4.625994e-01	 1.727364e+00	 2.485663e+01
 4.311883e-01	 1.735472e+00	 2.460803e+01
 3.997939e-01	 1.742972e+00	 2.437974e+01
 3.684324e-01	 1.749869e+00	 2.439453e+01
 3.371194e-01	 1.756171e+00	 2.616515e+01
 3.058705e-01	 1.761882e+00	 2.826612e+01
 4.656428e-01	 1.738728e+00	 2.558531e+01
 4.340251e-01	 1.746889e+00	 2.543096e+01
 4.024242e-01	 1.754439e+00	 2.528008e+01
 3.708563e-01	 1.761382e+00	 2.537952e+01
 3.393373e-01	 1.767725e+00	 2.706304e+01
 3.078828e-01	 1.773473e+00	 2.922515e+01
 4.686862e-01	 1.750093e+00	 2.631071e+01
 4.368619e-01	 1.758307e+00	 2.622188e+01
 4.050544e-01	 1.765906e+00	 2.610130e+01
 3.732802e-01	 1.772894e+00	 2.623926e+01
 3.415552e-01	 1.779278e+00	 2.782461e+01
 3.098951e-01	 1.785065e+00	 3.006519e+01
 4.717296e-01	 1.761457e+00	 2.703568e+01
 4.396986e-01	 1.769724e+00	 2.697526e+01
 4.076846e-01	 1.777372e+00	 2.683329e+01
 3.757040e-01	 1.784406e+00	 2.696249e+01
 3.437731e-01	 1.790832e+00	 2.837441e+01
 3.119074e-01	 1.796656e+00	 3.033698e+01
 3.018459e-01	 1.738699e+00	 2.601069e+01
 2.710863e-01	 1.743760e+00	 2.781005e+01
 2.404192e-01	 1.748252e+00	 2.928513e+01
 2.098585e-01	 1.752183e+00	 3.005023e+01
 1.794180e-01	 1.755561e+00	 2.973937e+01
 1.491107e-01	 1.758395e+00	 2.800708e+01
 3.038582e-01	 1.750291e+00	 2.719298e+01
 2.728935e-01	 1.755385e+00	 2.891529e+01
 2.420220e-01	 1.759907e+00	 3.022194e+01
 2.112576e-01	 1.763865e+00	 3.077814e+01
 1.806141e-01	 1.767265e+00	 3.026893e+01
 1.501048e-01	 1.770118e+00	 2.839968e+01
 3.058705e-01	 1.761882e+00	 2.826612e+01
 2.747008e-01	 1.767010e+00	 2.996879e+01
 2.436247e-01	 1.771562e+00	 3.119639e+01
 2.126567e-01	 1.775546e+00	 3.163532e+01
 1.818103e-01	 1.778969e+00	 3.099232e+01
 1.510988e-01	 1.781840e+00	 2.899485e+01
 3.078828e-01	 1.773473e+00	 2.922515e+01
 2.765080e-01	 1.778635e+00	 3.097036e+01
 2.452275e-01	 1.783217e+00	 3.221104e+01
 2.140557e-01	 1.787227e+00	 3.251981e+01
 1.830064e-01	 1.790673e+00	 3.159552e+01
 1.520929e-01	 1.793563e+00	 2.939954e+01
 3.098951e-01	 1.785065e+00	 3.006519e+01
 2.783153e-01	 1.790260e+00	 3.165242e+01
 2.468303e-01	 1.794872e+00	 3.263276e+01
 2.154548e-01	 1.798908e+00	 3.280429e+01
 1.842025e-01	 1.802376e+00	 3.193181e+01
 1.530870e-01	 1.805285e+00	 2.977434e+01
 3.119074e-01	 1.796656e+00	 3.033698e+01
 2.801225e-01	 1.801885e+00	 3.184732e+01
 2.484331e-01	 1.806527e+00	 3.289317e+01
 2.168538e-01	 1.810589e+00	 3.318420e+01
 1.853986e-01	 1.814080e+00	 3.242380e+01
 1.540811e-01	 1.817008e+00	 3.031086e+01
 1.491107e-01	 1.758395e+00	 2.800708e+01
 1.189493e-01	 1.760692e+00	 2.524475e+01
 8.894600e-02	 1.762463e+00	 2.270351e+01
 5.911257e-02	 1.763716e+00	 2.133349e+01
 2.946030e-02	 1.764460e+00	 2.206898e+01
 0.000000e+00	 1.764706e+00	 2.582521e+01
 1.501048e-01	 1.770118e+00	 2.839968e+01
 1.197423e-01	 1.772430e+00	 2.559429e+01
 8.953897e-02	 1.774213e+00	 2.306015e+01
 5.950666e-02	 1.775474e+00	 2.168436e+01
 2.965671e-02	 1.776223e+00	 2.233944e+01
 0.000000e+00	 1.776471e+00	 2.588036e+01
 1.510988e-01	 1.781840e+00	 2.899485e+01
 1.205353e-01	 1.784168e+00	 2.607826e+01
 9.013195e-02	 1.785962e+00	 2.342866e+01
 5.990074e-02	 1.787232e+00	 2.196182e+01
 2.985311e-02	 1.787986e+00	 2.253679e+01
 0.000000e+00	 1.788235e+00	 2.593241e+01
 1.520929e-01	 1.793563e+00	 2.939954e+01
 1.213283e-01	 1.795906e+00	 2.640180e+01
 9.072492e-02	 1.797712e+00	 2.380583e+01
 6.029483e-02	 1.798990e+00	 2.247237e+01
 3.004951e-02	 1.799749e+00	 2.322393e+01
 0.000000e+00	 1.800000e+00	 2.684340e+01
 1.530870e-01	 1.805285e+00	 2.977434e+01
 1.221213e-01	 1.807644e+00	 2.677313e+01
 9.131789e-02	 1.809462e+00	 2.415309e+01
 6.068891e-02	 1.810748e+00	 2.281597e+01
 3.024591e-02	 1.811512e+00	 2.362309e+01
 0.000000e+00	 1.811765e+00	 2.739379e+01
 1.540811e-01	 1.817008e+00	 3.031086e+01
 1.229143e-01	 1.819382e+00	 2.723895e+01
 9.191087e-02	 1.821212e+00	 2.447601e+01
 6.108299e-02	 1.822506e+00	 2.299859e+01
 3.044231e-02	 1.823275e+00	 2.373963e+01
 0.000000e+00	 1.823529e+00	 2.758669e+01
 1.823529e+00	 0.000000e+00	-1.505465e+01
 1.823275e+00	 3.044231e-02	-1.190517e+01
 1.822506e+00	 6.108299e-02	-9.299923e+00
 1.821212e+00	 9.191087e-02	-7.613794e+00
 1.819382e+00	 1.229143e-01	-7.197545e+00
 1.817008e+00	 1.540811e-01	-8.374715e+00
 1.835294e+00	 0.000000e+00	-1.307326e+01
 1.835038e+00	 3.063872e-02	-1.044564e+01
 1.834264e+00	 6.147708e-02	-8.164211e+00
 1.832961e+00	 9.250384e-02	-6.625776e+00
 1.831120e+00	 1.237073e-01	-6.204352e+00
 1.828731e+00	 1.550751e-01	-7.247967e+00
 1.847059e+00	 0.000000e+00	-1.118209e+01
 1.846801e+00	 3.083512e-02	-9.014585e+00
 1.846022e+00	 6.187116e-02	-7.032111e+00
 1.844711e+00	 9.309681e-02	-5.640337e+00
 1.842858e+00	 1.245003e-01	-5.223444e+00
 1.840453e+00	 1.560692e-01	-6.140930e+00
 1.858824e+00	 0.000000e+00	-9.384681e+00
 1.858564e+00	 3.103152e-02	-7.610492e+00
 1.857780e+00	 6.226524e-02	-5.898756e+00
 1.856461e+00	 9.368979e-02	-4.651180e+00
 1.854596e+00	 1.252933e-01	-4.249293e+00
 1.852176e+00	 1.570633e-01	-5.051314e+00
 1.870588e+00	 0.000000e+00	-7.684487e+00
 1.870328e+00	 3.122792e-02	-6.231902e+00
 1.869538e+00	 6.265933e-02	-4.759395e+00
 1.868211e+00	 9.428276e-02	-3.652154e+00
 1.866334e+00	 1.260863e-01	-3.276500e+00
 1.863899e+00	 1.580573e-01	-3.976871e+00
 1.882353e+00	 0.000000e+00	-6.084880e+00
 1.882091e+00	 3.142432e-02	-4.877384e+00
 1.881297e+00	 6.305341e-02	-3.609389e+00
 1.879960e+00	 9.487573e-02	-2.637254e+00
 1.878072e+00	 1.268792e-01	-2.299783e+00
 1.875621e+00	 1.590514e-01	-2.915389e+00
 1.817008e+00	 1.540811e-01	-8.374715e+00
 1.814080e+00	 1.853986e-01	-1.009218e+01
 1.810589e+00	 2.168538e-01	-1.099450e+01
 1.806527e+00	 2.484331e-01	-1.092912e+01
 1.801885e+00	 2.801225e-01	-9.743324e+00
 1.796656e+00	 3.119074e-01	-7.284491e+00
 1.828731e+00	 1.550751e-01	-7.247967e+00
 1.825784e+00	 1.865947e-01	-8.829603e+00
 1.822271e+00	 2.182529e-01	-9.686648e+00
 1.818182e+00	 2.500359e-01	-9.641896e+00
 1.813510e+00	 2.819297e-01	-8.517888e+00
 1.808247e+00	 3.139198e-01	-6.137339e+00
 1.840453e+00	 1.560692e-01	-6.140930e+00
 1.837488e+00	 1.877909e-01	-7.581398e+00
 1.833952e+00	 2.196519e-01	-8.378630e+00
 1.829837e+00	 2.516387e-01	-8.338868e+00
 1.825136e+00	 2.837370e-01	-7.267970e+00
 1.819839e+00	 3.159321e-01	-4.971919e+00
 1.852176e+00	 1.570633e-01	-5.051314e+00
 1.849191e+00	 1.889870e-01	-6.349280e+00
 1.845633e+00	 2.210510e-01	-7.074946e+00
 1.841492e+00	 2.532415e-01	-7.025959e+00
 1.836761e+00	 2.855442e-01	-5.999383e+00
 1.831430e+00	 3.179444e-01	-3.792242e+00
 1.863899e+00	 1.580573e-01	-3.976871e+00
 1.860895e+00	 1.901831e-01	-5.134900e+00
 1.857314e+00	 2.224501e-01	-5.779964e+00
 1.853147e+00	 2.548443e-01	-5.708916e+00
 1.848386e+00	 2.873515e-01	-4.717758e+00
 1.843021e+00	 3.199567e-01	-2.602186e+00
 1.875621e+00	 1.590514e-01	-2.915389e+00
 1.872599e+00	 1.913792e-01	-3.939846e+00
 1.868995e+00	 2.238491e-01	-4.497918e+00
 1.864802e+00	 2.564471e-01	-4.393315e+00
 1.860011e+00	 2.891587e-01	-3.428563e+00
 1.854613e+00	 3.219690e-01	-1.405500e+00
 1.796656e+00	 3.119074e-01	-7.284491e+00
 1.790832e+00	 3.437731e-01	-3.807663e+00
 1.784406e+00	 3.757040e-01	-1.838662e+00
 1.777372e+00	 4.076846e-01	-9.700609e-01
 1.769724e+00	 4.396986e-01	-1.132959e-01
 1.761457e+00	 4.717296e-01	 7.345648e-01
 1.808247e+00	 3.139198e-01	-6.137339e+00
 1.802386e+00	 3.459910e-01	-2.734492e+00
 1.795919e+00	 3.781279e-01	-1.080916e+00
 1.788839e+00	 4.103148e-01	-5.811458e-01
 1.781142e+00	 4.425354e-01	 2.798883e-01
 1.772821e+00	 4.747731e-01	 1.336822e+00
 1.819839e+00	 3.159321e-01	-4.971919e+00
 1.813940e+00	 3.482089e-01	-1.662776e+00
 1.807431e+00	 3.805518e-01	-2.089125e-01
 1.800306e+00	 4.129451e-01	 3.975999e-01
 1.792560e+00	 4.453722e-01	 1.027537e+00
 1.784185e+00	 4.778165e-01	 1.766694e+00
 1.831430e+00	 3.179444e-01	-3.792242e+00
 1.825493e+00	 3.504268e-01	-5.947606e-01
 1.818943e+00	 3.829757e-01	 6.683482e-01
 1.811773e+00	 4.155753e-01	 1.356146e+00
 1.803977e+00	 4.482089e-01	 2.066008e+00
 1.795550e+00	 4.808599e-01	 2.771792e+00
 1.843021e+00	 3.199567e-01	-2.602186e+00
 1.837047e+00	 3.526446e-01	 4.673986e-01
 1.830456e+00	 3.853996e-01	 1.546697e+00
 1.823240e+00	 4.182055e-01	 2.288044e+00
 1.815395e+00	 4.510457e-01	 3.053948e+00
 1.806914e+00	 4.839033e-01	 3.820075e+00
 1.854613e+00	 3.219690e-01	-1.405500e+00
 1.848601e+00	 3.548625e-01	 1.521634e+00
 1.841968e+00	 3.878235e-01	 2.422059e+00
 1.834707e+00	 4.208357e-01	 3.186996e+00
 1.826812e+00	 4.538825e-01	 3.980784e+00
 1.818278e+00	 4.869467e-01	 4.785406e+00
 1.761457e+00	 4.717296e-01	 7.345648e-01
 1.752565e+00	 5.037607e-01	 1.598348e+00
 1.743045e+00	 5.357747e-01	 2.510522e+00
 1.732892e+00	 5.677541e-01	 3.489458e+00
 1.722104e+00	 5.996811e-01	 4.564404e+00
 1.710678e+00	 6.315377e-01	 5.776287e+00
 1.772821e+00	 4.747731e-01	 1.336822e+00
 1.763872e+00	 5.070108e-01	 2.378258e+00
 1.754290e+00	 5.392313e-01	 3.454831e+00
 1.744072e+00	 5.714170e-01	 4.575357e+00
 1.733214e+00	 6.035500e-01	 5.756092e+00
 1.721715e+00	 6.356121e-01	 7.021488e+00
 1.784185e+00	 4.778165e-01	 1.766694e+00
 1.775179e+00	 5.102609e-01	 3.003854e+00
 1.765536e+00	 5.426879e-01	 4.254319e+00
 1.755252e+00	 5.750800e-01	 5.518451e+00
 1.744325e+00	 6.074189e-01	 6.801580e+00
 1.732751e+00	 6.396866e-01	 8.114740e+00
 1.795550e+00	 4.808599e-01	 2.771792e+00
 1.786486e+00	 5.135109e-01	 3.510749e+00
 1.776781e+00	 5.461445e-01	 4.889849e+00
 1.766432e+00	 5.787429e-01	 6.303173e+00
 1.755435e+00	 6.112878e-01	 7.693335e+00
 1.743788e+00	 6.437610e-01	 9.060983e+00
 1.806914e+00	 4.839033e-01	 3.820075e+00
 1.797793e+00	 5.167610e-01	 4.623190e+00
 1.788027e+00	 5.496012e-01	 5.499328e+00
 1.777612e+00	 5.824058e-01	 6.914480e+00
 1.766545e+00	 6.151568e-01	 8.424154e+00
 1.754825e+00	 6.478354e-01	 9.865178e+00
 1.818278e+00	 4.869467e-01	 4.785406e+00
 1.809100e+00	 5.200111e-01	 5.637961e+00
 1.799272e+00	 5.530578e-01	 6.568214e+00
 1.788792e+00	 5.860688e-01	 7.538380e+00
 1.777656e+00	 6.190257e-01	 8.987154e+00
 1.765861e+00	 6.519099e-01	 1.053231e+01
 1.710678e+00	 6.315377e-01	 5.776287e+00
 1.698613e+00	 6.633056e-01	 7.066140e+00
 1.685907e+00	 6.949663e-01	 8.416162e+00
 1.672560e+00	 7.265011e-01	 9.417253e+00
 1.658572e+00	 7.578914e-01	 9.740105e+00
 1.643944e+00	 7.891180e-01	 1.029865e+01
 1.721715e+00	 6.356121e-01	 7.021488e+00
 1.709572e+00	 6.675850e-01	 8.315727e+00
 1.696784e+00	 6.994499e-01	 9.643789e+00
 1.683350e+00	 7.311882e-01	 1.044133e+01
 1.669272e+00	 7.627810e-01	 1.077990e+01
 1.654550e+00	 7.942091e-01	 1.138037e+01
 1.732751e+00	 6.396866e-01	 8.114740e+00
 1.720530e+00	 6.718644e-01	 9.418564e+00
 1.707660e+00	 7.039336e-01	 1.074737e+01
 1.694141e+00	 7.358753e-01	 1.139159e+01
 1.679973e+00	 7.676706e-01	 1.177761e+01
 1.665156e+00	 7.993002e-01	 1.244379e+01
 1.743788e+00	 6.437610e-01	 9.060983e+00
 1.731489e+00	 6.761438e-01	 1.039143e+01
 1.718537e+00	 7.084172e-01	 1.174992e+01
 1.704932e+00	 7.405624e-01	 1.228944e+01
 1.690673e+00	 7.725602e-01	 1.275001e+01
 1.675762e+00	 8.043913e-01	 1.349589e+01
 1.754825e+00	 6.478354e-01	 9.865178e+00
 1.742448e+00	 6.804231e-01	 1.125083e+01
 1.729414e+00	 7.129009e-01	 1.267403e+01
 1.715722e+00	 7.452496e-01	 1.315586e+01
 1.701374e+00	 7.774498e-01	 1.371354e+01
 1.686368e+00	 8.094824e-01	 1.454354e+01
 1.765861e+00	 6.519099e-01	 1.053231e+01
 1.753407e+00	 6.847025e-01	 1.201301e+01
 1.740291e+00	 7.173845e-01	 1.344418e+01
 1.726513e+00	 7.499367e-01	 1.401139e+01
 1.712074e+00	 7.823395e-01	 1.468434e+01
 1.696975e+00	 8.145735e-01	 1.559356e+01
 1.643944e+00	 7.891180e-01	 1.029865e+01
 1.628678e+00	 8.201622e-01	 1.118674e+01
 1.612777e+00	 8.510048e-01	 1.241847e+01
 1.596244e+00	 8.816268e-01	 1.402315e+01
 1.579082e+00	 9.120093e-01	 1.603019e+01
 1.561296e+00	 9.421332e-01	 1.846921e+01
 1.654550e+00	 7.942091e-01	 1.138037e+01
 1.639186e+00	 8.254536e-01	 1.231576e+01
 1.623182e+00	 8.564952e-01	 1.356330e+01
 1.606542e+00	 8.873148e-01	 1.514827e+01
 1.589269e+00	 9.178932e-01	 1.709575e+01
 1.571369e+00	 9.482114e-01	 1.943077e+01
 1.665156e+00	 7.993002e-01	 1.244379e+01
 1.649694e+00	 8.307449e-01	 1.343065e+01
 1.633587e+00	 8.619855e-01	 1.467862e+01
 1.616840e+00	 8.930027e-01	 1.621666e+01
 1.599457e+00	 9.237771e-01	 1.807425e+01
 1.581442e+00	 9.542897e-01	 2.028155e+01
 1.675762e+00	 8.043913e-01	 1.349589e+01
 1.660201e+00	 8.360363e-01	 1.452818e+01
 1.643992e+00	 8.674759e-01	 1.575529e+01
 1.627139e+00	 8.986906e-01	 1.721736e+01
 1.609644e+00	 9.296611e-01	 1.895684e+01
 1.591514e+00	 9.603680e-01	 2.101862e+01
 1.686368e+00	 8.094824e-01	 1.454354e+01
 1.670709e+00	 8.413277e-01	 1.560533e+01
 1.654397e+00	 8.729662e-01	 1.678451e+01
 1.637437e+00	 9.043785e-01	 1.813979e+01
 1.619832e+00	 9.355450e-01	 1.973502e+01
 1.601587e+00	 9.664463e-01	 2.163920e+01
 1.696975e+00	 8.145735e-01	 1.559356e+01
 1.681216e+00	 8.466191e-01	 1.665925e+01
 1.664802e+00	 8.784566e-01	 1.775779e+01
 1.647735e+00	 9.100664e-01	 1.897374e+01
 1.630020e+00	 9.414289e-01	 2.040059e+01
 1.611660e+00	 9.725246e-01	 2.214071e+01
 1.561296e+00	 9.421332e-01	 1.846921e+01
 1.542892e+00	 9.719797e-01	 2.133912e+01
 1.523876e+00	 1.001530e+00	 2.476273e+01
 1.504254e+00	 1.030766e+00	 2.896753e+01
 1.484036e+00	 1.059669e+00	 3.419600e+01
 1.463228e+00	 1.088220e+00	 3.812992e+01
 1.571369e+00	 9.482114e-01	 1.943077e+01
 1.552846e+00	 9.782505e-01	 2.218181e+01
 1.533707e+00	 1.007992e+00	 2.550637e+01
 1.513959e+00	 1.037416e+00	 2.963559e+01
 1.493610e+00	 1.066505e+00	 3.481665e+01
 1.472668e+00	 1.095241e+00	 3.797052e+01
 1.581442e+00	 9.542897e-01	 2.028155e+01
 1.562800e+00	 9.845213e-01	 2.290548e+01
 1.543539e+00	 1.014453e+00	 2.613601e+01
 1.523664e+00	 1.044066e+00	 3.020132e+01
 1.503185e+00	 1.073342e+00	 3.515415e+01
 1.482108e+00	 1.102262e+00	 3.789093e+01
 1.591514e+00	 9.603680e-01	 2.101862e+01
 1.572754e+00	 9.907922e-01	 2.351317e+01
 1.553370e+00	 1.020915e+00	 2.665735e+01
 1.533369e+00	 1.050716e+00	 3.066990e+01
 1.512759e+00	 1.080178e+00	 3.500565e+01
 1.491548e+00	 1.109283e+00	 3.787684e+01
 1.601587e+00	 9.664463e-01	 2.163920e+01
 1.582708e+00	 9.970630e-01	 2.400797e+01
 1.563201e+00	 1.027376e+00	 2.707609e+01
 1.543074e+00	 1.057366e+00	 3.104647e+01
 1.522333e+00	 1.087015e+00	 3.491406e+01
 1.500989e+00	 1.116303e+00	 3.791418e+01
 1.611660e+00	 9.725246e-01	 2.214071e+01
 1.592662e+00	 1.003334e+00	 2.439302e+01
 1.573033e+00	 1.033837e+00	 2.739788e+01
 1.552779e+00	 1.064016e+00	 3.133615e+01
 1.531908e+00	 1.093851e+00	 3.487173e+01
 1.510429e+00	 1.123324e+00	 3.798913e+01
 1.463228e+00	 1.088220e+00	 3.812992e+01
 1.441840e+00	 1.116403e+00	 4.085179e+01
 1.419883e+00	 1.144200e+00	 4.361315e+01
 1.397365e+00	 1.171593e+00	 4.555132e+01
 1.374300e+00	 1.198566e+00	 4.724826e+01
 1.350698e+00	 1.225102e+00	 4.873746e+01
 1.472668e+00	 1.095241e+00	 3.797052e+01
 1.451142e+00	 1.123606e+00	 4.082253e+01
 1.429043e+00	 1.151582e+00	 4.414065e+01
 1.406381e+00	 1.179151e+00	 4.632207e+01
 1.383166e+00	 1.206298e+00	 4.808755e+01
 1.359412e+00	 1.233006e+00	 4.947744e+01
 1.482108e+00	 1.102262e+00	 3.789093e+01
 1.460445e+00	 1.130808e+00	 4.086193e+01
 1.438204e+00	 1.158964e+00	 4.422514e+01
 1.415396e+00	 1.186710e+00	 4.696690e+01
 1.392033e+00	 1.214031e+00	 4.876056e+01
 1.368126e+00	 1.240910e+00	 5.002538e+01
 1.491548e+00	 1.109283e+00	 3.787684e+01
 1.469747e+00	 1.138011e+00	 4.095026e+01
 1.447364e+00	 1.166346e+00	 4.432932e+01
 1.424411e+00	 1.194269e+00	 4.748378e+01
 1.400899e+00	 1.221764e+00	 4.927370e+01
 1.376840e+00	 1.248814e+00	 5.040040e+01
 1.500989e+00	 1.116303e+00	 3.791418e+01
 1.479049e+00	 1.145214e+00	 4.106816e+01
 1.456525e+00	 1.173727e+00	 4.443333e+01
 1.433426e+00	 1.201827e+00	 4.767741e+01
 1.409766e+00	 1.229496e+00	 4.963345e+01
 1.385555e+00	 1.256718e+00	 5.062134e+01
 1.510429e+00	 1.123324e+00	 3.798913e+01
 1.488351e+00	 1.152416e+00	 4.119665e+01
 1.465685e+00	 1.181109e+00	 4.451768e+01
 1.442442e+00	 1.209386e+00	 4.763983e+01
 1.418632e+00	 1.237229e+00	 4.984638e+01
 1.394269e+00	 1.264621e+00	 5.070680e+01
 1.350698e+00	 1.225102e+00	 4.873746e+01
 1.326572e+00	 1.251186e+00	 4.957390e+01
 1.301936e+00	 1.276802e+00	 4.950667e+01
 1.276802e+00	 1.301936e+00	 4.888233e+01
 1.251186e+00	 1.326572e+00	 4.807191e+01
 1.225102e+00	 1.350698e+00	 4.746827e+01
 1.359412e+00	 1.233006e+00	 4.947744e+01
 1.335131e+00	 1.259258e+00	 5.009877e+01
 1.310335e+00	 1.285039e+00	 4.979262e+01
 1.285039e+00	 1.310335e+00	 4.895098e+01
 1.259258e+00	 1.335131e+00	 4.799402e+01
 1.233006e+00	 1.359412e+00	 4.736719e+01
 1.368126e+00	 1.240910e+00	 5.002538e+01
 1.343689e+00	 1.267330e+00	 5.043851e+01
 1.318735e+00	 1.293277e+00	 4.993072e+01
 1.293277e+00	 1.318735e+00	 4.892110e+01
 1.267330e+00	 1.343689e+00	 4.785892e+01
 1.240910e+00	 1.368126e+00	 4.722051e+01
 1.376840e+00	 1.248814e+00	 5.040040e+01
 1.352248e+00	 1.275402e+00	 5.062298e+01
 1.327134e+00	 1.301514e+00	 4.995388e+01
 1.301514e+00	 1.327134e+00	 4.882133e+01
 1.275402e+00	 1.352248e+00	 4.768399e+01
 1.248814e+00	 1.376840e+00	 4.702780e+01
 1.385555e+00	 1.256718e+00	 5.062134e+01
 1.360806e+00	 1.283475e+00	 5.068152e+01
 1.335534e+00	 1.309752e+00	 4.989444e+01
 1.309752e+00	 1.335534e+00	 4.867982e+01
 1.283475e+00	 1.360806e+00	 4.748642e+01
 1.256718e+00	 1.385555e+00	 4.678886e+01
 1.394269e+00	 1.264621e+00	 5.070680e+01
 1.369365e+00	 1.291547e+00	 5.064297e+01
 1.343933e+00	 1.317989e+00	 4.978411e+01
 1.317989e+00	 1.343933e+00	 4.852422e+01
 1.291547e+00	 1.369365e+00	 4.728315e+01
 1.264621e+00	 1.394269e+00	 4.650370e+01
 1.225102e+00	 1.350698e+00	 4.746827e+01
 1.198566e+00	 1.374300e+00	 4.744550e+01
 1.171593e+00	 1.397365e+00	 4.822620e+01
 1.144200e+00	 1.419883e+00	 4.998088e+01
 1.116403e+00	 1.441840e+00	 5.361651e+01
 1.088220e+00	 1.463228e+00	 5.722515e+01
 1.233006e+00	 1.359412e+00	 4.736719e+01
 1.206298e+00	 1.383166e+00	 4.741902e+01
 1.179151e+00	 1.406381e+00	 4.828520e+01
 1.151582e+00	 1.429043e+00	 5.014880e+01
 1.123606e+00	 1.451142e+00	 5.450273e+01
 1.095241e+00	 1.472668e+00	 5.781817e+01
 1.240910e+00	 1.368126e+00	 4.722051e+01
 1.214031e+00	 1.392033e+00	 4.730549e+01
 1.186710e+00	 1.415396e+00	 4.817082e+01
 1.158964e+00	 1.438204e+00	 5.107733e+01
 1.130808e+00	 1.460445e+00	 5.521364e+01
 1.102262e+00	 1.482108e+00	 5.820110e+01
 1.248814e+00	 1.376840e+00	 4.702780e+01
 1.221764e+00	 1.400899e+00	 4.708846e+01
 1.194269e+00	 1.424411e+00	 4.786017e+01
 1.166346e+00	 1.447364e+00	 5.187441e+01
 1.138011e+00	 1.469747e+00	 5.573021e+01
 1.109283e+00	 1.491548e+00	 5.837447e+01
 1.256718e+00	 1.385555e+00	 4.678886e+01
 1.229496e+00	 1.409766e+00	 4.675213e+01
 1.201827e+00	 1.433426e+00	 4.813254e+01
 1.173727e+00	 1.456525e+00	 5.251012e+01
 1.145214e+00	 1.479049e+00	 5.603381e+01
 1.116303e+00	 1.500989e+00	 5.833872e+01
 1.264621e+00	 1.394269e+00	 4.650370e+01
 1.237229e+00	 1.418632e+00	 4.628127e+01
 1.209386e+00	 1.442442e+00	 4.894649e+01
 1.181109e+00	 1.465685e+00	 5.295524e+01
 1.152416e+00	 1.488351e+00	 5.610621e+01
 1.123324e+00	 1.510429e+00	 5.809422e+01
 1.088220e+00	 1.463228e+00	 5.722515e+01
 1.059669e+00	 1.484036e+00	 5.884955e+01
 1.030766e+00	 1.504254e+00	 5.793664e+01
 1.001530e+00	 1.523876e+00	 5.636751e+01
 9.719797e-01	 1.542892e+00	 5.452217e+01
 9.421332e-01	 1.561296e+00	 5.279438e+01
 1.095241e+00	 1.472668e+00	 5.781817e+01
 1.066505e+00	 1.493610e+00	 5.975449e+01
 1.037416e+00	 1.513959e+00	 5.859223e+01
 1.007992e+00	 1.533707e+00	 5.679168e+01
 9.782505e-01	 1.552846e+00	 5.478025e+01
 9.482114e-01	 1.571369e+00	 5.299992e+01
 1.102262e+00	 1.482108e+00	 5.820110e+01
 1.073342e+00	 1.503185e+00	 6.023598e+01
 1.044066e+00	 1.523664e+00	 5.906767e+01
 1.014453e+00	 1.543539e+00	 5.712092e+01
 9.845213e-01	 1.562800e+00	 5.501884e+01
 9.542897e-01	 1.581442e+00	 5.321892e+01
 1.109283e+00	 1.491548e+00	 5.837447e+01
 1.080178e+00	 1.512759e+00	 6.007327e+01
 1.050716e+00	 1.533369e+00	 5.939715e+01
 1.020915e+00	 1.553370e+00	 5.738789e+01
 9.907922e-01	 1.572754e+00	 5.526026e+01
 9.603680e-01	 1.591514e+00	 5.345523e+01
 1.116303e+00	 1.500989e+00	 5.833872e+01
 1.087015e+00	 1.522333e+00	 5.976711e+01
 1.057366e+00	 1.543074e+00	 5.961409e+01
 1.027376e+00	 1.563201e+00	 5.762453e+01
 9.970630e-01	 1.582708e+00	 5.552643e+01
 9.664463e-01	 1.601587e+00	 5.371272e+01
 1.123324e+00	 1.510429e+00	 5.809422e+01
 1.093851e+00	 1.531908e+00	 5.933517e+01
 1.064016e+00	 1.552779e+00	 5.975123e+01
 1.033837e+00	 1.573033e+00	 5.786212e+01
 1.003334e+00	 1.592662e+00	 5.583878e+01
 9.725246e-01	 1.611660e+00	 5.399529e+01
 9.421332e-01	 1.561296e+00	 5.279438e+01
 9.120093e-01	 1.579082e+00	 5.115869e+01
 8.816268e-01	 1.596244e+00	 4.933184e+01
 8.510048e-01	 1.612777e+00	 4.732005e+01
 8.201622e-01	 1.628678e+00	 4.511671e+01
 7.891180e-01	 1.643944e+00	 4.270215e+01
 9.482114e-01	 1.571369e+00	 5.299992e+01
 9.178932e-01	 1.589269e+00	 5.140149e+01
 8.873148e-01	 1.606542e+00	 4.962120e+01
 8.564952e-01	 1.623182e+00	 4.762760e+01
 8.254536e-01	 1.639186e+00	 4.537507e+01
 7.942091e-01	 1.654550e+00	 4.280381e+01
 9.542897e-01	 1.581442e+00	 5.321892e+01
 9.237771e-01	 1.599457e+00	 5.162312e+01
 8.930027e-01	 1.616840e+00	 4.980498e+01
 8.619855e-01	 1.633587e+00	 4.772733e+01
 8.307449e-01	 1.649694e+00	 4.533928e+01
 7.993002e-01	 1.665156e+00	 4.257624e+01
 9.603680e-01	 1.591514e+00	 5.345523e+01
 9.296611e-01	 1.609644e+00	 5.181031e+01
 8.986906e-01	 1.627139e+00	 4.986285e+01
 8.674759e-01	 1.643992e+00	 4.760124e+01
 8.360363e-01	 1.660201e+00	 4.500240e+01
 8.043913e-01	 1.675762e+00	 4.203167e+01
 9.664463e-01	 1.601587e+00	 5.371272e+01
 9.355450e-01	 1.619832e+00	 5.195024e+01
 9.043785e-01	 1.637437e+00	 4.977508e+01
 8.729662e-01	 1.654397e+00	 4.723187e+01
 8.413277e-01	 1.670709e+00	 4.435781e+01
 8.094824e-01	 1.686368e+00	 4.118214e+01
 9.725246e-01	 1.611660e+00	 5.399529e+01
 9.414289e-01	 1.630020e+00	 5.203053e+01
 9.100664e-01	 1.647735e+00	 4.952255e+01
 8.784566e-01	 1.664802e+00	 4.660231e+01
 8.466191e-01	 1.681216e+00	 4.339911e+01
 8.145735e-01	 1.696975e+00	 4.003946e+01
 7.891180e-01	 1.643944e+00	 4.270215e+01
 7.578914e-01	 1.658572e+00	 4.018469e+01
 7.265011e-01	 1.672560e+00	 3.798243e+01
 6.949663e-01	 1.685907e+00	 3.499617e+01
 6.633056e-01	 1.698613e+00	 3.160949e+01
 6.315377e-01	 1.710678e+00	 2.903374e+01
 7.942091e-01	 1.654550e+00	 4.280381e+01
 7.627810e-01	 1.669272e+00	 4.004047e+01
 7.311882e-01	 1.683350e+00	 3.757775e+01
 6.994499e-01	 1.696784e+00	 3.473507e+01
 6.675850e-01	 1.709572e+00	 3.126638e+01
 6.356121e-01	 1.721715e+00	 2.872530e+01
 7.993002e-01	 1.665156e+00	 4.257624e+01
 7.676706e-01	 1.679973e+00	 3.961148e+01
 7.358753e-01	 1.694141e+00	 3.699153e+01
 7.039336e-01	 1.707660e+00	 3.440779e+01
 6.718644e-01	 1.720530e+00	 3.097095e+01
 6.396866e-01	 1.732751e+00	 2.851695e+01
 8.043913e-01	 1.675762e+00	 4.203167e+01
 7.725602e-01	 1.690673e+00	 3.892729e+01
 7.405624e-01	 1.704932e+00	 3.625989e+01
 7.084172e-01	 1.718537e+00	 3.404300e+01
 6.761438e-01	 1.731489e+00	 3.073939e+01
 6.437610e-01	 1.743788e+00	 2.840400e+01
 8.094824e-01	 1.686368e+00	 4.118214e+01
 7.774498e-01	 1.701374e+00	 3.801680e+01
 7.452496e-01	 1.715722e+00	 3.541812e+01
 7.129009e-01	 1.729414e+00	 3.366864e+01
 6.804231e-01	 1.742448e+00	 3.058745e+01
 6.478354e-01	 1.754825e+00	 2.838187e+01
 8.145735e-01	 1.696975e+00	 4.003946e+01
 7.823395e-01	 1.712074e+00	 3.690827e+01
 7.499367e-01	 1.726513e+00	 3.450069e+01
 7.173845e-01	 1.740291e+00	 3.309486e+01
 6.847025e-01	 1.753407e+00	 3.053049e+01
 6.519099e-01	 1.765861e+00	 2.844607e+01
 6.315377e-01	 1.710678e+00	 2.903374e+01
 5.996811e-01	 1.722104e+00	 2.749420e+01
 5.677541e-01	 1.732892e+00	 2.679525e+01
 5.357747e-01	 1.743045e+00	 2.667126e+01
 5.037607e-01	 1.752565e+00	 2.684625e+01
 4.717296e-01	 1.761457e+00	 2.703568e+01
 6.356121e-01	 1.721715e+00	 2.872530e+01
 6.035500e-01	 1.733214e+00	 2.733427e+01
 5.714170e-01	 1.744072e+00	 2.683635e+01
 5.392313e-01	 1.754290e+00	 2.692275e+01
 5.070108e-01	 1.763872e+00	 2.727261e+01
 4.747731e-01	 1.772821e+00	 2.755508e+01
 6.396866e-01	 1.732751e+00	 2.851695e+01
 6.074189e-01	 1.744325e+00	 2.723110e+01
 5.750800e-01	 1.755252e+00	 2.681715e+01
 5.426879e-01	 1.765536e+00	 2.696611e+01
 5.102609e-01	 1.775179e+00	 2.735638e+01
 4.778165e-01	 1.784185e+00	 2.765596e+01
 6.437610e-01	 1.743788e+00	 2.840400e+01
 6.112878e-01	 1.755435e+00	 2.716058e+01
 5.787429e-01	 1.766432e+00	 2.670431e+01
 5.461445e-01	 1.776781e+00	 2.676803e+01
 5.135109e-01	 1.786486e+00	 2.719346e+01
 4.808599e-01	 1.795550e+00	 2.856623e+01
 6.478354e-01	 1.754825e+00	 2.838187e+01
 6.151568e-01	 1.766545e+00	 2.709921e+01
 5.824058e-01	 1.777612e+00	 2.646528e+01
 5.496012e-01	 1.788027e+00	 2.673194e+01
 5.167610e-01	 1.797793e+00	 2.831969e+01
 4.839033e-01	 1.806914e+00	 2.928079e+01
 6.519099e-01	 1.765861e+00	 2.844607e+01
 6.190257e-01	 1.777656e+00	 2.702401e+01
 5.860688e-01	 1.788792e+00	 2.674401e+01
 5.530578e-01	 1.799272e+00	 2.811687e+01
 5.200111e-01	 1.809100e+00	 2.909276e+01
 4.869467e-01	 1.818278e+00	 2.960435e+01
 4.717296e-01	 1.761457e+00	 2.703568e+01
 4.396986e-01	 1.769724e+00	 2.697526e+01
 4.076846e-01	 1.777372e+00	 2.683329e+01
 3.757040e-01	 1.784406e+00	 2.696249e+01
 3.437731e-01	 1.790832e+00	 2.837441e+01
 3.119074e-01	 1.796656e+00	 3.033698e+01
 4.747731e-01	 1.772821e+00	 2.755508e+01
 4.425354e-01	 1.781142e+00	 2.750632e+01
 4.103148e-01	 1.788839e+00	 2.753859e+01
 3.781279e-01	 1.795919e+00	 2.775156e+01
 3.459910e-01	 1.802386e+00	 2.875219e+01
 3.139198e-01	 1.808247e+00	 3.054194e+01
 4.778165e-01	 1.784185e+00	 2.765596e+01
 4.453722e-01	 1.792560e+00	 2.826593e+01
 4.129451e-01	 1.800306e+00	 2.843528e+01
 3.805518e-01	 1.807431e+00	 2.842171e+01
 3.482089e-01	 1.813940e+00	 2.911884e+01
 3.159321e-01	 1.819839e+00	 3.081846e+01
 4.808599e-01	 1.795550e+00	 2.856623e+01
 4.482089e-01	 1.803977e+00	 2.908546e+01
 4.155753e-01	 1.811773e+00	 2.907844e+01
 3.829757e-01	 1.818943e+00	 2.896836e+01
 3.504268e-01	 1.825493e+00	 2.949756e+01
 3.179444e-01	 1.831430e+00	 3.118573e+01
 4.839033e-01	 1.806914e+00	 2.928079e+01
 4.510457e-01	 1.815395e+00	 2.956301e+01
 4.182055e-01	 1.823240e+00	 2.948677e+01
 3.853996e-01	 1.830456e+00	 2.941458e+01
 3.526446e-01	 1.837047e+00	 2.991096e+01
 3.199567e-01	 1.843021e+00	 3.166247e+01
 4.869467e-01	 1.818278e+00	 2.960435e+01
 4.538825e-01	 1.826812e+00	 2.970742e+01
 4.208357e-01	 1.834707e+00	 2.967851e+01
 3.878235e-01	 1.841968e+00	 2.978292e+01
 3.548625e-01	 1.848601e+00	 3.038110e+01
 3.219690e-01	 1.854613e+00	 3.226694e+01
 3.119074e-01	 1.796656e+00	 3.033698e+01
 2.801225e-01	 1.801885e+00	 3.184732e+01
 2.484331e-01	 1.806527e+00	 3.289317e+01
 2.168538e-01	 1.810589e+00	 3.318420e+01
 1.853986e-01	 1.814080e+00	 3.242380e+01
 1.540811e-01	 1.817008e+00	 3.031086e+01
 3.139198e-01	 1.808247e+00	 3.054194e+01
 2.819297e-01	 1.813510e+00	 3.204017e+01
 2.500359e-01	 1.818182e+00	 3.317662e+01
 2.182529e-01	 1.822271e+00	 3.360015e+01
 1.865947e-01	 1.825784e+00	 3.295426e+01
 1.550751e-01	 1.828731e+00	 3.087917e+01
 3.159321e-01	 1.819839e+00	 3.081846e+01
 2.837370e-01	 1.825136e+00	 3.231746e+01
 2.516387e-01	 1.829837e+00	 3.350387e+01
 2.196519e-01	 1.833952e+00	 3.399613e+01
 1.877909e-01	 1.837488e+00	 3.340777e+01
 1.560692e-01	 1.840453e+00	 3.134958e+01
 3.179444e-01	 1.831430e+00	 3.118573e+01
 2.855442e-01	 1.836761e+00	 3.269366e+01
 2.532415e-01	 1.841492e+00	 3.388611e+01
 2.210510e-01	 1.845633e+00	 3.438099e+01
 1.889870e-01	 1.849191e+00	 3.379116e+01
 1.570633e-01	 1.852176e+00	 3.172664e+01
 3.199567e-01	 1.843021e+00	 3.166247e+01
 2.873515e-01	 1.848386e+00	 3.318287e+01
 2.548443e-01	 1.853147e+00	 3.433429e+01
 2.224501e-01	 1.857314e+00	 3.476338e+01
 1.901831e-01	 1.860895e+00	 3.411108e+01
 1.580573e-01	 1.863899e+00	 3.201479e+01
 3.219690e-01	 1.854613e+00	 3.226694e+01
 2.891587e-01	 1.860011e+00	 3.379884e+01
 2.564471e-01	 1.864802e+00	 3.485907e+01
 2.238491e-01	 1.868995e+00	 3.515170e+01
 1.913792e-01	 1.872599e+00	 3.437401e+01
 1.590514e-01	 1.875621e+00	 3.221835e+01
 1.540811e-01	 1.817008e+00	 3.031086e+01
 1.229143e-01	 1.819382e+00	 2.723895e+01
 9.191087e-02	 1.821212e+00	 2.447601e+01
 6.108299e-02	 1.822506e+00	 2.299859e+01
 3.044231e-02	 1.823275e+00	 2.373963e+01
 0.000000e+00	 1.823529e+00	 2.758669e+01
 1.550751e-01	 1.828731e+00	 3.087917e+01
 1.237073e-01	 1.831120e+00	 2.771955e+01
 9.250384e-02	 1.832961e+00	 2.478431e+01
 6.147708e-02	 1.834264e+00	 2.312504e+01
 3.063872e-02	 1.835038e+00	 2.374644e+01
 0.000000e+00	 1.835294e+00	 2.760447e+01
 1.560692e-01	 1.840453e+00	 3.134958e+01
 1.245003e-01	 1.842858e+00	 2.813318e+01
 9.309681e-02	 1.844711e+00	 2.508314e+01
 6.187116e-02	 1.846022e+00	 2.329349e+01
 3.083512e-02	 1.846801e+00	 2.380911e+01
 0.000000e+00	 1.847059e+00	 2.762371e+01
 1.570633e-01	 1.852176e+00	 3.172664e+01
 1.252933e-01	 1.854596e+00	 2.848153e+01
 9.368979e-02	 1.856461e+00	 2.537112e+01
 6.226524e-02	 1.857780e+00	 2.349996e+01
 3.103152e-02	 1.858564e+00	 2.392206e+01
 0.000000e+00	 1.858824e+00	 2.763884e+01
 1.580573e-01	 1.863899e+00	 3.201479e+01
 1.260863e-01	 1.866334e+00	 2.876623e+01
 9.428276e-02	 1.868211e+00	 2.564690e+01
 6.265933e-02	 1.869538e+00	 2.374054e+01
 3.122792e-02	 1.870328e+00	 2.407984e+01
 0.000000e+00	 1.870588e+00	 2.764442e+01
 1.590514e-01	 1.875621e+00	 3.221835e+01
 1.268792e-01	 1.878072e+00	 2.898887e+01
 9.487573e-02	 1.879960e+00	 2.590918e+01
 6.305341e-02	 1.881297e+00	 2.401145e+01
 3.142432e-02	 1.882091e+00	 2.427714e+01
 0.000000e+00	 1.882353e+00	 2.763518e+01
 1.882353e+00	 0.000000e+00	-6.084880e+00
 1.882091e+00	 3.142432e-02	-4.877384e+00
 1.881297e+00	 6.305341e-02	-3.609389e+00
 1.879960e+00	 9.487573e-02	-2.637254e+00
 1.878072e+00	 1.268792e-01	-2.299783e+00
 1.875621e+00	 1.590514e-01	-2.915389e+00
 1.894118e+00	 0.000000e+00	-4.545591e+00
 1.893854e+00	 3.162073e-02	-3.552137e+00
 1.893055e+00	 6.344750e-02	-2.461714e+00
 1.891710e+00	 9.546871e-02	-1.604786e+00
 1.889810e+00	 1.276722e-01	-1.295375e+00
 1.887344e+00	 1.600455e-01	-1.828384e+00
 1.905882e+00	 0.000000e+00	-3.021917e+00
 1.905617e+00	 3.181713e-02	-2.267940e+00
 1.904813e+00	 6.384158e-02	-1.342913e+00
 1.903460e+00	 9.606168e-02	-5.691768e-01
 1.901548e+00	 1.284652e-01	-2.533481e-01
 1.899067e+00	 1.610396e-01	-6.836942e-01
 1.917647e+00	 0.000000e+00	-1.510572e+00
 1.917380e+00	 3.201353e-02	-1.033096e+00
 1.916571e+00	 6.423566e-02	-2.684804e-01
 1.915210e+00	 9.665465e-02	 4.516399e-01
 1.913286e+00	 1.292582e-01	 8.110286e-01
 1.910789e+00	 1.620336e-01	 5.115248e-01
 1.929412e+00	 0.000000e+00	-8.348749e-03
 1.929143e+00	 3.220993e-02	 1.442988e-01
 1.928329e+00	 6.462975e-02	 7.464744e-01
 1.926959e+00	 9.724763e-02	 1.440178e+00
 1.925024e+00	 1.300512e-01	 1.882871e+00
 1.922512e+00	 1.630277e-01	 1.750308e+00
 1.941176e+00	 0.000000e+00	 1.487880e+00
 1.940906e+00	 3.240633e-02	 1.256348e+00
 1.940087e+00	 6.502383e-02	 1.687215e+00
 1.938709e+00	 9.784060e-02	 2.379387e+00
 1.936762e+00	 1.308442e-01	 2.947670e+00
 1.934234e+00	 1.640218e-01	 3.025875e+00
 1.875621e+00	 1.590514e-01	-2.915389e+00
 1.872599e+00	 1.913792e-01	-3.939846e+00
 1.868995e+00	 2.238491e-01	-4.497918e+00
 1.864802e+00	 2.564471e-01	-4.393315e+00
 1.860011e+00	 2.891587e-01	-3.428563e+00
 1.854613e+00	 3.219690e-01	-1.405500e+00
 1.887344e+00	 1.600455e-01	-1.828384e+00
 1.884303e+00	 1.925753e-01	-2.728213e+00
 1.880677e+00	 2.252482e-01	-3.207594e+00
 1.876457e+00	 2.580499e-01	-3.076702e+00
 1.871636e+00	 2.909659e-01	-2.144384e+00
 1.866204e+00	 3.239813e-01	-2.186226e-01
 1.899067e+00	 1.610396e-01	-6.836942e-01
 1.896006e+00	 1.937715e-01	-1.461512e+00
 1.892358e+00	 2.266472e-01	-1.879138e+00
 1.888112e+00	 2.596527e-01	-1.744988e+00
 1.883261e+00	 2.927732e-01	-8.664538e-01
 1.877795e+00	 3.259936e-01	 9.496113e-01
 1.910789e+00	 1.620336e-01	 5.115248e-01
 1.907710e+00	 1.949676e-01	-1.374359e-01
 1.904039e+00	 2.280463e-01	-5.038675e-01
 1.899767e+00	 2.612555e-01	-3.863746e-01
 1.894886e+00	 2.945804e-01	 4.167259e-01
 1.889387e+00	 3.280059e-01	 2.106832e+00
 1.922512e+00	 1.630277e-01	 1.750308e+00
 1.919414e+00	 1.961637e-01	 1.246287e+00
 1.915720e+00	 2.294453e-01	 9.267063e-01
 1.911422e+00	 2.628583e-01	 1.010672e+00
 1.906511e+00	 2.963877e-01	 1.716402e+00
 1.900978e+00	 3.300182e-01	 3.260516e+00
 1.934234e+00	 1.640218e-01	 3.025875e+00
 1.931118e+00	 1.973598e-01	 2.691891e+00
 1.927402e+00	 2.308444e-01	 2.420892e+00
 1.923077e+00	 2.644611e-01	 2.457431e+00
 1.918136e+00	 2.981949e-01	 3.043576e+00
 1.912569e+00	 3.320305e-01	 4.417986e+00
 1.854613e+00	 3.219690e-01	-1.405500e+00
 1.848601e+00	 3.548625e-01	 1.521634e+00
 1.841968e+00	 3.878235e-01	 2.422059e+00
 1.834707e+00	 4.208357e-01	 3.186996e+00
 1.826812e+00	 4.538825e-01	 3.980784e+00
 1.818278e+00	 4.869467e-01	 4.785406e+00
 1.866204e+00	 3.239813e-01	-2.186226e-01
 1.860155e+00	 3.570804e-01	 2.562656e+00
 1.853480e+00	 3.902474e-01	 3.307902e+00
 1.846174e+00	 4.234660e-01	 4.089709e+00
 1.838230e+00	 4.567192e-01	 4.902692e+00
 1.829642e+00	 4.899901e-01	 5.733343e+00
 1.877795e+00	 3.259936e-01	 9.496113e-01
 1.871708e+00	 3.592983e-01	 3.447413e+00
 1.864992e+00	 3.926713e-01	 4.217838e+00
 1.857641e+00	 4.260962e-01	 5.032310e+00
 1.849647e+00	 4.595560e-01	 5.876766e+00
 1.841007e+00	 4.930336e-01	 6.734257e+00
 1.889387e+00	 3.280059e-01	 2.106832e+00
 1.883262e+00	 3.615162e-01	 4.341202e+00
 1.876505e+00	 3.950952e-01	 5.148144e+00
 1.869108e+00	 4.287264e-01	 6.007859e+00
 1.861065e+00	 4.623928e-01	 6.894161e+00
 1.852371e+00	 4.960770e-01	 7.778852e+00
 1.900978e+00	 3.300182e-01	 3.260516e+00
 1.894816e+00	 3.637341e-01	 5.249114e+00
 1.888017e+00	 3.975191e-01	 6.095178e+00
 1.880575e+00	 4.313566e-01	 7.009578e+00
 1.872483e+00	 4.652295e-01	 7.946233e+00
 1.863735e+00	 4.991204e-01	 8.858046e+00
 1.912569e+00	 3.320305e-01	 4.417986e+00
 1.906370e+00	 3.659520e-01	 6.171749e+00
 1.899529e+00	 3.999430e-01	 7.055374e+00
 1.892042e+00	 4.339868e-01	 8.030840e+00
 1.883900e+00	 4.680663e-01	 9.024542e+00
 1.875099e+00	 5.021638e-01	 9.962965e+00
 1.818278e+00	 4.869467e-01	 4.785406e+00
 1.809100e+00	 5.200111e-01	 5.637961e+00
 1.799272e+00	 5.530578e-01	 6.568214e+00
 1.788792e+00	 5.860688e-01	 7.538380e+00
 1.777656e+00	 6.190257e-01	 8.987154e+00
 1.765861e+00	 6.519099e-01	 1.053231e+01
 1.829642e+00	 4.899901e-01	 5.733343e+00
 1.820406e+00	 5.232611e-01	 6.618046e+00
 1.810517e+00	 5.565144e-01	 7.583378e+00
 1.799972e+00	 5.897317e-01	 8.593314e+00
 1.788766e+00	 6.228946e-01	 9.605140e+00
 1.776898e+00	 6.559843e-01	 1.108312e+01
 1.841007e+00	 4.930336e-01	 6.734257e+00
 1.831713e+00	 5.265112e-01	 7.635079e+00
 1.821763e+00	 5.599710e-01	 8.607826e+00
 1.811152e+00	 5.933946e-01	 9.626410e+00
 1.799876e+00	 6.267635e-01	 1.065886e+01
 1.787935e+00	 6.600588e-01	 1.166725e+01
 1.852371e+00	 4.960770e-01	 7.778852e+00
 1.843020e+00	 5.297613e-01	 8.680207e+00
 1.833008e+00	 5.634276e-01	 9.633285e+00
 1.822332e+00	 5.970575e-01	 1.062996e+01
 1.810987e+00	 6.306324e-01	 1.165720e+01
 1.798971e+00	 6.641332e-01	 1.269688e+01
 1.863735e+00	 4.991204e-01	 8.858046e+00
 1.854327e+00	 5.330113e-01	 9.744781e+00
 1.844254e+00	 5.668842e-01	 1.065167e+01
 1.833512e+00	 6.007205e-01	 1.159645e+01
 1.822097e+00	 6.345013e-01	 1.259301e+01
 1.810008e+00	 6.682076e-01	 1.365121e+01
 1.875099e+00	 5.021638e-01	 9.962965e+00
 1.865634e+00	 5.362614e-01	 1.082035e+01
 1.855499e+00	 5.703408e-01	 1.165509e+01
 1.844692e+00	 6.043834e-01	 1.251849e+01
 1.833207e+00	 6.383702e-01	 1.345932e+01
 1.821044e+00	 6.722821e-01	 1.452335e+01
 1.765861e+00	 6.519099e-01	 1.053231e+01
 1.753407e+00	 6.847025e-01	 1.201301e+01
 1.740291e+00	 7.173845e-01	 1.344418e+01
 1.726513e+00	 7.499367e-01	 1.401139e+01
 1.712074e+00	 7.823395e-01	 1.468434e+01
 1.696975e+00	 8.145735e-01	 1.559356e+01
 1.776898e+00	 6.559843e-01	 1.108312e+01
 1.764365e+00	 6.889819e-01	 1.268796e+01
 1.751168e+00	 7.218682e-01	 1.412090e+01
 1.737304e+00	 7.546238e-01	 1.483748e+01
 1.722775e+00	 7.872291e-01	 1.563223e+01
 1.707581e+00	 8.196646e-01	 1.660894e+01
 1.787935e+00	 6.600588e-01	 1.166725e+01
 1.775324e+00	 6.932613e-01	 1.327463e+01
 1.762044e+00	 7.263519e-01	 1.473071e+01
 1.748095e+00	 7.593109e-01	 1.560272e+01
 1.733475e+00	 7.921187e-01	 1.651933e+01
 1.718187e+00	 8.247556e-01	 1.755412e+01
 1.798971e+00	 6.641332e-01	 1.269688e+01
 1.786283e+00	 6.975407e-01	 1.380531e+01
 1.772921e+00	 7.308355e-01	 1.527235e+01
 1.758885e+00	 7.639980e-01	 1.630818e+01
 1.744175e+00	 7.970083e-01	 1.735005e+01
 1.728793e+00	 8.298467e-01	 1.843793e+01
 1.810008e+00	 6.682076e-01	 1.365121e+01
 1.797242e+00	 7.018201e-01	 1.484942e+01
 1.783798e+00	 7.353192e-01	 1.574470e+01
 1.769676e+00	 7.686851e-01	 1.695498e+01
 1.754876e+00	 8.018980e-01	 1.812878e+01
 1.739399e+00	 8.349378e-01	 1.926914e+01
 1.821044e+00	 6.722821e-01	 1.452335e+01
 1.808201e+00	 7.060995e-01	 1.581120e+01
 1.794675e+00	 7.398028e-01	 1.664201e+01
 1.780467e+00	 7.733722e-01	 1.754433e+01
 1.765576e+00	 8.067876e-01	 1.885989e+01
 1.750005e+00	 8.400289e-01	 2.005637e+01
 1.696975e+00	 8.145735e-01	 1.559356e+01
 1.681216e+00	 8.466191e-01	 1.665925e+01
 1.664802e+00	 8.784566e-01	 1.775779e+01
 1.647735e+00	 9.100664e-01	 1.897374e+01
 1.630020e+00	 9.414289e-01	 2.040059e+01
 1.611660e+00	 9.725246e-01	 2.214071e+01
 1.707581e+00	 8.196646e-01	 1.660894e+01
 1.691724e+00	 8.519104e-01	 1.765664e+01
 1.675207e+00	 8.839469e-01	 1.865667e+01
 1.658034e+00	 9.157543e-01	 1.972199e+01
 1.640207e+00	 9.473129e-01	 2.097848e+01
 1.621733e+00	 9.786028e-01	 2.256480e+01
 1.718187e+00	 8.247556e-01	 1.755412e+01
 1.702232e+00	 8.572018e-01	 1.857448e+01
 1.685612e+00	 8.894373e-01	 1.947746e+01
 1.668332e+00	 9.214423e-01	 2.040234e+01
 1.650395e+00	 9.531968e-01	 2.150471e+01
 1.631806e+00	 9.846811e-01	 2.295625e+01
 1.728793e+00	 8.298467e-01	 1.843793e+01
 1.712739e+00	 8.624932e-01	 1.942537e+01
 1.696017e+00	 8.949277e-01	 2.023394e+01
 1.678630e+00	 9.271302e-01	 2.102720e+01
 1.660583e+00	 9.590807e-01	 2.198784e+01
 1.641879e+00	 9.907594e-01	 2.331736e+01
 1.739399e+00	 8.349378e-01	 1.926914e+01
 1.723247e+00	 8.677845e-01	 2.022173e+01
 1.706422e+00	 9.004180e-01	 2.093967e+01
 1.688929e+00	 9.328181e-01	 2.160882e+01
 1.670770e+00	 9.649647e-01	 2.243637e+01
 1.651952e+00	 9.968377e-01	 2.365047e+01
 1.750005e+00	 8.400289e-01	 2.005637e+01
 1.733754e+00	 8.730759e-01	 2.097574e+01
 1.716827e+00	 9.059084e-01	 2.160798e+01
 1.699227e+00	 9.385060e-01	 2.215923e+01
 1.680958e+00	 9.708486e-01	 2.285867e+01
 1.662025e+00	 1.002916e+00	 2.395798e+01
 1.611660e+00	 9.725246e-01	 2.214071e+01
 1.592662e+00	 1.003334e+00	 2.439302e+01
 1.573033e+00	 1.033837e+00	 2.739788e+01
 1.552779e+00	 1.064016e+00	 3.133615e+01
 1.531908e+00	 1.093851e+00	 3.487173e+01
 1.510429e+00	 1.123324e+00	 3.798913e+01
 1.621733e+00	 9.786028e-01	 2.256480e+01
 1.602617e+00	 1.009605e+00	 2.471380e+01
 1.582864e+00	 1.040299e+00	 2.765919e+01
 1.562484e+00	 1.070666e+00	 3.155843e+01
 1.541482e+00	 1.100688e+00	 3.486949e+01
 1.519869e+00	 1.130345e+00	 3.807710e+01
 1.631806e+00	 9.846811e-01	 2.295625e+01
 1.612571e+00	 1.015876e+00	 2.501101e+01
 1.592696e+00	 1.046760e+00	 2.788764e+01
 1.572188e+00	 1.077317e+00	 3.154438e+01
 1.551057e+00	 1.107525e+00	 3.489220e+01
 1.529309e+00	 1.137366e+00	 3.815427e+01
 1.641879e+00	 9.907594e-01	 2.331736e+01
 1.622525e+00	 1.022146e+00	 2.528075e+01
 1.602527e+00	 1.053222e+00	 2.807578e+01
 1.581893e+00	 1.083967e+00	 3.153910e+01
 1.560631e+00	 1.114361e+00	 3.492358e+01
 1.538749e+00	 1.144387e+00	 3.820831e+01
 1.651952e+00	 9.968377e-01	 2.365047e+01
 1.632479e+00	 1.028417e+00	 2.551937e+01
 1.612359e+00	 1.059683e+00	 2.821646e+01
 1.591598e+00	 1.090617e+00	 3.155462e+01
 1.570206e+00	 1.121198e+00	 3.494763e+01
 1.548190e+00	 1.151407e+00	 3.822703e+01
 1.662025e+00	 1.002916e+00	 2.395798e+01
 1.642433e+00	 1.034688e+00	 2.572337e+01
 1.622190e+00	 1.066145e+00	 2.830282e+01
 1.601303e+00	 1.097267e+00	 3.157376e+01
 1.579780e+00	 1.128034e+00	 3.494860e+01
 1.557630e+00	 1.158428e+00	 3.819844e+01
 1.510429e+00	 1.123324e+00	 3.798913e+01
 1.488351e+00	 1.152416e+00	 4.119665e+01
 1.465685e+00	 1.181109e+00	 4.451768e+01
 1.442442e+00	 1.209386e+00	 4.763983e+01
 1.418632e+00	 1.237229e+00	 4.984638e+01
 1.394269e+00	 1.264621e+00	 5.070680e+01
 1.519869e+00	 1.130345e+00	 3.807710e+01
 1.497653e+00	 1.159619e+00	 4.130744e+01
 1.474846e+00	 1.188491e+00	 4.456230e+01
 1.451457e+00	 1.216945e+00	 4.755393e+01
 1.427498e+00	 1.244962e+00	 4.993786e+01
 1.402983e+00	 1.272525e+00	 5.069311e+01
 1.529309e+00	 1.137366e+00	 3.815427e+01
 1.506956e+00	 1.166821e+00	 4.137941e+01
 1.484006e+00	 1.195873e+00	 4.455683e+01
 1.460472e+00	 1.224503e+00	 4.742325e+01
 1.436365e+00	 1.252694e+00	 4.969741e+01
 1.411697e+00	 1.280429e+00	 5.061165e+01
 1.538749e+00	 1.144387e+00	 3.820831e+01
 1.516258e+00	 1.174024e+00	 4.140469e+01
 1.493167e+00	 1.203255e+00	 4.449658e+01
 1.469487e+00	 1.232062e+00	 4.724504e+01
 1.445231e+00	 1.260427e+00	 4.939471e+01
 1.420411e+00	 1.288333e+00	 5.047341e+01
 1.548190e+00	 1.151407e+00	 3.822703e+01
 1.525560e+00	 1.181227e+00	 4.137548e+01
 1.502327e+00	 1.210637e+00	 4.437688e+01
 1.478503e+00	 1.239621e+00	 4.701652e+01
 1.454098e+00	 1.268160e+00	 4.906448e+01
 1.429125e+00	 1.296237e+00	 5.027707e+01
 1.557630e+00	 1.158428e+00	 3.819844e+01
 1.534862e+00	 1.188429e+00	 4.128404e+01
 1.511488e+00	 1.218019e+00	 4.419307e+01
 1.487518e+00	 1.247179e+00	 4.673486e+01
 1.462964e+00	 1.275892e+00	 4.870453e+01
 1.437840e+00	 1.304141e+00	 4.988427e+01
 1.394269e+00	 1.264621e+00	 5.070680e+01
 1.369365e+00	 1.291547e+00	 5.064297e+01
 1.343933e+00	 1.317989e+00	 4.978411e+01
 1.317989e+00	 1.343933e+00	 4.852422e+01
 1.291547e+00	 1.369365e+00	 4.728315e+01
 1.264621e+00	 1.394269e+00	 4.650370e+01
 1.402983e+00	 1.272525e+00	 5.069311e+01
 1.377923e+00	 1.299619e+00	 5.054015e+01
 1.352333e+00	 1.326227e+00	 4.963794e+01
 1.326227e+00	 1.352333e+00	 4.834519e+01
 1.299619e+00	 1.377923e+00	 4.704267e+01
 1.272525e+00	 1.402983e+00	 4.613040e+01
 1.411697e+00	 1.280429e+00	 5.061165e+01
 1.386482e+00	 1.307691e+00	 5.039358e+01
 1.360733e+00	 1.334464e+00	 4.945650e+01
 1.334464e+00	 1.360733e+00	 4.812196e+01
 1.307691e+00	 1.386482e+00	 4.672990e+01
 1.280429e+00	 1.411697e+00	 4.563604e+01
 1.420411e+00	 1.288333e+00	 5.047341e+01
 1.395040e+00	 1.315763e+00	 5.021317e+01
 1.369132e+00	 1.342701e+00	 4.924940e+01
 1.342701e+00	 1.369132e+00	 4.786462e+01
 1.315763e+00	 1.395040e+00	 4.635624e+01
 1.288333e+00	 1.420411e+00	 4.503421e+01
 1.429125e+00	 1.296237e+00	 5.027707e+01
 1.403599e+00	 1.323835e+00	 5.000883e+01
 1.377532e+00	 1.350939e+00	 4.902624e+01
 1.350939e+00	 1.377532e+00	 4.758324e+01
 1.323835e+00	 1.403599e+00	 4.593305e+01
 1.296237e+00	 1.429125e+00	 4.445563e+01
 1.437840e+00	 1.304141e+00	 4.988427e+01
 1.412157e+00	 1.331908e+00	 4.979046e+01
 1.385931e+00	 1.359176e+00	 4.879661e+01
 1.359176e+00	 1.385931e+00	 4.728785e+01
 1.331908e+00	 1.412157e+00	 4.547161e+01
 1.304141e+00	 1.437840e+00	 4.553460e+01
 1.264621e+00	 1.394269e+00	 4.650370e+01
 1.237229e+00	 1.418632e+00	 4.628127e+01
 1.209386e+00	 1.442442e+00	 4.894649e+01
 1.181109e+00	 1.465685e+00	 5.295524e+01
 1.152416e+00	 1.488351e+00	 5.610621e+01
 1.123324e+00	 1.510429e+00	 5.809422e+01
 1.272525e+00	 1.402983e+00	 4.613040e+01
 1.244962e+00	 1.427498e+00	 4.564798e+01
 1.216945e+00	 1.451457e+00	 4.964276e+01
 1.188491e+00	 1.474846e+00	 5.325257e+01
 1.159619e+00	 1.497653e+00	 5.602975e+01
 1.130345e+00	 1.519869e+00	 5.774124e+01
 1.280429e+00	 1.411697e+00	 4.563604e+01
 1.252694e+00	 1.436365e+00	 4.640298e+01
 1.224503e+00	 1.460472e+00	 5.024213e+01
 1.195873e+00	 1.484006e+00	 5.346429e+01
 1.166821e+00	 1.506956e+00	 5.589534e+01
 1.137366e+00	 1.529309e+00	 5.737132e+01
 1.288333e+00	 1.420411e+00	 4.503421e+01
 1.260427e+00	 1.445231e+00	 4.728234e+01
 1.232062e+00	 1.469487e+00	 5.074782e+01
 1.203255e+00	 1.493167e+00	 5.359068e+01
 1.174024e+00	 1.516258e+00	 5.569797e+01
 1.144387e+00	 1.538749e+00	 5.697191e+01
 1.296237e+00	 1.429125e+00	 4.445563e+01
 1.268160e+00	 1.454098e+00	 4.807980e+01
 1.239621e+00	 1.478503e+00	 5.116292e+01
 1.210637e+00	 1.502327e+00	 5.363194e+01
 1.181227e+00	 1.525560e+00	 5.543269e+01
 1.151407e+00	 1.548190e+00	 5.653067e+01
 1.304141e+00	 1.437840e+00	 4.553460e+01
 1.275892e+00	 1.462964e+00	 4.879884e+01
 1.247179e+00	 1.487518e+00	 5.149036e+01
 1.218019e+00	 1.511488e+00	 5.358820e+01
 1.188429e+00	 1.534862e+00	 5.509461e+01
 1.158428e+00	 1.557630e+00	 5.603553e+01
 1.123324e+00	 1.510429e+00	 5.809422e+01
 1.093851e+00	 1.531908e+00	 5.933517e+01
 1.064016e+00	 1.552779e+00	 5.975123e+01
 1.033837e+00	 1.573033e+00	 5.786212e+01
 1.003334e+00	 1.592662e+00	 5.583878e+01
 9.725246e-01	 1.611660e+00	 5.399529e+01
 1.130345e+00	 1.519869e+00	 5.774124e+01
 1.100688e+00	 1.541482e+00	 5.885699e+01
 1.070666e+00	 1.562484e+00	 5.984297e+01
 1.040299e+00	 1.582864e+00	 5.807142e+01
 1.009605e+00	 1.602617e+00	 5.611587e+01
 9.786028e-01	 1.621733e+00	 5.420445e+01
 1.137366e+00	 1.529309e+00	 5.737132e+01
 1.107525e+00	 1.551057e+00	 5.838825e+01
 1.077317e+00	 1.572188e+00	 5.941145e+01
 1.046760e+00	 1.592696e+00	 5.819898e+01
 1.015876e+00	 1.612571e+00	 5.626577e+01
 9.846811e-01	 1.631806e+00	 5.425351e+01
 1.144387e+00	 1.538749e+00	 5.697191e+01
 1.114361e+00	 1.560631e+00	 5.791072e+01
 1.083967e+00	 1.581893e+00	 5.890078e+01
 1.053222e+00	 1.602527e+00	 5.823946e+01
 1.022146e+00	 1.622525e+00	 5.629391e+01
 9.907594e-01	 1.641879e+00	 5.416372e+01
 1.151407e+00	 1.548190e+00	 5.653067e+01
 1.121198e+00	 1.570206e+00	 5.740655e+01
 1.090617e+00	 1.591598e+00	 5.835826e+01
 1.059683e+00	 1.612359e+00	 5.818777e+01
 1.028417e+00	 1.632479e+00	 5.620572e+01
 9.968377e-01	 1.651952e+00	 5.395594e+01
 1.158428e+00	 1.557630e+00	 5.603553e+01
 1.128034e+00	 1.579780e+00	 5.685828e+01
 1.097267e+00	 1.601303e+00	 5.776663e+01
 1.066145e+00	 1.622190e+00	 5.803907e+01
 1.034688e+00	 1.642433e+00	 5.600661e+01
 1.002916e+00	 1.662025e+00	 5.365062e+01
 9.725246e-01	 1.611660e+00	 5.399529e+01
 9.414289e-01	 1.630020e+00	 5.203053e+01
 9.100664e-01	 1.647735e+00	 4.952255e+01
 8.784566e-01	 1.664802e+00	 4.660231e+01
 8.466191e-01	 1.681216e+00	 4.339911e+01
 8.145735e-01	 1.696975e+00	 4.003946e+01
 9.786028e-01	 1.621733e+00	 5.420445e+01
 9.473129e-01	 1.640207e+00	 5.199266e+01
 9.157543e-01	 1.658034e+00	 4.912960e+01
 8.839469e-01	 1.675207e+00	 4.583199e+01
 8.519104e-01	 1.691724e+00	 4.232057e+01
 8.196646e-01	 1.707581e+00	 3.881837e+01
 9.846811e-01	 1.631806e+00	 5.425351e+01
 9.531968e-01	 1.650395e+00	 5.180935e+01
 9.214423e-01	 1.668332e+00	 4.865805e+01
 8.894373e-01	 1.685612e+00	 4.507166e+01
 8.572018e-01	 1.702232e+00	 4.133008e+01
 8.247556e-01	 1.718187e+00	 3.771886e+01
 9.907594e-01	 1.641879e+00	 5.416372e+01
 9.590807e-01	 1.660583e+00	 5.151482e+01
 9.271302e-01	 1.678630e+00	 4.814481e+01
 8.949277e-01	 1.696017e+00	 4.435132e+01
 8.624932e-01	 1.712739e+00	 4.044172e+01
 8.298467e-01	 1.728793e+00	 3.673065e+01
 9.968377e-01	 1.651952e+00	 5.395594e+01
 9.649647e-01	 1.670770e+00	 5.114253e+01
 9.328181e-01	 1.688929e+00	 4.762601e+01
 9.004180e-01	 1.706422e+00	 4.370037e+01
 8.677845e-01	 1.723247e+00	 3.966930e+01
 8.349378e-01	 1.739399e+00	 3.584383e+01
 1.002916e+00	 1.662025e+00	 5.365062e+01
 9.708486e-01	 1.680958e+00	 5.072525e+01
 9.385060e-01	 1.699227e+00	 4.713700e+01
 9.059084e-01	 1.716827e+00	 4.314754e+01
 8.730759e-01	 1.733754e+00	 3.902640e+01
 8.400289e-01	 1.750005e+00	 3.504881e+01
 8.145735e-01	 1.696975e+00	 4.003946e+01
 7.823395e-01	 1.712074e+00	 3.690827e+01
 7.499367e-01	 1.726513e+00	 3.450069e+01
 7.173845e-01	 1.740291e+00	 3.309486e+01
 6.847025e-01	 1.753407e+00	 3.053049e+01
 6.519099e-01	 1.765861e+00	 2.844607e+01
 8.196646e-01	 1.707581e+00	 3.881837e+01
 7.872291e-01	 1.722775e+00	 3.575374e+01
 7.546238e-01	 1.737304e+00	 3.353352e+01
 7.218682e-01	 1.751168e+00	 3.233419e+01
 6.889819e-01	 1.764365e+00	 3.030753e+01
 6.559843e-01	 1.776898e+00	 2.826292e+01
 8.247556e-01	 1.718187e+00	 3.771886e+01
 7.921187e-01	 1.733475e+00	 3.466490e+01
 7.593109e-01	 1.748095e+00	 3.249184e+01
 7.263519e-01	 1.762044e+00	 3.131595e+01
 6.932613e-01	 1.775324e+00	 2.962775e+01
 6.600588e-01	 1.787935e+00	 2.811525e+01
 8.298467e-01	 1.728793e+00	 3.673065e+01
 7.970083e-01	 1.744175e+00	 3.360971e+01
 7.639980e-01	 1.758885e+00	 3.133438e+01
 7.308355e-01	 1.772921e+00	 3.000132e+01
 6.975407e-01	 1.786283e+00	 2.863553e+01
 6.641332e-01	 1.798971e+00	 2.988976e+01
 8.349378e-01	 1.739399e+00	 3.584383e+01
 8.018980e-01	 1.754876e+00	 3.255700e+01
 7.686851e-01	 1.769676e+00	 3.002094e+01
 7.353192e-01	 1.783798e+00	 2.835256e+01
 7.018201e-01	 1.797242e+00	 3.035473e+01
 6.682076e-01	 1.810008e+00	 3.116999e+01
 8.400289e-01	 1.750005e+00	 3.504881e+01
 8.067876e-01	 1.765576e+00	 3.147645e+01
 7.733722e-01	 1.780467e+00	 2.851239e+01
 7.398028e-01	 1.794675e+00	 2.932698e+01
 7.060995e-01	 1.808201e+00	 3.163756e+01
 6.722821e-01	 1.821044e+00	 3.195287e+01
 6.519099e-01	 1.765861e+00	 2.844607e+01
 6.190257e-01	 1.777656e+00	 2.702401e+01
 5.860688e-01	 1.788792e+00	 2.674401e+01
 5.530578e-01	 1.799272e+00	 2.811687e+01
 5.200111e-01	 1.809100e+00	 2.909276e+01
 4.869467e-01	 1.818278e+00	 2.960435e+01
 6.559843e-01	 1.776898e+00	 2.826292e+01
 6.228946e-01	 1.788766e+00	 2.738589e+01
 5.897317e-01	 1.799972e+00	 2.848506e+01
 5.565144e-01	 1.810517e+00	 2.919727e+01
 5.232611e-01	 1.820406e+00	 2.957971e+01
 4.899901e-01	 1.829642e+00	 2.969602e+01
 6.600588e-01	 1.787935e+00	 2.811525e+01
 6.267635e-01	 1.799876e+00	 2.920713e+01
 5.933946e-01	 1.811152e+00	 2.977236e+01
 5.599710e-01	 1.821763e+00	 2.994919e+01
 5.265112e-01	 1.831713e+00	 2.988495e+01
 4.930336e-01	 1.841007e+00	 2.973484e+01
 6.641332e-01	 1.798971e+00	 2.988976e+01
 6.306324e-01	 1.810987e+00	 3.052906e+01
 5.970575e-01	 1.822332e+00	 3.063929e+01
 5.634276e-01	 1.833008e+00	 3.041057e+01
 5.297613e-01	 1.843020e+00	 3.004275e+01
 4.960770e-01	 1.852371e+00	 2.974393e+01
 6.682076e-01	 1.810008e+00	 3.116999e+01
 6.345013e-01	 1.822097e+00	 3.137112e+01
 6.007205e-01	 1.833512e+00	 3.111846e+01
 5.668842e-01	 1.844254e+00	 3.061844e+01
 5.330113e-01	 1.854327e+00	 3.008656e+01
 4.991204e-01	 1.863735e+00	 2.974589e+01
 6.722821e-01	 1.821044e+00	 3.195287e+01
 6.383702e-01	 1.833207e+00	 3.175229e+01
 6.043834e-01	 1.844692e+00	 3.124172e+01
 5.703408e-01	 1.855499e+00	 3.060896e+01
 5.362614e-01	 1.865634e+00	 3.004903e+01
 5.021638e-01	 1.875099e+00	 2.976278e+01
 4.869467e-01	 1.818278e+00	 2.960435e+01
 4.538825e-01	 1.826812e+00	 2.970742e+01
 4.208357e-01	 1.834707e+00	 2.967851e+01
 3.878235e-01	 1.841968e+00	 2.978292e+01
 3.548625e-01	 1.848601e+00	 3.038110e+01
 3.219690e-01	 1.854613e+00	 3.226694e+01
 4.899901e-01	 1.829642e+00	 2.969602e+01
 4.567192e-01	 1.838230e+00	 2.969143e+01
 4.234660e-01	 1.846174e+00	 2.977557e+01
 3.902474e-01	 1.853480e+00	 3.011071e+01
 3.570804e-01	 1.860155e+00	 3.085779e+01
 3.239813e-01	 1.866204e+00	 3.289023e+01
 4.930336e-01	 1.841007e+00	 2.973484e+01
 4.595560e-01	 1.849647e+00	 2.968922e+01
 4.260962e-01	 1.857641e+00	 2.988926e+01
 3.926713e-01	 1.864992e+00	 3.041841e+01
 3.592983e-01	 1.871708e+00	 3.135571e+01
 3.259936e-01	 1.877795e+00	 3.340778e+01
 4.960770e-01	 1.852371e+00	 2.974393e+01
 4.623928e-01	 1.861065e+00	 2.971144e+01
 4.287264e-01	 1.869108e+00	 3.002162e+01
 3.950952e-01	 1.876505e+00	 3.070287e+01
 3.615162e-01	 1.883262e+00	 3.177886e+01
 3.280059e-01	 1.889387e+00	 3.381412e+01
 4.991204e-01	 1.863735e+00	 2.974589e+01
 4.652295e-01	 1.872483e+00	 2.976846e+01
 4.313566e-01	 1.880575e+00	 3.017465e+01
 3.975191e-01	 1.888017e+00	 3.096105e+01
 3.637341e-01	 1.894816e+00	 3.211945e+01
 3.300182e-01	 1.900978e+00	 3.410393e+01
 5.021638e-01	 1.875099e+00	 2.976278e+01
 4.680663e-01	 1.883900e+00	 2.987047e+01
 4.339868e-01	 1.892042e+00	 3.035031e+01
 3.999430e-01	 1.899529e+00	 3.118998e+01
 3.659520e-01	 1.906370e+00	 3.237242e+01
 3.320305e-01	 1.912569e+00	 3.427200e+01
 3.219690e-01	 1.854613e+00	 3.226694e+01
 2.891587e-01	 1.860011e+00	 3.379884e+01
 2.564471e-01	 1.864802e+00	 3.485907e+01
 2.238491e-01	 1.868995e+00	 3.515170e+01
 1.913792e-01	 1.872599e+00	 3.437401e+01
 1.590514e-01	 1.875621e+00	 3.221835e+01
 3.239813e-01	 1.866204e+00	 3.289023e+01
 2.909659e-01	 1.871636e+00	 3.442636e+01
 2.580499e-01	 1.876457e+00	 3.537908e+01
 2.252482e-01	 1.880677e+00	 3.551594e+01
 1.925753e-01	 1.884303e+00	 3.459654e+01
 1.600455e-01	 1.887344e+00	 3.237413e+01
 3.259936e-01	 1.877795e+00	 3.340778e+01
 2.927732e-01	 1.883261e+00	 3.493832e+01
 2.596527e-01	 1.888112e+00	 3.580396e+01
 2.266472e-01	 1.892358e+00	 3.581962e+01
 1.937715e-01	 1.896006e+00	 3.479154e+01
 1.610396e-01	 1.899067e+00	 3.251869e+01
 3.280059e-01	 1.889387e+00	 3.381412e+01
 2.945804e-01	 1.894886e+00	 3.533052e+01
 2.612555e-01	 1.899767e+00	 3.613075e+01
 2.280463e-01	 1.904039e+00	 3.606134e+01
 1.949676e-01	 1.907710e+00	 3.495977e+01
 1.620336e-01	 1.910789e+00	 3.265582e+01
 3.300182e-01	 1.900978e+00	 3.410393e+01
 2.963877e-01	 1.906511e+00	 3.559883e+01
 2.628583e-01	 1.911422e+00	 3.635656e+01
 2.294453e-01	 1.915720e+00	 3.623973e+01
 1.961637e-01	 1.919414e+00	 3.510197e+01
 1.630277e-01	 1.922512e+00	 3.278922e+01
 3.320305e-01	 1.912569e+00	 3.427200e+01
 2.981949e-01	 1.918136e+00	 3.573924e+01
 2.644611e-01	 1.923077e+00	 3.647858e+01
 2.308444e-01	 1.927402e+00	 3.635346e+01
 1.973598e-01	 1.931118e+00	 3.521885e+01
 1.640218e-01	 1.934234e+00	 3.292250e+01
 1.590514e-01	 1.875621e+00	 3.221835e+01
 1.268792e-01	 1.878072e+00	 2.898887e+01
 9.487573e-02	 1.879960e+00	 2.590918e+01
 6.305341e-02	 1.881297e+00	 2.401145e+01
 3.142432e-02	 1.882091e+00	 2.427714e+01
 0.000000e+00	 1.882353e+00	 2.763518e+01
 1.600455e-01	 1.887344e+00	 3.237413e+01
 1.276722e-01	 1.889810e+00	 2.916730e+01
 9.546871e-02	 1.891710e+00	 2.613907e+01
 6.344750e-02	 1.893055e+00	 2.426869e+01
 3.162073e-02	 1.893854e+00	 2.448477e+01
 0.000000e+00	 1.894118e+00	 2.766368e+01
 1.610396e-01	 1.899067e+00	 3.251869e+01
 1.284652e-01	 1.901548e+00	 2.932242e+01
 9.606168e-02	 1.903460e+00	 2.632220e+01
 6.384158e-02	 1.904813e+00	 2.447168e+01
 3.181713e-02	 1.905617e+00	 2.467256e+01
 0.000000e+00	 1.905882e+00	 2.777321e+01
 1.620336e-01	 1.910789e+00	 3.265582e+01
 1.292582e-01	 1.913286e+00	 2.946029e+01
 9.665465e-02	 1.915210e+00	 2.646399e+01
 6.423566e-02	 1.916571e+00	 2.462178e+01
 3.201353e-02	 1.917380e+00	 2.483397e+01
 0.000000e+00	 1.917647e+00	 2.794500e+01
 1.630277e-01	 1.922512e+00	 3.278922e+01
 1.300512e-01	 1.925024e+00	 2.958682e+01
 9.724763e-02	 1.926959e+00	 2.656971e+01
 6.462975e-02	 1.928329e+00	 2.472033e+01
 3.220993e-02	 1.929143e+00	 2.496262e+01
 0.000000e+00	 1.929412e+00	 2.816077e+01
 1.640218e-01	 1.934234e+00	 3.292250e+01
 1.308442e-01	 1.936762e+00	 2.970777e+01
 9.784060e-02	 1.938709e+00	 2.664451e+01
 6.502383e-02	 1.940087e+00	 2.476863e+01
 3.240633e-02	 1.940906e+00	 2.505229e+01
 0.000000e+00	 1.941176e+00	 2.840265e+01
 1.941176e+00	 0.000000e+00	 1.487880e+00
 1.940906e+00	 3.240633e-02	 1.256348e+00
 1.940087e+00	 6.502383e-02	 1.687215e+00
 1.938709e+00	 9.784060e-02	 2.379387e+00
 1.936762e+00	 1.308442e-01	 2.947670e+00
 1.934234e+00	 1.640218e-01	 3.025875e+00
 1.952941e+00	 0.000000e+00	 2.769692e+00
 1.952669e+00	 3.260274e-02	 2.343613e+00
 1.951845e+00	 6.541792e-02	 2.676147e+00
 1.950459e+00	 9.843357e-02	 3.364668e+00
 1.948500e+00	 1.316372e-01	 4.022952e+00
 1.945957e+00	 1.650158e-01	 4.284327e+00
 1.964706e+00	 0.000000e+00	 3.650089e+00
 1.964432e+00	 3.279914e-02	 3.496032e+00
 1.963603e+00	 6.581200e-02	 3.900954e+00
 1.962209e+00	 9.902655e-02	 4.559068e+00
 1.960238e+00	 1.324302e-01	 5.181203e+00
 1.957680e+00	 1.660099e-01	 5.497496e+00
 1.976471e+00	 0.000000e+00	 4.163659e+00
 1.976195e+00	 3.299554e-02	 4.778740e+00
 1.975361e+00	 6.620608e-02	 5.443611e+00
 1.973958e+00	 9.961952e-02	 6.045808e+00
 1.971976e+00	 1.332232e-01	 6.489416e+00
 1.969402e+00	 1.670040e-01	 6.696778e+00
 1.988235e+00	 0.000000e+00	 4.344169e+00
 1.987958e+00	 3.319194e-02	 6.255332e+00
 1.987120e+00	 6.660017e-02	 7.384158e+00
 1.985708e+00	 1.002125e-01	 7.906152e+00
 1.983713e+00	 1.340162e-01	 8.013011e+00
 1.981125e+00	 1.679981e-01	 7.912844e+00
 2.000000e+00	 0.000000e+00	 4.224592e+00
 1.999721e+00	 3.338834e-02	 7.987910e+00
 1.998878e+00	 6.699425e-02	 9.800759e+00
 1.997458e+00	 1.008055e-01	 1.021946e+01
 1.995451e+00	 1.348092e-01	 9.815883e+00
 1.992848e+00	 1.689921e-01	 9.175657e+00
 1.934234e+00	 1.640218e-01	 3.025875e+00
 1.931118e+00	 1.973598e-01	 2.691891e+00
 1.927402e+00	 2.308444e-01	 2.420892e+00
 1.923077e+00	 2.644611e-01	 2.457431e+00
 1.918136e+00	 2.981949e-01	 3.043576e+00
 1.912569e+00	 3.320305e-01	 4.417986e+00
 1.945957e+00	 1.650158e-01	 4.284327e+00
 1.942821e+00	 1.985559e-01	 4.123472e+00
 1.939083e+00	 2.322435e-01	 3.921443e+00
 1.934732e+00	 2.660639e-01	 3.935791e+00
 1.929761e+00	 3.000022e-01	 4.420692e+00
 1.924161e+00	 3.340428e-01	 5.625917e+00
 1.957680e+00	 1.660099e-01	 5.497496e+00
 1.954525e+00	 1.997521e-01	 5.457801e+00
 1.950764e+00	 2.336425e-01	 5.340959e+00
 1.946387e+00	 2.676667e-01	 5.385405e+00
 1.941386e+00	 3.018094e-01	 5.827144e+00
 1.935752e+00	 3.360551e-01	 6.898859e+00
 1.969402e+00	 1.670040e-01	 6.696778e+00
 1.966229e+00	 2.009482e-01	 6.686270e+00
 1.962445e+00	 2.350416e-01	 6.643063e+00
 1.958042e+00	 2.692695e-01	 6.754971e+00
 1.953011e+00	 3.036166e-01	 7.210157e+00
 1.947343e+00	 3.380674e-01	 8.196593e+00
 1.981125e+00	 1.679981e-01	 7.912844e+00
 1.977933e+00	 2.021443e-01	 7.800497e+00
 1.974126e+00	 2.364406e-01	 7.792257e+00
 1.969697e+00	 2.708723e-01	 7.994428e+00
 1.964636e+00	 3.054239e-01	 8.518233e+00
 1.958935e+00	 3.400797e-01	 9.479882e+00
 1.992848e+00	 1.689921e-01	 9.175657e+00
 1.989636e+00	 2.033404e-01	 8.792314e+00
 1.985808e+00	 2.378397e-01	 8.753902e+00
 1.981352e+00	 2.724750e-01	 9.054914e+00
 1.976261e+00	 3.072311e-01	 9.701114e+00
 1.970526e+00	 3.420920e-01	 1.071044e+01
 1.912569e+00	 3.320305e-01	 4.417986e+00
 1.906370e+00	 3.659520e-01	 6.171749e+00
 1.899529e+00	 3.999430e-01	 7.055374e+00
 1.892042e+00	 4.339868e-01	 8.030840e+00
 1.883900e+00	 4.680663e-01	 9.024542e+00
 1.875099e+00	 5.021638e-01	 9.962965e+00
 1.924161e+00	 3.340428e-01	 5.625917e+00
 1.917923e+00	 3.681699e-01	 7.150491e+00
 1.911042e+00	 4.023669e-01	 8.046911e+00
 1.903509e+00	 4.366171e-01	 9.059757e+00
 1.895318e+00	 4.709031e-01	 1.009254e+01
 1.886464e+00	 5.052072e-01	 1.104964e+01
 1.935752e+00	 3.360551e-01	 6.898859e+00
 1.929477e+00	 3.703878e-01	 8.209775e+00
 1.922554e+00	 4.047908e-01	 9.082426e+00
 1.914975e+00	 4.392473e-01	 1.008622e+01
 1.906735e+00	 4.737398e-01	 1.111841e+01
 1.897828e+00	 5.082506e-01	 1.207706e+01
 1.947343e+00	 3.380674e-01	 8.196593e+00
 1.941031e+00	 3.726057e-01	 9.325201e+00
 1.934066e+00	 4.072147e-01	 1.015030e+01
 1.926442e+00	 4.418775e-01	 1.110645e+01
 1.918153e+00	 4.765766e-01	 1.210094e+01
 1.909192e+00	 5.112941e-01	 1.304102e+01
 1.958935e+00	 3.400797e-01	 9.479882e+00
 1.952585e+00	 3.748236e-01	 1.047293e+01
 1.945579e+00	 4.096386e-01	 1.123919e+01
 1.937909e+00	 4.445077e-01	 1.211675e+01
 1.929571e+00	 4.794134e-01	 1.303894e+01
 1.920556e+00	 5.143375e-01	 1.393741e+01
 1.970526e+00	 3.420920e-01	 1.071044e+01
 1.964138e+00	 3.770414e-01	 1.162969e+01
 1.957091e+00	 4.120625e-01	 1.233800e+01
 1.949376e+00	 4.471380e-01	 1.311350e+01
 1.940988e+00	 4.822501e-01	 1.393124e+01
 1.931921e+00	 5.173809e-01	 1.476220e+01
 1.875099e+00	 5.021638e-01	 9.962965e+00
 1.865634e+00	 5.362614e-01	 1.082035e+01
 1.855499e+00	 5.703408e-01	 1.165509e+01
 1.844692e+00	 6.043834e-01	 1.251849e+01
 1.833207e+00	 6.383702e-01	 1.345932e+01
 1.821044e+00	 6.722821e-01	 1.452335e+01
 1.886464e+00	 5.052072e-01	 1.104964e+01
 1.876941e+00	 5.395115e-01	 1.188027e+01
 1.866745e+00	 5.737974e-01	 1.265112e+01
 1.855871e+00	 6.080463e-01	 1.344299e+01
 1.844318e+00	 6.422391e-01	 1.433538e+01
 1.832081e+00	 6.763565e-01	 1.540599e+01
 1.897828e+00	 5.082506e-01	 1.207706e+01
 1.888248e+00	 5.427615e-01	 1.289668e+01
 1.877990e+00	 5.772540e-01	 1.364211e+01
 1.867051e+00	 6.117093e-01	 1.440802e+01
 1.855428e+00	 6.461080e-01	 1.528889e+01
 1.843118e+00	 6.804309e-01	 1.637850e+01
 1.909192e+00	 5.112941e-01	 1.304102e+01
 1.899554e+00	 5.460116e-01	 1.385959e+01
 1.889236e+00	 5.807107e-01	 1.461272e+01
 1.878231e+00	 6.153722e-01	 1.539354e+01
 1.866538e+00	 6.499770e-01	 1.629606e+01
 1.854154e+00	 6.845054e-01	 1.741457e+01
 1.920556e+00	 5.143375e-01	 1.393741e+01
 1.910861e+00	 5.492617e-01	 1.475927e+01
 1.900481e+00	 5.841673e-01	 1.554794e+01
 1.889411e+00	 6.190351e-01	 1.637998e+01
 1.877649e+00	 6.538459e-01	 1.733366e+01
 1.865191e+00	 6.885798e-01	 1.848852e+01
 1.931921e+00	 5.173809e-01	 1.476220e+01
 1.922168e+00	 5.525118e-01	 1.558617e+01
 1.911726e+00	 5.876239e-01	 1.643313e+01
 1.900591e+00	 6.226980e-01	 1.734821e+01
 1.888759e+00	 6.577148e-01	 1.837897e+01
 1.876228e+00	 6.926543e-01	 1.957523e+01
 1.821044e+00	 6.722821e-01	 1.452335e+01
 1.808201e+00	 7.060995e-01	 1.581120e+01
 1.794675e+00	 7.398028e-01	 1.664201e+01
 1.780467e+00	 7.733722e-01	 1.754433e+01
 1.765576e+00	 8.067876e-01	 1.885989e+01
 1.750005e+00	 8.400289e-01	 2.005637e+01
 1.832081e+00	 6.763565e-01	 1.540599e+01
 1.819159e+00	 7.103789e-01	 1.677023e+01
 1.805552e+00	 7.442865e-01	 1.762057e+01
 1.791257e+00	 7.780593e-01	 1.838792e+01
 1.776277e+00	 8.116772e-01	 1.952340e+01
 1.760611e+00	 8.451200e-01	 2.076294e+01
 1.843118e+00	 6.804309e-01	 1.637850e+01
 1.830118e+00	 7.146583e-01	 1.778341e+01
 1.816429e+00	 7.487701e-01	 1.860860e+01
 1.802048e+00	 7.827464e-01	 1.945747e+01
 1.786977e+00	 8.165668e-01	 2.015851e+01
 1.771217e+00	 8.502111e-01	 2.134682e+01
 1.854154e+00	 6.845054e-01	 1.741457e+01
 1.841077e+00	 7.189377e-01	 1.874119e+01
 1.827305e+00	 7.532538e-01	 1.958132e+01
 1.812839e+00	 7.874335e-01	 2.044685e+01
 1.797678e+00	 8.214564e-01	 2.117671e+01
 1.781823e+00	 8.553021e-01	 2.180860e+01
 1.865191e+00	 6.885798e-01	 1.848852e+01
 1.852036e+00	 7.232171e-01	 1.971287e+01
 1.838182e+00	 7.577374e-01	 2.051451e+01
 1.823629e+00	 7.921206e-01	 2.133648e+01
 1.808378e+00	 8.263461e-01	 2.204760e+01
 1.792429e+00	 8.603932e-01	 2.250274e+01
 1.876228e+00	 6.926543e-01	 1.957523e+01
 1.862995e+00	 7.274964e-01	 2.067251e+01
 1.849059e+00	 7.622211e-01	 2.138449e+01
 1.834420e+00	 7.968077e-01	 2.210720e+01
 1.819079e+00	 8.312357e-01	 2.275850e+01
 1.803035e+00	 8.654843e-01	 2.324318e+01
 1.750005e+00	 8.400289e-01	 2.005637e+01
 1.733754e+00	 8.730759e-01	 2.097574e+01
 1.716827e+00	 9.059084e-01	 2.160798e+01
 1.699227e+00	 9.385060e-01	 2.215923e+01
 1.680958e+00	 9.708486e-01	 2.285867e+01
 1.662025e+00	 1.002916e+00	 2.395798e+01
 1.760611e+00	 8.451200e-01	 2.076294e+01
 1.744262e+00	 8.783673e-01	 2.165814e+01
 1.727232e+00	 9.113987e-01	 2.223429e+01
 1.709525e+00	 9.441939e-01	 2.270733e+01
 1.691145e+00	 9.767325e-01	 2.331696e+01
 1.672097e+00	 1.008994e+00	 2.432613e+01
 1.771217e+00	 8.502111e-01	 2.134682e+01
 1.754770e+00	 8.836586e-01	 2.223678e+01
 1.737637e+00	 9.168891e-01	 2.281241e+01
 1.719824e+00	 9.498818e-01	 2.328050e+01
 1.701333e+00	 9.826164e-01	 2.387124e+01
 1.682170e+00	 1.015073e+00	 2.483769e+01
 1.781823e+00	 8.553021e-01	 2.180860e+01
 1.765277e+00	 8.889500e-01	 2.271933e+01
 1.748042e+00	 9.223794e-01	 2.335287e+01
 1.730122e+00	 9.555697e-01	 2.388830e+01
 1.711521e+00	 9.885004e-01	 2.452654e+01
 1.692243e+00	 1.021151e+00	 2.548996e+01
 1.792429e+00	 8.603932e-01	 2.250274e+01
 1.775785e+00	 8.942414e-01	 2.311338e+01
 1.758447e+00	 9.278698e-01	 2.386608e+01
 1.740420e+00	 9.612577e-01	 2.454015e+01
 1.721708e+00	 9.943843e-01	 2.528786e+01
 1.702316e+00	 1.027229e+00	 2.628043e+01
 1.803035e+00	 8.654843e-01	 2.324318e+01
 1.786292e+00	 8.995327e-01	 2.345825e+01
 1.768852e+00	 9.333601e-01	 2.436228e+01
 1.750719e+00	 9.669456e-01	 2.524536e+01
 1.731896e+00	 1.000268e+00	 2.616019e+01
 1.712389e+00	 1.033307e+00	 2.720676e+01
 1.662025e+00	 1.002916e+00	 2.395798e+01
 1.642433e+00	 1.034688e+00	 2.572337e+01
 1.622190e+00	 1.066145e+00	 2.830282e+01
 1.601303e+00	 1.097267e+00	 3.157376e+01
 1.579780e+00	 1.128034e+00	 3.494860e+01
 1.557630e+00	 1.158428e+00	 3.819844e+01
 1.672097e+00	 1.008994e+00	 2.432613e+01
 1.652387e+00	 1.040959e+00	 2.598943e+01
 1.632022e+00	 1.072606e+00	 2.844349e+01
 1.611008e+00	 1.103917e+00	 3.168377e+01
 1.589354e+00	 1.134871e+00	 3.501358e+01
 1.567070e+00	 1.165449e+00	 3.821684e+01
 1.682170e+00	 1.015073e+00	 2.483769e+01
 1.662341e+00	 1.047230e+00	 2.641014e+01
 1.641853e+00	 1.079068e+00	 2.880584e+01
 1.620713e+00	 1.110567e+00	 3.197181e+01
 1.598929e+00	 1.141707e+00	 3.523399e+01
 1.576510e+00	 1.172470e+00	 3.838670e+01
 1.692243e+00	 1.021151e+00	 2.548996e+01
 1.672296e+00	 1.053501e+00	 2.697623e+01
 1.651685e+00	 1.085529e+00	 2.935171e+01
 1.630418e+00	 1.117217e+00	 3.242104e+01
 1.608503e+00	 1.148544e+00	 3.560087e+01
 1.585950e+00	 1.179490e+00	 3.871130e+01
 1.702316e+00	 1.027229e+00	 2.628043e+01
 1.682250e+00	 1.059771e+00	 2.767876e+01
 1.661516e+00	 1.091991e+00	 3.006132e+01
 1.640123e+00	 1.123867e+00	 3.301487e+01
 1.618078e+00	 1.155381e+00	 3.610536e+01
 1.595390e+00	 1.186511e+00	 3.919370e+01
 1.712389e+00	 1.033307e+00	 2.720676e+01
 1.692204e+00	 1.066042e+00	 2.850912e+01
 1.671348e+00	 1.098452e+00	 3.091523e+01
 1.649827e+00	 1.130517e+00	 3.373702e+01
 1.627652e+00	 1.162217e+00	 3.673869e+01
 1.604831e+00	 1.193532e+00	 3.983682e+01
 1.557630e+00	 1.158428e+00	 3.819844e+01
 1.534862e+00	 1.188429e+00	 4.128404e+01
 1.511488e+00	 1.218019e+00	 4.419307e+01
 1.487518e+00	 1.247179e+00	 4.673486e+01
 1.462964e+00	 1.275892e+00	 4.870453e+01
 1.437840e+00	 1.304141e+00	 4.988427e+01
 1.567070e+00	 1.165449e+00	 3.821684e+01
 1.544164e+00	 1.195632e+00	 4.124087e+01
 1.520648e+00	 1.225401e+00	 4.407464e+01
 1.496533e+00	 1.254738e+00	 4.654493e+01
 1.471831e+00	 1.283625e+00	 4.846415e+01
 1.446554e+00	 1.312045e+00	 4.963153e+01
 1.576510e+00	 1.172470e+00	 3.838670e+01
 1.553467e+00	 1.202834e+00	 4.137089e+01
 1.529809e+00	 1.232783e+00	 4.416528e+01
 1.505548e+00	 1.262297e+00	 4.660124e+01
 1.480697e+00	 1.291358e+00	 4.849357e+01
 1.455268e+00	 1.319949e+00	 4.964173e+01
 1.585950e+00	 1.179490e+00	 3.871130e+01
 1.562769e+00	 1.210037e+00	 4.168773e+01
 1.538969e+00	 1.240165e+00	 4.448125e+01
 1.514564e+00	 1.269855e+00	 4.691512e+01
 1.489564e+00	 1.299091e+00	 4.879192e+01
 1.463982e+00	 1.327852e+00	 4.989480e+01
 1.595390e+00	 1.186511e+00	 3.919370e+01
 1.572071e+00	 1.217240e+00	 4.220459e+01
 1.548130e+00	 1.247547e+00	 4.503829e+01
 1.523579e+00	 1.277414e+00	 4.749752e+01
 1.498430e+00	 1.306823e+00	 4.935824e+01
 1.472696e+00	 1.335756e+00	 5.037104e+01
 1.604831e+00	 1.193532e+00	 3.983682e+01
 1.581373e+00	 1.224442e+00	 4.293425e+01
 1.557291e+00	 1.254929e+00	 4.585169e+01
 1.532594e+00	 1.284973e+00	 4.835903e+01
 1.507297e+00	 1.314556e+00	 5.019150e+01
 1.481411e+00	 1.343660e+00	 5.105110e+01
 1.437840e+00	 1.304141e+00	 4.988427e+01
 1.412157e+00	 1.331908e+00	 4.979046e+01
 1.385931e+00	 1.359176e+00	 4.879661e+01
 1.359176e+00	 1.385931e+00	 4.728785e+01
 1.331908e+00	 1.412157e+00	 4.547161e+01
 1.304141e+00	 1.437840e+00	 4.553460e+01
 1.446554e+00	 1.312045e+00	 4.963153e+01
 1.420716e+00	 1.339980e+00	 4.966908e+01
 1.394331e+00	 1.367414e+00	 4.862211e+01
 1.367414e+00	 1.394331e+00	 4.699082e+01
 1.339980e+00	 1.420716e+00	 4.494879e+01
 1.312045e+00	 1.446554e+00	 4.651637e+01
 1.455268e+00	 1.319949e+00	 4.964173e+01
 1.429274e+00	 1.348052e+00	 4.972736e+01
 1.402731e+00	 1.375651e+00	 4.853662e+01
 1.375651e+00	 1.402731e+00	 4.667829e+01
 1.348052e+00	 1.429274e+00	 4.446658e+01
 1.319949e+00	 1.455268e+00	 4.735330e+01
 1.463982e+00	 1.327852e+00	 4.989480e+01
 1.437833e+00	 1.356124e+00	 4.989286e+01
 1.411130e+00	 1.383889e+00	 4.850882e+01
 1.383889e+00	 1.411130e+00	 4.632157e+01
 1.356124e+00	 1.437833e+00	 4.545411e+01
 1.327852e+00	 1.463982e+00	 4.803831e+01
 1.472696e+00	 1.335756e+00	 5.037104e+01
 1.446391e+00	 1.364196e+00	 5.019782e+01
 1.419530e+00	 1.392126e+00	 4.850837e+01
 1.392126e+00	 1.419530e+00	 4.589287e+01
 1.364196e+00	 1.446391e+00	 4.626226e+01
 1.335756e+00	 1.472696e+00	 4.856441e+01
 1.481411e+00	 1.343660e+00	 5.105110e+01
 1.454950e+00	 1.372268e+00	 5.060640e+01
 1.427929e+00	 1.400364e+00	 4.850583e+01
 1.400364e+00	 1.427929e+00	 4.536527e+01
 1.372268e+00	 1.454950e+00	 4.686369e+01
 1.343660e+00	 1.481411e+00	 4.892471e+01
 1.304141e+00	 1.437840e+00	 4.553460e+01
 1.275892e+00	 1.462964e+00	 4.879884e+01
 1.247179e+00	 1.487518e+00	 5.149036e+01
 1.218019e+00	 1.511488e+00	 5.358820e+01
 1.188429e+00	 1.534862e+00	 5.509461e+01
 1.158428e+00	 1.557630e+00	 5.603553e+01
 1.312045e+00	 1.446554e+00	 4.651637e+01
 1.283625e+00	 1.471831e+00	 4.942731e+01
 1.254738e+00	 1.496533e+00	 5.177208e+01
 1.225401e+00	 1.520648e+00	 5.356529e+01
 1.195632e+00	 1.544164e+00	 5.484781e+01
 1.165449e+00	 1.567070e+00	 5.568700e+01
 1.319949e+00	 1.455268e+00	 4.735330e+01
 1.291358e+00	 1.480697e+00	 4.996031e+01
 1.262297e+00	 1.505548e+00	 5.206564e+01
 1.232783e+00	 1.529809e+00	 5.368865e+01
 1.202834e+00	 1.553467e+00	 5.487595e+01
 1.172470e+00	 1.576510e+00	 5.570155e+01
 1.327852e+00	 1.463982e+00	 4.803831e+01
 1.299091e+00	 1.489564e+00	 5.041178e+01
 1.269855e+00	 1.514564e+00	 5.239678e+01
 1.240165e+00	 1.538969e+00	 5.398721e+01
 1.210037e+00	 1.562769e+00	 5.520310e+01
 1.179490e+00	 1.585950e+00	 5.609096e+01
 1.335756e+00	 1.472696e+00	 4.856441e+01
 1.306823e+00	 1.498430e+00	 5.079525e+01
 1.277414e+00	 1.523579e+00	 5.279058e+01
 1.247547e+00	 1.548130e+00	 5.448914e+01
 1.217240e+00	 1.572071e+00	 5.585268e+01
 1.186511e+00	 1.595390e+00	 5.686665e+01
 1.343660e+00	 1.481411e+00	 4.892471e+01
 1.314556e+00	 1.507297e+00	 5.112387e+01
 1.284973e+00	 1.532594e+00	 5.327143e+01
 1.254929e+00	 1.557291e+00	 5.522186e+01
 1.224442e+00	 1.581373e+00	 5.684750e+01
 1.193532e+00	 1.604831e+00	 5.803973e+01
 1.158428e+00	 1.557630e+00	 5.603553e+01
 1.128034e+00	 1.579780e+00	 5.685828e+01
 1.097267e+00	 1.601303e+00	 5.776663e+01
 1.066145e+00	 1.622190e+00	 5.803907e+01
 1.034688e+00	 1.642433e+00	 5.600661e+01
 1.002916e+00	 1.662025e+00	 5.365062e+01
 1.165449e+00	 1.567070e+00	 5.568700e+01
 1.134871e+00	 1.589354e+00	 5.647257e+01
 1.103917e+00	 1.611008e+00	 5.731585e+01
 1.072606e+00	 1.632022e+00	 5.787387e+01
 1.040959e+00	 1.652387e+00	 5.581920e+01
 1.008994e+00	 1.672097e+00	 5.332625e+01
 1.172470e+00	 1.576510e+00	 5.570155e+01
 1.141707e+00	 1.598929e+00	 5.646631e+01
 1.110567e+00	 1.620713e+00	 5.719941e+01
 1.079068e+00	 1.641853e+00	 5.757480e+01
 1.047230e+00	 1.662341e+00	 5.575258e+01
 1.015073e+00	 1.682170e+00	 5.303713e+01
 1.179490e+00	 1.585950e+00	 5.609096e+01
 1.148544e+00	 1.608503e+00	 5.683762e+01
 1.117217e+00	 1.630418e+00	 5.740575e+01
 1.085529e+00	 1.651685e+00	 5.751254e+01
 1.053501e+00	 1.672296e+00	 5.579224e+01
 1.021151e+00	 1.692243e+00	 5.276752e+01
 1.186511e+00	 1.595390e+00	 5.686665e+01
 1.155381e+00	 1.618078e+00	 5.758465e+01
 1.123867e+00	 1.640123e+00	 5.792358e+01
 1.091991e+00	 1.661516e+00	 5.766969e+01
 1.059771e+00	 1.682250e+00	 5.592412e+01
 1.027229e+00	 1.702316e+00	 5.250220e+01
 1.193532e+00	 1.604831e+00	 5.803973e+01
 1.162217e+00	 1.627652e+00	 5.870550e+01
 1.130517e+00	 1.649827e+00	 5.874178e+01
 1.098452e+00	 1.671348e+00	 5.802925e+01
 1.066042e+00	 1.692204e+00	 5.613459e+01
 1.033307e+00	 1.712389e+00	 5.222640e+01
 1.002916e+00	 1.662025e+00	 5.365062e+01
 9.708486e-01	 1.680958e+00	 5.072525e+01
 9.385060e-01	 1.699227e+00	 4.713700e+01
 9.059084e-01	 1.716827e+00	 4.314754e+01
 8.730759e-01	 1.733754e+00	 3.902640e+01
 8.400289e-01	 1.750005e+00	 3.504881e+01
 1.008994e+00	 1.672097e+00	 5.332625e+01
 9.767325e-01	 1.691145e+00	 5.029485e+01
 9.441939e-01	 1.709525e+00	 4.665987e+01
 9.113987e-01	 1.727232e+00	 4.262839e+01
 8.783673e-01	 1.744262e+00	 3.841281e+01
 8.451200e-01	 1.760611e+00	 3.422906e+01
 1.015073e+00	 1.682170e+00	 5.303713e+01
 9.826164e-01	 1.701333e+00	 4.985117e+01
 9.498818e-01	 1.719824e+00	 4.614405e+01
 9.168891e-01	 1.737637e+00	 4.205213e+01
 8.836586e-01	 1.754770e+00	 3.771509e+01
 8.502111e-01	 1.771217e+00	 3.327455e+01
 1.021151e+00	 1.692243e+00	 5.276752e+01
 9.885004e-01	 1.711521e+00	 4.937883e+01
 9.555697e-01	 1.730122e+00	 4.557565e+01
 9.223794e-01	 1.748042e+00	 4.140782e+01
 8.889500e-01	 1.765277e+00	 3.692699e+01
 8.553021e-01	 1.781823e+00	 3.218572e+01
 1.027229e+00	 1.702316e+00	 5.250220e+01
 9.943843e-01	 1.721708e+00	 4.886291e+01
 9.612577e-01	 1.740420e+00	 4.494122e+01
 9.278698e-01	 1.758447e+00	 4.068488e+01
 8.942414e-01	 1.775785e+00	 3.604248e+01
 8.603932e-01	 1.792429e+00	 3.336778e+01
 1.033307e+00	 1.712389e+00	 5.222640e+01
 1.000268e+00	 1.731896e+00	 4.828896e+01
 9.669456e-01	 1.750719e+00	 4.422770e+01
 9.333601e-01	 1.768852e+00	 3.987306e+01
 8.995327e-01	 1.786292e+00	 3.525650e+01
 8.654843e-01	 1.803035e+00	 3.582765e+01
 8.400289e-01	 1.750005e+00	 3.504881e+01
 8.067876e-01	 1.765576e+00	 3.147645e+01
 7.733722e-01	 1.780467e+00	 2.851239e+01
 7.398028e-01	 1.794675e+00	 2.932698e+01
 7.060995e-01	 1.808201e+00	 3.163756e+01
 6.722821e-01	 1.821044e+00	 3.195287e+01
 8.451200e-01	 1.760611e+00	 3.422906e+01
 8.116772e-01	 1.776277e+00	 3.026887e+01
 7.780593e-01	 1.791257e+00	 2.870245e+01
 7.442865e-01	 1.805552e+00	 3.068038e+01
 7.103789e-01	 1.819159e+00	 3.258942e+01
 6.763565e-01	 1.832081e+00	 3.241935e+01
 8.502111e-01	 1.771217e+00	 3.327455e+01
 8.165668e-01	 1.786977e+00	 2.931253e+01
 7.827464e-01	 1.802048e+00	 3.053033e+01
 7.487701e-01	 1.816429e+00	 3.184213e+01
 7.146583e-01	 1.830118e+00	 3.332970e+01
 6.804309e-01	 1.843118e+00	 3.277559e+01
 8.553021e-01	 1.781823e+00	 3.218572e+01
 8.214564e-01	 1.797678e+00	 3.156878e+01
 7.874335e-01	 1.812839e+00	 3.218792e+01
 7.532538e-01	 1.827305e+00	 3.283163e+01
 7.189377e-01	 1.841077e+00	 3.369351e+01
 6.845054e-01	 1.854154e+00	 3.305577e+01
 8.603932e-01	 1.792429e+00	 3.336778e+01
 8.263461e-01	 1.808378e+00	 3.368648e+01
 7.921206e-01	 1.823629e+00	 3.368673e+01
 7.577374e-01	 1.838182e+00	 3.366780e+01
 7.232171e-01	 1.852036e+00	 3.394913e+01
 6.885798e-01	 1.865191e+00	 3.329329e+01
 8.654843e-01	 1.803035e+00	 3.582765e+01
 8.312357e-01	 1.819079e+00	 3.566926e+01
 7.968077e-01	 1.834420e+00	 3.503800e+01
 7.622211e-01	 1.849059e+00	 3.436910e+01
 7.274964e-01	 1.862995e+00	 3.412158e+01
 6.926543e-01	 1.876228e+00	 3.352078e+01
 6.722821e-01	 1.821044e+00	 3.195287e+01
 6.383702e-01	 1.833207e+00	 3.175229e+01
 6.043834e-01	 1.844692e+00	 3.124172e+01
 5.703408e-01	 1.855499e+00	 3.060896e+01
 5.362614e-01	 1.865634e+00	 3.004903e+01
 5.021638e-01	 1.875099e+00	 2.976278e+01
 6.763565e-01	 1.832081e+00	 3.241935e+01
 6.422391e-01	 1.844318e+00	 3.190376e+01
 6.080463e-01	 1.855871e+00	 3.126168e+01
 5.737974e-01	 1.866745e+00	 3.063628e+01
 5.395115e-01	 1.876941e+00	 3.017509e+01
 5.052072e-01	 1.886464e+00	 3.002886e+01
 6.804309e-01	 1.843118e+00	 3.277559e+01
 6.461080e-01	 1.855428e+00	 3.206944e+01
 6.117093e-01	 1.867051e+00	 3.143416e+01
 5.772540e-01	 1.877990e+00	 3.095090e+01
 5.427615e-01	 1.888248e+00	 3.070153e+01
 5.082506e-01	 1.897828e+00	 3.076806e+01
 6.845054e-01	 1.854154e+00	 3.305577e+01
 6.499770e-01	 1.866538e+00	 3.228642e+01
 6.153722e-01	 1.878231e+00	 3.179460e+01
 5.807107e-01	 1.889236e+00	 3.158228e+01
 5.460116e-01	 1.899554e+00	 3.164794e+01
 5.112941e-01	 1.909192e+00	 3.198646e+01
 6.885798e-01	 1.865191e+00	 3.329329e+01
 6.538459e-01	 1.877649e+00	 3.259095e+01
 6.190351e-01	 1.889411e+00	 3.237759e+01
 5.841673e-01	 1.900481e+00	 3.255923e+01
 5.492617e-01	 1.910861e+00	 3.303345e+01
 5.143375e-01	 1.920556e+00	 3.369004e+01
 6.926543e-01	 1.876228e+00	 3.352078e+01
 6.577148e-01	 1.888759e+00	 3.301847e+01
 6.226980e-01	 1.900591e+00	 3.321697e+01
 5.876239e-01	 1.911726e+00	 3.390989e+01
 5.525118e-01	 1.922168e+00	 3.487679e+01
 5.173809e-01	 1.931921e+00	 3.588461e+01
 5.021638e-01	 1.875099e+00	 2.976278e+01
 4.680663e-01	 1.883900e+00	 2.987047e+01
 4.339868e-01	 1.892042e+00	 3.035031e+01
 3.999430e-01	 1.899529e+00	 3.118998e+01
 3.659520e-01	 1.906370e+00	 3.237242e+01
 3.320305e-01	 1.912569e+00	 3.427200e+01
 5.052072e-01	 1.886464e+00	 3.002886e+01
 4.709031e-01	 1.895318e+00	 3.025125e+01
 4.366171e-01	 1.903509e+00	 3.079145e+01
 4.023669e-01	 1.911042e+00	 3.164249e+01
 3.681699e-01	 1.917923e+00	 3.279363e+01
 3.340428e-01	 1.924161e+00	 3.456261e+01
 5.082506e-01	 1.897828e+00	 3.076806e+01
 4.737398e-01	 1.906735e+00	 3.113414e+01
 4.392473e-01	 1.914975e+00	 3.173255e+01
 4.047908e-01	 1.922554e+00	 3.256771e+01
 3.703878e-01	 1.929477e+00	 3.364256e+01
 3.360551e-01	 1.935752e+00	 3.523370e+01
 5.112941e-01	 1.909192e+00	 3.198646e+01
 4.765766e-01	 1.918153e+00	 3.251356e+01
 4.418775e-01	 1.926442e+00	 3.316329e+01
 4.072147e-01	 1.934066e+00	 3.395734e+01
 3.726057e-01	 1.941031e+00	 3.491955e+01
 3.380674e-01	 1.947343e+00	 3.630038e+01
 5.143375e-01	 1.920556e+00	 3.369004e+01
 4.794134e-01	 1.929571e+00	 3.438405e+01
 4.445077e-01	 1.937909e+00	 3.507359e+01
 4.096386e-01	 1.945579e+00	 3.580330e+01
 3.748236e-01	 1.952585e+00	 3.662499e+01
 3.400797e-01	 1.958935e+00	 3.777742e+01
 5.173809e-01	 1.931921e+00	 3.588461e+01
 4.822501e-01	 1.940988e+00	 3.674033e+01
 4.471380e-01	 1.949376e+00	 3.745362e+01
 4.120625e-01	 1.957091e+00	 3.809770e+01
 3.770414e-01	 1.964138e+00	 3.875924e+01
 3.420920e-01	 1.970526e+00	 3.967924e+01
 3.320305e-01	 1.912569e+00	 3.427200e+01
 2.981949e-01	 1.918136e+00	 3.573924e+01
 2.644611e-01	 1.923077e+00	 3.647858e+01
 2.308444e-01	 1.927402e+00	 3.635346e+01
 1.973598e-01	 1.931118e+00	 3.521885e+01
 1.640218e-01	 1.934234e+00	 3.292250e+01
 3.340428e-01	 1.924161e+00	 3.456261e+01
 3.000022e-01	 1.929761e+00	 3.596435e+01
 2.660639e-01	 1.934732e+00	 3.666243e+01
 2.322435e-01	 1.939083e+00	 3.651505e+01
 1.985559e-01	 1.942821e+00	 3.537163e+01
 1.650158e-01	 1.945957e+00	 3.307416e+01
 3.360551e-01	 1.935752e+00	 3.523370e+01
 3.018094e-01	 1.941386e+00	 3.650899e+01
 2.676667e-01	 1.946387e+00	 3.709846e+01
 2.336425e-01	 1.950764e+00	 3.685791e+01
 1.997521e-01	 1.954525e+00	 3.563217e+01
 1.660099e-01	 1.957680e+00	 3.325655e+01
 3.380674e-01	 1.947343e+00	 3.630038e+01
 3.036166e-01	 1.953011e+00	 3.740206e+01
 2.692695e-01	 1.958042e+00	 3.782037e+01
 2.350416e-01	 1.962445e+00	 3.741155e+01
 2.009482e-01	 1.966229e+00	 3.601683e+01
 1.670040e-01	 1.969402e+00	 3.346403e+01
 3.400797e-01	 1.958935e+00	 3.777742e+01
 3.054239e-01	 1.964636e+00	 3.867177e+01
 2.708723e-01	 1.969697e+00	 3.886103e+01
 2.364406e-01	 1.974126e+00	 3.820477e+01
 2.021443e-01	 1.977933e+00	 3.654161e+01
 1.679981e-01	 1.981125e+00	 3.369110e+01
 3.420920e-01	 1.970526e+00	 3.967924e+01
 3.072311e-01	 1.976261e+00	 4.034567e+01
 2.724750e-01	 1.981352e+00	 4.025257e+01
 2.378397e-01	 1.985808e+00	 3.926571e+01
 2.033404e-01	 1.989636e+00	 3.722212e+01
 1.689921e-01	 1.992848e+00	 3.393236e+01
 1.640218e-01	 1.934234e+00	 3.292250e+01
 1.308442e-01	 1.936762e+00	 2.970777e+01
 9.784060e-02	 1.938709e+00	 2.664451e+01
 6.502383e-02	 1.940087e+00	 2.476863e+01
 3.240633e-02	 1.940906e+00	 2.505229e+01
 0.000000e+00	 1.941176e+00	 2.840265e+01
 1.650158e-01	 1.945957e+00	 3.307416e+01
 1.316372e-01	 1.948500e+00	 2.981368e+01
 9.843357e-02	 1.950459e+00	 2.667067e+01
 6.541792e-02	 1.951845e+00	 2.476585e+01
 3.260274e-02	 1.952669e+00	 2.515109e+01
 0.000000e+00	 1.952941e+00	 2.880792e+01
 1.660099e-01	 1.957680e+00	 3.325655e+01
 1.324302e-01	 1.960238e+00	 2.987438e+01
 9.902655e-02	 1.962209e+00	 2.660639e+01
 6.581200e-02	 1.963603e+00	 2.469471e+01
 3.279914e-02	 1.964432e+00	 2.530899e+01
 0.000000e+00	 1.964706e+00	 2.954444e+01
 1.670040e-01	 1.969402e+00	 3.346403e+01
 1.332232e-01	 1.971976e+00	 2.986494e+01
 9.961952e-02	 1.973958e+00	 2.642119e+01
 6.620608e-02	 1.975361e+00	 2.453219e+01
 3.299554e-02	 1.976195e+00	 2.552267e+01
 0.000000e+00	 1.976471e+00	 3.064007e+01
 1.679981e-01	 1.981125e+00	 3.369110e+01
 1.340162e-01	 1.983713e+00	 2.976098e+01
 1.002125e-01	 1.985708e+00	 2.608530e+01
 6.660017e-02	 1.987120e+00	 2.425582e+01
 3.319194e-02	 1.987958e+00	 2.578891e+01
 0.000000e+00	 1.988235e+00	 3.212199e+01
 1.689921e-01	 1.992848e+00	 3.393236e+01
 1.348092e-01	 1.995451e+00	 2.953873e+01
 1.008055e-01	 1.997458e+00	 2.556967e+01
 6.699425e-02	 1.998878e+00	 2.384366e+01
 3.338834e-02	 1.999721e+00	 2.610455e+01
 0.000000e+00	 2.000000e+00	 3.401677e+01
