patch_n	x	y	stress_yy
0	 0.000000e+00	 0.000000e+00	-6.264137e+00
0	 7.142857e-02	 0.000000e+00	-3.850689e+00
0	 1.428571e-01	 0.000000e+00	-1.838292e+00
0	 2.142857e-01	 0.000000e+00	-2.269473e-01
0	 2.857143e-01	 0.000000e+00	 9.833457e-01
0	 3.571429e-01	 0.000000e+00	 1.792587e+00
0	 3.571429e-01	 0.000000e+00	 1.792587e+00
0	 4.285714e-01	 0.000000e+00	 5.444812e-01
0	 5.000000e-01	 0.000000e+00	 4.010142e+00
0	 5.714286e-01	 0.000000e+00	 1.218957e+01
0	 6.428571e-01	 0.000000e+00	 2.508277e+01
0	 7.142857e-01	 0.000000e+00	 4.268973e+01
0	 7.142857e-01	 0.000000e+00	 4.268973e+01
0	 7.857143e-01	 0.000000e+00	 6.173666e+01
0	 8.571429e-01	 0.000000e+00	 7.424660e+01
0	 9.285714e-01	 0.000000e+00	 8.021954e+01
0	 1.000000e+00	 0.000000e+00	 7.965550e+01
0	 1.071429e+00	 0.000000e+00	 7.255447e+01
0	 1.071429e+00	 0.000000e+00	 7.255447e+01
0	 1.142857e+00	 0.000000e+00	 7.079599e+01
0	 1.214286e+00	 0.000000e+00	 6.512790e+01
0	 1.285714e+00	 0.000000e+00	 5.555018e+01
0	 1.357143e+00	 0.000000e+00	 4.206285e+01
0	 1.428571e+00	 0.000000e+00	 2.466591e+01
0	 1.428571e+00	 0.000000e+00	 2.466591e+01
0	 1.500000e+00	 0.000000e+00	-2.371509e-01
0	 1.571429e+00	 0.000000e+00	-1.706800e+01
0	 1.642857e+00	 0.000000e+00	-2.582663e+01
0	 1.714286e+00	 0.000000e+00	-2.651305e+01
0	 1.785714e+00	 0.000000e+00	-1.912726e+01
0	 1.785714e+00	 0.000000e+00	-1.912726e+01
0	 1.857143e+00	 0.000000e+00	-1.242635e+01
0	 1.928571e+00	 0.000000e+00	-7.785019e+00
0	 2.000000e+00	 0.000000e+00	-5.203252e+00
0	 2.071429e+00	 0.000000e+00	-4.681054e+00
0	 2.142857e+00	 0.000000e+00	-6.218424e+00
0	 2.142857e+00	 0.000000e+00	-6.218424e+00
0	 2.214286e+00	 0.000000e+00	-4.535089e+00
0	 2.285714e+00	 0.000000e+00	-2.830343e+00
0	 2.357143e+00	 0.000000e+00	-1.104185e+00
0	 2.428571e+00	 0.000000e+00	 6.433837e-01
0	 2.500000e+00	 0.000000e+00	 2.412364e+00
0	 2.500000e+00	 0.000000e+00	 2.412364e+00
0	 2.571429e+00	 0.000000e+00	 3.920155e+00
0	 2.642857e+00	 0.000000e+00	 5.092864e+00
0	 2.714286e+00	 0.000000e+00	 5.930492e+00
0	 2.785714e+00	 0.000000e+00	 6.433039e+00
0	 2.857143e+00	 0.000000e+00	 6.600504e+00
0	 2.857143e+00	 0.000000e+00	 6.600504e+00
0	 2.928571e+00	 0.000000e+00	 7.093996e+00
0	 3.000000e+00	 0.000000e+00	 7.530472e+00
0	 3.071429e+00	 0.000000e+00	 7.909932e+00
0	 3.142857e+00	 0.000000e+00	 8.232376e+00
0	 3.214286e+00	 0.000000e+00	 8.497804e+00
0	 3.214286e+00	 0.000000e+00	 8.497804e+00
0	 3.285714e+00	 0.000000e+00	 8.669890e+00
0	 3.357143e+00	 0.000000e+00	 8.825138e+00
0	 3.428571e+00	 0.000000e+00	 8.963546e+00
0	 3.500000e+00	 0.000000e+00	 9.085115e+00
0	 3.571429e+00	 0.000000e+00	 9.189846e+00
0	 3.571429e+00	 0.000000e+00	 9.189846e+00
0	 3.642857e+00	 0.000000e+00	 9.314971e+00
0	 3.714286e+00	 0.000000e+00	 9.422982e+00
0	 3.785714e+00	 0.000000e+00	 9.513877e+00
0	 3.857143e+00	 0.000000e+00	 9.587657e+00
0	 3.928571e+00	 0.000000e+00	 9.644322e+00
0	 3.928571e+00	 0.000000e+00	 9.644322e+00
0	 4.000000e+00	 0.000000e+00	 9.682246e+00
0	 4.071429e+00	 0.000000e+00	 9.721148e+00
0	 4.142857e+00	 0.000000e+00	 9.761030e+00
0	 4.214286e+00	 0.000000e+00	 9.801890e+00
0	 4.285714e+00	 0.000000e+00	 9.843729e+00
0	 4.285714e+00	 0.000000e+00	 9.843729e+00
0	 4.357143e+00	 0.000000e+00	 9.875478e+00
0	 4.428571e+00	 0.000000e+00	 9.905485e+00
0	 4.500000e+00	 0.000000e+00	 9.933749e+00
0	 4.571429e+00	 0.000000e+00	 9.960271e+00
0	 4.642857e+00	 0.000000e+00	 9.985050e+00
0	 4.642857e+00	 0.000000e+00	 9.985050e+00
0	 4.714286e+00	 0.000000e+00	 1.000140e+01
0	 4.785714e+00	 0.000000e+00	 1.001900e+01
0	 4.857143e+00	 0.000000e+00	 1.003784e+01
0	 4.928571e+00	 0.000000e+00	 1.005792e+01
0	 5.000000e+00	 0.000000e+00	 1.007924e+01
0	 5.000000e+00	 0.000000e+00	 1.007924e+01
0	 5.071429e+00	 0.000000e+00	 1.009297e+01
0	 5.142857e+00	 0.000000e+00	 1.010768e+01
0	 5.214286e+00	 0.000000e+00	 1.012337e+01
0	 5.285714e+00	 0.000000e+00	 1.014005e+01
0	 5.357143e+00	 0.000000e+00	 1.015771e+01
0	 5.357143e+00	 0.000000e+00	 1.015771e+01
0	 5.428571e+00	 0.000000e+00	 1.016985e+01
0	 5.500000e+00	 0.000000e+00	 1.018322e+01
0	 5.571429e+00	 0.000000e+00	 1.019781e+01
0	 5.642857e+00	 0.000000e+00	 1.021361e+01
0	 5.714286e+00	 0.000000e+00	 1.023064e+01
0	 5.714286e+00	 0.000000e+00	 1.023064e+01
0	 5.785714e+00	 0.000000e+00	 1.024301e+01
0	 5.857143e+00	 0.000000e+00	 1.025657e+01
0	 5.928571e+00	 0.000000e+00	 1.027133e+01
0	 6.000000e+00	 0.000000e+00	 1.028727e+01
0	 6.071429e+00	 0.000000e+00	 1.030441e+01
0	 6.071429e+00	 0.000000e+00	 1.030441e+01
0	 6.142857e+00	 0.000000e+00	 1.031790e+01
0	 6.214286e+00	 0.000000e+00	 1.033255e+01
0	 6.285714e+00	 0.000000e+00	 1.034836e+01
0	 6.357143e+00	 0.000000e+00	 1.036531e+01
0	 6.428571e+00	 0.000000e+00	 1.038342e+01
0	 6.428571e+00	 0.000000e+00	 1.038342e+01
0	 6.500000e+00	 0.000000e+00	 1.039855e+01
0	 6.571429e+00	 0.000000e+00	 1.041481e+01
0	 6.642857e+00	 0.000000e+00	 1.043220e+01
0	 6.714286e+00	 0.000000e+00	 1.045074e+01
0	 6.785714e+00	 0.000000e+00	 1.047041e+01
0	 6.785714e+00	 0.000000e+00	 1.047041e+01
0	 6.857143e+00	 0.000000e+00	 1.048763e+01
0	 6.928571e+00	 0.000000e+00	 1.050600e+01
0	 7.000000e+00	 0.000000e+00	 1.052550e+01
0	 7.071429e+00	 0.000000e+00	 1.054614e+01
0	 7.142857e+00	 0.000000e+00	 1.056792e+01
0	 7.142857e+00	 0.000000e+00	 1.056792e+01
0	 7.214286e+00	 0.000000e+00	 1.058765e+01
0	 7.285714e+00	 0.000000e+00	 1.060856e+01
0	 7.357143e+00	 0.000000e+00	 1.063065e+01
0	 7.428571e+00	 0.000000e+00	 1.065393e+01
0	 7.500000e+00	 0.000000e+00	 1.067839e+01
0	 7.500000e+00	 0.000000e+00	 1.067839e+01
0	 7.571429e+00	 0.000000e+00	 1.070109e+01
0	 7.642857e+00	 0.000000e+00	 1.072506e+01
0	 7.714286e+00	 0.000000e+00	 1.075030e+01
0	 7.785714e+00	 0.000000e+00	 1.077682e+01
0	 7.857143e+00	 0.000000e+00	 1.080461e+01
0	 7.857143e+00	 0.000000e+00	 1.080461e+01
0	 7.928571e+00	 0.000000e+00	 1.083083e+01
0	 8.000000e+00	 0.000000e+00	 1.085847e+01
0	 8.071429e+00	 0.000000e+00	 1.088753e+01
0	 8.142857e+00	 0.000000e+00	 1.091801e+01
0	 8.214286e+00	 0.000000e+00	 1.094992e+01
0	 8.214286e+00	 0.000000e+00	 1.094992e+01
0	 8.285714e+00	 0.000000e+00	 1.098035e+01
0	 8.357143e+00	 0.000000e+00	 1.101242e+01
0	 8.428571e+00	 0.000000e+00	 1.104613e+01
0	 8.500000e+00	 0.000000e+00	 1.108148e+01
0	 8.571429e+00	 0.000000e+00	 1.111847e+01
0	 8.571429e+00	 0.000000e+00	 1.111847e+01
0	 8.642857e+00	 0.000000e+00	 1.115400e+01
0	 8.714286e+00	 0.000000e+00	 1.119148e+01
0	 8.785714e+00	 0.000000e+00	 1.123090e+01
0	 8.857143e+00	 0.000000e+00	 1.127227e+01
0	 8.928571e+00	 0.000000e+00	 1.131559e+01
0	 8.928571e+00	 0.000000e+00	 1.131559e+01
0	 9.000000e+00	 0.000000e+00	 1.135736e+01
0	 9.071429e+00	 0.000000e+00	 1.140149e+01
0	 9.142857e+00	 0.000000e+00	 1.144799e+01
0	 9.214286e+00	 0.000000e+00	 1.149685e+01
0	 9.285714e+00	 0.000000e+00	 1.154808e+01
0	 9.285714e+00	 0.000000e+00	 1.154808e+01
0	 9.357143e+00	 0.000000e+00	 1.159758e+01
0	 9.428571e+00	 0.000000e+00	 1.165002e+01
0	 9.500000e+00	 0.000000e+00	 1.170539e+01
0	 9.571429e+00	 0.000000e+00	 1.176371e+01
0	 9.642857e+00	 0.000000e+00	 1.182496e+01
0	 9.642857e+00	 0.000000e+00	 1.182496e+01
0	 9.714286e+00	 0.000000e+00	 1.188402e+01
0	 9.785714e+00	 0.000000e+00	 1.194678e+01
0	 9.857143e+00	 0.000000e+00	 1.201324e+01
0	 9.928571e+00	 0.000000e+00	 1.208339e+01
0	 1.000000e+01	 0.000000e+00	 1.215724e+01
1	 1.000000e+00	 0.000000e+00	 1.442994e+01
1	 1.011765e+00	 0.000000e+00	 3.003083e+01
1	 1.023529e+00	 0.000000e+00	 3.686220e+01
1	 1.035294e+00	 0.000000e+00	 3.742528e+01
1	 1.047059e+00	 0.000000e+00	 3.410884e+01
1	 1.058824e+00	 0.000000e+00	 2.919553e+01
1	 1.058824e+00	 0.000000e+00	 2.919553e+01
1	 1.070588e+00	 0.000000e+00	 2.401790e+01
1	 1.082353e+00	 0.000000e+00	 1.868020e+01
1	 1.094118e+00	 0.000000e+00	 1.353478e+01
1	 1.105882e+00	 0.000000e+00	 8.918972e+00
1	 1.117647e+00	 0.000000e+00	 5.155920e+00
1	 1.117647e+00	 0.000000e+00	 5.155920e+00
1	 1.129412e+00	 0.000000e+00	 2.727357e+00
1	 1.141176e+00	 0.000000e+00	 1.575298e+00
1	 1.152941e+00	 0.000000e+00	 1.218301e+00
1	 1.164706e+00	 0.000000e+00	 1.194379e+00
1	 1.176471e+00	 0.000000e+00	 1.060021e+00
1	 1.176471e+00	 0.000000e+00	 1.060021e+00
1	 1.188235e+00	 0.000000e+00	 5.021838e-01
1	 1.200000e+00	 0.000000e+00	-3.909591e-01
1	 1.211765e+00	 0.000000e+00	-1.452783e+00
1	 1.223529e+00	 0.000000e+00	-2.523070e+00
1	 1.235294e+00	 0.000000e+00	-3.447710e+00
1	 1.235294e+00	 0.000000e+00	-3.447710e+00
1	 1.247059e+00	 0.000000e+00	-4.128129e+00
1	 1.258824e+00	 0.000000e+00	-4.627412e+00
1	 1.270588e+00	 0.000000e+00	-5.035758e+00
1	 1.282353e+00	 0.000000e+00	-5.440056e+00
1	 1.294118e+00	 0.000000e+00	-5.924035e+00
1	 1.294118e+00	 0.000000e+00	-5.924035e+00
1	 1.305882e+00	 0.000000e+00	-6.537189e+00
1	 1.317647e+00	 0.000000e+00	-7.241545e+00
1	 1.329412e+00	 0.000000e+00	-7.988663e+00
1	 1.341176e+00	 0.000000e+00	-8.731807e+00
1	 1.352941e+00	 0.000000e+00	-9.425862e+00
1	 1.352941e+00	 0.000000e+00	-9.425862e+00
1	 1.364706e+00	 0.000000e+00	-1.007275e+01
1	 1.376471e+00	 0.000000e+00	-1.070321e+01
1	 1.388235e+00	 0.000000e+00	-1.131658e+01
1	 1.400000e+00	 0.000000e+00	-1.191222e+01
1	 1.411765e+00	 0.000000e+00	-1.248951e+01
1	 1.411765e+00	 0.000000e+00	-1.248951e+01
1	 1.423529e+00	 0.000000e+00	-1.302276e+01
1	 1.435294e+00	 0.000000e+00	-1.347741e+01
1	 1.447059e+00	 0.000000e+00	-1.383997e+01
1	 1.458824e+00	 0.000000e+00	-1.409733e+01
1	 1.470588e+00	 0.000000e+00	-1.423684e+01
1	 1.470588e+00	 0.000000e+00	-1.423684e+01
1	 1.482353e+00	 0.000000e+00	-1.429289e+01
1	 1.494118e+00	 0.000000e+00	-1.431015e+01
1	 1.505882e+00	 0.000000e+00	-1.429162e+01
1	 1.517647e+00	 0.000000e+00	-1.424020e+01
1	 1.529412e+00	 0.000000e+00	-1.415873e+01
1	 1.529412e+00	 0.000000e+00	-1.415873e+01
1	 1.541176e+00	 0.000000e+00	-1.400873e+01
1	 1.552941e+00	 0.000000e+00	-1.376077e+01
1	 1.564706e+00	 0.000000e+00	-1.343076e+01
1	 1.576471e+00	 0.000000e+00	-1.303413e+01
1	 1.588235e+00	 0.000000e+00	-1.258588e+01
1	 1.588235e+00	 0.000000e+00	-1.258588e+01
1	 1.600000e+00	 0.000000e+00	-1.212368e+01
1	 1.611765e+00	 0.000000e+00	-1.167230e+01
1	 1.623529e+00	 0.000000e+00	-1.122706e+01
1	 1.635294e+00	 0.000000e+00	-1.078343e+01
1	 1.647059e+00	 0.000000e+00	-1.033699e+01
1	 1.647059e+00	 0.000000e+00	-1.033699e+01
1	 1.658824e+00	 0.000000e+00	-9.875305e+00
1	 1.670588e+00	 0.000000e+00	-9.382901e+00
1	 1.682353e+00	 0.000000e+00	-8.851159e+00
1	 1.694118e+00	 0.000000e+00	-8.271691e+00
1	 1.705882e+00	 0.000000e+00	-7.636343e+00
1	 1.705882e+00	 0.000000e+00	-7.636343e+00
1	 1.717647e+00	 0.000000e+00	-6.954871e+00
1	 1.729412e+00	 0.000000e+00	-6.246194e+00
1	 1.741176e+00	 0.000000e+00	-5.515953e+00
1	 1.752941e+00	 0.000000e+00	-4.769637e+00
1	 1.764706e+00	 0.000000e+00	-4.012591e+00
1	 1.764706e+00	 0.000000e+00	-4.012591e+00
1	 1.776471e+00	 0.000000e+00	-3.229498e+00
1	 1.788235e+00	 0.000000e+00	-2.404935e+00
1	 1.800000e+00	 0.000000e+00	-1.543871e+00
1	 1.811765e+00	 0.000000e+00	-6.511486e-01
1	 1.823529e+00	 0.000000e+00	 2.685139e-01
1	 1.823529e+00	 0.000000e+00	 2.685139e-01
1	 1.835294e+00	 0.000000e+00	 1.184137e+00
1	 1.847059e+00	 0.000000e+00	 2.065415e+00
1	 1.858824e+00	 0.000000e+00	 2.908805e+00
1	 1.870588e+00	 0.000000e+00	 3.710849e+00
1	 1.882353e+00	 0.000000e+00	 4.468180e+00
1	 1.882353e+00	 0.000000e+00	 4.468180e+00
1	 1.894118e+00	 0.000000e+00	 5.221064e+00
1	 1.905882e+00	 0.000000e+00	 6.014205e+00
1	 1.917647e+00	 0.000000e+00	 6.850889e+00
1	 1.929412e+00	 0.000000e+00	 7.734324e+00
1	 1.941176e+00	 0.000000e+00	 8.667636e+00
1	 1.941176e+00	 0.000000e+00	 8.667636e+00
1	 1.952941e+00	 0.000000e+00	 9.442403e+00
1	 1.964706e+00	 0.000000e+00	 9.871627e+00
1	 1.976471e+00	 0.000000e+00	 9.989897e+00
1	 1.988235e+00	 0.000000e+00	 9.830978e+00
1	 2.000000e+00	 0.000000e+00	 9.427844e+00
