patch_n	x	y	stress_yy
0	 0.000000e+00	 0.000000e+00	-6.264137e+00
0	 0.000000e+00	 7.142857e-02	-7.430835e+00
0	 0.000000e+00	 1.428571e-01	-8.249986e+00
0	 0.000000e+00	 2.142857e-01	-8.721590e+00
0	 0.000000e+00	 2.857143e-01	-8.845646e+00
0	 0.000000e+00	 3.571429e-01	-8.622155e+00
0	 7.142857e-02	 0.000000e+00	-3.850689e+00
0	 7.142857e-02	 7.142857e-02	-5.589662e+00
0	 7.142857e-02	 1.428571e-01	-7.367735e+00
0	 7.142857e-02	 2.142857e-01	-9.184908e+00
0	 7.142857e-02	 2.857143e-01	-1.104118e+01
0	 7.142857e-02	 3.571429e-01	-1.293655e+01
0	 1.428571e-01	 0.000000e+00	-1.838292e+00
0	 1.428571e-01	 7.142857e-02	-3.395149e+00
0	 1.428571e-01	 1.428571e-01	-5.377752e+00
0	 1.428571e-01	 2.142857e-01	-7.786102e+00
0	 1.428571e-01	 2.857143e-01	-1.062020e+01
0	 1.428571e-01	 3.571429e-01	-1.388004e+01
0	 2.142857e-01	 0.000000e+00	-2.269473e-01
0	 2.142857e-01	 7.142857e-02	-8.472952e-01
0	 2.142857e-01	 1.428571e-01	-2.280037e+00
0	 2.142857e-01	 2.142857e-01	-4.525172e+00
0	 2.142857e-01	 2.857143e-01	-7.582701e+00
0	 2.142857e-01	 3.571429e-01	-1.145262e+01
0	 2.857143e-01	 0.000000e+00	 9.833457e-01
0	 2.857143e-01	 7.142857e-02	 2.053899e+00
0	 2.857143e-01	 1.428571e-01	 1.925411e+00
0	 2.857143e-01	 2.142857e-01	 5.978826e-01
0	 2.857143e-01	 2.857143e-01	-1.928686e+00
0	 2.857143e-01	 3.571429e-01	-5.654296e+00
0	 3.571429e-01	 0.000000e+00	 1.792587e+00
0	 3.571429e-01	 7.142857e-02	 5.308432e+00
0	 3.571429e-01	 1.428571e-01	 7.238591e+00
0	 3.571429e-01	 2.142857e-01	 7.583061e+00
0	 3.571429e-01	 2.857143e-01	 6.341844e+00
0	 3.571429e-01	 3.571429e-01	 3.514940e+00
0	 0.000000e+00	 3.571429e-01	-8.622155e+00
0	 0.000000e+00	 4.285714e-01	-2.490191e+00
0	 0.000000e+00	 5.000000e-01	 1.578331e+00
0	 0.000000e+00	 5.714286e-01	 3.583411e+00
0	 0.000000e+00	 6.428571e-01	 3.525049e+00
0	 0.000000e+00	 7.142857e-01	 1.403246e+00
0	 7.142857e-02	 3.571429e-01	-1.293655e+01
0	 7.142857e-02	 4.285714e-01	-7.528770e+00
0	 7.142857e-02	 5.000000e-01	-3.531062e+00
0	 7.142857e-02	 5.714286e-01	-9.434269e-01
0	 7.142857e-02	 6.428571e-01	 2.341343e-01
0	 7.142857e-02	 7.142857e-01	 1.621787e-03
0	 1.428571e-01	 3.571429e-01	-1.388004e+01
0	 1.428571e-01	 4.285714e-01	-9.448536e+00
0	 1.428571e-01	 5.000000e-01	-5.773735e+00
0	 1.428571e-01	 5.714286e-01	-2.855640e+00
0	 1.428571e-01	 6.428571e-01	-6.942505e-01
0	 1.428571e-01	 7.142857e-01	 7.104338e-01
0	 2.142857e-01	 3.571429e-01	-1.145262e+01
0	 2.142857e-01	 4.285714e-01	-8.249488e+00
0	 2.142857e-01	 5.000000e-01	-5.149690e+00
0	 2.142857e-01	 5.714286e-01	-2.153229e+00
0	 2.142857e-01	 6.428571e-01	 7.398951e-01
0	 2.142857e-01	 7.142857e-01	 3.529682e+00
0	 2.857143e-01	 3.571429e-01	-5.654296e+00
0	 2.857143e-01	 4.285714e-01	-3.931626e+00
0	 2.857143e-01	 5.000000e-01	-1.658924e+00
0	 2.857143e-01	 5.714286e-01	 1.163808e+00
0	 2.857143e-01	 6.428571e-01	 4.536571e+00
0	 2.857143e-01	 7.142857e-01	 8.459366e+00
0	 3.571429e-01	 3.571429e-01	 3.514940e+00
0	 3.571429e-01	 4.285714e-01	 3.505050e+00
0	 3.571429e-01	 5.000000e-01	 4.698560e+00
0	 3.571429e-01	 5.714286e-01	 7.095469e+00
0	 3.571429e-01	 6.428571e-01	 1.069578e+01
0	 3.571429e-01	 7.142857e-01	 1.549949e+01
0	 0.000000e+00	 7.142857e-01	 1.403246e+00
0	 0.000000e+00	 7.857143e-01	 1.741940e+00
0	 0.000000e+00	 8.571429e-01	 6.369227e+00
0	 0.000000e+00	 9.285714e-01	 1.528511e+01
0	 0.000000e+00	 1.000000e+00	 2.848958e+01
0	 0.000000e+00	 1.071429e+00	 4.598264e+01
0	 7.142857e-02	 7.142857e-01	 1.621787e-03
0	 7.142857e-02	 7.857143e-01	-5.503813e+00
0	 7.142857e-02	 8.571429e-01	-7.587647e+00
0	 7.142857e-02	 9.285714e-01	-6.249882e+00
0	 7.142857e-02	 1.000000e+00	-1.490517e+00
0	 7.142857e-02	 1.071429e+00	 6.690447e+00
0	 1.428571e-01	 7.142857e-01	 7.104338e-01
0	 1.428571e-01	 7.857143e-01	-1.061301e+01
0	 1.428571e-01	 8.571429e-01	-1.938185e+01
0	 1.428571e-01	 9.285714e-01	-2.559608e+01
0	 1.428571e-01	 1.000000e+00	-2.925570e+01
0	 1.428571e-01	 1.071429e+00	-3.036072e+01
0	 2.142857e-01	 7.142857e-01	 3.529682e+00
0	 2.142857e-01	 7.857143e-01	-1.358566e+01
0	 2.142857e-01	 8.571429e-01	-2.901338e+01
0	 2.142857e-01	 9.285714e-01	-4.275349e+01
0	 2.142857e-01	 1.000000e+00	-5.480598e+01
0	 2.142857e-01	 1.071429e+00	-6.517086e+01
0	 2.857143e-01	 7.142857e-01	 8.459366e+00
0	 2.857143e-01	 7.857143e-01	-1.442175e+01
0	 2.857143e-01	 8.571429e-01	-3.648224e+01
0	 2.857143e-01	 9.285714e-01	-5.772211e+01
0	 2.857143e-01	 1.000000e+00	-7.814135e+01
0	 2.857143e-01	 1.071429e+00	-9.773998e+01
0	 3.571429e-01	 7.142857e-01	 1.549949e+01
0	 3.571429e-01	 7.857143e-01	-1.312129e+01
0	 3.571429e-01	 8.571429e-01	-4.178843e+01
0	 3.571429e-01	 9.285714e-01	-7.050194e+01
0	 3.571429e-01	 1.000000e+00	-9.926182e+01
0	 3.571429e-01	 1.071429e+00	-1.280681e+02
0	 0.000000e+00	 1.071429e+00	 4.598264e+01
0	 0.000000e+00	 1.142857e+00	 4.270341e+01
0	 0.000000e+00	 1.214286e+00	 3.579442e+01
0	 0.000000e+00	 1.285714e+00	 2.525569e+01
0	 0.000000e+00	 1.357143e+00	 1.108719e+01
0	 0.000000e+00	 1.428571e+00	-6.711054e+00
0	 7.142857e-02	 1.071429e+00	 6.690447e+00
0	 7.142857e-02	 1.142857e+00	 1.225382e+01
0	 7.142857e-02	 1.214286e+00	 1.486778e+01
0	 7.142857e-02	 1.285714e+00	 1.453233e+01
0	 7.142857e-02	 1.357143e+00	 1.124747e+01
0	 7.142857e-02	 1.428571e+00	 5.013198e+00
0	 1.428571e-01	 1.071429e+00	-3.036072e+01
0	 1.428571e-01	 1.142857e+00	-1.645521e+01
0	 1.428571e-01	 1.214286e+00	-4.818768e+00
0	 1.428571e-01	 1.285714e+00	 4.548606e+00
0	 1.428571e-01	 1.357143e+00	 1.164691e+01
0	 1.428571e-01	 1.428571e+00	 1.647615e+01
0	 2.142857e-01	 1.071429e+00	-6.517086e+01
0	 2.142857e-01	 1.142857e+00	-4.342368e+01
0	 2.142857e-01	 1.214286e+00	-2.326522e+01
0	 2.142857e-01	 1.285714e+00	-4.695490e+00
0	 2.142857e-01	 1.357143e+00	 1.228552e+01
0	 2.142857e-01	 1.428571e+00	 2.767780e+01
0	 2.857143e-01	 1.071429e+00	-9.773998e+01
0	 2.857143e-01	 1.142857e+00	-6.865159e+01
0	 2.857143e-01	 1.214286e+00	-4.047158e+01
0	 2.857143e-01	 1.285714e+00	-1.319996e+01
0	 2.857143e-01	 1.357143e+00	 1.316329e+01
0	 2.857143e-01	 1.428571e+00	 3.861815e+01
0	 3.571429e-01	 1.071429e+00	-1.280681e+02
0	 3.571429e-01	 1.142857e+00	-9.213894e+01
0	 3.571429e-01	 1.214286e+00	-5.643784e+01
0	 3.571429e-01	 1.285714e+00	-2.096479e+01
0	 3.571429e-01	 1.357143e+00	 1.428022e+01
0	 3.571429e-01	 1.428571e+00	 4.929719e+01
0	 0.000000e+00	 1.428571e+00	-6.711054e+00
0	 0.000000e+00	 1.500000e+00	-1.394907e+01
0	 0.000000e+00	 1.571429e+00	-1.979154e+01
0	 0.000000e+00	 1.642857e+00	-2.423849e+01
0	 0.000000e+00	 1.714286e+00	-2.728990e+01
0	 0.000000e+00	 1.785714e+00	-2.894578e+01
0	 7.142857e-02	 1.428571e+00	 5.013198e+00
0	 7.142857e-02	 1.500000e+00	 7.654688e-01
0	 7.142857e-02	 1.571429e+00	-2.159491e+00
0	 7.142857e-02	 1.642857e+00	-3.761681e+00
0	 7.142857e-02	 1.714286e+00	-4.041102e+00
0	 7.142857e-02	 1.785714e+00	-2.997753e+00
0	 1.428571e-01	 1.428571e+00	 1.647615e+01
0	 1.428571e-01	 1.500000e+00	 1.380226e+01
0	 1.428571e-01	 1.571429e+00	 1.237838e+01
0	 1.428571e-01	 1.642857e+00	 1.220450e+01
0	 1.428571e-01	 1.714286e+00	 1.328064e+01
0	 1.428571e-01	 1.785714e+00	 1.560677e+01
0	 2.142857e-01	 1.428571e+00	 2.767780e+01
0	 2.142857e-01	 1.500000e+00	 2.516131e+01
0	 2.142857e-01	 1.571429e+00	 2.382207e+01
0	 2.142857e-01	 1.642857e+00	 2.366007e+01
0	 2.142857e-01	 1.714286e+00	 2.467531e+01
0	 2.142857e-01	 1.785714e+00	 2.686779e+01
0	 2.857143e-01	 1.428571e+00	 3.861815e+01
0	 2.857143e-01	 1.500000e+00	 3.484262e+01
0	 2.857143e-01	 1.571429e+00	 3.217158e+01
0	 2.857143e-01	 1.642857e+00	 3.060501e+01
0	 2.857143e-01	 1.714286e+00	 3.014293e+01
0	 2.857143e-01	 1.785714e+00	 3.078532e+01
0	 3.571429e-01	 1.428571e+00	 4.929719e+01
0	 3.571429e-01	 1.500000e+00	 4.284619e+01
0	 3.571429e-01	 1.571429e+00	 3.742691e+01
0	 3.571429e-01	 1.642857e+00	 3.303934e+01
0	 3.571429e-01	 1.714286e+00	 2.968348e+01
0	 3.571429e-01	 1.785714e+00	 2.735934e+01
0	 0.000000e+00	 1.785714e+00	-2.894578e+01
0	 0.000000e+00	 1.857143e+00	-2.046914e+01
0	 0.000000e+00	 1.928571e+00	-1.185702e+01
0	 0.000000e+00	 2.000000e+00	-3.109430e+00
0	 0.000000e+00	 2.071429e+00	 5.773638e+00
0	 0.000000e+00	 2.142857e+00	 1.479218e+01
0	 7.142857e-02	 1.785714e+00	-2.997753e+00
0	 7.142857e-02	 1.857143e+00	 3.331290e-01
0	 7.142857e-02	 1.928571e+00	 3.612157e+00
0	 7.142857e-02	 2.000000e+00	 6.839330e+00
0	 7.142857e-02	 2.071429e+00	 1.001465e+01
0	 7.142857e-02	 2.142857e+00	 1.313811e+01
0	 1.428571e-01	 1.785714e+00	 1.560677e+01
0	 1.428571e-01	 1.857143e+00	 1.530783e+01
0	 1.428571e-01	 1.928571e+00	 1.476970e+01
0	 1.428571e-01	 2.000000e+00	 1.399239e+01
0	 1.428571e-01	 2.071429e+00	 1.297589e+01
0	 1.428571e-01	 2.142857e+00	 1.172021e+01
0	 2.142857e-01	 1.785714e+00	 2.686779e+01
0	 2.142857e-01	 1.857143e+00	 2.445496e+01
0	 2.142857e-01	 1.928571e+00	 2.161561e+01
0	 2.142857e-01	 2.000000e+00	 1.834974e+01
0	 2.142857e-01	 2.071429e+00	 1.465736e+01
0	 2.142857e-01	 2.142857e+00	 1.053846e+01
0	 2.857143e-01	 1.785714e+00	 3.078532e+01
0	 2.857143e-01	 1.857143e+00	 2.777452e+01
0	 2.857143e-01	 1.928571e+00	 2.414988e+01
0	 2.857143e-01	 2.000000e+00	 1.991139e+01
0	 2.857143e-01	 2.071429e+00	 1.505906e+01
0	 2.857143e-01	 2.142857e+00	 9.592878e+00
0	 3.571429e-01	 1.785714e+00	 2.735934e+01
0	 3.571429e-01	 1.857143e+00	 2.526651e+01
0	 3.571429e-01	 1.928571e+00	 2.237251e+01
0	 3.571429e-01	 2.000000e+00	 1.867734e+01
0	 3.571429e-01	 2.071429e+00	 1.418098e+01
0	 3.571429e-01	 2.142857e+00	 8.883455e+00
0	 0.000000e+00	 2.142857e+00	 1.479218e+01
0	 0.000000e+00	 2.214286e+00	 1.459978e+01
0	 0.000000e+00	 2.285714e+00	 1.414458e+01
0	 0.000000e+00	 2.357143e+00	 1.342656e+01
0	 0.000000e+00	 2.428571e+00	 1.244574e+01
0	 0.000000e+00	 2.500000e+00	 1.120212e+01
0	 7.142857e-02	 2.142857e+00	 1.313811e+01
0	 7.142857e-02	 2.214286e+00	 1.334971e+01
0	 7.142857e-02	 2.285714e+00	 1.335057e+01
0	 7.142857e-02	 2.357143e+00	 1.314067e+01
0	 7.142857e-02	 2.428571e+00	 1.272004e+01
0	 7.142857e-02	 2.500000e+00	 1.208866e+01
0	 1.428571e-01	 2.142857e+00	 1.172021e+01
0	 1.428571e-01	 2.214286e+00	 1.226451e+01
0	 1.428571e-01	 2.285714e+00	 1.265014e+01
0	 1.428571e-01	 2.357143e+00	 1.287708e+01
0	 1.428571e-01	 2.428571e+00	 1.294535e+01
0	 1.428571e-01	 2.500000e+00	 1.285493e+01
0	 2.142857e-01	 2.142857e+00	 1.053846e+01
0	 2.142857e-01	 2.214286e+00	 1.134419e+01
0	 2.142857e-01	 2.285714e+00	 1.204330e+01
0	 2.142857e-01	 2.357143e+00	 1.263579e+01
0	 2.142857e-01	 2.428571e+00	 1.312166e+01
0	 2.142857e-01	 2.500000e+00	 1.350091e+01
0	 2.857143e-01	 2.142857e+00	 9.592878e+00
0	 2.857143e-01	 2.214286e+00	 1.058874e+01
0	 2.857143e-01	 2.285714e+00	 1.153004e+01
0	 2.857143e-01	 2.357143e+00	 1.241679e+01
0	 2.857143e-01	 2.428571e+00	 1.324898e+01
0	 2.857143e-01	 2.500000e+00	 1.402661e+01
0	 3.571429e-01	 2.142857e+00	 8.883455e+00
0	 3.571429e-01	 2.214286e+00	 9.998155e+00
0	 3.571429e-01	 2.285714e+00	 1.111036e+01
0	 3.571429e-01	 2.357143e+00	 1.222008e+01
0	 3.571429e-01	 2.428571e+00	 1.332730e+01
0	 3.571429e-01	 2.500000e+00	 1.443204e+01
0	 0.000000e+00	 2.500000e+00	 1.120212e+01
0	 0.000000e+00	 2.571429e+00	 1.160945e+01
0	 0.000000e+00	 2.642857e+00	 1.199970e+01
0	 0.000000e+00	 2.714286e+00	 1.237287e+01
0	 0.000000e+00	 2.785714e+00	 1.272896e+01
0	 0.000000e+00	 2.857143e+00	 1.306798e+01
0	 7.142857e-02	 2.500000e+00	 1.208866e+01
0	 7.142857e-02	 2.571429e+00	 1.225403e+01
0	 7.142857e-02	 2.642857e+00	 1.241228e+01
0	 7.142857e-02	 2.714286e+00	 1.256343e+01
0	 7.142857e-02	 2.785714e+00	 1.270748e+01
0	 7.142857e-02	 2.857143e+00	 1.284441e+01
0	 1.428571e-01	 2.500000e+00	 1.285493e+01
0	 1.428571e-01	 2.571429e+00	 1.280641e+01
0	 1.428571e-01	 2.642857e+00	 1.276076e+01
0	 1.428571e-01	 2.714286e+00	 1.271798e+01
0	 1.428571e-01	 2.785714e+00	 1.267806e+01
0	 1.428571e-01	 2.857143e+00	 1.264101e+01
0	 2.142857e-01	 2.500000e+00	 1.350091e+01
0	 2.142857e-01	 2.571429e+00	 1.326661e+01
0	 2.142857e-01	 2.642857e+00	 1.304514e+01
0	 2.142857e-01	 2.714286e+00	 1.283651e+01
0	 2.142857e-01	 2.785714e+00	 1.264071e+01
0	 2.142857e-01	 2.857143e+00	 1.245776e+01
0	 2.857143e-01	 2.500000e+00	 1.402661e+01
0	 2.857143e-01	 2.571429e+00	 1.363461e+01
0	 2.857143e-01	 2.642857e+00	 1.326541e+01
0	 2.857143e-01	 2.714286e+00	 1.291902e+01
0	 2.857143e-01	 2.785714e+00	 1.259544e+01
0	 2.857143e-01	 2.857143e+00	 1.229467e+01
0	 3.571429e-01	 2.500000e+00	 1.443204e+01
0	 3.571429e-01	 2.571429e+00	 1.391041e+01
0	 3.571429e-01	 2.642857e+00	 1.342157e+01
0	 3.571429e-01	 2.714286e+00	 1.296551e+01
0	 3.571429e-01	 2.785714e+00	 1.254223e+01
0	 3.571429e-01	 2.857143e+00	 1.215174e+01
0	 0.000000e+00	 2.857143e+00	 1.306798e+01
0	 0.000000e+00	 2.928571e+00	 1.286920e+01
0	 0.000000e+00	 3.000000e+00	 1.269610e+01
0	 0.000000e+00	 3.071429e+00	 1.254868e+01
0	 0.000000e+00	 3.142857e+00	 1.242693e+01
0	 0.000000e+00	 3.214286e+00	 1.233086e+01
0	 7.142857e-02	 2.857143e+00	 1.284441e+01
0	 7.142857e-02	 2.928571e+00	 1.271846e+01
0	 7.142857e-02	 3.000000e+00	 1.260732e+01
0	 7.142857e-02	 3.071429e+00	 1.251100e+01
0	 7.142857e-02	 3.142857e+00	 1.242950e+01
0	 7.142857e-02	 3.214286e+00	 1.236281e+01
0	 1.428571e-01	 2.857143e+00	 1.264101e+01
0	 1.428571e-01	 2.928571e+00	 1.258521e+01
0	 1.428571e-01	 3.000000e+00	 1.253338e+01
0	 1.428571e-01	 3.071429e+00	 1.248550e+01
0	 1.428571e-01	 3.142857e+00	 1.244157e+01
0	 1.428571e-01	 3.214286e+00	 1.240160e+01
0	 2.142857e-01	 2.857143e+00	 1.245776e+01
0	 2.142857e-01	 2.928571e+00	 1.246946e+01
0	 2.142857e-01	 3.000000e+00	 1.247426e+01
0	 2.142857e-01	 3.071429e+00	 1.247216e+01
0	 2.142857e-01	 3.142857e+00	 1.246315e+01
0	 2.142857e-01	 3.214286e+00	 1.244724e+01
0	 2.857143e-01	 2.857143e+00	 1.229467e+01
0	 2.857143e-01	 2.928571e+00	 1.237121e+01
0	 2.857143e-01	 3.000000e+00	 1.242999e+01
0	 2.857143e-01	 3.071429e+00	 1.247100e+01
0	 2.857143e-01	 3.142857e+00	 1.249425e+01
0	 2.857143e-01	 3.214286e+00	 1.249973e+01
0	 3.571429e-01	 2.857143e+00	 1.215174e+01
0	 3.571429e-01	 2.928571e+00	 1.229045e+01
0	 3.571429e-01	 3.000000e+00	 1.240054e+01
0	 3.571429e-01	 3.071429e+00	 1.248201e+01
0	 3.571429e-01	 3.142857e+00	 1.253485e+01
0	 3.571429e-01	 3.214286e+00	 1.255907e+01
0	 0.000000e+00	 3.214286e+00	 1.233086e+01
0	 0.000000e+00	 3.285714e+00	 1.233536e+01
0	 0.000000e+00	 3.357143e+00	 1.232797e+01
0	 0.000000e+00	 3.428571e+00	 1.230870e+01
0	 0.000000e+00	 3.500000e+00	 1.227755e+01
0	 0.000000e+00	 3.571429e+00	 1.223451e+01
0	 7.142857e-02	 3.214286e+00	 1.236281e+01
0	 7.142857e-02	 3.285714e+00	 1.235058e+01
0	 7.142857e-02	 3.357143e+00	 1.233250e+01
0	 7.142857e-02	 3.428571e+00	 1.230857e+01
0	 7.142857e-02	 3.500000e+00	 1.227880e+01
0	 7.142857e-02	 3.571429e+00	 1.224317e+01
0	 1.428571e-01	 3.214286e+00	 1.240160e+01
0	 1.428571e-01	 3.285714e+00	 1.236892e+01
0	 1.428571e-01	 3.357143e+00	 1.233642e+01
0	 1.428571e-01	 3.428571e+00	 1.230411e+01
0	 1.428571e-01	 3.500000e+00	 1.227199e+01
0	 1.428571e-01	 3.571429e+00	 1.224005e+01
0	 2.142857e-01	 3.214286e+00	 1.244724e+01
0	 2.142857e-01	 3.285714e+00	 1.239038e+01
0	 2.142857e-01	 3.357143e+00	 1.233975e+01
0	 2.142857e-01	 3.428571e+00	 1.229533e+01
0	 2.142857e-01	 3.500000e+00	 1.225713e+01
0	 2.142857e-01	 3.571429e+00	 1.222515e+01
0	 2.857143e-01	 3.214286e+00	 1.249973e+01
0	 2.857143e-01	 3.285714e+00	 1.241497e+01
0	 2.857143e-01	 3.357143e+00	 1.234246e+01
0	 2.857143e-01	 3.428571e+00	 1.228221e+01
0	 2.857143e-01	 3.500000e+00	 1.223422e+01
0	 2.857143e-01	 3.571429e+00	 1.219848e+01
0	 3.571429e-01	 3.214286e+00	 1.255907e+01
0	 3.571429e-01	 3.285714e+00	 1.244268e+01
0	 3.571429e-01	 3.357143e+00	 1.234458e+01
0	 3.571429e-01	 3.428571e+00	 1.226477e+01
0	 3.571429e-01	 3.500000e+00	 1.220325e+01
0	 3.571429e-01	 3.571429e+00	 1.216002e+01
0	 0.000000e+00	 3.571429e+00	 1.223451e+01
0	 0.000000e+00	 3.642857e+00	 1.217117e+01
0	 0.000000e+00	 3.714286e+00	 1.211732e+01
0	 0.000000e+00	 3.785714e+00	 1.207298e+01
0	 0.000000e+00	 3.857143e+00	 1.203813e+01
0	 0.000000e+00	 3.928571e+00	 1.201278e+01
0	 7.142857e-02	 3.571429e+00	 1.224317e+01
0	 7.142857e-02	 3.642857e+00	 1.218086e+01
0	 7.142857e-02	 3.714286e+00	 1.212540e+01
0	 7.142857e-02	 3.785714e+00	 1.207680e+01
0	 7.142857e-02	 3.857143e+00	 1.203504e+01
0	 7.142857e-02	 3.928571e+00	 1.200014e+01
0	 1.428571e-01	 3.571429e+00	 1.224005e+01
0	 1.428571e-01	 3.642857e+00	 1.218106e+01
0	 1.428571e-01	 3.714286e+00	 1.212627e+01
0	 1.428571e-01	 3.785714e+00	 1.207569e+01
0	 1.428571e-01	 3.857143e+00	 1.202931e+01
0	 1.428571e-01	 3.928571e+00	 1.198713e+01
0	 2.142857e-01	 3.571429e+00	 1.222515e+01
0	 2.142857e-01	 3.642857e+00	 1.217176e+01
0	 2.142857e-01	 3.714286e+00	 1.211992e+01
0	 2.142857e-01	 3.785714e+00	 1.206964e+01
0	 2.142857e-01	 3.857143e+00	 1.202092e+01
0	 2.142857e-01	 3.928571e+00	 1.197376e+01
0	 2.857143e-01	 3.571429e+00	 1.219848e+01
0	 2.857143e-01	 3.642857e+00	 1.215296e+01
0	 2.857143e-01	 3.714286e+00	 1.210636e+01
0	 2.857143e-01	 3.785714e+00	 1.205866e+01
0	 2.857143e-01	 3.857143e+00	 1.200988e+01
0	 2.857143e-01	 3.928571e+00	 1.196002e+01
0	 3.571429e-01	 3.571429e+00	 1.216002e+01
0	 3.571429e-01	 3.642857e+00	 1.212467e+01
0	 3.571429e-01	 3.714286e+00	 1.208558e+01
0	 3.571429e-01	 3.785714e+00	 1.204276e+01
0	 3.571429e-01	 3.857143e+00	 1.199620e+01
0	 3.571429e-01	 3.928571e+00	 1.194590e+01
0	 0.000000e+00	 3.928571e+00	 1.201278e+01
0	 0.000000e+00	 4.000000e+00	 1.196073e+01
0	 0.000000e+00	 4.071429e+00	 1.190807e+01
0	 0.000000e+00	 4.142857e+00	 1.185481e+01
0	 0.000000e+00	 4.214286e+00	 1.180095e+01
0	 0.000000e+00	 4.285714e+00	 1.174649e+01
0	 7.142857e-02	 3.928571e+00	 1.200014e+01
0	 7.142857e-02	 4.000000e+00	 1.195036e+01
0	 7.142857e-02	 4.071429e+00	 1.190085e+01
0	 7.142857e-02	 4.142857e+00	 1.185163e+01
0	 7.142857e-02	 4.214286e+00	 1.180270e+01
0	 7.142857e-02	 4.285714e+00	 1.175405e+01
0	 1.428571e-01	 3.928571e+00	 1.198713e+01
0	 1.428571e-01	 4.000000e+00	 1.193817e+01
0	 1.428571e-01	 4.071429e+00	 1.189039e+01
0	 1.428571e-01	 4.142857e+00	 1.184377e+01
0	 1.428571e-01	 4.214286e+00	 1.179832e+01
0	 1.428571e-01	 4.285714e+00	 1.175405e+01
0	 2.142857e-01	 3.928571e+00	 1.197376e+01
0	 2.142857e-01	 4.000000e+00	 1.192419e+01
0	 2.142857e-01	 4.071429e+00	 1.187667e+01
0	 2.142857e-01	 4.142857e+00	 1.183122e+01
0	 2.142857e-01	 4.214286e+00	 1.178782e+01
0	 2.142857e-01	 4.285714e+00	 1.174648e+01
0	 2.857143e-01	 3.928571e+00	 1.196002e+01
0	 2.857143e-01	 4.000000e+00	 1.190839e+01
0	 2.857143e-01	 4.071429e+00	 1.185971e+01
0	 2.857143e-01	 4.142857e+00	 1.181398e+01
0	 2.857143e-01	 4.214286e+00	 1.177119e+01
0	 2.857143e-01	 4.285714e+00	 1.173135e+01
0	 3.571429e-01	 3.928571e+00	 1.194590e+01
0	 3.571429e-01	 4.000000e+00	 1.189079e+01
0	 3.571429e-01	 4.071429e+00	 1.183951e+01
0	 3.571429e-01	 4.142857e+00	 1.179206e+01
0	 3.571429e-01	 4.214286e+00	 1.174844e+01
0	 3.571429e-01	 4.285714e+00	 1.170866e+01
0	 0.000000e+00	 4.285714e+00	 1.174649e+01
0	 0.000000e+00	 4.357143e+00	 1.170078e+01
0	 0.000000e+00	 4.428571e+00	 1.165705e+01
0	 0.000000e+00	 4.500000e+00	 1.161528e+01
0	 0.000000e+00	 4.571429e+00	 1.157548e+01
0	 0.000000e+00	 4.642857e+00	 1.153765e+01
0	 7.142857e-02	 4.285714e+00	 1.175405e+01
0	 7.142857e-02	 4.357143e+00	 1.170685e+01
0	 7.142857e-02	 4.428571e+00	 1.166132e+01
0	 7.142857e-02	 4.500000e+00	 1.161746e+01
0	 7.142857e-02	 4.571429e+00	 1.157527e+01
0	 7.142857e-02	 4.642857e+00	 1.153476e+01
0	 1.428571e-01	 4.285714e+00	 1.175405e+01
0	 1.428571e-01	 4.357143e+00	 1.170611e+01
0	 1.428571e-01	 4.428571e+00	 1.165954e+01
0	 1.428571e-01	 4.500000e+00	 1.161435e+01
0	 1.428571e-01	 4.571429e+00	 1.157054e+01
0	 1.428571e-01	 4.642857e+00	 1.152811e+01
0	 2.142857e-01	 4.285714e+00	 1.174648e+01
0	 2.142857e-01	 4.357143e+00	 1.169856e+01
0	 2.142857e-01	 4.428571e+00	 1.165172e+01
0	 2.142857e-01	 4.500000e+00	 1.160597e+01
0	 2.142857e-01	 4.571429e+00	 1.156129e+01
0	 2.142857e-01	 4.642857e+00	 1.151769e+01
0	 2.857143e-01	 4.285714e+00	 1.173135e+01
0	 2.857143e-01	 4.357143e+00	 1.168422e+01
0	 2.857143e-01	 4.428571e+00	 1.163786e+01
0	 2.857143e-01	 4.500000e+00	 1.159229e+01
0	 2.857143e-01	 4.571429e+00	 1.154751e+01
0	 2.857143e-01	 4.642857e+00	 1.150351e+01
0	 3.571429e-01	 4.285714e+00	 1.170866e+01
0	 3.571429e-01	 4.357143e+00	 1.166307e+01
0	 3.571429e-01	 4.428571e+00	 1.161796e+01
0	 3.571429e-01	 4.500000e+00	 1.157334e+01
0	 3.571429e-01	 4.571429e+00	 1.152921e+01
0	 3.571429e-01	 4.642857e+00	 1.148557e+01
0	 0.000000e+00	 4.642857e+00	 1.153765e+01
0	 0.000000e+00	 4.714286e+00	 1.149334e+01
0	 0.000000e+00	 4.785714e+00	 1.144962e+01
0	 0.000000e+00	 4.857143e+00	 1.140648e+01
0	 0.000000e+00	 4.928571e+00	 1.136393e+01
0	 0.000000e+00	 5.000000e+00	 1.132196e+01
0	 7.142857e-02	 4.642857e+00	 1.153476e+01
0	 7.142857e-02	 4.714286e+00	 1.149133e+01
0	 7.142857e-02	 4.785714e+00	 1.144854e+01
0	 7.142857e-02	 4.857143e+00	 1.140639e+01
0	 7.142857e-02	 4.928571e+00	 1.136489e+01
0	 7.142857e-02	 5.000000e+00	 1.132404e+01
0	 1.428571e-01	 4.642857e+00	 1.152811e+01
0	 1.428571e-01	 4.714286e+00	 1.148539e+01
0	 1.428571e-01	 4.785714e+00	 1.144338e+01
0	 1.428571e-01	 4.857143e+00	 1.140207e+01
0	 1.428571e-01	 4.928571e+00	 1.136146e+01
0	 1.428571e-01	 5.000000e+00	 1.132156e+01
0	 2.142857e-01	 4.642857e+00	 1.151769e+01
0	 2.142857e-01	 4.714286e+00	 1.147553e+01
0	 2.142857e-01	 4.785714e+00	 1.143413e+01
0	 2.142857e-01	 4.857143e+00	 1.139350e+01
0	 2.142857e-01	 4.928571e+00	 1.135363e+01
0	 2.142857e-01	 5.000000e+00	 1.131452e+01
0	 2.857143e-01	 4.642857e+00	 1.150351e+01
0	 2.857143e-01	 4.714286e+00	 1.146175e+01
0	 2.857143e-01	 4.785714e+00	 1.142081e+01
0	 2.857143e-01	 4.857143e+00	 1.138070e+01
0	 2.857143e-01	 4.928571e+00	 1.134141e+01
0	 2.857143e-01	 5.000000e+00	 1.130294e+01
0	 3.571429e-01	 4.642857e+00	 1.148557e+01
0	 3.571429e-01	 4.714286e+00	 1.144405e+01
0	 3.571429e-01	 4.785714e+00	 1.140341e+01
0	 3.571429e-01	 4.857143e+00	 1.136366e+01
0	 3.571429e-01	 4.928571e+00	 1.132479e+01
0	 3.571429e-01	 5.000000e+00	 1.128680e+01
0	 0.000000e+00	 5.000000e+00	 1.132196e+01
0	 0.000000e+00	 5.071429e+00	 1.128415e+01
0	 0.000000e+00	 5.142857e+00	 1.124684e+01
0	 0.000000e+00	 5.214286e+00	 1.121001e+01
0	 0.000000e+00	 5.285714e+00	 1.117368e+01
0	 0.000000e+00	 5.357143e+00	 1.113783e+01
0	 7.142857e-02	 5.000000e+00	 1.132404e+01
0	 7.142857e-02	 5.071429e+00	 1.128587e+01
0	 7.142857e-02	 5.142857e+00	 1.124818e+01
0	 7.142857e-02	 5.214286e+00	 1.121097e+01
0	 7.142857e-02	 5.285714e+00	 1.117424e+01
0	 7.142857e-02	 5.357143e+00	 1.113799e+01
0	 1.428571e-01	 5.000000e+00	 1.132156e+01
0	 1.428571e-01	 5.071429e+00	 1.128326e+01
0	 1.428571e-01	 5.142857e+00	 1.124544e+01
0	 1.428571e-01	 5.214286e+00	 1.120809e+01
0	 1.428571e-01	 5.285714e+00	 1.117120e+01
0	 1.428571e-01	 5.357143e+00	 1.113478e+01
0	 2.142857e-01	 5.000000e+00	 1.131452e+01
0	 2.142857e-01	 5.071429e+00	 1.127634e+01
0	 2.142857e-01	 5.142857e+00	 1.123862e+01
0	 2.142857e-01	 5.214286e+00	 1.120136e+01
0	 2.142857e-01	 5.285714e+00	 1.116455e+01
0	 2.142857e-01	 5.357143e+00	 1.112820e+01
0	 2.857143e-01	 5.000000e+00	 1.130294e+01
0	 2.857143e-01	 5.071429e+00	 1.126511e+01
0	 2.857143e-01	 5.142857e+00	 1.122773e+01
0	 2.857143e-01	 5.214286e+00	 1.119079e+01
0	 2.857143e-01	 5.285714e+00	 1.115430e+01
0	 2.857143e-01	 5.357143e+00	 1.111825e+01
0	 3.571429e-01	 5.000000e+00	 1.128680e+01
0	 3.571429e-01	 5.071429e+00	 1.124956e+01
0	 3.571429e-01	 5.142857e+00	 1.121275e+01
0	 3.571429e-01	 5.214286e+00	 1.117638e+01
0	 3.571429e-01	 5.285714e+00	 1.114044e+01
0	 3.571429e-01	 5.357143e+00	 1.110493e+01
0	 0.000000e+00	 5.357143e+00	 1.113783e+01
0	 0.000000e+00	 5.428571e+00	 1.110345e+01
0	 0.000000e+00	 5.500000e+00	 1.106935e+01
0	 0.000000e+00	 5.571429e+00	 1.103553e+01
0	 0.000000e+00	 5.642857e+00	 1.100198e+01
0	 0.000000e+00	 5.714286e+00	 1.096871e+01
0	 7.142857e-02	 5.357143e+00	 1.113799e+01
0	 7.142857e-02	 5.428571e+00	 1.110375e+01
0	 7.142857e-02	 5.500000e+00	 1.106978e+01
0	 7.142857e-02	 5.571429e+00	 1.103608e+01
0	 7.142857e-02	 5.642857e+00	 1.100266e+01
0	 7.142857e-02	 5.714286e+00	 1.096951e+01
0	 1.428571e-01	 5.357143e+00	 1.113478e+01
0	 1.428571e-01	 5.428571e+00	 1.110075e+01
0	 1.428571e-01	 5.500000e+00	 1.106699e+01
0	 1.428571e-01	 5.571429e+00	 1.103351e+01
0	 1.428571e-01	 5.642857e+00	 1.100029e+01
0	 1.428571e-01	 5.714286e+00	 1.096735e+01
0	 2.142857e-01	 5.357143e+00	 1.112820e+01
0	 2.142857e-01	 5.428571e+00	 1.109446e+01
0	 2.142857e-01	 5.500000e+00	 1.106100e+01
0	 2.142857e-01	 5.571429e+00	 1.102780e+01
0	 2.142857e-01	 5.642857e+00	 1.099488e+01
0	 2.142857e-01	 5.714286e+00	 1.096222e+01
0	 2.857143e-01	 5.357143e+00	 1.111825e+01
0	 2.857143e-01	 5.428571e+00	 1.108489e+01
0	 2.857143e-01	 5.500000e+00	 1.105179e+01
0	 2.857143e-01	 5.571429e+00	 1.101897e+01
0	 2.857143e-01	 5.642857e+00	 1.098641e+01
0	 2.857143e-01	 5.714286e+00	 1.095412e+01
0	 3.571429e-01	 5.357143e+00	 1.110493e+01
0	 3.571429e-01	 5.428571e+00	 1.107203e+01
0	 3.571429e-01	 5.500000e+00	 1.103938e+01
0	 3.571429e-01	 5.571429e+00	 1.100700e+01
0	 3.571429e-01	 5.642857e+00	 1.097489e+01
0	 3.571429e-01	 5.714286e+00	 1.094305e+01
0	 0.000000e+00	 5.714286e+00	 1.096871e+01
0	 0.000000e+00	 5.785714e+00	 1.093850e+01
0	 0.000000e+00	 5.857143e+00	 1.090842e+01
0	 0.000000e+00	 5.928571e+00	 1.087848e+01
0	 0.000000e+00	 6.000000e+00	 1.084865e+01
0	 0.000000e+00	 6.071429e+00	 1.081896e+01
0	 7.142857e-02	 5.714286e+00	 1.096951e+01
0	 7.142857e-02	 5.785714e+00	 1.093925e+01
0	 7.142857e-02	 5.857143e+00	 1.090911e+01
0	 7.142857e-02	 5.928571e+00	 1.087911e+01
0	 7.142857e-02	 6.000000e+00	 1.084923e+01
0	 7.142857e-02	 6.071429e+00	 1.081949e+01
0	 1.428571e-01	 5.714286e+00	 1.096735e+01
0	 1.428571e-01	 5.785714e+00	 1.093714e+01
0	 1.428571e-01	 5.857143e+00	 1.090706e+01
0	 1.428571e-01	 5.928571e+00	 1.087712e+01
0	 1.428571e-01	 6.000000e+00	 1.084731e+01
0	 1.428571e-01	 6.071429e+00	 1.081763e+01
0	 2.142857e-01	 5.714286e+00	 1.096222e+01
0	 2.142857e-01	 5.785714e+00	 1.093218e+01
0	 2.142857e-01	 5.857143e+00	 1.090227e+01
0	 2.142857e-01	 5.928571e+00	 1.087250e+01
0	 2.142857e-01	 6.000000e+00	 1.084287e+01
0	 2.142857e-01	 6.071429e+00	 1.081339e+01
0	 2.857143e-01	 5.714286e+00	 1.095412e+01
0	 2.857143e-01	 5.785714e+00	 1.092436e+01
0	 2.857143e-01	 5.857143e+00	 1.089474e+01
0	 2.857143e-01	 5.928571e+00	 1.086527e+01
0	 2.857143e-01	 6.000000e+00	 1.083594e+01
0	 2.857143e-01	 6.071429e+00	 1.080675e+01
0	 3.571429e-01	 5.714286e+00	 1.094305e+01
0	 3.571429e-01	 5.785714e+00	 1.091369e+01
0	 3.571429e-01	 5.857143e+00	 1.088448e+01
0	 3.571429e-01	 5.928571e+00	 1.085541e+01
0	 3.571429e-01	 6.000000e+00	 1.082649e+01
0	 3.571429e-01	 6.071429e+00	 1.079772e+01
0	 0.000000e+00	 6.071429e+00	 1.081896e+01
0	 0.000000e+00	 6.142857e+00	 1.079202e+01
0	 0.000000e+00	 6.214286e+00	 1.076513e+01
0	 0.000000e+00	 6.285714e+00	 1.073828e+01
0	 0.000000e+00	 6.357143e+00	 1.071147e+01
0	 0.000000e+00	 6.428571e+00	 1.068470e+01
0	 7.142857e-02	 6.071429e+00	 1.081949e+01
0	 7.142857e-02	 6.142857e+00	 1.079255e+01
0	 7.142857e-02	 6.214286e+00	 1.076566e+01
0	 7.142857e-02	 6.285714e+00	 1.073881e+01
0	 7.142857e-02	 6.357143e+00	 1.071200e+01
0	 7.142857e-02	 6.428571e+00	 1.068524e+01
0	 1.428571e-01	 6.071429e+00	 1.081763e+01
0	 1.428571e-01	 6.142857e+00	 1.079078e+01
0	 1.428571e-01	 6.214286e+00	 1.076397e+01
0	 1.428571e-01	 6.285714e+00	 1.073721e+01
0	 1.428571e-01	 6.357143e+00	 1.071049e+01
0	 1.428571e-01	 6.428571e+00	 1.068381e+01
0	 2.142857e-01	 6.071429e+00	 1.081339e+01
0	 2.142857e-01	 6.142857e+00	 1.078671e+01
0	 2.142857e-01	 6.214286e+00	 1.076007e+01
0	 2.142857e-01	 6.285714e+00	 1.073348e+01
0	 2.142857e-01	 6.357143e+00	 1.070692e+01
0	 2.142857e-01	 6.428571e+00	 1.068042e+01
0	 2.857143e-01	 6.071429e+00	 1.080675e+01
0	 2.857143e-01	 6.142857e+00	 1.078032e+01
0	 2.857143e-01	 6.214286e+00	 1.075394e+01
0	 2.857143e-01	 6.285714e+00	 1.072760e+01
0	 2.857143e-01	 6.357143e+00	 1.070131e+01
0	 2.857143e-01	 6.428571e+00	 1.067506e+01
0	 3.571429e-01	 6.071429e+00	 1.079772e+01
0	 3.571429e-01	 6.142857e+00	 1.077164e+01
0	 3.571429e-01	 6.214286e+00	 1.074560e+01
0	 3.571429e-01	 6.285714e+00	 1.071960e+01
0	 3.571429e-01	 6.357143e+00	 1.069365e+01
0	 3.571429e-01	 6.428571e+00	 1.066774e+01
0	 0.000000e+00	 6.428571e+00	 1.068470e+01
0	 0.000000e+00	 6.500000e+00	 1.066077e+01
0	 0.000000e+00	 6.571429e+00	 1.063681e+01
0	 0.000000e+00	 6.642857e+00	 1.061281e+01
0	 0.000000e+00	 6.714286e+00	 1.058877e+01
0	 0.000000e+00	 6.785714e+00	 1.056469e+01
0	 7.142857e-02	 6.428571e+00	 1.068524e+01
0	 7.142857e-02	 6.500000e+00	 1.066129e+01
0	 7.142857e-02	 6.571429e+00	 1.063731e+01
0	 7.142857e-02	 6.642857e+00	 1.061330e+01
0	 7.142857e-02	 6.714286e+00	 1.058925e+01
0	 7.142857e-02	 6.785714e+00	 1.056516e+01
0	 1.428571e-01	 6.428571e+00	 1.068381e+01
0	 1.428571e-01	 6.500000e+00	 1.065992e+01
0	 1.428571e-01	 6.571429e+00	 1.063600e+01
0	 1.428571e-01	 6.642857e+00	 1.061205e+01
0	 1.428571e-01	 6.714286e+00	 1.058807e+01
0	 1.428571e-01	 6.785714e+00	 1.056405e+01
0	 2.142857e-01	 6.428571e+00	 1.068042e+01
0	 2.142857e-01	 6.500000e+00	 1.065666e+01
0	 2.142857e-01	 6.571429e+00	 1.063288e+01
0	 2.142857e-01	 6.642857e+00	 1.060906e+01
0	 2.142857e-01	 6.714286e+00	 1.058522e+01
0	 2.142857e-01	 6.785714e+00	 1.056134e+01
0	 2.857143e-01	 6.428571e+00	 1.067506e+01
0	 2.857143e-01	 6.500000e+00	 1.065151e+01
0	 2.857143e-01	 6.571429e+00	 1.062794e+01
0	 2.857143e-01	 6.642857e+00	 1.060434e+01
0	 2.857143e-01	 6.714286e+00	 1.058071e+01
0	 2.857143e-01	 6.785714e+00	 1.055705e+01
0	 3.571429e-01	 6.428571e+00	 1.066774e+01
0	 3.571429e-01	 6.500000e+00	 1.064448e+01
0	 3.571429e-01	 6.571429e+00	 1.062119e+01
0	 3.571429e-01	 6.642857e+00	 1.059788e+01
0	 3.571429e-01	 6.714286e+00	 1.057454e+01
0	 3.571429e-01	 6.785714e+00	 1.055117e+01
0	 0.000000e+00	 6.785714e+00	 1.056469e+01
0	 0.000000e+00	 6.857143e+00	 1.054339e+01
0	 0.000000e+00	 6.928571e+00	 1.052199e+01
0	 0.000000e+00	 7.000000e+00	 1.050049e+01
0	 0.000000e+00	 7.071429e+00	 1.047890e+01
0	 0.000000e+00	 7.142857e+00	 1.045720e+01
0	 7.142857e-02	 6.785714e+00	 1.056516e+01
0	 7.142857e-02	 6.857143e+00	 1.054385e+01
0	 7.142857e-02	 6.928571e+00	 1.052244e+01
0	 7.142857e-02	 7.000000e+00	 1.050094e+01
0	 7.142857e-02	 7.071429e+00	 1.047933e+01
0	 7.142857e-02	 7.142857e+00	 1.045764e+01
0	 1.428571e-01	 6.785714e+00	 1.056405e+01
0	 1.428571e-01	 6.857143e+00	 1.054279e+01
0	 1.428571e-01	 6.928571e+00	 1.052143e+01
0	 1.428571e-01	 7.000000e+00	 1.049998e+01
0	 1.428571e-01	 7.071429e+00	 1.047843e+01
0	 1.428571e-01	 7.142857e+00	 1.045679e+01
0	 2.142857e-01	 6.785714e+00	 1.056134e+01
0	 2.142857e-01	 6.857143e+00	 1.054020e+01
0	 2.142857e-01	 6.928571e+00	 1.051896e+01
0	 2.142857e-01	 7.000000e+00	 1.049762e+01
0	 2.142857e-01	 7.071429e+00	 1.047619e+01
0	 2.142857e-01	 7.142857e+00	 1.045467e+01
0	 2.857143e-01	 6.785714e+00	 1.055705e+01
0	 2.857143e-01	 6.857143e+00	 1.053608e+01
0	 2.857143e-01	 6.928571e+00	 1.051502e+01
0	 2.857143e-01	 7.000000e+00	 1.049386e+01
0	 2.857143e-01	 7.071429e+00	 1.047262e+01
0	 2.857143e-01	 7.142857e+00	 1.045128e+01
0	 3.571429e-01	 6.785714e+00	 1.055117e+01
0	 3.571429e-01	 6.857143e+00	 1.053044e+01
0	 3.571429e-01	 6.928571e+00	 1.050962e+01
0	 3.571429e-01	 7.000000e+00	 1.048870e+01
0	 3.571429e-01	 7.071429e+00	 1.046770e+01
0	 3.571429e-01	 7.142857e+00	 1.044661e+01
0	 0.000000e+00	 7.142857e+00	 1.045720e+01
0	 0.000000e+00	 7.214286e+00	 1.043828e+01
0	 0.000000e+00	 7.285714e+00	 1.041919e+01
0	 0.000000e+00	 7.357143e+00	 1.039995e+01
0	 0.000000e+00	 7.428571e+00	 1.038056e+01
0	 0.000000e+00	 7.500000e+00	 1.036100e+01
0	 7.142857e-02	 7.142857e+00	 1.045764e+01
0	 7.142857e-02	 7.214286e+00	 1.043870e+01
0	 7.142857e-02	 7.285714e+00	 1.041961e+01
0	 7.142857e-02	 7.357143e+00	 1.040037e+01
0	 7.142857e-02	 7.428571e+00	 1.038096e+01
0	 7.142857e-02	 7.500000e+00	 1.036141e+01
0	 1.428571e-01	 7.142857e+00	 1.045679e+01
0	 1.428571e-01	 7.214286e+00	 1.043790e+01
0	 1.428571e-01	 7.285714e+00	 1.041886e+01
0	 1.428571e-01	 7.357143e+00	 1.039966e+01
0	 1.428571e-01	 7.428571e+00	 1.038030e+01
0	 1.428571e-01	 7.500000e+00	 1.036080e+01
0	 2.142857e-01	 7.142857e+00	 1.045467e+01
0	 2.142857e-01	 7.214286e+00	 1.043588e+01
0	 2.142857e-01	 7.285714e+00	 1.041693e+01
0	 2.142857e-01	 7.357143e+00	 1.039783e+01
0	 2.142857e-01	 7.428571e+00	 1.037857e+01
0	 2.142857e-01	 7.500000e+00	 1.035917e+01
0	 2.857143e-01	 7.142857e+00	 1.045128e+01
0	 2.857143e-01	 7.214286e+00	 1.043263e+01
0	 2.857143e-01	 7.285714e+00	 1.041383e+01
0	 2.857143e-01	 7.357143e+00	 1.039488e+01
0	 2.857143e-01	 7.428571e+00	 1.037577e+01
0	 2.857143e-01	 7.500000e+00	 1.035652e+01
0	 3.571429e-01	 7.142857e+00	 1.044661e+01
0	 3.571429e-01	 7.214286e+00	 1.042815e+01
0	 3.571429e-01	 7.285714e+00	 1.040955e+01
0	 3.571429e-01	 7.357143e+00	 1.039080e+01
0	 3.571429e-01	 7.428571e+00	 1.037190e+01
0	 3.571429e-01	 7.500000e+00	 1.035286e+01
0	 0.000000e+00	 7.500000e+00	 1.036100e+01
0	 0.000000e+00	 7.571429e+00	 1.034428e+01
0	 0.000000e+00	 7.642857e+00	 1.032734e+01
0	 0.000000e+00	 7.714286e+00	 1.031018e+01
0	 0.000000e+00	 7.785714e+00	 1.029281e+01
0	 0.000000e+00	 7.857143e+00	 1.027521e+01
0	 7.142857e-02	 7.500000e+00	 1.036141e+01
0	 7.142857e-02	 7.571429e+00	 1.034468e+01
0	 7.142857e-02	 7.642857e+00	 1.032774e+01
0	 7.142857e-02	 7.714286e+00	 1.031058e+01
0	 7.142857e-02	 7.785714e+00	 1.029320e+01
0	 7.142857e-02	 7.857143e+00	 1.027561e+01
0	 1.428571e-01	 7.500000e+00	 1.036080e+01
0	 1.428571e-01	 7.571429e+00	 1.034411e+01
0	 1.428571e-01	 7.642857e+00	 1.032721e+01
0	 1.428571e-01	 7.714286e+00	 1.031009e+01
0	 1.428571e-01	 7.785714e+00	 1.029275e+01
0	 1.428571e-01	 7.857143e+00	 1.027520e+01
0	 2.142857e-01	 7.500000e+00	 1.035917e+01
0	 2.142857e-01	 7.571429e+00	 1.034256e+01
0	 2.142857e-01	 7.642857e+00	 1.032574e+01
0	 2.142857e-01	 7.714286e+00	 1.030870e+01
0	 2.142857e-01	 7.785714e+00	 1.029145e+01
0	 2.142857e-01	 7.857143e+00	 1.027398e+01
0	 2.857143e-01	 7.500000e+00	 1.035652e+01
0	 2.857143e-01	 7.571429e+00	 1.034004e+01
0	 2.857143e-01	 7.642857e+00	 1.032334e+01
0	 2.857143e-01	 7.714286e+00	 1.030642e+01
0	 2.857143e-01	 7.785714e+00	 1.028930e+01
0	 2.857143e-01	 7.857143e+00	 1.027196e+01
0	 3.571429e-01	 7.500000e+00	 1.035286e+01
0	 3.571429e-01	 7.571429e+00	 1.033653e+01
0	 3.571429e-01	 7.642857e+00	 1.032000e+01
0	 3.571429e-01	 7.714286e+00	 1.030326e+01
0	 3.571429e-01	 7.785714e+00	 1.028630e+01
0	 3.571429e-01	 7.857143e+00	 1.026913e+01
0	 0.000000e+00	 7.857143e+00	 1.027521e+01
0	 0.000000e+00	 7.928571e+00	 1.026063e+01
0	 0.000000e+00	 8.000000e+00	 1.024575e+01
0	 0.000000e+00	 8.071429e+00	 1.023059e+01
0	 0.000000e+00	 8.142857e+00	 1.021513e+01
0	 0.000000e+00	 8.214286e+00	 1.019939e+01
0	 7.142857e-02	 7.857143e+00	 1.027561e+01
0	 7.142857e-02	 7.928571e+00	 1.026102e+01
0	 7.142857e-02	 8.000000e+00	 1.024615e+01
0	 7.142857e-02	 8.071429e+00	 1.023099e+01
0	 7.142857e-02	 8.142857e+00	 1.021554e+01
0	 7.142857e-02	 8.214286e+00	 1.019980e+01
0	 1.428571e-01	 7.857143e+00	 1.027520e+01
0	 1.428571e-01	 7.928571e+00	 1.026065e+01
0	 1.428571e-01	 8.000000e+00	 1.024581e+01
0	 1.428571e-01	 8.071429e+00	 1.023068e+01
0	 1.428571e-01	 8.142857e+00	 1.021527e+01
0	 1.428571e-01	 8.214286e+00	 1.019957e+01
0	 2.142857e-01	 7.857143e+00	 1.027398e+01
0	 2.142857e-01	 7.928571e+00	 1.025950e+01
0	 2.142857e-01	 8.000000e+00	 1.024473e+01
0	 2.142857e-01	 8.071429e+00	 1.022967e+01
0	 2.142857e-01	 8.142857e+00	 1.021433e+01
0	 2.142857e-01	 8.214286e+00	 1.019870e+01
0	 2.857143e-01	 7.857143e+00	 1.027196e+01
0	 2.857143e-01	 7.928571e+00	 1.025758e+01
0	 2.857143e-01	 8.000000e+00	 1.024291e+01
0	 2.857143e-01	 8.071429e+00	 1.022796e+01
0	 2.857143e-01	 8.142857e+00	 1.021272e+01
0	 2.857143e-01	 8.214286e+00	 1.019720e+01
0	 3.571429e-01	 7.857143e+00	 1.026913e+01
0	 3.571429e-01	 7.928571e+00	 1.025488e+01
0	 3.571429e-01	 8.000000e+00	 1.024035e+01
0	 3.571429e-01	 8.071429e+00	 1.022553e+01
0	 3.571429e-01	 8.142857e+00	 1.021044e+01
0	 3.571429e-01	 8.214286e+00	 1.019506e+01
0	 0.000000e+00	 8.214286e+00	 1.019939e+01
0	 0.000000e+00	 8.285714e+00	 1.018698e+01
0	 0.000000e+00	 8.357143e+00	 1.017420e+01
0	 0.000000e+00	 8.428571e+00	 1.016104e+01
0	 0.000000e+00	 8.500000e+00	 1.014751e+01
0	 0.000000e+00	 8.571429e+00	 1.013360e+01
0	 7.142857e-02	 8.214286e+00	 1.019980e+01
0	 7.142857e-02	 8.285714e+00	 1.018739e+01
0	 7.142857e-02	 8.357143e+00	 1.017462e+01
0	 7.142857e-02	 8.428571e+00	 1.016146e+01
0	 7.142857e-02	 8.500000e+00	 1.014794e+01
0	 7.142857e-02	 8.571429e+00	 1.013404e+01
0	 1.428571e-01	 8.214286e+00	 1.019957e+01
0	 1.428571e-01	 8.285714e+00	 1.018719e+01
0	 1.428571e-01	 8.357143e+00	 1.017445e+01
0	 1.428571e-01	 8.428571e+00	 1.016133e+01
0	 1.428571e-01	 8.500000e+00	 1.014784e+01
0	 1.428571e-01	 8.571429e+00	 1.013398e+01
0	 2.142857e-01	 8.214286e+00	 1.019870e+01
0	 2.142857e-01	 8.285714e+00	 1.018638e+01
0	 2.142857e-01	 8.357143e+00	 1.017369e+01
0	 2.142857e-01	 8.428571e+00	 1.016063e+01
0	 2.142857e-01	 8.500000e+00	 1.014720e+01
0	 2.142857e-01	 8.571429e+00	 1.013340e+01
0	 2.857143e-01	 8.214286e+00	 1.019720e+01
0	 2.857143e-01	 8.285714e+00	 1.018496e+01
0	 2.857143e-01	 8.357143e+00	 1.017235e+01
0	 2.857143e-01	 8.428571e+00	 1.015938e+01
0	 2.857143e-01	 8.500000e+00	 1.014603e+01
0	 2.857143e-01	 8.571429e+00	 1.013232e+01
0	 3.571429e-01	 8.214286e+00	 1.019506e+01
0	 3.571429e-01	 8.285714e+00	 1.018293e+01
0	 3.571429e-01	 8.357143e+00	 1.017043e+01
0	 3.571429e-01	 8.428571e+00	 1.015756e+01
0	 3.571429e-01	 8.500000e+00	 1.014433e+01
0	 3.571429e-01	 8.571429e+00	 1.013073e+01
0	 0.000000e+00	 8.571429e+00	 1.013360e+01
0	 0.000000e+00	 8.642857e+00	 1.012353e+01
0	 0.000000e+00	 8.714286e+00	 1.011298e+01
0	 0.000000e+00	 8.785714e+00	 1.010195e+01
0	 0.000000e+00	 8.857143e+00	 1.009044e+01
0	 0.000000e+00	 8.928571e+00	 1.007845e+01
0	 7.142857e-02	 8.571429e+00	 1.013404e+01
0	 7.142857e-02	 8.642857e+00	 1.012398e+01
0	 7.142857e-02	 8.714286e+00	 1.011344e+01
0	 7.142857e-02	 8.785714e+00	 1.010242e+01
0	 7.142857e-02	 8.857143e+00	 1.009093e+01
0	 7.142857e-02	 8.928571e+00	 1.007895e+01
0	 1.428571e-01	 8.571429e+00	 1.013398e+01
0	 1.428571e-01	 8.642857e+00	 1.012394e+01
0	 1.428571e-01	 8.714286e+00	 1.011343e+01
0	 1.428571e-01	 8.785714e+00	 1.010244e+01
0	 1.428571e-01	 8.857143e+00	 1.009098e+01
0	 1.428571e-01	 8.928571e+00	 1.007904e+01
0	 2.142857e-01	 8.571429e+00	 1.013340e+01
0	 2.142857e-01	 8.642857e+00	 1.012341e+01
0	 2.142857e-01	 8.714286e+00	 1.011295e+01
0	 2.142857e-01	 8.785714e+00	 1.010201e+01
0	 2.142857e-01	 8.857143e+00	 1.009059e+01
0	 2.142857e-01	 8.928571e+00	 1.007870e+01
0	 2.857143e-01	 8.571429e+00	 1.013232e+01
0	 2.857143e-01	 8.642857e+00	 1.012239e+01
0	 2.857143e-01	 8.714286e+00	 1.011199e+01
0	 2.857143e-01	 8.785714e+00	 1.010111e+01
0	 2.857143e-01	 8.857143e+00	 1.008977e+01
0	 2.857143e-01	 8.928571e+00	 1.007795e+01
0	 3.571429e-01	 8.571429e+00	 1.013073e+01
0	 3.571429e-01	 8.642857e+00	 1.012088e+01
0	 3.571429e-01	 8.714286e+00	 1.011056e+01
0	 3.571429e-01	 8.785714e+00	 1.009976e+01
0	 3.571429e-01	 8.857143e+00	 1.008850e+01
0	 3.571429e-01	 8.928571e+00	 1.007677e+01
0	 0.000000e+00	 8.928571e+00	 1.007845e+01
0	 0.000000e+00	 9.000000e+00	 1.007105e+01
0	 0.000000e+00	 9.071429e+00	 1.006304e+01
0	 0.000000e+00	 9.142857e+00	 1.005441e+01
0	 0.000000e+00	 9.214286e+00	 1.004517e+01
0	 0.000000e+00	 9.285714e+00	 1.003531e+01
0	 7.142857e-02	 8.928571e+00	 1.007895e+01
0	 7.142857e-02	 9.000000e+00	 1.007157e+01
0	 7.142857e-02	 9.071429e+00	 1.006357e+01
0	 7.142857e-02	 9.142857e+00	 1.005497e+01
0	 7.142857e-02	 9.214286e+00	 1.004574e+01
0	 7.142857e-02	 9.285714e+00	 1.003591e+01
0	 1.428571e-01	 8.928571e+00	 1.007904e+01
0	 1.428571e-01	 9.000000e+00	 1.007168e+01
0	 1.428571e-01	 9.071429e+00	 1.006371e+01
0	 1.428571e-01	 9.142857e+00	 1.005513e+01
0	 1.428571e-01	 9.214286e+00	 1.004594e+01
0	 1.428571e-01	 9.285714e+00	 1.003614e+01
0	 2.142857e-01	 8.928571e+00	 1.007870e+01
0	 2.142857e-01	 9.000000e+00	 1.007137e+01
0	 2.142857e-01	 9.071429e+00	 1.006344e+01
0	 2.142857e-01	 9.142857e+00	 1.005489e+01
0	 2.142857e-01	 9.214286e+00	 1.004574e+01
0	 2.142857e-01	 9.285714e+00	 1.003599e+01
0	 2.857143e-01	 8.928571e+00	 1.007795e+01
0	 2.857143e-01	 9.000000e+00	 1.007066e+01
0	 2.857143e-01	 9.071429e+00	 1.006277e+01
0	 2.857143e-01	 9.142857e+00	 1.005427e+01
0	 2.857143e-01	 9.214286e+00	 1.004517e+01
0	 2.857143e-01	 9.285714e+00	 1.003546e+01
0	 3.571429e-01	 8.928571e+00	 1.007677e+01
0	 3.571429e-01	 9.000000e+00	 1.006953e+01
0	 3.571429e-01	 9.071429e+00	 1.006169e+01
0	 3.571429e-01	 9.142857e+00	 1.005325e+01
0	 3.571429e-01	 9.214286e+00	 1.004420e+01
0	 3.571429e-01	 9.285714e+00	 1.003455e+01
0	 0.000000e+00	 9.285714e+00	 1.003531e+01
0	 0.000000e+00	 9.357143e+00	 1.003106e+01
0	 0.000000e+00	 9.428571e+00	 1.002603e+01
0	 0.000000e+00	 9.500000e+00	 1.002021e+01
0	 0.000000e+00	 9.571429e+00	 1.001360e+01
0	 0.000000e+00	 9.642857e+00	 1.000619e+01
0	 7.142857e-02	 9.285714e+00	 1.003591e+01
0	 7.142857e-02	 9.357143e+00	 1.003169e+01
0	 7.142857e-02	 9.428571e+00	 1.002668e+01
0	 7.142857e-02	 9.500000e+00	 1.002089e+01
0	 7.142857e-02	 9.571429e+00	 1.001431e+01
0	 7.142857e-02	 9.642857e+00	 1.000694e+01
0	 1.428571e-01	 9.285714e+00	 1.003614e+01
0	 1.428571e-01	 9.357143e+00	 1.003193e+01
0	 1.428571e-01	 9.428571e+00	 1.002695e+01
0	 1.428571e-01	 9.500000e+00	 1.002118e+01
0	 1.428571e-01	 9.571429e+00	 1.001463e+01
0	 1.428571e-01	 9.642857e+00	 1.000730e+01
0	 2.142857e-01	 9.285714e+00	 1.003599e+01
0	 2.142857e-01	 9.357143e+00	 1.003180e+01
0	 2.142857e-01	 9.428571e+00	 1.002684e+01
0	 2.142857e-01	 9.500000e+00	 1.002109e+01
0	 2.142857e-01	 9.571429e+00	 1.001458e+01
0	 2.142857e-01	 9.642857e+00	 1.000728e+01
0	 2.857143e-01	 9.285714e+00	 1.003546e+01
0	 2.857143e-01	 9.357143e+00	 1.003129e+01
0	 2.857143e-01	 9.428571e+00	 1.002634e+01
0	 2.857143e-01	 9.500000e+00	 1.002062e+01
0	 2.857143e-01	 9.571429e+00	 1.001413e+01
0	 2.857143e-01	 9.642857e+00	 1.000687e+01
0	 3.571429e-01	 9.285714e+00	 1.003455e+01
0	 3.571429e-01	 9.357143e+00	 1.003040e+01
0	 3.571429e-01	 9.428571e+00	 1.002547e+01
0	 3.571429e-01	 9.500000e+00	 1.001977e+01
0	 3.571429e-01	 9.571429e+00	 1.001331e+01
0	 3.571429e-01	 9.642857e+00	 1.000607e+01
0	 0.000000e+00	 9.642857e+00	 1.000619e+01
0	 0.000000e+00	 9.714286e+00	 1.000604e+01
0	 0.000000e+00	 9.785714e+00	 1.000488e+01
0	 0.000000e+00	 9.857143e+00	 1.000270e+01
0	 0.000000e+00	 9.928571e+00	 9.999512e+00
0	 0.000000e+00	 1.000000e+01	 9.995311e+00
0	 7.142857e-02	 9.642857e+00	 1.000694e+01
0	 7.142857e-02	 9.714286e+00	 1.000679e+01
0	 7.142857e-02	 9.785714e+00	 1.000563e+01
0	 7.142857e-02	 9.857143e+00	 1.000346e+01
0	 7.142857e-02	 9.928571e+00	 1.000029e+01
0	 7.142857e-02	 1.000000e+01	 9.996099e+00
0	 1.428571e-01	 9.642857e+00	 1.000730e+01
0	 1.428571e-01	 9.714286e+00	 1.000715e+01
0	 1.428571e-01	 9.785714e+00	 1.000599e+01
0	 1.428571e-01	 9.857143e+00	 1.000382e+01
0	 1.428571e-01	 9.928571e+00	 1.000065e+01
0	 1.428571e-01	 1.000000e+01	 9.996473e+00
0	 2.142857e-01	 9.642857e+00	 1.000728e+01
0	 2.142857e-01	 9.714286e+00	 1.000711e+01
0	 2.142857e-01	 9.785714e+00	 1.000594e+01
0	 2.142857e-01	 9.857143e+00	 1.000377e+01
0	 2.142857e-01	 9.928571e+00	 1.000060e+01
0	 2.142857e-01	 1.000000e+01	 9.996433e+00
0	 2.857143e-01	 9.642857e+00	 1.000687e+01
0	 2.857143e-01	 9.714286e+00	 1.000668e+01
0	 2.857143e-01	 9.785714e+00	 1.000550e+01
0	 2.857143e-01	 9.857143e+00	 1.000333e+01
0	 2.857143e-01	 9.928571e+00	 1.000015e+01
0	 2.857143e-01	 1.000000e+01	 9.995978e+00
0	 3.571429e-01	 9.642857e+00	 1.000607e+01
0	 3.571429e-01	 9.714286e+00	 1.000586e+01
0	 3.571429e-01	 9.785714e+00	 1.000467e+01
0	 3.571429e-01	 9.857143e+00	 1.000247e+01
0	 3.571429e-01	 9.928571e+00	 9.999288e+00
0	 3.571429e-01	 1.000000e+01	 9.995109e+00
0	 3.571429e-01	 0.000000e+00	 1.792587e+00
0	 3.571429e-01	 7.142857e-02	 5.308432e+00
0	 3.571429e-01	 1.428571e-01	 7.238591e+00
0	 3.571429e-01	 2.142857e-01	 7.583061e+00
0	 3.571429e-01	 2.857143e-01	 6.341844e+00
0	 3.571429e-01	 3.571429e-01	 3.514940e+00
0	 4.285714e-01	 0.000000e+00	 5.444812e-01
0	 4.285714e-01	 7.142857e-02	 5.729651e+00
0	 4.285714e-01	 1.428571e-01	 9.740619e+00
0	 4.285714e-01	 2.142857e-01	 1.257738e+01
0	 4.285714e-01	 2.857143e-01	 1.423995e+01
0	 4.285714e-01	 3.571429e-01	 1.472831e+01
0	 5.000000e-01	 0.000000e+00	 4.010142e+00
0	 5.000000e-01	 7.142857e-02	 9.711480e+00
0	 5.000000e-01	 1.428571e-01	 1.465010e+01
0	 5.000000e-01	 2.142857e-01	 1.882600e+01
0	 5.000000e-01	 2.857143e-01	 2.223918e+01
0	 5.000000e-01	 3.571429e-01	 2.488965e+01
0	 5.714286e-01	 0.000000e+00	 1.218957e+01
0	 5.714286e-01	 7.142857e-02	 1.725392e+01
0	 5.714286e-01	 1.428571e-01	 2.196703e+01
0	 5.714286e-01	 2.142857e-01	 2.632891e+01
0	 5.714286e-01	 2.857143e-01	 3.033956e+01
0	 5.714286e-01	 3.571429e-01	 3.399897e+01
0	 6.428571e-01	 0.000000e+00	 2.508277e+01
0	 6.428571e-01	 7.142857e-02	 2.835696e+01
0	 6.428571e-01	 1.428571e-01	 3.169141e+01
0	 6.428571e-01	 2.142857e-01	 3.508611e+01
0	 6.428571e-01	 2.857143e-01	 3.854106e+01
0	 6.428571e-01	 3.571429e-01	 4.205627e+01
0	 7.142857e-01	 0.000000e+00	 4.268973e+01
0	 7.142857e-01	 7.142857e-02	 4.302062e+01
0	 7.142857e-01	 1.428571e-01	 4.382325e+01
0	 7.142857e-01	 2.142857e-01	 4.509761e+01
0	 7.142857e-01	 2.857143e-01	 4.684371e+01
0	 7.142857e-01	 3.571429e-01	 4.906155e+01
0	 3.571429e-01	 3.571429e-01	 3.514940e+00
0	 3.571429e-01	 4.285714e-01	 3.505050e+00
0	 3.571429e-01	 5.000000e-01	 4.698560e+00
0	 3.571429e-01	 5.714286e-01	 7.095469e+00
0	 3.571429e-01	 6.428571e-01	 1.069578e+01
0	 3.571429e-01	 7.142857e-01	 1.549949e+01
0	 4.285714e-01	 3.571429e-01	 1.472831e+01
0	 4.285714e-01	 4.285714e-01	 1.434378e+01
0	 4.285714e-01	 5.000000e-01	 1.497152e+01
0	 4.285714e-01	 5.714286e-01	 1.661152e+01
0	 4.285714e-01	 6.428571e-01	 1.926378e+01
0	 4.285714e-01	 7.142857e-01	 2.292830e+01
0	 5.000000e-01	 3.571429e-01	 2.488965e+01
0	 5.000000e-01	 4.285714e-01	 2.191292e+01
0	 5.000000e-01	 5.000000e-01	 1.975732e+01
0	 5.000000e-01	 5.714286e-01	 1.842285e+01
0	 5.000000e-01	 6.428571e-01	 1.790949e+01
0	 5.000000e-01	 7.142857e-01	 1.821727e+01
0	 5.714286e-01	 3.571429e-01	 3.399897e+01
0	 5.714286e-01	 4.285714e-01	 2.621248e+01
0	 5.714286e-01	 5.000000e-01	 1.905597e+01
0	 5.714286e-01	 5.714286e-01	 1.252945e+01
0	 5.714286e-01	 6.428571e-01	 6.632925e+00
0	 5.714286e-01	 7.142857e-01	 1.366382e+00
0	 6.428571e-01	 3.571429e-01	 4.205627e+01
0	 6.428571e-01	 4.285714e-01	 2.724244e+01
0	 6.428571e-01	 5.000000e-01	 1.286747e+01
0	 6.428571e-01	 5.714286e-01	-1.068655e+00
0	 6.428571e-01	 6.428571e-01	-1.456593e+01
0	 6.428571e-01	 7.142857e-01	-2.762435e+01
0	 7.142857e-01	 3.571429e-01	 4.906155e+01
0	 7.142857e-01	 4.285714e-01	 2.500282e+01
0	 7.142857e-01	 5.000000e-01	 1.191814e+00
0	 7.142857e-01	 5.714286e-01	-2.237148e+01
0	 7.142857e-01	 6.428571e-01	-4.568707e+01
0	 7.142857e-01	 7.142857e-01	-6.875494e+01
0	 3.571429e-01	 7.142857e-01	 1.549949e+01
0	 3.571429e-01	 7.857143e-01	-1.312129e+01
0	 3.571429e-01	 8.571429e-01	-4.178843e+01
0	 3.571429e-01	 9.285714e-01	-7.050194e+01
0	 3.571429e-01	 1.000000e+00	-9.926182e+01
0	 3.571429e-01	 1.071429e+00	-1.280681e+02
0	 4.285714e-01	 7.142857e-01	 2.292830e+01
0	 4.285714e-01	 7.857143e-01	-9.673588e+00
0	 4.285714e-01	 8.571429e-01	-4.273032e+01
0	 4.285714e-01	 9.285714e-01	-7.624190e+01
0	 4.285714e-01	 1.000000e+00	-1.102083e+02
0	 4.285714e-01	 1.071429e+00	-1.446296e+02
0	 5.000000e-01	 7.142857e-01	 1.821727e+01
0	 5.000000e-01	 7.857143e-01	-1.291825e+01
0	 5.000000e-01	 8.571429e-01	-4.491710e+01
0	 5.000000e-01	 9.285714e-01	-7.777926e+01
0	 5.000000e-01	 1.000000e+00	-1.115047e+02
0	 5.000000e-01	 1.071429e+00	-1.460936e+02
0	 5.714286e-01	 7.142857e-01	 1.366382e+00
0	 5.714286e-01	 7.857143e-01	-2.285528e+01
0	 5.714286e-01	 8.571429e-01	-4.834875e+01
0	 5.714286e-01	 9.285714e-01	-7.511401e+01
0	 5.714286e-01	 1.000000e+00	-1.031511e+02
0	 5.714286e-01	 1.071429e+00	-1.324599e+02
0	 6.428571e-01	 7.142857e-01	-2.762435e+01
0	 6.428571e-01	 7.857143e-01	-3.948468e+01
0	 6.428571e-01	 8.571429e-01	-5.302528e+01
0	 6.428571e-01	 9.285714e-01	-6.824615e+01
0	 6.428571e-01	 1.000000e+00	-8.514730e+01
0	 6.428571e-01	 1.071429e+00	-1.037287e+02
0	 7.142857e-01	 7.142857e-01	-6.875494e+01
0	 7.142857e-01	 7.857143e-01	-6.280644e+01
0	 7.142857e-01	 8.571429e-01	-5.894669e+01
0	 7.142857e-01	 9.285714e-01	-5.717568e+01
0	 7.142857e-01	 1.000000e+00	-5.749343e+01
0	 7.142857e-01	 1.071429e+00	-5.989993e+01
0	 3.571429e-01	 1.071429e+00	-1.280681e+02
0	 3.571429e-01	 1.142857e+00	-9.213894e+01
0	 3.571429e-01	 1.214286e+00	-5.643784e+01
0	 3.571429e-01	 1.285714e+00	-2.096479e+01
0	 3.571429e-01	 1.357143e+00	 1.428022e+01
0	 3.571429e-01	 1.428571e+00	 4.929719e+01
0	 4.285714e-01	 1.071429e+00	-1.446296e+02
0	 4.285714e-01	 1.142857e+00	-1.030070e+02
0	 4.285714e-01	 1.214286e+00	-6.108257e+01
0	 4.285714e-01	 1.285714e+00	-1.885623e+01
0	 4.285714e-01	 1.357143e+00	 2.367199e+01
0	 4.285714e-01	 1.428571e+00	 6.650210e+01
0	 5.000000e-01	 1.071429e+00	-1.460936e+02
0	 5.000000e-01	 1.142857e+00	-1.025914e+02
0	 5.000000e-01	 1.214286e+00	-5.825737e+01
0	 5.000000e-01	 1.285714e+00	-1.309158e+01
0	 5.000000e-01	 1.357143e+00	 3.290603e+01
0	 5.000000e-01	 1.428571e+00	 7.973543e+01
0	 5.714286e-01	 1.071429e+00	-1.324599e+02
0	 5.714286e-01	 1.142857e+00	-9.089196e+01
0	 5.714286e-01	 1.214286e+00	-4.796226e+01
0	 5.714286e-01	 1.285714e+00	-3.670835e+00
0	 5.714286e-01	 1.357143e+00	 4.198232e+01
0	 5.714286e-01	 1.428571e+00	 8.899719e+01
0	 6.428571e-01	 1.071429e+00	-1.037287e+02
0	 6.428571e-01	 1.142857e+00	-6.790880e+01
0	 6.428571e-01	 1.214286e+00	-3.019722e+01
0	 6.428571e-01	 1.285714e+00	 9.405995e+00
0	 6.428571e-01	 1.357143e+00	 5.090086e+01
0	 6.428571e-01	 1.428571e+00	 9.428738e+01
0	 7.142857e-01	 1.071429e+00	-5.989993e+01
0	 7.142857e-01	 1.142857e+00	-3.364189e+01
0	 7.142857e-01	 1.214286e+00	-4.962272e+00
0	 7.142857e-01	 1.285714e+00	 2.613891e+01
0	 7.142857e-01	 1.357143e+00	 5.966167e+01
0	 7.142857e-01	 1.428571e+00	 9.560600e+01
0	 3.571429e-01	 1.428571e+00	 4.929719e+01
0	 3.571429e-01	 1.500000e+00	 4.284619e+01
0	 3.571429e-01	 1.571429e+00	 3.742691e+01
0	 3.571429e-01	 1.642857e+00	 3.303934e+01
0	 3.571429e-01	 1.714286e+00	 2.968348e+01
0	 3.571429e-01	 1.785714e+00	 2.735934e+01
0	 4.285714e-01	 1.428571e+00	 6.650210e+01
0	 4.285714e-01	 1.500000e+00	 5.710714e+01
0	 4.285714e-01	 1.571429e+00	 4.822267e+01
0	 4.285714e-01	 1.642857e+00	 3.984870e+01
0	 4.285714e-01	 1.714286e+00	 3.198522e+01
0	 4.285714e-01	 1.785714e+00	 2.463224e+01
0	 5.000000e-01	 1.428571e+00	 7.973543e+01
0	 5.000000e-01	 1.500000e+00	 6.805852e+01
0	 5.000000e-01	 1.571429e+00	 5.637088e+01
0	 5.000000e-01	 1.642857e+00	 4.467252e+01
0	 5.000000e-01	 1.714286e+00	 3.296344e+01
0	 5.000000e-01	 1.785714e+00	 2.124364e+01
0	 5.714286e-01	 1.428571e+00	 8.899719e+01
0	 5.714286e-01	 1.500000e+00	 7.570034e+01
0	 5.714286e-01	 1.571429e+00	 6.187154e+01
0	 5.714286e-01	 1.642857e+00	 4.751080e+01
0	 5.714286e-01	 1.714286e+00	 3.261813e+01
0	 5.714286e-01	 1.785714e+00	 1.719351e+01
0	 6.428571e-01	 1.428571e+00	 9.428738e+01
0	 6.428571e-01	 1.500000e+00	 8.003259e+01
0	 6.428571e-01	 1.571429e+00	 6.472465e+01
0	 6.428571e-01	 1.642857e+00	 4.836355e+01
0	 6.428571e-01	 1.714286e+00	 3.094929e+01
0	 6.428571e-01	 1.785714e+00	 1.248187e+01
0	 7.142857e-01	 1.428571e+00	 9.560600e+01
0	 7.142857e-01	 1.500000e+00	 8.105529e+01
0	 7.142857e-01	 1.571429e+00	 6.493021e+01
0	 7.142857e-01	 1.642857e+00	 4.723075e+01
0	 7.142857e-01	 1.714286e+00	 2.795692e+01
0	 7.142857e-01	 1.785714e+00	 7.108712e+00
0	 3.571429e-01	 1.785714e+00	 2.735934e+01
0	 3.571429e-01	 1.857143e+00	 2.526651e+01
0	 3.571429e-01	 1.928571e+00	 2.237251e+01
0	 3.571429e-01	 2.000000e+00	 1.867734e+01
0	 3.571429e-01	 2.071429e+00	 1.418098e+01
0	 3.571429e-01	 2.142857e+00	 8.883455e+00
0	 4.285714e-01	 1.785714e+00	 2.463224e+01
0	 4.285714e-01	 1.857143e+00	 2.263224e+01
0	 4.285714e-01	 1.928571e+00	 2.002521e+01
0	 4.285714e-01	 2.000000e+00	 1.681114e+01
0	 4.285714e-01	 2.071429e+00	 1.299004e+01
0	 4.285714e-01	 2.142857e+00	 8.561898e+00
0	 5.000000e-01	 1.785714e+00	 2.124364e+01
0	 5.000000e-01	 1.857143e+00	 1.960738e+01
0	 5.000000e-01	 1.928571e+00	 1.755824e+01
0	 5.000000e-01	 2.000000e+00	 1.509620e+01
0	 5.000000e-01	 2.071429e+00	 1.222128e+01
0	 5.000000e-01	 2.142857e+00	 8.933459e+00
0	 5.714286e-01	 1.785714e+00	 1.719351e+01
0	 5.714286e-01	 1.857143e+00	 1.619194e+01
0	 5.714286e-01	 1.928571e+00	 1.497161e+01
0	 5.714286e-01	 2.000000e+00	 1.353253e+01
0	 5.714286e-01	 2.071429e+00	 1.187471e+01
0	 5.714286e-01	 2.142857e+00	 9.998135e+00
0	 6.428571e-01	 1.785714e+00	 1.248187e+01
0	 6.428571e-01	 1.857143e+00	 1.238590e+01
0	 6.428571e-01	 1.928571e+00	 1.226532e+01
0	 6.428571e-01	 2.000000e+00	 1.212013e+01
0	 6.428571e-01	 2.071429e+00	 1.195033e+01
0	 6.428571e-01	 2.142857e+00	 1.175593e+01
0	 7.142857e-01	 1.785714e+00	 7.108712e+00
0	 7.142857e-01	 1.857143e+00	 8.189268e+00
0	 7.142857e-01	 1.928571e+00	 9.439358e+00
0	 7.142857e-01	 2.000000e+00	 1.085898e+01
0	 7.142857e-01	 2.071429e+00	 1.244814e+01
0	 7.142857e-01	 2.142857e+00	 1.420684e+01
0	 3.571429e-01	 2.142857e+00	 8.883455e+00
0	 3.571429e-01	 2.214286e+00	 9.998155e+00
0	 3.571429e-01	 2.285714e+00	 1.111036e+01
0	 3.571429e-01	 2.357143e+00	 1.222008e+01
0	 3.571429e-01	 2.428571e+00	 1.332730e+01
0	 3.571429e-01	 2.500000e+00	 1.443204e+01
0	 4.285714e-01	 2.142857e+00	 8.561898e+00
0	 4.285714e-01	 2.214286e+00	 9.665804e+00
0	 4.285714e-01	 2.285714e+00	 1.083331e+01
0	 4.285714e-01	 2.357143e+00	 1.206441e+01
0	 4.285714e-01	 2.428571e+00	 1.335912e+01
0	 4.285714e-01	 2.500000e+00	 1.471742e+01
0	 5.000000e-01	 2.142857e+00	 8.933459e+00
0	 5.000000e-01	 2.214286e+00	 9.828462e+00
0	 5.000000e-01	 2.285714e+00	 1.085316e+01
0	 5.000000e-01	 2.357143e+00	 1.200754e+01
0	 5.000000e-01	 2.428571e+00	 1.329161e+01
0	 5.000000e-01	 2.500000e+00	 1.470538e+01
0	 5.714286e-01	 2.142857e+00	 9.998135e+00
0	 5.714286e-01	 2.214286e+00	 1.048613e+01
0	 5.714286e-01	 2.285714e+00	 1.116990e+01
0	 5.714286e-01	 2.357143e+00	 1.204945e+01
0	 5.714286e-01	 2.428571e+00	 1.312479e+01
0	 5.714286e-01	 2.500000e+00	 1.439591e+01
0	 6.428571e-01	 2.142857e+00	 1.175593e+01
0	 6.428571e-01	 2.214286e+00	 1.163880e+01
0	 6.428571e-01	 2.285714e+00	 1.178354e+01
0	 6.428571e-01	 2.357143e+00	 1.219016e+01
0	 6.428571e-01	 2.428571e+00	 1.285865e+01
0	 6.428571e-01	 2.500000e+00	 1.378901e+01
0	 7.142857e-01	 2.142857e+00	 1.420684e+01
0	 7.142857e-01	 2.214286e+00	 1.328648e+01
0	 7.142857e-01	 2.285714e+00	 1.269409e+01
0	 7.142857e-01	 2.357143e+00	 1.242966e+01
0	 7.142857e-01	 2.428571e+00	 1.249319e+01
0	 7.142857e-01	 2.500000e+00	 1.288469e+01
0	 3.571429e-01	 2.500000e+00	 1.443204e+01
0	 3.571429e-01	 2.571429e+00	 1.391041e+01
0	 3.571429e-01	 2.642857e+00	 1.342157e+01
0	 3.571429e-01	 2.714286e+00	 1.296551e+01
0	 3.571429e-01	 2.785714e+00	 1.254223e+01
0	 3.571429e-01	 2.857143e+00	 1.215174e+01
0	 4.285714e-01	 2.500000e+00	 1.471742e+01
0	 4.285714e-01	 2.571429e+00	 1.416969e+01
0	 4.285714e-01	 2.642857e+00	 1.363546e+01
0	 4.285714e-01	 2.714286e+00	 1.311473e+01
0	 4.285714e-01	 2.785714e+00	 1.260750e+01
0	 4.285714e-01	 2.857143e+00	 1.211377e+01
0	 5.000000e-01	 2.500000e+00	 1.470538e+01
0	 5.000000e-01	 2.571429e+00	 1.420336e+01
0	 5.000000e-01	 2.642857e+00	 1.369556e+01
0	 5.000000e-01	 2.714286e+00	 1.318197e+01
0	 5.000000e-01	 2.785714e+00	 1.266260e+01
0	 5.000000e-01	 2.857143e+00	 1.213744e+01
0	 5.714286e-01	 2.500000e+00	 1.439591e+01
0	 5.714286e-01	 2.571429e+00	 1.401142e+01
0	 5.714286e-01	 2.642857e+00	 1.360186e+01
0	 5.714286e-01	 2.714286e+00	 1.316723e+01
0	 5.714286e-01	 2.785714e+00	 1.270753e+01
0	 5.714286e-01	 2.857143e+00	 1.222277e+01
0	 6.428571e-01	 2.500000e+00	 1.378901e+01
0	 6.428571e-01	 2.571429e+00	 1.359387e+01
0	 6.428571e-01	 2.642857e+00	 1.335437e+01
0	 6.428571e-01	 2.714286e+00	 1.307051e+01
0	 6.428571e-01	 2.785714e+00	 1.274230e+01
0	 6.428571e-01	 2.857143e+00	 1.236974e+01
0	 7.142857e-01	 2.500000e+00	 1.288469e+01
0	 7.142857e-01	 2.571429e+00	 1.295070e+01
0	 7.142857e-01	 2.642857e+00	 1.295308e+01
0	 7.142857e-01	 2.714286e+00	 1.289181e+01
0	 7.142857e-01	 2.785714e+00	 1.276691e+01
0	 7.142857e-01	 2.857143e+00	 1.257837e+01
0	 3.571429e-01	 2.857143e+00	 1.215174e+01
0	 3.571429e-01	 2.928571e+00	 1.229045e+01
0	 3.571429e-01	 3.000000e+00	 1.240054e+01
0	 3.571429e-01	 3.071429e+00	 1.248201e+01
0	 3.571429e-01	 3.142857e+00	 1.253485e+01
0	 3.571429e-01	 3.214286e+00	 1.255907e+01
0	 4.285714e-01	 2.857143e+00	 1.211377e+01
0	 4.285714e-01	 2.928571e+00	 1.223767e+01
0	 4.285714e-01	 3.000000e+00	 1.234548e+01
0	 4.285714e-01	 3.071429e+00	 1.243719e+01
0	 4.285714e-01	 3.142857e+00	 1.251282e+01
0	 4.285714e-01	 3.214286e+00	 1.257236e+01
0	 5.000000e-01	 2.857143e+00	 1.213744e+01
0	 5.000000e-01	 2.928571e+00	 1.222803e+01
0	 5.000000e-01	 3.000000e+00	 1.231505e+01
0	 5.000000e-01	 3.071429e+00	 1.239852e+01
0	 5.000000e-01	 3.142857e+00	 1.247843e+01
0	 5.000000e-01	 3.214286e+00	 1.255478e+01
0	 5.714286e-01	 2.857143e+00	 1.222277e+01
0	 5.714286e-01	 2.928571e+00	 1.226153e+01
0	 5.714286e-01	 3.000000e+00	 1.230927e+01
0	 5.714286e-01	 3.071429e+00	 1.236598e+01
0	 5.714286e-01	 3.142857e+00	 1.243167e+01
0	 5.714286e-01	 3.214286e+00	 1.250632e+01
0	 6.428571e-01	 2.857143e+00	 1.236974e+01
0	 6.428571e-01	 2.928571e+00	 1.233818e+01
0	 6.428571e-01	 3.000000e+00	 1.232813e+01
0	 6.428571e-01	 3.071429e+00	 1.233958e+01
0	 6.428571e-01	 3.142857e+00	 1.237254e+01
0	 6.428571e-01	 3.214286e+00	 1.242700e+01
0	 7.142857e-01	 2.857143e+00	 1.257837e+01
0	 7.142857e-01	 2.928571e+00	 1.245798e+01
0	 7.142857e-01	 3.000000e+00	 1.237163e+01
0	 7.142857e-01	 3.071429e+00	 1.231932e+01
0	 7.142857e-01	 3.142857e+00	 1.230104e+01
0	 7.142857e-01	 3.214286e+00	 1.231680e+01
0	 3.571429e-01	 3.214286e+00	 1.255907e+01
0	 3.571429e-01	 3.285714e+00	 1.244268e+01
0	 3.571429e-01	 3.357143e+00	 1.234458e+01
0	 3.571429e-01	 3.428571e+00	 1.226477e+01
0	 3.571429e-01	 3.500000e+00	 1.220325e+01
0	 3.571429e-01	 3.571429e+00	 1.216002e+01
0	 4.285714e-01	 3.214286e+00	 1.257236e+01
0	 4.285714e-01	 3.285714e+00	 1.245857e+01
0	 4.285714e-01	 3.357143e+00	 1.235817e+01
0	 4.285714e-01	 3.428571e+00	 1.227113e+01
0	 4.285714e-01	 3.500000e+00	 1.219746e+01
0	 4.285714e-01	 3.571429e+00	 1.213717e+01
0	 5.000000e-01	 3.214286e+00	 1.255478e+01
0	 5.000000e-01	 3.285714e+00	 1.244903e+01
0	 5.000000e-01	 3.357143e+00	 1.235173e+01
0	 5.000000e-01	 3.428571e+00	 1.226289e+01
0	 5.000000e-01	 3.500000e+00	 1.218250e+01
0	 5.000000e-01	 3.571429e+00	 1.211057e+01
0	 5.714286e-01	 3.214286e+00	 1.250632e+01
0	 5.714286e-01	 3.285714e+00	 1.241403e+01
0	 5.714286e-01	 3.357143e+00	 1.232527e+01
0	 5.714286e-01	 3.428571e+00	 1.224005e+01
0	 5.714286e-01	 3.500000e+00	 1.215836e+01
0	 5.714286e-01	 3.571429e+00	 1.208022e+01
0	 6.428571e-01	 3.214286e+00	 1.242700e+01
0	 6.428571e-01	 3.285714e+00	 1.235358e+01
0	 6.428571e-01	 3.357143e+00	 1.227878e+01
0	 6.428571e-01	 3.428571e+00	 1.220260e+01
0	 6.428571e-01	 3.500000e+00	 1.212505e+01
0	 6.428571e-01	 3.571429e+00	 1.204611e+01
0	 7.142857e-01	 3.214286e+00	 1.231680e+01
0	 7.142857e-01	 3.285714e+00	 1.226768e+01
0	 7.142857e-01	 3.357143e+00	 1.221227e+01
0	 7.142857e-01	 3.428571e+00	 1.215056e+01
0	 7.142857e-01	 3.500000e+00	 1.208255e+01
0	 7.142857e-01	 3.571429e+00	 1.200824e+01
0	 3.571429e-01	 3.571429e+00	 1.216002e+01
0	 3.571429e-01	 3.642857e+00	 1.212467e+01
0	 3.571429e-01	 3.714286e+00	 1.208558e+01
0	 3.571429e-01	 3.785714e+00	 1.204276e+01
0	 3.571429e-01	 3.857143e+00	 1.199620e+01
0	 3.571429e-01	 3.928571e+00	 1.194590e+01
0	 4.285714e-01	 3.571429e+00	 1.213717e+01
0	 4.285714e-01	 3.642857e+00	 1.209905e+01
0	 4.285714e-01	 3.714286e+00	 1.205893e+01
0	 4.285714e-01	 3.785714e+00	 1.201679e+01
0	 4.285714e-01	 3.857143e+00	 1.197265e+01
0	 4.285714e-01	 3.928571e+00	 1.192650e+01
0	 5.000000e-01	 3.571429e+00	 1.211057e+01
0	 5.000000e-01	 3.642857e+00	 1.206897e+01
0	 5.000000e-01	 3.714286e+00	 1.202709e+01
0	 5.000000e-01	 3.785714e+00	 1.198493e+01
0	 5.000000e-01	 3.857143e+00	 1.194249e+01
0	 5.000000e-01	 3.928571e+00	 1.189978e+01
0	 5.714286e-01	 3.571429e+00	 1.208022e+01
0	 5.714286e-01	 3.642857e+00	 1.203442e+01
0	 5.714286e-01	 3.714286e+00	 1.199007e+01
0	 5.714286e-01	 3.785714e+00	 1.194717e+01
0	 5.714286e-01	 3.857143e+00	 1.190573e+01
0	 5.714286e-01	 3.928571e+00	 1.186573e+01
0	 6.428571e-01	 3.571429e+00	 1.204611e+01
0	 6.428571e-01	 3.642857e+00	 1.199540e+01
0	 6.428571e-01	 3.714286e+00	 1.194787e+01
0	 6.428571e-01	 3.785714e+00	 1.190352e+01
0	 6.428571e-01	 3.857143e+00	 1.186235e+01
0	 6.428571e-01	 3.928571e+00	 1.182436e+01
0	 7.142857e-01	 3.571429e+00	 1.200824e+01
0	 7.142857e-01	 3.642857e+00	 1.195191e+01
0	 7.142857e-01	 3.714286e+00	 1.190049e+01
0	 7.142857e-01	 3.785714e+00	 1.185397e+01
0	 7.142857e-01	 3.857143e+00	 1.181236e+01
0	 7.142857e-01	 3.928571e+00	 1.177566e+01
0	 3.571429e-01	 3.928571e+00	 1.194590e+01
0	 3.571429e-01	 4.000000e+00	 1.189079e+01
0	 3.571429e-01	 4.071429e+00	 1.183951e+01
0	 3.571429e-01	 4.142857e+00	 1.179206e+01
0	 3.571429e-01	 4.214286e+00	 1.174844e+01
0	 3.571429e-01	 4.285714e+00	 1.170866e+01
0	 4.285714e-01	 3.928571e+00	 1.192650e+01
0	 4.285714e-01	 4.000000e+00	 1.187254e+01
0	 4.285714e-01	 4.071429e+00	 1.182174e+01
0	 4.285714e-01	 4.142857e+00	 1.177409e+01
0	 4.285714e-01	 4.214286e+00	 1.172961e+01
0	 4.285714e-01	 4.285714e+00	 1.168828e+01
0	 5.000000e-01	 3.928571e+00	 1.189978e+01
0	 5.000000e-01	 4.000000e+00	 1.184731e+01
0	 5.000000e-01	 4.071429e+00	 1.179733e+01
0	 5.000000e-01	 4.142857e+00	 1.174984e+01
0	 5.000000e-01	 4.214286e+00	 1.170483e+01
0	 5.000000e-01	 4.285714e+00	 1.166230e+01
0	 5.714286e-01	 3.928571e+00	 1.186573e+01
0	 5.714286e-01	 4.000000e+00	 1.181511e+01
0	 5.714286e-01	 4.071429e+00	 1.176629e+01
0	 5.714286e-01	 4.142857e+00	 1.171929e+01
0	 5.714286e-01	 4.214286e+00	 1.167409e+01
0	 5.714286e-01	 4.285714e+00	 1.163071e+01
0	 6.428571e-01	 3.928571e+00	 1.182436e+01
0	 6.428571e-01	 4.000000e+00	 1.177592e+01
0	 6.428571e-01	 4.071429e+00	 1.172862e+01
0	 6.428571e-01	 4.142857e+00	 1.168245e+01
0	 6.428571e-01	 4.214286e+00	 1.163741e+01
0	 6.428571e-01	 4.285714e+00	 1.159351e+01
0	 7.142857e-01	 3.928571e+00	 1.177566e+01
0	 7.142857e-01	 4.000000e+00	 1.172975e+01
0	 7.142857e-01	 4.071429e+00	 1.168430e+01
0	 7.142857e-01	 4.142857e+00	 1.163931e+01
0	 7.142857e-01	 4.214286e+00	 1.159478e+01
0	 7.142857e-01	 4.285714e+00	 1.155071e+01
0	 3.571429e-01	 4.285714e+00	 1.170866e+01
0	 3.571429e-01	 4.357143e+00	 1.166307e+01
0	 3.571429e-01	 4.428571e+00	 1.161796e+01
0	 3.571429e-01	 4.500000e+00	 1.157334e+01
0	 3.571429e-01	 4.571429e+00	 1.152921e+01
0	 3.571429e-01	 4.642857e+00	 1.148557e+01
0	 4.285714e-01	 4.285714e+00	 1.168828e+01
0	 4.285714e-01	 4.357143e+00	 1.164308e+01
0	 4.285714e-01	 4.428571e+00	 1.159850e+01
0	 4.285714e-01	 4.500000e+00	 1.155457e+01
0	 4.285714e-01	 4.571429e+00	 1.151127e+01
0	 4.285714e-01	 4.642857e+00	 1.146860e+01
0	 5.000000e-01	 4.285714e+00	 1.166230e+01
0	 5.000000e-01	 4.357143e+00	 1.161765e+01
0	 5.000000e-01	 4.428571e+00	 1.157378e+01
0	 5.000000e-01	 4.500000e+00	 1.153069e+01
0	 5.000000e-01	 4.571429e+00	 1.148839e+01
0	 5.000000e-01	 4.642857e+00	 1.144687e+01
0	 5.714286e-01	 4.285714e+00	 1.163071e+01
0	 5.714286e-01	 4.357143e+00	 1.158679e+01
0	 5.714286e-01	 4.428571e+00	 1.154379e+01
0	 5.714286e-01	 4.500000e+00	 1.150173e+01
0	 5.714286e-01	 4.571429e+00	 1.146059e+01
0	 5.714286e-01	 4.642857e+00	 1.142038e+01
0	 6.428571e-01	 4.285714e+00	 1.159351e+01
0	 6.428571e-01	 4.357143e+00	 1.155048e+01
0	 6.428571e-01	 4.428571e+00	 1.150853e+01
0	 6.428571e-01	 4.500000e+00	 1.146766e+01
0	 6.428571e-01	 4.571429e+00	 1.142786e+01
0	 6.428571e-01	 4.642857e+00	 1.138913e+01
0	 7.142857e-01	 4.285714e+00	 1.155071e+01
0	 7.142857e-01	 4.357143e+00	 1.150875e+01
0	 7.142857e-01	 4.428571e+00	 1.146801e+01
0	 7.142857e-01	 4.500000e+00	 1.142849e+01
0	 7.142857e-01	 4.571429e+00	 1.139020e+01
0	 7.142857e-01	 4.642857e+00	 1.135312e+01
0	 3.571429e-01	 4.642857e+00	 1.148557e+01
0	 3.571429e-01	 4.714286e+00	 1.144405e+01
0	 3.571429e-01	 4.785714e+00	 1.140341e+01
0	 3.571429e-01	 4.857143e+00	 1.136366e+01
0	 3.571429e-01	 4.928571e+00	 1.132479e+01
0	 3.571429e-01	 5.000000e+00	 1.128680e+01
0	 4.285714e-01	 4.642857e+00	 1.146860e+01
0	 4.285714e-01	 4.714286e+00	 1.142764e+01
0	 4.285714e-01	 4.785714e+00	 1.138750e+01
0	 4.285714e-01	 4.857143e+00	 1.134818e+01
0	 4.285714e-01	 4.928571e+00	 1.130969e+01
0	 4.285714e-01	 5.000000e+00	 1.127202e+01
0	 5.000000e-01	 4.642857e+00	 1.144687e+01
0	 5.000000e-01	 4.714286e+00	 1.140663e+01
0	 5.000000e-01	 4.785714e+00	 1.136714e+01
0	 5.000000e-01	 4.857143e+00	 1.132842e+01
0	 5.000000e-01	 4.928571e+00	 1.129047e+01
0	 5.000000e-01	 5.000000e+00	 1.125328e+01
0	 5.714286e-01	 4.642857e+00	 1.142038e+01
0	 5.714286e-01	 4.714286e+00	 1.138101e+01
0	 5.714286e-01	 4.785714e+00	 1.134234e+01
0	 5.714286e-01	 4.857143e+00	 1.130438e+01
0	 5.714286e-01	 4.928571e+00	 1.126713e+01
0	 5.714286e-01	 5.000000e+00	 1.123058e+01
0	 6.428571e-01	 4.642857e+00	 1.138913e+01
0	 6.428571e-01	 4.714286e+00	 1.135080e+01
0	 6.428571e-01	 4.785714e+00	 1.131311e+01
0	 6.428571e-01	 4.857143e+00	 1.127606e+01
0	 6.428571e-01	 4.928571e+00	 1.123967e+01
0	 6.428571e-01	 5.000000e+00	 1.120392e+01
0	 7.142857e-01	 4.642857e+00	 1.135312e+01
0	 7.142857e-01	 4.714286e+00	 1.131598e+01
0	 7.142857e-01	 4.785714e+00	 1.127943e+01
0	 7.142857e-01	 4.857143e+00	 1.124346e+01
0	 7.142857e-01	 4.928571e+00	 1.120808e+01
0	 7.142857e-01	 5.000000e+00	 1.117329e+01
0	 3.571429e-01	 5.000000e+00	 1.128680e+01
0	 3.571429e-01	 5.071429e+00	 1.124956e+01
0	 3.571429e-01	 5.142857e+00	 1.121275e+01
0	 3.571429e-01	 5.214286e+00	 1.117638e+01
0	 3.571429e-01	 5.285714e+00	 1.114044e+01
0	 3.571429e-01	 5.357143e+00	 1.110493e+01
0	 4.285714e-01	 5.000000e+00	 1.127202e+01
0	 4.285714e-01	 5.071429e+00	 1.123534e+01
0	 4.285714e-01	 5.142857e+00	 1.119909e+01
0	 4.285714e-01	 5.214286e+00	 1.116329e+01
0	 4.285714e-01	 5.285714e+00	 1.112792e+01
0	 4.285714e-01	 5.357143e+00	 1.109299e+01
0	 5.000000e-01	 5.000000e+00	 1.125328e+01
0	 5.000000e-01	 5.071429e+00	 1.121728e+01
0	 5.000000e-01	 5.142857e+00	 1.118173e+01
0	 5.000000e-01	 5.214286e+00	 1.114662e+01
0	 5.000000e-01	 5.285714e+00	 1.111196e+01
0	 5.000000e-01	 5.357143e+00	 1.107773e+01
0	 5.714286e-01	 5.000000e+00	 1.123058e+01
0	 5.714286e-01	 5.071429e+00	 1.119540e+01
0	 5.714286e-01	 5.142857e+00	 1.116067e+01
0	 5.714286e-01	 5.214286e+00	 1.112639e+01
0	 5.714286e-01	 5.285714e+00	 1.109255e+01
0	 5.714286e-01	 5.357143e+00	 1.105915e+01
0	 6.428571e-01	 5.000000e+00	 1.120392e+01
0	 6.428571e-01	 5.071429e+00	 1.116969e+01
0	 6.428571e-01	 5.142857e+00	 1.113590e+01
0	 6.428571e-01	 5.214286e+00	 1.110257e+01
0	 6.428571e-01	 5.285714e+00	 1.106969e+01
0	 6.428571e-01	 5.357143e+00	 1.103726e+01
0	 7.142857e-01	 5.000000e+00	 1.117329e+01
0	 7.142857e-01	 5.071429e+00	 1.114014e+01
0	 7.142857e-01	 5.142857e+00	 1.110743e+01
0	 7.142857e-01	 5.214286e+00	 1.107519e+01
0	 7.142857e-01	 5.285714e+00	 1.104339e+01
0	 7.142857e-01	 5.357143e+00	 1.101205e+01
0	 3.571429e-01	 5.357143e+00	 1.110493e+01
0	 3.571429e-01	 5.428571e+00	 1.107203e+01
0	 3.571429e-01	 5.500000e+00	 1.103938e+01
0	 3.571429e-01	 5.571429e+00	 1.100700e+01
0	 3.571429e-01	 5.642857e+00	 1.097489e+01
0	 3.571429e-01	 5.714286e+00	 1.094305e+01
0	 4.285714e-01	 5.357143e+00	 1.109299e+01
0	 4.285714e-01	 5.428571e+00	 1.106049e+01
0	 4.285714e-01	 5.500000e+00	 1.102827e+01
0	 4.285714e-01	 5.571429e+00	 1.099631e+01
0	 4.285714e-01	 5.642857e+00	 1.096462e+01
0	 4.285714e-01	 5.714286e+00	 1.093320e+01
0	 5.000000e-01	 5.357143e+00	 1.107773e+01
0	 5.000000e-01	 5.428571e+00	 1.104577e+01
0	 5.000000e-01	 5.500000e+00	 1.101408e+01
0	 5.000000e-01	 5.571429e+00	 1.098266e+01
0	 5.000000e-01	 5.642857e+00	 1.095151e+01
0	 5.000000e-01	 5.714286e+00	 1.092064e+01
0	 5.714286e-01	 5.357143e+00	 1.105915e+01
0	 5.714286e-01	 5.428571e+00	 1.102785e+01
0	 5.714286e-01	 5.500000e+00	 1.099682e+01
0	 5.714286e-01	 5.571429e+00	 1.096606e+01
0	 5.714286e-01	 5.642857e+00	 1.093558e+01
0	 5.714286e-01	 5.714286e+00	 1.090537e+01
0	 6.428571e-01	 5.357143e+00	 1.103726e+01
0	 6.428571e-01	 5.428571e+00	 1.100673e+01
0	 6.428571e-01	 5.500000e+00	 1.097648e+01
0	 6.428571e-01	 5.571429e+00	 1.094651e+01
0	 6.428571e-01	 5.642857e+00	 1.091681e+01
0	 6.428571e-01	 5.714286e+00	 1.088739e+01
0	 7.142857e-01	 5.357143e+00	 1.101205e+01
0	 7.142857e-01	 5.428571e+00	 1.098242e+01
0	 7.142857e-01	 5.500000e+00	 1.095307e+01
0	 7.142857e-01	 5.571429e+00	 1.092400e+01
0	 7.142857e-01	 5.642857e+00	 1.089521e+01
0	 7.142857e-01	 5.714286e+00	 1.086669e+01
0	 3.571429e-01	 5.714286e+00	 1.094305e+01
0	 3.571429e-01	 5.785714e+00	 1.091369e+01
0	 3.571429e-01	 5.857143e+00	 1.088448e+01
0	 3.571429e-01	 5.928571e+00	 1.085541e+01
0	 3.571429e-01	 6.000000e+00	 1.082649e+01
0	 3.571429e-01	 6.071429e+00	 1.079772e+01
0	 4.285714e-01	 5.714286e+00	 1.093320e+01
0	 4.285714e-01	 5.785714e+00	 1.090423e+01
0	 4.285714e-01	 5.857143e+00	 1.087541e+01
0	 4.285714e-01	 5.928571e+00	 1.084673e+01
0	 4.285714e-01	 6.000000e+00	 1.081821e+01
0	 4.285714e-01	 6.071429e+00	 1.078984e+01
0	 5.000000e-01	 5.714286e+00	 1.092064e+01
0	 5.000000e-01	 5.785714e+00	 1.089215e+01
0	 5.000000e-01	 5.857143e+00	 1.086381e+01
0	 5.000000e-01	 5.928571e+00	 1.083563e+01
0	 5.000000e-01	 6.000000e+00	 1.080760e+01
0	 5.000000e-01	 6.071429e+00	 1.077971e+01
0	 5.714286e-01	 5.714286e+00	 1.090537e+01
0	 5.714286e-01	 5.785714e+00	 1.087746e+01
0	 5.714286e-01	 5.857143e+00	 1.084970e+01
0	 5.714286e-01	 5.928571e+00	 1.082210e+01
0	 5.714286e-01	 6.000000e+00	 1.079465e+01
0	 5.714286e-01	 6.071429e+00	 1.076736e+01
0	 6.428571e-01	 5.714286e+00	 1.088739e+01
0	 6.428571e-01	 5.785714e+00	 1.086015e+01
0	 6.428571e-01	 5.857143e+00	 1.083306e+01
0	 6.428571e-01	 5.928571e+00	 1.080614e+01
0	 6.428571e-01	 6.000000e+00	 1.077937e+01
0	 6.428571e-01	 6.071429e+00	 1.075276e+01
0	 7.142857e-01	 5.714286e+00	 1.086669e+01
0	 7.142857e-01	 5.785714e+00	 1.084022e+01
0	 7.142857e-01	 5.857143e+00	 1.081390e+01
0	 7.142857e-01	 5.928571e+00	 1.078775e+01
0	 7.142857e-01	 6.000000e+00	 1.076176e+01
0	 7.142857e-01	 6.071429e+00	 1.073592e+01
0	 3.571429e-01	 6.071429e+00	 1.079772e+01
0	 3.571429e-01	 6.142857e+00	 1.077164e+01
0	 3.571429e-01	 6.214286e+00	 1.074560e+01
0	 3.571429e-01	 6.285714e+00	 1.071960e+01
0	 3.571429e-01	 6.357143e+00	 1.069365e+01
0	 3.571429e-01	 6.428571e+00	 1.066774e+01
0	 4.285714e-01	 6.071429e+00	 1.078984e+01
0	 4.285714e-01	 6.142857e+00	 1.076406e+01
0	 4.285714e-01	 6.214286e+00	 1.073832e+01
0	 4.285714e-01	 6.285714e+00	 1.071264e+01
0	 4.285714e-01	 6.357143e+00	 1.068701e+01
0	 4.285714e-01	 6.428571e+00	 1.066143e+01
0	 5.000000e-01	 6.071429e+00	 1.077971e+01
0	 5.000000e-01	 6.142857e+00	 1.075432e+01
0	 5.000000e-01	 6.214286e+00	 1.072898e+01
0	 5.000000e-01	 6.285714e+00	 1.070370e+01
0	 5.000000e-01	 6.357143e+00	 1.067847e+01
0	 5.000000e-01	 6.428571e+00	 1.065330e+01
0	 5.714286e-01	 6.071429e+00	 1.076736e+01
0	 5.714286e-01	 6.142857e+00	 1.074243e+01
0	 5.714286e-01	 6.214286e+00	 1.071757e+01
0	 5.714286e-01	 6.285714e+00	 1.069277e+01
0	 5.714286e-01	 6.357143e+00	 1.066803e+01
0	 5.714286e-01	 6.428571e+00	 1.064335e+01
0	 6.428571e-01	 6.071429e+00	 1.075276e+01
0	 6.428571e-01	 6.142857e+00	 1.072839e+01
0	 6.428571e-01	 6.214286e+00	 1.070409e+01
0	 6.428571e-01	 6.285714e+00	 1.067986e+01
0	 6.428571e-01	 6.357143e+00	 1.065569e+01
0	 6.428571e-01	 6.428571e+00	 1.063159e+01
0	 7.142857e-01	 6.071429e+00	 1.073592e+01
0	 7.142857e-01	 6.142857e+00	 1.071220e+01
0	 7.142857e-01	 6.214286e+00	 1.068854e+01
0	 7.142857e-01	 6.285714e+00	 1.066496e+01
0	 7.142857e-01	 6.357143e+00	 1.064145e+01
0	 7.142857e-01	 6.428571e+00	 1.061801e+01
0	 3.571429e-01	 6.428571e+00	 1.066774e+01
0	 3.571429e-01	 6.500000e+00	 1.064448e+01
0	 3.571429e-01	 6.571429e+00	 1.062119e+01
0	 3.571429e-01	 6.642857e+00	 1.059788e+01
0	 3.571429e-01	 6.714286e+00	 1.057454e+01
0	 3.571429e-01	 6.785714e+00	 1.055117e+01
0	 4.285714e-01	 6.428571e+00	 1.066143e+01
0	 4.285714e-01	 6.500000e+00	 1.063843e+01
0	 4.285714e-01	 6.571429e+00	 1.061540e+01
0	 4.285714e-01	 6.642857e+00	 1.059236e+01
0	 4.285714e-01	 6.714286e+00	 1.056930e+01
0	 4.285714e-01	 6.785714e+00	 1.054621e+01
0	 5.000000e-01	 6.428571e+00	 1.065330e+01
0	 5.000000e-01	 6.500000e+00	 1.063063e+01
0	 5.000000e-01	 6.571429e+00	 1.060794e+01
0	 5.000000e-01	 6.642857e+00	 1.058523e+01
0	 5.000000e-01	 6.714286e+00	 1.056251e+01
0	 5.000000e-01	 6.785714e+00	 1.053978e+01
0	 5.714286e-01	 6.428571e+00	 1.064335e+01
0	 5.714286e-01	 6.500000e+00	 1.062108e+01
0	 5.714286e-01	 6.571429e+00	 1.059879e+01
0	 5.714286e-01	 6.642857e+00	 1.057649e+01
0	 5.714286e-01	 6.714286e+00	 1.055419e+01
0	 5.714286e-01	 6.785714e+00	 1.053187e+01
0	 6.428571e-01	 6.428571e+00	 1.063159e+01
0	 6.428571e-01	 6.500000e+00	 1.060978e+01
0	 6.428571e-01	 6.571429e+00	 1.058796e+01
0	 6.428571e-01	 6.642857e+00	 1.056614e+01
0	 6.428571e-01	 6.714286e+00	 1.054431e+01
0	 6.428571e-01	 6.785714e+00	 1.052248e+01
0	 7.142857e-01	 6.428571e+00	 1.061801e+01
0	 7.142857e-01	 6.500000e+00	 1.059673e+01
0	 7.142857e-01	 6.571429e+00	 1.057546e+01
0	 7.142857e-01	 6.642857e+00	 1.055418e+01
0	 7.142857e-01	 6.714286e+00	 1.053290e+01
0	 7.142857e-01	 6.785714e+00	 1.051161e+01
0	 3.571429e-01	 6.785714e+00	 1.055117e+01
0	 3.571429e-01	 6.857143e+00	 1.053044e+01
0	 3.571429e-01	 6.928571e+00	 1.050962e+01
0	 3.571429e-01	 7.000000e+00	 1.048870e+01
0	 3.571429e-01	 7.071429e+00	 1.046770e+01
0	 3.571429e-01	 7.142857e+00	 1.044661e+01
0	 4.285714e-01	 6.785714e+00	 1.054621e+01
0	 4.285714e-01	 6.857143e+00	 1.052570e+01
0	 4.285714e-01	 6.928571e+00	 1.050509e+01
0	 4.285714e-01	 7.000000e+00	 1.048440e+01
0	 4.285714e-01	 7.071429e+00	 1.046363e+01
0	 4.285714e-01	 7.142857e+00	 1.044277e+01
0	 5.000000e-01	 6.785714e+00	 1.053978e+01
0	 5.000000e-01	 6.857143e+00	 1.051953e+01
0	 5.000000e-01	 6.928571e+00	 1.049921e+01
0	 5.000000e-01	 7.000000e+00	 1.047880e+01
0	 5.000000e-01	 7.071429e+00	 1.045832e+01
0	 5.000000e-01	 7.142857e+00	 1.043775e+01
0	 5.714286e-01	 6.785714e+00	 1.053187e+01
0	 5.714286e-01	 6.857143e+00	 1.051195e+01
0	 5.714286e-01	 6.928571e+00	 1.049196e+01
0	 5.714286e-01	 7.000000e+00	 1.047190e+01
0	 5.714286e-01	 7.071429e+00	 1.045176e+01
0	 5.714286e-01	 7.142857e+00	 1.043154e+01
0	 6.428571e-01	 6.785714e+00	 1.052248e+01
0	 6.428571e-01	 6.857143e+00	 1.050295e+01
0	 6.428571e-01	 6.928571e+00	 1.048336e+01
0	 6.428571e-01	 7.000000e+00	 1.046369e+01
0	 6.428571e-01	 7.071429e+00	 1.044395e+01
0	 6.428571e-01	 7.142857e+00	 1.042415e+01
0	 7.142857e-01	 6.785714e+00	 1.051161e+01
0	 7.142857e-01	 6.857143e+00	 1.049253e+01
0	 7.142857e-01	 6.928571e+00	 1.047339e+01
0	 7.142857e-01	 7.000000e+00	 1.045418e+01
0	 7.142857e-01	 7.071429e+00	 1.043490e+01
0	 7.142857e-01	 7.142857e+00	 1.041556e+01
0	 3.571429e-01	 7.142857e+00	 1.044661e+01
0	 3.571429e-01	 7.214286e+00	 1.042815e+01
0	 3.571429e-01	 7.285714e+00	 1.040955e+01
0	 3.571429e-01	 7.357143e+00	 1.039080e+01
0	 3.571429e-01	 7.428571e+00	 1.037190e+01
0	 3.571429e-01	 7.500000e+00	 1.035286e+01
0	 4.285714e-01	 7.142857e+00	 1.044277e+01
0	 4.285714e-01	 7.214286e+00	 1.042450e+01
0	 4.285714e-01	 7.285714e+00	 1.040609e+01
0	 4.285714e-01	 7.357143e+00	 1.038753e+01
0	 4.285714e-01	 7.428571e+00	 1.036883e+01
0	 4.285714e-01	 7.500000e+00	 1.034998e+01
0	 5.000000e-01	 7.142857e+00	 1.043775e+01
0	 5.000000e-01	 7.214286e+00	 1.041971e+01
0	 5.000000e-01	 7.285714e+00	 1.040153e+01
0	 5.000000e-01	 7.357143e+00	 1.038321e+01
0	 5.000000e-01	 7.428571e+00	 1.036476e+01
0	 5.000000e-01	 7.500000e+00	 1.034616e+01
0	 5.714286e-01	 7.142857e+00	 1.043154e+01
0	 5.714286e-01	 7.214286e+00	 1.041378e+01
0	 5.714286e-01	 7.285714e+00	 1.039588e+01
0	 5.714286e-01	 7.357143e+00	 1.037785e+01
0	 5.714286e-01	 7.428571e+00	 1.035969e+01
0	 5.714286e-01	 7.500000e+00	 1.034139e+01
0	 6.428571e-01	 7.142857e+00	 1.042415e+01
0	 6.428571e-01	 7.214286e+00	 1.040671e+01
0	 6.428571e-01	 7.285714e+00	 1.038914e+01
0	 6.428571e-01	 7.357143e+00	 1.037145e+01
0	 6.428571e-01	 7.428571e+00	 1.035362e+01
0	 6.428571e-01	 7.500000e+00	 1.033566e+01
0	 7.142857e-01	 7.142857e+00	 1.041556e+01
0	 7.142857e-01	 7.214286e+00	 1.039850e+01
0	 7.142857e-01	 7.285714e+00	 1.038131e+01
0	 7.142857e-01	 7.357143e+00	 1.036400e+01
0	 7.142857e-01	 7.428571e+00	 1.034656e+01
0	 7.142857e-01	 7.500000e+00	 1.032899e+01
0	 3.571429e-01	 7.500000e+00	 1.035286e+01
0	 3.571429e-01	 7.571429e+00	 1.033653e+01
0	 3.571429e-01	 7.642857e+00	 1.032000e+01
0	 3.571429e-01	 7.714286e+00	 1.030326e+01
0	 3.571429e-01	 7.785714e+00	 1.028630e+01
0	 3.571429e-01	 7.857143e+00	 1.026913e+01
0	 4.285714e-01	 7.500000e+00	 1.034998e+01
0	 4.285714e-01	 7.571429e+00	 1.033382e+01
0	 4.285714e-01	 7.642857e+00	 1.031744e+01
0	 4.285714e-01	 7.714286e+00	 1.030086e+01
0	 4.285714e-01	 7.785714e+00	 1.028407e+01
0	 4.285714e-01	 7.857143e+00	 1.026708e+01
0	 5.000000e-01	 7.500000e+00	 1.034616e+01
0	 5.000000e-01	 7.571429e+00	 1.033019e+01
0	 5.000000e-01	 7.642857e+00	 1.031401e+01
0	 5.000000e-01	 7.714286e+00	 1.029763e+01
0	 5.000000e-01	 7.785714e+00	 1.028105e+01
0	 5.000000e-01	 7.857143e+00	 1.026427e+01
0	 5.714286e-01	 7.500000e+00	 1.034139e+01
0	 5.714286e-01	 7.571429e+00	 1.032565e+01
0	 5.714286e-01	 7.642857e+00	 1.030971e+01
0	 5.714286e-01	 7.714286e+00	 1.029357e+01
0	 5.714286e-01	 7.785714e+00	 1.027724e+01
0	 5.714286e-01	 7.857143e+00	 1.026071e+01
0	 6.428571e-01	 7.500000e+00	 1.033566e+01
0	 6.428571e-01	 7.571429e+00	 1.032019e+01
0	 6.428571e-01	 7.642857e+00	 1.030453e+01
0	 6.428571e-01	 7.714286e+00	 1.028868e+01
0	 6.428571e-01	 7.785714e+00	 1.027263e+01
0	 6.428571e-01	 7.857143e+00	 1.025639e+01
0	 7.142857e-01	 7.500000e+00	 1.032899e+01
0	 7.142857e-01	 7.571429e+00	 1.031383e+01
0	 7.142857e-01	 7.642857e+00	 1.029849e+01
0	 7.142857e-01	 7.714286e+00	 1.028295e+01
0	 7.142857e-01	 7.785714e+00	 1.026723e+01
0	 7.142857e-01	 7.857143e+00	 1.025132e+01
0	 3.571429e-01	 7.857143e+00	 1.026913e+01
0	 3.571429e-01	 7.928571e+00	 1.025488e+01
0	 3.571429e-01	 8.000000e+00	 1.024035e+01
0	 3.571429e-01	 8.071429e+00	 1.022553e+01
0	 3.571429e-01	 8.142857e+00	 1.021044e+01
0	 3.571429e-01	 8.214286e+00	 1.019506e+01
0	 4.285714e-01	 7.857143e+00	 1.026708e+01
0	 4.285714e-01	 7.928571e+00	 1.025296e+01
0	 4.285714e-01	 8.000000e+00	 1.023857e+01
0	 4.285714e-01	 8.071429e+00	 1.022389e+01
0	 4.285714e-01	 8.142857e+00	 1.020894e+01
0	 4.285714e-01	 8.214286e+00	 1.019372e+01
0	 5.000000e-01	 7.857143e+00	 1.026427e+01
0	 5.000000e-01	 7.928571e+00	 1.025032e+01
0	 5.000000e-01	 8.000000e+00	 1.023609e+01
0	 5.000000e-01	 8.071429e+00	 1.022159e+01
0	 5.000000e-01	 8.142857e+00	 1.020682e+01
0	 5.000000e-01	 8.214286e+00	 1.019177e+01
0	 5.714286e-01	 7.857143e+00	 1.026071e+01
0	 5.714286e-01	 7.928571e+00	 1.024695e+01
0	 5.714286e-01	 8.000000e+00	 1.023292e+01
0	 5.714286e-01	 8.071429e+00	 1.021863e+01
0	 5.714286e-01	 8.142857e+00	 1.020406e+01
0	 5.714286e-01	 8.214286e+00	 1.018923e+01
0	 6.428571e-01	 7.857143e+00	 1.025639e+01
0	 6.428571e-01	 7.928571e+00	 1.024286e+01
0	 6.428571e-01	 8.000000e+00	 1.022906e+01
0	 6.428571e-01	 8.071429e+00	 1.021500e+01
0	 6.428571e-01	 8.142857e+00	 1.020068e+01
0	 6.428571e-01	 8.214286e+00	 1.018609e+01
0	 7.142857e-01	 7.857143e+00	 1.025132e+01
0	 7.142857e-01	 7.928571e+00	 1.023805e+01
0	 7.142857e-01	 8.000000e+00	 1.022451e+01
0	 7.142857e-01	 8.071429e+00	 1.021072e+01
0	 7.142857e-01	 8.142857e+00	 1.019667e+01
0	 7.142857e-01	 8.214286e+00	 1.018236e+01
0	 3.571429e-01	 8.214286e+00	 1.019506e+01
0	 3.571429e-01	 8.285714e+00	 1.018293e+01
0	 3.571429e-01	 8.357143e+00	 1.017043e+01
0	 3.571429e-01	 8.428571e+00	 1.015756e+01
0	 3.571429e-01	 8.500000e+00	 1.014433e+01
0	 3.571429e-01	 8.571429e+00	 1.013073e+01
0	 4.285714e-01	 8.214286e+00	 1.019372e+01
0	 4.285714e-01	 8.285714e+00	 1.018169e+01
0	 4.285714e-01	 8.357143e+00	 1.016931e+01
0	 4.285714e-01	 8.428571e+00	 1.015657e+01
0	 4.285714e-01	 8.500000e+00	 1.014347e+01
0	 4.285714e-01	 8.571429e+00	 1.013000e+01
0	 5.000000e-01	 8.214286e+00	 1.019177e+01
0	 5.000000e-01	 8.285714e+00	 1.017989e+01
0	 5.000000e-01	 8.357143e+00	 1.016765e+01
0	 5.000000e-01	 8.428571e+00	 1.015505e+01
0	 5.000000e-01	 8.500000e+00	 1.014210e+01
0	 5.000000e-01	 8.571429e+00	 1.012879e+01
0	 5.714286e-01	 8.214286e+00	 1.018923e+01
0	 5.714286e-01	 8.285714e+00	 1.017751e+01
0	 5.714286e-01	 8.357143e+00	 1.016543e+01
0	 5.714286e-01	 8.428571e+00	 1.015301e+01
0	 5.714286e-01	 8.500000e+00	 1.014023e+01
0	 5.714286e-01	 8.571429e+00	 1.012711e+01
0	 6.428571e-01	 8.214286e+00	 1.018609e+01
0	 6.428571e-01	 8.285714e+00	 1.017455e+01
0	 6.428571e-01	 8.357143e+00	 1.016267e+01
0	 6.428571e-01	 8.428571e+00	 1.015044e+01
0	 6.428571e-01	 8.500000e+00	 1.013786e+01
0	 6.428571e-01	 8.571429e+00	 1.012495e+01
0	 7.142857e-01	 8.214286e+00	 1.018236e+01
0	 7.142857e-01	 8.285714e+00	 1.017103e+01
0	 7.142857e-01	 8.357143e+00	 1.015935e+01
0	 7.142857e-01	 8.428571e+00	 1.014734e+01
0	 7.142857e-01	 8.500000e+00	 1.013499e+01
0	 7.142857e-01	 8.571429e+00	 1.012230e+01
0	 3.571429e-01	 8.571429e+00	 1.013073e+01
0	 3.571429e-01	 8.642857e+00	 1.012088e+01
0	 3.571429e-01	 8.714286e+00	 1.011056e+01
0	 3.571429e-01	 8.785714e+00	 1.009976e+01
0	 3.571429e-01	 8.857143e+00	 1.008850e+01
0	 3.571429e-01	 8.928571e+00	 1.007677e+01
0	 4.285714e-01	 8.571429e+00	 1.013000e+01
0	 4.285714e-01	 8.642857e+00	 1.012024e+01
0	 4.285714e-01	 8.714286e+00	 1.011002e+01
0	 4.285714e-01	 8.785714e+00	 1.009934e+01
0	 4.285714e-01	 8.857143e+00	 1.008819e+01
0	 4.285714e-01	 8.928571e+00	 1.007658e+01
0	 5.000000e-01	 8.571429e+00	 1.012879e+01
0	 5.000000e-01	 8.642857e+00	 1.011915e+01
0	 5.000000e-01	 8.714286e+00	 1.010905e+01
0	 5.000000e-01	 8.785714e+00	 1.009849e+01
0	 5.000000e-01	 8.857143e+00	 1.008747e+01
0	 5.000000e-01	 8.928571e+00	 1.007599e+01
0	 5.714286e-01	 8.571429e+00	 1.012711e+01
0	 5.714286e-01	 8.642857e+00	 1.011759e+01
0	 5.714286e-01	 8.714286e+00	 1.010762e+01
0	 5.714286e-01	 8.785714e+00	 1.009720e+01
0	 5.714286e-01	 8.857143e+00	 1.008633e+01
0	 5.714286e-01	 8.928571e+00	 1.007501e+01
0	 6.428571e-01	 8.571429e+00	 1.012495e+01
0	 6.428571e-01	 8.642857e+00	 1.011557e+01
0	 6.428571e-01	 8.714286e+00	 1.010575e+01
0	 6.428571e-01	 8.785714e+00	 1.009549e+01
0	 6.428571e-01	 8.857143e+00	 1.008478e+01
0	 6.428571e-01	 8.928571e+00	 1.007362e+01
0	 7.142857e-01	 8.571429e+00	 1.012230e+01
0	 7.142857e-01	 8.642857e+00	 1.011309e+01
0	 7.142857e-01	 8.714286e+00	 1.010344e+01
0	 7.142857e-01	 8.785714e+00	 1.009335e+01
0	 7.142857e-01	 8.857143e+00	 1.008281e+01
0	 7.142857e-01	 8.928571e+00	 1.007184e+01
0	 3.571429e-01	 8.928571e+00	 1.007677e+01
0	 3.571429e-01	 9.000000e+00	 1.006953e+01
0	 3.571429e-01	 9.071429e+00	 1.006169e+01
0	 3.571429e-01	 9.142857e+00	 1.005325e+01
0	 3.571429e-01	 9.214286e+00	 1.004420e+01
0	 3.571429e-01	 9.285714e+00	 1.003455e+01
0	 4.285714e-01	 8.928571e+00	 1.007658e+01
0	 4.285714e-01	 9.000000e+00	 1.006942e+01
0	 4.285714e-01	 9.071429e+00	 1.006166e+01
0	 4.285714e-01	 9.142857e+00	 1.005331e+01
0	 4.285714e-01	 9.214286e+00	 1.004437e+01
0	 4.285714e-01	 9.285714e+00	 1.003483e+01
0	 5.000000e-01	 8.928571e+00	 1.007599e+01
0	 5.000000e-01	 9.000000e+00	 1.006892e+01
0	 5.000000e-01	 9.071429e+00	 1.006125e+01
0	 5.000000e-01	 9.142857e+00	 1.005300e+01
0	 5.000000e-01	 9.214286e+00	 1.004417e+01
0	 5.000000e-01	 9.285714e+00	 1.003474e+01
0	 5.714286e-01	 8.928571e+00	 1.007501e+01
0	 5.714286e-01	 9.000000e+00	 1.006802e+01
0	 5.714286e-01	 9.071429e+00	 1.006046e+01
0	 5.714286e-01	 9.142857e+00	 1.005232e+01
0	 5.714286e-01	 9.214286e+00	 1.004360e+01
0	 5.714286e-01	 9.285714e+00	 1.003430e+01
0	 6.428571e-01	 8.928571e+00	 1.007362e+01
0	 6.428571e-01	 9.000000e+00	 1.006674e+01
0	 6.428571e-01	 9.071429e+00	 1.005929e+01
0	 6.428571e-01	 9.142857e+00	 1.005126e+01
0	 6.428571e-01	 9.214286e+00	 1.004266e+01
0	 6.428571e-01	 9.285714e+00	 1.003349e+01
0	 7.142857e-01	 8.928571e+00	 1.007184e+01
0	 7.142857e-01	 9.000000e+00	 1.006507e+01
0	 7.142857e-01	 9.071429e+00	 1.005773e+01
0	 7.142857e-01	 9.142857e+00	 1.004983e+01
0	 7.142857e-01	 9.214286e+00	 1.004136e+01
0	 7.142857e-01	 9.285714e+00	 1.003233e+01
0	 3.571429e-01	 9.285714e+00	 1.003455e+01
0	 3.571429e-01	 9.357143e+00	 1.003040e+01
0	 3.571429e-01	 9.428571e+00	 1.002547e+01
0	 3.571429e-01	 9.500000e+00	 1.001977e+01
0	 3.571429e-01	 9.571429e+00	 1.001331e+01
0	 3.571429e-01	 9.642857e+00	 1.000607e+01
0	 4.285714e-01	 9.285714e+00	 1.003483e+01
0	 4.285714e-01	 9.357143e+00	 1.003073e+01
0	 4.285714e-01	 9.428571e+00	 1.002587e+01
0	 4.285714e-01	 9.500000e+00	 1.002025e+01
0	 4.285714e-01	 9.571429e+00	 1.001387e+01
0	 4.285714e-01	 9.642857e+00	 1.000673e+01
0	 5.000000e-01	 9.285714e+00	 1.003474e+01
0	 5.000000e-01	 9.357143e+00	 1.003070e+01
0	 5.000000e-01	 9.428571e+00	 1.002590e+01
0	 5.000000e-01	 9.500000e+00	 1.002036e+01
0	 5.000000e-01	 9.571429e+00	 1.001406e+01
0	 5.000000e-01	 9.642857e+00	 1.000701e+01
0	 5.714286e-01	 9.285714e+00	 1.003430e+01
0	 5.714286e-01	 9.357143e+00	 1.003031e+01
0	 5.714286e-01	 9.428571e+00	 1.002558e+01
0	 5.714286e-01	 9.500000e+00	 1.002010e+01
0	 5.714286e-01	 9.571429e+00	 1.001389e+01
0	 5.714286e-01	 9.642857e+00	 1.000693e+01
0	 6.428571e-01	 9.285714e+00	 1.003349e+01
0	 6.428571e-01	 9.357143e+00	 1.002956e+01
0	 6.428571e-01	 9.428571e+00	 1.002489e+01
0	 6.428571e-01	 9.500000e+00	 1.001949e+01
0	 6.428571e-01	 9.571429e+00	 1.001335e+01
0	 6.428571e-01	 9.642857e+00	 1.000648e+01
0	 7.142857e-01	 9.285714e+00	 1.003233e+01
0	 7.142857e-01	 9.357143e+00	 1.002844e+01
0	 7.142857e-01	 9.428571e+00	 1.002383e+01
0	 7.142857e-01	 9.500000e+00	 1.001850e+01
0	 7.142857e-01	 9.571429e+00	 1.001244e+01
0	 7.142857e-01	 9.642857e+00	 1.000566e+01
0	 3.571429e-01	 9.642857e+00	 1.000607e+01
0	 3.571429e-01	 9.714286e+00	 1.000586e+01
0	 3.571429e-01	 9.785714e+00	 1.000467e+01
0	 3.571429e-01	 9.857143e+00	 1.000247e+01
0	 3.571429e-01	 9.928571e+00	 9.999288e+00
0	 3.571429e-01	 1.000000e+01	 9.995109e+00
0	 4.285714e-01	 9.642857e+00	 1.000673e+01
0	 4.285714e-01	 9.714286e+00	 1.000656e+01
0	 4.285714e-01	 9.785714e+00	 1.000542e+01
0	 4.285714e-01	 9.857143e+00	 1.000330e+01
0	 4.285714e-01	 9.928571e+00	 1.000019e+01
0	 4.285714e-01	 1.000000e+01	 9.996109e+00
0	 5.000000e-01	 9.642857e+00	 1.000701e+01
0	 5.000000e-01	 9.714286e+00	 1.000688e+01
0	 5.000000e-01	 9.785714e+00	 1.000577e+01
0	 5.000000e-01	 9.857143e+00	 1.000370e+01
0	 5.000000e-01	 9.928571e+00	 1.000066e+01
0	 5.000000e-01	 1.000000e+01	 9.996649e+00
0	 5.714286e-01	 9.642857e+00	 1.000693e+01
0	 5.714286e-01	 9.714286e+00	 1.000680e+01
0	 5.714286e-01	 9.785714e+00	 1.000571e+01
0	 5.714286e-01	 9.857143e+00	 1.000367e+01
0	 5.714286e-01	 9.928571e+00	 1.000068e+01
0	 5.714286e-01	 1.000000e+01	 9.996727e+00
0	 6.428571e-01	 9.642857e+00	 1.000648e+01
0	 6.428571e-01	 9.714286e+00	 1.000634e+01
0	 6.428571e-01	 9.785714e+00	 1.000525e+01
0	 6.428571e-01	 9.857143e+00	 1.000322e+01
0	 6.428571e-01	 9.928571e+00	 1.000025e+01
0	 6.428571e-01	 1.000000e+01	 9.996345e+00
0	 7.142857e-01	 9.642857e+00	 1.000566e+01
0	 7.142857e-01	 9.714286e+00	 1.000549e+01
0	 7.142857e-01	 9.785714e+00	 1.000438e+01
0	 7.142857e-01	 9.857143e+00	 1.000235e+01
0	 7.142857e-01	 9.928571e+00	 9.999390e+00
0	 7.142857e-01	 1.000000e+01	 9.995502e+00
0	 7.142857e-01	 0.000000e+00	 4.268973e+01
0	 7.142857e-01	 7.142857e-02	 4.302062e+01
0	 7.142857e-01	 1.428571e-01	 4.382325e+01
0	 7.142857e-01	 2.142857e-01	 4.509761e+01
0	 7.142857e-01	 2.857143e-01	 4.684371e+01
0	 7.142857e-01	 3.571429e-01	 4.906155e+01
0	 7.857143e-01	 0.000000e+00	 6.173666e+01
0	 7.857143e-01	 7.142857e-02	 5.994360e+01
0	 7.857143e-01	 1.428571e-01	 5.835273e+01
0	 7.857143e-01	 2.142857e-01	 5.696406e+01
0	 7.857143e-01	 2.857143e-01	 5.577758e+01
0	 7.857143e-01	 3.571429e-01	 5.479329e+01
0	 8.571429e-01	 0.000000e+00	 7.424660e+01
0	 8.571429e-01	 7.142857e-02	 6.969808e+01
0	 8.571429e-01	 1.428571e-01	 6.508222e+01
0	 8.571429e-01	 2.142857e-01	 6.039901e+01
0	 8.571429e-01	 2.857143e-01	 5.564845e+01
0	 8.571429e-01	 3.571429e-01	 5.083054e+01
0	 9.285714e-01	 0.000000e+00	 8.021954e+01
0	 9.285714e-01	 7.142857e-02	 7.228408e+01
0	 9.285714e-01	 1.428571e-01	 6.401172e+01
0	 9.285714e-01	 2.142857e-01	 5.540247e+01
0	 9.285714e-01	 2.857143e-01	 4.645632e+01
0	 9.285714e-01	 3.571429e-01	 3.717328e+01
0	 1.000000e+00	 0.000000e+00	 7.965550e+01
0	 1.000000e+00	 7.142857e-02	 6.770158e+01
0	 1.000000e+00	 1.428571e-01	 5.514122e+01
0	 1.000000e+00	 2.142857e-01	 4.197443e+01
0	 1.000000e+00	 2.857143e-01	 2.820120e+01
0	 1.000000e+00	 3.571429e-01	 1.382153e+01
0	 1.071429e+00	 0.000000e+00	 7.255447e+01
0	 1.071429e+00	 7.142857e-02	 5.595059e+01
0	 1.071429e+00	 1.428571e-01	 3.847074e+01
0	 1.071429e+00	 2.142857e-01	 2.011490e+01
0	 1.071429e+00	 2.857143e-01	 8.830806e-01
0	 1.071429e+00	 3.571429e-01	-1.922472e+01
0	 7.142857e-01	 3.571429e-01	 4.906155e+01
0	 7.142857e-01	 4.285714e-01	 2.500282e+01
0	 7.142857e-01	 5.000000e-01	 1.191814e+00
0	 7.142857e-01	 5.714286e-01	-2.237148e+01
0	 7.142857e-01	 6.428571e-01	-4.568707e+01
0	 7.142857e-01	 7.142857e-01	-6.875494e+01
0	 7.857143e-01	 3.571429e-01	 5.479329e+01
0	 7.857143e-01	 4.285714e-01	 2.197842e+01
0	 7.857143e-01	 5.000000e-01	-1.081097e+01
0	 7.857143e-01	 5.714286e-01	-4.357486e+01
0	 7.857143e-01	 6.428571e-01	-7.631327e+01
0	 7.857143e-01	 7.142857e-01	-1.090262e+02
0	 8.571429e-01	 3.571429e-01	 5.083054e+01
0	 8.571429e-01	 4.285714e-01	 1.519153e+01
0	 8.571429e-01	 5.000000e-01	-2.064420e+01
0	 8.571429e-01	 5.714286e-01	-5.667667e+01
0	 8.571429e-01	 6.428571e-01	-9.290587e+01
0	 8.571429e-01	 7.142857e-01	-1.293318e+02
0	 9.285714e-01	 3.571429e-01	 3.717328e+01
0	 9.285714e-01	 4.285714e-01	 4.642177e+00
0	 9.285714e-01	 5.000000e-01	-2.830788e+01
0	 9.285714e-01	 5.714286e-01	-6.167690e+01
0	 9.285714e-01	 6.428571e-01	-9.546487e+01
0	 9.285714e-01	 7.142857e-01	-1.296718e+02
0	 1.000000e+00	 3.571429e-01	 1.382153e+01
0	 1.000000e+00	 4.285714e-01	-9.669653e+00
0	 1.000000e+00	 5.000000e-01	-3.380201e+01
0	 1.000000e+00	 5.714286e-01	-5.857555e+01
0	 1.000000e+00	 6.428571e-01	-8.399027e+01
0	 1.000000e+00	 7.142857e-01	-1.100462e+02
0	 1.071429e+00	 3.571429e-01	-1.922472e+01
0	 1.071429e+00	 4.285714e-01	-2.774396e+01
0	 1.071429e+00	 5.000000e-01	-3.712659e+01
0	 1.071429e+00	 5.714286e-01	-4.737263e+01
0	 1.071429e+00	 6.428571e-01	-5.848207e+01
0	 1.071429e+00	 7.142857e-01	-7.045490e+01
0	 7.142857e-01	 7.142857e-01	-6.875494e+01
0	 7.142857e-01	 7.857143e-01	-6.280644e+01
0	 7.142857e-01	 8.571429e-01	-5.894669e+01
0	 7.142857e-01	 9.285714e-01	-5.717568e+01
0	 7.142857e-01	 1.000000e+00	-5.749343e+01
0	 7.142857e-01	 1.071429e+00	-5.989993e+01
0	 7.857143e-01	 7.142857e-01	-1.090262e+02
0	 7.857143e-01	 7.857143e-01	-8.640804e+01
0	 7.857143e-01	 8.571429e-01	-6.546449e+01
0	 7.857143e-01	 9.285714e-01	-4.619552e+01
0	 7.857143e-01	 1.000000e+00	-2.860113e+01
0	 7.857143e-01	 1.071429e+00	-1.268132e+01
0	 8.571429e-01	 7.142857e-01	-1.293318e+02
0	 8.571429e-01	 7.857143e-01	-9.557581e+01
0	 8.571429e-01	 8.571429e-01	-6.308023e+01
0	 8.571429e-01	 9.285714e-01	-3.184507e+01
0	 8.571429e-01	 1.000000e+00	-1.870326e+00
0	 8.571429e-01	 1.071429e+00	 2.684400e+01
0	 9.285714e-01	 7.142857e-01	-1.296718e+02
0	 9.285714e-01	 7.857143e-01	-9.030973e+01
0	 9.285714e-01	 8.571429e-01	-5.179391e+01
0	 9.285714e-01	 9.285714e-01	-1.412435e+01
0	 9.285714e-01	 1.000000e+00	 2.269897e+01
0	 9.285714e-01	 1.071429e+00	 5.867604e+01
0	 1.000000e+00	 7.142857e-01	-1.100462e+02
0	 1.000000e+00	 7.857143e-01	-7.060981e+01
0	 1.000000e+00	 8.571429e-01	-3.160554e+01
0	 1.000000e+00	 9.285714e-01	 6.966652e+00
0	 1.000000e+00	 1.000000e+00	 4.510676e+01
0	 1.000000e+00	 1.071429e+00	 8.281479e+01
0	 1.071429e+00	 7.142857e-01	-7.045490e+01
0	 1.071429e+00	 7.857143e-01	-3.647604e+01
0	 1.071429e+00	 8.571429e-01	-2.515101e+00
0	 1.071429e+00	 9.285714e-01	 3.142793e+01
0	 1.071429e+00	 1.000000e+00	 6.535305e+01
0	 1.071429e+00	 1.071429e+00	 9.926025e+01
0	 7.142857e-01	 1.071429e+00	-5.989993e+01
0	 7.142857e-01	 1.142857e+00	-3.364189e+01
0	 7.142857e-01	 1.214286e+00	-4.962272e+00
0	 7.142857e-01	 1.285714e+00	 2.613891e+01
0	 7.142857e-01	 1.357143e+00	 5.966167e+01
0	 7.142857e-01	 1.428571e+00	 9.560600e+01
0	 7.857143e-01	 1.071429e+00	-1.268132e+01
0	 7.857143e-01	 1.142857e+00	 4.716241e+00
0	 7.857143e-01	 1.214286e+00	 2.402657e+01
0	 7.857143e-01	 1.285714e+00	 4.524966e+01
0	 7.857143e-01	 1.357143e+00	 6.838553e+01
0	 7.857143e-01	 1.428571e+00	 9.343416e+01
0	 8.571429e-01	 1.071429e+00	 2.684400e+01
0	 8.571429e-01	 1.142857e+00	 3.642673e+01
0	 8.571429e-01	 1.214286e+00	 4.741341e+01
0	 8.571429e-01	 1.285714e+00	 5.980406e+01
0	 8.571429e-01	 1.357143e+00	 7.359868e+01
0	 8.571429e-01	 1.428571e+00	 8.879726e+01
0	 9.285714e-01	 1.071429e+00	 5.867604e+01
0	 9.285714e-01	 1.142857e+00	 6.148957e+01
0	 9.285714e-01	 1.214286e+00	 6.519826e+01
0	 9.285714e-01	 1.285714e+00	 6.980211e+01
0	 9.285714e-01	 1.357143e+00	 7.530112e+01
0	 9.285714e-01	 1.428571e+00	 8.169529e+01
0	 1.000000e+00	 1.071429e+00	 8.281479e+01
0	 1.000000e+00	 1.142857e+00	 7.990477e+01
0	 1.000000e+00	 1.214286e+00	 7.738111e+01
0	 1.000000e+00	 1.285714e+00	 7.524380e+01
0	 1.000000e+00	 1.357143e+00	 7.349286e+01
0	 1.000000e+00	 1.428571e+00	 7.212827e+01
0	 1.071429e+00	 1.071429e+00	 9.926025e+01
0	 1.071429e+00	 1.142857e+00	 9.167233e+01
0	 1.071429e+00	 1.214286e+00	 8.396196e+01
0	 1.071429e+00	 1.285714e+00	 7.612914e+01
0	 1.071429e+00	 1.357143e+00	 6.817388e+01
0	 1.071429e+00	 1.428571e+00	 6.009618e+01
0	 7.142857e-01	 1.428571e+00	 9.560600e+01
0	 7.142857e-01	 1.500000e+00	 8.105529e+01
0	 7.142857e-01	 1.571429e+00	 6.493021e+01
0	 7.142857e-01	 1.642857e+00	 4.723075e+01
0	 7.142857e-01	 1.714286e+00	 2.795692e+01
0	 7.142857e-01	 1.785714e+00	 7.108712e+00
0	 7.857143e-01	 1.428571e+00	 9.343416e+01
0	 7.857143e-01	 1.500000e+00	 7.728253e+01
0	 7.857143e-01	 1.571429e+00	 5.971588e+01
0	 7.857143e-01	 1.642857e+00	 4.073423e+01
0	 7.857143e-01	 1.714286e+00	 2.033756e+01
0	 7.857143e-01	 1.785714e+00	-1.474118e+00
0	 8.571429e-01	 1.428571e+00	 8.879726e+01
0	 8.571429e-01	 1.500000e+00	 7.226964e+01
0	 8.571429e-01	 1.571429e+00	 5.448638e+01
0	 8.571429e-01	 1.642857e+00	 3.544748e+01
0	 8.571429e-01	 1.714286e+00	 1.515292e+01
0	 8.571429e-01	 1.785714e+00	-6.397283e+00
0	 9.285714e-01	 1.428571e+00	 8.169529e+01
0	 9.285714e-01	 1.500000e+00	 6.601665e+01
0	 9.285714e-01	 1.571429e+00	 4.924171e+01
0	 9.285714e-01	 1.642857e+00	 3.137050e+01
0	 9.285714e-01	 1.714286e+00	 1.240300e+01
0	 9.285714e-01	 1.785714e+00	-7.660784e+00
0	 1.000000e+00	 1.428571e+00	 7.212827e+01
0	 1.000000e+00	 1.500000e+00	 5.852353e+01
0	 1.000000e+00	 1.571429e+00	 4.398187e+01
0	 1.000000e+00	 1.642857e+00	 2.850329e+01
0	 1.000000e+00	 1.714286e+00	 1.208780e+01
0	 1.000000e+00	 1.785714e+00	-5.264620e+00
0	 1.071429e+00	 1.428571e+00	 6.009618e+01
0	 1.071429e+00	 1.500000e+00	 4.979030e+01
0	 1.071429e+00	 1.571429e+00	 3.870686e+01
0	 1.071429e+00	 1.642857e+00	 2.684586e+01
0	 1.071429e+00	 1.714286e+00	 1.420731e+01
0	 1.071429e+00	 1.785714e+00	 7.912083e-01
0	 7.142857e-01	 1.785714e+00	 7.108712e+00
0	 7.142857e-01	 1.857143e+00	 8.189268e+00
0	 7.142857e-01	 1.928571e+00	 9.439358e+00
0	 7.142857e-01	 2.000000e+00	 1.085898e+01
0	 7.142857e-01	 2.071429e+00	 1.244814e+01
0	 7.142857e-01	 2.142857e+00	 1.420684e+01
0	 7.857143e-01	 1.785714e+00	-1.474118e+00
0	 7.857143e-01	 1.857143e+00	 1.289599e+00
0	 7.857143e-01	 1.928571e+00	 4.383169e+00
0	 7.857143e-01	 2.000000e+00	 7.806593e+00
0	 7.857143e-01	 2.071429e+00	 1.155987e+01
0	 7.857143e-01	 2.142857e+00	 1.564300e+01
0	 8.571429e-01	 1.785714e+00	-6.397283e+00
0	 8.571429e-01	 1.857143e+00	-2.802511e+00
0	 8.571429e-01	 1.928571e+00	 1.282432e+00
0	 8.571429e-01	 2.000000e+00	 5.857548e+00
0	 8.571429e-01	 2.071429e+00	 1.092284e+01
0	 8.571429e-01	 2.142857e+00	 1.647830e+01
0	 9.285714e-01	 1.785714e+00	-7.660784e+00
0	 9.285714e-01	 1.857143e+00	-4.087064e+00
0	 9.285714e-01	 1.928571e+00	 1.371469e-01
0	 9.285714e-01	 2.000000e+00	 5.011849e+00
0	 9.285714e-01	 2.071429e+00	 1.053704e+01
0	 9.285714e-01	 2.142857e+00	 1.671272e+01
0	 1.000000e+00	 1.785714e+00	-5.264620e+00
0	 1.000000e+00	 1.857143e+00	-2.564058e+00
0	 1.000000e+00	 1.928571e+00	 9.473134e-01
0	 1.000000e+00	 2.000000e+00	 5.269494e+00
0	 1.000000e+00	 2.071429e+00	 1.040248e+01
0	 1.000000e+00	 2.142857e+00	 1.634629e+01
0	 1.071429e+00	 1.785714e+00	 7.912083e-01
0	 1.071429e+00	 1.857143e+00	 1.766506e+00
0	 1.071429e+00	 1.928571e+00	 3.712932e+00
0	 1.071429e+00	 2.000000e+00	 6.630486e+00
0	 1.071429e+00	 2.071429e+00	 1.051917e+01
0	 1.071429e+00	 2.142857e+00	 1.537898e+01
0	 7.142857e-01	 2.142857e+00	 1.420684e+01
0	 7.142857e-01	 2.214286e+00	 1.328648e+01
0	 7.142857e-01	 2.285714e+00	 1.269409e+01
0	 7.142857e-01	 2.357143e+00	 1.242966e+01
0	 7.142857e-01	 2.428571e+00	 1.249319e+01
0	 7.142857e-01	 2.500000e+00	 1.288469e+01
0	 7.857143e-01	 2.142857e+00	 1.564300e+01
0	 7.857143e-01	 2.214286e+00	 1.446921e+01
0	 7.857143e-01	 2.285714e+00	 1.352905e+01
0	 7.857143e-01	 2.357143e+00	 1.282253e+01
0	 7.857143e-01	 2.428571e+00	 1.234966e+01
0	 7.857143e-01	 2.500000e+00	 1.211042e+01
0	 8.571429e-01	 2.142857e+00	 1.647830e+01
0	 8.571429e-01	 2.214286e+00	 1.521913e+01
0	 8.571429e-01	 2.285714e+00	 1.409929e+01
0	 8.571429e-01	 2.357143e+00	 1.311875e+01
0	 8.571429e-01	 2.428571e+00	 1.227754e+01
0	 8.571429e-01	 2.500000e+00	 1.157564e+01
0	 9.285714e-01	 2.142857e+00	 1.671272e+01
0	 9.285714e-01	 2.214286e+00	 1.553627e+01
0	 9.285714e-01	 2.285714e+00	 1.440480e+01
0	 9.285714e-01	 2.357143e+00	 1.331832e+01
0	 9.285714e-01	 2.428571e+00	 1.227684e+01
0	 9.285714e-01	 2.500000e+00	 1.128034e+01
0	 1.000000e+00	 2.142857e+00	 1.634629e+01
0	 1.000000e+00	 2.214286e+00	 1.542060e+01
0	 1.000000e+00	 2.285714e+00	 1.444558e+01
0	 1.000000e+00	 2.357143e+00	 1.342124e+01
0	 1.000000e+00	 2.428571e+00	 1.234755e+01
0	 1.000000e+00	 2.500000e+00	 1.122454e+01
0	 1.071429e+00	 2.142857e+00	 1.537898e+01
0	 1.071429e+00	 2.214286e+00	 1.487214e+01
0	 1.071429e+00	 2.285714e+00	 1.422165e+01
0	 1.071429e+00	 2.357143e+00	 1.342750e+01
0	 1.071429e+00	 2.428571e+00	 1.248969e+01
0	 1.071429e+00	 2.500000e+00	 1.140822e+01
0	 7.142857e-01	 2.500000e+00	 1.288469e+01
0	 7.142857e-01	 2.571429e+00	 1.295070e+01
0	 7.142857e-01	 2.642857e+00	 1.295308e+01
0	 7.142857e-01	 2.714286e+00	 1.289181e+01
0	 7.142857e-01	 2.785714e+00	 1.276691e+01
0	 7.142857e-01	 2.857143e+00	 1.257837e+01
0	 7.857143e-01	 2.500000e+00	 1.211042e+01
0	 7.857143e-01	 2.571429e+00	 1.230736e+01
0	 7.857143e-01	 2.642857e+00	 1.246648e+01
0	 7.857143e-01	 2.714286e+00	 1.258779e+01
0	 7.857143e-01	 2.785714e+00	 1.267127e+01
0	 7.857143e-01	 2.857143e+00	 1.271694e+01
0	 8.571429e-01	 2.500000e+00	 1.157564e+01
0	 8.571429e-01	 2.571429e+00	 1.184025e+01
0	 8.571429e-01	 2.642857e+00	 1.209287e+01
0	 8.571429e-01	 2.714286e+00	 1.233348e+01
0	 8.571429e-01	 2.785714e+00	 1.256210e+01
0	 8.571429e-01	 2.857143e+00	 1.277871e+01
0	 9.285714e-01	 2.500000e+00	 1.128034e+01
0	 9.285714e-01	 2.571429e+00	 1.154938e+01
0	 9.285714e-01	 2.642857e+00	 1.183223e+01
0	 9.285714e-01	 2.714286e+00	 1.212890e+01
0	 9.285714e-01	 2.785714e+00	 1.243939e+01
0	 9.285714e-01	 2.857143e+00	 1.276371e+01
0	 1.000000e+00	 2.500000e+00	 1.122454e+01
0	 1.000000e+00	 2.571429e+00	 1.143474e+01
0	 1.000000e+00	 2.642857e+00	 1.168457e+01
0	 1.000000e+00	 2.714286e+00	 1.197404e+01
0	 1.000000e+00	 2.785714e+00	 1.230316e+01
0	 1.000000e+00	 2.857143e+00	 1.267191e+01
0	 1.071429e+00	 2.500000e+00	 1.140822e+01
0	 1.071429e+00	 2.571429e+00	 1.149633e+01
0	 1.071429e+00	 2.642857e+00	 1.164989e+01
0	 1.071429e+00	 2.714286e+00	 1.186891e+01
0	 1.071429e+00	 2.785714e+00	 1.215339e+01
0	 1.071429e+00	 2.857143e+00	 1.250332e+01
0	 7.142857e-01	 2.857143e+00	 1.257837e+01
0	 7.142857e-01	 2.928571e+00	 1.245798e+01
0	 7.142857e-01	 3.000000e+00	 1.237163e+01
0	 7.142857e-01	 3.071429e+00	 1.231932e+01
0	 7.142857e-01	 3.142857e+00	 1.230104e+01
0	 7.142857e-01	 3.214286e+00	 1.231680e+01
0	 7.857143e-01	 2.857143e+00	 1.271694e+01
0	 7.857143e-01	 2.928571e+00	 1.256460e+01
0	 7.857143e-01	 3.000000e+00	 1.244003e+01
0	 7.857143e-01	 3.071429e+00	 1.234324e+01
0	 7.857143e-01	 3.142857e+00	 1.227423e+01
0	 7.857143e-01	 3.214286e+00	 1.223300e+01
0	 8.571429e-01	 2.857143e+00	 1.277871e+01
0	 8.571429e-01	 2.928571e+00	 1.260856e+01
0	 8.571429e-01	 3.000000e+00	 1.245992e+01
0	 8.571429e-01	 3.071429e+00	 1.233280e+01
0	 8.571429e-01	 3.142857e+00	 1.222719e+01
0	 8.571429e-01	 3.214286e+00	 1.214310e+01
0	 9.285714e-01	 2.857143e+00	 1.276371e+01
0	 9.285714e-01	 2.928571e+00	 1.258987e+01
0	 9.285714e-01	 3.000000e+00	 1.243130e+01
0	 9.285714e-01	 3.071429e+00	 1.228798e+01
0	 9.285714e-01	 3.142857e+00	 1.215991e+01
0	 9.285714e-01	 3.214286e+00	 1.204710e+01
0	 1.000000e+00	 2.857143e+00	 1.267191e+01
0	 1.000000e+00	 2.928571e+00	 1.250854e+01
0	 1.000000e+00	 3.000000e+00	 1.235416e+01
0	 1.000000e+00	 3.071429e+00	 1.220879e+01
0	 1.000000e+00	 3.142857e+00	 1.207240e+01
0	 1.000000e+00	 3.214286e+00	 1.194501e+01
0	 1.071429e+00	 2.857143e+00	 1.250332e+01
0	 1.071429e+00	 2.928571e+00	 1.236455e+01
0	 1.071429e+00	 3.000000e+00	 1.222852e+01
0	 1.071429e+00	 3.071429e+00	 1.209522e+01
0	 1.071429e+00	 3.142857e+00	 1.196465e+01
0	 1.071429e+00	 3.214286e+00	 1.183682e+01
0	 7.142857e-01	 3.214286e+00	 1.231680e+01
0	 7.142857e-01	 3.285714e+00	 1.226768e+01
0	 7.142857e-01	 3.357143e+00	 1.221227e+01
0	 7.142857e-01	 3.428571e+00	 1.215056e+01
0	 7.142857e-01	 3.500000e+00	 1.208255e+01
0	 7.142857e-01	 3.571429e+00	 1.200824e+01
0	 7.857143e-01	 3.214286e+00	 1.223300e+01
0	 7.857143e-01	 3.285714e+00	 1.218830e+01
0	 7.857143e-01	 3.357143e+00	 1.213907e+01
0	 7.857143e-01	 3.428571e+00	 1.208532e+01
0	 7.857143e-01	 3.500000e+00	 1.202703e+01
0	 7.857143e-01	 3.571429e+00	 1.196422e+01
0	 8.571429e-01	 3.214286e+00	 1.214310e+01
0	 8.571429e-01	 3.285714e+00	 1.210194e+01
0	 8.571429e-01	 3.357143e+00	 1.205803e+01
0	 8.571429e-01	 3.428571e+00	 1.201136e+01
0	 8.571429e-01	 3.500000e+00	 1.196193e+01
0	 8.571429e-01	 3.571429e+00	 1.190974e+01
0	 9.285714e-01	 3.214286e+00	 1.204710e+01
0	 9.285714e-01	 3.285714e+00	 1.200862e+01
0	 9.285714e-01	 3.357143e+00	 1.196914e+01
0	 9.285714e-01	 3.428571e+00	 1.192868e+01
0	 9.285714e-01	 3.500000e+00	 1.188724e+01
0	 9.285714e-01	 3.571429e+00	 1.184480e+01
0	 1.000000e+00	 3.214286e+00	 1.194501e+01
0	 1.000000e+00	 3.285714e+00	 1.190832e+01
0	 1.000000e+00	 3.357143e+00	 1.187241e+01
0	 1.000000e+00	 3.428571e+00	 1.183729e+01
0	 1.000000e+00	 3.500000e+00	 1.180295e+01
0	 1.000000e+00	 3.571429e+00	 1.176940e+01
0	 1.071429e+00	 3.214286e+00	 1.183682e+01
0	 1.071429e+00	 3.285714e+00	 1.180105e+01
0	 1.071429e+00	 3.357143e+00	 1.176784e+01
0	 1.071429e+00	 3.428571e+00	 1.173718e+01
0	 1.071429e+00	 3.500000e+00	 1.170908e+01
0	 1.071429e+00	 3.571429e+00	 1.168354e+01
0	 7.142857e-01	 3.571429e+00	 1.200824e+01
0	 7.142857e-01	 3.642857e+00	 1.195191e+01
0	 7.142857e-01	 3.714286e+00	 1.190049e+01
0	 7.142857e-01	 3.785714e+00	 1.185397e+01
0	 7.142857e-01	 3.857143e+00	 1.181236e+01
0	 7.142857e-01	 3.928571e+00	 1.177566e+01
0	 7.857143e-01	 3.571429e+00	 1.196422e+01
0	 7.857143e-01	 3.642857e+00	 1.190890e+01
0	 7.857143e-01	 3.714286e+00	 1.185797e+01
0	 7.857143e-01	 3.785714e+00	 1.181143e+01
0	 7.857143e-01	 3.857143e+00	 1.176928e+01
0	 7.857143e-01	 3.928571e+00	 1.173152e+01
0	 8.571429e-01	 3.571429e+00	 1.190974e+01
0	 8.571429e-01	 3.642857e+00	 1.185578e+01
0	 8.571429e-01	 3.714286e+00	 1.180570e+01
0	 8.571429e-01	 3.785714e+00	 1.175948e+01
0	 8.571429e-01	 3.857143e+00	 1.171714e+01
0	 8.571429e-01	 3.928571e+00	 1.167867e+01
0	 9.285714e-01	 3.571429e+00	 1.184480e+01
0	 9.285714e-01	 3.642857e+00	 1.179256e+01
0	 9.285714e-01	 3.714286e+00	 1.174367e+01
0	 9.285714e-01	 3.785714e+00	 1.169813e+01
0	 9.285714e-01	 3.857143e+00	 1.165595e+01
0	 9.285714e-01	 3.928571e+00	 1.161713e+01
0	 1.000000e+00	 3.571429e+00	 1.176940e+01
0	 1.000000e+00	 3.642857e+00	 1.171922e+01
0	 1.000000e+00	 3.714286e+00	 1.167188e+01
0	 1.000000e+00	 3.785714e+00	 1.162737e+01
0	 1.000000e+00	 3.857143e+00	 1.158571e+01
0	 1.000000e+00	 3.928571e+00	 1.154688e+01
0	 1.071429e+00	 3.571429e+00	 1.168354e+01
0	 1.071429e+00	 3.642857e+00	 1.163578e+01
0	 1.071429e+00	 3.714286e+00	 1.159033e+01
0	 1.071429e+00	 3.785714e+00	 1.154721e+01
0	 1.071429e+00	 3.857143e+00	 1.150641e+01
0	 1.071429e+00	 3.928571e+00	 1.146794e+01
0	 7.142857e-01	 3.928571e+00	 1.177566e+01
0	 7.142857e-01	 4.000000e+00	 1.172975e+01
0	 7.142857e-01	 4.071429e+00	 1.168430e+01
0	 7.142857e-01	 4.142857e+00	 1.163931e+01
0	 7.142857e-01	 4.214286e+00	 1.159478e+01
0	 7.142857e-01	 4.285714e+00	 1.155071e+01
0	 7.857143e-01	 3.928571e+00	 1.173152e+01
0	 7.857143e-01	 4.000000e+00	 1.168578e+01
0	 7.857143e-01	 4.071429e+00	 1.164061e+01
0	 7.857143e-01	 4.142857e+00	 1.159601e+01
0	 7.857143e-01	 4.214286e+00	 1.155198e+01
0	 7.857143e-01	 4.285714e+00	 1.150852e+01
0	 8.571429e-01	 3.928571e+00	 1.167867e+01
0	 8.571429e-01	 4.000000e+00	 1.163386e+01
0	 8.571429e-01	 4.071429e+00	 1.158972e+01
0	 8.571429e-01	 4.142857e+00	 1.154626e+01
0	 8.571429e-01	 4.214286e+00	 1.150348e+01
0	 8.571429e-01	 4.285714e+00	 1.146138e+01
0	 9.285714e-01	 3.928571e+00	 1.161713e+01
0	 9.285714e-01	 4.000000e+00	 1.157398e+01
0	 9.285714e-01	 4.071429e+00	 1.153163e+01
0	 9.285714e-01	 4.142857e+00	 1.149006e+01
0	 9.285714e-01	 4.214286e+00	 1.144928e+01
0	 9.285714e-01	 4.285714e+00	 1.140928e+01
0	 1.000000e+00	 3.928571e+00	 1.154688e+01
0	 1.000000e+00	 4.000000e+00	 1.150616e+01
0	 1.000000e+00	 4.071429e+00	 1.146634e+01
0	 1.000000e+00	 4.142857e+00	 1.142740e+01
0	 1.000000e+00	 4.214286e+00	 1.138937e+01
0	 1.000000e+00	 4.285714e+00	 1.135222e+01
0	 1.071429e+00	 3.928571e+00	 1.146794e+01
0	 1.071429e+00	 4.000000e+00	 1.143039e+01
0	 1.071429e+00	 4.071429e+00	 1.139384e+01
0	 1.071429e+00	 4.142857e+00	 1.135830e+01
0	 1.071429e+00	 4.214286e+00	 1.132376e+01
0	 1.071429e+00	 4.285714e+00	 1.129022e+01
0	 7.142857e-01	 4.285714e+00	 1.155071e+01
0	 7.142857e-01	 4.357143e+00	 1.150875e+01
0	 7.142857e-01	 4.428571e+00	 1.146801e+01
0	 7.142857e-01	 4.500000e+00	 1.142849e+01
0	 7.142857e-01	 4.571429e+00	 1.139020e+01
0	 7.142857e-01	 4.642857e+00	 1.135312e+01
0	 7.857143e-01	 4.285714e+00	 1.150852e+01
0	 7.857143e-01	 4.357143e+00	 1.146826e+01
0	 7.857143e-01	 4.428571e+00	 1.142915e+01
0	 7.857143e-01	 4.500000e+00	 1.139119e+01
0	 7.857143e-01	 4.571429e+00	 1.135439e+01
0	 7.857143e-01	 4.642857e+00	 1.131874e+01
0	 8.571429e-01	 4.285714e+00	 1.146138e+01
0	 8.571429e-01	 4.357143e+00	 1.142289e+01
0	 8.571429e-01	 4.428571e+00	 1.138548e+01
0	 8.571429e-01	 4.500000e+00	 1.134915e+01
0	 8.571429e-01	 4.571429e+00	 1.131391e+01
0	 8.571429e-01	 4.642857e+00	 1.127976e+01
0	 9.285714e-01	 4.285714e+00	 1.140928e+01
0	 9.285714e-01	 4.357143e+00	 1.137263e+01
0	 9.285714e-01	 4.428571e+00	 1.133700e+01
0	 9.285714e-01	 4.500000e+00	 1.130238e+01
0	 9.285714e-01	 4.571429e+00	 1.126877e+01
0	 9.285714e-01	 4.642857e+00	 1.123618e+01
0	 1.000000e+00	 4.285714e+00	 1.135222e+01
0	 1.000000e+00	 4.357143e+00	 1.131749e+01
0	 1.000000e+00	 4.428571e+00	 1.128370e+01
0	 1.000000e+00	 4.500000e+00	 1.125086e+01
0	 1.000000e+00	 4.571429e+00	 1.121896e+01
0	 1.000000e+00	 4.642857e+00	 1.118801e+01
0	 1.071429e+00	 4.285714e+00	 1.129022e+01
0	 1.071429e+00	 4.357143e+00	 1.125747e+01
0	 1.071429e+00	 4.428571e+00	 1.122560e+01
0	 1.071429e+00	 4.500000e+00	 1.119460e+01
0	 1.071429e+00	 4.571429e+00	 1.116448e+01
0	 1.071429e+00	 4.642857e+00	 1.113524e+01
0	 7.142857e-01	 4.642857e+00	 1.135312e+01
0	 7.142857e-01	 4.714286e+00	 1.131598e+01
0	 7.142857e-01	 4.785714e+00	 1.127943e+01
0	 7.142857e-01	 4.857143e+00	 1.124346e+01
0	 7.142857e-01	 4.928571e+00	 1.120808e+01
0	 7.142857e-01	 5.000000e+00	 1.117329e+01
0	 7.857143e-01	 4.642857e+00	 1.131874e+01
0	 7.857143e-01	 4.714286e+00	 1.128257e+01
0	 7.857143e-01	 4.785714e+00	 1.124700e+01
0	 7.857143e-01	 4.857143e+00	 1.121203e+01
0	 7.857143e-01	 4.928571e+00	 1.117765e+01
0	 7.857143e-01	 5.000000e+00	 1.114388e+01
0	 8.571429e-01	 4.642857e+00	 1.127976e+01
0	 8.571429e-01	 4.714286e+00	 1.124480e+01
0	 8.571429e-01	 4.785714e+00	 1.121045e+01
0	 8.571429e-01	 4.857143e+00	 1.117672e+01
0	 8.571429e-01	 4.928571e+00	 1.114359e+01
0	 8.571429e-01	 5.000000e+00	 1.111108e+01
0	 9.285714e-01	 4.642857e+00	 1.123618e+01
0	 9.285714e-01	 4.714286e+00	 1.120268e+01
0	 9.285714e-01	 4.785714e+00	 1.116979e+01
0	 9.285714e-01	 4.857143e+00	 1.113753e+01
0	 9.285714e-01	 4.928571e+00	 1.110590e+01
0	 9.285714e-01	 5.000000e+00	 1.107488e+01
0	 1.000000e+00	 4.642857e+00	 1.118801e+01
0	 1.000000e+00	 4.714286e+00	 1.115620e+01
0	 1.000000e+00	 4.785714e+00	 1.112502e+01
0	 1.000000e+00	 4.857143e+00	 1.109448e+01
0	 1.000000e+00	 4.928571e+00	 1.106457e+01
0	 1.000000e+00	 5.000000e+00	 1.103529e+01
0	 1.071429e+00	 4.642857e+00	 1.113524e+01
0	 1.071429e+00	 4.714286e+00	 1.110536e+01
0	 1.071429e+00	 4.785714e+00	 1.107613e+01
0	 1.071429e+00	 4.857143e+00	 1.104754e+01
0	 1.071429e+00	 4.928571e+00	 1.101960e+01
0	 1.071429e+00	 5.000000e+00	 1.099230e+01
0	 7.142857e-01	 5.000000e+00	 1.117329e+01
0	 7.142857e-01	 5.071429e+00	 1.114014e+01
0	 7.142857e-01	 5.142857e+00	 1.110743e+01
0	 7.142857e-01	 5.214286e+00	 1.107519e+01
0	 7.142857e-01	 5.285714e+00	 1.104339e+01
0	 7.142857e-01	 5.357143e+00	 1.101205e+01
0	 7.857143e-01	 5.000000e+00	 1.114388e+01
0	 7.857143e-01	 5.071429e+00	 1.111181e+01
0	 7.857143e-01	 5.142857e+00	 1.108018e+01
0	 7.857143e-01	 5.214286e+00	 1.104901e+01
0	 7.857143e-01	 5.285714e+00	 1.101828e+01
0	 7.857143e-01	 5.357143e+00	 1.098801e+01
0	 8.571429e-01	 5.000000e+00	 1.111108e+01
0	 8.571429e-01	 5.071429e+00	 1.108020e+01
0	 8.571429e-01	 5.142857e+00	 1.104976e+01
0	 8.571429e-01	 5.214286e+00	 1.101978e+01
0	 8.571429e-01	 5.285714e+00	 1.099024e+01
0	 8.571429e-01	 5.357143e+00	 1.096114e+01
0	 9.285714e-01	 5.000000e+00	 1.107488e+01
0	 9.285714e-01	 5.071429e+00	 1.104531e+01
0	 9.285714e-01	 5.142857e+00	 1.101618e+01
0	 9.285714e-01	 5.214286e+00	 1.098749e+01
0	 9.285714e-01	 5.285714e+00	 1.095925e+01
0	 9.285714e-01	 5.357143e+00	 1.093145e+01
0	 1.000000e+00	 5.000000e+00	 1.103529e+01
0	 1.000000e+00	 5.071429e+00	 1.100714e+01
0	 1.000000e+00	 5.142857e+00	 1.097943e+01
0	 1.000000e+00	 5.214286e+00	 1.095215e+01
0	 1.000000e+00	 5.285714e+00	 1.092532e+01
0	 1.000000e+00	 5.357143e+00	 1.089892e+01
0	 1.071429e+00	 5.000000e+00	 1.099230e+01
0	 1.071429e+00	 5.071429e+00	 1.096569e+01
0	 1.071429e+00	 5.142857e+00	 1.093951e+01
0	 1.071429e+00	 5.214286e+00	 1.091376e+01
0	 1.071429e+00	 5.285714e+00	 1.088845e+01
0	 1.071429e+00	 5.357143e+00	 1.086358e+01
0	 7.142857e-01	 5.357143e+00	 1.101205e+01
0	 7.142857e-01	 5.428571e+00	 1.098242e+01
0	 7.142857e-01	 5.500000e+00	 1.095307e+01
0	 7.142857e-01	 5.571429e+00	 1.092400e+01
0	 7.142857e-01	 5.642857e+00	 1.089521e+01
0	 7.142857e-01	 5.714286e+00	 1.086669e+01
0	 7.857143e-01	 5.357143e+00	 1.098801e+01
0	 7.857143e-01	 5.428571e+00	 1.095924e+01
0	 7.857143e-01	 5.500000e+00	 1.093077e+01
0	 7.857143e-01	 5.571429e+00	 1.090258e+01
0	 7.857143e-01	 5.642857e+00	 1.087468e+01
0	 7.857143e-01	 5.714286e+00	 1.084706e+01
0	 8.571429e-01	 5.357143e+00	 1.096114e+01
0	 8.571429e-01	 5.428571e+00	 1.093335e+01
0	 8.571429e-01	 5.500000e+00	 1.090585e+01
0	 8.571429e-01	 5.571429e+00	 1.087865e+01
0	 8.571429e-01	 5.642857e+00	 1.085175e+01
0	 8.571429e-01	 5.714286e+00	 1.082513e+01
0	 9.285714e-01	 5.357143e+00	 1.093145e+01
0	 9.285714e-01	 5.428571e+00	 1.090473e+01
0	 9.285714e-01	 5.500000e+00	 1.087832e+01
0	 9.285714e-01	 5.571429e+00	 1.085222e+01
0	 9.285714e-01	 5.642857e+00	 1.082641e+01
0	 9.285714e-01	 5.714286e+00	 1.080091e+01
0	 1.000000e+00	 5.357143e+00	 1.089892e+01
0	 1.000000e+00	 5.428571e+00	 1.087340e+01
0	 1.000000e+00	 5.500000e+00	 1.084818e+01
0	 1.000000e+00	 5.571429e+00	 1.082327e+01
0	 1.000000e+00	 5.642857e+00	 1.079867e+01
0	 1.000000e+00	 5.714286e+00	 1.077438e+01
0	 1.071429e+00	 5.357143e+00	 1.086358e+01
0	 1.071429e+00	 5.428571e+00	 1.083934e+01
0	 1.071429e+00	 5.500000e+00	 1.081542e+01
0	 1.071429e+00	 5.571429e+00	 1.079181e+01
0	 1.071429e+00	 5.642857e+00	 1.076853e+01
0	 1.071429e+00	 5.714286e+00	 1.074556e+01
0	 7.142857e-01	 5.714286e+00	 1.086669e+01
0	 7.142857e-01	 5.785714e+00	 1.084022e+01
0	 7.142857e-01	 5.857143e+00	 1.081390e+01
0	 7.142857e-01	 5.928571e+00	 1.078775e+01
0	 7.142857e-01	 6.000000e+00	 1.076176e+01
0	 7.142857e-01	 6.071429e+00	 1.073592e+01
0	 7.857143e-01	 5.714286e+00	 1.084706e+01
0	 7.857143e-01	 5.785714e+00	 1.082132e+01
0	 7.857143e-01	 5.857143e+00	 1.079575e+01
0	 7.857143e-01	 5.928571e+00	 1.077035e+01
0	 7.857143e-01	 6.000000e+00	 1.074511e+01
0	 7.857143e-01	 6.071429e+00	 1.072004e+01
0	 8.571429e-01	 5.714286e+00	 1.082513e+01
0	 8.571429e-01	 5.785714e+00	 1.080021e+01
0	 8.571429e-01	 5.857143e+00	 1.077547e+01
0	 8.571429e-01	 5.928571e+00	 1.075090e+01
0	 8.571429e-01	 6.000000e+00	 1.072650e+01
0	 8.571429e-01	 6.071429e+00	 1.070229e+01
0	 9.285714e-01	 5.714286e+00	 1.080091e+01
0	 9.285714e-01	 5.785714e+00	 1.077689e+01
0	 9.285714e-01	 5.857143e+00	 1.075306e+01
0	 9.285714e-01	 5.928571e+00	 1.072940e+01
0	 9.285714e-01	 6.000000e+00	 1.070594e+01
0	 9.285714e-01	 6.071429e+00	 1.068265e+01
0	 1.000000e+00	 5.714286e+00	 1.077438e+01
0	 1.000000e+00	 5.785714e+00	 1.075135e+01
0	 1.000000e+00	 5.857143e+00	 1.072851e+01
0	 1.000000e+00	 5.928571e+00	 1.070586e+01
0	 1.000000e+00	 6.000000e+00	 1.068341e+01
0	 1.000000e+00	 6.071429e+00	 1.066114e+01
0	 1.071429e+00	 5.714286e+00	 1.074556e+01
0	 1.071429e+00	 5.785714e+00	 1.072360e+01
0	 1.071429e+00	 5.857143e+00	 1.070184e+01
0	 1.071429e+00	 5.928571e+00	 1.068028e+01
0	 1.071429e+00	 6.000000e+00	 1.065892e+01
0	 1.071429e+00	 6.071429e+00	 1.063775e+01
0	 7.142857e-01	 6.071429e+00	 1.073592e+01
0	 7.142857e-01	 6.142857e+00	 1.071220e+01
0	 7.142857e-01	 6.214286e+00	 1.068854e+01
0	 7.142857e-01	 6.285714e+00	 1.066496e+01
0	 7.142857e-01	 6.357143e+00	 1.064145e+01
0	 7.142857e-01	 6.428571e+00	 1.061801e+01
0	 7.857143e-01	 6.071429e+00	 1.072004e+01
0	 7.857143e-01	 6.142857e+00	 1.069693e+01
0	 7.857143e-01	 6.214286e+00	 1.067390e+01
0	 7.857143e-01	 6.285714e+00	 1.065095e+01
0	 7.857143e-01	 6.357143e+00	 1.062808e+01
0	 7.857143e-01	 6.428571e+00	 1.060529e+01
0	 8.571429e-01	 6.071429e+00	 1.070229e+01
0	 8.571429e-01	 6.142857e+00	 1.067986e+01
0	 8.571429e-01	 6.214286e+00	 1.065752e+01
0	 8.571429e-01	 6.285714e+00	 1.063527e+01
0	 8.571429e-01	 6.357143e+00	 1.061311e+01
0	 8.571429e-01	 6.428571e+00	 1.059104e+01
0	 9.285714e-01	 6.071429e+00	 1.068265e+01
0	 9.285714e-01	 6.142857e+00	 1.066098e+01
0	 9.285714e-01	 6.214286e+00	 1.063940e+01
0	 9.285714e-01	 6.285714e+00	 1.061792e+01
0	 9.285714e-01	 6.357143e+00	 1.059654e+01
0	 9.285714e-01	 6.428571e+00	 1.057525e+01
0	 1.000000e+00	 6.071429e+00	 1.066114e+01
0	 1.000000e+00	 6.142857e+00	 1.064029e+01
0	 1.000000e+00	 6.214286e+00	 1.061954e+01
0	 1.000000e+00	 6.285714e+00	 1.059889e+01
0	 1.000000e+00	 6.357143e+00	 1.057835e+01
0	 1.000000e+00	 6.428571e+00	 1.055792e+01
0	 1.071429e+00	 6.071429e+00	 1.063775e+01
0	 1.071429e+00	 6.142857e+00	 1.061778e+01
0	 1.071429e+00	 6.214286e+00	 1.059793e+01
0	 1.071429e+00	 6.285714e+00	 1.057819e+01
0	 1.071429e+00	 6.357143e+00	 1.055857e+01
0	 1.071429e+00	 6.428571e+00	 1.053905e+01
0	 7.142857e-01	 6.428571e+00	 1.061801e+01
0	 7.142857e-01	 6.500000e+00	 1.059673e+01
0	 7.142857e-01	 6.571429e+00	 1.057546e+01
0	 7.142857e-01	 6.642857e+00	 1.055418e+01
0	 7.142857e-01	 6.714286e+00	 1.053290e+01
0	 7.142857e-01	 6.785714e+00	 1.051161e+01
0	 7.857143e-01	 6.428571e+00	 1.060529e+01
0	 7.857143e-01	 6.500000e+00	 1.058453e+01
0	 7.857143e-01	 6.571429e+00	 1.056377e+01
0	 7.857143e-01	 6.642857e+00	 1.054302e+01
0	 7.857143e-01	 6.714286e+00	 1.052228e+01
0	 7.857143e-01	 6.785714e+00	 1.050154e+01
0	 8.571429e-01	 6.428571e+00	 1.059104e+01
0	 8.571429e-01	 6.500000e+00	 1.057085e+01
0	 8.571429e-01	 6.571429e+00	 1.055067e+01
0	 8.571429e-01	 6.642857e+00	 1.053050e+01
0	 8.571429e-01	 6.714286e+00	 1.051035e+01
0	 8.571429e-01	 6.785714e+00	 1.049021e+01
0	 9.285714e-01	 6.428571e+00	 1.057525e+01
0	 9.285714e-01	 6.500000e+00	 1.055568e+01
0	 9.285714e-01	 6.571429e+00	 1.053614e+01
0	 9.285714e-01	 6.642857e+00	 1.051661e+01
0	 9.285714e-01	 6.714286e+00	 1.049711e+01
0	 9.285714e-01	 6.785714e+00	 1.047764e+01
0	 1.000000e+00	 6.428571e+00	 1.055792e+01
0	 1.000000e+00	 6.500000e+00	 1.053904e+01
0	 1.000000e+00	 6.571429e+00	 1.052019e+01
0	 1.000000e+00	 6.642857e+00	 1.050136e+01
0	 1.000000e+00	 6.714286e+00	 1.048257e+01
0	 1.000000e+00	 6.785714e+00	 1.046381e+01
0	 1.071429e+00	 6.428571e+00	 1.053905e+01
0	 1.071429e+00	 6.500000e+00	 1.052091e+01
0	 1.071429e+00	 6.571429e+00	 1.050281e+01
0	 1.071429e+00	 6.642857e+00	 1.048475e+01
0	 1.071429e+00	 6.714286e+00	 1.046672e+01
0	 1.071429e+00	 6.785714e+00	 1.044873e+01
0	 7.142857e-01	 6.785714e+00	 1.051161e+01
0	 7.142857e-01	 6.857143e+00	 1.049253e+01
0	 7.142857e-01	 6.928571e+00	 1.047339e+01
0	 7.142857e-01	 7.000000e+00	 1.045418e+01
0	 7.142857e-01	 7.071429e+00	 1.043490e+01
0	 7.142857e-01	 7.142857e+00	 1.041556e+01
0	 7.857143e-01	 6.785714e+00	 1.050154e+01
0	 7.857143e-01	 6.857143e+00	 1.048289e+01
0	 7.857143e-01	 6.928571e+00	 1.046418e+01
0	 7.857143e-01	 7.000000e+00	 1.044542e+01
0	 7.857143e-01	 7.071429e+00	 1.042659e+01
0	 7.857143e-01	 7.142857e+00	 1.040772e+01
0	 8.571429e-01	 6.785714e+00	 1.049021e+01
0	 8.571429e-01	 6.857143e+00	 1.047204e+01
0	 8.571429e-01	 6.928571e+00	 1.045382e+01
0	 8.571429e-01	 7.000000e+00	 1.043555e+01
0	 8.571429e-01	 7.071429e+00	 1.041722e+01
0	 8.571429e-01	 7.142857e+00	 1.039885e+01
0	 9.285714e-01	 6.785714e+00	 1.047764e+01
0	 9.285714e-01	 6.857143e+00	 1.045999e+01
0	 9.285714e-01	 6.928571e+00	 1.044230e+01
0	 9.285714e-01	 7.000000e+00	 1.042457e+01
0	 9.285714e-01	 7.071429e+00	 1.040679e+01
0	 9.285714e-01	 7.142857e+00	 1.038898e+01
0	 1.000000e+00	 6.785714e+00	 1.046381e+01
0	 1.000000e+00	 6.857143e+00	 1.044673e+01
0	 1.000000e+00	 6.928571e+00	 1.042962e+01
0	 1.000000e+00	 7.000000e+00	 1.041248e+01
0	 1.000000e+00	 7.071429e+00	 1.039530e+01
0	 1.000000e+00	 7.142857e+00	 1.037809e+01
0	 1.071429e+00	 6.785714e+00	 1.044873e+01
0	 1.071429e+00	 6.857143e+00	 1.043228e+01
0	 1.071429e+00	 6.928571e+00	 1.041579e+01
0	 1.071429e+00	 7.000000e+00	 1.039929e+01
0	 1.071429e+00	 7.071429e+00	 1.038275e+01
0	 1.071429e+00	 7.142857e+00	 1.036619e+01
0	 7.142857e-01	 7.142857e+00	 1.041556e+01
0	 7.142857e-01	 7.214286e+00	 1.039850e+01
0	 7.142857e-01	 7.285714e+00	 1.038131e+01
0	 7.142857e-01	 7.357143e+00	 1.036400e+01
0	 7.142857e-01	 7.428571e+00	 1.034656e+01
0	 7.142857e-01	 7.500000e+00	 1.032899e+01
0	 7.857143e-01	 7.142857e+00	 1.040772e+01
0	 7.857143e-01	 7.214286e+00	 1.039101e+01
0	 7.857143e-01	 7.285714e+00	 1.037419e+01
0	 7.857143e-01	 7.357143e+00	 1.035725e+01
0	 7.857143e-01	 7.428571e+00	 1.034019e+01
0	 7.857143e-01	 7.500000e+00	 1.032302e+01
0	 8.571429e-01	 7.142857e+00	 1.039885e+01
0	 8.571429e-01	 7.214286e+00	 1.038255e+01
0	 8.571429e-01	 7.285714e+00	 1.036614e+01
0	 8.571429e-01	 7.357143e+00	 1.034961e+01
0	 8.571429e-01	 7.428571e+00	 1.033298e+01
0	 8.571429e-01	 7.500000e+00	 1.031623e+01
0	 9.285714e-01	 7.142857e+00	 1.038898e+01
0	 9.285714e-01	 7.214286e+00	 1.037312e+01
0	 9.285714e-01	 7.285714e+00	 1.035715e+01
0	 9.285714e-01	 7.357143e+00	 1.034108e+01
0	 9.285714e-01	 7.428571e+00	 1.032491e+01
0	 9.285714e-01	 7.500000e+00	 1.030863e+01
0	 1.000000e+00	 7.142857e+00	 1.037809e+01
0	 1.000000e+00	 7.214286e+00	 1.036271e+01
0	 1.000000e+00	 7.285714e+00	 1.034723e+01
0	 1.000000e+00	 7.357143e+00	 1.033165e+01
0	 1.000000e+00	 7.428571e+00	 1.031598e+01
0	 1.000000e+00	 7.500000e+00	 1.030022e+01
0	 1.071429e+00	 7.142857e+00	 1.036619e+01
0	 1.071429e+00	 7.214286e+00	 1.035132e+01
0	 1.071429e+00	 7.285714e+00	 1.033637e+01
0	 1.071429e+00	 7.357143e+00	 1.032133e+01
0	 1.071429e+00	 7.428571e+00	 1.030621e+01
0	 1.071429e+00	 7.500000e+00	 1.029099e+01
0	 7.142857e-01	 7.500000e+00	 1.032899e+01
0	 7.142857e-01	 7.571429e+00	 1.031383e+01
0	 7.142857e-01	 7.642857e+00	 1.029849e+01
0	 7.142857e-01	 7.714286e+00	 1.028295e+01
0	 7.142857e-01	 7.785714e+00	 1.026723e+01
0	 7.142857e-01	 7.857143e+00	 1.025132e+01
0	 7.857143e-01	 7.500000e+00	 1.032302e+01
0	 7.857143e-01	 7.571429e+00	 1.030817e+01
0	 7.857143e-01	 7.642857e+00	 1.029313e+01
0	 7.857143e-01	 7.714286e+00	 1.027792e+01
0	 7.857143e-01	 7.785714e+00	 1.026253e+01
0	 7.857143e-01	 7.857143e+00	 1.024695e+01
0	 8.571429e-01	 7.500000e+00	 1.031623e+01
0	 8.571429e-01	 7.571429e+00	 1.030172e+01
0	 8.571429e-01	 7.642857e+00	 1.028703e+01
0	 8.571429e-01	 7.714286e+00	 1.027217e+01
0	 8.571429e-01	 7.785714e+00	 1.025714e+01
0	 8.571429e-01	 7.857143e+00	 1.024193e+01
0	 9.285714e-01	 7.500000e+00	 1.030863e+01
0	 9.285714e-01	 7.571429e+00	 1.029449e+01
0	 9.285714e-01	 7.642857e+00	 1.028018e+01
0	 9.285714e-01	 7.714286e+00	 1.026570e+01
0	 9.285714e-01	 7.785714e+00	 1.025106e+01
0	 9.285714e-01	 7.857143e+00	 1.023625e+01
0	 1.000000e+00	 7.500000e+00	 1.030022e+01
0	 1.000000e+00	 7.571429e+00	 1.028648e+01
0	 1.000000e+00	 7.642857e+00	 1.027258e+01
0	 1.000000e+00	 7.714286e+00	 1.025852e+01
0	 1.000000e+00	 7.785714e+00	 1.024430e+01
0	 1.000000e+00	 7.857143e+00	 1.022992e+01
0	 1.071429e+00	 7.500000e+00	 1.029099e+01
0	 1.071429e+00	 7.571429e+00	 1.027768e+01
0	 1.071429e+00	 7.642857e+00	 1.026422e+01
0	 1.071429e+00	 7.714286e+00	 1.025061e+01
0	 1.071429e+00	 7.785714e+00	 1.023685e+01
0	 1.071429e+00	 7.857143e+00	 1.022294e+01
0	 7.142857e-01	 7.857143e+00	 1.025132e+01
0	 7.142857e-01	 7.928571e+00	 1.023805e+01
0	 7.142857e-01	 8.000000e+00	 1.022451e+01
0	 7.142857e-01	 8.071429e+00	 1.021072e+01
0	 7.142857e-01	 8.142857e+00	 1.019667e+01
0	 7.142857e-01	 8.214286e+00	 1.018236e+01
0	 7.857143e-01	 7.857143e+00	 1.024695e+01
0	 7.857143e-01	 7.928571e+00	 1.023393e+01
0	 7.857143e-01	 8.000000e+00	 1.022066e+01
0	 7.857143e-01	 8.071429e+00	 1.020714e+01
0	 7.857143e-01	 8.142857e+00	 1.019337e+01
0	 7.857143e-01	 8.214286e+00	 1.017935e+01
0	 8.571429e-01	 7.857143e+00	 1.024193e+01
0	 8.571429e-01	 7.928571e+00	 1.022919e+01
0	 8.571429e-01	 8.000000e+00	 1.021621e+01
0	 8.571429e-01	 8.071429e+00	 1.020299e+01
0	 8.571429e-01	 8.142857e+00	 1.018953e+01
0	 8.571429e-01	 8.214286e+00	 1.017582e+01
0	 9.285714e-01	 7.857143e+00	 1.023625e+01
0	 9.285714e-01	 7.928571e+00	 1.022382e+01
0	 9.285714e-01	 8.000000e+00	 1.021116e+01
0	 9.285714e-01	 8.071429e+00	 1.019827e+01
0	 9.285714e-01	 8.142857e+00	 1.018514e+01
0	 9.285714e-01	 8.214286e+00	 1.017177e+01
0	 1.000000e+00	 7.857143e+00	 1.022992e+01
0	 1.000000e+00	 7.928571e+00	 1.021783e+01
0	 1.000000e+00	 8.000000e+00	 1.020551e+01
0	 1.000000e+00	 8.071429e+00	 1.019297e+01
0	 1.000000e+00	 8.142857e+00	 1.018020e+01
0	 1.000000e+00	 8.214286e+00	 1.016720e+01
0	 1.071429e+00	 7.857143e+00	 1.022294e+01
0	 1.071429e+00	 7.928571e+00	 1.021121e+01
0	 1.071429e+00	 8.000000e+00	 1.019926e+01
0	 1.071429e+00	 8.071429e+00	 1.018710e+01
0	 1.071429e+00	 8.142857e+00	 1.017471e+01
0	 1.071429e+00	 8.214286e+00	 1.016210e+01
0	 7.142857e-01	 8.214286e+00	 1.018236e+01
0	 7.142857e-01	 8.285714e+00	 1.017103e+01
0	 7.142857e-01	 8.357143e+00	 1.015935e+01
0	 7.142857e-01	 8.428571e+00	 1.014734e+01
0	 7.142857e-01	 8.500000e+00	 1.013499e+01
0	 7.142857e-01	 8.571429e+00	 1.012230e+01
0	 7.857143e-01	 8.214286e+00	 1.017935e+01
0	 7.857143e-01	 8.285714e+00	 1.016823e+01
0	 7.857143e-01	 8.357143e+00	 1.015679e+01
0	 7.857143e-01	 8.428571e+00	 1.014501e+01
0	 7.857143e-01	 8.500000e+00	 1.013290e+01
0	 7.857143e-01	 8.571429e+00	 1.012046e+01
0	 8.571429e-01	 8.214286e+00	 1.017582e+01
0	 8.571429e-01	 8.285714e+00	 1.016494e+01
0	 8.571429e-01	 8.357143e+00	 1.015374e+01
0	 8.571429e-01	 8.428571e+00	 1.014221e+01
0	 8.571429e-01	 8.500000e+00	 1.013036e+01
0	 8.571429e-01	 8.571429e+00	 1.011819e+01
0	 9.285714e-01	 8.214286e+00	 1.017177e+01
0	 9.285714e-01	 8.285714e+00	 1.016114e+01
0	 9.285714e-01	 8.357143e+00	 1.015021e+01
0	 9.285714e-01	 8.428571e+00	 1.013895e+01
0	 9.285714e-01	 8.500000e+00	 1.012738e+01
0	 9.285714e-01	 8.571429e+00	 1.011550e+01
0	 1.000000e+00	 8.214286e+00	 1.016720e+01
0	 1.000000e+00	 8.285714e+00	 1.015685e+01
0	 1.000000e+00	 8.357143e+00	 1.014619e+01
0	 1.000000e+00	 8.428571e+00	 1.013523e+01
0	 1.000000e+00	 8.500000e+00	 1.012397e+01
0	 1.000000e+00	 8.571429e+00	 1.011239e+01
0	 1.071429e+00	 8.214286e+00	 1.016210e+01
0	 1.071429e+00	 8.285714e+00	 1.015205e+01
0	 1.071429e+00	 8.357143e+00	 1.014170e+01
0	 1.071429e+00	 8.428571e+00	 1.013105e+01
0	 1.071429e+00	 8.500000e+00	 1.012010e+01
0	 1.071429e+00	 8.571429e+00	 1.010886e+01
0	 7.142857e-01	 8.571429e+00	 1.012230e+01
0	 7.142857e-01	 8.642857e+00	 1.011309e+01
0	 7.142857e-01	 8.714286e+00	 1.010344e+01
0	 7.142857e-01	 8.785714e+00	 1.009335e+01
0	 7.142857e-01	 8.857143e+00	 1.008281e+01
0	 7.142857e-01	 8.928571e+00	 1.007184e+01
0	 7.857143e-01	 8.571429e+00	 1.012046e+01
0	 7.857143e-01	 8.642857e+00	 1.011142e+01
0	 7.857143e-01	 8.714286e+00	 1.010196e+01
0	 7.857143e-01	 8.785714e+00	 1.009206e+01
0	 7.857143e-01	 8.857143e+00	 1.008174e+01
0	 7.857143e-01	 8.928571e+00	 1.007098e+01
0	 8.571429e-01	 8.571429e+00	 1.011819e+01
0	 8.571429e-01	 8.642857e+00	 1.010935e+01
0	 8.571429e-01	 8.714286e+00	 1.010008e+01
0	 8.571429e-01	 8.785714e+00	 1.009039e+01
0	 8.571429e-01	 8.857143e+00	 1.008029e+01
0	 8.571429e-01	 8.928571e+00	 1.006976e+01
0	 9.285714e-01	 8.571429e+00	 1.011550e+01
0	 9.285714e-01	 8.642857e+00	 1.010686e+01
0	 9.285714e-01	 8.714286e+00	 1.009781e+01
0	 9.285714e-01	 8.785714e+00	 1.008835e+01
0	 9.285714e-01	 8.857143e+00	 1.007847e+01
0	 9.285714e-01	 8.928571e+00	 1.006819e+01
0	 1.000000e+00	 8.571429e+00	 1.011239e+01
0	 1.000000e+00	 8.642857e+00	 1.010397e+01
0	 1.000000e+00	 8.714286e+00	 1.009514e+01
0	 1.000000e+00	 8.785714e+00	 1.008592e+01
0	 1.000000e+00	 8.857143e+00	 1.007629e+01
0	 1.000000e+00	 8.928571e+00	 1.006626e+01
0	 1.071429e+00	 8.571429e+00	 1.010886e+01
0	 1.071429e+00	 8.642857e+00	 1.010066e+01
0	 1.071429e+00	 8.714286e+00	 1.009208e+01
0	 1.071429e+00	 8.785714e+00	 1.008310e+01
0	 1.071429e+00	 8.857143e+00	 1.007374e+01
0	 1.071429e+00	 8.928571e+00	 1.006398e+01
0	 7.142857e-01	 8.928571e+00	 1.007184e+01
0	 7.142857e-01	 9.000000e+00	 1.006507e+01
0	 7.142857e-01	 9.071429e+00	 1.005773e+01
0	 7.142857e-01	 9.142857e+00	 1.004983e+01
0	 7.142857e-01	 9.214286e+00	 1.004136e+01
0	 7.142857e-01	 9.285714e+00	 1.003233e+01
0	 7.857143e-01	 8.928571e+00	 1.007098e+01
0	 7.857143e-01	 9.000000e+00	 1.006434e+01
0	 7.857143e-01	 9.071429e+00	 1.005715e+01
0	 7.857143e-01	 9.142857e+00	 1.004941e+01
0	 7.857143e-01	 9.214286e+00	 1.004112e+01
0	 7.857143e-01	 9.285714e+00	 1.003227e+01
0	 8.571429e-01	 8.928571e+00	 1.006976e+01
0	 8.571429e-01	 9.000000e+00	 1.006327e+01
0	 8.571429e-01	 9.071429e+00	 1.005623e+01
0	 8.571429e-01	 9.142857e+00	 1.004865e+01
0	 8.571429e-01	 9.214286e+00	 1.004054e+01
0	 8.571429e-01	 9.285714e+00	 1.003188e+01
0	 9.285714e-01	 8.928571e+00	 1.006819e+01
0	 9.285714e-01	 9.000000e+00	 1.006184e+01
0	 9.285714e-01	 9.071429e+00	 1.005497e+01
0	 9.285714e-01	 9.142857e+00	 1.004756e+01
0	 9.285714e-01	 9.214286e+00	 1.003963e+01
0	 9.285714e-01	 9.285714e+00	 1.003117e+01
0	 1.000000e+00	 8.928571e+00	 1.006626e+01
0	 1.000000e+00	 9.000000e+00	 1.006007e+01
0	 1.000000e+00	 9.071429e+00	 1.005336e+01
0	 1.000000e+00	 9.142857e+00	 1.004614e+01
0	 1.000000e+00	 9.214286e+00	 1.003840e+01
0	 1.000000e+00	 9.285714e+00	 1.003014e+01
0	 1.071429e+00	 8.928571e+00	 1.006398e+01
0	 1.071429e+00	 9.000000e+00	 1.005795e+01
0	 1.071429e+00	 9.071429e+00	 1.005141e+01
0	 1.071429e+00	 9.142857e+00	 1.004437e+01
0	 1.071429e+00	 9.214286e+00	 1.003683e+01
0	 1.071429e+00	 9.285714e+00	 1.002878e+01
0	 7.142857e-01	 9.285714e+00	 1.003233e+01
0	 7.142857e-01	 9.357143e+00	 1.002844e+01
0	 7.142857e-01	 9.428571e+00	 1.002383e+01
0	 7.142857e-01	 9.500000e+00	 1.001850e+01
0	 7.142857e-01	 9.571429e+00	 1.001244e+01
0	 7.142857e-01	 9.642857e+00	 1.000566e+01
0	 7.857143e-01	 9.285714e+00	 1.003227e+01
0	 7.857143e-01	 9.357143e+00	 1.002847e+01
0	 7.857143e-01	 9.428571e+00	 1.002397e+01
0	 7.857143e-01	 9.500000e+00	 1.001876e+01
0	 7.857143e-01	 9.571429e+00	 1.001284e+01
0	 7.857143e-01	 9.642857e+00	 1.000621e+01
0	 8.571429e-01	 9.285714e+00	 1.003188e+01
0	 8.571429e-01	 9.357143e+00	 1.002818e+01
0	 8.571429e-01	 9.428571e+00	 1.002378e+01
0	 8.571429e-01	 9.500000e+00	 1.001869e+01
0	 8.571429e-01	 9.571429e+00	 1.001290e+01
0	 8.571429e-01	 9.642857e+00	 1.000643e+01
0	 9.285714e-01	 9.285714e+00	 1.003117e+01
0	 9.285714e-01	 9.357143e+00	 1.002755e+01
0	 9.285714e-01	 9.428571e+00	 1.002325e+01
0	 9.285714e-01	 9.500000e+00	 1.001828e+01
0	 9.285714e-01	 9.571429e+00	 1.001263e+01
0	 9.285714e-01	 9.642857e+00	 1.000630e+01
0	 1.000000e+00	 9.285714e+00	 1.003014e+01
0	 1.000000e+00	 9.357143e+00	 1.002660e+01
0	 1.000000e+00	 9.428571e+00	 1.002240e+01
0	 1.000000e+00	 9.500000e+00	 1.001754e+01
0	 1.000000e+00	 9.571429e+00	 1.001202e+01
0	 1.000000e+00	 9.642857e+00	 1.000584e+01
0	 1.071429e+00	 9.285714e+00	 1.002878e+01
0	 1.071429e+00	 9.357143e+00	 1.002532e+01
0	 1.071429e+00	 9.428571e+00	 1.002122e+01
0	 1.071429e+00	 9.500000e+00	 1.001647e+01
0	 1.071429e+00	 9.571429e+00	 1.001108e+01
0	 1.071429e+00	 9.642857e+00	 1.000504e+01
0	 7.142857e-01	 9.642857e+00	 1.000566e+01
0	 7.142857e-01	 9.714286e+00	 1.000549e+01
0	 7.142857e-01	 9.785714e+00	 1.000438e+01
0	 7.142857e-01	 9.857143e+00	 1.000235e+01
0	 7.142857e-01	 9.928571e+00	 9.999390e+00
0	 7.142857e-01	 1.000000e+01	 9.995502e+00
0	 7.857143e-01	 9.642857e+00	 1.000621e+01
0	 7.857143e-01	 9.714286e+00	 1.000607e+01
0	 7.857143e-01	 9.785714e+00	 1.000501e+01
0	 7.857143e-01	 9.857143e+00	 1.000305e+01
0	 7.857143e-01	 9.928571e+00	 1.000018e+01
0	 7.857143e-01	 1.000000e+01	 9.996396e+00
0	 8.571429e-01	 9.642857e+00	 1.000643e+01
0	 8.571429e-01	 9.714286e+00	 1.000630e+01
0	 8.571429e-01	 9.785714e+00	 1.000528e+01
0	 8.571429e-01	 9.857143e+00	 1.000337e+01
0	 8.571429e-01	 9.928571e+00	 1.000057e+01
0	 8.571429e-01	 1.000000e+01	 9.996890e+00
0	 9.285714e-01	 9.642857e+00	 1.000630e+01
0	 9.285714e-01	 9.714286e+00	 1.000617e+01
0	 9.285714e-01	 9.785714e+00	 1.000518e+01
0	 9.285714e-01	 9.857143e+00	 1.000331e+01
0	 9.285714e-01	 9.928571e+00	 1.000058e+01
0	 9.285714e-01	 1.000000e+01	 9.996984e+00
0	 1.000000e+00	 9.642857e+00	 1.000584e+01
0	 1.000000e+00	 9.714286e+00	 1.000570e+01
0	 1.000000e+00	 9.785714e+00	 1.000472e+01
0	 1.000000e+00	 9.857143e+00	 1.000288e+01
0	 1.000000e+00	 9.928571e+00	 1.000021e+01
0	 1.000000e+00	 1.000000e+01	 9.996678e+00
0	 1.071429e+00	 9.642857e+00	 1.000504e+01
0	 1.071429e+00	 9.714286e+00	 1.000488e+01
0	 1.071429e+00	 9.785714e+00	 1.000389e+01
0	 1.071429e+00	 9.857143e+00	 1.000208e+01
0	 1.071429e+00	 9.928571e+00	 9.999440e+00
0	 1.071429e+00	 1.000000e+01	 9.995972e+00
0	 1.071429e+00	 0.000000e+00	 7.255447e+01
0	 1.071429e+00	 7.142857e-02	 5.595059e+01
0	 1.071429e+00	 1.428571e-01	 3.847074e+01
0	 1.071429e+00	 2.142857e-01	 2.011490e+01
0	 1.071429e+00	 2.857143e-01	 8.830806e-01
0	 1.071429e+00	 3.571429e-01	-1.922472e+01
0	 1.142857e+00	 0.000000e+00	 7.079599e+01
0	 1.142857e+00	 7.142857e-02	 4.782669e+01
0	 1.142857e+00	 1.428571e-01	 2.415936e+01
0	 1.142857e+00	 2.142857e-01	-2.060180e-01
0	 1.142857e+00	 2.857143e-01	-2.526943e+01
0	 1.142857e+00	 3.571429e-01	-5.103089e+01
0	 1.214286e+00	 0.000000e+00	 6.512790e+01
0	 1.214286e+00	 7.142857e-02	 3.946631e+01
0	 1.214286e+00	 1.428571e-01	 1.328463e+01
0	 1.214286e+00	 2.142857e-01	-1.341716e+01
0	 1.214286e+00	 2.857143e-01	-4.063904e+01
0	 1.214286e+00	 3.571429e-01	-6.838103e+01
0	 1.285714e+00	 0.000000e+00	 5.555018e+01
0	 1.285714e+00	 7.142857e-02	 3.086944e+01
0	 1.285714e+00	 1.428571e-01	 5.846542e+00
0	 1.285714e+00	 2.142857e-01	-1.951852e+01
0	 1.285714e+00	 2.857143e-01	-4.522574e+01
0	 1.285714e+00	 3.571429e-01	-7.127512e+01
0	 1.357143e+00	 0.000000e+00	 4.206285e+01
0	 1.357143e+00	 7.142857e-02	 2.203609e+01
0	 1.357143e+00	 1.428571e-01	 1.845102e+00
0	 1.357143e+00	 2.142857e-01	-1.851010e+01
0	 1.357143e+00	 2.857143e-01	-3.902953e+01
0	 1.357143e+00	 3.571429e-01	-5.971317e+01
0	 1.428571e+00	 0.000000e+00	 2.466591e+01
0	 1.428571e+00	 7.142857e-02	 1.296625e+01
0	 1.428571e+00	 1.428571e-01	 1.280308e+00
0	 1.428571e+00	 2.142857e-01	-1.039191e+01
0	 1.428571e+00	 2.857143e-01	-2.205041e+01
0	 1.428571e+00	 3.571429e-01	-3.369518e+01
0	 1.071429e+00	 3.571429e-01	-1.922472e+01
0	 1.071429e+00	 4.285714e-01	-2.774396e+01
0	 1.071429e+00	 5.000000e-01	-3.712659e+01
0	 1.071429e+00	 5.714286e-01	-4.737263e+01
0	 1.071429e+00	 6.428571e-01	-5.848207e+01
0	 1.071429e+00	 7.142857e-01	-7.045490e+01
0	 1.142857e+00	 3.571429e-01	-5.103089e+01
0	 1.142857e+00	 4.285714e-01	-4.506059e+01
0	 1.142857e+00	 5.000000e-01	-3.980376e+01
0	 1.142857e+00	 5.714286e-01	-3.526042e+01
0	 1.142857e+00	 6.428571e-01	-3.143056e+01
0	 1.142857e+00	 7.142857e-01	-2.831419e+01
0	 1.214286e+00	 3.571429e-01	-6.838103e+01
0	 1.214286e+00	 4.285714e-01	-5.274493e+01
0	 1.214286e+00	 5.000000e-01	-3.767240e+01
0	 1.214286e+00	 5.714286e-01	-2.316344e+01
0	 1.214286e+00	 6.428571e-01	-9.218050e+00
0	 1.214286e+00	 7.142857e-01	 4.163777e+00
0	 1.285714e+00	 3.571429e-01	-7.127512e+01
0	 1.285714e+00	 4.285714e-01	-5.079699e+01
0	 1.285714e+00	 5.000000e-01	-3.073252e+01
0	 1.285714e+00	 5.714286e-01	-1.108170e+01
0	 1.285714e+00	 6.428571e-01	 8.155472e+00
0	 1.285714e+00	 7.142857e-01	 2.697899e+01
0	 1.357143e+00	 3.571429e-01	-5.971317e+01
0	 1.357143e+00	 4.285714e-01	-3.921678e+01
0	 1.357143e+00	 5.000000e-01	-1.898411e+01
0	 1.357143e+00	 5.714286e-01	 9.848123e-01
0	 1.357143e+00	 6.428571e-01	 2.069000e+01
0	 1.357143e+00	 7.142857e-01	 4.013146e+01
0	 1.428571e+00	 3.571429e-01	-3.369518e+01
0	 1.428571e+00	 4.285714e-01	-1.800427e+01
0	 1.428571e+00	 5.000000e-01	-2.427182e+00
0	 1.428571e+00	 5.714286e-01	 1.303609e+01
0	 1.428571e+00	 6.428571e-01	 2.838555e+01
0	 1.428571e+00	 7.142857e-01	 4.362118e+01
0	 1.071429e+00	 7.142857e-01	-7.045490e+01
0	 1.071429e+00	 7.857143e-01	-3.647604e+01
0	 1.071429e+00	 8.571429e-01	-2.515101e+00
0	 1.071429e+00	 9.285714e-01	 3.142793e+01
0	 1.071429e+00	 1.000000e+00	 6.535305e+01
0	 1.071429e+00	 1.071429e+00	 9.926025e+01
0	 1.142857e+00	 7.142857e-01	-2.831419e+01
0	 1.142857e+00	 7.857143e-01	-1.727346e+00
0	 1.142857e+00	 8.571429e-01	 2.482417e+01
0	 1.142857e+00	 9.285714e-01	 5.134036e+01
0	 1.142857e+00	 1.000000e+00	 7.782123e+01
0	 1.142857e+00	 1.071429e+00	 1.042668e+02
0	 1.214286e+00	 7.142857e-01	 4.163777e+00
0	 1.214286e+00	 7.857143e-01	 2.417674e+01
0	 1.214286e+00	 8.571429e-01	 4.413697e+01
0	 1.214286e+00	 9.285714e-01	 6.404446e+01
0	 1.214286e+00	 1.000000e+00	 8.389922e+01
0	 1.214286e+00	 1.071429e+00	 1.037012e+02
0	 1.285714e+00	 7.142857e-01	 2.697899e+01
0	 1.285714e+00	 7.857143e-01	 4.123623e+01
0	 1.285714e+00	 8.571429e-01	 5.542331e+01
0	 1.285714e+00	 9.285714e-01	 6.954024e+01
0	 1.285714e+00	 1.000000e+00	 8.358703e+01
0	 1.285714e+00	 1.071429e+00	 9.756366e+01
0	 1.357143e+00	 7.142857e-01	 4.013146e+01
0	 1.357143e+00	 7.857143e-01	 4.945110e+01
0	 1.357143e+00	 8.571429e-01	 5.868318e+01
0	 1.357143e+00	 9.285714e-01	 6.782769e+01
0	 1.357143e+00	 1.000000e+00	 7.688464e+01
0	 1.357143e+00	 1.071429e+00	 8.585404e+01
0	 1.428571e+00	 7.142857e-01	 4.362118e+01
0	 1.428571e+00	 7.857143e-01	 4.882137e+01
0	 1.428571e+00	 8.571429e-01	 5.391658e+01
0	 1.428571e+00	 9.285714e-01	 5.890681e+01
0	 1.428571e+00	 1.000000e+00	 6.379208e+01
0	 1.428571e+00	 1.071429e+00	 6.857237e+01
0	 1.071429e+00	 1.071429e+00	 9.926025e+01
0	 1.071429e+00	 1.142857e+00	 9.167233e+01
0	 1.071429e+00	 1.214286e+00	 8.396196e+01
0	 1.071429e+00	 1.285714e+00	 7.612914e+01
0	 1.071429e+00	 1.357143e+00	 6.817388e+01
0	 1.071429e+00	 1.428571e+00	 6.009618e+01
0	 1.142857e+00	 1.071429e+00	 1.042668e+02
0	 1.142857e+00	 1.142857e+00	 9.219258e+01
0	 1.142857e+00	 1.214286e+00	 7.988915e+01
0	 1.142857e+00	 1.285714e+00	 6.735647e+01
0	 1.142857e+00	 1.357143e+00	 5.459456e+01
0	 1.142857e+00	 1.428571e+00	 4.160340e+01
0	 1.214286e+00	 1.071429e+00	 1.037012e+02
0	 1.214286e+00	 1.142857e+00	 8.911601e+01
0	 1.214286e+00	 1.214286e+00	 7.419475e+01
0	 1.214286e+00	 1.285714e+00	 5.893745e+01
0	 1.214286e+00	 1.357143e+00	 4.334411e+01
0	 1.214286e+00	 1.428571e+00	 2.741474e+01
0	 1.285714e+00	 1.071429e+00	 9.756366e+01
0	 1.285714e+00	 1.142857e+00	 8.244263e+01
0	 1.285714e+00	 1.214286e+00	 6.687877e+01
0	 1.285714e+00	 1.285714e+00	 5.087208e+01
0	 1.285714e+00	 1.357143e+00	 3.442256e+01
0	 1.285714e+00	 1.428571e+00	 1.753020e+01
0	 1.357143e+00	 1.071429e+00	 8.585404e+01
0	 1.357143e+00	 1.142857e+00	 7.217244e+01
0	 1.357143e+00	 1.214286e+00	 5.794122e+01
0	 1.357143e+00	 1.285714e+00	 4.316036e+01
0	 1.357143e+00	 1.357143e+00	 2.782988e+01
0	 1.357143e+00	 1.428571e+00	 1.194977e+01
0	 1.428571e+00	 1.071429e+00	 6.857237e+01
0	 1.428571e+00	 1.142857e+00	 5.830543e+01
0	 1.428571e+00	 1.214286e+00	 4.738208e+01
0	 1.428571e+00	 1.285714e+00	 3.580230e+01
0	 1.428571e+00	 1.357143e+00	 2.356609e+01
0	 1.428571e+00	 1.428571e+00	 1.067346e+01
0	 1.071429e+00	 1.428571e+00	 6.009618e+01
0	 1.071429e+00	 1.500000e+00	 4.979030e+01
0	 1.071429e+00	 1.571429e+00	 3.870686e+01
0	 1.071429e+00	 1.642857e+00	 2.684586e+01
0	 1.071429e+00	 1.714286e+00	 1.420731e+01
0	 1.071429e+00	 1.785714e+00	 7.912083e-01
0	 1.142857e+00	 1.428571e+00	 4.160340e+01
0	 1.142857e+00	 1.500000e+00	 3.523730e+01
0	 1.142857e+00	 1.571429e+00	 2.847437e+01
0	 1.142857e+00	 1.642857e+00	 2.131461e+01
0	 1.142857e+00	 1.714286e+00	 1.375801e+01
0	 1.142857e+00	 1.785714e+00	 5.804592e+00
0	 1.214286e+00	 1.428571e+00	 2.741474e+01
0	 1.214286e+00	 1.500000e+00	 2.384350e+01
0	 1.214286e+00	 1.571429e+00	 2.025615e+01
0	 1.214286e+00	 1.642857e+00	 1.665270e+01
0	 1.214286e+00	 1.714286e+00	 1.303315e+01
0	 1.214286e+00	 1.785714e+00	 9.397491e+00
0	 1.285714e+00	 1.428571e+00	 1.753020e+01
0	 1.285714e+00	 1.500000e+00	 1.560889e+01
0	 1.285714e+00	 1.571429e+00	 1.405222e+01
0	 1.285714e+00	 1.642857e+00	 1.286016e+01
0	 1.285714e+00	 1.714286e+00	 1.203272e+01
0	 1.285714e+00	 1.785714e+00	 1.156991e+01
0	 1.357143e+00	 1.428571e+00	 1.194977e+01
0	 1.357143e+00	 1.500000e+00	 1.053349e+01
0	 1.357143e+00	 1.571429e+00	 9.862555e+00
0	 1.357143e+00	 1.642857e+00	 9.936968e+00
0	 1.357143e+00	 1.714286e+00	 1.075673e+01
0	 1.357143e+00	 1.785714e+00	 1.232184e+01
0	 1.428571e+00	 1.428571e+00	 1.067346e+01
0	 1.428571e+00	 1.500000e+00	 8.617280e+00
0	 1.428571e+00	 1.571429e+00	 7.687171e+00
0	 1.428571e+00	 1.642857e+00	 7.883136e+00
0	 1.428571e+00	 1.714286e+00	 9.205174e+00
0	 1.428571e+00	 1.785714e+00	 1.165329e+01
0	 1.071429e+00	 1.785714e+00	 7.912083e-01
0	 1.071429e+00	 1.857143e+00	 1.766506e+00
0	 1.071429e+00	 1.928571e+00	 3.712932e+00
0	 1.071429e+00	 2.000000e+00	 6.630486e+00
0	 1.071429e+00	 2.071429e+00	 1.051917e+01
0	 1.071429e+00	 2.142857e+00	 1.537898e+01
0	 1.142857e+00	 1.785714e+00	 5.804592e+00
0	 1.142857e+00	 1.857143e+00	 6.153645e+00
0	 1.142857e+00	 1.928571e+00	 7.214320e+00
0	 1.142857e+00	 2.000000e+00	 8.986616e+00
0	 1.142857e+00	 2.071429e+00	 1.147053e+01
0	 1.142857e+00	 2.142857e+00	 1.466607e+01
0	 1.214286e+00	 1.785714e+00	 9.397491e+00
0	 1.214286e+00	 1.857143e+00	 9.396190e+00
0	 1.214286e+00	 1.928571e+00	 9.847003e+00
0	 1.214286e+00	 2.000000e+00	 1.074993e+01
0	 1.214286e+00	 2.071429e+00	 1.210497e+01
0	 1.214286e+00	 2.142857e+00	 1.391213e+01
0	 1.285714e+00	 1.785714e+00	 1.156991e+01
0	 1.285714e+00	 1.857143e+00	 1.149414e+01
0	 1.285714e+00	 1.928571e+00	 1.161098e+01
0	 1.285714e+00	 2.000000e+00	 1.192043e+01
0	 1.285714e+00	 2.071429e+00	 1.242249e+01
0	 1.285714e+00	 2.142857e+00	 1.311715e+01
0	 1.357143e+00	 1.785714e+00	 1.232184e+01
0	 1.357143e+00	 1.857143e+00	 1.244750e+01
0	 1.357143e+00	 1.928571e+00	 1.250626e+01
0	 1.357143e+00	 2.000000e+00	 1.249812e+01
0	 1.357143e+00	 2.071429e+00	 1.242308e+01
0	 1.357143e+00	 2.142857e+00	 1.228114e+01
0	 1.428571e+00	 1.785714e+00	 1.165329e+01
0	 1.428571e+00	 1.857143e+00	 1.225626e+01
0	 1.428571e+00	 1.928571e+00	 1.253282e+01
0	 1.428571e+00	 2.000000e+00	 1.248299e+01
0	 1.428571e+00	 2.071429e+00	 1.210674e+01
0	 1.428571e+00	 2.142857e+00	 1.140409e+01
0	 1.071429e+00	 2.142857e+00	 1.537898e+01
0	 1.071429e+00	 2.214286e+00	 1.487214e+01
0	 1.071429e+00	 2.285714e+00	 1.422165e+01
0	 1.071429e+00	 2.357143e+00	 1.342750e+01
0	 1.071429e+00	 2.428571e+00	 1.248969e+01
0	 1.071429e+00	 2.500000e+00	 1.140822e+01
0	 1.142857e+00	 2.142857e+00	 1.466607e+01
0	 1.142857e+00	 2.214286e+00	 1.422844e+01
0	 1.142857e+00	 2.285714e+00	 1.368578e+01
0	 1.142857e+00	 2.357143e+00	 1.303810e+01
0	 1.142857e+00	 2.428571e+00	 1.228539e+01
0	 1.142857e+00	 2.500000e+00	 1.142766e+01
0	 1.214286e+00	 2.142857e+00	 1.391213e+01
0	 1.214286e+00	 2.214286e+00	 1.354757e+01
0	 1.214286e+00	 2.285714e+00	 1.311661e+01
0	 1.214286e+00	 2.357143e+00	 1.261926e+01
0	 1.214286e+00	 2.428571e+00	 1.205551e+01
0	 1.214286e+00	 2.500000e+00	 1.142537e+01
0	 1.285714e+00	 2.142857e+00	 1.311715e+01
0	 1.285714e+00	 2.214286e+00	 1.282952e+01
0	 1.285714e+00	 2.285714e+00	 1.251413e+01
0	 1.285714e+00	 2.357143e+00	 1.217097e+01
0	 1.285714e+00	 2.428571e+00	 1.180005e+01
0	 1.285714e+00	 2.500000e+00	 1.140137e+01
0	 1.357143e+00	 2.142857e+00	 1.228114e+01
0	 1.357143e+00	 2.214286e+00	 1.207431e+01
0	 1.357143e+00	 2.285714e+00	 1.187834e+01
0	 1.357143e+00	 2.357143e+00	 1.169324e+01
0	 1.357143e+00	 2.428571e+00	 1.151901e+01
0	 1.357143e+00	 2.500000e+00	 1.135565e+01
0	 1.428571e+00	 2.142857e+00	 1.140409e+01
0	 1.428571e+00	 2.214286e+00	 1.128192e+01
0	 1.428571e+00	 2.285714e+00	 1.120924e+01
0	 1.428571e+00	 2.357143e+00	 1.118607e+01
0	 1.428571e+00	 2.428571e+00	 1.121239e+01
0	 1.428571e+00	 2.500000e+00	 1.128821e+01
0	 1.071429e+00	 2.500000e+00	 1.140822e+01
0	 1.071429e+00	 2.571429e+00	 1.149633e+01
0	 1.071429e+00	 2.642857e+00	 1.164989e+01
0	 1.071429e+00	 2.714286e+00	 1.186891e+01
0	 1.071429e+00	 2.785714e+00	 1.215339e+01
0	 1.071429e+00	 2.857143e+00	 1.250332e+01
0	 1.142857e+00	 2.500000e+00	 1.142766e+01
0	 1.142857e+00	 2.571429e+00	 1.150475e+01
0	 1.142857e+00	 2.642857e+00	 1.163494e+01
0	 1.142857e+00	 2.714286e+00	 1.181822e+01
0	 1.142857e+00	 2.785714e+00	 1.205459e+01
0	 1.142857e+00	 2.857143e+00	 1.234406e+01
0	 1.214286e+00	 2.500000e+00	 1.142537e+01
0	 1.214286e+00	 2.571429e+00	 1.148968e+01
0	 1.214286e+00	 2.642857e+00	 1.159472e+01
0	 1.214286e+00	 2.714286e+00	 1.174049e+01
0	 1.214286e+00	 2.785714e+00	 1.192699e+01
0	 1.214286e+00	 2.857143e+00	 1.215421e+01
0	 1.285714e+00	 2.500000e+00	 1.140137e+01
0	 1.285714e+00	 2.571429e+00	 1.145113e+01
0	 1.285714e+00	 2.642857e+00	 1.152925e+01
0	 1.285714e+00	 2.714286e+00	 1.163573e+01
0	 1.285714e+00	 2.785714e+00	 1.177058e+01
0	 1.285714e+00	 2.857143e+00	 1.193378e+01
0	 1.357143e+00	 2.500000e+00	 1.135565e+01
0	 1.357143e+00	 2.571429e+00	 1.138908e+01
0	 1.357143e+00	 2.642857e+00	 1.143851e+01
0	 1.357143e+00	 2.714286e+00	 1.150393e+01
0	 1.357143e+00	 2.785714e+00	 1.158536e+01
0	 1.357143e+00	 2.857143e+00	 1.168278e+01
0	 1.428571e+00	 2.500000e+00	 1.128821e+01
0	 1.428571e+00	 2.571429e+00	 1.130354e+01
0	 1.428571e+00	 2.642857e+00	 1.132251e+01
0	 1.428571e+00	 2.714286e+00	 1.134510e+01
0	 1.428571e+00	 2.785714e+00	 1.137133e+01
0	 1.428571e+00	 2.857143e+00	 1.140119e+01
0	 1.071429e+00	 2.857143e+00	 1.250332e+01
0	 1.071429e+00	 2.928571e+00	 1.236455e+01
0	 1.071429e+00	 3.000000e+00	 1.222852e+01
0	 1.071429e+00	 3.071429e+00	 1.209522e+01
0	 1.071429e+00	 3.142857e+00	 1.196465e+01
0	 1.071429e+00	 3.214286e+00	 1.183682e+01
0	 1.142857e+00	 2.857143e+00	 1.234406e+01
0	 1.142857e+00	 2.928571e+00	 1.221448e+01
0	 1.142857e+00	 3.000000e+00	 1.208811e+01
0	 1.142857e+00	 3.071429e+00	 1.196495e+01
0	 1.142857e+00	 3.142857e+00	 1.184499e+01
0	 1.142857e+00	 3.214286e+00	 1.172824e+01
0	 1.214286e+00	 2.857143e+00	 1.215421e+01
0	 1.214286e+00	 2.928571e+00	 1.203861e+01
0	 1.214286e+00	 3.000000e+00	 1.192668e+01
0	 1.214286e+00	 3.071429e+00	 1.181843e+01
0	 1.214286e+00	 3.142857e+00	 1.171386e+01
0	 1.214286e+00	 3.214286e+00	 1.161297e+01
0	 1.285714e+00	 2.857143e+00	 1.193378e+01
0	 1.285714e+00	 2.928571e+00	 1.183693e+01
0	 1.285714e+00	 3.000000e+00	 1.174423e+01
0	 1.285714e+00	 3.071429e+00	 1.165567e+01
0	 1.285714e+00	 3.142857e+00	 1.157127e+01
0	 1.285714e+00	 3.214286e+00	 1.149102e+01
0	 1.357143e+00	 2.857143e+00	 1.168278e+01
0	 1.357143e+00	 2.928571e+00	 1.160945e+01
0	 1.357143e+00	 3.000000e+00	 1.154075e+01
0	 1.357143e+00	 3.071429e+00	 1.147667e+01
0	 1.357143e+00	 3.142857e+00	 1.141721e+01
0	 1.357143e+00	 3.214286e+00	 1.136238e+01
0	 1.428571e+00	 2.857143e+00	 1.140119e+01
0	 1.428571e+00	 2.928571e+00	 1.135617e+01
0	 1.428571e+00	 3.000000e+00	 1.131625e+01
0	 1.428571e+00	 3.071429e+00	 1.128142e+01
0	 1.428571e+00	 3.142857e+00	 1.125169e+01
0	 1.428571e+00	 3.214286e+00	 1.122705e+01
0	 1.071429e+00	 3.214286e+00	 1.183682e+01
0	 1.071429e+00	 3.285714e+00	 1.180105e+01
0	 1.071429e+00	 3.357143e+00	 1.176784e+01
0	 1.071429e+00	 3.428571e+00	 1.173718e+01
0	 1.071429e+00	 3.500000e+00	 1.170908e+01
0	 1.071429e+00	 3.571429e+00	 1.168354e+01
0	 1.142857e+00	 3.214286e+00	 1.172824e+01
0	 1.142857e+00	 3.285714e+00	 1.169714e+01
0	 1.142857e+00	 3.357143e+00	 1.166885e+01
0	 1.142857e+00	 3.428571e+00	 1.164338e+01
0	 1.142857e+00	 3.500000e+00	 1.162073e+01
0	 1.142857e+00	 3.571429e+00	 1.160089e+01
0	 1.214286e+00	 3.214286e+00	 1.161297e+01
0	 1.214286e+00	 3.285714e+00	 1.158554e+01
0	 1.214286e+00	 3.357143e+00	 1.156118e+01
0	 1.214286e+00	 3.428571e+00	 1.153990e+01
0	 1.214286e+00	 3.500000e+00	 1.152170e+01
0	 1.214286e+00	 3.571429e+00	 1.150658e+01
0	 1.285714e+00	 3.214286e+00	 1.149102e+01
0	 1.285714e+00	 3.285714e+00	 1.146625e+01
0	 1.285714e+00	 3.357143e+00	 1.144483e+01
0	 1.285714e+00	 3.428571e+00	 1.142674e+01
0	 1.285714e+00	 3.500000e+00	 1.141200e+01
0	 1.285714e+00	 3.571429e+00	 1.140059e+01
0	 1.357143e+00	 3.214286e+00	 1.136238e+01
0	 1.357143e+00	 3.285714e+00	 1.133929e+01
0	 1.357143e+00	 3.357143e+00	 1.131980e+01
0	 1.357143e+00	 3.428571e+00	 1.130391e+01
0	 1.357143e+00	 3.500000e+00	 1.129163e+01
0	 1.357143e+00	 3.571429e+00	 1.128294e+01
0	 1.428571e+00	 3.214286e+00	 1.122705e+01
0	 1.428571e+00	 3.285714e+00	 1.120464e+01
0	 1.428571e+00	 3.357143e+00	 1.118609e+01
0	 1.428571e+00	 3.428571e+00	 1.117140e+01
0	 1.428571e+00	 3.500000e+00	 1.116058e+01
0	 1.428571e+00	 3.571429e+00	 1.115362e+01
0	 1.071429e+00	 3.571429e+00	 1.168354e+01
0	 1.071429e+00	 3.642857e+00	 1.163578e+01
0	 1.071429e+00	 3.714286e+00	 1.159033e+01
0	 1.071429e+00	 3.785714e+00	 1.154721e+01
0	 1.071429e+00	 3.857143e+00	 1.150641e+01
0	 1.071429e+00	 3.928571e+00	 1.146794e+01
0	 1.142857e+00	 3.571429e+00	 1.160089e+01
0	 1.142857e+00	 3.642857e+00	 1.155448e+01
0	 1.142857e+00	 3.714286e+00	 1.151025e+01
0	 1.142857e+00	 3.785714e+00	 1.146820e+01
0	 1.142857e+00	 3.857143e+00	 1.142834e+01
0	 1.142857e+00	 3.928571e+00	 1.139067e+01
0	 1.214286e+00	 3.571429e+00	 1.150658e+01
0	 1.214286e+00	 3.642857e+00	 1.146288e+01
0	 1.214286e+00	 3.714286e+00	 1.142122e+01
0	 1.214286e+00	 3.785714e+00	 1.138162e+01
0	 1.214286e+00	 3.857143e+00	 1.134406e+01
0	 1.214286e+00	 3.928571e+00	 1.130856e+01
0	 1.285714e+00	 3.571429e+00	 1.140059e+01
0	 1.285714e+00	 3.642857e+00	 1.136097e+01
0	 1.285714e+00	 3.714286e+00	 1.132326e+01
0	 1.285714e+00	 3.785714e+00	 1.128746e+01
0	 1.285714e+00	 3.857143e+00	 1.125358e+01
0	 1.285714e+00	 3.928571e+00	 1.122160e+01
0	 1.357143e+00	 3.571429e+00	 1.128294e+01
0	 1.357143e+00	 3.642857e+00	 1.124876e+01
0	 1.357143e+00	 3.714286e+00	 1.121636e+01
0	 1.357143e+00	 3.785714e+00	 1.118573e+01
0	 1.357143e+00	 3.857143e+00	 1.115688e+01
0	 1.357143e+00	 3.928571e+00	 1.112980e+01
0	 1.428571e+00	 3.571429e+00	 1.115362e+01
0	 1.428571e+00	 3.642857e+00	 1.112625e+01
0	 1.428571e+00	 3.714286e+00	 1.110052e+01
0	 1.428571e+00	 3.785714e+00	 1.107642e+01
0	 1.428571e+00	 3.857143e+00	 1.105397e+01
0	 1.428571e+00	 3.928571e+00	 1.103315e+01
0	 1.071429e+00	 3.928571e+00	 1.146794e+01
0	 1.071429e+00	 4.000000e+00	 1.143039e+01
0	 1.071429e+00	 4.071429e+00	 1.139384e+01
0	 1.071429e+00	 4.142857e+00	 1.135830e+01
0	 1.071429e+00	 4.214286e+00	 1.132376e+01
0	 1.071429e+00	 4.285714e+00	 1.129022e+01
0	 1.142857e+00	 3.928571e+00	 1.139067e+01
0	 1.142857e+00	 4.000000e+00	 1.135643e+01
0	 1.142857e+00	 4.071429e+00	 1.132323e+01
0	 1.142857e+00	 4.142857e+00	 1.129108e+01
0	 1.142857e+00	 4.214286e+00	 1.125996e+01
0	 1.142857e+00	 4.285714e+00	 1.122989e+01
0	 1.214286e+00	 3.928571e+00	 1.130856e+01
0	 1.214286e+00	 4.000000e+00	 1.127766e+01
0	 1.214286e+00	 4.071429e+00	 1.124784e+01
0	 1.214286e+00	 4.142857e+00	 1.121910e+01
0	 1.214286e+00	 4.214286e+00	 1.119144e+01
0	 1.214286e+00	 4.285714e+00	 1.116486e+01
0	 1.285714e+00	 3.928571e+00	 1.122160e+01
0	 1.285714e+00	 4.000000e+00	 1.119407e+01
0	 1.285714e+00	 4.071429e+00	 1.116766e+01
0	 1.285714e+00	 4.142857e+00	 1.114236e+01
0	 1.285714e+00	 4.214286e+00	 1.111818e+01
0	 1.285714e+00	 4.285714e+00	 1.109512e+01
0	 1.357143e+00	 3.928571e+00	 1.112980e+01
0	 1.357143e+00	 4.000000e+00	 1.110566e+01
0	 1.357143e+00	 4.071429e+00	 1.108268e+01
0	 1.357143e+00	 4.142857e+00	 1.106086e+01
0	 1.357143e+00	 4.214286e+00	 1.104020e+01
0	 1.357143e+00	 4.285714e+00	 1.102069e+01
0	 1.428571e+00	 3.928571e+00	 1.103315e+01
0	 1.428571e+00	 4.000000e+00	 1.101244e+01
0	 1.428571e+00	 4.071429e+00	 1.099293e+01
0	 1.428571e+00	 4.142857e+00	 1.097460e+01
0	 1.428571e+00	 4.214286e+00	 1.095748e+01
0	 1.428571e+00	 4.285714e+00	 1.094155e+01
0	 1.071429e+00	 4.285714e+00	 1.129022e+01
0	 1.071429e+00	 4.357143e+00	 1.125747e+01
0	 1.071429e+00	 4.428571e+00	 1.122560e+01
0	 1.071429e+00	 4.500000e+00	 1.119460e+01
0	 1.071429e+00	 4.571429e+00	 1.116448e+01
0	 1.071429e+00	 4.642857e+00	 1.113524e+01
0	 1.142857e+00	 4.285714e+00	 1.122989e+01
0	 1.142857e+00	 4.357143e+00	 1.119881e+01
0	 1.142857e+00	 4.428571e+00	 1.116862e+01
0	 1.142857e+00	 4.500000e+00	 1.113932e+01
0	 1.142857e+00	 4.571429e+00	 1.111092e+01
0	 1.142857e+00	 4.642857e+00	 1.108341e+01
0	 1.214286e+00	 4.285714e+00	 1.116486e+01
0	 1.214286e+00	 4.357143e+00	 1.113577e+01
0	 1.214286e+00	 4.428571e+00	 1.110759e+01
0	 1.214286e+00	 4.500000e+00	 1.108032e+01
0	 1.214286e+00	 4.571429e+00	 1.105396e+01
0	 1.214286e+00	 4.642857e+00	 1.102851e+01
0	 1.285714e+00	 4.285714e+00	 1.109512e+01
0	 1.285714e+00	 4.357143e+00	 1.106835e+01
0	 1.285714e+00	 4.428571e+00	 1.104250e+01
0	 1.285714e+00	 4.500000e+00	 1.101759e+01
0	 1.285714e+00	 4.571429e+00	 1.099359e+01
0	 1.285714e+00	 4.642857e+00	 1.097053e+01
0	 1.357143e+00	 4.285714e+00	 1.102069e+01
0	 1.357143e+00	 4.357143e+00	 1.099656e+01
0	 1.357143e+00	 4.428571e+00	 1.097337e+01
0	 1.357143e+00	 4.500000e+00	 1.095113e+01
0	 1.357143e+00	 4.571429e+00	 1.092983e+01
0	 1.357143e+00	 4.642857e+00	 1.090948e+01
0	 1.428571e+00	 4.285714e+00	 1.094155e+01
0	 1.428571e+00	 4.357143e+00	 1.092039e+01
0	 1.428571e+00	 4.428571e+00	 1.090018e+01
0	 1.428571e+00	 4.500000e+00	 1.088094e+01
0	 1.428571e+00	 4.571429e+00	 1.086266e+01
0	 1.428571e+00	 4.642857e+00	 1.084535e+01
0	 1.071429e+00	 4.642857e+00	 1.113524e+01
0	 1.071429e+00	 4.714286e+00	 1.110536e+01
0	 1.071429e+00	 4.785714e+00	 1.107613e+01
0	 1.071429e+00	 4.857143e+00	 1.104754e+01
0	 1.071429e+00	 4.928571e+00	 1.101960e+01
0	 1.071429e+00	 5.000000e+00	 1.099230e+01
0	 1.142857e+00	 4.642857e+00	 1.108341e+01
0	 1.142857e+00	 4.714286e+00	 1.105551e+01
0	 1.142857e+00	 4.785714e+00	 1.102824e+01
0	 1.142857e+00	 4.857143e+00	 1.100162e+01
0	 1.142857e+00	 4.928571e+00	 1.097563e+01
0	 1.142857e+00	 5.000000e+00	 1.095029e+01
0	 1.214286e+00	 4.642857e+00	 1.102851e+01
0	 1.214286e+00	 4.714286e+00	 1.100268e+01
0	 1.214286e+00	 4.785714e+00	 1.097749e+01
0	 1.214286e+00	 4.857143e+00	 1.095293e+01
0	 1.214286e+00	 4.928571e+00	 1.092901e+01
0	 1.214286e+00	 5.000000e+00	 1.090572e+01
0	 1.285714e+00	 4.642857e+00	 1.097053e+01
0	 1.285714e+00	 4.714286e+00	 1.094688e+01
0	 1.285714e+00	 4.785714e+00	 1.092386e+01
0	 1.285714e+00	 4.857143e+00	 1.090147e+01
0	 1.285714e+00	 4.928571e+00	 1.087972e+01
0	 1.285714e+00	 5.000000e+00	 1.085859e+01
0	 1.357143e+00	 4.642857e+00	 1.090948e+01
0	 1.357143e+00	 4.714286e+00	 1.088811e+01
0	 1.357143e+00	 4.785714e+00	 1.086737e+01
0	 1.357143e+00	 4.857143e+00	 1.084726e+01
0	 1.357143e+00	 4.928571e+00	 1.082777e+01
0	 1.357143e+00	 5.000000e+00	 1.080890e+01
0	 1.428571e+00	 4.642857e+00	 1.084535e+01
0	 1.428571e+00	 4.714286e+00	 1.082637e+01
0	 1.428571e+00	 4.785714e+00	 1.080801e+01
0	 1.428571e+00	 4.857143e+00	 1.079027e+01
0	 1.428571e+00	 4.928571e+00	 1.077315e+01
0	 1.428571e+00	 5.000000e+00	 1.075665e+01
0	 1.071429e+00	 5.000000e+00	 1.099230e+01
0	 1.071429e+00	 5.071429e+00	 1.096569e+01
0	 1.071429e+00	 5.142857e+00	 1.093951e+01
0	 1.071429e+00	 5.214286e+00	 1.091376e+01
0	 1.071429e+00	 5.285714e+00	 1.088845e+01
0	 1.071429e+00	 5.357143e+00	 1.086358e+01
0	 1.142857e+00	 5.000000e+00	 1.095029e+01
0	 1.142857e+00	 5.071429e+00	 1.092513e+01
0	 1.142857e+00	 5.142857e+00	 1.090041e+01
0	 1.142857e+00	 5.214286e+00	 1.087616e+01
0	 1.142857e+00	 5.285714e+00	 1.085235e+01
0	 1.142857e+00	 5.357143e+00	 1.082900e+01
0	 1.214286e+00	 5.000000e+00	 1.090572e+01
0	 1.214286e+00	 5.071429e+00	 1.088211e+01
0	 1.214286e+00	 5.142857e+00	 1.085898e+01
0	 1.214286e+00	 5.214286e+00	 1.083631e+01
0	 1.214286e+00	 5.285714e+00	 1.081412e+01
0	 1.214286e+00	 5.357143e+00	 1.079240e+01
0	 1.285714e+00	 5.000000e+00	 1.085859e+01
0	 1.285714e+00	 5.071429e+00	 1.083665e+01
0	 1.285714e+00	 5.142857e+00	 1.081519e+01
0	 1.285714e+00	 5.214286e+00	 1.079423e+01
0	 1.285714e+00	 5.285714e+00	 1.077376e+01
0	 1.285714e+00	 5.357143e+00	 1.075377e+01
0	 1.357143e+00	 5.000000e+00	 1.080890e+01
0	 1.357143e+00	 5.071429e+00	 1.078873e+01
0	 1.357143e+00	 5.142857e+00	 1.076907e+01
0	 1.357143e+00	 5.214286e+00	 1.074991e+01
0	 1.357143e+00	 5.285714e+00	 1.073126e+01
0	 1.357143e+00	 5.357143e+00	 1.071312e+01
0	 1.428571e+00	 5.000000e+00	 1.075665e+01
0	 1.428571e+00	 5.071429e+00	 1.073836e+01
0	 1.428571e+00	 5.142857e+00	 1.072060e+01
0	 1.428571e+00	 5.214286e+00	 1.070336e+01
0	 1.428571e+00	 5.285714e+00	 1.068664e+01
0	 1.428571e+00	 5.357143e+00	 1.067045e+01
0	 1.071429e+00	 5.357143e+00	 1.086358e+01
0	 1.071429e+00	 5.428571e+00	 1.083934e+01
0	 1.071429e+00	 5.500000e+00	 1.081542e+01
0	 1.071429e+00	 5.571429e+00	 1.079181e+01
0	 1.071429e+00	 5.642857e+00	 1.076853e+01
0	 1.071429e+00	 5.714286e+00	 1.074556e+01
0	 1.142857e+00	 5.357143e+00	 1.082900e+01
0	 1.142857e+00	 5.428571e+00	 1.080604e+01
0	 1.142857e+00	 5.500000e+00	 1.078341e+01
0	 1.142857e+00	 5.571429e+00	 1.076110e+01
0	 1.142857e+00	 5.642857e+00	 1.073912e+01
0	 1.142857e+00	 5.714286e+00	 1.071747e+01
0	 1.214286e+00	 5.357143e+00	 1.079240e+01
0	 1.214286e+00	 5.428571e+00	 1.077079e+01
0	 1.214286e+00	 5.500000e+00	 1.074952e+01
0	 1.214286e+00	 5.571429e+00	 1.072859e+01
0	 1.214286e+00	 5.642857e+00	 1.070798e+01
0	 1.214286e+00	 5.714286e+00	 1.068771e+01
0	 1.285714e+00	 5.357143e+00	 1.075377e+01
0	 1.285714e+00	 5.428571e+00	 1.073359e+01
0	 1.285714e+00	 5.500000e+00	 1.071376e+01
0	 1.285714e+00	 5.571429e+00	 1.069426e+01
0	 1.285714e+00	 5.642857e+00	 1.067511e+01
0	 1.285714e+00	 5.714286e+00	 1.065629e+01
0	 1.357143e+00	 5.357143e+00	 1.071312e+01
0	 1.357143e+00	 5.428571e+00	 1.069445e+01
0	 1.357143e+00	 5.500000e+00	 1.067611e+01
0	 1.357143e+00	 5.571429e+00	 1.065813e+01
0	 1.357143e+00	 5.642857e+00	 1.064049e+01
0	 1.357143e+00	 5.714286e+00	 1.062320e+01
0	 1.428571e+00	 5.357143e+00	 1.067045e+01
0	 1.428571e+00	 5.428571e+00	 1.065334e+01
0	 1.428571e+00	 5.500000e+00	 1.063659e+01
0	 1.428571e+00	 5.571429e+00	 1.062019e+01
0	 1.428571e+00	 5.642857e+00	 1.060415e+01
0	 1.428571e+00	 5.714286e+00	 1.058845e+01
0	 1.071429e+00	 5.714286e+00	 1.074556e+01
0	 1.071429e+00	 5.785714e+00	 1.072360e+01
0	 1.071429e+00	 5.857143e+00	 1.070184e+01
0	 1.071429e+00	 5.928571e+00	 1.068028e+01
0	 1.071429e+00	 6.000000e+00	 1.065892e+01
0	 1.071429e+00	 6.071429e+00	 1.063775e+01
0	 1.142857e+00	 5.714286e+00	 1.071747e+01
0	 1.142857e+00	 5.785714e+00	 1.069656e+01
0	 1.142857e+00	 5.857143e+00	 1.067586e+01
0	 1.142857e+00	 5.928571e+00	 1.065537e+01
0	 1.142857e+00	 6.000000e+00	 1.063509e+01
0	 1.142857e+00	 6.071429e+00	 1.061502e+01
0	 1.214286e+00	 5.714286e+00	 1.068771e+01
0	 1.214286e+00	 5.785714e+00	 1.066790e+01
0	 1.214286e+00	 5.857143e+00	 1.064832e+01
0	 1.214286e+00	 5.928571e+00	 1.062897e+01
0	 1.214286e+00	 6.000000e+00	 1.060983e+01
0	 1.214286e+00	 6.071429e+00	 1.059092e+01
0	 1.285714e+00	 5.714286e+00	 1.065629e+01
0	 1.285714e+00	 5.785714e+00	 1.063765e+01
0	 1.285714e+00	 5.857143e+00	 1.061924e+01
0	 1.285714e+00	 5.928571e+00	 1.060107e+01
0	 1.285714e+00	 6.000000e+00	 1.058314e+01
0	 1.285714e+00	 6.071429e+00	 1.056544e+01
0	 1.357143e+00	 5.714286e+00	 1.062320e+01
0	 1.357143e+00	 5.785714e+00	 1.060578e+01
0	 1.357143e+00	 5.857143e+00	 1.058861e+01
0	 1.357143e+00	 5.928571e+00	 1.057169e+01
0	 1.357143e+00	 6.000000e+00	 1.055501e+01
0	 1.357143e+00	 6.071429e+00	 1.053859e+01
0	 1.428571e+00	 5.714286e+00	 1.058845e+01
0	 1.428571e+00	 5.785714e+00	 1.057231e+01
0	 1.428571e+00	 5.857143e+00	 1.055643e+01
0	 1.428571e+00	 5.928571e+00	 1.054081e+01
0	 1.428571e+00	 6.000000e+00	 1.052545e+01
0	 1.428571e+00	 6.071429e+00	 1.051036e+01
0	 1.071429e+00	 6.071429e+00	 1.063775e+01
0	 1.071429e+00	 6.142857e+00	 1.061778e+01
0	 1.071429e+00	 6.214286e+00	 1.059793e+01
0	 1.071429e+00	 6.285714e+00	 1.057819e+01
0	 1.071429e+00	 6.357143e+00	 1.055857e+01
0	 1.071429e+00	 6.428571e+00	 1.053905e+01
0	 1.142857e+00	 6.071429e+00	 1.061502e+01
0	 1.142857e+00	 6.142857e+00	 1.059593e+01
0	 1.142857e+00	 6.214286e+00	 1.057697e+01
0	 1.142857e+00	 6.285714e+00	 1.055812e+01
0	 1.142857e+00	 6.357143e+00	 1.053940e+01
0	 1.142857e+00	 6.428571e+00	 1.052081e+01
0	 1.214286e+00	 6.071429e+00	 1.059092e+01
0	 1.214286e+00	 6.142857e+00	 1.057275e+01
0	 1.214286e+00	 6.214286e+00	 1.055472e+01
0	 1.214286e+00	 6.285714e+00	 1.053682e+01
0	 1.214286e+00	 6.357143e+00	 1.051906e+01
0	 1.214286e+00	 6.428571e+00	 1.050142e+01
0	 1.285714e+00	 6.071429e+00	 1.056544e+01
0	 1.285714e+00	 6.142857e+00	 1.054825e+01
0	 1.285714e+00	 6.214286e+00	 1.053119e+01
0	 1.285714e+00	 6.285714e+00	 1.051429e+01
0	 1.285714e+00	 6.357143e+00	 1.049752e+01
0	 1.285714e+00	 6.428571e+00	 1.048091e+01
0	 1.357143e+00	 6.071429e+00	 1.053859e+01
0	 1.357143e+00	 6.142857e+00	 1.052241e+01
0	 1.357143e+00	 6.214286e+00	 1.050639e+01
0	 1.357143e+00	 6.285714e+00	 1.049052e+01
0	 1.357143e+00	 6.357143e+00	 1.047481e+01
0	 1.357143e+00	 6.428571e+00	 1.045925e+01
0	 1.428571e+00	 6.071429e+00	 1.051036e+01
0	 1.428571e+00	 6.142857e+00	 1.049525e+01
0	 1.428571e+00	 6.214286e+00	 1.048030e+01
0	 1.428571e+00	 6.285714e+00	 1.046552e+01
0	 1.428571e+00	 6.357143e+00	 1.045091e+01
0	 1.428571e+00	 6.428571e+00	 1.043646e+01
0	 1.071429e+00	 6.428571e+00	 1.053905e+01
0	 1.071429e+00	 6.500000e+00	 1.052091e+01
0	 1.071429e+00	 6.571429e+00	 1.050281e+01
0	 1.071429e+00	 6.642857e+00	 1.048475e+01
0	 1.071429e+00	 6.714286e+00	 1.046672e+01
0	 1.071429e+00	 6.785714e+00	 1.044873e+01
0	 1.142857e+00	 6.428571e+00	 1.052081e+01
0	 1.142857e+00	 6.500000e+00	 1.050340e+01
0	 1.142857e+00	 6.571429e+00	 1.048604e+01
0	 1.142857e+00	 6.642857e+00	 1.046872e+01
0	 1.142857e+00	 6.714286e+00	 1.045146e+01
0	 1.142857e+00	 6.785714e+00	 1.043424e+01
0	 1.214286e+00	 6.428571e+00	 1.050142e+01
0	 1.214286e+00	 6.500000e+00	 1.048478e+01
0	 1.214286e+00	 6.571429e+00	 1.046820e+01
0	 1.214286e+00	 6.642857e+00	 1.045168e+01
0	 1.214286e+00	 6.714286e+00	 1.043522e+01
0	 1.214286e+00	 6.785714e+00	 1.041882e+01
0	 1.285714e+00	 6.428571e+00	 1.048091e+01
0	 1.285714e+00	 6.500000e+00	 1.046508e+01
0	 1.285714e+00	 6.571429e+00	 1.044931e+01
0	 1.285714e+00	 6.642857e+00	 1.043362e+01
0	 1.285714e+00	 6.714286e+00	 1.041800e+01
0	 1.285714e+00	 6.785714e+00	 1.040245e+01
0	 1.357143e+00	 6.428571e+00	 1.045925e+01
0	 1.357143e+00	 6.500000e+00	 1.044427e+01
0	 1.357143e+00	 6.571429e+00	 1.042937e+01
0	 1.357143e+00	 6.642857e+00	 1.041455e+01
0	 1.357143e+00	 6.714286e+00	 1.039980e+01
0	 1.357143e+00	 6.785714e+00	 1.038514e+01
0	 1.428571e+00	 6.428571e+00	 1.043646e+01
0	 1.428571e+00	 6.500000e+00	 1.042237e+01
0	 1.428571e+00	 6.571429e+00	 1.040837e+01
0	 1.428571e+00	 6.642857e+00	 1.039445e+01
0	 1.428571e+00	 6.714286e+00	 1.038063e+01
0	 1.428571e+00	 6.785714e+00	 1.036690e+01
0	 1.071429e+00	 6.785714e+00	 1.044873e+01
0	 1.071429e+00	 6.857143e+00	 1.043228e+01
0	 1.071429e+00	 6.928571e+00	 1.041579e+01
0	 1.071429e+00	 7.000000e+00	 1.039929e+01
0	 1.071429e+00	 7.071429e+00	 1.038275e+01
0	 1.071429e+00	 7.142857e+00	 1.036619e+01
0	 1.142857e+00	 6.785714e+00	 1.043424e+01
0	 1.142857e+00	 6.857143e+00	 1.041840e+01
0	 1.142857e+00	 6.928571e+00	 1.040254e+01
0	 1.142857e+00	 7.000000e+00	 1.038666e+01
0	 1.142857e+00	 7.071429e+00	 1.037076e+01
0	 1.142857e+00	 7.142857e+00	 1.035485e+01
0	 1.214286e+00	 6.785714e+00	 1.041882e+01
0	 1.214286e+00	 6.857143e+00	 1.040362e+01
0	 1.214286e+00	 6.928571e+00	 1.038841e+01
0	 1.214286e+00	 7.000000e+00	 1.037319e+01
0	 1.214286e+00	 7.071429e+00	 1.035797e+01
0	 1.214286e+00	 7.142857e+00	 1.034274e+01
0	 1.285714e+00	 6.785714e+00	 1.040245e+01
0	 1.285714e+00	 6.857143e+00	 1.038793e+01
0	 1.285714e+00	 6.928571e+00	 1.037341e+01
0	 1.285714e+00	 7.000000e+00	 1.035889e+01
0	 1.285714e+00	 7.071429e+00	 1.034438e+01
0	 1.285714e+00	 7.142857e+00	 1.032987e+01
0	 1.357143e+00	 6.785714e+00	 1.038514e+01
0	 1.357143e+00	 6.857143e+00	 1.037134e+01
0	 1.357143e+00	 6.928571e+00	 1.035754e+01
0	 1.357143e+00	 7.000000e+00	 1.034376e+01
0	 1.357143e+00	 7.071429e+00	 1.032998e+01
0	 1.357143e+00	 7.142857e+00	 1.031622e+01
0	 1.428571e+00	 6.785714e+00	 1.036690e+01
0	 1.428571e+00	 6.857143e+00	 1.035384e+01
0	 1.428571e+00	 6.928571e+00	 1.034080e+01
0	 1.428571e+00	 7.000000e+00	 1.032778e+01
0	 1.428571e+00	 7.071429e+00	 1.031478e+01
0	 1.428571e+00	 7.142857e+00	 1.030181e+01
0	 1.071429e+00	 7.142857e+00	 1.036619e+01
0	 1.071429e+00	 7.214286e+00	 1.035132e+01
0	 1.071429e+00	 7.285714e+00	 1.033637e+01
0	 1.071429e+00	 7.357143e+00	 1.032133e+01
0	 1.071429e+00	 7.428571e+00	 1.030621e+01
0	 1.071429e+00	 7.500000e+00	 1.029099e+01
0	 1.142857e+00	 7.142857e+00	 1.035485e+01
0	 1.142857e+00	 7.214286e+00	 1.034050e+01
0	 1.142857e+00	 7.285714e+00	 1.032608e+01
0	 1.142857e+00	 7.357143e+00	 1.031157e+01
0	 1.142857e+00	 7.428571e+00	 1.029698e+01
0	 1.142857e+00	 7.500000e+00	 1.028232e+01
0	 1.214286e+00	 7.142857e+00	 1.034274e+01
0	 1.214286e+00	 7.214286e+00	 1.032894e+01
0	 1.214286e+00	 7.285714e+00	 1.031507e+01
0	 1.214286e+00	 7.357143e+00	 1.030112e+01
0	 1.214286e+00	 7.428571e+00	 1.028711e+01
0	 1.214286e+00	 7.500000e+00	 1.027302e+01
0	 1.285714e+00	 7.142857e+00	 1.032987e+01
0	 1.285714e+00	 7.214286e+00	 1.031664e+01
0	 1.285714e+00	 7.285714e+00	 1.030334e+01
0	 1.285714e+00	 7.357143e+00	 1.028999e+01
0	 1.285714e+00	 7.428571e+00	 1.027657e+01
0	 1.285714e+00	 7.500000e+00	 1.026310e+01
0	 1.357143e+00	 7.142857e+00	 1.031622e+01
0	 1.357143e+00	 7.214286e+00	 1.030359e+01
0	 1.357143e+00	 7.285714e+00	 1.029091e+01
0	 1.357143e+00	 7.357143e+00	 1.027817e+01
0	 1.357143e+00	 7.428571e+00	 1.026538e+01
0	 1.357143e+00	 7.500000e+00	 1.025255e+01
0	 1.428571e+00	 7.142857e+00	 1.030181e+01
0	 1.428571e+00	 7.214286e+00	 1.028980e+01
0	 1.428571e+00	 7.285714e+00	 1.027776e+01
0	 1.428571e+00	 7.357143e+00	 1.026567e+01
0	 1.428571e+00	 7.428571e+00	 1.025354e+01
0	 1.428571e+00	 7.500000e+00	 1.024137e+01
0	 1.071429e+00	 7.500000e+00	 1.029099e+01
0	 1.071429e+00	 7.571429e+00	 1.027768e+01
0	 1.071429e+00	 7.642857e+00	 1.026422e+01
0	 1.071429e+00	 7.714286e+00	 1.025061e+01
0	 1.071429e+00	 7.785714e+00	 1.023685e+01
0	 1.071429e+00	 7.857143e+00	 1.022294e+01
0	 1.142857e+00	 7.500000e+00	 1.028232e+01
0	 1.142857e+00	 7.571429e+00	 1.026945e+01
0	 1.142857e+00	 7.642857e+00	 1.025643e+01
0	 1.142857e+00	 7.714286e+00	 1.024328e+01
0	 1.142857e+00	 7.785714e+00	 1.022998e+01
0	 1.142857e+00	 7.857143e+00	 1.021654e+01
0	 1.214286e+00	 7.500000e+00	 1.027302e+01
0	 1.214286e+00	 7.571429e+00	 1.026061e+01
0	 1.214286e+00	 7.642857e+00	 1.024806e+01
0	 1.214286e+00	 7.714286e+00	 1.023538e+01
0	 1.214286e+00	 7.785714e+00	 1.022257e+01
0	 1.214286e+00	 7.857143e+00	 1.020963e+01
0	 1.285714e+00	 7.500000e+00	 1.026310e+01
0	 1.285714e+00	 7.571429e+00	 1.025117e+01
0	 1.285714e+00	 7.642857e+00	 1.023911e+01
0	 1.285714e+00	 7.714286e+00	 1.022693e+01
0	 1.285714e+00	 7.785714e+00	 1.021463e+01
0	 1.285714e+00	 7.857143e+00	 1.020220e+01
0	 1.357143e+00	 7.500000e+00	 1.025255e+01
0	 1.357143e+00	 7.571429e+00	 1.024112e+01
0	 1.357143e+00	 7.642857e+00	 1.022958e+01
0	 1.357143e+00	 7.714286e+00	 1.021792e+01
0	 1.357143e+00	 7.785714e+00	 1.020615e+01
0	 1.357143e+00	 7.857143e+00	 1.019427e+01
0	 1.428571e+00	 7.500000e+00	 1.024137e+01
0	 1.428571e+00	 7.571429e+00	 1.023047e+01
0	 1.428571e+00	 7.642857e+00	 1.021946e+01
0	 1.428571e+00	 7.714286e+00	 1.020836e+01
0	 1.428571e+00	 7.785714e+00	 1.019714e+01
0	 1.428571e+00	 7.857143e+00	 1.018583e+01
0	 1.071429e+00	 7.857143e+00	 1.022294e+01
0	 1.071429e+00	 7.928571e+00	 1.021121e+01
0	 1.071429e+00	 8.000000e+00	 1.019926e+01
0	 1.071429e+00	 8.071429e+00	 1.018710e+01
0	 1.071429e+00	 8.142857e+00	 1.017471e+01
0	 1.071429e+00	 8.214286e+00	 1.016210e+01
0	 1.142857e+00	 7.857143e+00	 1.021654e+01
0	 1.142857e+00	 7.928571e+00	 1.020518e+01
0	 1.142857e+00	 8.000000e+00	 1.019360e+01
0	 1.142857e+00	 8.071429e+00	 1.018182e+01
0	 1.142857e+00	 8.142857e+00	 1.016983e+01
0	 1.142857e+00	 8.214286e+00	 1.015763e+01
0	 1.214286e+00	 7.857143e+00	 1.020963e+01
0	 1.214286e+00	 7.928571e+00	 1.019865e+01
0	 1.214286e+00	 8.000000e+00	 1.018747e+01
0	 1.214286e+00	 8.071429e+00	 1.017610e+01
0	 1.214286e+00	 8.142857e+00	 1.016452e+01
0	 1.214286e+00	 8.214286e+00	 1.015274e+01
0	 1.285714e+00	 7.857143e+00	 1.020220e+01
0	 1.285714e+00	 7.928571e+00	 1.019163e+01
0	 1.285714e+00	 8.000000e+00	 1.018087e+01
0	 1.285714e+00	 8.071429e+00	 1.016991e+01
0	 1.285714e+00	 8.142857e+00	 1.015877e+01
0	 1.285714e+00	 8.214286e+00	 1.014744e+01
0	 1.357143e+00	 7.857143e+00	 1.019427e+01
0	 1.357143e+00	 7.928571e+00	 1.018412e+01
0	 1.357143e+00	 8.000000e+00	 1.017379e+01
0	 1.357143e+00	 8.071429e+00	 1.016328e+01
0	 1.357143e+00	 8.142857e+00	 1.015259e+01
0	 1.357143e+00	 8.214286e+00	 1.014172e+01
0	 1.428571e+00	 7.857143e+00	 1.018583e+01
0	 1.428571e+00	 7.928571e+00	 1.017612e+01
0	 1.428571e+00	 8.000000e+00	 1.016624e+01
0	 1.428571e+00	 8.071429e+00	 1.015620e+01
0	 1.428571e+00	 8.142857e+00	 1.014598e+01
0	 1.428571e+00	 8.214286e+00	 1.013559e+01
0	 1.071429e+00	 8.214286e+00	 1.016210e+01
0	 1.071429e+00	 8.285714e+00	 1.015205e+01
0	 1.071429e+00	 8.357143e+00	 1.014170e+01
0	 1.071429e+00	 8.428571e+00	 1.013105e+01
0	 1.071429e+00	 8.500000e+00	 1.012010e+01
0	 1.071429e+00	 8.571429e+00	 1.010886e+01
0	 1.142857e+00	 8.214286e+00	 1.015763e+01
0	 1.142857e+00	 8.285714e+00	 1.014788e+01
0	 1.142857e+00	 8.357143e+00	 1.013785e+01
0	 1.142857e+00	 8.428571e+00	 1.012753e+01
0	 1.142857e+00	 8.500000e+00	 1.011692e+01
0	 1.142857e+00	 8.571429e+00	 1.010602e+01
0	 1.214286e+00	 8.214286e+00	 1.015274e+01
0	 1.214286e+00	 8.285714e+00	 1.014331e+01
0	 1.214286e+00	 8.357143e+00	 1.013361e+01
0	 1.214286e+00	 8.428571e+00	 1.012363e+01
0	 1.214286e+00	 8.500000e+00	 1.011338e+01
0	 1.214286e+00	 8.571429e+00	 1.010285e+01
0	 1.285714e+00	 8.214286e+00	 1.014744e+01
0	 1.285714e+00	 8.285714e+00	 1.013835e+01
0	 1.285714e+00	 8.357143e+00	 1.012899e+01
0	 1.285714e+00	 8.428571e+00	 1.011936e+01
0	 1.285714e+00	 8.500000e+00	 1.010948e+01
0	 1.285714e+00	 8.571429e+00	 1.009933e+01
0	 1.357143e+00	 8.214286e+00	 1.014172e+01
0	 1.357143e+00	 8.285714e+00	 1.013298e+01
0	 1.357143e+00	 8.357143e+00	 1.012398e+01
0	 1.357143e+00	 8.428571e+00	 1.011473e+01
0	 1.357143e+00	 8.500000e+00	 1.010522e+01
0	 1.357143e+00	 8.571429e+00	 1.009546e+01
0	 1.428571e+00	 8.214286e+00	 1.013559e+01
0	 1.428571e+00	 8.285714e+00	 1.012721e+01
0	 1.428571e+00	 8.357143e+00	 1.011858e+01
0	 1.428571e+00	 8.428571e+00	 1.010972e+01
0	 1.428571e+00	 8.500000e+00	 1.010061e+01
0	 1.428571e+00	 8.571429e+00	 1.009126e+01
0	 1.071429e+00	 8.571429e+00	 1.010886e+01
0	 1.071429e+00	 8.642857e+00	 1.010066e+01
0	 1.071429e+00	 8.714286e+00	 1.009208e+01
0	 1.071429e+00	 8.785714e+00	 1.008310e+01
0	 1.071429e+00	 8.857143e+00	 1.007374e+01
0	 1.071429e+00	 8.928571e+00	 1.006398e+01
0	 1.142857e+00	 8.571429e+00	 1.010602e+01
0	 1.142857e+00	 8.642857e+00	 1.009808e+01
0	 1.142857e+00	 8.714286e+00	 1.008975e+01
0	 1.142857e+00	 8.785714e+00	 1.008105e+01
0	 1.142857e+00	 8.857143e+00	 1.007197e+01
0	 1.142857e+00	 8.928571e+00	 1.006251e+01
0	 1.214286e+00	 8.571429e+00	 1.010285e+01
0	 1.214286e+00	 8.642857e+00	 1.009515e+01
0	 1.214286e+00	 8.714286e+00	 1.008710e+01
0	 1.214286e+00	 8.785714e+00	 1.007868e+01
0	 1.214286e+00	 8.857143e+00	 1.006989e+01
0	 1.214286e+00	 8.928571e+00	 1.006075e+01
0	 1.285714e+00	 8.571429e+00	 1.009933e+01
0	 1.285714e+00	 8.642857e+00	 1.009190e+01
0	 1.285714e+00	 8.714286e+00	 1.008412e+01
0	 1.285714e+00	 8.785714e+00	 1.007599e+01
0	 1.285714e+00	 8.857143e+00	 1.006752e+01
0	 1.285714e+00	 8.928571e+00	 1.005869e+01
0	 1.357143e+00	 8.571429e+00	 1.009546e+01
0	 1.357143e+00	 8.642857e+00	 1.008831e+01
0	 1.357143e+00	 8.714286e+00	 1.008082e+01
0	 1.357143e+00	 8.785714e+00	 1.007300e+01
0	 1.357143e+00	 8.857143e+00	 1.006483e+01
0	 1.357143e+00	 8.928571e+00	 1.005633e+01
0	 1.428571e+00	 8.571429e+00	 1.009126e+01
0	 1.428571e+00	 8.642857e+00	 1.008439e+01
0	 1.428571e+00	 8.714286e+00	 1.007720e+01
0	 1.428571e+00	 8.785714e+00	 1.006969e+01
0	 1.428571e+00	 8.857143e+00	 1.006185e+01
0	 1.428571e+00	 8.928571e+00	 1.005368e+01
0	 1.071429e+00	 8.928571e+00	 1.006398e+01
0	 1.071429e+00	 9.000000e+00	 1.005795e+01
0	 1.071429e+00	 9.071429e+00	 1.005141e+01
0	 1.071429e+00	 9.142857e+00	 1.004437e+01
0	 1.071429e+00	 9.214286e+00	 1.003683e+01
0	 1.071429e+00	 9.285714e+00	 1.002878e+01
0	 1.142857e+00	 8.928571e+00	 1.006251e+01
0	 1.142857e+00	 9.000000e+00	 1.005667e+01
0	 1.142857e+00	 9.071429e+00	 1.005033e+01
0	 1.142857e+00	 9.142857e+00	 1.004351e+01
0	 1.142857e+00	 9.214286e+00	 1.003620e+01
0	 1.142857e+00	 9.285714e+00	 1.002840e+01
0	 1.214286e+00	 8.928571e+00	 1.006075e+01
0	 1.214286e+00	 9.000000e+00	 1.005509e+01
0	 1.214286e+00	 9.071429e+00	 1.004896e+01
0	 1.214286e+00	 9.142857e+00	 1.004236e+01
0	 1.214286e+00	 9.214286e+00	 1.003529e+01
0	 1.214286e+00	 9.285714e+00	 1.002775e+01
0	 1.285714e+00	 8.928571e+00	 1.005869e+01
0	 1.285714e+00	 9.000000e+00	 1.005322e+01
0	 1.285714e+00	 9.071429e+00	 1.004731e+01
0	 1.285714e+00	 9.142857e+00	 1.004094e+01
0	 1.285714e+00	 9.214286e+00	 1.003411e+01
0	 1.285714e+00	 9.285714e+00	 1.002682e+01
0	 1.357143e+00	 8.928571e+00	 1.005633e+01
0	 1.357143e+00	 9.000000e+00	 1.005107e+01
0	 1.357143e+00	 9.071429e+00	 1.004536e+01
0	 1.357143e+00	 9.142857e+00	 1.003922e+01
0	 1.357143e+00	 9.214286e+00	 1.003264e+01
0	 1.357143e+00	 9.285714e+00	 1.002562e+01
0	 1.428571e+00	 8.928571e+00	 1.005368e+01
0	 1.428571e+00	 9.000000e+00	 1.004862e+01
0	 1.428571e+00	 9.071429e+00	 1.004313e+01
0	 1.428571e+00	 9.142857e+00	 1.003723e+01
0	 1.428571e+00	 9.214286e+00	 1.003089e+01
0	 1.428571e+00	 9.285714e+00	 1.002413e+01
0	 1.071429e+00	 9.285714e+00	 1.002878e+01
0	 1.071429e+00	 9.357143e+00	 1.002532e+01
0	 1.071429e+00	 9.428571e+00	 1.002122e+01
0	 1.071429e+00	 9.500000e+00	 1.001647e+01
0	 1.071429e+00	 9.571429e+00	 1.001108e+01
0	 1.071429e+00	 9.642857e+00	 1.000504e+01
0	 1.142857e+00	 9.285714e+00	 1.002840e+01
0	 1.142857e+00	 9.357143e+00	 1.002506e+01
0	 1.142857e+00	 9.428571e+00	 1.002110e+01
0	 1.142857e+00	 9.500000e+00	 1.001651e+01
0	 1.142857e+00	 9.571429e+00	 1.001129e+01
0	 1.142857e+00	 9.642857e+00	 1.000545e+01
0	 1.214286e+00	 9.285714e+00	 1.002775e+01
0	 1.214286e+00	 9.357143e+00	 1.002453e+01
0	 1.214286e+00	 9.428571e+00	 1.002070e+01
0	 1.214286e+00	 9.500000e+00	 1.001626e+01
0	 1.214286e+00	 9.571429e+00	 1.001122e+01
0	 1.214286e+00	 9.642857e+00	 1.000558e+01
0	 1.285714e+00	 9.285714e+00	 1.002682e+01
0	 1.285714e+00	 9.357143e+00	 1.002371e+01
0	 1.285714e+00	 9.428571e+00	 1.002001e+01
0	 1.285714e+00	 9.500000e+00	 1.001573e+01
0	 1.285714e+00	 9.571429e+00	 1.001086e+01
0	 1.285714e+00	 9.642857e+00	 1.000541e+01
0	 1.357143e+00	 9.285714e+00	 1.002562e+01
0	 1.357143e+00	 9.357143e+00	 1.002261e+01
0	 1.357143e+00	 9.428571e+00	 1.001905e+01
0	 1.357143e+00	 9.500000e+00	 1.001491e+01
0	 1.357143e+00	 9.571429e+00	 1.001022e+01
0	 1.357143e+00	 9.642857e+00	 1.000496e+01
0	 1.428571e+00	 9.285714e+00	 1.002413e+01
0	 1.428571e+00	 9.357143e+00	 1.002124e+01
0	 1.428571e+00	 9.428571e+00	 1.001780e+01
0	 1.428571e+00	 9.500000e+00	 1.001381e+01
0	 1.428571e+00	 9.571429e+00	 1.000928e+01
0	 1.428571e+00	 9.642857e+00	 1.000421e+01
0	 1.071429e+00	 9.642857e+00	 1.000504e+01
0	 1.071429e+00	 9.714286e+00	 1.000488e+01
0	 1.071429e+00	 9.785714e+00	 1.000389e+01
0	 1.071429e+00	 9.857143e+00	 1.000208e+01
0	 1.071429e+00	 9.928571e+00	 9.999440e+00
0	 1.071429e+00	 1.000000e+01	 9.995972e+00
0	 1.142857e+00	 9.642857e+00	 1.000545e+01
0	 1.142857e+00	 9.714286e+00	 1.000533e+01
0	 1.142857e+00	 9.785714e+00	 1.000440e+01
0	 1.142857e+00	 9.857143e+00	 1.000267e+01
0	 1.142857e+00	 9.928571e+00	 1.000014e+01
0	 1.142857e+00	 1.000000e+01	 9.996810e+00
0	 1.214286e+00	 9.642857e+00	 1.000558e+01
0	 1.214286e+00	 9.714286e+00	 1.000547e+01
0	 1.214286e+00	 9.785714e+00	 1.000459e+01
0	 1.214286e+00	 9.857143e+00	 1.000293e+01
0	 1.214286e+00	 9.928571e+00	 1.000050e+01
0	 1.214286e+00	 1.000000e+01	 9.997295e+00
0	 1.285714e+00	 9.642857e+00	 1.000541e+01
0	 1.285714e+00	 9.714286e+00	 1.000531e+01
0	 1.285714e+00	 9.785714e+00	 1.000446e+01
0	 1.285714e+00	 9.857143e+00	 1.000286e+01
0	 1.285714e+00	 9.928571e+00	 1.000052e+01
0	 1.285714e+00	 1.000000e+01	 9.997428e+00
0	 1.357143e+00	 9.642857e+00	 1.000496e+01
0	 1.357143e+00	 9.714286e+00	 1.000485e+01
0	 1.357143e+00	 9.785714e+00	 1.000402e+01
0	 1.357143e+00	 9.857143e+00	 1.000247e+01
0	 1.357143e+00	 9.928571e+00	 1.000020e+01
0	 1.357143e+00	 1.000000e+01	 9.997208e+00
0	 1.428571e+00	 9.642857e+00	 1.000421e+01
0	 1.428571e+00	 9.714286e+00	 1.000408e+01
0	 1.428571e+00	 9.785714e+00	 1.000326e+01
0	 1.428571e+00	 9.857143e+00	 1.000174e+01
0	 1.428571e+00	 9.928571e+00	 9.999536e+00
0	 1.428571e+00	 1.000000e+01	 9.996635e+00
0	 1.428571e+00	 0.000000e+00	 2.466591e+01
0	 1.428571e+00	 7.142857e-02	 1.296625e+01
0	 1.428571e+00	 1.428571e-01	 1.280308e+00
0	 1.428571e+00	 2.142857e-01	-1.039191e+01
0	 1.428571e+00	 2.857143e-01	-2.205041e+01
0	 1.428571e+00	 3.571429e-01	-3.369518e+01
0	 1.500000e+00	 0.000000e+00	-2.371509e-01
0	 1.500000e+00	 7.142857e-02	-3.503214e+00
0	 1.500000e+00	 1.428571e-01	-6.320090e+00
0	 1.500000e+00	 2.142857e-01	-8.687778e+00
0	 1.500000e+00	 2.857143e-01	-1.060628e+01
0	 1.500000e+00	 3.571429e-01	-1.207559e+01
0	 1.571429e+00	 0.000000e+00	-1.706800e+01
0	 1.571429e+00	 7.142857e-02	-1.491773e+01
0	 1.571429e+00	 1.428571e-01	-1.188281e+01
0	 1.571429e+00	 2.142857e-01	-7.963242e+00
0	 1.571429e+00	 2.857143e-01	-3.159016e+00
0	 1.571429e+00	 3.571429e-01	 2.529863e+00
0	 1.642857e+00	 0.000000e+00	-2.582663e+01
0	 1.642857e+00	 7.142857e-02	-2.127731e+01
0	 1.642857e+00	 1.428571e-01	-1.540786e+01
0	 1.642857e+00	 2.142857e-01	-8.218300e+00
0	 1.642857e+00	 2.857143e-01	 2.913833e-01
0	 1.642857e+00	 3.571429e-01	 1.012119e+01
0	 1.714286e+00	 0.000000e+00	-2.651305e+01
0	 1.714286e+00	 7.142857e-02	-2.258194e+01
0	 1.714286e+00	 1.428571e-01	-1.689524e+01
0	 1.714286e+00	 2.142857e-01	-9.452953e+00
0	 1.714286e+00	 2.857143e-01	-2.550805e-01
0	 1.714286e+00	 3.571429e-01	 1.069838e+01
0	 1.785714e+00	 0.000000e+00	-1.912726e+01
0	 1.785714e+00	 7.142857e-02	-1.883162e+01
0	 1.785714e+00	 1.428571e-01	-1.634494e+01
0	 1.785714e+00	 2.142857e-01	-1.166720e+01
0	 1.785714e+00	 2.857143e-01	-4.798408e+00
0	 1.785714e+00	 3.571429e-01	 4.261439e+00
0	 1.428571e+00	 3.571429e-01	-3.369518e+01
0	 1.428571e+00	 4.285714e-01	-1.800427e+01
0	 1.428571e+00	 5.000000e-01	-2.427182e+00
0	 1.428571e+00	 5.714286e-01	 1.303609e+01
0	 1.428571e+00	 6.428571e-01	 2.838555e+01
0	 1.428571e+00	 7.142857e-01	 4.362118e+01
0	 1.500000e+00	 3.571429e-01	-1.207559e+01
0	 1.500000e+00	 4.285714e-01	-2.027958e+00
0	 1.500000e+00	 5.000000e-01	 7.927607e+00
0	 1.500000e+00	 5.714286e-01	 1.779110e+01
0	 1.500000e+00	 6.428571e-01	 2.756252e+01
0	 1.500000e+00	 7.142857e-01	 3.724187e+01
0	 1.571429e+00	 3.571429e-01	 2.529863e+00
0	 1.571429e+00	 4.285714e-01	 8.335722e+00
0	 1.571429e+00	 5.000000e-01	 1.407126e+01
0	 1.571429e+00	 5.714286e-01	 1.973647e+01
0	 1.571429e+00	 6.428571e-01	 2.533135e+01
0	 1.571429e+00	 7.142857e-01	 3.085592e+01
0	 1.642857e+00	 3.571429e-01	 1.012119e+01
0	 1.642857e+00	 4.285714e-01	 1.308677e+01
0	 1.642857e+00	 5.000000e-01	 1.600377e+01
0	 1.642857e+00	 5.714286e-01	 1.887219e+01
0	 1.642857e+00	 6.428571e-01	 2.169204e+01
0	 1.642857e+00	 7.142857e-01	 2.446331e+01
0	 1.714286e+00	 3.571429e-01	 1.069838e+01
0	 1.714286e+00	 4.285714e-01	 1.222517e+01
0	 1.714286e+00	 5.000000e-01	 1.372514e+01
0	 1.714286e+00	 5.714286e-01	 1.519827e+01
0	 1.714286e+00	 6.428571e-01	 1.664457e+01
0	 1.714286e+00	 7.142857e-01	 1.806405e+01
0	 1.785714e+00	 3.571429e-01	 4.261439e+00
0	 1.785714e+00	 4.285714e-01	 5.750943e+00
0	 1.785714e+00	 5.000000e-01	 7.235365e+00
0	 1.785714e+00	 5.714286e-01	 8.714705e+00
0	 1.785714e+00	 6.428571e-01	 1.018896e+01
0	 1.785714e+00	 7.142857e-01	 1.165814e+01
0	 1.428571e+00	 7.142857e-01	 4.362118e+01
0	 1.428571e+00	 7.857143e-01	 4.882137e+01
0	 1.428571e+00	 8.571429e-01	 5.391658e+01
0	 1.428571e+00	 9.285714e-01	 5.890681e+01
0	 1.428571e+00	 1.000000e+00	 6.379208e+01
0	 1.428571e+00	 1.071429e+00	 6.857237e+01
0	 1.500000e+00	 7.142857e-01	 3.724187e+01
0	 1.500000e+00	 7.857143e-01	 3.946736e+01
0	 1.500000e+00	 8.571429e-01	 4.154265e+01
0	 1.500000e+00	 9.285714e-01	 4.346774e+01
0	 1.500000e+00	 1.000000e+00	 4.524263e+01
0	 1.500000e+00	 1.071429e+00	 4.686732e+01
0	 1.571429e+00	 7.142857e-01	 3.085592e+01
0	 1.571429e+00	 7.857143e-01	 3.101272e+01
0	 1.571429e+00	 8.571429e-01	 3.097410e+01
0	 1.571429e+00	 9.285714e-01	 3.074006e+01
0	 1.571429e+00	 1.000000e+00	 3.031059e+01
0	 1.571429e+00	 1.071429e+00	 2.968571e+01
0	 1.642857e+00	 7.142857e-01	 2.446331e+01
0	 1.642857e+00	 7.857143e-01	 2.345744e+01
0	 1.642857e+00	 8.571429e-01	 2.221093e+01
0	 1.642857e+00	 9.285714e-01	 2.072377e+01
0	 1.642857e+00	 1.000000e+00	 1.899597e+01
0	 1.642857e+00	 1.071429e+00	 1.702752e+01
0	 1.714286e+00	 7.142857e-01	 1.806405e+01
0	 1.714286e+00	 7.857143e-01	 1.680153e+01
0	 1.714286e+00	 8.571429e-01	 1.525315e+01
0	 1.714286e+00	 9.285714e-01	 1.341889e+01
0	 1.714286e+00	 1.000000e+00	 1.129876e+01
0	 1.714286e+00	 1.071429e+00	 8.892764e+00
0	 1.785714e+00	 7.142857e-01	 1.165814e+01
0	 1.785714e+00	 7.857143e-01	 1.104499e+01
0	 1.785714e+00	 8.571429e-01	 1.010074e+01
0	 1.785714e+00	 9.285714e-01	 8.825401e+00
0	 1.785714e+00	 1.000000e+00	 7.218966e+00
0	 1.785714e+00	 1.071429e+00	 5.281436e+00
0	 1.428571e+00	 1.071429e+00	 6.857237e+01
0	 1.428571e+00	 1.142857e+00	 5.830543e+01
0	 1.428571e+00	 1.214286e+00	 4.738208e+01
0	 1.428571e+00	 1.285714e+00	 3.580230e+01
0	 1.428571e+00	 1.357143e+00	 2.356609e+01
0	 1.428571e+00	 1.428571e+00	 1.067346e+01
0	 1.500000e+00	 1.071429e+00	 4.686732e+01
0	 1.500000e+00	 1.142857e+00	 4.078598e+01
0	 1.500000e+00	 1.214286e+00	 3.430882e+01
0	 1.500000e+00	 1.285714e+00	 2.743585e+01
0	 1.500000e+00	 1.357143e+00	 2.016707e+01
0	 1.500000e+00	 1.428571e+00	 1.250247e+01
0	 1.571429e+00	 1.071429e+00	 2.968571e+01
0	 1.571429e+00	 1.142857e+00	 2.667411e+01
0	 1.571429e+00	 1.214286e+00	 2.352731e+01
0	 1.571429e+00	 1.285714e+00	 2.024531e+01
0	 1.571429e+00	 1.357143e+00	 1.682811e+01
0	 1.571429e+00	 1.428571e+00	 1.327571e+01
0	 1.642857e+00	 1.071429e+00	 1.702752e+01
0	 1.642857e+00	 1.142857e+00	 1.596983e+01
0	 1.642857e+00	 1.214286e+00	 1.503756e+01
0	 1.642857e+00	 1.285714e+00	 1.423069e+01
0	 1.642857e+00	 1.357143e+00	 1.354923e+01
0	 1.642857e+00	 1.428571e+00	 1.299319e+01
0	 1.714286e+00	 1.071429e+00	 8.892764e+00
0	 1.714286e+00	 1.142857e+00	 8.673148e+00
0	 1.714286e+00	 1.214286e+00	 8.839553e+00
0	 1.714286e+00	 1.285714e+00	 9.391979e+00
0	 1.714286e+00	 1.357143e+00	 1.033043e+01
0	 1.714286e+00	 1.428571e+00	 1.165490e+01
0	 1.785714e+00	 1.071429e+00	 5.281436e+00
0	 1.785714e+00	 1.142857e+00	 4.784051e+00
0	 1.785714e+00	 1.214286e+00	 4.933300e+00
0	 1.785714e+00	 1.285714e+00	 5.729181e+00
0	 1.785714e+00	 1.357143e+00	 7.171696e+00
0	 1.785714e+00	 1.428571e+00	 9.260843e+00
0	 1.428571e+00	 1.428571e+00	 1.067346e+01
0	 1.428571e+00	 1.500000e+00	 8.617280e+00
0	 1.428571e+00	 1.571429e+00	 7.687171e+00
0	 1.428571e+00	 1.642857e+00	 7.883136e+00
0	 1.428571e+00	 1.714286e+00	 9.205174e+00
0	 1.428571e+00	 1.785714e+00	 1.165329e+01
0	 1.500000e+00	 1.428571e+00	 1.250247e+01
0	 1.500000e+00	 1.500000e+00	 1.092510e+01
0	 1.500000e+00	 1.571429e+00	 1.016497e+01
0	 1.500000e+00	 1.642857e+00	 1.022207e+01
0	 1.500000e+00	 1.714286e+00	 1.109639e+01
0	 1.500000e+00	 1.785714e+00	 1.278795e+01
0	 1.571429e+00	 1.428571e+00	 1.327571e+01
0	 1.571429e+00	 1.500000e+00	 1.225998e+01
0	 1.571429e+00	 1.571429e+00	 1.175263e+01
0	 1.571429e+00	 1.642857e+00	 1.175367e+01
0	 1.571429e+00	 1.714286e+00	 1.226310e+01
0	 1.571429e+00	 1.785714e+00	 1.328091e+01
0	 1.642857e+00	 1.428571e+00	 1.299319e+01
0	 1.642857e+00	 1.500000e+00	 1.262190e+01
0	 1.642857e+00	 1.571429e+00	 1.245015e+01
0	 1.642857e+00	 1.642857e+00	 1.247794e+01
0	 1.642857e+00	 1.714286e+00	 1.270528e+01
0	 1.642857e+00	 1.785714e+00	 1.313217e+01
0	 1.714286e+00	 1.428571e+00	 1.165490e+01
0	 1.714286e+00	 1.500000e+00	 1.201086e+01
0	 1.714286e+00	 1.571429e+00	 1.225753e+01
0	 1.714286e+00	 1.642857e+00	 1.239489e+01
0	 1.714286e+00	 1.714286e+00	 1.242296e+01
0	 1.714286e+00	 1.785714e+00	 1.234172e+01
0	 1.785714e+00	 1.428571e+00	 9.260843e+00
0	 1.785714e+00	 1.500000e+00	 1.042688e+01
0	 1.785714e+00	 1.571429e+00	 1.117477e+01
0	 1.785714e+00	 1.642857e+00	 1.150451e+01
0	 1.785714e+00	 1.714286e+00	 1.141611e+01
0	 1.785714e+00	 1.785714e+00	 1.090957e+01
0	 1.428571e+00	 1.785714e+00	 1.165329e+01
0	 1.428571e+00	 1.857143e+00	 1.225626e+01
0	 1.428571e+00	 1.928571e+00	 1.253282e+01
0	 1.428571e+00	 2.000000e+00	 1.248299e+01
0	 1.428571e+00	 2.071429e+00	 1.210674e+01
0	 1.428571e+00	 2.142857e+00	 1.140409e+01
0	 1.500000e+00	 1.785714e+00	 1.278795e+01
0	 1.500000e+00	 1.857143e+00	 1.281168e+01
0	 1.500000e+00	 1.928571e+00	 1.258438e+01
0	 1.500000e+00	 2.000000e+00	 1.210607e+01
0	 1.500000e+00	 2.071429e+00	 1.137672e+01
0	 1.500000e+00	 2.142857e+00	 1.039635e+01
0	 1.571429e+00	 1.785714e+00	 1.328091e+01
0	 1.571429e+00	 1.857143e+00	 1.290809e+01
0	 1.571429e+00	 1.928571e+00	 1.235962e+01
0	 1.571429e+00	 2.000000e+00	 1.163551e+01
0	 1.571429e+00	 2.071429e+00	 1.073576e+01
0	 1.571429e+00	 2.142857e+00	 9.660358e+00
0	 1.642857e+00	 1.785714e+00	 1.313217e+01
0	 1.642857e+00	 1.857143e+00	 1.254548e+01
0	 1.642857e+00	 1.928571e+00	 1.185853e+01
0	 1.642857e+00	 2.000000e+00	 1.107132e+01
0	 1.642857e+00	 2.071429e+00	 1.018384e+01
0	 1.642857e+00	 2.142857e+00	 9.196103e+00
0	 1.714286e+00	 1.785714e+00	 1.234172e+01
0	 1.714286e+00	 1.857143e+00	 1.172386e+01
0	 1.714286e+00	 1.928571e+00	 1.108111e+01
0	 1.714286e+00	 2.000000e+00	 1.041348e+01
0	 1.714286e+00	 2.071429e+00	 9.720976e+00
0	 1.714286e+00	 2.142857e+00	 9.003587e+00
0	 1.785714e+00	 1.785714e+00	 1.090957e+01
0	 1.785714e+00	 1.857143e+00	 1.044322e+01
0	 1.785714e+00	 1.928571e+00	 1.002737e+01
0	 1.785714e+00	 2.000000e+00	 9.662015e+00
0	 1.785714e+00	 2.071429e+00	 9.347164e+00
0	 1.785714e+00	 2.142857e+00	 9.082811e+00
0	 1.428571e+00	 2.142857e+00	 1.140409e+01
0	 1.428571e+00	 2.214286e+00	 1.128192e+01
0	 1.428571e+00	 2.285714e+00	 1.120924e+01
0	 1.428571e+00	 2.357143e+00	 1.118607e+01
0	 1.428571e+00	 2.428571e+00	 1.121239e+01
0	 1.428571e+00	 2.500000e+00	 1.128821e+01
0	 1.500000e+00	 2.142857e+00	 1.039635e+01
0	 1.500000e+00	 2.214286e+00	 1.051483e+01
0	 1.500000e+00	 2.285714e+00	 1.066321e+01
0	 1.500000e+00	 2.357143e+00	 1.084150e+01
0	 1.500000e+00	 2.428571e+00	 1.104969e+01
0	 1.500000e+00	 2.500000e+00	 1.128779e+01
0	 1.571429e+00	 2.142857e+00	 9.660358e+00
0	 1.571429e+00	 2.214286e+00	 9.943520e+00
0	 1.571429e+00	 2.285714e+00	 1.023699e+01
0	 1.571429e+00	 2.357143e+00	 1.054078e+01
0	 1.571429e+00	 2.428571e+00	 1.085487e+01
0	 1.571429e+00	 2.500000e+00	 1.117928e+01
0	 1.642857e+00	 2.142857e+00	 9.196103e+00
0	 1.642857e+00	 2.214286e+00	 9.567984e+00
0	 1.642857e+00	 2.285714e+00	 9.930584e+00
0	 1.642857e+00	 2.357143e+00	 1.028390e+01
0	 1.642857e+00	 2.428571e+00	 1.062794e+01
0	 1.642857e+00	 2.500000e+00	 1.096269e+01
0	 1.714286e+00	 2.142857e+00	 9.003587e+00
0	 1.714286e+00	 2.214286e+00	 9.388225e+00
0	 1.714286e+00	 2.285714e+00	 9.743988e+00
0	 1.714286e+00	 2.357143e+00	 1.007088e+01
0	 1.714286e+00	 2.428571e+00	 1.036889e+01
0	 1.714286e+00	 2.500000e+00	 1.063803e+01
0	 1.785714e+00	 2.142857e+00	 9.082811e+00
0	 1.785714e+00	 2.214286e+00	 9.404241e+00
0	 1.785714e+00	 2.285714e+00	 9.677203e+00
0	 1.785714e+00	 2.357143e+00	 9.901696e+00
0	 1.785714e+00	 2.428571e+00	 1.007772e+01
0	 1.785714e+00	 2.500000e+00	 1.020528e+01
0	 1.428571e+00	 2.500000e+00	 1.128821e+01
0	 1.428571e+00	 2.571429e+00	 1.130354e+01
0	 1.428571e+00	 2.642857e+00	 1.132251e+01
0	 1.428571e+00	 2.714286e+00	 1.134510e+01
0	 1.428571e+00	 2.785714e+00	 1.137133e+01
0	 1.428571e+00	 2.857143e+00	 1.140119e+01
0	 1.500000e+00	 2.500000e+00	 1.128779e+01
0	 1.500000e+00	 2.571429e+00	 1.123618e+01
0	 1.500000e+00	 2.642857e+00	 1.119202e+01
0	 1.500000e+00	 2.714286e+00	 1.115531e+01
0	 1.500000e+00	 2.785714e+00	 1.112605e+01
0	 1.500000e+00	 2.857143e+00	 1.110424e+01
0	 1.571429e+00	 2.500000e+00	 1.117928e+01
0	 1.571429e+00	 2.571429e+00	 1.108859e+01
0	 1.571429e+00	 2.642857e+00	 1.100916e+01
0	 1.571429e+00	 2.714286e+00	 1.094100e+01
0	 1.571429e+00	 2.785714e+00	 1.088411e+01
0	 1.571429e+00	 2.857143e+00	 1.083848e+01
0	 1.642857e+00	 2.500000e+00	 1.096269e+01
0	 1.642857e+00	 2.571429e+00	 1.086076e+01
0	 1.642857e+00	 2.642857e+00	 1.077392e+01
0	 1.642857e+00	 2.714286e+00	 1.070216e+01
0	 1.642857e+00	 2.785714e+00	 1.064549e+01
0	 1.642857e+00	 2.857143e+00	 1.060390e+01
0	 1.714286e+00	 2.500000e+00	 1.063803e+01
0	 1.714286e+00	 2.571429e+00	 1.055271e+01
0	 1.714286e+00	 2.642857e+00	 1.048631e+01
0	 1.714286e+00	 2.714286e+00	 1.043880e+01
0	 1.714286e+00	 2.785714e+00	 1.041020e+01
0	 1.714286e+00	 2.857143e+00	 1.040050e+01
0	 1.785714e+00	 2.500000e+00	 1.020528e+01
0	 1.785714e+00	 2.571429e+00	 1.016444e+01
0	 1.785714e+00	 2.642857e+00	 1.014631e+01
0	 1.785714e+00	 2.714286e+00	 1.015091e+01
0	 1.785714e+00	 2.785714e+00	 1.017823e+01
0	 1.785714e+00	 2.857143e+00	 1.022827e+01
0	 1.428571e+00	 2.857143e+00	 1.140119e+01
0	 1.428571e+00	 2.928571e+00	 1.135617e+01
0	 1.428571e+00	 3.000000e+00	 1.131625e+01
0	 1.428571e+00	 3.071429e+00	 1.128142e+01
0	 1.428571e+00	 3.142857e+00	 1.125169e+01
0	 1.428571e+00	 3.214286e+00	 1.122705e+01
0	 1.500000e+00	 2.857143e+00	 1.110424e+01
0	 1.500000e+00	 2.928571e+00	 1.109544e+01
0	 1.500000e+00	 3.000000e+00	 1.108979e+01
0	 1.500000e+00	 3.071429e+00	 1.108730e+01
0	 1.500000e+00	 3.142857e+00	 1.108796e+01
0	 1.500000e+00	 3.214286e+00	 1.109177e+01
0	 1.571429e+00	 2.857143e+00	 1.083848e+01
0	 1.571429e+00	 2.928571e+00	 1.085745e+01
0	 1.571429e+00	 3.000000e+00	 1.087763e+01
0	 1.571429e+00	 3.071429e+00	 1.089902e+01
0	 1.571429e+00	 3.142857e+00	 1.092163e+01
0	 1.571429e+00	 3.214286e+00	 1.094545e+01
0	 1.642857e+00	 2.857143e+00	 1.060390e+01
0	 1.642857e+00	 2.928571e+00	 1.064219e+01
0	 1.642857e+00	 3.000000e+00	 1.067975e+01
0	 1.642857e+00	 3.071429e+00	 1.071658e+01
0	 1.642857e+00	 3.142857e+00	 1.075269e+01
0	 1.642857e+00	 3.214286e+00	 1.078807e+01
0	 1.714286e+00	 2.857143e+00	 1.040050e+01
0	 1.714286e+00	 2.928571e+00	 1.044966e+01
0	 1.714286e+00	 3.000000e+00	 1.049616e+01
0	 1.714286e+00	 3.071429e+00	 1.053999e+01
0	 1.714286e+00	 3.142857e+00	 1.058116e+01
0	 1.714286e+00	 3.214286e+00	 1.061966e+01
0	 1.785714e+00	 2.857143e+00	 1.022827e+01
0	 1.785714e+00	 2.928571e+00	 1.027987e+01
0	 1.785714e+00	 3.000000e+00	 1.032686e+01
0	 1.785714e+00	 3.071429e+00	 1.036924e+01
0	 1.785714e+00	 3.142857e+00	 1.040702e+01
0	 1.785714e+00	 3.214286e+00	 1.044019e+01
0	 1.428571e+00	 3.214286e+00	 1.122705e+01
0	 1.428571e+00	 3.285714e+00	 1.120464e+01
0	 1.428571e+00	 3.357143e+00	 1.118609e+01
0	 1.428571e+00	 3.428571e+00	 1.117140e+01
0	 1.428571e+00	 3.500000e+00	 1.116058e+01
0	 1.428571e+00	 3.571429e+00	 1.115362e+01
0	 1.500000e+00	 3.214286e+00	 1.109177e+01
0	 1.500000e+00	 3.285714e+00	 1.106957e+01
0	 1.500000e+00	 3.357143e+00	 1.105169e+01
0	 1.500000e+00	 3.428571e+00	 1.103812e+01
0	 1.500000e+00	 3.500000e+00	 1.102886e+01
0	 1.500000e+00	 3.571429e+00	 1.102392e+01
0	 1.571429e+00	 3.214286e+00	 1.094545e+01
0	 1.571429e+00	 3.285714e+00	 1.092555e+01
0	 1.571429e+00	 3.357143e+00	 1.091042e+01
0	 1.571429e+00	 3.428571e+00	 1.090007e+01
0	 1.571429e+00	 3.500000e+00	 1.089448e+01
0	 1.571429e+00	 3.571429e+00	 1.089365e+01
0	 1.642857e+00	 3.214286e+00	 1.078807e+01
0	 1.642857e+00	 3.285714e+00	 1.077258e+01
0	 1.642857e+00	 3.357143e+00	 1.076231e+01
0	 1.642857e+00	 3.428571e+00	 1.075726e+01
0	 1.642857e+00	 3.500000e+00	 1.075743e+01
0	 1.642857e+00	 3.571429e+00	 1.076282e+01
0	 1.714286e+00	 3.214286e+00	 1.061966e+01
0	 1.714286e+00	 3.285714e+00	 1.061066e+01
0	 1.714286e+00	 3.357143e+00	 1.060734e+01
0	 1.714286e+00	 3.428571e+00	 1.060969e+01
0	 1.714286e+00	 3.500000e+00	 1.061771e+01
0	 1.714286e+00	 3.571429e+00	 1.063141e+01
0	 1.785714e+00	 3.214286e+00	 1.044019e+01
0	 1.785714e+00	 3.285714e+00	 1.043979e+01
0	 1.785714e+00	 3.357143e+00	 1.044551e+01
0	 1.785714e+00	 3.428571e+00	 1.045736e+01
0	 1.785714e+00	 3.500000e+00	 1.047533e+01
0	 1.785714e+00	 3.571429e+00	 1.049944e+01
0	 1.428571e+00	 3.571429e+00	 1.115362e+01
0	 1.428571e+00	 3.642857e+00	 1.112625e+01
0	 1.428571e+00	 3.714286e+00	 1.110052e+01
0	 1.428571e+00	 3.785714e+00	 1.107642e+01
0	 1.428571e+00	 3.857143e+00	 1.105397e+01
0	 1.428571e+00	 3.928571e+00	 1.103315e+01
0	 1.500000e+00	 3.571429e+00	 1.102392e+01
0	 1.500000e+00	 3.642857e+00	 1.100366e+01
0	 1.500000e+00	 3.714286e+00	 1.098486e+01
0	 1.500000e+00	 3.785714e+00	 1.096750e+01
0	 1.500000e+00	 3.857143e+00	 1.095159e+01
0	 1.500000e+00	 3.928571e+00	 1.093712e+01
0	 1.571429e+00	 3.571429e+00	 1.089365e+01
0	 1.571429e+00	 3.642857e+00	 1.088013e+01
0	 1.571429e+00	 3.714286e+00	 1.086787e+01
0	 1.571429e+00	 3.785714e+00	 1.085686e+01
0	 1.571429e+00	 3.857143e+00	 1.084711e+01
0	 1.571429e+00	 3.928571e+00	 1.083861e+01
0	 1.642857e+00	 3.571429e+00	 1.076282e+01
0	 1.642857e+00	 3.642857e+00	 1.075565e+01
0	 1.642857e+00	 3.714286e+00	 1.074954e+01
0	 1.642857e+00	 3.785714e+00	 1.074450e+01
0	 1.642857e+00	 3.857143e+00	 1.074053e+01
0	 1.642857e+00	 3.928571e+00	 1.073762e+01
0	 1.714286e+00	 3.571429e+00	 1.063141e+01
0	 1.714286e+00	 3.642857e+00	 1.063021e+01
0	 1.714286e+00	 3.714286e+00	 1.062988e+01
0	 1.714286e+00	 3.785714e+00	 1.063043e+01
0	 1.714286e+00	 3.857143e+00	 1.063185e+01
0	 1.714286e+00	 3.928571e+00	 1.063415e+01
0	 1.785714e+00	 3.571429e+00	 1.049944e+01
0	 1.785714e+00	 3.642857e+00	 1.050382e+01
0	 1.785714e+00	 3.714286e+00	 1.050889e+01
0	 1.785714e+00	 3.785714e+00	 1.051464e+01
0	 1.785714e+00	 3.857143e+00	 1.052107e+01
0	 1.785714e+00	 3.928571e+00	 1.052819e+01
0	 1.428571e+00	 3.928571e+00	 1.103315e+01
0	 1.428571e+00	 4.000000e+00	 1.101244e+01
0	 1.428571e+00	 4.071429e+00	 1.099293e+01
0	 1.428571e+00	 4.142857e+00	 1.097460e+01
0	 1.428571e+00	 4.214286e+00	 1.095748e+01
0	 1.428571e+00	 4.285714e+00	 1.094155e+01
0	 1.500000e+00	 3.928571e+00	 1.093712e+01
0	 1.500000e+00	 4.000000e+00	 1.091954e+01
0	 1.500000e+00	 4.071429e+00	 1.090328e+01
0	 1.500000e+00	 4.142857e+00	 1.088834e+01
0	 1.500000e+00	 4.214286e+00	 1.087472e+01
0	 1.500000e+00	 4.285714e+00	 1.086241e+01
0	 1.571429e+00	 3.928571e+00	 1.083861e+01
0	 1.571429e+00	 4.000000e+00	 1.082433e+01
0	 1.571429e+00	 4.071429e+00	 1.081149e+01
0	 1.571429e+00	 4.142857e+00	 1.080009e+01
0	 1.571429e+00	 4.214286e+00	 1.079013e+01
0	 1.571429e+00	 4.285714e+00	 1.078161e+01
0	 1.642857e+00	 3.928571e+00	 1.073762e+01
0	 1.642857e+00	 4.000000e+00	 1.072680e+01
0	 1.642857e+00	 4.071429e+00	 1.071754e+01
0	 1.642857e+00	 4.142857e+00	 1.070984e+01
0	 1.642857e+00	 4.214286e+00	 1.070372e+01
0	 1.642857e+00	 4.285714e+00	 1.069915e+01
0	 1.714286e+00	 3.928571e+00	 1.063415e+01
0	 1.714286e+00	 4.000000e+00	 1.062695e+01
0	 1.714286e+00	 4.071429e+00	 1.062143e+01
0	 1.714286e+00	 4.142857e+00	 1.061761e+01
0	 1.714286e+00	 4.214286e+00	 1.061547e+01
0	 1.714286e+00	 4.285714e+00	 1.061502e+01
0	 1.785714e+00	 3.928571e+00	 1.052819e+01
0	 1.785714e+00	 4.000000e+00	 1.052478e+01
0	 1.785714e+00	 4.071429e+00	 1.052318e+01
0	 1.785714e+00	 4.142857e+00	 1.052338e+01
0	 1.785714e+00	 4.214286e+00	 1.052540e+01
0	 1.785714e+00	 4.285714e+00	 1.052922e+01
0	 1.428571e+00	 4.285714e+00	 1.094155e+01
0	 1.428571e+00	 4.357143e+00	 1.092039e+01
0	 1.428571e+00	 4.428571e+00	 1.090018e+01
0	 1.428571e+00	 4.500000e+00	 1.088094e+01
0	 1.428571e+00	 4.571429e+00	 1.086266e+01
0	 1.428571e+00	 4.642857e+00	 1.084535e+01
0	 1.500000e+00	 4.285714e+00	 1.086241e+01
0	 1.500000e+00	 4.357143e+00	 1.084438e+01
0	 1.500000e+00	 4.428571e+00	 1.082727e+01
0	 1.500000e+00	 4.500000e+00	 1.081111e+01
0	 1.500000e+00	 4.571429e+00	 1.079587e+01
0	 1.500000e+00	 4.642857e+00	 1.078158e+01
0	 1.571429e+00	 4.285714e+00	 1.078161e+01
0	 1.571429e+00	 4.357143e+00	 1.076676e+01
0	 1.571429e+00	 4.428571e+00	 1.075281e+01
0	 1.571429e+00	 4.500000e+00	 1.073977e+01
0	 1.571429e+00	 4.571429e+00	 1.072763e+01
0	 1.571429e+00	 4.642857e+00	 1.071641e+01
0	 1.642857e+00	 4.285714e+00	 1.069915e+01
0	 1.642857e+00	 4.357143e+00	 1.068752e+01
0	 1.642857e+00	 4.428571e+00	 1.067678e+01
0	 1.642857e+00	 4.500000e+00	 1.066692e+01
0	 1.642857e+00	 4.571429e+00	 1.065794e+01
0	 1.642857e+00	 4.642857e+00	 1.064984e+01
0	 1.714286e+00	 4.285714e+00	 1.061502e+01
0	 1.714286e+00	 4.357143e+00	 1.060668e+01
0	 1.714286e+00	 4.428571e+00	 1.059920e+01
0	 1.714286e+00	 4.500000e+00	 1.059257e+01
0	 1.714286e+00	 4.571429e+00	 1.058679e+01
0	 1.714286e+00	 4.642857e+00	 1.058187e+01
0	 1.785714e+00	 4.285714e+00	 1.052922e+01
0	 1.785714e+00	 4.357143e+00	 1.052422e+01
0	 1.785714e+00	 4.428571e+00	 1.052005e+01
0	 1.785714e+00	 4.500000e+00	 1.051671e+01
0	 1.785714e+00	 4.571429e+00	 1.051419e+01
0	 1.785714e+00	 4.642857e+00	 1.051251e+01
0	 1.428571e+00	 4.642857e+00	 1.084535e+01
0	 1.428571e+00	 4.714286e+00	 1.082637e+01
0	 1.428571e+00	 4.785714e+00	 1.080801e+01
0	 1.428571e+00	 4.857143e+00	 1.079027e+01
0	 1.428571e+00	 4.928571e+00	 1.077315e+01
0	 1.428571e+00	 5.000000e+00	 1.075665e+01
0	 1.500000e+00	 4.642857e+00	 1.078158e+01
0	 1.500000e+00	 4.714286e+00	 1.076485e+01
0	 1.500000e+00	 4.785714e+00	 1.074878e+01
0	 1.500000e+00	 4.857143e+00	 1.073337e+01
0	 1.500000e+00	 4.928571e+00	 1.071863e+01
0	 1.500000e+00	 5.000000e+00	 1.070454e+01
0	 1.571429e+00	 4.642857e+00	 1.071641e+01
0	 1.571429e+00	 4.714286e+00	 1.070198e+01
0	 1.571429e+00	 4.785714e+00	 1.068825e+01
0	 1.571429e+00	 4.857143e+00	 1.067522e+01
0	 1.571429e+00	 4.928571e+00	 1.066288e+01
0	 1.571429e+00	 5.000000e+00	 1.065125e+01
0	 1.642857e+00	 4.642857e+00	 1.064984e+01
0	 1.642857e+00	 4.714286e+00	 1.063775e+01
0	 1.642857e+00	 4.785714e+00	 1.062641e+01
0	 1.642857e+00	 4.857143e+00	 1.061580e+01
0	 1.642857e+00	 4.928571e+00	 1.060593e+01
0	 1.642857e+00	 5.000000e+00	 1.059679e+01
0	 1.714286e+00	 4.642857e+00	 1.058187e+01
0	 1.714286e+00	 4.714286e+00	 1.057218e+01
0	 1.714286e+00	 4.785714e+00	 1.056326e+01
0	 1.714286e+00	 4.857143e+00	 1.055512e+01
0	 1.714286e+00	 4.928571e+00	 1.054775e+01
0	 1.714286e+00	 5.000000e+00	 1.054116e+01
0	 1.785714e+00	 4.642857e+00	 1.051251e+01
0	 1.785714e+00	 4.714286e+00	 1.050525e+01
0	 1.785714e+00	 4.785714e+00	 1.049880e+01
0	 1.785714e+00	 4.857143e+00	 1.049318e+01
0	 1.785714e+00	 4.928571e+00	 1.048836e+01
0	 1.785714e+00	 5.000000e+00	 1.048436e+01
0	 1.428571e+00	 5.000000e+00	 1.075665e+01
0	 1.428571e+00	 5.071429e+00	 1.073836e+01
0	 1.428571e+00	 5.142857e+00	 1.072060e+01
0	 1.428571e+00	 5.214286e+00	 1.070336e+01
0	 1.428571e+00	 5.285714e+00	 1.068664e+01
0	 1.428571e+00	 5.357143e+00	 1.067045e+01
0	 1.500000e+00	 5.000000e+00	 1.070454e+01
0	 1.500000e+00	 5.071429e+00	 1.068818e+01
0	 1.500000e+00	 5.142857e+00	 1.067235e+01
0	 1.500000e+00	 5.214286e+00	 1.065705e+01
0	 1.500000e+00	 5.285714e+00	 1.064228e+01
0	 1.500000e+00	 5.357143e+00	 1.062804e+01
0	 1.571429e+00	 5.000000e+00	 1.065125e+01
0	 1.571429e+00	 5.071429e+00	 1.063685e+01
0	 1.571429e+00	 5.142857e+00	 1.062299e+01
0	 1.571429e+00	 5.214286e+00	 1.060967e+01
0	 1.571429e+00	 5.285714e+00	 1.059688e+01
0	 1.571429e+00	 5.357143e+00	 1.058462e+01
0	 1.642857e+00	 5.000000e+00	 1.059679e+01
0	 1.642857e+00	 5.071429e+00	 1.058439e+01
0	 1.642857e+00	 5.142857e+00	 1.057253e+01
0	 1.642857e+00	 5.214286e+00	 1.056122e+01
0	 1.642857e+00	 5.285714e+00	 1.055044e+01
0	 1.642857e+00	 5.357143e+00	 1.054020e+01
0	 1.714286e+00	 5.000000e+00	 1.054116e+01
0	 1.714286e+00	 5.071429e+00	 1.053080e+01
0	 1.714286e+00	 5.142857e+00	 1.052097e+01
0	 1.714286e+00	 5.214286e+00	 1.051169e+01
0	 1.714286e+00	 5.285714e+00	 1.050296e+01
0	 1.714286e+00	 5.357143e+00	 1.049477e+01
0	 1.785714e+00	 5.000000e+00	 1.048436e+01
0	 1.785714e+00	 5.071429e+00	 1.047606e+01
0	 1.785714e+00	 5.142857e+00	 1.046831e+01
0	 1.785714e+00	 5.214286e+00	 1.046110e+01
0	 1.785714e+00	 5.285714e+00	 1.045445e+01
0	 1.785714e+00	 5.357143e+00	 1.044834e+01
0	 1.428571e+00	 5.357143e+00	 1.067045e+01
0	 1.428571e+00	 5.428571e+00	 1.065334e+01
0	 1.428571e+00	 5.500000e+00	 1.063659e+01
0	 1.428571e+00	 5.571429e+00	 1.062019e+01
0	 1.428571e+00	 5.642857e+00	 1.060415e+01
0	 1.428571e+00	 5.714286e+00	 1.058845e+01
0	 1.500000e+00	 5.357143e+00	 1.062804e+01
0	 1.500000e+00	 5.428571e+00	 1.061247e+01
0	 1.500000e+00	 5.500000e+00	 1.059728e+01
0	 1.500000e+00	 5.571429e+00	 1.058247e+01
0	 1.500000e+00	 5.642857e+00	 1.056802e+01
0	 1.500000e+00	 5.714286e+00	 1.055394e+01
0	 1.571429e+00	 5.357143e+00	 1.058462e+01
0	 1.571429e+00	 5.428571e+00	 1.057063e+01
0	 1.571429e+00	 5.500000e+00	 1.055703e+01
0	 1.571429e+00	 5.571429e+00	 1.054382e+01
0	 1.571429e+00	 5.642857e+00	 1.053100e+01
0	 1.571429e+00	 5.714286e+00	 1.051856e+01
0	 1.642857e+00	 5.357143e+00	 1.054020e+01
0	 1.642857e+00	 5.428571e+00	 1.052781e+01
0	 1.642857e+00	 5.500000e+00	 1.051582e+01
0	 1.642857e+00	 5.571429e+00	 1.050425e+01
0	 1.642857e+00	 5.642857e+00	 1.049308e+01
0	 1.642857e+00	 5.714286e+00	 1.048231e+01
0	 1.714286e+00	 5.357143e+00	 1.049477e+01
0	 1.714286e+00	 5.428571e+00	 1.048401e+01
0	 1.714286e+00	 5.500000e+00	 1.047367e+01
0	 1.714286e+00	 5.571429e+00	 1.046375e+01
0	 1.714286e+00	 5.642857e+00	 1.045426e+01
0	 1.714286e+00	 5.714286e+00	 1.044519e+01
0	 1.785714e+00	 5.357143e+00	 1.044834e+01
0	 1.785714e+00	 5.428571e+00	 1.043923e+01
0	 1.785714e+00	 5.500000e+00	 1.043056e+01
0	 1.785714e+00	 5.571429e+00	 1.042233e+01
0	 1.785714e+00	 5.642857e+00	 1.041455e+01
0	 1.785714e+00	 5.714286e+00	 1.040720e+01
0	 1.428571e+00	 5.714286e+00	 1.058845e+01
0	 1.428571e+00	 5.785714e+00	 1.057231e+01
0	 1.428571e+00	 5.857143e+00	 1.055643e+01
0	 1.428571e+00	 5.928571e+00	 1.054081e+01
0	 1.428571e+00	 6.000000e+00	 1.052545e+01
0	 1.428571e+00	 6.071429e+00	 1.051036e+01
0	 1.500000e+00	 5.714286e+00	 1.055394e+01
0	 1.500000e+00	 5.785714e+00	 1.053909e+01
0	 1.500000e+00	 5.857143e+00	 1.052451e+01
0	 1.500000e+00	 5.928571e+00	 1.051021e+01
0	 1.500000e+00	 6.000000e+00	 1.049617e+01
0	 1.500000e+00	 6.071429e+00	 1.048241e+01
0	 1.571429e+00	 5.714286e+00	 1.051856e+01
0	 1.571429e+00	 5.785714e+00	 1.050502e+01
0	 1.571429e+00	 5.857143e+00	 1.049177e+01
0	 1.571429e+00	 5.928571e+00	 1.047880e+01
0	 1.571429e+00	 6.000000e+00	 1.046611e+01
0	 1.571429e+00	 6.071429e+00	 1.045371e+01
0	 1.642857e+00	 5.714286e+00	 1.048231e+01
0	 1.642857e+00	 5.785714e+00	 1.047011e+01
0	 1.642857e+00	 5.857143e+00	 1.045820e+01
0	 1.642857e+00	 5.928571e+00	 1.044659e+01
0	 1.642857e+00	 6.000000e+00	 1.043527e+01
0	 1.642857e+00	 6.071429e+00	 1.042425e+01
0	 1.714286e+00	 5.714286e+00	 1.044519e+01
0	 1.714286e+00	 5.785714e+00	 1.043435e+01
0	 1.714286e+00	 5.857143e+00	 1.042381e+01
0	 1.714286e+00	 5.928571e+00	 1.041358e+01
0	 1.714286e+00	 6.000000e+00	 1.040365e+01
0	 1.714286e+00	 6.071429e+00	 1.039403e+01
0	 1.785714e+00	 5.714286e+00	 1.040720e+01
0	 1.785714e+00	 5.785714e+00	 1.039774e+01
0	 1.785714e+00	 5.857143e+00	 1.038860e+01
0	 1.785714e+00	 5.928571e+00	 1.037977e+01
0	 1.785714e+00	 6.000000e+00	 1.037126e+01
0	 1.785714e+00	 6.071429e+00	 1.036306e+01
0	 1.428571e+00	 6.071429e+00	 1.051036e+01
0	 1.428571e+00	 6.142857e+00	 1.049525e+01
0	 1.428571e+00	 6.214286e+00	 1.048030e+01
0	 1.428571e+00	 6.285714e+00	 1.046552e+01
0	 1.428571e+00	 6.357143e+00	 1.045091e+01
0	 1.428571e+00	 6.428571e+00	 1.043646e+01
0	 1.500000e+00	 6.071429e+00	 1.048241e+01
0	 1.500000e+00	 6.142857e+00	 1.046837e+01
0	 1.500000e+00	 6.214286e+00	 1.045450e+01
0	 1.500000e+00	 6.285714e+00	 1.044082e+01
0	 1.500000e+00	 6.357143e+00	 1.042731e+01
0	 1.500000e+00	 6.428571e+00	 1.041397e+01
0	 1.571429e+00	 6.071429e+00	 1.045371e+01
0	 1.571429e+00	 6.142857e+00	 1.044075e+01
0	 1.571429e+00	 6.214286e+00	 1.042799e+01
0	 1.571429e+00	 6.285714e+00	 1.041541e+01
0	 1.571429e+00	 6.357143e+00	 1.040303e+01
0	 1.571429e+00	 6.428571e+00	 1.039083e+01
0	 1.642857e+00	 6.071429e+00	 1.042425e+01
0	 1.642857e+00	 6.142857e+00	 1.041240e+01
0	 1.642857e+00	 6.214286e+00	 1.040075e+01
0	 1.642857e+00	 6.285714e+00	 1.038931e+01
0	 1.642857e+00	 6.357143e+00	 1.037807e+01
0	 1.642857e+00	 6.428571e+00	 1.036703e+01
0	 1.714286e+00	 6.071429e+00	 1.039403e+01
0	 1.714286e+00	 6.142857e+00	 1.038331e+01
0	 1.714286e+00	 6.214286e+00	 1.037281e+01
0	 1.714286e+00	 6.285714e+00	 1.036252e+01
0	 1.714286e+00	 6.357143e+00	 1.035244e+01
0	 1.714286e+00	 6.428571e+00	 1.034258e+01
0	 1.785714e+00	 6.071429e+00	 1.036306e+01
0	 1.785714e+00	 6.142857e+00	 1.035349e+01
0	 1.785714e+00	 6.214286e+00	 1.034415e+01
0	 1.785714e+00	 6.285714e+00	 1.033503e+01
0	 1.785714e+00	 6.357143e+00	 1.032614e+01
0	 1.785714e+00	 6.428571e+00	 1.031747e+01
0	 1.428571e+00	 6.428571e+00	 1.043646e+01
0	 1.428571e+00	 6.500000e+00	 1.042237e+01
0	 1.428571e+00	 6.571429e+00	 1.040837e+01
0	 1.428571e+00	 6.642857e+00	 1.039445e+01
0	 1.428571e+00	 6.714286e+00	 1.038063e+01
0	 1.428571e+00	 6.785714e+00	 1.036690e+01
0	 1.500000e+00	 6.428571e+00	 1.041397e+01
0	 1.500000e+00	 6.500000e+00	 1.040077e+01
0	 1.500000e+00	 6.571429e+00	 1.038767e+01
0	 1.500000e+00	 6.642857e+00	 1.037468e+01
0	 1.500000e+00	 6.714286e+00	 1.036178e+01
0	 1.500000e+00	 6.785714e+00	 1.034898e+01
0	 1.571429e+00	 6.428571e+00	 1.039083e+01
0	 1.571429e+00	 6.500000e+00	 1.037854e+01
0	 1.571429e+00	 6.571429e+00	 1.036636e+01
0	 1.571429e+00	 6.642857e+00	 1.035430e+01
0	 1.571429e+00	 6.714286e+00	 1.034235e+01
0	 1.571429e+00	 6.785714e+00	 1.033050e+01
0	 1.642857e+00	 6.428571e+00	 1.036703e+01
0	 1.642857e+00	 6.500000e+00	 1.035567e+01
0	 1.642857e+00	 6.571429e+00	 1.034444e+01
0	 1.642857e+00	 6.642857e+00	 1.033332e+01
0	 1.642857e+00	 6.714286e+00	 1.032233e+01
0	 1.642857e+00	 6.785714e+00	 1.031146e+01
0	 1.714286e+00	 6.428571e+00	 1.034258e+01
0	 1.714286e+00	 6.500000e+00	 1.033217e+01
0	 1.714286e+00	 6.571429e+00	 1.032189e+01
0	 1.714286e+00	 6.642857e+00	 1.031175e+01
0	 1.714286e+00	 6.714286e+00	 1.030174e+01
0	 1.714286e+00	 6.785714e+00	 1.029186e+01
0	 1.785714e+00	 6.428571e+00	 1.031747e+01
0	 1.785714e+00	 6.500000e+00	 1.030803e+01
0	 1.785714e+00	 6.571429e+00	 1.029873e+01
0	 1.785714e+00	 6.642857e+00	 1.028957e+01
0	 1.785714e+00	 6.714286e+00	 1.028056e+01
0	 1.785714e+00	 6.785714e+00	 1.027170e+01
0	 1.428571e+00	 6.785714e+00	 1.036690e+01
0	 1.428571e+00	 6.857143e+00	 1.035384e+01
0	 1.428571e+00	 6.928571e+00	 1.034080e+01
0	 1.428571e+00	 7.000000e+00	 1.032778e+01
0	 1.428571e+00	 7.071429e+00	 1.031478e+01
0	 1.428571e+00	 7.142857e+00	 1.030181e+01
0	 1.500000e+00	 6.785714e+00	 1.034898e+01
0	 1.500000e+00	 6.857143e+00	 1.033667e+01
0	 1.500000e+00	 6.928571e+00	 1.032439e+01
0	 1.500000e+00	 7.000000e+00	 1.031214e+01
0	 1.500000e+00	 7.071429e+00	 1.029993e+01
0	 1.500000e+00	 7.142857e+00	 1.028775e+01
0	 1.571429e+00	 6.785714e+00	 1.033050e+01
0	 1.571429e+00	 6.857143e+00	 1.031896e+01
0	 1.571429e+00	 6.928571e+00	 1.030745e+01
0	 1.571429e+00	 7.000000e+00	 1.029599e+01
0	 1.571429e+00	 7.071429e+00	 1.028458e+01
0	 1.571429e+00	 7.142857e+00	 1.027320e+01
0	 1.642857e+00	 6.785714e+00	 1.031146e+01
0	 1.642857e+00	 6.857143e+00	 1.030070e+01
0	 1.642857e+00	 6.928571e+00	 1.028999e+01
0	 1.642857e+00	 7.000000e+00	 1.027933e+01
0	 1.642857e+00	 7.071429e+00	 1.026873e+01
0	 1.642857e+00	 7.142857e+00	 1.025818e+01
0	 1.714286e+00	 6.785714e+00	 1.029186e+01
0	 1.714286e+00	 6.857143e+00	 1.028190e+01
0	 1.714286e+00	 6.928571e+00	 1.027200e+01
0	 1.714286e+00	 7.000000e+00	 1.026216e+01
0	 1.714286e+00	 7.071429e+00	 1.025239e+01
0	 1.714286e+00	 7.142857e+00	 1.024268e+01
0	 1.785714e+00	 6.785714e+00	 1.027170e+01
0	 1.785714e+00	 6.857143e+00	 1.026255e+01
0	 1.785714e+00	 6.928571e+00	 1.025347e+01
0	 1.785714e+00	 7.000000e+00	 1.024448e+01
0	 1.785714e+00	 7.071429e+00	 1.023555e+01
0	 1.785714e+00	 7.142857e+00	 1.022670e+01
0	 1.428571e+00	 7.142857e+00	 1.030181e+01
0	 1.428571e+00	 7.214286e+00	 1.028980e+01
0	 1.428571e+00	 7.285714e+00	 1.027776e+01
0	 1.428571e+00	 7.357143e+00	 1.026567e+01
0	 1.428571e+00	 7.428571e+00	 1.025354e+01
0	 1.428571e+00	 7.500000e+00	 1.024137e+01
0	 1.500000e+00	 7.142857e+00	 1.028775e+01
0	 1.500000e+00	 7.214286e+00	 1.027637e+01
0	 1.500000e+00	 7.285714e+00	 1.026497e+01
0	 1.500000e+00	 7.357143e+00	 1.025353e+01
0	 1.500000e+00	 7.428571e+00	 1.024207e+01
0	 1.500000e+00	 7.500000e+00	 1.023057e+01
0	 1.571429e+00	 7.142857e+00	 1.027320e+01
0	 1.571429e+00	 7.214286e+00	 1.026248e+01
0	 1.571429e+00	 7.285714e+00	 1.025173e+01
0	 1.571429e+00	 7.357143e+00	 1.024096e+01
0	 1.571429e+00	 7.428571e+00	 1.023018e+01
0	 1.571429e+00	 7.500000e+00	 1.021937e+01
0	 1.642857e+00	 7.142857e+00	 1.025818e+01
0	 1.642857e+00	 7.214286e+00	 1.024812e+01
0	 1.642857e+00	 7.285714e+00	 1.023804e+01
0	 1.642857e+00	 7.357143e+00	 1.022796e+01
0	 1.642857e+00	 7.428571e+00	 1.021787e+01
0	 1.642857e+00	 7.500000e+00	 1.020776e+01
0	 1.714286e+00	 7.142857e+00	 1.024268e+01
0	 1.714286e+00	 7.214286e+00	 1.023330e+01
0	 1.714286e+00	 7.285714e+00	 1.022391e+01
0	 1.714286e+00	 7.357143e+00	 1.021452e+01
0	 1.714286e+00	 7.428571e+00	 1.020514e+01
0	 1.714286e+00	 7.500000e+00	 1.019575e+01
0	 1.785714e+00	 7.142857e+00	 1.022670e+01
0	 1.785714e+00	 7.214286e+00	 1.021801e+01
0	 1.785714e+00	 7.285714e+00	 1.020932e+01
0	 1.785714e+00	 7.357143e+00	 1.020065e+01
0	 1.785714e+00	 7.428571e+00	 1.019199e+01
0	 1.785714e+00	 7.500000e+00	 1.018333e+01
0	 1.428571e+00	 7.500000e+00	 1.024137e+01
0	 1.428571e+00	 7.571429e+00	 1.023047e+01
0	 1.428571e+00	 7.642857e+00	 1.021946e+01
0	 1.428571e+00	 7.714286e+00	 1.020836e+01
0	 1.428571e+00	 7.785714e+00	 1.019714e+01
0	 1.428571e+00	 7.857143e+00	 1.018583e+01
0	 1.500000e+00	 7.500000e+00	 1.023057e+01
0	 1.500000e+00	 7.571429e+00	 1.022020e+01
0	 1.500000e+00	 7.642857e+00	 1.020975e+01
0	 1.500000e+00	 7.714286e+00	 1.019919e+01
0	 1.500000e+00	 7.785714e+00	 1.018855e+01
0	 1.500000e+00	 7.857143e+00	 1.017781e+01
0	 1.571429e+00	 7.500000e+00	 1.021937e+01
0	 1.571429e+00	 7.571429e+00	 1.020955e+01
0	 1.571429e+00	 7.642857e+00	 1.019965e+01
0	 1.571429e+00	 7.714286e+00	 1.018967e+01
0	 1.571429e+00	 7.785714e+00	 1.017960e+01
0	 1.571429e+00	 7.857143e+00	 1.016945e+01
0	 1.642857e+00	 7.500000e+00	 1.020776e+01
0	 1.642857e+00	 7.571429e+00	 1.019850e+01
0	 1.642857e+00	 7.642857e+00	 1.018918e+01
0	 1.642857e+00	 7.714286e+00	 1.017977e+01
0	 1.642857e+00	 7.785714e+00	 1.017030e+01
0	 1.642857e+00	 7.857143e+00	 1.016076e+01
0	 1.714286e+00	 7.500000e+00	 1.019575e+01
0	 1.714286e+00	 7.571429e+00	 1.018707e+01
0	 1.714286e+00	 7.642857e+00	 1.017832e+01
0	 1.714286e+00	 7.714286e+00	 1.016952e+01
0	 1.714286e+00	 7.785714e+00	 1.016065e+01
0	 1.714286e+00	 7.857143e+00	 1.015172e+01
0	 1.785714e+00	 7.500000e+00	 1.018333e+01
0	 1.785714e+00	 7.571429e+00	 1.017524e+01
0	 1.785714e+00	 7.642857e+00	 1.016709e+01
0	 1.785714e+00	 7.714286e+00	 1.015889e+01
0	 1.785714e+00	 7.785714e+00	 1.015064e+01
0	 1.785714e+00	 7.857143e+00	 1.014234e+01
0	 1.428571e+00	 7.857143e+00	 1.018583e+01
0	 1.428571e+00	 7.928571e+00	 1.017612e+01
0	 1.428571e+00	 8.000000e+00	 1.016624e+01
0	 1.428571e+00	 8.071429e+00	 1.015620e+01
0	 1.428571e+00	 8.142857e+00	 1.014598e+01
0	 1.428571e+00	 8.214286e+00	 1.013559e+01
0	 1.500000e+00	 7.857143e+00	 1.017781e+01
0	 1.500000e+00	 7.928571e+00	 1.016855e+01
0	 1.500000e+00	 8.000000e+00	 1.015914e+01
0	 1.500000e+00	 8.071429e+00	 1.014957e+01
0	 1.500000e+00	 8.142857e+00	 1.013983e+01
0	 1.500000e+00	 8.214286e+00	 1.012994e+01
0	 1.571429e+00	 7.857143e+00	 1.016945e+01
0	 1.571429e+00	 7.928571e+00	 1.016066e+01
0	 1.571429e+00	 8.000000e+00	 1.015172e+01
0	 1.571429e+00	 8.071429e+00	 1.014263e+01
0	 1.571429e+00	 8.142857e+00	 1.013339e+01
0	 1.571429e+00	 8.214286e+00	 1.012401e+01
0	 1.642857e+00	 7.857143e+00	 1.016076e+01
0	 1.642857e+00	 7.928571e+00	 1.015243e+01
0	 1.642857e+00	 8.000000e+00	 1.014397e+01
0	 1.642857e+00	 8.071429e+00	 1.013538e+01
0	 1.642857e+00	 8.142857e+00	 1.012665e+01
0	 1.642857e+00	 8.214286e+00	 1.011778e+01
0	 1.714286e+00	 7.857143e+00	 1.015172e+01
0	 1.714286e+00	 7.928571e+00	 1.014388e+01
0	 1.714286e+00	 8.000000e+00	 1.013591e+01
0	 1.714286e+00	 8.071429e+00	 1.012782e+01
0	 1.714286e+00	 8.142857e+00	 1.011961e+01
0	 1.714286e+00	 8.214286e+00	 1.011127e+01
0	 1.785714e+00	 7.857143e+00	 1.014234e+01
0	 1.785714e+00	 7.928571e+00	 1.013499e+01
0	 1.785714e+00	 8.000000e+00	 1.012753e+01
0	 1.785714e+00	 8.071429e+00	 1.011996e+01
0	 1.785714e+00	 8.142857e+00	 1.011228e+01
0	 1.785714e+00	 8.214286e+00	 1.010448e+01
0	 1.428571e+00	 8.214286e+00	 1.013559e+01
0	 1.428571e+00	 8.285714e+00	 1.012721e+01
0	 1.428571e+00	 8.357143e+00	 1.011858e+01
0	 1.428571e+00	 8.428571e+00	 1.010972e+01
0	 1.428571e+00	 8.500000e+00	 1.010061e+01
0	 1.428571e+00	 8.571429e+00	 1.009126e+01
0	 1.500000e+00	 8.214286e+00	 1.012994e+01
0	 1.500000e+00	 8.285714e+00	 1.012193e+01
0	 1.500000e+00	 8.357143e+00	 1.011370e+01
0	 1.500000e+00	 8.428571e+00	 1.010523e+01
0	 1.500000e+00	 8.500000e+00	 1.009654e+01
0	 1.500000e+00	 8.571429e+00	 1.008761e+01
0	 1.571429e+00	 8.214286e+00	 1.012401e+01
0	 1.571429e+00	 8.285714e+00	 1.011638e+01
0	 1.571429e+00	 8.357143e+00	 1.010854e+01
0	 1.571429e+00	 8.428571e+00	 1.010048e+01
0	 1.571429e+00	 8.500000e+00	 1.009221e+01
0	 1.571429e+00	 8.571429e+00	 1.008372e+01
0	 1.642857e+00	 8.214286e+00	 1.011778e+01
0	 1.642857e+00	 8.285714e+00	 1.011055e+01
0	 1.642857e+00	 8.357143e+00	 1.010312e+01
0	 1.642857e+00	 8.428571e+00	 1.009548e+01
0	 1.642857e+00	 8.500000e+00	 1.008763e+01
0	 1.642857e+00	 8.571429e+00	 1.007959e+01
0	 1.714286e+00	 8.214286e+00	 1.011127e+01
0	 1.714286e+00	 8.285714e+00	 1.010444e+01
0	 1.714286e+00	 8.357143e+00	 1.009742e+01
0	 1.714286e+00	 8.428571e+00	 1.009020e+01
0	 1.714286e+00	 8.500000e+00	 1.008280e+01
0	 1.714286e+00	 8.571429e+00	 1.007520e+01
0	 1.785714e+00	 8.214286e+00	 1.010448e+01
0	 1.785714e+00	 8.285714e+00	 1.009805e+01
0	 1.785714e+00	 8.357143e+00	 1.009145e+01
0	 1.785714e+00	 8.428571e+00	 1.008467e+01
0	 1.785714e+00	 8.500000e+00	 1.007771e+01
0	 1.785714e+00	 8.571429e+00	 1.007057e+01
0	 1.428571e+00	 8.571429e+00	 1.009126e+01
0	 1.428571e+00	 8.642857e+00	 1.008439e+01
0	 1.428571e+00	 8.714286e+00	 1.007720e+01
0	 1.428571e+00	 8.785714e+00	 1.006969e+01
0	 1.428571e+00	 8.857143e+00	 1.006185e+01
0	 1.428571e+00	 8.928571e+00	 1.005368e+01
0	 1.500000e+00	 8.571429e+00	 1.008761e+01
0	 1.500000e+00	 8.642857e+00	 1.008105e+01
0	 1.500000e+00	 8.714286e+00	 1.007418e+01
0	 1.500000e+00	 8.785714e+00	 1.006700e+01
0	 1.500000e+00	 8.857143e+00	 1.005951e+01
0	 1.500000e+00	 8.928571e+00	 1.005170e+01
0	 1.571429e+00	 8.571429e+00	 1.008372e+01
0	 1.571429e+00	 8.642857e+00	 1.007747e+01
0	 1.571429e+00	 8.714286e+00	 1.007092e+01
0	 1.571429e+00	 8.785714e+00	 1.006408e+01
0	 1.571429e+00	 8.857143e+00	 1.005694e+01
0	 1.571429e+00	 8.928571e+00	 1.004951e+01
0	 1.642857e+00	 8.571429e+00	 1.007959e+01
0	 1.642857e+00	 8.642857e+00	 1.007364e+01
0	 1.642857e+00	 8.714286e+00	 1.006742e+01
0	 1.642857e+00	 8.785714e+00	 1.006092e+01
0	 1.642857e+00	 8.857143e+00	 1.005414e+01
0	 1.642857e+00	 8.928571e+00	 1.004708e+01
0	 1.714286e+00	 8.571429e+00	 1.007520e+01
0	 1.714286e+00	 8.642857e+00	 1.006958e+01
0	 1.714286e+00	 8.714286e+00	 1.006369e+01
0	 1.714286e+00	 8.785714e+00	 1.005754e+01
0	 1.714286e+00	 8.857143e+00	 1.005112e+01
0	 1.714286e+00	 8.928571e+00	 1.004444e+01
0	 1.785714e+00	 8.571429e+00	 1.007057e+01
0	 1.785714e+00	 8.642857e+00	 1.006527e+01
0	 1.785714e+00	 8.714286e+00	 1.005972e+01
0	 1.785714e+00	 8.785714e+00	 1.005392e+01
0	 1.785714e+00	 8.857143e+00	 1.004787e+01
0	 1.785714e+00	 8.928571e+00	 1.004157e+01
0	 1.428571e+00	 8.928571e+00	 1.005368e+01
0	 1.428571e+00	 9.000000e+00	 1.004862e+01
0	 1.428571e+00	 9.071429e+00	 1.004313e+01
0	 1.428571e+00	 9.142857e+00	 1.003723e+01
0	 1.428571e+00	 9.214286e+00	 1.003089e+01
0	 1.428571e+00	 9.285714e+00	 1.002413e+01
0	 1.500000e+00	 8.928571e+00	 1.005170e+01
0	 1.500000e+00	 9.000000e+00	 1.004687e+01
0	 1.500000e+00	 9.071429e+00	 1.004163e+01
0	 1.500000e+00	 9.142857e+00	 1.003598e+01
0	 1.500000e+00	 9.214286e+00	 1.002993e+01
0	 1.500000e+00	 9.285714e+00	 1.002348e+01
0	 1.571429e+00	 8.928571e+00	 1.004951e+01
0	 1.571429e+00	 9.000000e+00	 1.004490e+01
0	 1.571429e+00	 9.071429e+00	 1.003990e+01
0	 1.571429e+00	 9.142857e+00	 1.003452e+01
0	 1.571429e+00	 9.214286e+00	 1.002875e+01
0	 1.571429e+00	 9.285714e+00	 1.002260e+01
0	 1.642857e+00	 8.928571e+00	 1.004708e+01
0	 1.642857e+00	 9.000000e+00	 1.004270e+01
0	 1.642857e+00	 9.071429e+00	 1.003796e+01
0	 1.642857e+00	 9.142857e+00	 1.003284e+01
0	 1.642857e+00	 9.214286e+00	 1.002736e+01
0	 1.642857e+00	 9.285714e+00	 1.002151e+01
0	 1.714286e+00	 8.928571e+00	 1.004444e+01
0	 1.714286e+00	 9.000000e+00	 1.004029e+01
0	 1.714286e+00	 9.071429e+00	 1.003579e+01
0	 1.714286e+00	 9.142857e+00	 1.003094e+01
0	 1.714286e+00	 9.214286e+00	 1.002574e+01
0	 1.714286e+00	 9.285714e+00	 1.002020e+01
0	 1.785714e+00	 8.928571e+00	 1.004157e+01
0	 1.785714e+00	 9.000000e+00	 1.003766e+01
0	 1.785714e+00	 9.071429e+00	 1.003341e+01
0	 1.785714e+00	 9.142857e+00	 1.002883e+01
0	 1.785714e+00	 9.214286e+00	 1.002391e+01
0	 1.785714e+00	 9.285714e+00	 1.001867e+01
0	 1.428571e+00	 9.285714e+00	 1.002413e+01
0	 1.428571e+00	 9.357143e+00	 1.002124e+01
0	 1.428571e+00	 9.428571e+00	 1.001780e+01
0	 1.428571e+00	 9.500000e+00	 1.001381e+01
0	 1.428571e+00	 9.571429e+00	 1.000928e+01
0	 1.428571e+00	 9.642857e+00	 1.000421e+01
0	 1.500000e+00	 9.285714e+00	 1.002348e+01
0	 1.500000e+00	 9.357143e+00	 1.002072e+01
0	 1.500000e+00	 9.428571e+00	 1.001744e+01
0	 1.500000e+00	 9.500000e+00	 1.001364e+01
0	 1.500000e+00	 9.571429e+00	 1.000932e+01
0	 1.500000e+00	 9.642857e+00	 1.000448e+01
0	 1.571429e+00	 9.285714e+00	 1.002260e+01
0	 1.571429e+00	 9.357143e+00	 1.001998e+01
0	 1.571429e+00	 9.428571e+00	 1.001686e+01
0	 1.571429e+00	 9.500000e+00	 1.001324e+01
0	 1.571429e+00	 9.571429e+00	 1.000913e+01
0	 1.571429e+00	 9.642857e+00	 1.000453e+01
0	 1.642857e+00	 9.285714e+00	 1.002151e+01
0	 1.642857e+00	 9.357143e+00	 1.001902e+01
0	 1.642857e+00	 9.428571e+00	 1.001605e+01
0	 1.642857e+00	 9.500000e+00	 1.001262e+01
0	 1.642857e+00	 9.571429e+00	 1.000871e+01
0	 1.642857e+00	 9.642857e+00	 1.000433e+01
0	 1.714286e+00	 9.285714e+00	 1.002020e+01
0	 1.714286e+00	 9.357143e+00	 1.001784e+01
0	 1.714286e+00	 9.428571e+00	 1.001503e+01
0	 1.714286e+00	 9.500000e+00	 1.001177e+01
0	 1.714286e+00	 9.571429e+00	 1.000806e+01
0	 1.714286e+00	 9.642857e+00	 1.000390e+01
0	 1.785714e+00	 9.285714e+00	 1.001867e+01
0	 1.785714e+00	 9.357143e+00	 1.001644e+01
0	 1.785714e+00	 9.428571e+00	 1.001377e+01
0	 1.785714e+00	 9.500000e+00	 1.001069e+01
0	 1.785714e+00	 9.571429e+00	 1.000718e+01
0	 1.785714e+00	 9.642857e+00	 1.000324e+01
0	 1.428571e+00	 9.642857e+00	 1.000421e+01
0	 1.428571e+00	 9.714286e+00	 1.000408e+01
0	 1.428571e+00	 9.785714e+00	 1.000326e+01
0	 1.428571e+00	 9.857143e+00	 1.000174e+01
0	 1.428571e+00	 9.928571e+00	 9.999536e+00
0	 1.428571e+00	 1.000000e+01	 9.996635e+00
0	 1.500000e+00	 9.642857e+00	 1.000448e+01
0	 1.500000e+00	 9.714286e+00	 1.000438e+01
0	 1.500000e+00	 9.785714e+00	 1.000362e+01
0	 1.500000e+00	 9.857143e+00	 1.000219e+01
0	 1.500000e+00	 9.928571e+00	 1.000010e+01
0	 1.500000e+00	 1.000000e+01	 9.997351e+00
0	 1.571429e+00	 9.642857e+00	 1.000453e+01
0	 1.571429e+00	 9.714286e+00	 1.000444e+01
0	 1.571429e+00	 9.785714e+00	 1.000372e+01
0	 1.571429e+00	 9.857143e+00	 1.000237e+01
0	 1.571429e+00	 9.928571e+00	 1.000040e+01
0	 1.571429e+00	 1.000000e+01	 9.997786e+00
0	 1.642857e+00	 9.642857e+00	 1.000433e+01
0	 1.642857e+00	 9.714286e+00	 1.000425e+01
0	 1.642857e+00	 9.785714e+00	 1.000357e+01
0	 1.642857e+00	 9.857143e+00	 1.000229e+01
0	 1.642857e+00	 9.928571e+00	 1.000042e+01
0	 1.642857e+00	 1.000000e+01	 9.997939e+00
0	 1.714286e+00	 9.642857e+00	 1.000390e+01
0	 1.714286e+00	 9.714286e+00	 1.000382e+01
0	 1.714286e+00	 9.785714e+00	 1.000317e+01
0	 1.714286e+00	 9.857143e+00	 1.000195e+01
0	 1.714286e+00	 9.928571e+00	 1.000016e+01
0	 1.714286e+00	 1.000000e+01	 9.997810e+00
0	 1.785714e+00	 9.642857e+00	 1.000324e+01
0	 1.785714e+00	 9.714286e+00	 1.000315e+01
0	 1.785714e+00	 9.785714e+00	 1.000251e+01
0	 1.785714e+00	 9.857143e+00	 1.000135e+01
0	 1.785714e+00	 9.928571e+00	 9.999641e+00
0	 1.785714e+00	 1.000000e+01	 9.997398e+00
0	 1.785714e+00	 0.000000e+00	-1.912726e+01
0	 1.785714e+00	 7.142857e-02	-1.883162e+01
0	 1.785714e+00	 1.428571e-01	-1.634494e+01
0	 1.785714e+00	 2.142857e-01	-1.166720e+01
0	 1.785714e+00	 2.857143e-01	-4.798408e+00
0	 1.785714e+00	 3.571429e-01	 4.261439e+00
0	 1.857143e+00	 0.000000e+00	-1.242635e+01
0	 1.857143e+00	 7.142857e-02	-1.309949e+01
0	 1.857143e+00	 1.428571e-01	-1.210844e+01
0	 1.857143e+00	 2.142857e-01	-9.453186e+00
0	 1.857143e+00	 2.857143e-01	-5.133741e+00
0	 1.857143e+00	 3.571429e-01	 8.498978e-01
0	 1.928571e+00	 0.000000e+00	-7.785019e+00
0	 1.928571e+00	 7.142857e-02	-8.768347e+00
0	 1.928571e+00	 1.428571e-01	-8.614340e+00
0	 1.928571e+00	 2.142857e-01	-7.322998e+00
0	 1.928571e+00	 2.857143e-01	-4.894320e+00
0	 1.928571e+00	 3.571429e-01	-1.328308e+00
0	 2.000000e+00	 0.000000e+00	-5.203252e+00
0	 2.000000e+00	 7.142857e-02	-5.838189e+00
0	 2.000000e+00	 1.428571e-01	-5.862650e+00
0	 2.000000e+00	 2.142857e-01	-5.276635e+00
0	 2.000000e+00	 2.857143e-01	-4.080145e+00
0	 2.000000e+00	 3.571429e-01	-2.273180e+00
0	 2.071429e+00	 0.000000e+00	-4.681054e+00
0	 2.071429e+00	 7.142857e-02	-4.309018e+00
0	 2.071429e+00	 1.428571e-01	-3.853367e+00
0	 2.071429e+00	 2.142857e-01	-3.314099e+00
0	 2.071429e+00	 2.857143e-01	-2.691216e+00
0	 2.071429e+00	 3.571429e-01	-1.984716e+00
0	 2.142857e+00	 0.000000e+00	-6.218424e+00
0	 2.142857e+00	 7.142857e-02	-4.180836e+00
0	 2.142857e+00	 1.428571e-01	-2.586491e+00
0	 2.142857e+00	 2.142857e-01	-1.435390e+00
0	 2.142857e+00	 2.857143e-01	-7.275318e-01
0	 2.142857e+00	 3.571429e-01	-4.629172e-01
0	 1.785714e+00	 3.571429e-01	 4.261439e+00
0	 1.785714e+00	 4.285714e-01	 5.750943e+00
0	 1.785714e+00	 5.000000e-01	 7.235365e+00
0	 1.785714e+00	 5.714286e-01	 8.714705e+00
0	 1.785714e+00	 6.428571e-01	 1.018896e+01
0	 1.785714e+00	 7.142857e-01	 1.165814e+01
0	 1.857143e+00	 3.571429e-01	 8.498978e-01
0	 1.857143e+00	 4.285714e-01	 2.457920e+00
0	 1.857143e+00	 5.000000e-01	 4.125771e+00
0	 1.857143e+00	 5.714286e-01	 5.853451e+00
0	 1.857143e+00	 6.428571e-01	 7.640959e+00
0	 1.857143e+00	 7.142857e-01	 9.488297e+00
0	 1.928571e+00	 3.571429e-01	-1.328308e+00
0	 1.928571e+00	 4.285714e-01	 2.340106e-01
0	 1.928571e+00	 5.000000e-01	 1.921070e+00
0	 1.928571e+00	 5.714286e-01	 3.732869e+00
0	 1.928571e+00	 6.428571e-01	 5.669408e+00
0	 1.928571e+00	 7.142857e-01	 7.730687e+00
0	 2.000000e+00	 3.571429e-01	-2.273180e+00
0	 2.000000e+00	 4.285714e-01	-9.207843e-01
0	 2.000000e+00	 5.000000e-01	 6.212622e-01
0	 2.000000e+00	 5.714286e-01	 2.352960e+00
0	 2.000000e+00	 6.428571e-01	 4.274309e+00
0	 2.000000e+00	 7.142857e-01	 6.385309e+00
0	 2.071429e+00	 3.571429e-01	-1.984716e+00
0	 2.071429e+00	 4.285714e-01	-1.006465e+00
0	 2.071429e+00	 5.000000e-01	 2.263483e-01
0	 2.071429e+00	 5.714286e-01	 1.713724e+00
0	 2.071429e+00	 6.428571e-01	 3.455662e+00
0	 2.071429e+00	 7.142857e-01	 5.452162e+00
0	 2.142857e+00	 3.571429e-01	-4.629172e-01
0	 2.142857e+00	 4.285714e-01	-2.303132e-02
0	 2.142857e+00	 5.000000e-01	 7.363280e-01
0	 2.142857e+00	 5.714286e-01	 1.815161e+00
0	 2.142857e+00	 6.428571e-01	 3.213467e+00
0	 2.142857e+00	 7.142857e-01	 4.931246e+00
0	 1.785714e+00	 7.142857e-01	 1.165814e+01
0	 1.785714e+00	 7.857143e-01	 1.104499e+01
0	 1.785714e+00	 8.571429e-01	 1.010074e+01
0	 1.785714e+00	 9.285714e-01	 8.825401e+00
0	 1.785714e+00	 1.000000e+00	 7.218966e+00
0	 1.785714e+00	 1.071429e+00	 5.281436e+00
0	 1.857143e+00	 7.142857e-01	 9.488297e+00
0	 1.857143e+00	 7.857143e-01	 9.643212e+00
0	 1.857143e+00	 8.571429e-01	 9.601982e+00
0	 1.857143e+00	 9.285714e-01	 9.364606e+00
0	 1.857143e+00	 1.000000e+00	 8.931086e+00
0	 1.857143e+00	 1.071429e+00	 8.301421e+00
0	 1.928571e+00	 7.142857e-01	 7.730687e+00
0	 1.928571e+00	 7.857143e-01	 8.342069e+00
0	 1.928571e+00	 8.571429e-01	 8.892255e+00
0	 1.928571e+00	 9.285714e-01	 9.381245e+00
0	 1.928571e+00	 1.000000e+00	 9.809040e+00
0	 1.928571e+00	 1.071429e+00	 1.017564e+01
0	 2.000000e+00	 7.142857e-01	 6.385309e+00
0	 2.000000e+00	 7.857143e-01	 7.141557e+00
0	 2.000000e+00	 8.571429e-01	 7.971560e+00
0	 2.000000e+00	 9.285714e-01	 8.875317e+00
0	 2.000000e+00	 1.000000e+00	 9.852829e+00
0	 2.000000e+00	 1.071429e+00	 1.090409e+01
0	 2.071429e+00	 7.142857e-01	 5.452162e+00
0	 2.071429e+00	 7.857143e-01	 6.041678e+00
0	 2.071429e+00	 8.571429e-01	 6.839899e+00
0	 2.071429e+00	 9.285714e-01	 7.846823e+00
0	 2.071429e+00	 1.000000e+00	 9.062451e+00
0	 2.071429e+00	 1.071429e+00	 1.048678e+01
0	 2.142857e+00	 7.142857e-01	 4.931246e+00
0	 2.142857e+00	 7.857143e-01	 5.042431e+00
0	 2.142857e+00	 8.571429e-01	 5.497270e+00
0	 2.142857e+00	 9.285714e-01	 6.295762e+00
0	 2.142857e+00	 1.000000e+00	 7.437907e+00
0	 2.142857e+00	 1.071429e+00	 8.923706e+00
0	 1.785714e+00	 1.071429e+00	 5.281436e+00
0	 1.785714e+00	 1.142857e+00	 4.784051e+00
0	 1.785714e+00	 1.214286e+00	 4.933300e+00
0	 1.785714e+00	 1.285714e+00	 5.729181e+00
0	 1.785714e+00	 1.357143e+00	 7.171696e+00
0	 1.785714e+00	 1.428571e+00	 9.260843e+00
0	 1.857143e+00	 1.071429e+00	 8.301421e+00
0	 1.857143e+00	 1.142857e+00	 7.497450e+00
0	 1.857143e+00	 1.214286e+00	 7.156443e+00
0	 1.857143e+00	 1.285714e+00	 7.278398e+00
0	 1.857143e+00	 1.357143e+00	 7.863317e+00
0	 1.857143e+00	 1.428571e+00	 8.911198e+00
0	 1.928571e+00	 1.071429e+00	 1.017564e+01
0	 1.928571e+00	 1.142857e+00	 9.303017e+00
0	 1.928571e+00	 1.214286e+00	 8.709688e+00
0	 1.928571e+00	 1.285714e+00	 8.395651e+00
0	 1.928571e+00	 1.357143e+00	 8.360907e+00
0	 1.928571e+00	 1.428571e+00	 8.605457e+00
0	 2.000000e+00	 1.071429e+00	 1.090409e+01
0	 2.000000e+00	 1.142857e+00	 1.020075e+01
0	 2.000000e+00	 1.214286e+00	 9.593034e+00
0	 2.000000e+00	 1.285714e+00	 9.080939e+00
0	 2.000000e+00	 1.357143e+00	 8.664467e+00
0	 2.000000e+00	 1.428571e+00	 8.343618e+00
0	 2.071429e+00	 1.071429e+00	 1.048678e+01
0	 2.071429e+00	 1.142857e+00	 1.019066e+01
0	 2.071429e+00	 1.214286e+00	 9.806483e+00
0	 2.071429e+00	 1.285714e+00	 9.334263e+00
0	 2.071429e+00	 1.357143e+00	 8.773996e+00
0	 2.071429e+00	 1.428571e+00	 8.125682e+00
0	 2.142857e+00	 1.071429e+00	 8.923706e+00
0	 2.142857e+00	 1.142857e+00	 9.272729e+00
0	 2.142857e+00	 1.214286e+00	 9.350034e+00
0	 2.142857e+00	 1.285714e+00	 9.155623e+00
0	 2.142857e+00	 1.357143e+00	 8.689495e+00
0	 2.142857e+00	 1.428571e+00	 7.951650e+00
0	 1.785714e+00	 1.428571e+00	 9.260843e+00
0	 1.785714e+00	 1.500000e+00	 1.042688e+01
0	 1.785714e+00	 1.571429e+00	 1.117477e+01
0	 1.785714e+00	 1.642857e+00	 1.150451e+01
0	 1.785714e+00	 1.714286e+00	 1.141611e+01
0	 1.785714e+00	 1.785714e+00	 1.090957e+01
0	 1.857143e+00	 1.428571e+00	 8.911198e+00
0	 1.857143e+00	 1.500000e+00	 9.587957e+00
0	 1.857143e+00	 1.571429e+00	 9.929580e+00
0	 1.857143e+00	 1.642857e+00	 9.936067e+00
0	 1.857143e+00	 1.714286e+00	 9.607419e+00
0	 1.857143e+00	 1.785714e+00	 8.943635e+00
0	 1.928571e+00	 1.428571e+00	 8.605457e+00
0	 1.928571e+00	 1.500000e+00	 8.897856e+00
0	 1.928571e+00	 1.571429e+00	 8.938127e+00
0	 1.928571e+00	 1.642857e+00	 8.726271e+00
0	 1.928571e+00	 1.714286e+00	 8.262288e+00
0	 1.928571e+00	 1.785714e+00	 7.546178e+00
0	 2.000000e+00	 1.428571e+00	 8.343618e+00
0	 2.000000e+00	 1.500000e+00	 8.356572e+00
0	 2.000000e+00	 1.571429e+00	 8.200407e+00
0	 2.000000e+00	 1.642857e+00	 7.875123e+00
0	 2.000000e+00	 1.714286e+00	 7.380720e+00
0	 2.000000e+00	 1.785714e+00	 6.717198e+00
0	 2.071429e+00	 1.428571e+00	 8.125682e+00
0	 2.071429e+00	 1.500000e+00	 7.964106e+00
0	 2.071429e+00	 1.571429e+00	 7.716419e+00
0	 2.071429e+00	 1.642857e+00	 7.382622e+00
0	 2.071429e+00	 1.714286e+00	 6.962714e+00
0	 2.071429e+00	 1.785714e+00	 6.456696e+00
0	 2.142857e+00	 1.428571e+00	 7.951650e+00
0	 2.142857e+00	 1.500000e+00	 7.720458e+00
0	 2.142857e+00	 1.571429e+00	 7.486165e+00
0	 2.142857e+00	 1.642857e+00	 7.248769e+00
0	 2.142857e+00	 1.714286e+00	 7.008271e+00
0	 2.142857e+00	 1.785714e+00	 6.764671e+00
0	 1.785714e+00	 1.785714e+00	 1.090957e+01
0	 1.785714e+00	 1.857143e+00	 1.044322e+01
0	 1.785714e+00	 1.928571e+00	 1.002737e+01
0	 1.785714e+00	 2.000000e+00	 9.662015e+00
0	 1.785714e+00	 2.071429e+00	 9.347164e+00
0	 1.785714e+00	 2.142857e+00	 9.082811e+00
0	 1.857143e+00	 1.785714e+00	 8.943635e+00
0	 1.857143e+00	 1.857143e+00	 8.966430e+00
0	 1.857143e+00	 1.928571e+00	 9.016899e+00
0	 1.857143e+00	 2.000000e+00	 9.095043e+00
0	 1.857143e+00	 2.071429e+00	 9.200860e+00
0	 1.857143e+00	 2.142857e+00	 9.334352e+00
0	 1.928571e+00	 1.785714e+00	 7.546178e+00
0	 1.928571e+00	 1.857143e+00	 7.908648e+00
0	 1.928571e+00	 1.928571e+00	 8.275968e+00
0	 1.928571e+00	 2.000000e+00	 8.648135e+00
0	 1.928571e+00	 2.071429e+00	 9.025152e+00
0	 1.928571e+00	 2.142857e+00	 9.407016e+00
0	 2.000000e+00	 1.785714e+00	 6.717198e+00
0	 2.000000e+00	 1.857143e+00	 7.269874e+00
0	 2.000000e+00	 1.928571e+00	 7.804572e+00
0	 2.000000e+00	 2.000000e+00	 8.321294e+00
0	 2.000000e+00	 2.071429e+00	 8.820038e+00
0	 2.000000e+00	 2.142857e+00	 9.300805e+00
0	 2.071429e+00	 1.785714e+00	 6.456696e+00
0	 2.071429e+00	 1.857143e+00	 7.050105e+00
0	 2.071429e+00	 1.928571e+00	 7.602713e+00
0	 2.071429e+00	 2.000000e+00	 8.114517e+00
0	 2.071429e+00	 2.071429e+00	 8.585519e+00
0	 2.071429e+00	 2.142857e+00	 9.015719e+00
0	 2.142857e+00	 1.785714e+00	 6.764671e+00
0	 2.142857e+00	 1.857143e+00	 7.249344e+00
0	 2.142857e+00	 1.928571e+00	 7.670389e+00
0	 2.142857e+00	 2.000000e+00	 8.027807e+00
0	 2.142857e+00	 2.071429e+00	 8.321596e+00
0	 2.142857e+00	 2.142857e+00	 8.551756e+00
0	 1.785714e+00	 2.142857e+00	 9.082811e+00
0	 1.785714e+00	 2.214286e+00	 9.404241e+00
0	 1.785714e+00	 2.285714e+00	 9.677203e+00
0	 1.785714e+00	 2.357143e+00	 9.901696e+00
0	 1.785714e+00	 2.428571e+00	 1.007772e+01
0	 1.785714e+00	 2.500000e+00	 1.020528e+01
0	 1.857143e+00	 2.142857e+00	 9.334352e+00
0	 1.857143e+00	 2.214286e+00	 9.477751e+00
0	 1.857143e+00	 2.285714e+00	 9.586066e+00
0	 1.857143e+00	 2.357143e+00	 9.659296e+00
0	 1.857143e+00	 2.428571e+00	 9.697442e+00
0	 1.857143e+00	 2.500000e+00	 9.700503e+00
0	 1.928571e+00	 2.142857e+00	 9.407016e+00
0	 1.928571e+00	 2.214286e+00	 9.427538e+00
0	 1.928571e+00	 2.285714e+00	 9.426359e+00
0	 1.928571e+00	 2.357143e+00	 9.403479e+00
0	 1.928571e+00	 2.428571e+00	 9.358899e+00
0	 1.928571e+00	 2.500000e+00	 9.292617e+00
0	 2.000000e+00	 2.142857e+00	 9.300805e+00
0	 2.000000e+00	 2.214286e+00	 9.253602e+00
0	 2.000000e+00	 2.285714e+00	 9.198082e+00
0	 2.000000e+00	 2.357143e+00	 9.134245e+00
0	 2.000000e+00	 2.428571e+00	 9.062092e+00
0	 2.000000e+00	 2.500000e+00	 8.981621e+00
0	 2.071429e+00	 2.142857e+00	 9.015719e+00
0	 2.071429e+00	 2.214286e+00	 8.955944e+00
0	 2.071429e+00	 2.285714e+00	 8.901236e+00
0	 2.071429e+00	 2.357143e+00	 8.851595e+00
0	 2.071429e+00	 2.428571e+00	 8.807021e+00
0	 2.071429e+00	 2.500000e+00	 8.767514e+00
0	 2.142857e+00	 2.142857e+00	 8.551756e+00
0	 2.142857e+00	 2.214286e+00	 8.534563e+00
0	 2.142857e+00	 2.285714e+00	 8.535820e+00
0	 2.142857e+00	 2.357143e+00	 8.555528e+00
0	 2.142857e+00	 2.428571e+00	 8.593687e+00
0	 2.142857e+00	 2.500000e+00	 8.650296e+00
0	 1.785714e+00	 2.500000e+00	 1.020528e+01
0	 1.785714e+00	 2.571429e+00	 1.016444e+01
0	 1.785714e+00	 2.642857e+00	 1.014631e+01
0	 1.785714e+00	 2.714286e+00	 1.015091e+01
0	 1.785714e+00	 2.785714e+00	 1.017823e+01
0	 1.785714e+00	 2.857143e+00	 1.022827e+01
0	 1.857143e+00	 2.500000e+00	 9.700503e+00
0	 1.857143e+00	 2.571429e+00	 9.745289e+00
0	 1.857143e+00	 2.642857e+00	 9.804616e+00
0	 1.857143e+00	 2.714286e+00	 9.878485e+00
0	 1.857143e+00	 2.785714e+00	 9.966896e+00
0	 1.857143e+00	 2.857143e+00	 1.006985e+01
0	 1.928571e+00	 2.500000e+00	 9.292617e+00
0	 1.928571e+00	 2.571429e+00	 9.401533e+00
0	 1.928571e+00	 2.642857e+00	 9.516812e+00
0	 1.928571e+00	 2.714286e+00	 9.638453e+00
0	 1.928571e+00	 2.785714e+00	 9.766457e+00
0	 1.928571e+00	 2.857143e+00	 9.900824e+00
0	 2.000000e+00	 2.500000e+00	 8.981621e+00
0	 2.000000e+00	 2.571429e+00	 9.133169e+00
0	 2.000000e+00	 2.642857e+00	 9.282901e+00
0	 2.000000e+00	 2.714286e+00	 9.430817e+00
0	 2.000000e+00	 2.785714e+00	 9.576916e+00
0	 2.000000e+00	 2.857143e+00	 9.721199e+00
0	 2.071429e+00	 2.500000e+00	 8.767514e+00
0	 2.071429e+00	 2.571429e+00	 8.940197e+00
0	 2.071429e+00	 2.642857e+00	 9.102885e+00
0	 2.071429e+00	 2.714286e+00	 9.255577e+00
0	 2.071429e+00	 2.785714e+00	 9.398273e+00
0	 2.071429e+00	 2.857143e+00	 9.530974e+00
0	 2.142857e+00	 2.500000e+00	 8.650296e+00
0	 2.142857e+00	 2.571429e+00	 8.822616e+00
0	 2.142857e+00	 2.642857e+00	 8.976762e+00
0	 2.142857e+00	 2.714286e+00	 9.112733e+00
0	 2.142857e+00	 2.785714e+00	 9.230529e+00
0	 2.142857e+00	 2.857143e+00	 9.330150e+00
0	 1.785714e+00	 2.857143e+00	 1.022827e+01
0	 1.785714e+00	 2.928571e+00	 1.027987e+01
0	 1.785714e+00	 3.000000e+00	 1.032686e+01
0	 1.785714e+00	 3.071429e+00	 1.036924e+01
0	 1.785714e+00	 3.142857e+00	 1.040702e+01
0	 1.785714e+00	 3.214286e+00	 1.044019e+01
0	 1.857143e+00	 2.857143e+00	 1.006985e+01
0	 1.857143e+00	 2.928571e+00	 1.010854e+01
0	 1.857143e+00	 3.000000e+00	 1.014545e+01
0	 1.857143e+00	 3.071429e+00	 1.018059e+01
0	 1.857143e+00	 3.142857e+00	 1.021394e+01
0	 1.857143e+00	 3.214286e+00	 1.024553e+01
0	 1.928571e+00	 2.857143e+00	 9.900824e+00
0	 1.928571e+00	 2.928571e+00	 9.931618e+00
0	 1.928571e+00	 3.000000e+00	 9.963465e+00
0	 1.928571e+00	 3.071429e+00	 9.996365e+00
0	 1.928571e+00	 3.142857e+00	 1.003032e+01
0	 1.928571e+00	 3.214286e+00	 1.006532e+01
0	 2.000000e+00	 2.857143e+00	 9.721199e+00
0	 2.000000e+00	 2.928571e+00	 9.749111e+00
0	 2.000000e+00	 3.000000e+00	 9.780905e+00
0	 2.000000e+00	 3.071429e+00	 9.816580e+00
0	 2.000000e+00	 3.142857e+00	 9.856137e+00
0	 2.000000e+00	 3.214286e+00	 9.899575e+00
0	 2.071429e+00	 2.857143e+00	 9.530974e+00
0	 2.071429e+00	 2.928571e+00	 9.561016e+00
0	 2.071429e+00	 3.000000e+00	 9.597768e+00
0	 2.071429e+00	 3.071429e+00	 9.641231e+00
0	 2.071429e+00	 3.142857e+00	 9.691405e+00
0	 2.071429e+00	 3.214286e+00	 9.748290e+00
0	 2.142857e+00	 2.857143e+00	 9.330150e+00
0	 2.142857e+00	 2.928571e+00	 9.367333e+00
0	 2.142857e+00	 3.000000e+00	 9.414056e+00
0	 2.142857e+00	 3.071429e+00	 9.470319e+00
0	 2.142857e+00	 3.142857e+00	 9.536122e+00
0	 2.142857e+00	 3.214286e+00	 9.611465e+00
0	 1.785714e+00	 3.214286e+00	 1.044019e+01
0	 1.785714e+00	 3.285714e+00	 1.043979e+01
0	 1.785714e+00	 3.357143e+00	 1.044551e+01
0	 1.785714e+00	 3.428571e+00	 1.045736e+01
0	 1.785714e+00	 3.500000e+00	 1.047533e+01
0	 1.785714e+00	 3.571429e+00	 1.049944e+01
0	 1.857143e+00	 3.214286e+00	 1.024553e+01
0	 1.857143e+00	 3.285714e+00	 1.026044e+01
0	 1.857143e+00	 3.357143e+00	 1.027998e+01
0	 1.857143e+00	 3.428571e+00	 1.030415e+01
0	 1.857143e+00	 3.500000e+00	 1.033295e+01
0	 1.857143e+00	 3.571429e+00	 1.036637e+01
0	 1.928571e+00	 3.214286e+00	 1.006532e+01
0	 1.928571e+00	 3.285714e+00	 1.009319e+01
0	 1.928571e+00	 3.357143e+00	 1.012418e+01
0	 1.928571e+00	 3.428571e+00	 1.015830e+01
0	 1.928571e+00	 3.500000e+00	 1.019555e+01
0	 1.928571e+00	 3.571429e+00	 1.023592e+01
0	 2.000000e+00	 3.214286e+00	 9.899575e+00
0	 2.000000e+00	 3.285714e+00	 9.938027e+00
0	 2.000000e+00	 3.357143e+00	 9.978104e+00
0	 2.000000e+00	 3.428571e+00	 1.001981e+01
0	 2.000000e+00	 3.500000e+00	 1.006314e+01
0	 2.000000e+00	 3.571429e+00	 1.010809e+01
0	 2.071429e+00	 3.214286e+00	 9.748290e+00
0	 2.071429e+00	 3.285714e+00	 9.794957e+00
0	 2.071429e+00	 3.357143e+00	 9.841750e+00
0	 2.071429e+00	 3.428571e+00	 9.888668e+00
0	 2.071429e+00	 3.500000e+00	 9.935712e+00
0	 2.071429e+00	 3.571429e+00	 9.982882e+00
0	 2.142857e+00	 3.214286e+00	 9.611465e+00
0	 2.142857e+00	 3.285714e+00	 9.663979e+00
0	 2.142857e+00	 3.357143e+00	 9.715119e+00
0	 2.142857e+00	 3.428571e+00	 9.764884e+00
0	 2.142857e+00	 3.500000e+00	 9.813274e+00
0	 2.142857e+00	 3.571429e+00	 9.860290e+00
0	 1.785714e+00	 3.571429e+00	 1.049944e+01
0	 1.785714e+00	 3.642857e+00	 1.050382e+01
0	 1.785714e+00	 3.714286e+00	 1.050889e+01
0	 1.785714e+00	 3.785714e+00	 1.051464e+01
0	 1.785714e+00	 3.857143e+00	 1.052107e+01
0	 1.785714e+00	 3.928571e+00	 1.052819e+01
0	 1.857143e+00	 3.571429e+00	 1.036637e+01
0	 1.857143e+00	 3.642857e+00	 1.037456e+01
0	 1.857143e+00	 3.714286e+00	 1.038388e+01
0	 1.857143e+00	 3.785714e+00	 1.039435e+01
0	 1.857143e+00	 3.857143e+00	 1.040596e+01
0	 1.857143e+00	 3.928571e+00	 1.041871e+01
0	 1.928571e+00	 3.571429e+00	 1.023592e+01
0	 1.928571e+00	 3.642857e+00	 1.024792e+01
0	 1.928571e+00	 3.714286e+00	 1.026152e+01
0	 1.928571e+00	 3.785714e+00	 1.027672e+01
0	 1.928571e+00	 3.857143e+00	 1.029352e+01
0	 1.928571e+00	 3.928571e+00	 1.031192e+01
0	 2.000000e+00	 3.571429e+00	 1.010809e+01
0	 2.000000e+00	 3.642857e+00	 1.012392e+01
0	 2.000000e+00	 3.714286e+00	 1.014181e+01
0	 2.000000e+00	 3.785714e+00	 1.016176e+01
0	 2.000000e+00	 3.857143e+00	 1.018376e+01
0	 2.000000e+00	 3.928571e+00	 1.020782e+01
0	 2.071429e+00	 3.571429e+00	 9.982882e+00
0	 2.071429e+00	 3.642857e+00	 1.000256e+01
0	 2.071429e+00	 3.714286e+00	 1.002475e+01
0	 2.071429e+00	 3.785714e+00	 1.004945e+01
0	 2.071429e+00	 3.857143e+00	 1.007667e+01
0	 2.071429e+00	 3.928571e+00	 1.010641e+01
0	 2.142857e+00	 3.571429e+00	 9.860290e+00
0	 2.142857e+00	 3.642857e+00	 9.883823e+00
0	 2.142857e+00	 3.714286e+00	 9.910330e+00
0	 2.142857e+00	 3.785714e+00	 9.939811e+00
0	 2.142857e+00	 3.857143e+00	 9.972264e+00
0	 2.142857e+00	 3.928571e+00	 1.000769e+01
0	 1.785714e+00	 3.928571e+00	 1.052819e+01
0	 1.785714e+00	 4.000000e+00	 1.052478e+01
0	 1.785714e+00	 4.071429e+00	 1.052318e+01
0	 1.785714e+00	 4.142857e+00	 1.052338e+01
0	 1.785714e+00	 4.214286e+00	 1.052540e+01
0	 1.785714e+00	 4.285714e+00	 1.052922e+01
0	 1.857143e+00	 3.928571e+00	 1.041871e+01
0	 1.857143e+00	 4.000000e+00	 1.042018e+01
0	 1.857143e+00	 4.071429e+00	 1.042328e+01
0	 1.857143e+00	 4.142857e+00	 1.042799e+01
0	 1.857143e+00	 4.214286e+00	 1.043432e+01
0	 1.857143e+00	 4.285714e+00	 1.044228e+01
0	 1.928571e+00	 3.928571e+00	 1.031192e+01
0	 1.928571e+00	 4.000000e+00	 1.031798e+01
0	 1.928571e+00	 4.071429e+00	 1.032548e+01
0	 1.928571e+00	 4.142857e+00	 1.033440e+01
0	 1.928571e+00	 4.214286e+00	 1.034476e+01
0	 1.928571e+00	 4.285714e+00	 1.035655e+01
0	 2.000000e+00	 3.928571e+00	 1.020782e+01
0	 2.000000e+00	 4.000000e+00	 1.021818e+01
0	 2.000000e+00	 4.071429e+00	 1.022978e+01
0	 2.000000e+00	 4.142857e+00	 1.024263e+01
0	 2.000000e+00	 4.214286e+00	 1.025671e+01
0	 2.000000e+00	 4.285714e+00	 1.027204e+01
0	 2.071429e+00	 3.928571e+00	 1.010641e+01
0	 2.071429e+00	 4.000000e+00	 1.012077e+01
0	 2.071429e+00	 4.071429e+00	 1.013619e+01
0	 2.071429e+00	 4.142857e+00	 1.015266e+01
0	 2.071429e+00	 4.214286e+00	 1.017018e+01
0	 2.071429e+00	 4.285714e+00	 1.018875e+01
0	 2.142857e+00	 3.928571e+00	 1.000769e+01
0	 2.142857e+00	 4.000000e+00	 1.002576e+01
0	 2.142857e+00	 4.071429e+00	 1.004470e+01
0	 2.142857e+00	 4.142857e+00	 1.006449e+01
0	 2.142857e+00	 4.214286e+00	 1.008516e+01
0	 2.142857e+00	 4.285714e+00	 1.010668e+01
0	 1.785714e+00	 4.285714e+00	 1.052922e+01
0	 1.785714e+00	 4.357143e+00	 1.052422e+01
0	 1.785714e+00	 4.428571e+00	 1.052005e+01
0	 1.785714e+00	 4.500000e+00	 1.051671e+01
0	 1.785714e+00	 4.571429e+00	 1.051419e+01
0	 1.785714e+00	 4.642857e+00	 1.051251e+01
0	 1.857143e+00	 4.285714e+00	 1.044228e+01
0	 1.857143e+00	 4.357143e+00	 1.044040e+01
0	 1.857143e+00	 4.428571e+00	 1.043943e+01
0	 1.857143e+00	 4.500000e+00	 1.043936e+01
0	 1.857143e+00	 4.571429e+00	 1.044019e+01
0	 1.857143e+00	 4.642857e+00	 1.044192e+01
0	 1.928571e+00	 4.285714e+00	 1.035655e+01
0	 1.928571e+00	 4.357143e+00	 1.035770e+01
0	 1.928571e+00	 4.428571e+00	 1.035983e+01
0	 1.928571e+00	 4.500000e+00	 1.036293e+01
0	 1.928571e+00	 4.571429e+00	 1.036700e+01
0	 1.928571e+00	 4.642857e+00	 1.037204e+01
0	 2.000000e+00	 4.285714e+00	 1.027204e+01
0	 2.000000e+00	 4.357143e+00	 1.027612e+01
0	 2.000000e+00	 4.428571e+00	 1.028124e+01
0	 2.000000e+00	 4.500000e+00	 1.028740e+01
0	 2.000000e+00	 4.571429e+00	 1.029462e+01
0	 2.000000e+00	 4.642857e+00	 1.030288e+01
0	 2.071429e+00	 4.285714e+00	 1.018875e+01
0	 2.071429e+00	 4.357143e+00	 1.019565e+01
0	 2.071429e+00	 4.428571e+00	 1.020367e+01
0	 2.071429e+00	 4.500000e+00	 1.021280e+01
0	 2.071429e+00	 4.571429e+00	 1.022305e+01
0	 2.071429e+00	 4.642857e+00	 1.023443e+01
0	 2.142857e+00	 4.285714e+00	 1.010668e+01
0	 2.142857e+00	 4.357143e+00	 1.011630e+01
0	 2.142857e+00	 4.428571e+00	 1.012711e+01
0	 2.142857e+00	 4.500000e+00	 1.013911e+01
0	 2.142857e+00	 4.571429e+00	 1.015230e+01
0	 2.142857e+00	 4.642857e+00	 1.016669e+01
0	 1.785714e+00	 4.642857e+00	 1.051251e+01
0	 1.785714e+00	 4.714286e+00	 1.050525e+01
0	 1.785714e+00	 4.785714e+00	 1.049880e+01
0	 1.785714e+00	 4.857143e+00	 1.049318e+01
0	 1.785714e+00	 4.928571e+00	 1.048836e+01
0	 1.785714e+00	 5.000000e+00	 1.048436e+01
0	 1.857143e+00	 4.642857e+00	 1.044192e+01
0	 1.857143e+00	 4.714286e+00	 1.043731e+01
0	 1.857143e+00	 4.785714e+00	 1.043351e+01
0	 1.857143e+00	 4.857143e+00	 1.043051e+01
0	 1.857143e+00	 4.928571e+00	 1.042831e+01
0	 1.857143e+00	 5.000000e+00	 1.042691e+01
0	 1.928571e+00	 4.642857e+00	 1.037204e+01
0	 1.928571e+00	 4.714286e+00	 1.037002e+01
0	 1.928571e+00	 4.785714e+00	 1.036878e+01
0	 1.928571e+00	 4.857143e+00	 1.036833e+01
0	 1.928571e+00	 4.928571e+00	 1.036867e+01
0	 1.928571e+00	 5.000000e+00	 1.036980e+01
0	 2.000000e+00	 4.642857e+00	 1.030288e+01
0	 2.000000e+00	 4.714286e+00	 1.030336e+01
0	 2.000000e+00	 4.785714e+00	 1.030461e+01
0	 2.000000e+00	 4.857143e+00	 1.030664e+01
0	 2.000000e+00	 4.928571e+00	 1.030945e+01
0	 2.000000e+00	 5.000000e+00	 1.031302e+01
0	 2.071429e+00	 4.642857e+00	 1.023443e+01
0	 2.071429e+00	 4.714286e+00	 1.023734e+01
0	 2.071429e+00	 4.785714e+00	 1.024101e+01
0	 2.071429e+00	 4.857143e+00	 1.024544e+01
0	 2.071429e+00	 4.928571e+00	 1.025064e+01
0	 2.071429e+00	 5.000000e+00	 1.025659e+01
0	 2.142857e+00	 4.642857e+00	 1.016669e+01
0	 2.142857e+00	 4.714286e+00	 1.017195e+01
0	 2.142857e+00	 4.785714e+00	 1.017797e+01
0	 2.142857e+00	 4.857143e+00	 1.018473e+01
0	 2.142857e+00	 4.928571e+00	 1.019224e+01
0	 2.142857e+00	 5.000000e+00	 1.020049e+01
0	 1.785714e+00	 5.000000e+00	 1.048436e+01
0	 1.785714e+00	 5.071429e+00	 1.047606e+01
0	 1.785714e+00	 5.142857e+00	 1.046831e+01
0	 1.785714e+00	 5.214286e+00	 1.046110e+01
0	 1.785714e+00	 5.285714e+00	 1.045445e+01
0	 1.785714e+00	 5.357143e+00	 1.044834e+01
0	 1.857143e+00	 5.000000e+00	 1.042691e+01
0	 1.857143e+00	 5.071429e+00	 1.042067e+01
0	 1.857143e+00	 5.142857e+00	 1.041500e+01
0	 1.857143e+00	 5.214286e+00	 1.040990e+01
0	 1.857143e+00	 5.285714e+00	 1.040537e+01
0	 1.857143e+00	 5.357143e+00	 1.040141e+01
0	 1.928571e+00	 5.000000e+00	 1.036980e+01
0	 1.928571e+00	 5.071429e+00	 1.036558e+01
0	 1.928571e+00	 5.142857e+00	 1.036195e+01
0	 1.928571e+00	 5.214286e+00	 1.035891e+01
0	 1.928571e+00	 5.285714e+00	 1.035646e+01
0	 1.928571e+00	 5.357143e+00	 1.035460e+01
0	 2.000000e+00	 5.000000e+00	 1.031302e+01
0	 2.000000e+00	 5.071429e+00	 1.031079e+01
0	 2.000000e+00	 5.142857e+00	 1.030916e+01
0	 2.000000e+00	 5.214286e+00	 1.030814e+01
0	 2.000000e+00	 5.285714e+00	 1.030773e+01
0	 2.000000e+00	 5.357143e+00	 1.030792e+01
0	 2.071429e+00	 5.000000e+00	 1.025659e+01
0	 2.071429e+00	 5.071429e+00	 1.025629e+01
0	 2.071429e+00	 5.142857e+00	 1.025662e+01
0	 2.071429e+00	 5.214286e+00	 1.025758e+01
0	 2.071429e+00	 5.285714e+00	 1.025916e+01
0	 2.071429e+00	 5.357143e+00	 1.026138e+01
0	 2.142857e+00	 5.000000e+00	 1.020049e+01
0	 2.142857e+00	 5.071429e+00	 1.020209e+01
0	 2.142857e+00	 5.142857e+00	 1.020434e+01
0	 2.142857e+00	 5.214286e+00	 1.020723e+01
0	 2.142857e+00	 5.285714e+00	 1.021077e+01
0	 2.142857e+00	 5.357143e+00	 1.021496e+01
0	 1.785714e+00	 5.357143e+00	 1.044834e+01
0	 1.785714e+00	 5.428571e+00	 1.043923e+01
0	 1.785714e+00	 5.500000e+00	 1.043056e+01
0	 1.785714e+00	 5.571429e+00	 1.042233e+01
0	 1.785714e+00	 5.642857e+00	 1.041455e+01
0	 1.785714e+00	 5.714286e+00	 1.040720e+01
0	 1.857143e+00	 5.357143e+00	 1.040141e+01
0	 1.857143e+00	 5.428571e+00	 1.039401e+01
0	 1.857143e+00	 5.500000e+00	 1.038706e+01
0	 1.857143e+00	 5.571429e+00	 1.038057e+01
0	 1.857143e+00	 5.642857e+00	 1.037452e+01
0	 1.857143e+00	 5.714286e+00	 1.036892e+01
0	 1.928571e+00	 5.357143e+00	 1.035460e+01
0	 1.928571e+00	 5.428571e+00	 1.034889e+01
0	 1.928571e+00	 5.500000e+00	 1.034364e+01
0	 1.928571e+00	 5.571429e+00	 1.033885e+01
0	 1.928571e+00	 5.642857e+00	 1.033451e+01
0	 1.928571e+00	 5.714286e+00	 1.033063e+01
0	 2.000000e+00	 5.357143e+00	 1.030792e+01
0	 2.000000e+00	 5.428571e+00	 1.030387e+01
0	 2.000000e+00	 5.500000e+00	 1.030029e+01
0	 2.000000e+00	 5.571429e+00	 1.029717e+01
0	 2.000000e+00	 5.642857e+00	 1.029452e+01
0	 2.000000e+00	 5.714286e+00	 1.029233e+01
0	 2.071429e+00	 5.357143e+00	 1.026138e+01
0	 2.071429e+00	 5.428571e+00	 1.025896e+01
0	 2.071429e+00	 5.500000e+00	 1.025702e+01
0	 2.071429e+00	 5.571429e+00	 1.025554e+01
0	 2.071429e+00	 5.642857e+00	 1.025454e+01
0	 2.071429e+00	 5.714286e+00	 1.025402e+01
0	 2.142857e+00	 5.357143e+00	 1.021496e+01
0	 2.142857e+00	 5.428571e+00	 1.021415e+01
0	 2.142857e+00	 5.500000e+00	 1.021381e+01
0	 2.142857e+00	 5.571429e+00	 1.021396e+01
0	 2.142857e+00	 5.642857e+00	 1.021459e+01
0	 2.142857e+00	 5.714286e+00	 1.021569e+01
0	 1.785714e+00	 5.714286e+00	 1.040720e+01
0	 1.785714e+00	 5.785714e+00	 1.039774e+01
0	 1.785714e+00	 5.857143e+00	 1.038860e+01
0	 1.785714e+00	 5.928571e+00	 1.037977e+01
0	 1.785714e+00	 6.000000e+00	 1.037126e+01
0	 1.785714e+00	 6.071429e+00	 1.036306e+01
0	 1.857143e+00	 5.714286e+00	 1.036892e+01
0	 1.857143e+00	 5.785714e+00	 1.036087e+01
0	 1.857143e+00	 5.857143e+00	 1.035314e+01
0	 1.857143e+00	 5.928571e+00	 1.034574e+01
0	 1.857143e+00	 6.000000e+00	 1.033867e+01
0	 1.857143e+00	 6.071429e+00	 1.033192e+01
0	 1.928571e+00	 5.714286e+00	 1.033063e+01
0	 1.928571e+00	 5.785714e+00	 1.032396e+01
0	 1.928571e+00	 5.857143e+00	 1.031764e+01
0	 1.928571e+00	 5.928571e+00	 1.031165e+01
0	 1.928571e+00	 6.000000e+00	 1.030600e+01
0	 1.928571e+00	 6.071429e+00	 1.030069e+01
0	 2.000000e+00	 5.714286e+00	 1.029233e+01
0	 2.000000e+00	 5.785714e+00	 1.028703e+01
0	 2.000000e+00	 5.857143e+00	 1.028209e+01
0	 2.000000e+00	 5.928571e+00	 1.027750e+01
0	 2.000000e+00	 6.000000e+00	 1.027326e+01
0	 2.000000e+00	 6.071429e+00	 1.026938e+01
0	 2.071429e+00	 5.714286e+00	 1.025402e+01
0	 2.071429e+00	 5.785714e+00	 1.025008e+01
0	 2.071429e+00	 5.857143e+00	 1.024650e+01
0	 2.071429e+00	 5.928571e+00	 1.024329e+01
0	 2.071429e+00	 6.000000e+00	 1.024045e+01
0	 2.071429e+00	 6.071429e+00	 1.023797e+01
0	 2.142857e+00	 5.714286e+00	 1.021569e+01
0	 2.142857e+00	 5.785714e+00	 1.021310e+01
0	 2.142857e+00	 5.857143e+00	 1.021088e+01
0	 2.142857e+00	 5.928571e+00	 1.020903e+01
0	 2.142857e+00	 6.000000e+00	 1.020756e+01
0	 2.142857e+00	 6.071429e+00	 1.020647e+01
0	 1.785714e+00	 6.071429e+00	 1.036306e+01
0	 1.785714e+00	 6.142857e+00	 1.035349e+01
0	 1.785714e+00	 6.214286e+00	 1.034415e+01
0	 1.785714e+00	 6.285714e+00	 1.033503e+01
0	 1.785714e+00	 6.357143e+00	 1.032614e+01
0	 1.785714e+00	 6.428571e+00	 1.031747e+01
0	 1.857143e+00	 6.071429e+00	 1.033192e+01
0	 1.857143e+00	 6.142857e+00	 1.032353e+01
0	 1.857143e+00	 6.214286e+00	 1.031537e+01
0	 1.857143e+00	 6.285714e+00	 1.030745e+01
0	 1.857143e+00	 6.357143e+00	 1.029976e+01
0	 1.857143e+00	 6.428571e+00	 1.029232e+01
0	 1.928571e+00	 6.071429e+00	 1.030069e+01
0	 1.928571e+00	 6.142857e+00	 1.029347e+01
0	 1.928571e+00	 6.214286e+00	 1.028649e+01
0	 1.928571e+00	 6.285714e+00	 1.027975e+01
0	 1.928571e+00	 6.357143e+00	 1.027326e+01
0	 1.928571e+00	 6.428571e+00	 1.026702e+01
0	 2.000000e+00	 6.071429e+00	 1.026938e+01
0	 2.000000e+00	 6.142857e+00	 1.026330e+01
0	 2.000000e+00	 6.214286e+00	 1.025749e+01
0	 2.000000e+00	 6.285714e+00	 1.025193e+01
0	 2.000000e+00	 6.357143e+00	 1.024663e+01
0	 2.000000e+00	 6.428571e+00	 1.024159e+01
0	 2.071429e+00	 6.071429e+00	 1.023797e+01
0	 2.071429e+00	 6.142857e+00	 1.023304e+01
0	 2.071429e+00	 6.214286e+00	 1.022839e+01
0	 2.071429e+00	 6.285714e+00	 1.022399e+01
0	 2.071429e+00	 6.357143e+00	 1.021987e+01
0	 2.071429e+00	 6.428571e+00	 1.021601e+01
0	 2.142857e+00	 6.071429e+00	 1.020647e+01
0	 2.142857e+00	 6.142857e+00	 1.020268e+01
0	 2.142857e+00	 6.214286e+00	 1.019917e+01
0	 2.142857e+00	 6.285714e+00	 1.019594e+01
0	 2.142857e+00	 6.357143e+00	 1.019298e+01
0	 2.142857e+00	 6.428571e+00	 1.019030e+01
0	 1.785714e+00	 6.428571e+00	 1.031747e+01
0	 1.785714e+00	 6.500000e+00	 1.030803e+01
0	 1.785714e+00	 6.571429e+00	 1.029873e+01
0	 1.785714e+00	 6.642857e+00	 1.028957e+01
0	 1.785714e+00	 6.714286e+00	 1.028056e+01
0	 1.785714e+00	 6.785714e+00	 1.027170e+01
0	 1.857143e+00	 6.428571e+00	 1.029232e+01
0	 1.857143e+00	 6.500000e+00	 1.028386e+01
0	 1.857143e+00	 6.571429e+00	 1.027555e+01
0	 1.857143e+00	 6.642857e+00	 1.026740e+01
0	 1.857143e+00	 6.714286e+00	 1.025941e+01
0	 1.857143e+00	 6.785714e+00	 1.025157e+01
0	 1.928571e+00	 6.428571e+00	 1.026702e+01
0	 1.928571e+00	 6.500000e+00	 1.025954e+01
0	 1.928571e+00	 6.571429e+00	 1.025223e+01
0	 1.928571e+00	 6.642857e+00	 1.024508e+01
0	 1.928571e+00	 6.714286e+00	 1.023809e+01
0	 1.928571e+00	 6.785714e+00	 1.023128e+01
0	 2.000000e+00	 6.428571e+00	 1.024159e+01
0	 2.000000e+00	 6.500000e+00	 1.023508e+01
0	 2.000000e+00	 6.571429e+00	 1.022875e+01
0	 2.000000e+00	 6.642857e+00	 1.022260e+01
0	 2.000000e+00	 6.714286e+00	 1.021663e+01
0	 2.000000e+00	 6.785714e+00	 1.021083e+01
0	 2.071429e+00	 6.428571e+00	 1.021601e+01
0	 2.071429e+00	 6.500000e+00	 1.021048e+01
0	 2.071429e+00	 6.571429e+00	 1.020514e+01
0	 2.071429e+00	 6.642857e+00	 1.019998e+01
0	 2.071429e+00	 6.714286e+00	 1.019500e+01
0	 2.071429e+00	 6.785714e+00	 1.019022e+01
0	 2.142857e+00	 6.428571e+00	 1.019030e+01
0	 2.142857e+00	 6.500000e+00	 1.018574e+01
0	 2.142857e+00	 6.571429e+00	 1.018137e+01
0	 2.142857e+00	 6.642857e+00	 1.017720e+01
0	 2.142857e+00	 6.714286e+00	 1.017322e+01
0	 2.142857e+00	 6.785714e+00	 1.016945e+01
0	 1.785714e+00	 6.785714e+00	 1.027170e+01
0	 1.785714e+00	 6.857143e+00	 1.026255e+01
0	 1.785714e+00	 6.928571e+00	 1.025347e+01
0	 1.785714e+00	 7.000000e+00	 1.024448e+01
0	 1.785714e+00	 7.071429e+00	 1.023555e+01
0	 1.785714e+00	 7.142857e+00	 1.022670e+01
0	 1.857143e+00	 6.785714e+00	 1.025157e+01
0	 1.857143e+00	 6.857143e+00	 1.024325e+01
0	 1.857143e+00	 6.928571e+00	 1.023502e+01
0	 1.857143e+00	 7.000000e+00	 1.022687e+01
0	 1.857143e+00	 7.071429e+00	 1.021881e+01
0	 1.857143e+00	 7.142857e+00	 1.021084e+01
0	 1.928571e+00	 6.785714e+00	 1.023128e+01
0	 1.928571e+00	 6.857143e+00	 1.022379e+01
0	 1.928571e+00	 6.928571e+00	 1.021640e+01
0	 1.928571e+00	 7.000000e+00	 1.020911e+01
0	 1.928571e+00	 7.071429e+00	 1.020191e+01
0	 1.928571e+00	 7.142857e+00	 1.019480e+01
0	 2.000000e+00	 6.785714e+00	 1.021083e+01
0	 2.000000e+00	 6.857143e+00	 1.020417e+01
0	 2.000000e+00	 6.928571e+00	 1.019762e+01
0	 2.000000e+00	 7.000000e+00	 1.019118e+01
0	 2.000000e+00	 7.071429e+00	 1.018484e+01
0	 2.000000e+00	 7.142857e+00	 1.017860e+01
0	 2.071429e+00	 6.785714e+00	 1.019022e+01
0	 2.071429e+00	 6.857143e+00	 1.018439e+01
0	 2.071429e+00	 6.928571e+00	 1.017868e+01
0	 2.071429e+00	 7.000000e+00	 1.017308e+01
0	 2.071429e+00	 7.071429e+00	 1.016760e+01
0	 2.071429e+00	 7.142857e+00	 1.016224e+01
0	 2.142857e+00	 6.785714e+00	 1.016945e+01
0	 2.142857e+00	 6.857143e+00	 1.016445e+01
0	 2.142857e+00	 6.928571e+00	 1.015957e+01
0	 2.142857e+00	 7.000000e+00	 1.015483e+01
0	 2.142857e+00	 7.071429e+00	 1.015020e+01
0	 2.142857e+00	 7.142857e+00	 1.014570e+01
0	 1.785714e+00	 7.142857e+00	 1.022670e+01
0	 1.785714e+00	 7.214286e+00	 1.021801e+01
0	 1.785714e+00	 7.285714e+00	 1.020932e+01
0	 1.785714e+00	 7.357143e+00	 1.020065e+01
0	 1.785714e+00	 7.428571e+00	 1.019199e+01
0	 1.785714e+00	 7.500000e+00	 1.018333e+01
0	 1.857143e+00	 7.142857e+00	 1.021084e+01
0	 1.857143e+00	 7.214286e+00	 1.020285e+01
0	 1.857143e+00	 7.285714e+00	 1.019488e+01
0	 1.857143e+00	 7.357143e+00	 1.018693e+01
0	 1.857143e+00	 7.428571e+00	 1.017901e+01
0	 1.857143e+00	 7.500000e+00	 1.017110e+01
0	 1.928571e+00	 7.142857e+00	 1.019480e+01
0	 1.928571e+00	 7.214286e+00	 1.018752e+01
0	 1.928571e+00	 7.285714e+00	 1.018027e+01
0	 1.928571e+00	 7.357143e+00	 1.017305e+01
0	 1.928571e+00	 7.428571e+00	 1.016586e+01
0	 1.928571e+00	 7.500000e+00	 1.015870e+01
0	 2.000000e+00	 7.142857e+00	 1.017860e+01
0	 2.000000e+00	 7.214286e+00	 1.017203e+01
0	 2.000000e+00	 7.285714e+00	 1.016549e+01
0	 2.000000e+00	 7.357143e+00	 1.015900e+01
0	 2.000000e+00	 7.428571e+00	 1.015255e+01
0	 2.000000e+00	 7.500000e+00	 1.014614e+01
0	 2.071429e+00	 7.142857e+00	 1.016224e+01
0	 2.071429e+00	 7.214286e+00	 1.015637e+01
0	 2.071429e+00	 7.285714e+00	 1.015055e+01
0	 2.071429e+00	 7.357143e+00	 1.014479e+01
0	 2.071429e+00	 7.428571e+00	 1.013908e+01
0	 2.071429e+00	 7.500000e+00	 1.013342e+01
0	 2.142857e+00	 7.142857e+00	 1.014570e+01
0	 2.142857e+00	 7.214286e+00	 1.014054e+01
0	 2.142857e+00	 7.285714e+00	 1.013545e+01
0	 2.142857e+00	 7.357143e+00	 1.013041e+01
0	 2.142857e+00	 7.428571e+00	 1.012544e+01
0	 2.142857e+00	 7.500000e+00	 1.012053e+01
0	 1.785714e+00	 7.500000e+00	 1.018333e+01
0	 1.785714e+00	 7.571429e+00	 1.017524e+01
0	 1.785714e+00	 7.642857e+00	 1.016709e+01
0	 1.785714e+00	 7.714286e+00	 1.015889e+01
0	 1.785714e+00	 7.785714e+00	 1.015064e+01
0	 1.785714e+00	 7.857143e+00	 1.014234e+01
0	 1.857143e+00	 7.500000e+00	 1.017110e+01
0	 1.857143e+00	 7.571429e+00	 1.016360e+01
0	 1.857143e+00	 7.642857e+00	 1.015607e+01
0	 1.857143e+00	 7.714286e+00	 1.014849e+01
0	 1.857143e+00	 7.785714e+00	 1.014087e+01
0	 1.857143e+00	 7.857143e+00	 1.013321e+01
0	 1.928571e+00	 7.500000e+00	 1.015870e+01
0	 1.928571e+00	 7.571429e+00	 1.015181e+01
0	 1.928571e+00	 7.642857e+00	 1.014488e+01
0	 1.928571e+00	 7.714286e+00	 1.013793e+01
0	 1.928571e+00	 7.785714e+00	 1.013094e+01
0	 1.928571e+00	 7.857143e+00	 1.012393e+01
0	 2.000000e+00	 7.500000e+00	 1.014614e+01
0	 2.000000e+00	 7.571429e+00	 1.013985e+01
0	 2.000000e+00	 7.642857e+00	 1.013354e+01
0	 2.000000e+00	 7.714286e+00	 1.012721e+01
0	 2.000000e+00	 7.785714e+00	 1.012086e+01
0	 2.000000e+00	 7.857143e+00	 1.011449e+01
0	 2.071429e+00	 7.500000e+00	 1.013342e+01
0	 2.071429e+00	 7.571429e+00	 1.012773e+01
0	 2.071429e+00	 7.642857e+00	 1.012203e+01
0	 2.071429e+00	 7.714286e+00	 1.011633e+01
0	 2.071429e+00	 7.785714e+00	 1.011061e+01
0	 2.071429e+00	 7.857143e+00	 1.010489e+01
0	 2.142857e+00	 7.500000e+00	 1.012053e+01
0	 2.142857e+00	 7.571429e+00	 1.011544e+01
0	 2.142857e+00	 7.642857e+00	 1.011036e+01
0	 2.142857e+00	 7.714286e+00	 1.010529e+01
0	 2.142857e+00	 7.785714e+00	 1.010021e+01
0	 2.142857e+00	 7.857143e+00	 1.009514e+01
0	 1.785714e+00	 7.857143e+00	 1.014234e+01
0	 1.785714e+00	 7.928571e+00	 1.013499e+01
0	 1.785714e+00	 8.000000e+00	 1.012753e+01
0	 1.785714e+00	 8.071429e+00	 1.011996e+01
0	 1.785714e+00	 8.142857e+00	 1.011228e+01
0	 1.785714e+00	 8.214286e+00	 1.010448e+01
0	 1.857143e+00	 7.857143e+00	 1.013321e+01
0	 1.857143e+00	 7.928571e+00	 1.012637e+01
0	 1.857143e+00	 8.000000e+00	 1.011943e+01
0	 1.857143e+00	 8.071429e+00	 1.011239e+01
0	 1.857143e+00	 8.142857e+00	 1.010525e+01
0	 1.857143e+00	 8.214286e+00	 1.009801e+01
0	 1.928571e+00	 7.857143e+00	 1.012393e+01
0	 1.928571e+00	 7.928571e+00	 1.011760e+01
0	 1.928571e+00	 8.000000e+00	 1.011118e+01
0	 1.928571e+00	 8.071429e+00	 1.010467e+01
0	 1.928571e+00	 8.142857e+00	 1.009807e+01
0	 1.928571e+00	 8.214286e+00	 1.009139e+01
0	 2.000000e+00	 7.857143e+00	 1.011449e+01
0	 2.000000e+00	 7.928571e+00	 1.010867e+01
0	 2.000000e+00	 8.000000e+00	 1.010277e+01
0	 2.000000e+00	 8.071429e+00	 1.009680e+01
0	 2.000000e+00	 8.142857e+00	 1.009075e+01
0	 2.000000e+00	 8.214286e+00	 1.008462e+01
0	 2.071429e+00	 7.857143e+00	 1.010489e+01
0	 2.071429e+00	 7.928571e+00	 1.009959e+01
0	 2.071429e+00	 8.000000e+00	 1.009421e+01
0	 2.071429e+00	 8.071429e+00	 1.008878e+01
0	 2.071429e+00	 8.142857e+00	 1.008327e+01
0	 2.071429e+00	 8.214286e+00	 1.007771e+01
0	 2.142857e+00	 7.857143e+00	 1.009514e+01
0	 2.142857e+00	 7.928571e+00	 1.009035e+01
0	 2.142857e+00	 8.000000e+00	 1.008550e+01
0	 2.142857e+00	 8.071429e+00	 1.008060e+01
0	 2.142857e+00	 8.142857e+00	 1.007565e+01
0	 2.142857e+00	 8.214286e+00	 1.007064e+01
0	 1.785714e+00	 8.214286e+00	 1.010448e+01
0	 1.785714e+00	 8.285714e+00	 1.009805e+01
0	 1.785714e+00	 8.357143e+00	 1.009145e+01
0	 1.785714e+00	 8.428571e+00	 1.008467e+01
0	 1.785714e+00	 8.500000e+00	 1.007771e+01
0	 1.785714e+00	 8.571429e+00	 1.007057e+01
0	 1.857143e+00	 8.214286e+00	 1.009801e+01
0	 1.857143e+00	 8.285714e+00	 1.009200e+01
0	 1.857143e+00	 8.357143e+00	 1.008584e+01
0	 1.857143e+00	 8.428571e+00	 1.007951e+01
0	 1.857143e+00	 8.500000e+00	 1.007301e+01
0	 1.857143e+00	 8.571429e+00	 1.006635e+01
0	 1.928571e+00	 8.214286e+00	 1.009139e+01
0	 1.928571e+00	 8.285714e+00	 1.008581e+01
0	 1.928571e+00	 8.357143e+00	 1.008008e+01
0	 1.928571e+00	 8.428571e+00	 1.007420e+01
0	 1.928571e+00	 8.500000e+00	 1.006817e+01
0	 1.928571e+00	 8.571429e+00	 1.006199e+01
0	 2.000000e+00	 8.214286e+00	 1.008462e+01
0	 2.000000e+00	 8.285714e+00	 1.007947e+01
0	 2.000000e+00	 8.357143e+00	 1.007418e+01
0	 2.000000e+00	 8.428571e+00	 1.006875e+01
0	 2.000000e+00	 8.500000e+00	 1.006319e+01
0	 2.000000e+00	 8.571429e+00	 1.005748e+01
0	 2.071429e+00	 8.214286e+00	 1.007771e+01
0	 2.071429e+00	 8.285714e+00	 1.007298e+01
0	 2.071429e+00	 8.357143e+00	 1.006813e+01
0	 2.071429e+00	 8.428571e+00	 1.006316e+01
0	 2.071429e+00	 8.500000e+00	 1.005806e+01
0	 2.071429e+00	 8.571429e+00	 1.005284e+01
0	 2.142857e+00	 8.214286e+00	 1.007064e+01
0	 2.142857e+00	 8.285714e+00	 1.006634e+01
0	 2.142857e+00	 8.357143e+00	 1.006194e+01
0	 2.142857e+00	 8.428571e+00	 1.005742e+01
0	 2.142857e+00	 8.500000e+00	 1.005279e+01
0	 2.142857e+00	 8.571429e+00	 1.004805e+01
0	 1.785714e+00	 8.571429e+00	 1.007057e+01
0	 1.785714e+00	 8.642857e+00	 1.006527e+01
0	 1.785714e+00	 8.714286e+00	 1.005972e+01
0	 1.785714e+00	 8.785714e+00	 1.005392e+01
0	 1.785714e+00	 8.857143e+00	 1.004787e+01
0	 1.785714e+00	 8.928571e+00	 1.004157e+01
0	 1.857143e+00	 8.571429e+00	 1.006635e+01
0	 1.857143e+00	 8.642857e+00	 1.006139e+01
0	 1.857143e+00	 8.714286e+00	 1.005620e+01
0	 1.857143e+00	 8.785714e+00	 1.005077e+01
0	 1.857143e+00	 8.857143e+00	 1.004511e+01
0	 1.857143e+00	 8.928571e+00	 1.003922e+01
0	 1.928571e+00	 8.571429e+00	 1.006199e+01
0	 1.928571e+00	 8.642857e+00	 1.005737e+01
0	 1.928571e+00	 8.714286e+00	 1.005253e+01
0	 1.928571e+00	 8.785714e+00	 1.004748e+01
0	 1.928571e+00	 8.857143e+00	 1.004221e+01
0	 1.928571e+00	 8.928571e+00	 1.003672e+01
0	 2.000000e+00	 8.571429e+00	 1.005748e+01
0	 2.000000e+00	 8.642857e+00	 1.005321e+01
0	 2.000000e+00	 8.714286e+00	 1.004873e+01
0	 2.000000e+00	 8.785714e+00	 1.004405e+01
0	 2.000000e+00	 8.857143e+00	 1.003917e+01
0	 2.000000e+00	 8.928571e+00	 1.003409e+01
0	 2.071429e+00	 8.571429e+00	 1.005284e+01
0	 2.071429e+00	 8.642857e+00	 1.004890e+01
0	 2.071429e+00	 8.714286e+00	 1.004478e+01
0	 2.071429e+00	 8.785714e+00	 1.004047e+01
0	 2.071429e+00	 8.857143e+00	 1.003598e+01
0	 2.071429e+00	 8.928571e+00	 1.003131e+01
0	 2.142857e+00	 8.571429e+00	 1.004805e+01
0	 2.142857e+00	 8.642857e+00	 1.004445e+01
0	 2.142857e+00	 8.714286e+00	 1.004069e+01
0	 2.142857e+00	 8.785714e+00	 1.003675e+01
0	 2.142857e+00	 8.857143e+00	 1.003265e+01
0	 2.142857e+00	 8.928571e+00	 1.002838e+01
0	 1.785714e+00	 8.928571e+00	 1.004157e+01
0	 1.785714e+00	 9.000000e+00	 1.003766e+01
0	 1.785714e+00	 9.071429e+00	 1.003341e+01
0	 1.785714e+00	 9.142857e+00	 1.002883e+01
0	 1.785714e+00	 9.214286e+00	 1.002391e+01
0	 1.785714e+00	 9.285714e+00	 1.001867e+01
0	 1.857143e+00	 8.928571e+00	 1.003922e+01
0	 1.857143e+00	 9.000000e+00	 1.003555e+01
0	 1.857143e+00	 9.071429e+00	 1.003158e+01
0	 1.857143e+00	 9.142857e+00	 1.002729e+01
0	 1.857143e+00	 9.214286e+00	 1.002269e+01
0	 1.857143e+00	 9.285714e+00	 1.001778e+01
0	 1.928571e+00	 8.928571e+00	 1.003672e+01
0	 1.928571e+00	 9.000000e+00	 1.003331e+01
0	 1.928571e+00	 9.071429e+00	 1.002960e+01
0	 1.928571e+00	 9.142857e+00	 1.002561e+01
0	 1.928571e+00	 9.214286e+00	 1.002132e+01
0	 1.928571e+00	 9.285714e+00	 1.001674e+01
0	 2.000000e+00	 8.928571e+00	 1.003409e+01
0	 2.000000e+00	 9.000000e+00	 1.003092e+01
0	 2.000000e+00	 9.071429e+00	 1.002748e+01
0	 2.000000e+00	 9.142857e+00	 1.002378e+01
0	 2.000000e+00	 9.214286e+00	 1.001980e+01
0	 2.000000e+00	 9.285714e+00	 1.001555e+01
0	 2.071429e+00	 8.928571e+00	 1.003131e+01
0	 2.071429e+00	 9.000000e+00	 1.002839e+01
0	 2.071429e+00	 9.071429e+00	 1.002522e+01
0	 2.071429e+00	 9.142857e+00	 1.002180e+01
0	 2.071429e+00	 9.214286e+00	 1.001813e+01
0	 2.071429e+00	 9.285714e+00	 1.001421e+01
0	 2.142857e+00	 8.928571e+00	 1.002838e+01
0	 2.142857e+00	 9.000000e+00	 1.002571e+01
0	 2.142857e+00	 9.071429e+00	 1.002281e+01
0	 2.142857e+00	 9.142857e+00	 1.001967e+01
0	 2.142857e+00	 9.214286e+00	 1.001631e+01
0	 2.142857e+00	 9.285714e+00	 1.001272e+01
0	 1.785714e+00	 9.285714e+00	 1.001867e+01
0	 1.785714e+00	 9.357143e+00	 1.001644e+01
0	 1.785714e+00	 9.428571e+00	 1.001377e+01
0	 1.785714e+00	 9.500000e+00	 1.001069e+01
0	 1.785714e+00	 9.571429e+00	 1.000718e+01
0	 1.785714e+00	 9.642857e+00	 1.000324e+01
0	 1.857143e+00	 9.285714e+00	 1.001778e+01
0	 1.857143e+00	 9.357143e+00	 1.001570e+01
0	 1.857143e+00	 9.428571e+00	 1.001321e+01
0	 1.857143e+00	 9.500000e+00	 1.001033e+01
0	 1.857143e+00	 9.571429e+00	 1.000705e+01
0	 1.857143e+00	 9.642857e+00	 1.000337e+01
0	 1.928571e+00	 9.285714e+00	 1.001674e+01
0	 1.928571e+00	 9.357143e+00	 1.001481e+01
0	 1.928571e+00	 9.428571e+00	 1.001250e+01
0	 1.928571e+00	 9.500000e+00	 1.000981e+01
0	 1.928571e+00	 9.571429e+00	 1.000676e+01
0	 1.928571e+00	 9.642857e+00	 1.000333e+01
0	 2.000000e+00	 9.285714e+00	 1.001555e+01
0	 2.000000e+00	 9.357143e+00	 1.001376e+01
0	 2.000000e+00	 9.428571e+00	 1.001162e+01
0	 2.000000e+00	 9.500000e+00	 1.000913e+01
0	 2.000000e+00	 9.571429e+00	 1.000630e+01
0	 2.000000e+00	 9.642857e+00	 1.000312e+01
0	 2.071429e+00	 9.285714e+00	 1.001421e+01
0	 2.071429e+00	 9.357143e+00	 1.001256e+01
0	 2.071429e+00	 9.428571e+00	 1.001058e+01
0	 2.071429e+00	 9.500000e+00	 1.000829e+01
0	 2.071429e+00	 9.571429e+00	 1.000567e+01
0	 2.071429e+00	 9.642857e+00	 1.000274e+01
0	 2.142857e+00	 9.285714e+00	 1.001272e+01
0	 2.142857e+00	 9.357143e+00	 1.001120e+01
0	 2.142857e+00	 9.428571e+00	 1.000939e+01
0	 2.142857e+00	 9.500000e+00	 1.000728e+01
0	 2.142857e+00	 9.571429e+00	 1.000488e+01
0	 2.142857e+00	 9.642857e+00	 1.000218e+01
0	 1.785714e+00	 9.642857e+00	 1.000324e+01
0	 1.785714e+00	 9.714286e+00	 1.000315e+01
0	 1.785714e+00	 9.785714e+00	 1.000251e+01
0	 1.785714e+00	 9.857143e+00	 1.000135e+01
0	 1.785714e+00	 9.928571e+00	 9.999641e+00
0	 1.785714e+00	 1.000000e+01	 9.997398e+00
0	 1.857143e+00	 9.642857e+00	 1.000337e+01
0	 1.857143e+00	 9.714286e+00	 1.000330e+01
0	 1.857143e+00	 9.785714e+00	 1.000272e+01
0	 1.857143e+00	 9.857143e+00	 1.000164e+01
0	 1.857143e+00	 9.928571e+00	 1.000006e+01
0	 1.857143e+00	 1.000000e+01	 9.997978e+00
0	 1.928571e+00	 9.642857e+00	 1.000333e+01
0	 1.928571e+00	 9.714286e+00	 1.000327e+01
0	 1.928571e+00	 9.785714e+00	 1.000274e+01
0	 1.928571e+00	 9.857143e+00	 1.000175e+01
0	 1.928571e+00	 9.928571e+00	 1.000028e+01
0	 1.928571e+00	 1.000000e+01	 9.998352e+00
0	 2.000000e+00	 9.642857e+00	 1.000312e+01
0	 2.000000e+00	 9.714286e+00	 1.000307e+01
0	 2.000000e+00	 9.785714e+00	 1.000258e+01
0	 2.000000e+00	 9.857143e+00	 1.000166e+01
0	 2.000000e+00	 9.928571e+00	 1.000031e+01
0	 2.000000e+00	 1.000000e+01	 9.998519e+00
0	 2.071429e+00	 9.642857e+00	 1.000274e+01
0	 2.071429e+00	 9.714286e+00	 1.000269e+01
0	 2.071429e+00	 9.785714e+00	 1.000224e+01
0	 2.071429e+00	 9.857143e+00	 1.000138e+01
0	 2.071429e+00	 9.928571e+00	 1.000013e+01
0	 2.071429e+00	 1.000000e+01	 9.998479e+00
0	 2.142857e+00	 9.642857e+00	 1.000218e+01
0	 2.142857e+00	 9.714286e+00	 1.000213e+01
0	 2.142857e+00	 9.785714e+00	 1.000170e+01
0	 2.142857e+00	 9.857143e+00	 1.000091e+01
0	 2.142857e+00	 9.928571e+00	 9.999757e+00
0	 2.142857e+00	 1.000000e+01	 9.998234e+00
0	 2.142857e+00	 0.000000e+00	-6.218424e+00
0	 2.142857e+00	 7.142857e-02	-4.180836e+00
0	 2.142857e+00	 1.428571e-01	-2.586491e+00
0	 2.142857e+00	 2.142857e-01	-1.435390e+00
0	 2.142857e+00	 2.857143e-01	-7.275318e-01
0	 2.142857e+00	 3.571429e-01	-4.629172e-01
0	 2.214286e+00	 0.000000e+00	-4.535089e+00
0	 2.214286e+00	 7.142857e-02	-2.633041e+00
0	 2.214286e+00	 1.428571e-01	-1.084067e+00
0	 2.214286e+00	 2.142857e-01	 1.118321e-01
0	 2.214286e+00	 2.857143e-01	 9.546571e-01
0	 2.214286e+00	 3.571429e-01	 1.444408e+00
0	 2.285714e+00	 0.000000e+00	-2.830343e+00
0	 2.285714e+00	 7.142857e-02	-1.139049e+00
0	 2.285714e+00	 1.428571e-01	 2.893388e-01
0	 2.285714e+00	 2.142857e-01	 1.454822e+00
0	 2.285714e+00	 2.857143e-01	 2.357399e+00
0	 2.285714e+00	 3.571429e-01	 2.997071e+00
0	 2.357143e+00	 0.000000e+00	-1.104185e+00
0	 2.357143e+00	 7.142857e-02	 3.011390e-01
0	 2.357143e+00	 1.428571e-01	 1.533727e+00
0	 2.357143e+00	 2.142857e-01	 2.593579e+00
0	 2.357143e+00	 2.857143e-01	 3.480694e+00
0	 2.357143e+00	 3.571429e-01	 4.195073e+00
0	 2.428571e+00	 0.000000e+00	 6.433837e-01
0	 2.428571e+00	 7.142857e-02	 1.687524e+00
0	 2.428571e+00	 1.428571e-01	 2.649097e+00
0	 2.428571e+00	 2.142857e-01	 3.528104e+00
0	 2.428571e+00	 2.857143e-01	 4.324542e+00
0	 2.428571e+00	 3.571429e-01	 5.038414e+00
0	 2.500000e+00	 0.000000e+00	 2.412364e+00
0	 2.500000e+00	 7.142857e-02	 3.020106e+00
0	 2.500000e+00	 1.428571e-01	 3.635450e+00
0	 2.500000e+00	 2.142857e-01	 4.258396e+00
0	 2.500000e+00	 2.857143e-01	 4.888944e+00
0	 2.500000e+00	 3.571429e-01	 5.527093e+00
0	 2.142857e+00	 3.571429e-01	-4.629172e-01
0	 2.142857e+00	 4.285714e-01	-2.303132e-02
0	 2.142857e+00	 5.000000e-01	 7.363280e-01
0	 2.142857e+00	 5.714286e-01	 1.815161e+00
0	 2.142857e+00	 6.428571e-01	 3.213467e+00
0	 2.142857e+00	 7.142857e-01	 4.931246e+00
0	 2.214286e+00	 3.571429e-01	 1.444408e+00
0	 2.214286e+00	 4.285714e-01	 1.892875e+00
0	 2.214286e+00	 5.000000e-01	 2.625261e+00
0	 2.214286e+00	 5.714286e-01	 3.641565e+00
0	 2.214286e+00	 6.428571e-01	 4.941787e+00
0	 2.214286e+00	 7.142857e-01	 6.525928e+00
0	 2.285714e+00	 3.571429e-01	 2.997071e+00
0	 2.285714e+00	 4.285714e-01	 3.444995e+00
0	 2.285714e+00	 5.000000e-01	 4.141283e+00
0	 2.285714e+00	 5.714286e-01	 5.085933e+00
0	 2.285714e+00	 6.428571e-01	 6.278946e+00
0	 2.285714e+00	 7.142857e-01	 7.720323e+00
0	 2.357143e+00	 3.571429e-01	 4.195073e+00
0	 2.357143e+00	 4.285714e-01	 4.633329e+00
0	 2.357143e+00	 5.000000e-01	 5.284393e+00
0	 2.357143e+00	 5.714286e-01	 6.148265e+00
0	 2.357143e+00	 6.428571e-01	 7.224944e+00
0	 2.357143e+00	 7.142857e-01	 8.514432e+00
0	 2.428571e+00	 3.571429e-01	 5.038414e+00
0	 2.428571e+00	 4.285714e-01	 5.457876e+00
0	 2.428571e+00	 5.000000e-01	 6.054592e+00
0	 2.428571e+00	 5.714286e-01	 6.828560e+00
0	 2.428571e+00	 6.428571e-01	 7.779781e+00
0	 2.428571e+00	 7.142857e-01	 8.908254e+00
0	 2.500000e+00	 3.571429e-01	 5.527093e+00
0	 2.500000e+00	 4.285714e-01	 5.918637e+00
0	 2.500000e+00	 5.000000e-01	 6.451879e+00
0	 2.500000e+00	 5.714286e-01	 7.126819e+00
0	 2.500000e+00	 6.428571e-01	 7.943456e+00
0	 2.500000e+00	 7.142857e-01	 8.901791e+00
0	 2.142857e+00	 7.142857e-01	 4.931246e+00
0	 2.142857e+00	 7.857143e-01	 5.042431e+00
0	 2.142857e+00	 8.571429e-01	 5.497270e+00
0	 2.142857e+00	 9.285714e-01	 6.295762e+00
0	 2.142857e+00	 1.000000e+00	 7.437907e+00
0	 2.142857e+00	 1.071429e+00	 8.923706e+00
0	 2.214286e+00	 7.142857e-01	 6.525928e+00
0	 2.214286e+00	 7.857143e-01	 6.174351e+00
0	 2.214286e+00	 8.571429e-01	 6.098164e+00
0	 2.214286e+00	 9.285714e-01	 6.297367e+00
0	 2.214286e+00	 1.000000e+00	 6.771960e+00
0	 2.214286e+00	 1.071429e+00	 7.521943e+00
0	 2.285714e+00	 7.142857e-01	 7.720323e+00
0	 2.285714e+00	 7.857143e-01	 7.088894e+00
0	 2.285714e+00	 8.571429e-01	 6.664591e+00
0	 2.285714e+00	 9.285714e-01	 6.447415e+00
0	 2.285714e+00	 1.000000e+00	 6.437366e+00
0	 2.285714e+00	 1.071429e+00	 6.634443e+00
0	 2.357143e+00	 7.142857e-01	 8.514432e+00
0	 2.357143e+00	 7.857143e-01	 7.786060e+00
0	 2.357143e+00	 8.571429e-01	 7.196551e+00
0	 2.357143e+00	 9.285714e-01	 6.745906e+00
0	 2.357143e+00	 1.000000e+00	 6.434123e+00
0	 2.357143e+00	 1.071429e+00	 6.261204e+00
0	 2.428571e+00	 7.142857e-01	 8.908254e+00
0	 2.428571e+00	 7.857143e-01	 8.265850e+00
0	 2.428571e+00	 8.571429e-01	 7.694045e+00
0	 2.428571e+00	 9.285714e-01	 7.192839e+00
0	 2.428571e+00	 1.000000e+00	 6.762234e+00
0	 2.428571e+00	 1.071429e+00	 6.402227e+00
0	 2.500000e+00	 7.142857e-01	 8.901791e+00
0	 2.500000e+00	 7.857143e-01	 8.528263e+00
0	 2.500000e+00	 8.571429e-01	 8.157071e+00
0	 2.500000e+00	 9.285714e-01	 7.788216e+00
0	 2.500000e+00	 1.000000e+00	 7.421696e+00
0	 2.500000e+00	 1.071429e+00	 7.057513e+00
0	 2.142857e+00	 1.071429e+00	 8.923706e+00
0	 2.142857e+00	 1.142857e+00	 9.272729e+00
0	 2.142857e+00	 1.214286e+00	 9.350034e+00
0	 2.142857e+00	 1.285714e+00	 9.155623e+00
0	 2.142857e+00	 1.357143e+00	 8.689495e+00
0	 2.142857e+00	 1.428571e+00	 7.951650e+00
0	 2.214286e+00	 1.071429e+00	 7.521943e+00
0	 2.214286e+00	 1.142857e+00	 7.891601e+00
0	 2.214286e+00	 1.214286e+00	 8.045660e+00
0	 2.214286e+00	 1.285714e+00	 7.984120e+00
0	 2.214286e+00	 1.357143e+00	 7.706980e+00
0	 2.214286e+00	 1.428571e+00	 7.214242e+00
0	 2.285714e+00	 1.071429e+00	 6.634443e+00
0	 2.285714e+00	 1.142857e+00	 6.967078e+00
0	 2.285714e+00	 1.214286e+00	 7.140231e+00
0	 2.285714e+00	 1.285714e+00	 7.153904e+00
0	 2.285714e+00	 1.357143e+00	 7.008095e+00
0	 2.285714e+00	 1.428571e+00	 6.702804e+00
0	 2.357143e+00	 1.071429e+00	 6.261204e+00
0	 2.357143e+00	 1.142857e+00	 6.499158e+00
0	 2.357143e+00	 1.214286e+00	 6.633748e+00
0	 2.357143e+00	 1.285714e+00	 6.664975e+00
0	 2.357143e+00	 1.357143e+00	 6.592838e+00
0	 2.357143e+00	 1.428571e+00	 6.417337e+00
0	 2.428571e+00	 1.071429e+00	 6.402227e+00
0	 2.428571e+00	 1.142857e+00	 6.487842e+00
0	 2.428571e+00	 1.214286e+00	 6.526210e+00
0	 2.428571e+00	 1.285714e+00	 6.517332e+00
0	 2.428571e+00	 1.357143e+00	 6.461209e+00
0	 2.428571e+00	 1.428571e+00	 6.357839e+00
0	 2.500000e+00	 1.071429e+00	 7.057513e+00
0	 2.500000e+00	 1.142857e+00	 6.933129e+00
0	 2.500000e+00	 1.214286e+00	 6.817617e+00
0	 2.500000e+00	 1.285714e+00	 6.710977e+00
0	 2.500000e+00	 1.357143e+00	 6.613209e+00
0	 2.500000e+00	 1.428571e+00	 6.524312e+00
0	 2.142857e+00	 1.428571e+00	 7.951650e+00
0	 2.142857e+00	 1.500000e+00	 7.720458e+00
0	 2.142857e+00	 1.571429e+00	 7.486165e+00
0	 2.142857e+00	 1.642857e+00	 7.248769e+00
0	 2.142857e+00	 1.714286e+00	 7.008271e+00
0	 2.142857e+00	 1.785714e+00	 6.764671e+00
0	 2.214286e+00	 1.428571e+00	 7.214242e+00
0	 2.214286e+00	 1.500000e+00	 7.243203e+00
0	 2.214286e+00	 1.571429e+00	 7.260699e+00
0	 2.214286e+00	 1.642857e+00	 7.266731e+00
0	 2.214286e+00	 1.714286e+00	 7.261297e+00
0	 2.214286e+00	 1.785714e+00	 7.244398e+00
0	 2.285714e+00	 1.428571e+00	 6.702804e+00
0	 2.285714e+00	 1.500000e+00	 6.909123e+00
0	 2.285714e+00	 1.571429e+00	 7.095614e+00
0	 2.285714e+00	 1.642857e+00	 7.262277e+00
0	 2.285714e+00	 1.714286e+00	 7.409113e+00
0	 2.285714e+00	 1.785714e+00	 7.536120e+00
0	 2.357143e+00	 1.428571e+00	 6.417337e+00
0	 2.357143e+00	 1.500000e+00	 6.718218e+00
0	 2.357143e+00	 1.571429e+00	 6.990909e+00
0	 2.357143e+00	 1.642857e+00	 7.235409e+00
0	 2.357143e+00	 1.714286e+00	 7.451718e+00
0	 2.357143e+00	 1.785714e+00	 7.639837e+00
0	 2.428571e+00	 1.428571e+00	 6.357839e+00
0	 2.428571e+00	 1.500000e+00	 6.670489e+00
0	 2.428571e+00	 1.571429e+00	 6.946584e+00
0	 2.428571e+00	 1.642857e+00	 7.186126e+00
0	 2.428571e+00	 1.714286e+00	 7.389114e+00
0	 2.428571e+00	 1.785714e+00	 7.555548e+00
0	 2.500000e+00	 1.428571e+00	 6.524312e+00
0	 2.500000e+00	 1.500000e+00	 6.765934e+00
0	 2.500000e+00	 1.571429e+00	 6.962639e+00
0	 2.500000e+00	 1.642857e+00	 7.114428e+00
0	 2.500000e+00	 1.714286e+00	 7.221300e+00
0	 2.500000e+00	 1.785714e+00	 7.283255e+00
0	 2.142857e+00	 1.785714e+00	 6.764671e+00
0	 2.142857e+00	 1.857143e+00	 7.249344e+00
0	 2.142857e+00	 1.928571e+00	 7.670389e+00
0	 2.142857e+00	 2.000000e+00	 8.027807e+00
0	 2.142857e+00	 2.071429e+00	 8.321596e+00
0	 2.142857e+00	 2.142857e+00	 8.551756e+00
0	 2.214286e+00	 1.785714e+00	 7.244398e+00
0	 2.214286e+00	 1.857143e+00	 7.502965e+00
0	 2.214286e+00	 1.928571e+00	 7.707888e+00
0	 2.214286e+00	 2.000000e+00	 7.859165e+00
0	 2.214286e+00	 2.071429e+00	 7.956798e+00
0	 2.214286e+00	 2.142857e+00	 8.000786e+00
0	 2.285714e+00	 1.785714e+00	 7.536120e+00
0	 2.285714e+00	 1.857143e+00	 7.635428e+00
0	 2.285714e+00	 1.928571e+00	 7.691075e+00
0	 2.285714e+00	 2.000000e+00	 7.703060e+00
0	 2.285714e+00	 2.071429e+00	 7.671384e+00
0	 2.285714e+00	 2.142857e+00	 7.596046e+00
0	 2.357143e+00	 1.785714e+00	 7.639837e+00
0	 2.357143e+00	 1.857143e+00	 7.646734e+00
0	 2.357143e+00	 1.928571e+00	 7.619952e+00
0	 2.357143e+00	 2.000000e+00	 7.559492e+00
0	 2.357143e+00	 2.071429e+00	 7.465354e+00
0	 2.357143e+00	 2.142857e+00	 7.337538e+00
0	 2.428571e+00	 1.785714e+00	 7.555548e+00
0	 2.428571e+00	 1.857143e+00	 7.536881e+00
0	 2.428571e+00	 1.928571e+00	 7.494519e+00
0	 2.428571e+00	 2.000000e+00	 7.428461e+00
0	 2.428571e+00	 2.071429e+00	 7.338708e+00
0	 2.428571e+00	 2.142857e+00	 7.225261e+00
0	 2.500000e+00	 1.785714e+00	 7.283255e+00
0	 2.500000e+00	 1.857143e+00	 7.305871e+00
0	 2.500000e+00	 1.928571e+00	 7.314774e+00
0	 2.500000e+00	 2.000000e+00	 7.309966e+00
0	 2.500000e+00	 2.071429e+00	 7.291447e+00
0	 2.500000e+00	 2.142857e+00	 7.259215e+00
0	 2.142857e+00	 2.142857e+00	 8.551756e+00
0	 2.142857e+00	 2.214286e+00	 8.534563e+00
0	 2.142857e+00	 2.285714e+00	 8.535820e+00
0	 2.142857e+00	 2.357143e+00	 8.555528e+00
0	 2.142857e+00	 2.428571e+00	 8.593687e+00
0	 2.142857e+00	 2.500000e+00	 8.650296e+00
0	 2.214286e+00	 2.142857e+00	 8.000786e+00
0	 2.214286e+00	 2.214286e+00	 8.097677e+00
0	 2.214286e+00	 2.285714e+00	 8.203612e+00
0	 2.214286e+00	 2.357143e+00	 8.318590e+00
0	 2.214286e+00	 2.428571e+00	 8.442610e+00
0	 2.214286e+00	 2.500000e+00	 8.575673e+00
0	 2.285714e+00	 2.142857e+00	 7.596046e+00
0	 2.285714e+00	 2.214286e+00	 7.774507e+00
0	 2.285714e+00	 2.285714e+00	 7.952603e+00
0	 2.285714e+00	 2.357143e+00	 8.130334e+00
0	 2.285714e+00	 2.428571e+00	 8.307700e+00
0	 2.285714e+00	 2.500000e+00	 8.484700e+00
0	 2.357143e+00	 2.142857e+00	 7.337538e+00
0	 2.357143e+00	 2.214286e+00	 7.565052e+00
0	 2.357143e+00	 2.285714e+00	 7.782793e+00
0	 2.357143e+00	 2.357143e+00	 7.990762e+00
0	 2.357143e+00	 2.428571e+00	 8.188957e+00
0	 2.357143e+00	 2.500000e+00	 8.377379e+00
0	 2.428571e+00	 2.142857e+00	 7.225261e+00
0	 2.428571e+00	 2.214286e+00	 7.469312e+00
0	 2.428571e+00	 2.285714e+00	 7.694183e+00
0	 2.428571e+00	 2.357143e+00	 7.899872e+00
0	 2.428571e+00	 2.428571e+00	 8.086381e+00
0	 2.428571e+00	 2.500000e+00	 8.253708e+00
0	 2.500000e+00	 2.142857e+00	 7.259215e+00
0	 2.500000e+00	 2.214286e+00	 7.487288e+00
0	 2.500000e+00	 2.285714e+00	 7.686771e+00
0	 2.500000e+00	 2.357143e+00	 7.857666e+00
0	 2.500000e+00	 2.428571e+00	 7.999971e+00
0	 2.500000e+00	 2.500000e+00	 8.113688e+00
0	 2.142857e+00	 2.500000e+00	 8.650296e+00
0	 2.142857e+00	 2.571429e+00	 8.822616e+00
0	 2.142857e+00	 2.642857e+00	 8.976762e+00
0	 2.142857e+00	 2.714286e+00	 9.112733e+00
0	 2.142857e+00	 2.785714e+00	 9.230529e+00
0	 2.142857e+00	 2.857143e+00	 9.330150e+00
0	 2.214286e+00	 2.500000e+00	 8.575673e+00
0	 2.214286e+00	 2.571429e+00	 8.706325e+00
0	 2.214286e+00	 2.642857e+00	 8.823574e+00
0	 2.214286e+00	 2.714286e+00	 8.927421e+00
0	 2.214286e+00	 2.785714e+00	 9.017864e+00
0	 2.214286e+00	 2.857143e+00	 9.094906e+00
0	 2.285714e+00	 2.500000e+00	 8.484700e+00
0	 2.285714e+00	 2.571429e+00	 8.584374e+00
0	 2.285714e+00	 2.642857e+00	 8.675417e+00
0	 2.285714e+00	 2.714286e+00	 8.757829e+00
0	 2.285714e+00	 2.785714e+00	 8.831610e+00
0	 2.285714e+00	 2.857143e+00	 8.896761e+00
0	 2.357143e+00	 2.500000e+00	 8.377379e+00
0	 2.357143e+00	 2.571429e+00	 8.456764e+00
0	 2.357143e+00	 2.642857e+00	 8.532290e+00
0	 2.357143e+00	 2.714286e+00	 8.603958e+00
0	 2.357143e+00	 2.785714e+00	 8.671767e+00
0	 2.357143e+00	 2.857143e+00	 8.735718e+00
0	 2.428571e+00	 2.500000e+00	 8.253708e+00
0	 2.428571e+00	 2.571429e+00	 8.323494e+00
0	 2.428571e+00	 2.642857e+00	 8.394194e+00
0	 2.428571e+00	 2.714286e+00	 8.465807e+00
0	 2.428571e+00	 2.785714e+00	 8.538334e+00
0	 2.428571e+00	 2.857143e+00	 8.611774e+00
0	 2.500000e+00	 2.500000e+00	 8.113688e+00
0	 2.500000e+00	 2.571429e+00	 8.184566e+00
0	 2.500000e+00	 2.642857e+00	 8.261129e+00
0	 2.500000e+00	 2.714286e+00	 8.343377e+00
0	 2.500000e+00	 2.785714e+00	 8.431312e+00
0	 2.500000e+00	 2.857143e+00	 8.524931e+00
0	 2.142857e+00	 2.857143e+00	 9.330150e+00
0	 2.142857e+00	 2.928571e+00	 9.367333e+00
0	 2.142857e+00	 3.000000e+00	 9.414056e+00
0	 2.142857e+00	 3.071429e+00	 9.470319e+00
0	 2.142857e+00	 3.142857e+00	 9.536122e+00
0	 2.142857e+00	 3.214286e+00	 9.611465e+00
0	 2.214286e+00	 2.857143e+00	 9.094906e+00
0	 2.214286e+00	 2.928571e+00	 9.158126e+00
0	 2.214286e+00	 3.000000e+00	 9.227760e+00
0	 2.214286e+00	 3.071429e+00	 9.303809e+00
0	 2.214286e+00	 3.142857e+00	 9.386272e+00
0	 2.214286e+00	 3.214286e+00	 9.475149e+00
0	 2.285714e+00	 2.857143e+00	 8.896761e+00
0	 2.285714e+00	 2.928571e+00	 8.979997e+00
0	 2.285714e+00	 3.000000e+00	 9.066521e+00
0	 2.285714e+00	 3.071429e+00	 9.156333e+00
0	 2.285714e+00	 3.142857e+00	 9.249433e+00
0	 2.285714e+00	 3.214286e+00	 9.345822e+00
0	 2.357143e+00	 2.857143e+00	 8.735718e+00
0	 2.357143e+00	 2.928571e+00	 8.832946e+00
0	 2.357143e+00	 3.000000e+00	 8.930337e+00
0	 2.357143e+00	 3.071429e+00	 9.027890e+00
0	 2.357143e+00	 3.142857e+00	 9.125606e+00
0	 2.357143e+00	 3.214286e+00	 9.223484e+00
0	 2.428571e+00	 2.857143e+00	 8.611774e+00
0	 2.428571e+00	 2.928571e+00	 8.716973e+00
0	 2.428571e+00	 3.000000e+00	 8.819209e+00
0	 2.428571e+00	 3.071429e+00	 8.918481e+00
0	 2.428571e+00	 3.142857e+00	 9.014790e+00
0	 2.428571e+00	 3.214286e+00	 9.108135e+00
0	 2.500000e+00	 2.857143e+00	 8.524931e+00
0	 2.500000e+00	 2.928571e+00	 8.632079e+00
0	 2.500000e+00	 3.000000e+00	 8.733137e+00
0	 2.500000e+00	 3.071429e+00	 8.828106e+00
0	 2.500000e+00	 3.142857e+00	 8.916985e+00
0	 2.500000e+00	 3.214286e+00	 8.999775e+00
0	 2.142857e+00	 3.214286e+00	 9.611465e+00
0	 2.142857e+00	 3.285714e+00	 9.663979e+00
0	 2.142857e+00	 3.357143e+00	 9.715119e+00
0	 2.142857e+00	 3.428571e+00	 9.764884e+00
0	 2.142857e+00	 3.500000e+00	 9.813274e+00
0	 2.142857e+00	 3.571429e+00	 9.860290e+00
0	 2.214286e+00	 3.214286e+00	 9.475149e+00
0	 2.214286e+00	 3.285714e+00	 9.526522e+00
0	 2.214286e+00	 3.357143e+00	 9.577425e+00
0	 2.214286e+00	 3.428571e+00	 9.627860e+00
0	 2.214286e+00	 3.500000e+00	 9.677826e+00
0	 2.214286e+00	 3.571429e+00	 9.727324e+00
0	 2.285714e+00	 3.214286e+00	 9.345822e+00
0	 2.285714e+00	 3.285714e+00	 9.396831e+00
0	 2.285714e+00	 3.357143e+00	 9.448276e+00
0	 2.285714e+00	 3.428571e+00	 9.500159e+00
0	 2.285714e+00	 3.500000e+00	 9.552479e+00
0	 2.285714e+00	 3.571429e+00	 9.605235e+00
0	 2.357143e+00	 3.214286e+00	 9.223484e+00
0	 2.357143e+00	 3.285714e+00	 9.274907e+00
0	 2.357143e+00	 3.357143e+00	 9.327672e+00
0	 2.357143e+00	 3.428571e+00	 9.381780e+00
0	 2.357143e+00	 3.500000e+00	 9.437231e+00
0	 2.357143e+00	 3.571429e+00	 9.494026e+00
0	 2.428571e+00	 3.214286e+00	 9.108135e+00
0	 2.428571e+00	 3.285714e+00	 9.160749e+00
0	 2.428571e+00	 3.357143e+00	 9.215612e+00
0	 2.428571e+00	 3.428571e+00	 9.272724e+00
0	 2.428571e+00	 3.500000e+00	 9.332085e+00
0	 2.428571e+00	 3.571429e+00	 9.393694e+00
0	 2.500000e+00	 3.214286e+00	 8.999775e+00
0	 2.500000e+00	 3.285714e+00	 9.054359e+00
0	 2.500000e+00	 3.357143e+00	 9.112098e+00
0	 2.500000e+00	 3.428571e+00	 9.172991e+00
0	 2.500000e+00	 3.500000e+00	 9.237039e+00
0	 2.500000e+00	 3.571429e+00	 9.304241e+00
0	 2.142857e+00	 3.571429e+00	 9.860290e+00
0	 2.142857e+00	 3.642857e+00	 9.883823e+00
0	 2.142857e+00	 3.714286e+00	 9.910330e+00
0	 2.142857e+00	 3.785714e+00	 9.939811e+00
0	 2.142857e+00	 3.857143e+00	 9.972264e+00
0	 2.142857e+00	 3.928571e+00	 1.000769e+01
0	 2.214286e+00	 3.571429e+00	 9.727324e+00
0	 2.214286e+00	 3.642857e+00	 9.758242e+00
0	 2.214286e+00	 3.714286e+00	 9.791543e+00
0	 2.214286e+00	 3.785714e+00	 9.827228e+00
0	 2.214286e+00	 3.857143e+00	 9.865295e+00
0	 2.214286e+00	 3.928571e+00	 9.905746e+00
0	 2.285714e+00	 3.571429e+00	 9.605235e+00
0	 2.285714e+00	 3.642857e+00	 9.642359e+00
0	 2.285714e+00	 3.714286e+00	 9.681276e+00
0	 2.285714e+00	 3.785714e+00	 9.721985e+00
0	 2.285714e+00	 3.857143e+00	 9.764486e+00
0	 2.285714e+00	 3.928571e+00	 9.808780e+00
0	 2.357143e+00	 3.571429e+00	 9.494026e+00
0	 2.357143e+00	 3.642857e+00	 9.536175e+00
0	 2.357143e+00	 3.714286e+00	 9.579527e+00
0	 2.357143e+00	 3.785714e+00	 9.624081e+00
0	 2.357143e+00	 3.857143e+00	 9.669837e+00
0	 2.357143e+00	 3.928571e+00	 9.716795e+00
0	 2.428571e+00	 3.571429e+00	 9.393694e+00
0	 2.428571e+00	 3.642857e+00	 9.439690e+00
0	 2.428571e+00	 3.714286e+00	 9.486297e+00
0	 2.428571e+00	 3.785714e+00	 9.533516e+00
0	 2.428571e+00	 3.857143e+00	 9.581347e+00
0	 2.428571e+00	 3.928571e+00	 9.629789e+00
0	 2.500000e+00	 3.571429e+00	 9.304241e+00
0	 2.500000e+00	 3.642857e+00	 9.352903e+00
0	 2.500000e+00	 3.714286e+00	 9.401587e+00
0	 2.500000e+00	 3.785714e+00	 9.450291e+00
0	 2.500000e+00	 3.857143e+00	 9.499017e+00
0	 2.500000e+00	 3.928571e+00	 9.547764e+00
0	 2.142857e+00	 3.928571e+00	 1.000769e+01
0	 2.142857e+00	 4.000000e+00	 1.002576e+01
0	 2.142857e+00	 4.071429e+00	 1.004470e+01
0	 2.142857e+00	 4.142857e+00	 1.006449e+01
0	 2.142857e+00	 4.214286e+00	 1.008516e+01
0	 2.142857e+00	 4.285714e+00	 1.010668e+01
0	 2.214286e+00	 3.928571e+00	 9.905746e+00
0	 2.214286e+00	 4.000000e+00	 9.926824e+00
0	 2.214286e+00	 4.071429e+00	 9.948883e+00
0	 2.214286e+00	 4.142857e+00	 9.971925e+00
0	 2.214286e+00	 4.214286e+00	 9.995948e+00
0	 2.214286e+00	 4.285714e+00	 1.002095e+01
0	 2.285714e+00	 3.928571e+00	 9.808780e+00
0	 2.285714e+00	 4.000000e+00	 9.832670e+00
0	 2.285714e+00	 4.071429e+00	 9.857659e+00
0	 2.285714e+00	 4.142857e+00	 9.883747e+00
0	 2.285714e+00	 4.214286e+00	 9.910935e+00
0	 2.285714e+00	 4.285714e+00	 9.939222e+00
0	 2.357143e+00	 3.928571e+00	 9.716795e+00
0	 2.357143e+00	 4.000000e+00	 9.743300e+00
0	 2.357143e+00	 4.071429e+00	 9.771022e+00
0	 2.357143e+00	 4.142857e+00	 9.799961e+00
0	 2.357143e+00	 4.214286e+00	 9.830118e+00
0	 2.357143e+00	 4.285714e+00	 9.861491e+00
0	 2.428571e+00	 3.928571e+00	 9.629789e+00
0	 2.428571e+00	 4.000000e+00	 9.658714e+00
0	 2.428571e+00	 4.071429e+00	 9.688974e+00
0	 2.428571e+00	 4.142857e+00	 9.720568e+00
0	 2.428571e+00	 4.214286e+00	 9.753497e+00
0	 2.428571e+00	 4.285714e+00	 9.787760e+00
0	 2.500000e+00	 3.928571e+00	 9.547764e+00
0	 2.500000e+00	 4.000000e+00	 9.578912e+00
0	 2.500000e+00	 4.071429e+00	 9.611513e+00
0	 2.500000e+00	 4.142857e+00	 9.645566e+00
0	 2.500000e+00	 4.214286e+00	 9.681071e+00
0	 2.500000e+00	 4.285714e+00	 9.718029e+00
0	 2.142857e+00	 4.285714e+00	 1.010668e+01
0	 2.142857e+00	 4.357143e+00	 1.011630e+01
0	 2.142857e+00	 4.428571e+00	 1.012711e+01
0	 2.142857e+00	 4.500000e+00	 1.013911e+01
0	 2.142857e+00	 4.571429e+00	 1.015230e+01
0	 2.142857e+00	 4.642857e+00	 1.016669e+01
0	 2.214286e+00	 4.285714e+00	 1.002095e+01
0	 2.214286e+00	 4.357143e+00	 1.003393e+01
0	 2.214286e+00	 4.428571e+00	 1.004801e+01
0	 2.214286e+00	 4.500000e+00	 1.006319e+01
0	 2.214286e+00	 4.571429e+00	 1.007948e+01
0	 2.214286e+00	 4.642857e+00	 1.009687e+01
0	 2.285714e+00	 4.285714e+00	 9.939222e+00
0	 2.285714e+00	 4.357143e+00	 9.955248e+00
0	 2.285714e+00	 4.428571e+00	 9.972290e+00
0	 2.285714e+00	 4.500000e+00	 9.990348e+00
0	 2.285714e+00	 4.571429e+00	 1.000942e+01
0	 2.285714e+00	 4.642857e+00	 1.002951e+01
0	 2.357143e+00	 4.285714e+00	 9.861491e+00
0	 2.357143e+00	 4.357143e+00	 9.880260e+00
0	 2.357143e+00	 4.428571e+00	 9.899956e+00
0	 2.357143e+00	 4.500000e+00	 9.920580e+00
0	 2.357143e+00	 4.571429e+00	 9.942132e+00
0	 2.357143e+00	 4.642857e+00	 9.964612e+00
0	 2.428571e+00	 4.285714e+00	 9.787760e+00
0	 2.428571e+00	 4.357143e+00	 9.808963e+00
0	 2.428571e+00	 4.428571e+00	 9.831005e+00
0	 2.428571e+00	 4.500000e+00	 9.853888e+00
0	 2.428571e+00	 4.571429e+00	 9.877610e+00
0	 2.428571e+00	 4.642857e+00	 9.902172e+00
0	 2.500000e+00	 4.285714e+00	 9.718029e+00
0	 2.500000e+00	 4.357143e+00	 9.741358e+00
0	 2.500000e+00	 4.428571e+00	 9.765438e+00
0	 2.500000e+00	 4.500000e+00	 9.790270e+00
0	 2.500000e+00	 4.571429e+00	 9.815855e+00
0	 2.500000e+00	 4.642857e+00	 9.842191e+00
0	 2.142857e+00	 4.642857e+00	 1.016669e+01
0	 2.142857e+00	 4.714286e+00	 1.017195e+01
0	 2.142857e+00	 4.785714e+00	 1.017797e+01
0	 2.142857e+00	 4.857143e+00	 1.018473e+01
0	 2.142857e+00	 4.928571e+00	 1.019224e+01
0	 2.142857e+00	 5.000000e+00	 1.020049e+01
0	 2.214286e+00	 4.642857e+00	 1.009687e+01
0	 2.214286e+00	 4.714286e+00	 1.010452e+01
0	 2.214286e+00	 4.785714e+00	 1.011293e+01
0	 2.214286e+00	 4.857143e+00	 1.012210e+01
0	 2.214286e+00	 4.928571e+00	 1.013203e+01
0	 2.214286e+00	 5.000000e+00	 1.014272e+01
0	 2.285714e+00	 4.642857e+00	 1.002951e+01
0	 2.285714e+00	 4.714286e+00	 1.003940e+01
0	 2.285714e+00	 4.785714e+00	 1.005006e+01
0	 2.285714e+00	 4.857143e+00	 1.006149e+01
0	 2.285714e+00	 4.928571e+00	 1.007370e+01
0	 2.285714e+00	 5.000000e+00	 1.008669e+01
0	 2.357143e+00	 4.642857e+00	 9.964612e+00
0	 2.357143e+00	 4.714286e+00	 9.976593e+00
0	 2.357143e+00	 4.785714e+00	 9.989362e+00
0	 2.357143e+00	 4.857143e+00	 1.000292e+01
0	 2.357143e+00	 4.928571e+00	 1.001726e+01
0	 2.357143e+00	 5.000000e+00	 1.003240e+01
0	 2.428571e+00	 4.642857e+00	 9.902172e+00
0	 2.428571e+00	 4.714286e+00	 9.916104e+00
0	 2.428571e+00	 4.785714e+00	 9.930838e+00
0	 2.428571e+00	 4.857143e+00	 9.946375e+00
0	 2.428571e+00	 4.928571e+00	 9.962713e+00
0	 2.428571e+00	 5.000000e+00	 9.979854e+00
0	 2.500000e+00	 4.642857e+00	 9.842191e+00
0	 2.500000e+00	 4.714286e+00	 9.857931e+00
0	 2.500000e+00	 4.785714e+00	 9.874488e+00
0	 2.500000e+00	 4.857143e+00	 9.891861e+00
0	 2.500000e+00	 4.928571e+00	 9.910049e+00
0	 2.500000e+00	 5.000000e+00	 9.929054e+00
0	 2.142857e+00	 5.000000e+00	 1.020049e+01
0	 2.142857e+00	 5.071429e+00	 1.020209e+01
0	 2.142857e+00	 5.142857e+00	 1.020434e+01
0	 2.142857e+00	 5.214286e+00	 1.020723e+01
0	 2.142857e+00	 5.285714e+00	 1.021077e+01
0	 2.142857e+00	 5.357143e+00	 1.021496e+01
0	 2.214286e+00	 5.000000e+00	 1.014272e+01
0	 2.214286e+00	 5.071429e+00	 1.014638e+01
0	 2.214286e+00	 5.142857e+00	 1.015068e+01
0	 2.214286e+00	 5.214286e+00	 1.015561e+01
0	 2.214286e+00	 5.285714e+00	 1.016119e+01
0	 2.214286e+00	 5.357143e+00	 1.016740e+01
0	 2.285714e+00	 5.000000e+00	 1.008669e+01
0	 2.285714e+00	 5.071429e+00	 1.009229e+01
0	 2.285714e+00	 5.142857e+00	 1.009853e+01
0	 2.285714e+00	 5.214286e+00	 1.010539e+01
0	 2.285714e+00	 5.285714e+00	 1.011288e+01
0	 2.285714e+00	 5.357143e+00	 1.012100e+01
0	 2.357143e+00	 5.000000e+00	 1.003240e+01
0	 2.357143e+00	 5.071429e+00	 1.003984e+01
0	 2.357143e+00	 5.142857e+00	 1.004789e+01
0	 2.357143e+00	 5.214286e+00	 1.005657e+01
0	 2.357143e+00	 5.285714e+00	 1.006586e+01
0	 2.357143e+00	 5.357143e+00	 1.007577e+01
0	 2.428571e+00	 5.000000e+00	 9.979854e+00
0	 2.428571e+00	 5.071429e+00	 9.989007e+00
0	 2.428571e+00	 5.142857e+00	 9.998769e+00
0	 2.428571e+00	 5.214286e+00	 1.000914e+01
0	 2.428571e+00	 5.285714e+00	 1.002012e+01
0	 2.428571e+00	 5.357143e+00	 1.003171e+01
0	 2.500000e+00	 5.000000e+00	 9.929054e+00
0	 2.500000e+00	 5.071429e+00	 9.939806e+00
0	 2.500000e+00	 5.142857e+00	 9.951159e+00
0	 2.500000e+00	 5.214286e+00	 9.963111e+00
0	 2.500000e+00	 5.285714e+00	 9.975664e+00
0	 2.500000e+00	 5.357143e+00	 9.988818e+00
0	 2.142857e+00	 5.357143e+00	 1.021496e+01
0	 2.142857e+00	 5.428571e+00	 1.021415e+01
0	 2.142857e+00	 5.500000e+00	 1.021381e+01
0	 2.142857e+00	 5.571429e+00	 1.021396e+01
0	 2.142857e+00	 5.642857e+00	 1.021459e+01
0	 2.142857e+00	 5.714286e+00	 1.021569e+01
0	 2.214286e+00	 5.357143e+00	 1.016740e+01
0	 2.214286e+00	 5.428571e+00	 1.016825e+01
0	 2.214286e+00	 5.500000e+00	 1.016959e+01
0	 2.214286e+00	 5.571429e+00	 1.017141e+01
0	 2.214286e+00	 5.642857e+00	 1.017372e+01
0	 2.214286e+00	 5.714286e+00	 1.017652e+01
0	 2.285714e+00	 5.357143e+00	 1.012100e+01
0	 2.285714e+00	 5.428571e+00	 1.012345e+01
0	 2.285714e+00	 5.500000e+00	 1.012639e+01
0	 2.285714e+00	 5.571429e+00	 1.012982e+01
0	 2.285714e+00	 5.642857e+00	 1.013374e+01
0	 2.285714e+00	 5.714286e+00	 1.013815e+01
0	 2.357143e+00	 5.357143e+00	 1.007577e+01
0	 2.357143e+00	 5.428571e+00	 1.007974e+01
0	 2.357143e+00	 5.500000e+00	 1.008420e+01
0	 2.357143e+00	 5.571429e+00	 1.008917e+01
0	 2.357143e+00	 5.642857e+00	 1.009462e+01
0	 2.357143e+00	 5.714286e+00	 1.010058e+01
0	 2.428571e+00	 5.357143e+00	 1.003171e+01
0	 2.428571e+00	 5.428571e+00	 1.003713e+01
0	 2.428571e+00	 5.500000e+00	 1.004304e+01
0	 2.428571e+00	 5.571429e+00	 1.004946e+01
0	 2.428571e+00	 5.642857e+00	 1.005639e+01
0	 2.428571e+00	 5.714286e+00	 1.006382e+01
0	 2.500000e+00	 5.357143e+00	 9.988818e+00
0	 2.500000e+00	 5.428571e+00	 9.995606e+00
0	 2.500000e+00	 5.500000e+00	 1.000290e+01
0	 2.500000e+00	 5.571429e+00	 1.001071e+01
0	 2.500000e+00	 5.642857e+00	 1.001903e+01
0	 2.500000e+00	 5.714286e+00	 1.002785e+01
0	 2.142857e+00	 5.714286e+00	 1.021569e+01
0	 2.142857e+00	 5.785714e+00	 1.021310e+01
0	 2.142857e+00	 5.857143e+00	 1.021088e+01
0	 2.142857e+00	 5.928571e+00	 1.020903e+01
0	 2.142857e+00	 6.000000e+00	 1.020756e+01
0	 2.142857e+00	 6.071429e+00	 1.020647e+01
0	 2.214286e+00	 5.714286e+00	 1.017652e+01
0	 2.214286e+00	 5.785714e+00	 1.017533e+01
0	 2.214286e+00	 5.857143e+00	 1.017452e+01
0	 2.214286e+00	 5.928571e+00	 1.017409e+01
0	 2.214286e+00	 6.000000e+00	 1.017404e+01
0	 2.214286e+00	 6.071429e+00	 1.017437e+01
0	 2.285714e+00	 5.714286e+00	 1.013815e+01
0	 2.285714e+00	 5.785714e+00	 1.013832e+01
0	 2.285714e+00	 5.857143e+00	 1.013887e+01
0	 2.285714e+00	 5.928571e+00	 1.013980e+01
0	 2.285714e+00	 6.000000e+00	 1.014112e+01
0	 2.285714e+00	 6.071429e+00	 1.014282e+01
0	 2.357143e+00	 5.714286e+00	 1.010058e+01
0	 2.357143e+00	 5.785714e+00	 1.010205e+01
0	 2.357143e+00	 5.857143e+00	 1.010391e+01
0	 2.357143e+00	 5.928571e+00	 1.010615e+01
0	 2.357143e+00	 6.000000e+00	 1.010879e+01
0	 2.357143e+00	 6.071429e+00	 1.011181e+01
0	 2.428571e+00	 5.714286e+00	 1.006382e+01
0	 2.428571e+00	 5.785714e+00	 1.006654e+01
0	 2.428571e+00	 5.857143e+00	 1.006965e+01
0	 2.428571e+00	 5.928571e+00	 1.007315e+01
0	 2.428571e+00	 6.000000e+00	 1.007704e+01
0	 2.428571e+00	 6.071429e+00	 1.008133e+01
0	 2.500000e+00	 5.714286e+00	 1.002785e+01
0	 2.500000e+00	 5.785714e+00	 1.003177e+01
0	 2.500000e+00	 5.857143e+00	 1.003608e+01
0	 2.500000e+00	 5.928571e+00	 1.004079e+01
0	 2.500000e+00	 6.000000e+00	 1.004590e+01
0	 2.500000e+00	 6.071429e+00	 1.005140e+01
0	 2.142857e+00	 6.071429e+00	 1.020647e+01
0	 2.142857e+00	 6.142857e+00	 1.020268e+01
0	 2.142857e+00	 6.214286e+00	 1.019917e+01
0	 2.142857e+00	 6.285714e+00	 1.019594e+01
0	 2.142857e+00	 6.357143e+00	 1.019298e+01
0	 2.142857e+00	 6.428571e+00	 1.019030e+01
0	 2.214286e+00	 6.071429e+00	 1.017437e+01
0	 2.214286e+00	 6.142857e+00	 1.017177e+01
0	 2.214286e+00	 6.214286e+00	 1.016945e+01
0	 2.214286e+00	 6.285714e+00	 1.016741e+01
0	 2.214286e+00	 6.357143e+00	 1.016566e+01
0	 2.214286e+00	 6.428571e+00	 1.016418e+01
0	 2.285714e+00	 6.071429e+00	 1.014282e+01
0	 2.285714e+00	 6.142857e+00	 1.014136e+01
0	 2.285714e+00	 6.214286e+00	 1.014019e+01
0	 2.285714e+00	 6.285714e+00	 1.013931e+01
0	 2.285714e+00	 6.357143e+00	 1.013872e+01
0	 2.285714e+00	 6.428571e+00	 1.013843e+01
0	 2.357143e+00	 6.071429e+00	 1.011181e+01
0	 2.357143e+00	 6.142857e+00	 1.011145e+01
0	 2.357143e+00	 6.214286e+00	 1.011140e+01
0	 2.357143e+00	 6.285714e+00	 1.011164e+01
0	 2.357143e+00	 6.357143e+00	 1.011219e+01
0	 2.357143e+00	 6.428571e+00	 1.011302e+01
0	 2.428571e+00	 6.071429e+00	 1.008133e+01
0	 2.428571e+00	 6.142857e+00	 1.008205e+01
0	 2.428571e+00	 6.214286e+00	 1.008308e+01
0	 2.428571e+00	 6.285714e+00	 1.008441e+01
0	 2.428571e+00	 6.357143e+00	 1.008604e+01
0	 2.428571e+00	 6.428571e+00	 1.008798e+01
0	 2.500000e+00	 6.071429e+00	 1.005140e+01
0	 2.500000e+00	 6.142857e+00	 1.005315e+01
0	 2.500000e+00	 6.214286e+00	 1.005522e+01
0	 2.500000e+00	 6.285714e+00	 1.005760e+01
0	 2.500000e+00	 6.357143e+00	 1.006029e+01
0	 2.500000e+00	 6.428571e+00	 1.006329e+01
0	 2.142857e+00	 6.428571e+00	 1.019030e+01
0	 2.142857e+00	 6.500000e+00	 1.018574e+01
0	 2.142857e+00	 6.571429e+00	 1.018137e+01
0	 2.142857e+00	 6.642857e+00	 1.017720e+01
0	 2.142857e+00	 6.714286e+00	 1.017322e+01
0	 2.142857e+00	 6.785714e+00	 1.016945e+01
0	 2.214286e+00	 6.428571e+00	 1.016418e+01
0	 2.214286e+00	 6.500000e+00	 1.016062e+01
0	 2.214286e+00	 6.571429e+00	 1.015727e+01
0	 2.214286e+00	 6.642857e+00	 1.015412e+01
0	 2.214286e+00	 6.714286e+00	 1.015117e+01
0	 2.214286e+00	 6.785714e+00	 1.014842e+01
0	 2.285714e+00	 6.428571e+00	 1.013843e+01
0	 2.285714e+00	 6.500000e+00	 1.013584e+01
0	 2.285714e+00	 6.571429e+00	 1.013347e+01
0	 2.285714e+00	 6.642857e+00	 1.013131e+01
0	 2.285714e+00	 6.714286e+00	 1.012937e+01
0	 2.285714e+00	 6.785714e+00	 1.012763e+01
0	 2.357143e+00	 6.428571e+00	 1.011302e+01
0	 2.357143e+00	 6.500000e+00	 1.011139e+01
0	 2.357143e+00	 6.571429e+00	 1.010998e+01
0	 2.357143e+00	 6.642857e+00	 1.010879e+01
0	 2.357143e+00	 6.714286e+00	 1.010782e+01
0	 2.357143e+00	 6.785714e+00	 1.010706e+01
0	 2.428571e+00	 6.428571e+00	 1.008798e+01
0	 2.428571e+00	 6.500000e+00	 1.008728e+01
0	 2.428571e+00	 6.571429e+00	 1.008680e+01
0	 2.428571e+00	 6.642857e+00	 1.008655e+01
0	 2.428571e+00	 6.714286e+00	 1.008652e+01
0	 2.428571e+00	 6.785714e+00	 1.008673e+01
0	 2.500000e+00	 6.428571e+00	 1.006329e+01
0	 2.500000e+00	 6.500000e+00	 1.006349e+01
0	 2.500000e+00	 6.571429e+00	 1.006392e+01
0	 2.500000e+00	 6.642857e+00	 1.006459e+01
0	 2.500000e+00	 6.714286e+00	 1.006549e+01
0	 2.500000e+00	 6.785714e+00	 1.006662e+01
0	 2.142857e+00	 6.785714e+00	 1.016945e+01
0	 2.142857e+00	 6.857143e+00	 1.016445e+01
0	 2.142857e+00	 6.928571e+00	 1.015957e+01
0	 2.142857e+00	 7.000000e+00	 1.015483e+01
0	 2.142857e+00	 7.071429e+00	 1.015020e+01
0	 2.142857e+00	 7.142857e+00	 1.014570e+01
0	 2.214286e+00	 6.785714e+00	 1.014842e+01
0	 2.214286e+00	 6.857143e+00	 1.014428e+01
0	 2.214286e+00	 6.928571e+00	 1.014027e+01
0	 2.214286e+00	 7.000000e+00	 1.013639e+01
0	 2.214286e+00	 7.071429e+00	 1.013265e+01
0	 2.214286e+00	 7.142857e+00	 1.012904e+01
0	 2.285714e+00	 6.785714e+00	 1.012763e+01
0	 2.285714e+00	 6.857143e+00	 1.012432e+01
0	 2.285714e+00	 6.928571e+00	 1.012116e+01
0	 2.285714e+00	 7.000000e+00	 1.011813e+01
0	 2.285714e+00	 7.071429e+00	 1.011525e+01
0	 2.285714e+00	 7.142857e+00	 1.011252e+01
0	 2.357143e+00	 6.785714e+00	 1.010706e+01
0	 2.357143e+00	 6.857143e+00	 1.010458e+01
0	 2.357143e+00	 6.928571e+00	 1.010224e+01
0	 2.357143e+00	 7.000000e+00	 1.010005e+01
0	 2.357143e+00	 7.071429e+00	 1.009801e+01
0	 2.357143e+00	 7.142857e+00	 1.009613e+01
0	 2.428571e+00	 6.785714e+00	 1.008673e+01
0	 2.428571e+00	 6.857143e+00	 1.008504e+01
0	 2.428571e+00	 6.928571e+00	 1.008351e+01
0	 2.428571e+00	 7.000000e+00	 1.008214e+01
0	 2.428571e+00	 7.071429e+00	 1.008093e+01
0	 2.428571e+00	 7.142857e+00	 1.007988e+01
0	 2.500000e+00	 6.785714e+00	 1.006662e+01
0	 2.500000e+00	 6.857143e+00	 1.006571e+01
0	 2.500000e+00	 6.928571e+00	 1.006498e+01
0	 2.500000e+00	 7.000000e+00	 1.006441e+01
0	 2.500000e+00	 7.071429e+00	 1.006400e+01
0	 2.500000e+00	 7.142857e+00	 1.006377e+01
0	 2.142857e+00	 7.142857e+00	 1.014570e+01
0	 2.142857e+00	 7.214286e+00	 1.014054e+01
0	 2.142857e+00	 7.285714e+00	 1.013545e+01
0	 2.142857e+00	 7.357143e+00	 1.013041e+01
0	 2.142857e+00	 7.428571e+00	 1.012544e+01
0	 2.142857e+00	 7.500000e+00	 1.012053e+01
0	 2.214286e+00	 7.142857e+00	 1.012904e+01
0	 2.214286e+00	 7.214286e+00	 1.012461e+01
0	 2.214286e+00	 7.285714e+00	 1.012026e+01
0	 2.214286e+00	 7.357143e+00	 1.011597e+01
0	 2.214286e+00	 7.428571e+00	 1.011176e+01
0	 2.214286e+00	 7.500000e+00	 1.010761e+01
0	 2.285714e+00	 7.142857e+00	 1.011252e+01
0	 2.285714e+00	 7.214286e+00	 1.010881e+01
0	 2.285714e+00	 7.285714e+00	 1.010518e+01
0	 2.285714e+00	 7.357143e+00	 1.010163e+01
0	 2.285714e+00	 7.428571e+00	 1.009816e+01
0	 2.285714e+00	 7.500000e+00	 1.009477e+01
0	 2.357143e+00	 7.142857e+00	 1.009613e+01
0	 2.357143e+00	 7.214286e+00	 1.009313e+01
0	 2.357143e+00	 7.285714e+00	 1.009021e+01
0	 2.357143e+00	 7.357143e+00	 1.008739e+01
0	 2.357143e+00	 7.428571e+00	 1.008465e+01
0	 2.357143e+00	 7.500000e+00	 1.008201e+01
0	 2.428571e+00	 7.142857e+00	 1.007988e+01
0	 2.428571e+00	 7.214286e+00	 1.007757e+01
0	 2.428571e+00	 7.285714e+00	 1.007536e+01
0	 2.428571e+00	 7.357143e+00	 1.007325e+01
0	 2.428571e+00	 7.428571e+00	 1.007123e+01
0	 2.428571e+00	 7.500000e+00	 1.006932e+01
0	 2.500000e+00	 7.142857e+00	 1.006377e+01
0	 2.500000e+00	 7.214286e+00	 1.006214e+01
0	 2.500000e+00	 7.285714e+00	 1.006062e+01
0	 2.500000e+00	 7.357143e+00	 1.005920e+01
0	 2.500000e+00	 7.428571e+00	 1.005790e+01
0	 2.500000e+00	 7.500000e+00	 1.005670e+01
0	 2.142857e+00	 7.500000e+00	 1.012053e+01
0	 2.142857e+00	 7.571429e+00	 1.011544e+01
0	 2.142857e+00	 7.642857e+00	 1.011036e+01
0	 2.142857e+00	 7.714286e+00	 1.010529e+01
0	 2.142857e+00	 7.785714e+00	 1.010021e+01
0	 2.142857e+00	 7.857143e+00	 1.009514e+01
0	 2.214286e+00	 7.500000e+00	 1.010761e+01
0	 2.214286e+00	 7.571429e+00	 1.010316e+01
0	 2.214286e+00	 7.642857e+00	 1.009871e+01
0	 2.214286e+00	 7.714286e+00	 1.009428e+01
0	 2.214286e+00	 7.785714e+00	 1.008987e+01
0	 2.214286e+00	 7.857143e+00	 1.008546e+01
0	 2.285714e+00	 7.500000e+00	 1.009477e+01
0	 2.285714e+00	 7.571429e+00	 1.009093e+01
0	 2.285714e+00	 7.642857e+00	 1.008712e+01
0	 2.285714e+00	 7.714286e+00	 1.008332e+01
0	 2.285714e+00	 7.785714e+00	 1.007955e+01
0	 2.285714e+00	 7.857143e+00	 1.007581e+01
0	 2.357143e+00	 7.500000e+00	 1.008201e+01
0	 2.357143e+00	 7.571429e+00	 1.007877e+01
0	 2.357143e+00	 7.642857e+00	 1.007557e+01
0	 2.357143e+00	 7.714286e+00	 1.007241e+01
0	 2.357143e+00	 7.785714e+00	 1.006928e+01
0	 2.357143e+00	 7.857143e+00	 1.006618e+01
0	 2.428571e+00	 7.500000e+00	 1.006932e+01
0	 2.428571e+00	 7.571429e+00	 1.006668e+01
0	 2.428571e+00	 7.642857e+00	 1.006409e+01
0	 2.428571e+00	 7.714286e+00	 1.006154e+01
0	 2.428571e+00	 7.785714e+00	 1.005904e+01
0	 2.428571e+00	 7.857143e+00	 1.005658e+01
0	 2.500000e+00	 7.500000e+00	 1.005670e+01
0	 2.500000e+00	 7.571429e+00	 1.005465e+01
0	 2.500000e+00	 7.642857e+00	 1.005266e+01
0	 2.500000e+00	 7.714286e+00	 1.005072e+01
0	 2.500000e+00	 7.785714e+00	 1.004883e+01
0	 2.500000e+00	 7.857143e+00	 1.004700e+01
0	 2.142857e+00	 7.857143e+00	 1.009514e+01
0	 2.142857e+00	 7.928571e+00	 1.009035e+01
0	 2.142857e+00	 8.000000e+00	 1.008550e+01
0	 2.142857e+00	 8.071429e+00	 1.008060e+01
0	 2.142857e+00	 8.142857e+00	 1.007565e+01
0	 2.142857e+00	 8.214286e+00	 1.007064e+01
0	 2.214286e+00	 7.857143e+00	 1.008546e+01
0	 2.214286e+00	 7.928571e+00	 1.008120e+01
0	 2.214286e+00	 8.000000e+00	 1.007690e+01
0	 2.214286e+00	 8.071429e+00	 1.007255e+01
0	 2.214286e+00	 8.142857e+00	 1.006817e+01
0	 2.214286e+00	 8.214286e+00	 1.006374e+01
0	 2.285714e+00	 7.857143e+00	 1.007581e+01
0	 2.285714e+00	 7.928571e+00	 1.007207e+01
0	 2.285714e+00	 8.000000e+00	 1.006830e+01
0	 2.285714e+00	 8.071429e+00	 1.006451e+01
0	 2.285714e+00	 8.142857e+00	 1.006068e+01
0	 2.285714e+00	 8.214286e+00	 1.005683e+01
0	 2.357143e+00	 7.857143e+00	 1.006618e+01
0	 2.357143e+00	 7.928571e+00	 1.006296e+01
0	 2.357143e+00	 8.000000e+00	 1.005972e+01
0	 2.357143e+00	 8.071429e+00	 1.005647e+01
0	 2.357143e+00	 8.142857e+00	 1.005320e+01
0	 2.357143e+00	 8.214286e+00	 1.004990e+01
0	 2.428571e+00	 7.857143e+00	 1.005658e+01
0	 2.428571e+00	 7.928571e+00	 1.005387e+01
0	 2.428571e+00	 8.000000e+00	 1.005116e+01
0	 2.428571e+00	 8.071429e+00	 1.004844e+01
0	 2.428571e+00	 8.142857e+00	 1.004571e+01
0	 2.428571e+00	 8.214286e+00	 1.004298e+01
0	 2.500000e+00	 7.857143e+00	 1.004700e+01
0	 2.500000e+00	 7.928571e+00	 1.004480e+01
0	 2.500000e+00	 8.000000e+00	 1.004260e+01
0	 2.500000e+00	 8.071429e+00	 1.004041e+01
0	 2.500000e+00	 8.142857e+00	 1.003822e+01
0	 2.500000e+00	 8.214286e+00	 1.003604e+01
0	 2.142857e+00	 8.214286e+00	 1.007064e+01
0	 2.142857e+00	 8.285714e+00	 1.006634e+01
0	 2.142857e+00	 8.357143e+00	 1.006194e+01
0	 2.142857e+00	 8.428571e+00	 1.005742e+01
0	 2.142857e+00	 8.500000e+00	 1.005279e+01
0	 2.142857e+00	 8.571429e+00	 1.004805e+01
0	 2.214286e+00	 8.214286e+00	 1.006374e+01
0	 2.214286e+00	 8.285714e+00	 1.005988e+01
0	 2.214286e+00	 8.357143e+00	 1.005593e+01
0	 2.214286e+00	 8.428571e+00	 1.005189e+01
0	 2.214286e+00	 8.500000e+00	 1.004775e+01
0	 2.214286e+00	 8.571429e+00	 1.004351e+01
0	 2.285714e+00	 8.214286e+00	 1.005683e+01
0	 2.285714e+00	 8.285714e+00	 1.005341e+01
0	 2.285714e+00	 8.357143e+00	 1.004991e+01
0	 2.285714e+00	 8.428571e+00	 1.004633e+01
0	 2.285714e+00	 8.500000e+00	 1.004267e+01
0	 2.285714e+00	 8.571429e+00	 1.003893e+01
0	 2.357143e+00	 8.214286e+00	 1.004990e+01
0	 2.357143e+00	 8.285714e+00	 1.004692e+01
0	 2.357143e+00	 8.357143e+00	 1.004387e+01
0	 2.357143e+00	 8.428571e+00	 1.004076e+01
0	 2.357143e+00	 8.500000e+00	 1.003757e+01
0	 2.357143e+00	 8.571429e+00	 1.003431e+01
0	 2.428571e+00	 8.214286e+00	 1.004298e+01
0	 2.428571e+00	 8.285714e+00	 1.004042e+01
0	 2.428571e+00	 8.357143e+00	 1.003781e+01
0	 2.428571e+00	 8.428571e+00	 1.003515e+01
0	 2.428571e+00	 8.500000e+00	 1.003244e+01
0	 2.428571e+00	 8.571429e+00	 1.002966e+01
0	 2.500000e+00	 8.214286e+00	 1.003604e+01
0	 2.500000e+00	 8.285714e+00	 1.003391e+01
0	 2.500000e+00	 8.357143e+00	 1.003174e+01
0	 2.500000e+00	 8.428571e+00	 1.002953e+01
0	 2.500000e+00	 8.500000e+00	 1.002727e+01
0	 2.500000e+00	 8.571429e+00	 1.002498e+01
0	 2.142857e+00	 8.571429e+00	 1.004805e+01
0	 2.142857e+00	 8.642857e+00	 1.004445e+01
0	 2.142857e+00	 8.714286e+00	 1.004069e+01
0	 2.142857e+00	 8.785714e+00	 1.003675e+01
0	 2.142857e+00	 8.857143e+00	 1.003265e+01
0	 2.142857e+00	 8.928571e+00	 1.002838e+01
0	 2.214286e+00	 8.571429e+00	 1.004351e+01
0	 2.214286e+00	 8.642857e+00	 1.004027e+01
0	 2.214286e+00	 8.714286e+00	 1.003688e+01
0	 2.214286e+00	 8.785714e+00	 1.003333e+01
0	 2.214286e+00	 8.857143e+00	 1.002964e+01
0	 2.214286e+00	 8.928571e+00	 1.002580e+01
0	 2.285714e+00	 8.571429e+00	 1.003893e+01
0	 2.285714e+00	 8.642857e+00	 1.003604e+01
0	 2.285714e+00	 8.714286e+00	 1.003302e+01
0	 2.285714e+00	 8.785714e+00	 1.002987e+01
0	 2.285714e+00	 8.857143e+00	 1.002658e+01
0	 2.285714e+00	 8.928571e+00	 1.002315e+01
0	 2.357143e+00	 8.571429e+00	 1.003431e+01
0	 2.357143e+00	 8.642857e+00	 1.003178e+01
0	 2.357143e+00	 8.714286e+00	 1.002912e+01
0	 2.357143e+00	 8.785714e+00	 1.002635e+01
0	 2.357143e+00	 8.857143e+00	 1.002346e+01
0	 2.357143e+00	 8.928571e+00	 1.002045e+01
0	 2.428571e+00	 8.571429e+00	 1.002966e+01
0	 2.428571e+00	 8.642857e+00	 1.002747e+01
0	 2.428571e+00	 8.714286e+00	 1.002517e+01
0	 2.428571e+00	 8.785714e+00	 1.002278e+01
0	 2.428571e+00	 8.857143e+00	 1.002028e+01
0	 2.428571e+00	 8.928571e+00	 1.001768e+01
0	 2.500000e+00	 8.571429e+00	 1.002498e+01
0	 2.500000e+00	 8.642857e+00	 1.002312e+01
0	 2.500000e+00	 8.714286e+00	 1.002118e+01
0	 2.500000e+00	 8.785714e+00	 1.001916e+01
0	 2.500000e+00	 8.857143e+00	 1.001705e+01
0	 2.500000e+00	 8.928571e+00	 1.001486e+01
0	 2.142857e+00	 8.928571e+00	 1.002838e+01
0	 2.142857e+00	 9.000000e+00	 1.002571e+01
0	 2.142857e+00	 9.071429e+00	 1.002281e+01
0	 2.142857e+00	 9.142857e+00	 1.001967e+01
0	 2.142857e+00	 9.214286e+00	 1.001631e+01
0	 2.142857e+00	 9.285714e+00	 1.001272e+01
0	 2.214286e+00	 8.928571e+00	 1.002580e+01
0	 2.214286e+00	 9.000000e+00	 1.002339e+01
0	 2.214286e+00	 9.071429e+00	 1.002077e+01
0	 2.214286e+00	 9.142857e+00	 1.001794e+01
0	 2.214286e+00	 9.214286e+00	 1.001491e+01
0	 2.214286e+00	 9.285714e+00	 1.001167e+01
0	 2.285714e+00	 8.928571e+00	 1.002315e+01
0	 2.285714e+00	 9.000000e+00	 1.002100e+01
0	 2.285714e+00	 9.071429e+00	 1.001866e+01
0	 2.285714e+00	 9.142857e+00	 1.001614e+01
0	 2.285714e+00	 9.214286e+00	 1.001343e+01
0	 2.285714e+00	 9.285714e+00	 1.001053e+01
0	 2.357143e+00	 8.928571e+00	 1.002045e+01
0	 2.357143e+00	 9.000000e+00	 1.001855e+01
0	 2.357143e+00	 9.071429e+00	 1.001649e+01
0	 2.357143e+00	 9.142857e+00	 1.001426e+01
0	 2.357143e+00	 9.214286e+00	 1.001187e+01
0	 2.357143e+00	 9.285714e+00	 1.000931e+01
0	 2.428571e+00	 8.928571e+00	 1.001768e+01
0	 2.428571e+00	 9.000000e+00	 1.001604e+01
0	 2.428571e+00	 9.071429e+00	 1.001425e+01
0	 2.428571e+00	 9.142857e+00	 1.001231e+01
0	 2.428571e+00	 9.214286e+00	 1.001023e+01
0	 2.428571e+00	 9.285714e+00	 1.000801e+01
0	 2.500000e+00	 8.928571e+00	 1.001486e+01
0	 2.500000e+00	 9.000000e+00	 1.001346e+01
0	 2.500000e+00	 9.071429e+00	 1.001194e+01
0	 2.500000e+00	 9.142857e+00	 1.001029e+01
0	 2.500000e+00	 9.214286e+00	 1.000852e+01
0	 2.500000e+00	 9.285714e+00	 1.000663e+01
0	 2.142857e+00	 9.285714e+00	 1.001272e+01
0	 2.142857e+00	 9.357143e+00	 1.001120e+01
0	 2.142857e+00	 9.428571e+00	 1.000939e+01
0	 2.142857e+00	 9.500000e+00	 1.000728e+01
0	 2.142857e+00	 9.571429e+00	 1.000488e+01
0	 2.142857e+00	 9.642857e+00	 1.000218e+01
0	 2.214286e+00	 9.285714e+00	 1.001167e+01
0	 2.214286e+00	 9.357143e+00	 1.001030e+01
0	 2.214286e+00	 9.428571e+00	 1.000867e+01
0	 2.214286e+00	 9.500000e+00	 1.000678e+01
0	 2.214286e+00	 9.571429e+00	 1.000461e+01
0	 2.214286e+00	 9.642857e+00	 1.000218e+01
0	 2.285714e+00	 9.285714e+00	 1.001053e+01
0	 2.285714e+00	 9.357143e+00	 1.000932e+01
0	 2.285714e+00	 9.428571e+00	 1.000787e+01
0	 2.285714e+00	 9.500000e+00	 1.000617e+01
0	 2.285714e+00	 9.571429e+00	 1.000424e+01
0	 2.285714e+00	 9.642857e+00	 1.000206e+01
0	 2.357143e+00	 9.285714e+00	 1.000931e+01
0	 2.357143e+00	 9.357143e+00	 1.000825e+01
0	 2.357143e+00	 9.428571e+00	 1.000697e+01
0	 2.357143e+00	 9.500000e+00	 1.000547e+01
0	 2.357143e+00	 9.571429e+00	 1.000377e+01
0	 2.357143e+00	 9.642857e+00	 1.000185e+01
0	 2.428571e+00	 9.285714e+00	 1.000801e+01
0	 2.428571e+00	 9.357143e+00	 1.000709e+01
0	 2.428571e+00	 9.428571e+00	 1.000598e+01
0	 2.428571e+00	 9.500000e+00	 1.000468e+01
0	 2.428571e+00	 9.571429e+00	 1.000320e+01
0	 2.428571e+00	 9.642857e+00	 1.000153e+01
0	 2.500000e+00	 9.285714e+00	 1.000663e+01
0	 2.500000e+00	 9.357143e+00	 1.000584e+01
0	 2.500000e+00	 9.428571e+00	 1.000490e+01
0	 2.500000e+00	 9.500000e+00	 1.000379e+01
0	 2.500000e+00	 9.571429e+00	 1.000253e+01
0	 2.500000e+00	 9.642857e+00	 1.000111e+01
0	 2.142857e+00	 9.642857e+00	 1.000218e+01
0	 2.142857e+00	 9.714286e+00	 1.000213e+01
0	 2.142857e+00	 9.785714e+00	 1.000170e+01
0	 2.142857e+00	 9.857143e+00	 1.000091e+01
0	 2.142857e+00	 9.928571e+00	 9.999757e+00
0	 2.142857e+00	 1.000000e+01	 9.998234e+00
0	 2.214286e+00	 9.642857e+00	 1.000218e+01
0	 2.214286e+00	 9.714286e+00	 1.000213e+01
0	 2.214286e+00	 9.785714e+00	 1.000176e+01
0	 2.214286e+00	 9.857143e+00	 1.000106e+01
0	 2.214286e+00	 9.928571e+00	 1.000002e+01
0	 2.214286e+00	 1.000000e+01	 9.998655e+00
0	 2.285714e+00	 9.642857e+00	 1.000206e+01
0	 2.285714e+00	 9.714286e+00	 1.000203e+01
0	 2.285714e+00	 9.785714e+00	 1.000171e+01
0	 2.285714e+00	 9.857143e+00	 1.000109e+01
0	 2.285714e+00	 9.928571e+00	 1.000017e+01
0	 2.285714e+00	 1.000000e+01	 9.998952e+00
0	 2.357143e+00	 9.642857e+00	 1.000185e+01
0	 2.357143e+00	 9.714286e+00	 1.000183e+01
0	 2.357143e+00	 9.785714e+00	 1.000154e+01
0	 2.357143e+00	 9.857143e+00	 1.000100e+01
0	 2.357143e+00	 9.928571e+00	 1.000019e+01
0	 2.357143e+00	 1.000000e+01	 9.999123e+00
0	 2.428571e+00	 9.642857e+00	 1.000153e+01
0	 2.428571e+00	 9.714286e+00	 1.000151e+01
0	 2.428571e+00	 9.785714e+00	 1.000126e+01
0	 2.428571e+00	 9.857143e+00	 1.000079e+01
0	 2.428571e+00	 9.928571e+00	 1.000009e+01
0	 2.428571e+00	 1.000000e+01	 9.999168e+00
0	 2.500000e+00	 9.642857e+00	 1.000111e+01
0	 2.500000e+00	 9.714286e+00	 1.000109e+01
0	 2.500000e+00	 9.785714e+00	 1.000087e+01
0	 2.500000e+00	 9.857143e+00	 1.000047e+01
0	 2.500000e+00	 9.928571e+00	 9.999875e+00
0	 2.500000e+00	 1.000000e+01	 9.999089e+00
0	 2.500000e+00	 0.000000e+00	 2.412364e+00
0	 2.500000e+00	 7.142857e-02	 3.020106e+00
0	 2.500000e+00	 1.428571e-01	 3.635450e+00
0	 2.500000e+00	 2.142857e-01	 4.258396e+00
0	 2.500000e+00	 2.857143e-01	 4.888944e+00
0	 2.500000e+00	 3.571429e-01	 5.527093e+00
0	 2.571429e+00	 0.000000e+00	 3.920155e+00
0	 2.571429e+00	 7.142857e-02	 4.328647e+00
0	 2.571429e+00	 1.428571e-01	 4.737803e+00
0	 2.571429e+00	 2.142857e-01	 5.147622e+00
0	 2.571429e+00	 2.857143e-01	 5.558105e+00
0	 2.571429e+00	 3.571429e-01	 5.969250e+00
0	 2.642857e+00	 0.000000e+00	 5.092864e+00
0	 2.642857e+00	 7.142857e-02	 5.361545e+00
0	 2.642857e+00	 1.428571e-01	 5.623951e+00
0	 2.642857e+00	 2.142857e-01	 5.880082e+00
0	 2.642857e+00	 2.857143e-01	 6.129937e+00
0	 2.642857e+00	 3.571429e-01	 6.373517e+00
0	 2.714286e+00	 0.000000e+00	 5.930492e+00
0	 2.714286e+00	 7.142857e-02	 6.118800e+00
0	 2.714286e+00	 1.428571e-01	 6.293894e+00
0	 2.714286e+00	 2.142857e-01	 6.455774e+00
0	 2.714286e+00	 2.857143e-01	 6.604441e+00
0	 2.714286e+00	 3.571429e-01	 6.739894e+00
0	 2.785714e+00	 0.000000e+00	 6.433039e+00
0	 2.785714e+00	 7.142857e-02	 6.600411e+00
0	 2.785714e+00	 1.428571e-01	 6.747632e+00
0	 2.785714e+00	 2.142857e-01	 6.874701e+00
0	 2.785714e+00	 2.857143e-01	 6.981617e+00
0	 2.785714e+00	 3.571429e-01	 7.068381e+00
0	 2.857143e+00	 0.000000e+00	 6.600504e+00
0	 2.857143e+00	 7.142857e-02	 6.806380e+00
0	 2.857143e+00	 1.428571e-01	 6.985165e+00
0	 2.857143e+00	 2.142857e-01	 7.136860e+00
0	 2.857143e+00	 2.857143e-01	 7.261464e+00
0	 2.857143e+00	 3.571429e-01	 7.358977e+00
0	 2.500000e+00	 3.571429e-01	 5.527093e+00
0	 2.500000e+00	 4.285714e-01	 5.918637e+00
0	 2.500000e+00	 5.000000e-01	 6.451879e+00
0	 2.500000e+00	 5.714286e-01	 7.126819e+00
0	 2.500000e+00	 6.428571e-01	 7.943456e+00
0	 2.500000e+00	 7.142857e-01	 8.901791e+00
0	 2.571429e+00	 3.571429e-01	 5.969250e+00
0	 2.571429e+00	 4.285714e-01	 6.171380e+00
0	 2.571429e+00	 5.000000e-01	 6.490883e+00
0	 2.571429e+00	 5.714286e-01	 6.927760e+00
0	 2.571429e+00	 6.428571e-01	 7.482011e+00
0	 2.571429e+00	 7.142857e-01	 8.153636e+00
0	 2.642857e+00	 3.571429e-01	 6.373517e+00
0	 2.642857e+00	 4.285714e-01	 6.445025e+00
0	 2.642857e+00	 5.000000e-01	 6.609584e+00
0	 2.642857e+00	 5.714286e-01	 6.867192e+00
0	 2.642857e+00	 6.428571e-01	 7.217851e+00
0	 2.642857e+00	 7.142857e-01	 7.661560e+00
0	 2.714286e+00	 3.571429e-01	 6.739894e+00
0	 2.714286e+00	 4.285714e-01	 6.739575e+00
0	 2.714286e+00	 5.000000e-01	 6.807982e+00
0	 2.714286e+00	 5.714286e-01	 6.945115e+00
0	 2.714286e+00	 6.428571e-01	 7.150975e+00
0	 2.714286e+00	 7.142857e-01	 7.425561e+00
0	 2.785714e+00	 3.571429e-01	 7.068381e+00
0	 2.785714e+00	 4.285714e-01	 7.055027e+00
0	 2.785714e+00	 5.000000e-01	 7.086077e+00
0	 2.785714e+00	 5.714286e-01	 7.161529e+00
0	 2.785714e+00	 6.428571e-01	 7.281384e+00
0	 2.785714e+00	 7.142857e-01	 7.445641e+00
0	 2.857143e+00	 3.571429e-01	 7.358977e+00
0	 2.857143e+00	 4.285714e-01	 7.391383e+00
0	 2.857143e+00	 5.000000e-01	 7.443869e+00
0	 2.857143e+00	 5.714286e-01	 7.516433e+00
0	 2.857143e+00	 6.428571e-01	 7.609077e+00
0	 2.857143e+00	 7.142857e-01	 7.721800e+00
0	 2.500000e+00	 7.142857e-01	 8.901791e+00
0	 2.500000e+00	 7.857143e-01	 8.528263e+00
0	 2.500000e+00	 8.571429e-01	 8.157071e+00
0	 2.500000e+00	 9.285714e-01	 7.788216e+00
0	 2.500000e+00	 1.000000e+00	 7.421696e+00
0	 2.500000e+00	 1.071429e+00	 7.057513e+00
0	 2.571429e+00	 7.142857e-01	 8.153636e+00
0	 2.571429e+00	 7.857143e-01	 8.003873e+00
0	 2.571429e+00	 8.571429e-01	 7.864704e+00
0	 2.571429e+00	 9.285714e-01	 7.736130e+00
0	 2.571429e+00	 1.000000e+00	 7.618150e+00
0	 2.571429e+00	 1.071429e+00	 7.510765e+00
0	 2.642857e+00	 7.142857e-01	 7.661560e+00
0	 2.642857e+00	 7.857143e-01	 7.657485e+00
0	 2.642857e+00	 8.571429e-01	 7.672264e+00
0	 2.642857e+00	 9.285714e-01	 7.705895e+00
0	 2.642857e+00	 1.000000e+00	 7.758379e+00
0	 2.642857e+00	 1.071429e+00	 7.829716e+00
0	 2.714286e+00	 7.142857e-01	 7.425561e+00
0	 2.714286e+00	 7.857143e-01	 7.489100e+00
0	 2.714286e+00	 8.571429e-01	 7.579750e+00
0	 2.714286e+00	 9.285714e-01	 7.697511e+00
0	 2.714286e+00	 1.000000e+00	 7.842383e+00
0	 2.714286e+00	 1.071429e+00	 8.014366e+00
0	 2.785714e+00	 7.142857e-01	 7.445641e+00
0	 2.785714e+00	 7.857143e-01	 7.498717e+00
0	 2.785714e+00	 8.571429e-01	 7.587162e+00
0	 2.785714e+00	 9.285714e-01	 7.710977e+00
0	 2.785714e+00	 1.000000e+00	 7.870161e+00
0	 2.785714e+00	 1.071429e+00	 8.064715e+00
0	 2.857143e+00	 7.142857e-01	 7.721800e+00
0	 2.857143e+00	 7.857143e-01	 7.686336e+00
0	 2.857143e+00	 8.571429e-01	 7.694501e+00
0	 2.857143e+00	 9.285714e-01	 7.746294e+00
0	 2.857143e+00	 1.000000e+00	 7.841714e+00
0	 2.857143e+00	 1.071429e+00	 7.980762e+00
0	 2.500000e+00	 1.071429e+00	 7.057513e+00
0	 2.500000e+00	 1.142857e+00	 6.933129e+00
0	 2.500000e+00	 1.214286e+00	 6.817617e+00
0	 2.500000e+00	 1.285714e+00	 6.710977e+00
0	 2.500000e+00	 1.357143e+00	 6.613209e+00
0	 2.500000e+00	 1.428571e+00	 6.524312e+00
0	 2.571429e+00	 1.071429e+00	 7.510765e+00
0	 2.571429e+00	 1.142857e+00	 7.370323e+00
0	 2.571429e+00	 1.214286e+00	 7.236944e+00
0	 2.571429e+00	 1.285714e+00	 7.110626e+00
0	 2.571429e+00	 1.357143e+00	 6.991371e+00
0	 2.571429e+00	 1.428571e+00	 6.879178e+00
0	 2.642857e+00	 1.071429e+00	 7.829716e+00
0	 2.642857e+00	 1.142857e+00	 7.683044e+00
0	 2.642857e+00	 1.214286e+00	 7.541623e+00
0	 2.642857e+00	 1.285714e+00	 7.405456e+00
0	 2.642857e+00	 1.357143e+00	 7.274540e+00
0	 2.642857e+00	 1.428571e+00	 7.148878e+00
0	 2.714286e+00	 1.071429e+00	 8.014366e+00
0	 2.714286e+00	 1.142857e+00	 7.871290e+00
0	 2.714286e+00	 1.214286e+00	 7.731656e+00
0	 2.714286e+00	 1.285714e+00	 7.595465e+00
0	 2.714286e+00	 1.357143e+00	 7.462717e+00
0	 2.714286e+00	 1.428571e+00	 7.333411e+00
0	 2.785714e+00	 1.071429e+00	 8.064715e+00
0	 2.785714e+00	 1.142857e+00	 7.935061e+00
0	 2.785714e+00	 1.214286e+00	 7.807041e+00
0	 2.785714e+00	 1.285714e+00	 7.680654e+00
0	 2.785714e+00	 1.357143e+00	 7.555900e+00
0	 2.785714e+00	 1.428571e+00	 7.432779e+00
0	 2.857143e+00	 1.071429e+00	 7.980762e+00
0	 2.857143e+00	 1.142857e+00	 7.874359e+00
0	 2.857143e+00	 1.214286e+00	 7.767779e+00
0	 2.857143e+00	 1.285714e+00	 7.661023e+00
0	 2.857143e+00	 1.357143e+00	 7.554091e+00
0	 2.857143e+00	 1.428571e+00	 7.446981e+00
0	 2.500000e+00	 1.428571e+00	 6.524312e+00
0	 2.500000e+00	 1.500000e+00	 6.765934e+00
0	 2.500000e+00	 1.571429e+00	 6.962639e+00
0	 2.500000e+00	 1.642857e+00	 7.114428e+00
0	 2.500000e+00	 1.714286e+00	 7.221300e+00
0	 2.500000e+00	 1.785714e+00	 7.283255e+00
0	 2.571429e+00	 1.428571e+00	 6.879178e+00
0	 2.571429e+00	 1.500000e+00	 6.990482e+00
0	 2.571429e+00	 1.571429e+00	 7.060673e+00
0	 2.571429e+00	 1.642857e+00	 7.089751e+00
0	 2.571429e+00	 1.714286e+00	 7.077715e+00
0	 2.571429e+00	 1.785714e+00	 7.024566e+00
0	 2.642857e+00	 1.428571e+00	 7.148878e+00
0	 2.642857e+00	 1.500000e+00	 7.167550e+00
0	 2.642857e+00	 1.571429e+00	 7.148911e+00
0	 2.642857e+00	 1.642857e+00	 7.092962e+00
0	 2.642857e+00	 1.714286e+00	 6.999703e+00
0	 2.642857e+00	 1.785714e+00	 6.869134e+00
0	 2.714286e+00	 1.428571e+00	 7.333411e+00
0	 2.714286e+00	 1.500000e+00	 7.297136e+00
0	 2.714286e+00	 1.571429e+00	 7.227352e+00
0	 2.714286e+00	 1.642857e+00	 7.124062e+00
0	 2.714286e+00	 1.714286e+00	 6.987264e+00
0	 2.714286e+00	 1.785714e+00	 6.816959e+00
0	 2.785714e+00	 1.428571e+00	 7.432779e+00
0	 2.785714e+00	 1.500000e+00	 7.379240e+00
0	 2.785714e+00	 1.571429e+00	 7.295997e+00
0	 2.785714e+00	 1.642857e+00	 7.183050e+00
0	 2.785714e+00	 1.714286e+00	 7.040398e+00
0	 2.785714e+00	 1.785714e+00	 6.868042e+00
0	 2.857143e+00	 1.428571e+00	 7.446981e+00
0	 2.857143e+00	 1.500000e+00	 7.413864e+00
0	 2.857143e+00	 1.571429e+00	 7.354845e+00
0	 2.857143e+00	 1.642857e+00	 7.269925e+00
0	 2.857143e+00	 1.714286e+00	 7.159104e+00
0	 2.857143e+00	 1.785714e+00	 7.022382e+00
0	 2.500000e+00	 1.785714e+00	 7.283255e+00
0	 2.500000e+00	 1.857143e+00	 7.305871e+00
0	 2.500000e+00	 1.928571e+00	 7.314774e+00
0	 2.500000e+00	 2.000000e+00	 7.309966e+00
0	 2.500000e+00	 2.071429e+00	 7.291447e+00
0	 2.500000e+00	 2.142857e+00	 7.259215e+00
0	 2.571429e+00	 1.785714e+00	 7.024566e+00
0	 2.571429e+00	 1.857143e+00	 7.120679e+00
0	 2.571429e+00	 1.928571e+00	 7.200893e+00
0	 2.571429e+00	 2.000000e+00	 7.265208e+00
0	 2.571429e+00	 2.071429e+00	 7.313623e+00
0	 2.571429e+00	 2.142857e+00	 7.346140e+00
0	 2.642857e+00	 1.785714e+00	 6.869134e+00
0	 2.642857e+00	 1.857143e+00	 7.012472e+00
0	 2.642857e+00	 1.928571e+00	 7.137724e+00
0	 2.642857e+00	 2.000000e+00	 7.244890e+00
0	 2.642857e+00	 2.071429e+00	 7.333969e+00
0	 2.642857e+00	 2.142857e+00	 7.404961e+00
0	 2.714286e+00	 1.785714e+00	 6.816959e+00
0	 2.714286e+00	 1.857143e+00	 6.981251e+00
0	 2.714286e+00	 1.928571e+00	 7.125268e+00
0	 2.714286e+00	 2.000000e+00	 7.249012e+00
0	 2.714286e+00	 2.071429e+00	 7.352482e+00
0	 2.714286e+00	 2.142857e+00	 7.435678e+00
0	 2.785714e+00	 1.785714e+00	 6.868042e+00
0	 2.785714e+00	 1.857143e+00	 7.027014e+00
0	 2.785714e+00	 1.928571e+00	 7.163525e+00
0	 2.785714e+00	 2.000000e+00	 7.277575e+00
0	 2.785714e+00	 2.071429e+00	 7.369164e+00
0	 2.785714e+00	 2.142857e+00	 7.438292e+00
0	 2.857143e+00	 1.785714e+00	 7.022382e+00
0	 2.857143e+00	 1.857143e+00	 7.149763e+00
0	 2.857143e+00	 1.928571e+00	 7.252495e+00
0	 2.857143e+00	 2.000000e+00	 7.330579e+00
0	 2.857143e+00	 2.071429e+00	 7.384014e+00
0	 2.857143e+00	 2.142857e+00	 7.412801e+00
0	 2.500000e+00	 2.142857e+00	 7.259215e+00
0	 2.500000e+00	 2.214286e+00	 7.487288e+00
0	 2.500000e+00	 2.285714e+00	 7.686771e+00
0	 2.500000e+00	 2.357143e+00	 7.857666e+00
0	 2.500000e+00	 2.428571e+00	 7.999971e+00
0	 2.500000e+00	 2.500000e+00	 8.113688e+00
0	 2.571429e+00	 2.142857e+00	 7.346140e+00
0	 2.571429e+00	 2.214286e+00	 7.513260e+00
0	 2.571429e+00	 2.285714e+00	 7.656369e+00
0	 2.571429e+00	 2.357143e+00	 7.775467e+00
0	 2.571429e+00	 2.428571e+00	 7.870555e+00
0	 2.571429e+00	 2.500000e+00	 7.941633e+00
0	 2.642857e+00	 2.142857e+00	 7.404961e+00
0	 2.642857e+00	 2.214286e+00	 7.525392e+00
0	 2.642857e+00	 2.285714e+00	 7.626391e+00
0	 2.642857e+00	 2.357143e+00	 7.707958e+00
0	 2.642857e+00	 2.428571e+00	 7.770092e+00
0	 2.642857e+00	 2.500000e+00	 7.812794e+00
0	 2.714286e+00	 2.142857e+00	 7.435678e+00
0	 2.714286e+00	 2.214286e+00	 7.523685e+00
0	 2.714286e+00	 2.285714e+00	 7.596838e+00
0	 2.714286e+00	 2.357143e+00	 7.655137e+00
0	 2.714286e+00	 2.428571e+00	 7.698582e+00
0	 2.714286e+00	 2.500000e+00	 7.727173e+00
0	 2.785714e+00	 2.142857e+00	 7.438292e+00
0	 2.785714e+00	 2.214286e+00	 7.508138e+00
0	 2.785714e+00	 2.285714e+00	 7.567709e+00
0	 2.785714e+00	 2.357143e+00	 7.617005e+00
0	 2.785714e+00	 2.428571e+00	 7.656025e+00
0	 2.785714e+00	 2.500000e+00	 7.684769e+00
0	 2.857143e+00	 2.142857e+00	 7.412801e+00
0	 2.857143e+00	 2.214286e+00	 7.478752e+00
0	 2.857143e+00	 2.285714e+00	 7.539005e+00
0	 2.857143e+00	 2.357143e+00	 7.593562e+00
0	 2.857143e+00	 2.428571e+00	 7.642420e+00
0	 2.857143e+00	 2.500000e+00	 7.685582e+00
0	 2.500000e+00	 2.500000e+00	 8.113688e+00
0	 2.500000e+00	 2.571429e+00	 8.184566e+00
0	 2.500000e+00	 2.642857e+00	 8.261129e+00
0	 2.500000e+00	 2.714286e+00	 8.343377e+00
0	 2.500000e+00	 2.785714e+00	 8.431312e+00
0	 2.500000e+00	 2.857143e+00	 8.524931e+00
0	 2.571429e+00	 2.500000e+00	 7.941633e+00
0	 2.571429e+00	 2.571429e+00	 8.038179e+00
0	 2.571429e+00	 2.642857e+00	 8.136958e+00
0	 2.571429e+00	 2.714286e+00	 8.237968e+00
0	 2.571429e+00	 2.785714e+00	 8.341209e+00
0	 2.571429e+00	 2.857143e+00	 8.446682e+00
0	 2.642857e+00	 2.500000e+00	 7.812794e+00
0	 2.642857e+00	 2.571429e+00	 7.927521e+00
0	 2.642857e+00	 2.642857e+00	 8.041025e+00
0	 2.642857e+00	 2.714286e+00	 8.153307e+00
0	 2.642857e+00	 2.785714e+00	 8.264367e+00
0	 2.642857e+00	 2.857143e+00	 8.374205e+00
0	 2.714286e+00	 2.500000e+00	 7.727173e+00
0	 2.714286e+00	 2.571429e+00	 7.852590e+00
0	 2.714286e+00	 2.642857e+00	 7.973332e+00
0	 2.714286e+00	 2.714286e+00	 8.089397e+00
0	 2.714286e+00	 2.785714e+00	 8.200786e+00
0	 2.714286e+00	 2.857143e+00	 8.307500e+00
0	 2.785714e+00	 2.500000e+00	 7.684769e+00
0	 2.785714e+00	 2.571429e+00	 7.813388e+00
0	 2.785714e+00	 2.642857e+00	 7.933877e+00
0	 2.785714e+00	 2.714286e+00	 8.046237e+00
0	 2.785714e+00	 2.785714e+00	 8.150466e+00
0	 2.785714e+00	 2.857143e+00	 8.246565e+00
0	 2.857143e+00	 2.500000e+00	 7.685582e+00
0	 2.857143e+00	 2.571429e+00	 7.809914e+00
0	 2.857143e+00	 2.642857e+00	 7.922662e+00
0	 2.857143e+00	 2.714286e+00	 8.023826e+00
0	 2.857143e+00	 2.785714e+00	 8.113406e+00
0	 2.857143e+00	 2.857143e+00	 8.191403e+00
0	 2.500000e+00	 2.857143e+00	 8.524931e+00
0	 2.500000e+00	 2.928571e+00	 8.632079e+00
0	 2.500000e+00	 3.000000e+00	 8.733137e+00
0	 2.500000e+00	 3.071429e+00	 8.828106e+00
0	 2.500000e+00	 3.142857e+00	 8.916985e+00
0	 2.500000e+00	 3.214286e+00	 8.999775e+00
0	 2.571429e+00	 2.857143e+00	 8.446682e+00
0	 2.571429e+00	 2.928571e+00	 8.542176e+00
0	 2.571429e+00	 3.000000e+00	 8.632853e+00
0	 2.571429e+00	 3.071429e+00	 8.718713e+00
0	 2.571429e+00	 3.142857e+00	 8.799755e+00
0	 2.571429e+00	 3.214286e+00	 8.875981e+00
0	 2.642857e+00	 2.857143e+00	 8.374205e+00
0	 2.642857e+00	 2.928571e+00	 8.460543e+00
0	 2.642857e+00	 3.000000e+00	 8.543337e+00
0	 2.642857e+00	 3.071429e+00	 8.622585e+00
0	 2.642857e+00	 3.142857e+00	 8.698290e+00
0	 2.642857e+00	 3.214286e+00	 8.770450e+00
0	 2.714286e+00	 2.857143e+00	 8.307500e+00
0	 2.714286e+00	 2.928571e+00	 8.387180e+00
0	 2.714286e+00	 3.000000e+00	 8.464588e+00
0	 2.714286e+00	 3.071429e+00	 8.539724e+00
0	 2.714286e+00	 3.142857e+00	 8.612589e+00
0	 2.714286e+00	 3.214286e+00	 8.683181e+00
0	 2.785714e+00	 2.857143e+00	 8.246565e+00
0	 2.785714e+00	 2.928571e+00	 8.322086e+00
0	 2.785714e+00	 3.000000e+00	 8.396608e+00
0	 2.785714e+00	 3.071429e+00	 8.470129e+00
0	 2.785714e+00	 3.142857e+00	 8.542651e+00
0	 2.785714e+00	 3.214286e+00	 8.614174e+00
0	 2.857143e+00	 2.857143e+00	 8.191403e+00
0	 2.857143e+00	 2.928571e+00	 8.265263e+00
0	 2.857143e+00	 3.000000e+00	 8.339395e+00
0	 2.857143e+00	 3.071429e+00	 8.413800e+00
0	 2.857143e+00	 3.142857e+00	 8.488478e+00
0	 2.857143e+00	 3.214286e+00	 8.563429e+00
0	 2.500000e+00	 3.214286e+00	 8.999775e+00
0	 2.500000e+00	 3.285714e+00	 9.054359e+00
0	 2.500000e+00	 3.357143e+00	 9.112098e+00
0	 2.500000e+00	 3.428571e+00	 9.172991e+00
0	 2.500000e+00	 3.500000e+00	 9.237039e+00
0	 2.500000e+00	 3.571429e+00	 9.304241e+00
0	 2.571429e+00	 3.214286e+00	 8.875981e+00
0	 2.571429e+00	 3.285714e+00	 8.938849e+00
0	 2.571429e+00	 3.357143e+00	 9.003803e+00
0	 2.571429e+00	 3.428571e+00	 9.070842e+00
0	 2.571429e+00	 3.500000e+00	 9.139966e+00
0	 2.571429e+00	 3.571429e+00	 9.211176e+00
0	 2.642857e+00	 3.214286e+00	 8.770450e+00
0	 2.642857e+00	 3.285714e+00	 8.839523e+00
0	 2.642857e+00	 3.357143e+00	 8.909613e+00
0	 2.642857e+00	 3.428571e+00	 8.980719e+00
0	 2.642857e+00	 3.500000e+00	 9.052841e+00
0	 2.642857e+00	 3.571429e+00	 9.125980e+00
0	 2.714286e+00	 3.214286e+00	 8.683181e+00
0	 2.714286e+00	 3.285714e+00	 8.756381e+00
0	 2.714286e+00	 3.357143e+00	 8.829529e+00
0	 2.714286e+00	 3.428571e+00	 8.902623e+00
0	 2.714286e+00	 3.500000e+00	 8.975664e+00
0	 2.714286e+00	 3.571429e+00	 9.048653e+00
0	 2.785714e+00	 3.214286e+00	 8.614174e+00
0	 2.785714e+00	 3.285714e+00	 8.689422e+00
0	 2.785714e+00	 3.357143e+00	 8.763549e+00
0	 2.785714e+00	 3.428571e+00	 8.836553e+00
0	 2.785714e+00	 3.500000e+00	 8.908435e+00
0	 2.785714e+00	 3.571429e+00	 8.979195e+00
0	 2.857143e+00	 3.214286e+00	 8.563429e+00
0	 2.857143e+00	 3.285714e+00	 8.638647e+00
0	 2.857143e+00	 3.357143e+00	 8.711674e+00
0	 2.857143e+00	 3.428571e+00	 8.782510e+00
0	 2.857143e+00	 3.500000e+00	 8.851154e+00
0	 2.857143e+00	 3.571429e+00	 8.917607e+00
0	 2.500000e+00	 3.571429e+00	 9.304241e+00
0	 2.500000e+00	 3.642857e+00	 9.352903e+00
0	 2.500000e+00	 3.714286e+00	 9.401587e+00
0	 2.500000e+00	 3.785714e+00	 9.450291e+00
0	 2.500000e+00	 3.857143e+00	 9.499017e+00
0	 2.500000e+00	 3.928571e+00	 9.547764e+00
0	 2.571429e+00	 3.571429e+00	 9.211176e+00
0	 2.571429e+00	 3.642857e+00	 9.260385e+00
0	 2.571429e+00	 3.714286e+00	 9.309794e+00
0	 2.571429e+00	 3.785714e+00	 9.359400e+00
0	 2.571429e+00	 3.857143e+00	 9.409205e+00
0	 2.571429e+00	 3.928571e+00	 9.459209e+00
0	 2.642857e+00	 3.571429e+00	 9.125980e+00
0	 2.642857e+00	 3.642857e+00	 9.175757e+00
0	 2.642857e+00	 3.714286e+00	 9.225911e+00
0	 2.642857e+00	 3.785714e+00	 9.276440e+00
0	 2.642857e+00	 3.857143e+00	 9.327345e+00
0	 2.642857e+00	 3.928571e+00	 9.378625e+00
0	 2.714286e+00	 3.571429e+00	 9.048653e+00
0	 2.714286e+00	 3.642857e+00	 9.099019e+00
0	 2.714286e+00	 3.714286e+00	 9.149938e+00
0	 2.714286e+00	 3.785714e+00	 9.201411e+00
0	 2.714286e+00	 3.857143e+00	 9.253436e+00
0	 2.714286e+00	 3.928571e+00	 9.306014e+00
0	 2.785714e+00	 3.571429e+00	 8.979195e+00
0	 2.785714e+00	 3.642857e+00	 9.030171e+00
0	 2.785714e+00	 3.714286e+00	 9.081876e+00
0	 2.785714e+00	 3.785714e+00	 9.134312e+00
0	 2.785714e+00	 3.857143e+00	 9.187478e+00
0	 2.785714e+00	 3.928571e+00	 9.241375e+00
0	 2.857143e+00	 3.571429e+00	 8.917607e+00
0	 2.857143e+00	 3.642857e+00	 8.969212e+00
0	 2.857143e+00	 3.714286e+00	 9.021724e+00
0	 2.857143e+00	 3.785714e+00	 9.075145e+00
0	 2.857143e+00	 3.857143e+00	 9.129472e+00
0	 2.857143e+00	 3.928571e+00	 9.184707e+00
0	 2.500000e+00	 3.928571e+00	 9.547764e+00
0	 2.500000e+00	 4.000000e+00	 9.578912e+00
0	 2.500000e+00	 4.071429e+00	 9.611513e+00
0	 2.500000e+00	 4.142857e+00	 9.645566e+00
0	 2.500000e+00	 4.214286e+00	 9.681071e+00
0	 2.500000e+00	 4.285714e+00	 9.718029e+00
0	 2.571429e+00	 3.928571e+00	 9.459209e+00
0	 2.571429e+00	 4.000000e+00	 9.493909e+00
0	 2.571429e+00	 4.071429e+00	 9.529818e+00
0	 2.571429e+00	 4.142857e+00	 9.566934e+00
0	 2.571429e+00	 4.214286e+00	 9.605259e+00
0	 2.571429e+00	 4.285714e+00	 9.644792e+00
0	 2.642857e+00	 3.928571e+00	 9.378625e+00
0	 2.642857e+00	 4.000000e+00	 9.416261e+00
0	 2.642857e+00	 4.071429e+00	 9.454860e+00
0	 2.642857e+00	 4.142857e+00	 9.494424e+00
0	 2.642857e+00	 4.214286e+00	 9.534951e+00
0	 2.642857e+00	 4.285714e+00	 9.576442e+00
0	 2.714286e+00	 3.928571e+00	 9.306014e+00
0	 2.714286e+00	 4.000000e+00	 9.345967e+00
0	 2.714286e+00	 4.071429e+00	 9.386641e+00
0	 2.714286e+00	 4.142857e+00	 9.428034e+00
0	 2.714286e+00	 4.214286e+00	 9.470146e+00
0	 2.714286e+00	 4.285714e+00	 9.512979e+00
0	 2.785714e+00	 3.928571e+00	 9.241375e+00
0	 2.785714e+00	 4.000000e+00	 9.283029e+00
0	 2.785714e+00	 4.071429e+00	 9.325159e+00
0	 2.785714e+00	 4.142857e+00	 9.367764e+00
0	 2.785714e+00	 4.214286e+00	 9.410845e+00
0	 2.785714e+00	 4.285714e+00	 9.454402e+00
0	 2.857143e+00	 3.928571e+00	 9.184707e+00
0	 2.857143e+00	 4.000000e+00	 9.227445e+00
0	 2.857143e+00	 4.071429e+00	 9.270415e+00
0	 2.857143e+00	 4.142857e+00	 9.313616e+00
0	 2.857143e+00	 4.214286e+00	 9.357048e+00
0	 2.857143e+00	 4.285714e+00	 9.400712e+00
0	 2.500000e+00	 4.285714e+00	 9.718029e+00
0	 2.500000e+00	 4.357143e+00	 9.741358e+00
0	 2.500000e+00	 4.428571e+00	 9.765438e+00
0	 2.500000e+00	 4.500000e+00	 9.790270e+00
0	 2.500000e+00	 4.571429e+00	 9.815855e+00
0	 2.500000e+00	 4.642857e+00	 9.842191e+00
0	 2.571429e+00	 4.285714e+00	 9.644792e+00
0	 2.571429e+00	 4.357143e+00	 9.670139e+00
0	 2.571429e+00	 4.428571e+00	 9.696238e+00
0	 2.571429e+00	 4.500000e+00	 9.723090e+00
0	 2.571429e+00	 4.571429e+00	 9.750694e+00
0	 2.571429e+00	 4.642857e+00	 9.779051e+00
0	 2.642857e+00	 4.285714e+00	 9.576442e+00
0	 2.642857e+00	 4.357143e+00	 9.603597e+00
0	 2.642857e+00	 4.428571e+00	 9.631505e+00
0	 2.642857e+00	 4.500000e+00	 9.660167e+00
0	 2.642857e+00	 4.571429e+00	 9.689581e+00
0	 2.642857e+00	 4.642857e+00	 9.719747e+00
0	 2.714286e+00	 4.285714e+00	 9.512979e+00
0	 2.714286e+00	 4.357143e+00	 9.541732e+00
0	 2.714286e+00	 4.428571e+00	 9.571239e+00
0	 2.714286e+00	 4.500000e+00	 9.601499e+00
0	 2.714286e+00	 4.571429e+00	 9.632513e+00
0	 2.714286e+00	 4.642857e+00	 9.664281e+00
0	 2.785714e+00	 4.285714e+00	 9.454402e+00
0	 2.785714e+00	 4.357143e+00	 9.484544e+00
0	 2.785714e+00	 4.428571e+00	 9.515439e+00
0	 2.785714e+00	 4.500000e+00	 9.547089e+00
0	 2.785714e+00	 4.571429e+00	 9.579493e+00
0	 2.785714e+00	 4.642857e+00	 9.612650e+00
0	 2.857143e+00	 4.285714e+00	 9.400712e+00
0	 2.857143e+00	 4.357143e+00	 9.432032e+00
0	 2.857143e+00	 4.428571e+00	 9.464106e+00
0	 2.857143e+00	 4.500000e+00	 9.496935e+00
0	 2.857143e+00	 4.571429e+00	 9.530518e+00
0	 2.857143e+00	 4.642857e+00	 9.564856e+00
0	 2.500000e+00	 4.642857e+00	 9.842191e+00
0	 2.500000e+00	 4.714286e+00	 9.857931e+00
0	 2.500000e+00	 4.785714e+00	 9.874488e+00
0	 2.500000e+00	 4.857143e+00	 9.891861e+00
0	 2.500000e+00	 4.928571e+00	 9.910049e+00
0	 2.500000e+00	 5.000000e+00	 9.929054e+00
0	 2.571429e+00	 4.642857e+00	 9.779051e+00
0	 2.571429e+00	 4.714286e+00	 9.796929e+00
0	 2.571429e+00	 4.785714e+00	 9.815571e+00
0	 2.571429e+00	 4.857143e+00	 9.834976e+00
0	 2.571429e+00	 4.928571e+00	 9.855144e+00
0	 2.571429e+00	 5.000000e+00	 9.876075e+00
0	 2.642857e+00	 4.642857e+00	 9.719747e+00
0	 2.642857e+00	 4.714286e+00	 9.739533e+00
0	 2.642857e+00	 4.785714e+00	 9.760028e+00
0	 2.642857e+00	 4.857143e+00	 9.781234e+00
0	 2.642857e+00	 4.928571e+00	 9.803149e+00
0	 2.642857e+00	 5.000000e+00	 9.825775e+00
0	 2.714286e+00	 4.642857e+00	 9.664281e+00
0	 2.714286e+00	 4.714286e+00	 9.685741e+00
0	 2.714286e+00	 4.785714e+00	 9.707858e+00
0	 2.714286e+00	 4.857143e+00	 9.730633e+00
0	 2.714286e+00	 4.928571e+00	 9.754065e+00
0	 2.714286e+00	 5.000000e+00	 9.778154e+00
0	 2.785714e+00	 4.642857e+00	 9.612650e+00
0	 2.785714e+00	 4.714286e+00	 9.635554e+00
0	 2.785714e+00	 4.785714e+00	 9.659062e+00
0	 2.785714e+00	 4.857143e+00	 9.683175e+00
0	 2.785714e+00	 4.928571e+00	 9.707892e+00
0	 2.785714e+00	 5.000000e+00	 9.733212e+00
0	 2.857143e+00	 4.642857e+00	 9.564856e+00
0	 2.857143e+00	 4.714286e+00	 9.588972e+00
0	 2.857143e+00	 4.785714e+00	 9.613640e+00
0	 2.857143e+00	 4.857143e+00	 9.638859e+00
0	 2.857143e+00	 4.928571e+00	 9.664629e+00
0	 2.857143e+00	 5.000000e+00	 9.690950e+00
0	 2.500000e+00	 5.000000e+00	 9.929054e+00
0	 2.500000e+00	 5.071429e+00	 9.939806e+00
0	 2.500000e+00	 5.142857e+00	 9.951159e+00
0	 2.500000e+00	 5.214286e+00	 9.963111e+00
0	 2.500000e+00	 5.285714e+00	 9.975664e+00
0	 2.500000e+00	 5.357143e+00	 9.988818e+00
0	 2.571429e+00	 5.000000e+00	 9.876075e+00
0	 2.571429e+00	 5.071429e+00	 9.888517e+00
0	 2.571429e+00	 5.142857e+00	 9.901552e+00
0	 2.571429e+00	 5.214286e+00	 9.915178e+00
0	 2.571429e+00	 5.285714e+00	 9.929397e+00
0	 2.571429e+00	 5.357143e+00	 9.944208e+00
0	 2.642857e+00	 5.000000e+00	 9.825775e+00
0	 2.642857e+00	 5.071429e+00	 9.839770e+00
0	 2.642857e+00	 5.142857e+00	 9.854349e+00
0	 2.642857e+00	 5.214286e+00	 9.869512e+00
0	 2.642857e+00	 5.285714e+00	 9.885259e+00
0	 2.642857e+00	 5.357143e+00	 9.901590e+00
0	 2.714286e+00	 5.000000e+00	 9.778154e+00
0	 2.714286e+00	 5.071429e+00	 9.793565e+00
0	 2.714286e+00	 5.142857e+00	 9.809551e+00
0	 2.714286e+00	 5.214286e+00	 9.826114e+00
0	 2.714286e+00	 5.285714e+00	 9.843252e+00
0	 2.714286e+00	 5.357143e+00	 9.860966e+00
0	 2.785714e+00	 5.000000e+00	 9.733212e+00
0	 2.785714e+00	 5.071429e+00	 9.749901e+00
0	 2.785714e+00	 5.142857e+00	 9.767158e+00
0	 2.785714e+00	 5.214286e+00	 9.784982e+00
0	 2.785714e+00	 5.285714e+00	 9.803374e+00
0	 2.785714e+00	 5.357143e+00	 9.822334e+00
0	 2.857143e+00	 5.000000e+00	 9.690950e+00
0	 2.857143e+00	 5.071429e+00	 9.708780e+00
0	 2.857143e+00	 5.142857e+00	 9.727169e+00
0	 2.857143e+00	 5.214286e+00	 9.746118e+00
0	 2.857143e+00	 5.285714e+00	 9.765627e+00
0	 2.857143e+00	 5.357143e+00	 9.785694e+00
0	 2.500000e+00	 5.357143e+00	 9.988818e+00
0	 2.500000e+00	 5.428571e+00	 9.995606e+00
0	 2.500000e+00	 5.500000e+00	 1.000290e+01
0	 2.500000e+00	 5.571429e+00	 1.001071e+01
0	 2.500000e+00	 5.642857e+00	 1.001903e+01
0	 2.500000e+00	 5.714286e+00	 1.002785e+01
0	 2.571429e+00	 5.357143e+00	 9.944208e+00
0	 2.571429e+00	 5.428571e+00	 9.952494e+00
0	 2.571429e+00	 5.500000e+00	 9.961279e+00
0	 2.571429e+00	 5.571429e+00	 9.970562e+00
0	 2.571429e+00	 5.642857e+00	 9.980345e+00
0	 2.571429e+00	 5.714286e+00	 9.990626e+00
0	 2.642857e+00	 5.357143e+00	 9.901590e+00
0	 2.642857e+00	 5.428571e+00	 9.911265e+00
0	 2.642857e+00	 5.500000e+00	 9.921429e+00
0	 2.642857e+00	 5.571429e+00	 9.932080e+00
0	 2.642857e+00	 5.642857e+00	 9.943220e+00
0	 2.642857e+00	 5.714286e+00	 9.954848e+00
0	 2.714286e+00	 5.357143e+00	 9.860966e+00
0	 2.714286e+00	 5.428571e+00	 9.871921e+00
0	 2.714286e+00	 5.500000e+00	 9.883354e+00
0	 2.714286e+00	 5.571429e+00	 9.895265e+00
0	 2.714286e+00	 5.642857e+00	 9.907653e+00
0	 2.714286e+00	 5.714286e+00	 9.920518e+00
0	 2.785714e+00	 5.357143e+00	 9.822334e+00
0	 2.785714e+00	 5.428571e+00	 9.834461e+00
0	 2.785714e+00	 5.500000e+00	 9.847055e+00
0	 2.785714e+00	 5.571429e+00	 9.860116e+00
0	 2.785714e+00	 5.642857e+00	 9.873644e+00
0	 2.785714e+00	 5.714286e+00	 9.887638e+00
0	 2.857143e+00	 5.357143e+00	 9.785694e+00
0	 2.857143e+00	 5.428571e+00	 9.798885e+00
0	 2.857143e+00	 5.500000e+00	 9.812531e+00
0	 2.857143e+00	 5.571429e+00	 9.826634e+00
0	 2.857143e+00	 5.642857e+00	 9.841193e+00
0	 2.857143e+00	 5.714286e+00	 9.856208e+00
0	 2.500000e+00	 5.714286e+00	 1.002785e+01
0	 2.500000e+00	 5.785714e+00	 1.003177e+01
0	 2.500000e+00	 5.857143e+00	 1.003608e+01
0	 2.500000e+00	 5.928571e+00	 1.004079e+01
0	 2.500000e+00	 6.000000e+00	 1.004590e+01
0	 2.500000e+00	 6.071429e+00	 1.005140e+01
0	 2.571429e+00	 5.714286e+00	 9.990626e+00
0	 2.571429e+00	 5.785714e+00	 9.995811e+00
0	 2.571429e+00	 5.857143e+00	 1.000139e+01
0	 2.571429e+00	 5.928571e+00	 1.000737e+01
0	 2.571429e+00	 6.000000e+00	 1.001374e+01
0	 2.571429e+00	 6.071429e+00	 1.002050e+01
0	 2.642857e+00	 5.714286e+00	 9.954848e+00
0	 2.642857e+00	 5.785714e+00	 9.961224e+00
0	 2.642857e+00	 5.857143e+00	 9.967995e+00
0	 2.642857e+00	 5.928571e+00	 9.975160e+00
0	 2.642857e+00	 6.000000e+00	 9.982719e+00
0	 2.642857e+00	 6.071429e+00	 9.990673e+00
0	 2.714286e+00	 5.714286e+00	 9.920518e+00
0	 2.714286e+00	 5.785714e+00	 9.928011e+00
0	 2.714286e+00	 5.857143e+00	 9.935897e+00
0	 2.714286e+00	 5.928571e+00	 9.944176e+00
0	 2.714286e+00	 6.000000e+00	 9.952848e+00
0	 2.714286e+00	 6.071429e+00	 9.961913e+00
0	 2.785714e+00	 5.714286e+00	 9.887638e+00
0	 2.785714e+00	 5.785714e+00	 9.896171e+00
0	 2.785714e+00	 5.857143e+00	 9.905095e+00
0	 2.785714e+00	 5.928571e+00	 9.914412e+00
0	 2.785714e+00	 6.000000e+00	 9.924121e+00
0	 2.785714e+00	 6.071429e+00	 9.934221e+00
0	 2.857143e+00	 5.714286e+00	 9.856208e+00
0	 2.857143e+00	 5.785714e+00	 9.865704e+00
0	 2.857143e+00	 5.857143e+00	 9.875591e+00
0	 2.857143e+00	 5.928571e+00	 9.885869e+00
0	 2.857143e+00	 6.000000e+00	 9.896538e+00
0	 2.857143e+00	 6.071429e+00	 9.907598e+00
0	 2.500000e+00	 6.071429e+00	 1.005140e+01
0	 2.500000e+00	 6.142857e+00	 1.005315e+01
0	 2.500000e+00	 6.214286e+00	 1.005522e+01
0	 2.500000e+00	 6.285714e+00	 1.005760e+01
0	 2.500000e+00	 6.357143e+00	 1.006029e+01
0	 2.500000e+00	 6.428571e+00	 1.006329e+01
0	 2.571429e+00	 6.071429e+00	 1.002050e+01
0	 2.571429e+00	 6.142857e+00	 1.002336e+01
0	 2.571429e+00	 6.214286e+00	 1.002652e+01
0	 2.571429e+00	 6.285714e+00	 1.003000e+01
0	 2.571429e+00	 6.357143e+00	 1.003380e+01
0	 2.571429e+00	 6.428571e+00	 1.003790e+01
0	 2.642857e+00	 6.071429e+00	 9.990673e+00
0	 2.642857e+00	 6.142857e+00	 9.994569e+00
0	 2.642857e+00	 6.214286e+00	 9.998780e+00
0	 2.642857e+00	 6.285714e+00	 1.000330e+01
0	 2.642857e+00	 6.357143e+00	 1.000814e+01
0	 2.642857e+00	 6.428571e+00	 1.001329e+01
0	 2.714286e+00	 6.071429e+00	 9.961913e+00
0	 2.714286e+00	 6.142857e+00	 9.966794e+00
0	 2.714286e+00	 6.214286e+00	 9.971990e+00
0	 2.714286e+00	 6.285714e+00	 9.977499e+00
0	 2.714286e+00	 6.357143e+00	 9.983324e+00
0	 2.714286e+00	 6.428571e+00	 9.989462e+00
0	 2.785714e+00	 6.071429e+00	 9.934221e+00
0	 2.785714e+00	 6.142857e+00	 9.940029e+00
0	 2.785714e+00	 6.214286e+00	 9.946153e+00
0	 2.785714e+00	 6.285714e+00	 9.952591e+00
0	 2.785714e+00	 6.357143e+00	 9.959345e+00
0	 2.785714e+00	 6.428571e+00	 9.966414e+00
0	 2.857143e+00	 6.071429e+00	 9.907598e+00
0	 2.857143e+00	 6.142857e+00	 9.914275e+00
0	 2.857143e+00	 6.214286e+00	 9.921269e+00
0	 2.857143e+00	 6.285714e+00	 9.928579e+00
0	 2.857143e+00	 6.357143e+00	 9.936205e+00
0	 2.857143e+00	 6.428571e+00	 9.944147e+00
0	 2.500000e+00	 6.428571e+00	 1.006329e+01
0	 2.500000e+00	 6.500000e+00	 1.006349e+01
0	 2.500000e+00	 6.571429e+00	 1.006392e+01
0	 2.500000e+00	 6.642857e+00	 1.006459e+01
0	 2.500000e+00	 6.714286e+00	 1.006549e+01
0	 2.500000e+00	 6.785714e+00	 1.006662e+01
0	 2.571429e+00	 6.428571e+00	 1.003790e+01
0	 2.571429e+00	 6.500000e+00	 1.003905e+01
0	 2.571429e+00	 6.571429e+00	 1.004043e+01
0	 2.571429e+00	 6.642857e+00	 1.004205e+01
0	 2.571429e+00	 6.714286e+00	 1.004391e+01
0	 2.571429e+00	 6.785714e+00	 1.004600e+01
0	 2.642857e+00	 6.428571e+00	 1.001329e+01
0	 2.642857e+00	 6.500000e+00	 1.001534e+01
0	 2.642857e+00	 6.571429e+00	 1.001763e+01
0	 2.642857e+00	 6.642857e+00	 1.002016e+01
0	 2.642857e+00	 6.714286e+00	 1.002294e+01
0	 2.642857e+00	 6.785714e+00	 1.002595e+01
0	 2.714286e+00	 6.428571e+00	 9.989462e+00
0	 2.714286e+00	 6.500000e+00	 9.992374e+00
0	 2.714286e+00	 6.571429e+00	 9.995530e+00
0	 2.714286e+00	 6.642857e+00	 9.998932e+00
0	 2.714286e+00	 6.714286e+00	 1.000258e+01
0	 2.714286e+00	 6.785714e+00	 1.000647e+01
0	 2.785714e+00	 6.428571e+00	 9.966414e+00
0	 2.785714e+00	 6.500000e+00	 9.970145e+00
0	 2.785714e+00	 6.571429e+00	 9.974125e+00
0	 2.785714e+00	 6.642857e+00	 9.978355e+00
0	 2.785714e+00	 6.714286e+00	 9.982833e+00
0	 2.785714e+00	 6.785714e+00	 9.987561e+00
0	 2.857143e+00	 6.428571e+00	 9.944147e+00
0	 2.857143e+00	 6.500000e+00	 9.948656e+00
0	 2.857143e+00	 6.571429e+00	 9.953417e+00
0	 2.857143e+00	 6.642857e+00	 9.958432e+00
0	 2.857143e+00	 6.714286e+00	 9.963699e+00
0	 2.857143e+00	 6.785714e+00	 9.969220e+00
0	 2.500000e+00	 6.785714e+00	 1.006662e+01
0	 2.500000e+00	 6.857143e+00	 1.006571e+01
0	 2.500000e+00	 6.928571e+00	 1.006498e+01
0	 2.500000e+00	 7.000000e+00	 1.006441e+01
0	 2.500000e+00	 7.071429e+00	 1.006400e+01
0	 2.500000e+00	 7.142857e+00	 1.006377e+01
0	 2.571429e+00	 6.785714e+00	 1.004600e+01
0	 2.571429e+00	 6.857143e+00	 1.004592e+01
0	 2.571429e+00	 6.928571e+00	 1.004601e+01
0	 2.571429e+00	 7.000000e+00	 1.004627e+01
0	 2.571429e+00	 7.071429e+00	 1.004670e+01
0	 2.571429e+00	 7.142857e+00	 1.004731e+01
0	 2.642857e+00	 6.785714e+00	 1.002595e+01
0	 2.642857e+00	 6.857143e+00	 1.002666e+01
0	 2.642857e+00	 6.928571e+00	 1.002754e+01
0	 2.642857e+00	 7.000000e+00	 1.002860e+01
0	 2.642857e+00	 7.071429e+00	 1.002984e+01
0	 2.642857e+00	 7.142857e+00	 1.003126e+01
0	 2.714286e+00	 6.785714e+00	 1.000647e+01
0	 2.714286e+00	 6.857143e+00	 1.000793e+01
0	 2.714286e+00	 6.928571e+00	 1.000958e+01
0	 2.714286e+00	 7.000000e+00	 1.001141e+01
0	 2.714286e+00	 7.071429e+00	 1.001342e+01
0	 2.714286e+00	 7.142857e+00	 1.001562e+01
0	 2.785714e+00	 6.785714e+00	 9.987561e+00
0	 2.785714e+00	 6.857143e+00	 9.989748e+00
0	 2.785714e+00	 6.928571e+00	 9.992123e+00
0	 2.785714e+00	 7.000000e+00	 9.994687e+00
0	 2.785714e+00	 7.071429e+00	 9.997441e+00
0	 2.785714e+00	 7.142857e+00	 1.000038e+01
0	 2.857143e+00	 6.785714e+00	 9.969220e+00
0	 2.857143e+00	 6.857143e+00	 9.972099e+00
0	 2.857143e+00	 6.928571e+00	 9.975173e+00
0	 2.857143e+00	 7.000000e+00	 9.978441e+00
0	 2.857143e+00	 7.071429e+00	 9.981904e+00
0	 2.857143e+00	 7.142857e+00	 9.985561e+00
0	 2.500000e+00	 7.142857e+00	 1.006377e+01
0	 2.500000e+00	 7.214286e+00	 1.006214e+01
0	 2.500000e+00	 7.285714e+00	 1.006062e+01
0	 2.500000e+00	 7.357143e+00	 1.005920e+01
0	 2.500000e+00	 7.428571e+00	 1.005790e+01
0	 2.500000e+00	 7.500000e+00	 1.005670e+01
0	 2.571429e+00	 7.142857e+00	 1.004731e+01
0	 2.571429e+00	 7.214286e+00	 1.004639e+01
0	 2.571429e+00	 7.285714e+00	 1.004559e+01
0	 2.571429e+00	 7.357143e+00	 1.004490e+01
0	 2.571429e+00	 7.428571e+00	 1.004432e+01
0	 2.571429e+00	 7.500000e+00	 1.004386e+01
0	 2.642857e+00	 7.142857e+00	 1.003126e+01
0	 2.642857e+00	 7.214286e+00	 1.003103e+01
0	 2.642857e+00	 7.285714e+00	 1.003091e+01
0	 2.642857e+00	 7.357143e+00	 1.003093e+01
0	 2.642857e+00	 7.428571e+00	 1.003106e+01
0	 2.642857e+00	 7.500000e+00	 1.003131e+01
0	 2.714286e+00	 7.142857e+00	 1.001562e+01
0	 2.714286e+00	 7.214286e+00	 1.001605e+01
0	 2.714286e+00	 7.285714e+00	 1.001660e+01
0	 2.714286e+00	 7.357143e+00	 1.001729e+01
0	 2.714286e+00	 7.428571e+00	 1.001811e+01
0	 2.714286e+00	 7.500000e+00	 1.001905e+01
0	 2.785714e+00	 7.142857e+00	 1.000038e+01
0	 2.785714e+00	 7.214286e+00	 1.000145e+01
0	 2.785714e+00	 7.285714e+00	 1.000265e+01
0	 2.785714e+00	 7.357143e+00	 1.000399e+01
0	 2.785714e+00	 7.428571e+00	 1.000547e+01
0	 2.785714e+00	 7.500000e+00	 1.000708e+01
0	 2.857143e+00	 7.142857e+00	 9.985561e+00
0	 2.857143e+00	 7.214286e+00	 9.987241e+00
0	 2.857143e+00	 7.285714e+00	 9.989065e+00
0	 2.857143e+00	 7.357143e+00	 9.991031e+00
0	 2.857143e+00	 7.428571e+00	 9.993141e+00
0	 2.857143e+00	 7.500000e+00	 9.995395e+00
0	 2.500000e+00	 7.500000e+00	 1.005670e+01
0	 2.500000e+00	 7.571429e+00	 1.005465e+01
0	 2.500000e+00	 7.642857e+00	 1.005266e+01
0	 2.500000e+00	 7.714286e+00	 1.005072e+01
0	 2.500000e+00	 7.785714e+00	 1.004883e+01
0	 2.500000e+00	 7.857143e+00	 1.004700e+01
0	 2.571429e+00	 7.500000e+00	 1.004386e+01
0	 2.571429e+00	 7.571429e+00	 1.004243e+01
0	 2.571429e+00	 7.642857e+00	 1.004106e+01
0	 2.571429e+00	 7.714286e+00	 1.003975e+01
0	 2.571429e+00	 7.785714e+00	 1.003850e+01
0	 2.571429e+00	 7.857143e+00	 1.003732e+01
0	 2.642857e+00	 7.500000e+00	 1.003131e+01
0	 2.642857e+00	 7.571429e+00	 1.003047e+01
0	 2.642857e+00	 7.642857e+00	 1.002971e+01
0	 2.642857e+00	 7.714286e+00	 1.002901e+01
0	 2.642857e+00	 7.785714e+00	 1.002839e+01
0	 2.642857e+00	 7.857143e+00	 1.002784e+01
0	 2.714286e+00	 7.500000e+00	 1.001905e+01
0	 2.714286e+00	 7.571429e+00	 1.001879e+01
0	 2.714286e+00	 7.642857e+00	 1.001861e+01
0	 2.714286e+00	 7.714286e+00	 1.001851e+01
0	 2.714286e+00	 7.785714e+00	 1.001849e+01
0	 2.714286e+00	 7.857143e+00	 1.001855e+01
0	 2.785714e+00	 7.500000e+00	 1.000708e+01
0	 2.785714e+00	 7.571429e+00	 1.000738e+01
0	 2.785714e+00	 7.642857e+00	 1.000776e+01
0	 2.785714e+00	 7.714286e+00	 1.000824e+01
0	 2.785714e+00	 7.785714e+00	 1.000880e+01
0	 2.785714e+00	 7.857143e+00	 1.000945e+01
0	 2.857143e+00	 7.500000e+00	 9.995395e+00
0	 2.857143e+00	 7.571429e+00	 9.996231e+00
0	 2.857143e+00	 7.642857e+00	 9.997164e+00
0	 2.857143e+00	 7.714286e+00	 9.998195e+00
0	 2.857143e+00	 7.785714e+00	 9.999324e+00
0	 2.857143e+00	 7.857143e+00	 1.000055e+01
0	 2.500000e+00	 7.857143e+00	 1.004700e+01
0	 2.500000e+00	 7.928571e+00	 1.004480e+01
0	 2.500000e+00	 8.000000e+00	 1.004260e+01
0	 2.500000e+00	 8.071429e+00	 1.004041e+01
0	 2.500000e+00	 8.142857e+00	 1.003822e+01
0	 2.500000e+00	 8.214286e+00	 1.003604e+01
0	 2.571429e+00	 7.857143e+00	 1.003732e+01
0	 2.571429e+00	 7.928571e+00	 1.003565e+01
0	 2.571429e+00	 8.000000e+00	 1.003399e+01
0	 2.571429e+00	 8.071429e+00	 1.003234e+01
0	 2.571429e+00	 8.142857e+00	 1.003071e+01
0	 2.571429e+00	 8.214286e+00	 1.002910e+01
0	 2.642857e+00	 7.857143e+00	 1.002784e+01
0	 2.642857e+00	 7.928571e+00	 1.002667e+01
0	 2.642857e+00	 8.000000e+00	 1.002553e+01
0	 2.642857e+00	 8.071429e+00	 1.002442e+01
0	 2.642857e+00	 8.142857e+00	 1.002333e+01
0	 2.642857e+00	 8.214286e+00	 1.002227e+01
0	 2.714286e+00	 7.857143e+00	 1.001855e+01
0	 2.714286e+00	 7.928571e+00	 1.001788e+01
0	 2.714286e+00	 8.000000e+00	 1.001725e+01
0	 2.714286e+00	 8.071429e+00	 1.001665e+01
0	 2.714286e+00	 8.142857e+00	 1.001609e+01
0	 2.714286e+00	 8.214286e+00	 1.001557e+01
0	 2.785714e+00	 7.857143e+00	 1.000945e+01
0	 2.785714e+00	 7.928571e+00	 1.000927e+01
0	 2.785714e+00	 8.000000e+00	 1.000913e+01
0	 2.785714e+00	 8.071429e+00	 1.000904e+01
0	 2.785714e+00	 8.142857e+00	 1.000899e+01
0	 2.785714e+00	 8.214286e+00	 1.000899e+01
0	 2.857143e+00	 7.857143e+00	 1.000055e+01
0	 2.857143e+00	 7.928571e+00	 1.000083e+01
0	 2.857143e+00	 8.000000e+00	 1.000117e+01
0	 2.857143e+00	 8.071429e+00	 1.000157e+01
0	 2.857143e+00	 8.142857e+00	 1.000202e+01
0	 2.857143e+00	 8.214286e+00	 1.000254e+01
0	 2.500000e+00	 8.214286e+00	 1.003604e+01
0	 2.500000e+00	 8.285714e+00	 1.003391e+01
0	 2.500000e+00	 8.357143e+00	 1.003174e+01
0	 2.500000e+00	 8.428571e+00	 1.002953e+01
0	 2.500000e+00	 8.500000e+00	 1.002727e+01
0	 2.500000e+00	 8.571429e+00	 1.002498e+01
0	 2.571429e+00	 8.214286e+00	 1.002910e+01
0	 2.571429e+00	 8.285714e+00	 1.002741e+01
0	 2.571429e+00	 8.357143e+00	 1.002569e+01
0	 2.571429e+00	 8.428571e+00	 1.002394e+01
0	 2.571429e+00	 8.500000e+00	 1.002217e+01
0	 2.571429e+00	 8.571429e+00	 1.002037e+01
0	 2.642857e+00	 8.214286e+00	 1.002227e+01
0	 2.642857e+00	 8.285714e+00	 1.002101e+01
0	 2.642857e+00	 8.357143e+00	 1.001974e+01
0	 2.642857e+00	 8.428571e+00	 1.001845e+01
0	 2.642857e+00	 8.500000e+00	 1.001715e+01
0	 2.642857e+00	 8.571429e+00	 1.001583e+01
0	 2.714286e+00	 8.214286e+00	 1.001557e+01
0	 2.714286e+00	 8.285714e+00	 1.001473e+01
0	 2.714286e+00	 8.357143e+00	 1.001389e+01
0	 2.714286e+00	 8.428571e+00	 1.001305e+01
0	 2.714286e+00	 8.500000e+00	 1.001220e+01
0	 2.714286e+00	 8.571429e+00	 1.001135e+01
0	 2.785714e+00	 8.214286e+00	 1.000899e+01
0	 2.785714e+00	 8.285714e+00	 1.000856e+01
0	 2.785714e+00	 8.357143e+00	 1.000814e+01
0	 2.785714e+00	 8.428571e+00	 1.000773e+01
0	 2.785714e+00	 8.500000e+00	 1.000733e+01
0	 2.785714e+00	 8.571429e+00	 1.000694e+01
0	 2.857143e+00	 8.214286e+00	 1.000254e+01
0	 2.857143e+00	 8.285714e+00	 1.000250e+01
0	 2.857143e+00	 8.357143e+00	 1.000249e+01
0	 2.857143e+00	 8.428571e+00	 1.000250e+01
0	 2.857143e+00	 8.500000e+00	 1.000253e+01
0	 2.857143e+00	 8.571429e+00	 1.000259e+01
0	 2.500000e+00	 8.571429e+00	 1.002498e+01
0	 2.500000e+00	 8.642857e+00	 1.002312e+01
0	 2.500000e+00	 8.714286e+00	 1.002118e+01
0	 2.500000e+00	 8.785714e+00	 1.001916e+01
0	 2.500000e+00	 8.857143e+00	 1.001705e+01
0	 2.500000e+00	 8.928571e+00	 1.001486e+01
0	 2.571429e+00	 8.571429e+00	 1.002037e+01
0	 2.571429e+00	 8.642857e+00	 1.001887e+01
0	 2.571429e+00	 8.714286e+00	 1.001730e+01
0	 2.571429e+00	 8.785714e+00	 1.001567e+01
0	 2.571429e+00	 8.857143e+00	 1.001397e+01
0	 2.571429e+00	 8.928571e+00	 1.001220e+01
0	 2.642857e+00	 8.571429e+00	 1.001583e+01
0	 2.642857e+00	 8.642857e+00	 1.001468e+01
0	 2.642857e+00	 8.714286e+00	 1.001347e+01
0	 2.642857e+00	 8.785714e+00	 1.001222e+01
0	 2.642857e+00	 8.857143e+00	 1.001091e+01
0	 2.642857e+00	 8.928571e+00	 1.000955e+01
0	 2.714286e+00	 8.571429e+00	 1.001135e+01
0	 2.714286e+00	 8.642857e+00	 1.001054e+01
0	 2.714286e+00	 8.714286e+00	 1.000969e+01
0	 2.714286e+00	 8.785714e+00	 1.000880e+01
0	 2.714286e+00	 8.857143e+00	 1.000788e+01
0	 2.714286e+00	 8.928571e+00	 1.000692e+01
0	 2.785714e+00	 8.571429e+00	 1.000694e+01
0	 2.785714e+00	 8.642857e+00	 1.000645e+01
0	 2.785714e+00	 8.714286e+00	 1.000595e+01
0	 2.785714e+00	 8.785714e+00	 1.000542e+01
0	 2.785714e+00	 8.857143e+00	 1.000488e+01
0	 2.785714e+00	 8.928571e+00	 1.000432e+01
0	 2.857143e+00	 8.571429e+00	 1.000259e+01
0	 2.857143e+00	 8.642857e+00	 1.000243e+01
0	 2.857143e+00	 8.714286e+00	 1.000226e+01
0	 2.857143e+00	 8.785714e+00	 1.000208e+01
0	 2.857143e+00	 8.857143e+00	 1.000191e+01
0	 2.857143e+00	 8.928571e+00	 1.000173e+01
0	 2.500000e+00	 8.928571e+00	 1.001486e+01
0	 2.500000e+00	 9.000000e+00	 1.001346e+01
0	 2.500000e+00	 9.071429e+00	 1.001194e+01
0	 2.500000e+00	 9.142857e+00	 1.001029e+01
0	 2.500000e+00	 9.214286e+00	 1.000852e+01
0	 2.500000e+00	 9.285714e+00	 1.000663e+01
0	 2.571429e+00	 8.928571e+00	 1.001220e+01
0	 2.571429e+00	 9.000000e+00	 1.001106e+01
0	 2.571429e+00	 9.071429e+00	 1.000981e+01
0	 2.571429e+00	 9.142857e+00	 1.000847e+01
0	 2.571429e+00	 9.214286e+00	 1.000702e+01
0	 2.571429e+00	 9.285714e+00	 1.000547e+01
0	 2.642857e+00	 8.928571e+00	 1.000955e+01
0	 2.642857e+00	 9.000000e+00	 1.000866e+01
0	 2.642857e+00	 9.071429e+00	 1.000770e+01
0	 2.642857e+00	 9.142857e+00	 1.000665e+01
0	 2.642857e+00	 9.214286e+00	 1.000552e+01
0	 2.642857e+00	 9.285714e+00	 1.000430e+01
0	 2.714286e+00	 8.928571e+00	 1.000692e+01
0	 2.714286e+00	 9.000000e+00	 1.000629e+01
0	 2.714286e+00	 9.071429e+00	 1.000559e+01
0	 2.714286e+00	 9.142857e+00	 1.000483e+01
0	 2.714286e+00	 9.214286e+00	 1.000400e+01
0	 2.714286e+00	 9.285714e+00	 1.000312e+01
0	 2.785714e+00	 8.928571e+00	 1.000432e+01
0	 2.785714e+00	 9.000000e+00	 1.000392e+01
0	 2.785714e+00	 9.071429e+00	 1.000348e+01
0	 2.785714e+00	 9.142857e+00	 1.000300e+01
0	 2.785714e+00	 9.214286e+00	 1.000248e+01
0	 2.785714e+00	 9.285714e+00	 1.000192e+01
0	 2.857143e+00	 8.928571e+00	 1.000173e+01
0	 2.857143e+00	 9.000000e+00	 1.000157e+01
0	 2.857143e+00	 9.071429e+00	 1.000138e+01
0	 2.857143e+00	 9.142857e+00	 1.000118e+01
0	 2.857143e+00	 9.214286e+00	 1.000095e+01
0	 2.857143e+00	 9.285714e+00	 1.000071e+01
0	 2.500000e+00	 9.285714e+00	 1.000663e+01
0	 2.500000e+00	 9.357143e+00	 1.000584e+01
0	 2.500000e+00	 9.428571e+00	 1.000490e+01
0	 2.500000e+00	 9.500000e+00	 1.000379e+01
0	 2.500000e+00	 9.571429e+00	 1.000253e+01
0	 2.500000e+00	 9.642857e+00	 1.000111e+01
0	 2.571429e+00	 9.285714e+00	 1.000547e+01
0	 2.571429e+00	 9.357143e+00	 1.000484e+01
0	 2.571429e+00	 9.428571e+00	 1.000407e+01
0	 2.571429e+00	 9.500000e+00	 1.000317e+01
0	 2.571429e+00	 9.571429e+00	 1.000214e+01
0	 2.571429e+00	 9.642857e+00	 1.000097e+01
0	 2.642857e+00	 9.285714e+00	 1.000430e+01
0	 2.642857e+00	 9.357143e+00	 1.000382e+01
0	 2.642857e+00	 9.428571e+00	 1.000322e+01
0	 2.642857e+00	 9.500000e+00	 1.000252e+01
0	 2.642857e+00	 9.571429e+00	 1.000171e+01
0	 2.642857e+00	 9.642857e+00	 1.000080e+01
0	 2.714286e+00	 9.285714e+00	 1.000312e+01
0	 2.714286e+00	 9.357143e+00	 1.000278e+01
0	 2.714286e+00	 9.428571e+00	 1.000235e+01
0	 2.714286e+00	 9.500000e+00	 1.000185e+01
0	 2.714286e+00	 9.571429e+00	 1.000126e+01
0	 2.714286e+00	 9.642857e+00	 1.000059e+01
0	 2.785714e+00	 9.285714e+00	 1.000192e+01
0	 2.785714e+00	 9.357143e+00	 1.000172e+01
0	 2.785714e+00	 9.428571e+00	 1.000146e+01
0	 2.785714e+00	 9.500000e+00	 1.000114e+01
0	 2.785714e+00	 9.571429e+00	 1.000077e+01
0	 2.785714e+00	 9.642857e+00	 1.000034e+01
0	 2.857143e+00	 9.285714e+00	 1.000071e+01
0	 2.857143e+00	 9.357143e+00	 1.000064e+01
0	 2.857143e+00	 9.428571e+00	 1.000054e+01
0	 2.857143e+00	 9.500000e+00	 1.000041e+01
0	 2.857143e+00	 9.571429e+00	 1.000025e+01
0	 2.857143e+00	 9.642857e+00	 1.000006e+01
0	 2.500000e+00	 9.642857e+00	 1.000111e+01
0	 2.500000e+00	 9.714286e+00	 1.000109e+01
0	 2.500000e+00	 9.785714e+00	 1.000087e+01
0	 2.500000e+00	 9.857143e+00	 1.000047e+01
0	 2.500000e+00	 9.928571e+00	 9.999875e+00
0	 2.500000e+00	 1.000000e+01	 9.999089e+00
0	 2.571429e+00	 9.642857e+00	 1.000097e+01
0	 2.571429e+00	 9.714286e+00	 1.000096e+01
0	 2.571429e+00	 9.785714e+00	 1.000079e+01
0	 2.571429e+00	 9.857143e+00	 1.000047e+01
0	 2.571429e+00	 9.928571e+00	 9.999984e+00
0	 2.571429e+00	 1.000000e+01	 9.999344e+00
0	 2.642857e+00	 9.642857e+00	 1.000080e+01
0	 2.642857e+00	 9.714286e+00	 1.000080e+01
0	 2.642857e+00	 9.785714e+00	 1.000067e+01
0	 2.642857e+00	 9.857143e+00	 1.000042e+01
0	 2.642857e+00	 9.928571e+00	 1.000005e+01
0	 2.642857e+00	 1.000000e+01	 9.999555e+00
0	 2.714286e+00	 9.642857e+00	 1.000059e+01
0	 2.714286e+00	 9.714286e+00	 1.000059e+01
0	 2.714286e+00	 9.785714e+00	 1.000051e+01
0	 2.714286e+00	 9.857143e+00	 1.000034e+01
0	 2.714286e+00	 9.928571e+00	 1.000007e+01
0	 2.714286e+00	 1.000000e+01	 9.999721e+00
0	 2.785714e+00	 9.642857e+00	 1.000034e+01
0	 2.785714e+00	 9.714286e+00	 1.000035e+01
0	 2.785714e+00	 9.785714e+00	 1.000031e+01
0	 2.785714e+00	 9.857143e+00	 1.000021e+01
0	 2.785714e+00	 9.928571e+00	 1.000005e+01
0	 2.785714e+00	 1.000000e+01	 9.999842e+00
0	 2.857143e+00	 9.642857e+00	 1.000006e+01
0	 2.857143e+00	 9.714286e+00	 1.000008e+01
0	 2.857143e+00	 9.785714e+00	 1.000007e+01
0	 2.857143e+00	 9.857143e+00	 1.000004e+01
0	 2.857143e+00	 9.928571e+00	 9.999989e+00
0	 2.857143e+00	 1.000000e+01	 9.999918e+00
0	 2.857143e+00	 0.000000e+00	 6.600504e+00
0	 2.857143e+00	 7.142857e-02	 6.806380e+00
0	 2.857143e+00	 1.428571e-01	 6.985165e+00
0	 2.857143e+00	 2.142857e-01	 7.136860e+00
0	 2.857143e+00	 2.857143e-01	 7.261464e+00
0	 2.857143e+00	 3.571429e-01	 7.358977e+00
0	 2.928571e+00	 0.000000e+00	 7.093996e+00
0	 2.928571e+00	 7.142857e-02	 7.237884e+00
0	 2.928571e+00	 1.428571e-01	 7.362540e+00
0	 2.928571e+00	 2.142857e-01	 7.467963e+00
0	 2.928571e+00	 2.857143e-01	 7.554154e+00
0	 2.928571e+00	 3.571429e-01	 7.621112e+00
0	 3.000000e+00	 0.000000e+00	 7.530472e+00
0	 3.000000e+00	 7.142857e-02	 7.620398e+00
0	 3.000000e+00	 1.428571e-01	 7.698950e+00
0	 3.000000e+00	 2.142857e-01	 7.766128e+00
0	 3.000000e+00	 2.857143e-01	 7.821931e+00
0	 3.000000e+00	 3.571429e-01	 7.866360e+00
0	 3.071429e+00	 0.000000e+00	 7.909932e+00
0	 3.071429e+00	 7.142857e-02	 7.953922e+00
0	 3.071429e+00	 1.428571e-01	 7.994396e+00
0	 3.071429e+00	 2.142857e-01	 8.031354e+00
0	 3.071429e+00	 2.857143e-01	 8.064796e+00
0	 3.071429e+00	 3.571429e-01	 8.094722e+00
0	 3.142857e+00	 0.000000e+00	 8.232376e+00
0	 3.142857e+00	 7.142857e-02	 8.238456e+00
0	 3.142857e+00	 1.428571e-01	 8.248878e+00
0	 3.142857e+00	 2.142857e-01	 8.263643e+00
0	 3.142857e+00	 2.857143e-01	 8.282749e+00
0	 3.142857e+00	 3.571429e-01	 8.306197e+00
0	 3.214286e+00	 0.000000e+00	 8.497804e+00
0	 3.214286e+00	 7.142857e-02	 8.474000e+00
0	 3.214286e+00	 1.428571e-01	 8.462396e+00
0	 3.214286e+00	 2.142857e-01	 8.462993e+00
0	 3.214286e+00	 2.857143e-01	 8.475789e+00
0	 3.214286e+00	 3.571429e-01	 8.500786e+00
0	 2.857143e+00	 3.571429e-01	 7.358977e+00
0	 2.857143e+00	 4.285714e-01	 7.391383e+00
0	 2.857143e+00	 5.000000e-01	 7.443869e+00
0	 2.857143e+00	 5.714286e-01	 7.516433e+00
0	 2.857143e+00	 6.428571e-01	 7.609077e+00
0	 2.857143e+00	 7.142857e-01	 7.721800e+00
0	 2.928571e+00	 3.571429e-01	 7.621112e+00
0	 2.928571e+00	 4.285714e-01	 7.668110e+00
0	 2.928571e+00	 5.000000e-01	 7.736205e+00
0	 2.928571e+00	 5.714286e-01	 7.825398e+00
0	 2.928571e+00	 6.428571e-01	 7.935688e+00
0	 2.928571e+00	 7.142857e-01	 8.067076e+00
0	 3.000000e+00	 3.571429e-01	 7.866360e+00
0	 3.000000e+00	 4.285714e-01	 7.916753e+00
0	 3.000000e+00	 5.000000e-01	 7.989263e+00
0	 3.000000e+00	 5.714286e-01	 8.083887e+00
0	 3.000000e+00	 6.428571e-01	 8.200628e+00
0	 3.000000e+00	 7.142857e-01	 8.339484e+00
0	 3.071429e+00	 3.571429e-01	 8.094722e+00
0	 3.071429e+00	 4.285714e-01	 8.137315e+00
0	 3.071429e+00	 5.000000e-01	 8.203041e+00
0	 3.071429e+00	 5.714286e-01	 8.291902e+00
0	 3.071429e+00	 6.428571e-01	 8.403897e+00
0	 3.071429e+00	 7.142857e-01	 8.539026e+00
0	 3.142857e+00	 3.571429e-01	 8.306197e+00
0	 3.142857e+00	 4.285714e-01	 8.329793e+00
0	 3.142857e+00	 5.000000e-01	 8.377541e+00
0	 3.142857e+00	 5.714286e-01	 8.449442e+00
0	 3.142857e+00	 6.428571e-01	 8.545495e+00
0	 3.142857e+00	 7.142857e-01	 8.665701e+00
0	 3.214286e+00	 3.571429e-01	 8.500786e+00
0	 3.214286e+00	 4.285714e-01	 8.494189e+00
0	 3.214286e+00	 5.000000e-01	 8.512763e+00
0	 3.214286e+00	 5.714286e-01	 8.556507e+00
0	 3.214286e+00	 6.428571e-01	 8.625422e+00
0	 3.214286e+00	 7.142857e-01	 8.719508e+00
0	 2.857143e+00	 7.142857e-01	 7.721800e+00
0	 2.857143e+00	 7.857143e-01	 7.686336e+00
0	 2.857143e+00	 8.571429e-01	 7.694501e+00
0	 2.857143e+00	 9.285714e-01	 7.746294e+00
0	 2.857143e+00	 1.000000e+00	 7.841714e+00
0	 2.857143e+00	 1.071429e+00	 7.980762e+00
0	 2.928571e+00	 7.142857e-01	 8.067076e+00
0	 2.928571e+00	 7.857143e-01	 7.967894e+00
0	 2.928571e+00	 8.571429e-01	 7.906153e+00
0	 2.928571e+00	 9.285714e-01	 7.881853e+00
0	 2.928571e+00	 1.000000e+00	 7.894995e+00
0	 2.928571e+00	 1.071429e+00	 7.945577e+00
0	 3.000000e+00	 7.142857e-01	 8.339484e+00
0	 3.000000e+00	 7.857143e-01	 8.200601e+00
0	 3.000000e+00	 8.571429e-01	 8.092972e+00
0	 3.000000e+00	 9.285714e-01	 8.016597e+00
0	 3.000000e+00	 1.000000e+00	 7.971476e+00
0	 3.000000e+00	 1.071429e+00	 7.957610e+00
0	 3.071429e+00	 7.142857e-01	 8.539026e+00
0	 3.071429e+00	 7.857143e-01	 8.384458e+00
0	 3.071429e+00	 8.571429e-01	 8.254957e+00
0	 3.071429e+00	 9.285714e-01	 8.150524e+00
0	 3.071429e+00	 1.000000e+00	 8.071158e+00
0	 3.071429e+00	 1.071429e+00	 8.016861e+00
0	 3.142857e+00	 7.142857e-01	 8.665701e+00
0	 3.142857e+00	 7.857143e-01	 8.519464e+00
0	 3.142857e+00	 8.571429e-01	 8.392109e+00
0	 3.142857e+00	 9.285714e-01	 8.283635e+00
0	 3.142857e+00	 1.000000e+00	 8.194041e+00
0	 3.142857e+00	 1.071429e+00	 8.123329e+00
0	 3.214286e+00	 7.142857e-01	 8.719508e+00
0	 3.214286e+00	 7.857143e-01	 8.605621e+00
0	 3.214286e+00	 8.571429e-01	 8.504428e+00
0	 3.214286e+00	 9.285714e-01	 8.415929e+00
0	 3.214286e+00	 1.000000e+00	 8.340124e+00
0	 3.214286e+00	 1.071429e+00	 8.277014e+00
0	 2.857143e+00	 1.071429e+00	 7.980762e+00
0	 2.857143e+00	 1.142857e+00	 7.874359e+00
0	 2.857143e+00	 1.214286e+00	 7.767779e+00
0	 2.857143e+00	 1.285714e+00	 7.661023e+00
0	 2.857143e+00	 1.357143e+00	 7.554091e+00
0	 2.857143e+00	 1.428571e+00	 7.446981e+00
0	 2.928571e+00	 1.071429e+00	 7.945577e+00
0	 2.928571e+00	 1.142857e+00	 7.852543e+00
0	 2.928571e+00	 1.214286e+00	 7.758458e+00
0	 2.928571e+00	 1.285714e+00	 7.663322e+00
0	 2.928571e+00	 1.357143e+00	 7.567136e+00
0	 2.928571e+00	 1.428571e+00	 7.469899e+00
0	 3.000000e+00	 1.071429e+00	 7.957610e+00
0	 3.000000e+00	 1.142857e+00	 7.873726e+00
0	 3.000000e+00	 1.214286e+00	 7.787917e+00
0	 3.000000e+00	 1.285714e+00	 7.700182e+00
0	 3.000000e+00	 1.357143e+00	 7.610523e+00
0	 3.000000e+00	 1.428571e+00	 7.518939e+00
0	 3.071429e+00	 1.071429e+00	 8.016861e+00
0	 3.071429e+00	 1.142857e+00	 7.937907e+00
0	 3.071429e+00	 1.214286e+00	 7.856155e+00
0	 3.071429e+00	 1.285714e+00	 7.771603e+00
0	 3.071429e+00	 1.357143e+00	 7.684252e+00
0	 3.071429e+00	 1.428571e+00	 7.594102e+00
0	 3.142857e+00	 1.071429e+00	 8.123329e+00
0	 3.142857e+00	 1.142857e+00	 8.045087e+00
0	 3.142857e+00	 1.214286e+00	 7.963173e+00
0	 3.142857e+00	 1.285714e+00	 7.877585e+00
0	 3.142857e+00	 1.357143e+00	 7.788323e+00
0	 3.142857e+00	 1.428571e+00	 7.695388e+00
0	 3.214286e+00	 1.071429e+00	 8.277014e+00
0	 3.214286e+00	 1.142857e+00	 8.195266e+00
0	 3.214286e+00	 1.214286e+00	 8.108970e+00
0	 3.214286e+00	 1.285714e+00	 8.018127e+00
0	 3.214286e+00	 1.357143e+00	 7.922736e+00
0	 3.214286e+00	 1.428571e+00	 7.822797e+00
0	 2.857143e+00	 1.428571e+00	 7.446981e+00
0	 2.857143e+00	 1.500000e+00	 7.413864e+00
0	 2.857143e+00	 1.571429e+00	 7.354845e+00
0	 2.857143e+00	 1.642857e+00	 7.269925e+00
0	 2.857143e+00	 1.714286e+00	 7.159104e+00
0	 2.857143e+00	 1.785714e+00	 7.022382e+00
0	 2.928571e+00	 1.428571e+00	 7.469899e+00
0	 2.928571e+00	 1.500000e+00	 7.461531e+00
0	 2.928571e+00	 1.571429e+00	 7.430891e+00
0	 2.928571e+00	 1.642857e+00	 7.377978e+00
0	 2.928571e+00	 1.714286e+00	 7.302792e+00
0	 2.928571e+00	 1.785714e+00	 7.205334e+00
0	 3.000000e+00	 1.428571e+00	 7.518939e+00
0	 3.000000e+00	 1.500000e+00	 7.523421e+00
0	 3.000000e+00	 1.571429e+00	 7.509258e+00
0	 3.000000e+00	 1.642857e+00	 7.476452e+00
0	 3.000000e+00	 1.714286e+00	 7.425001e+00
0	 3.000000e+00	 1.785714e+00	 7.354906e+00
0	 3.071429e+00	 1.428571e+00	 7.594102e+00
0	 3.071429e+00	 1.500000e+00	 7.599532e+00
0	 3.071429e+00	 1.571429e+00	 7.589947e+00
0	 3.071429e+00	 1.642857e+00	 7.565346e+00
0	 3.071429e+00	 1.714286e+00	 7.525730e+00
0	 3.071429e+00	 1.785714e+00	 7.471097e+00
0	 3.142857e+00	 1.428571e+00	 7.695388e+00
0	 3.142857e+00	 1.500000e+00	 7.689867e+00
0	 3.142857e+00	 1.571429e+00	 7.672958e+00
0	 3.142857e+00	 1.642857e+00	 7.644662e+00
0	 3.142857e+00	 1.714286e+00	 7.604979e+00
0	 3.142857e+00	 1.785714e+00	 7.553909e+00
0	 3.214286e+00	 1.428571e+00	 7.822797e+00
0	 3.214286e+00	 1.500000e+00	 7.794423e+00
0	 3.214286e+00	 1.571429e+00	 7.758291e+00
0	 3.214286e+00	 1.642857e+00	 7.714399e+00
0	 3.214286e+00	 1.714286e+00	 7.662749e+00
0	 3.214286e+00	 1.785714e+00	 7.603341e+00
0	 2.857143e+00	 1.785714e+00	 7.022382e+00
0	 2.857143e+00	 1.857143e+00	 7.149763e+00
0	 2.857143e+00	 1.928571e+00	 7.252495e+00
0	 2.857143e+00	 2.000000e+00	 7.330579e+00
0	 2.857143e+00	 2.071429e+00	 7.384014e+00
0	 2.857143e+00	 2.142857e+00	 7.412801e+00
0	 2.928571e+00	 1.785714e+00	 7.205334e+00
0	 2.928571e+00	 1.857143e+00	 7.286609e+00
0	 2.928571e+00	 1.928571e+00	 7.345753e+00
0	 2.928571e+00	 2.000000e+00	 7.382766e+00
0	 2.928571e+00	 2.071429e+00	 7.397648e+00
0	 2.928571e+00	 2.142857e+00	 7.390399e+00
0	 3.000000e+00	 1.785714e+00	 7.354906e+00
0	 3.000000e+00	 1.857143e+00	 7.401312e+00
0	 3.000000e+00	 1.928571e+00	 7.428104e+00
0	 3.000000e+00	 2.000000e+00	 7.435283e+00
0	 3.000000e+00	 2.071429e+00	 7.422849e+00
0	 3.000000e+00	 2.142857e+00	 7.390800e+00
0	 3.071429e+00	 1.785714e+00	 7.471097e+00
0	 3.071429e+00	 1.857143e+00	 7.493871e+00
0	 3.071429e+00	 1.928571e+00	 7.499549e+00
0	 3.071429e+00	 2.000000e+00	 7.488130e+00
0	 3.071429e+00	 2.071429e+00	 7.459615e+00
0	 3.071429e+00	 2.142857e+00	 7.414005e+00
0	 3.142857e+00	 1.785714e+00	 7.553909e+00
0	 3.142857e+00	 1.857143e+00	 7.564287e+00
0	 3.142857e+00	 1.928571e+00	 7.560086e+00
0	 3.142857e+00	 2.000000e+00	 7.541306e+00
0	 3.142857e+00	 2.071429e+00	 7.507948e+00
0	 3.142857e+00	 2.142857e+00	 7.460012e+00
0	 3.214286e+00	 1.785714e+00	 7.603341e+00
0	 3.214286e+00	 1.857143e+00	 7.612559e+00
0	 3.214286e+00	 1.928571e+00	 7.609716e+00
0	 3.214286e+00	 2.000000e+00	 7.594813e+00
0	 3.214286e+00	 2.071429e+00	 7.567848e+00
0	 3.214286e+00	 2.142857e+00	 7.528822e+00
0	 2.857143e+00	 2.142857e+00	 7.412801e+00
0	 2.857143e+00	 2.214286e+00	 7.478752e+00
0	 2.857143e+00	 2.285714e+00	 7.539005e+00
0	 2.857143e+00	 2.357143e+00	 7.593562e+00
0	 2.857143e+00	 2.428571e+00	 7.642420e+00
0	 2.857143e+00	 2.500000e+00	 7.685582e+00
0	 2.928571e+00	 2.142857e+00	 7.390399e+00
0	 2.928571e+00	 2.214286e+00	 7.468225e+00
0	 2.928571e+00	 2.285714e+00	 7.538811e+00
0	 2.928571e+00	 2.357143e+00	 7.602157e+00
0	 2.928571e+00	 2.428571e+00	 7.658263e+00
0	 2.928571e+00	 2.500000e+00	 7.707130e+00
0	 3.000000e+00	 2.142857e+00	 7.390800e+00
0	 3.000000e+00	 2.214286e+00	 7.475548e+00
0	 3.000000e+00	 2.285714e+00	 7.551514e+00
0	 3.000000e+00	 2.357143e+00	 7.618698e+00
0	 3.000000e+00	 2.428571e+00	 7.677099e+00
0	 3.000000e+00	 2.500000e+00	 7.726718e+00
0	 3.071429e+00	 2.142857e+00	 7.414005e+00
0	 3.071429e+00	 2.214286e+00	 7.500723e+00
0	 3.071429e+00	 2.285714e+00	 7.577116e+00
0	 3.071429e+00	 2.357143e+00	 7.643184e+00
0	 3.071429e+00	 2.428571e+00	 7.698928e+00
0	 3.071429e+00	 2.500000e+00	 7.744347e+00
0	 3.142857e+00	 2.142857e+00	 7.460012e+00
0	 3.142857e+00	 2.214286e+00	 7.543747e+00
0	 3.142857e+00	 2.285714e+00	 7.615615e+00
0	 3.142857e+00	 2.357143e+00	 7.675616e+00
0	 3.142857e+00	 2.428571e+00	 7.723750e+00
0	 3.142857e+00	 2.500000e+00	 7.760017e+00
0	 3.214286e+00	 2.142857e+00	 7.528822e+00
0	 3.214286e+00	 2.214286e+00	 7.604622e+00
0	 3.214286e+00	 2.285714e+00	 7.667013e+00
0	 3.214286e+00	 2.357143e+00	 7.715994e+00
0	 3.214286e+00	 2.428571e+00	 7.751565e+00
0	 3.214286e+00	 2.500000e+00	 7.773726e+00
0	 2.857143e+00	 2.500000e+00	 7.685582e+00
0	 2.857143e+00	 2.571429e+00	 7.809914e+00
0	 2.857143e+00	 2.642857e+00	 7.922662e+00
0	 2.857143e+00	 2.714286e+00	 8.023826e+00
0	 2.857143e+00	 2.785714e+00	 8.113406e+00
0	 2.857143e+00	 2.857143e+00	 8.191403e+00
0	 2.928571e+00	 2.500000e+00	 7.707130e+00
0	 2.928571e+00	 2.571429e+00	 7.811359e+00
0	 2.928571e+00	 2.642857e+00	 7.905390e+00
0	 2.928571e+00	 2.714286e+00	 7.989221e+00
0	 2.928571e+00	 2.785714e+00	 8.062853e+00
0	 2.928571e+00	 2.857143e+00	 8.126286e+00
0	 3.000000e+00	 2.500000e+00	 7.726718e+00
0	 3.000000e+00	 2.571429e+00	 7.814723e+00
0	 3.000000e+00	 2.642857e+00	 7.893913e+00
0	 3.000000e+00	 2.714286e+00	 7.964288e+00
0	 3.000000e+00	 2.785714e+00	 8.025850e+00
0	 3.000000e+00	 2.857143e+00	 8.078597e+00
0	 3.071429e+00	 2.500000e+00	 7.744347e+00
0	 3.071429e+00	 2.571429e+00	 7.820004e+00
0	 3.071429e+00	 2.642857e+00	 7.888231e+00
0	 3.071429e+00	 2.714286e+00	 7.949029e+00
0	 3.071429e+00	 2.785714e+00	 8.002396e+00
0	 3.071429e+00	 2.857143e+00	 8.048334e+00
0	 3.142857e+00	 2.500000e+00	 7.760017e+00
0	 3.142857e+00	 2.571429e+00	 7.827203e+00
0	 3.142857e+00	 2.642857e+00	 7.888345e+00
0	 3.142857e+00	 2.714286e+00	 7.943441e+00
0	 3.142857e+00	 2.785714e+00	 7.992493e+00
0	 3.142857e+00	 2.857143e+00	 8.035499e+00
0	 3.214286e+00	 2.500000e+00	 7.773726e+00
0	 3.214286e+00	 2.571429e+00	 7.836320e+00
0	 3.214286e+00	 2.642857e+00	 7.894253e+00
0	 3.214286e+00	 2.714286e+00	 7.947526e+00
0	 3.214286e+00	 2.785714e+00	 7.996139e+00
0	 3.214286e+00	 2.857143e+00	 8.040092e+00
0	 2.857143e+00	 2.857143e+00	 8.191403e+00
0	 2.857143e+00	 2.928571e+00	 8.265263e+00
0	 2.857143e+00	 3.000000e+00	 8.339395e+00
0	 2.857143e+00	 3.071429e+00	 8.413800e+00
0	 2.857143e+00	 3.142857e+00	 8.488478e+00
0	 2.857143e+00	 3.214286e+00	 8.563429e+00
0	 2.928571e+00	 2.857143e+00	 8.126286e+00
0	 2.928571e+00	 2.928571e+00	 8.205276e+00
0	 2.928571e+00	 3.000000e+00	 8.283444e+00
0	 2.928571e+00	 3.071429e+00	 8.360791e+00
0	 2.928571e+00	 3.142857e+00	 8.437315e+00
0	 2.928571e+00	 3.214286e+00	 8.513018e+00
0	 3.000000e+00	 2.857143e+00	 8.078597e+00
0	 3.000000e+00	 2.928571e+00	 8.160640e+00
0	 3.000000e+00	 3.000000e+00	 8.240767e+00
0	 3.000000e+00	 3.071429e+00	 8.318978e+00
0	 3.000000e+00	 3.142857e+00	 8.395273e+00
0	 3.000000e+00	 3.214286e+00	 8.469651e+00
0	 3.071429e+00	 2.857143e+00	 8.048334e+00
0	 3.071429e+00	 2.928571e+00	 8.131355e+00
0	 3.071429e+00	 3.000000e+00	 8.211365e+00
0	 3.071429e+00	 3.071429e+00	 8.288364e+00
0	 3.071429e+00	 3.142857e+00	 8.362352e+00
0	 3.071429e+00	 3.214286e+00	 8.433329e+00
0	 3.142857e+00	 2.857143e+00	 8.035499e+00
0	 3.142857e+00	 2.928571e+00	 8.117420e+00
0	 3.142857e+00	 3.000000e+00	 8.195236e+00
0	 3.142857e+00	 3.071429e+00	 8.268946e+00
0	 3.142857e+00	 3.142857e+00	 8.338551e+00
0	 3.142857e+00	 3.214286e+00	 8.404051e+00
0	 3.214286e+00	 2.857143e+00	 8.040092e+00
0	 3.214286e+00	 2.928571e+00	 8.118836e+00
0	 3.214286e+00	 3.000000e+00	 8.192381e+00
0	 3.214286e+00	 3.071429e+00	 8.260726e+00
0	 3.214286e+00	 3.142857e+00	 8.323871e+00
0	 3.214286e+00	 3.214286e+00	 8.381817e+00
0	 2.857143e+00	 3.214286e+00	 8.563429e+00
0	 2.857143e+00	 3.285714e+00	 8.638647e+00
0	 2.857143e+00	 3.357143e+00	 8.711674e+00
0	 2.857143e+00	 3.428571e+00	 8.782510e+00
0	 2.857143e+00	 3.500000e+00	 8.851154e+00
0	 2.857143e+00	 3.571429e+00	 8.917607e+00
0	 2.928571e+00	 3.214286e+00	 8.513018e+00
0	 2.928571e+00	 3.285714e+00	 8.584077e+00
0	 2.928571e+00	 3.357143e+00	 8.653191e+00
0	 2.928571e+00	 3.428571e+00	 8.720362e+00
0	 2.928571e+00	 3.500000e+00	 8.785588e+00
0	 2.928571e+00	 3.571429e+00	 8.848871e+00
0	 3.000000e+00	 3.214286e+00	 8.469651e+00
0	 3.000000e+00	 3.285714e+00	 8.537194e+00
0	 3.000000e+00	 3.357143e+00	 8.603040e+00
0	 3.000000e+00	 3.428571e+00	 8.667189e+00
0	 3.000000e+00	 3.500000e+00	 8.729641e+00
0	 3.000000e+00	 3.571429e+00	 8.790397e+00
0	 3.071429e+00	 3.214286e+00	 8.433329e+00
0	 3.071429e+00	 3.285714e+00	 8.497999e+00
0	 3.071429e+00	 3.357143e+00	 8.561219e+00
0	 3.071429e+00	 3.428571e+00	 8.622991e+00
0	 3.071429e+00	 3.500000e+00	 8.683313e+00
0	 3.071429e+00	 3.571429e+00	 8.742185e+00
0	 3.142857e+00	 3.214286e+00	 8.404051e+00
0	 3.142857e+00	 3.285714e+00	 8.466492e+00
0	 3.142857e+00	 3.357143e+00	 8.527731e+00
0	 3.142857e+00	 3.428571e+00	 8.587767e+00
0	 3.142857e+00	 3.500000e+00	 8.646603e+00
0	 3.142857e+00	 3.571429e+00	 8.704236e+00
0	 3.214286e+00	 3.214286e+00	 8.381817e+00
0	 3.214286e+00	 3.285714e+00	 8.442672e+00
0	 3.214286e+00	 3.357143e+00	 8.502573e+00
0	 3.214286e+00	 3.428571e+00	 8.561519e+00
0	 3.214286e+00	 3.500000e+00	 8.619511e+00
0	 3.214286e+00	 3.571429e+00	 8.676548e+00
0	 2.857143e+00	 3.571429e+00	 8.917607e+00
0	 2.857143e+00	 3.642857e+00	 8.969212e+00
0	 2.857143e+00	 3.714286e+00	 9.021724e+00
0	 2.857143e+00	 3.785714e+00	 9.075145e+00
0	 2.857143e+00	 3.857143e+00	 9.129472e+00
0	 2.857143e+00	 3.928571e+00	 9.184707e+00
0	 2.928571e+00	 3.571429e+00	 8.848871e+00
0	 2.928571e+00	 3.642857e+00	 8.902952e+00
0	 2.928571e+00	 3.714286e+00	 8.957549e+00
0	 2.928571e+00	 3.785714e+00	 9.012660e+00
0	 2.928571e+00	 3.857143e+00	 9.068286e+00
0	 2.928571e+00	 3.928571e+00	 9.124426e+00
0	 3.000000e+00	 3.571429e+00	 8.790397e+00
0	 3.000000e+00	 3.642857e+00	 8.846173e+00
0	 3.000000e+00	 3.714286e+00	 8.902071e+00
0	 3.000000e+00	 3.785714e+00	 8.958090e+00
0	 3.000000e+00	 3.857143e+00	 9.014232e+00
0	 3.000000e+00	 3.928571e+00	 9.070496e+00
0	 3.071429e+00	 3.571429e+00	 8.742185e+00
0	 3.071429e+00	 3.642857e+00	 8.798873e+00
0	 3.071429e+00	 3.714286e+00	 8.855290e+00
0	 3.071429e+00	 3.785714e+00	 8.911437e+00
0	 3.071429e+00	 3.857143e+00	 8.967313e+00
0	 3.071429e+00	 3.928571e+00	 9.022918e+00
0	 3.142857e+00	 3.571429e+00	 8.704236e+00
0	 3.142857e+00	 3.642857e+00	 8.761054e+00
0	 3.142857e+00	 3.714286e+00	 8.817208e+00
0	 3.142857e+00	 3.785714e+00	 8.872699e+00
0	 3.142857e+00	 3.857143e+00	 8.927526e+00
0	 3.142857e+00	 3.928571e+00	 8.981690e+00
0	 3.214286e+00	 3.571429e+00	 8.676548e+00
0	 3.214286e+00	 3.642857e+00	 8.732714e+00
0	 3.214286e+00	 3.714286e+00	 8.787823e+00
0	 3.214286e+00	 3.785714e+00	 8.841877e+00
0	 3.214286e+00	 3.857143e+00	 8.894874e+00
0	 3.214286e+00	 3.928571e+00	 8.946815e+00
0	 2.857143e+00	 3.928571e+00	 9.184707e+00
0	 2.857143e+00	 4.000000e+00	 9.227445e+00
0	 2.857143e+00	 4.071429e+00	 9.270415e+00
0	 2.857143e+00	 4.142857e+00	 9.313616e+00
0	 2.857143e+00	 4.214286e+00	 9.357048e+00
0	 2.857143e+00	 4.285714e+00	 9.400712e+00
0	 2.928571e+00	 3.928571e+00	 9.124426e+00
0	 2.928571e+00	 4.000000e+00	 9.167656e+00
0	 2.928571e+00	 4.071429e+00	 9.211107e+00
0	 2.928571e+00	 4.142857e+00	 9.254777e+00
0	 2.928571e+00	 4.214286e+00	 9.298667e+00
0	 2.928571e+00	 4.285714e+00	 9.342777e+00
0	 3.000000e+00	 3.928571e+00	 9.070496e+00
0	 3.000000e+00	 4.000000e+00	 9.114094e+00
0	 3.000000e+00	 4.071429e+00	 9.157901e+00
0	 3.000000e+00	 4.142857e+00	 9.201916e+00
0	 3.000000e+00	 4.214286e+00	 9.246140e+00
0	 3.000000e+00	 4.285714e+00	 9.290572e+00
0	 3.071429e+00	 3.928571e+00	 9.022918e+00
0	 3.071429e+00	 4.000000e+00	 9.066760e+00
0	 3.071429e+00	 4.071429e+00	 9.110798e+00
0	 3.071429e+00	 4.142857e+00	 9.155034e+00
0	 3.071429e+00	 4.214286e+00	 9.199467e+00
0	 3.071429e+00	 4.285714e+00	 9.244097e+00
0	 3.142857e+00	 3.928571e+00	 8.981690e+00
0	 3.142857e+00	 4.000000e+00	 9.025652e+00
0	 3.142857e+00	 4.071429e+00	 9.069799e+00
0	 3.142857e+00	 4.142857e+00	 9.114131e+00
0	 3.142857e+00	 4.214286e+00	 9.158649e+00
0	 3.142857e+00	 4.285714e+00	 9.203352e+00
0	 3.214286e+00	 3.928571e+00	 8.946815e+00
0	 3.214286e+00	 4.000000e+00	 8.990771e+00
0	 3.214286e+00	 4.071429e+00	 9.034902e+00
0	 3.214286e+00	 4.142857e+00	 9.079206e+00
0	 3.214286e+00	 4.214286e+00	 9.123685e+00
0	 3.214286e+00	 4.285714e+00	 9.168338e+00
0	 2.857143e+00	 4.285714e+00	 9.400712e+00
0	 2.857143e+00	 4.357143e+00	 9.432032e+00
0	 2.857143e+00	 4.428571e+00	 9.464106e+00
0	 2.857143e+00	 4.500000e+00	 9.496935e+00
0	 2.857143e+00	 4.571429e+00	 9.530518e+00
0	 2.857143e+00	 4.642857e+00	 9.564856e+00
0	 2.928571e+00	 4.285714e+00	 9.342777e+00
0	 2.928571e+00	 4.357143e+00	 9.375773e+00
0	 2.928571e+00	 4.428571e+00	 9.409404e+00
0	 2.928571e+00	 4.500000e+00	 9.443669e+00
0	 2.928571e+00	 4.571429e+00	 9.478569e+00
0	 2.928571e+00	 4.642857e+00	 9.514104e+00
0	 3.000000e+00	 4.285714e+00	 9.290572e+00
0	 3.000000e+00	 4.357143e+00	 9.324919e+00
0	 3.000000e+00	 4.428571e+00	 9.359781e+00
0	 3.000000e+00	 4.500000e+00	 9.395158e+00
0	 3.000000e+00	 4.571429e+00	 9.431050e+00
0	 3.000000e+00	 4.642857e+00	 9.467457e+00
0	 3.071429e+00	 4.285714e+00	 9.244097e+00
0	 3.071429e+00	 4.357143e+00	 9.279470e+00
0	 3.071429e+00	 4.428571e+00	 9.315238e+00
0	 3.071429e+00	 4.500000e+00	 9.351402e+00
0	 3.071429e+00	 4.571429e+00	 9.387960e+00
0	 3.071429e+00	 4.642857e+00	 9.424914e+00
0	 3.142857e+00	 4.285714e+00	 9.203352e+00
0	 3.142857e+00	 4.357143e+00	 9.239426e+00
0	 3.142857e+00	 4.428571e+00	 9.275775e+00
0	 3.142857e+00	 4.500000e+00	 9.312400e+00
0	 3.142857e+00	 4.571429e+00	 9.349300e+00
0	 3.142857e+00	 4.642857e+00	 9.386476e+00
0	 3.214286e+00	 4.285714e+00	 9.168338e+00
0	 3.214286e+00	 4.357143e+00	 9.204787e+00
0	 3.214286e+00	 4.428571e+00	 9.241392e+00
0	 3.214286e+00	 4.500000e+00	 9.278153e+00
0	 3.214286e+00	 4.571429e+00	 9.315070e+00
0	 3.214286e+00	 4.642857e+00	 9.352143e+00
0	 2.857143e+00	 4.642857e+00	 9.564856e+00
0	 2.857143e+00	 4.714286e+00	 9.588972e+00
0	 2.857143e+00	 4.785714e+00	 9.613640e+00
0	 2.857143e+00	 4.857143e+00	 9.638859e+00
0	 2.857143e+00	 4.928571e+00	 9.664629e+00
0	 2.857143e+00	 5.000000e+00	 9.690950e+00
0	 2.928571e+00	 4.642857e+00	 9.514104e+00
0	 2.928571e+00	 4.714286e+00	 9.539469e+00
0	 2.928571e+00	 4.785714e+00	 9.565355e+00
0	 2.928571e+00	 4.857143e+00	 9.591764e+00
0	 2.928571e+00	 4.928571e+00	 9.618694e+00
0	 2.928571e+00	 5.000000e+00	 9.646147e+00
0	 3.000000e+00	 4.642857e+00	 9.467457e+00
0	 3.000000e+00	 4.714286e+00	 9.493900e+00
0	 3.000000e+00	 4.785714e+00	 9.520837e+00
0	 3.000000e+00	 4.857143e+00	 9.548266e+00
0	 3.000000e+00	 4.928571e+00	 9.576188e+00
0	 3.000000e+00	 5.000000e+00	 9.604602e+00
0	 3.071429e+00	 4.642857e+00	 9.424914e+00
0	 3.071429e+00	 4.714286e+00	 9.452268e+00
0	 3.071429e+00	 4.785714e+00	 9.480084e+00
0	 3.071429e+00	 4.857143e+00	 9.508365e+00
0	 3.071429e+00	 4.928571e+00	 9.537109e+00
0	 3.071429e+00	 5.000000e+00	 9.566317e+00
0	 3.142857e+00	 4.642857e+00	 9.386476e+00
0	 3.142857e+00	 4.714286e+00	 9.414570e+00
0	 3.142857e+00	 4.785714e+00	 9.443099e+00
0	 3.142857e+00	 4.857143e+00	 9.472062e+00
0	 3.142857e+00	 4.928571e+00	 9.501459e+00
0	 3.142857e+00	 5.000000e+00	 9.531291e+00
0	 3.214286e+00	 4.642857e+00	 9.352143e+00
0	 3.214286e+00	 4.714286e+00	 9.380808e+00
0	 3.214286e+00	 4.785714e+00	 9.409879e+00
0	 3.214286e+00	 4.857143e+00	 9.439355e+00
0	 3.214286e+00	 4.928571e+00	 9.469237e+00
0	 3.214286e+00	 5.000000e+00	 9.499523e+00
0	 2.857143e+00	 5.000000e+00	 9.690950e+00
0	 2.857143e+00	 5.071429e+00	 9.708780e+00
0	 2.857143e+00	 5.142857e+00	 9.727169e+00
0	 2.857143e+00	 5.214286e+00	 9.746118e+00
0	 2.857143e+00	 5.285714e+00	 9.765627e+00
0	 2.857143e+00	 5.357143e+00	 9.785694e+00
0	 2.928571e+00	 5.000000e+00	 9.646147e+00
0	 2.928571e+00	 5.071429e+00	 9.665297e+00
0	 2.928571e+00	 5.142857e+00	 9.684969e+00
0	 2.928571e+00	 5.214286e+00	 9.705164e+00
0	 2.928571e+00	 5.285714e+00	 9.725882e+00
0	 2.928571e+00	 5.357143e+00	 9.747121e+00
0	 3.000000e+00	 5.000000e+00	 9.604602e+00
0	 3.000000e+00	 5.071429e+00	 9.624911e+00
0	 3.000000e+00	 5.142857e+00	 9.645705e+00
0	 3.000000e+00	 5.214286e+00	 9.666985e+00
0	 3.000000e+00	 5.285714e+00	 9.688750e+00
0	 3.000000e+00	 5.357143e+00	 9.711000e+00
0	 3.071429e+00	 5.000000e+00	 9.566317e+00
0	 3.071429e+00	 5.071429e+00	 9.587623e+00
0	 3.071429e+00	 5.142857e+00	 9.609377e+00
0	 3.071429e+00	 5.214286e+00	 9.631580e+00
0	 3.071429e+00	 5.285714e+00	 9.654231e+00
0	 3.071429e+00	 5.357143e+00	 9.677330e+00
0	 3.142857e+00	 5.000000e+00	 9.531291e+00
0	 3.142857e+00	 5.071429e+00	 9.553432e+00
0	 3.142857e+00	 5.142857e+00	 9.575985e+00
0	 3.142857e+00	 5.214286e+00	 9.598949e+00
0	 3.142857e+00	 5.285714e+00	 9.622325e+00
0	 3.142857e+00	 5.357143e+00	 9.646112e+00
0	 3.214286e+00	 5.000000e+00	 9.499523e+00
0	 3.214286e+00	 5.071429e+00	 9.522339e+00
0	 3.214286e+00	 5.142857e+00	 9.545529e+00
0	 3.214286e+00	 5.214286e+00	 9.569094e+00
0	 3.214286e+00	 5.285714e+00	 9.593032e+00
0	 3.214286e+00	 5.357143e+00	 9.617345e+00
0	 2.857143e+00	 5.357143e+00	 9.785694e+00
0	 2.857143e+00	 5.428571e+00	 9.798885e+00
0	 2.857143e+00	 5.500000e+00	 9.812531e+00
0	 2.857143e+00	 5.571429e+00	 9.826634e+00
0	 2.857143e+00	 5.642857e+00	 9.841193e+00
0	 2.857143e+00	 5.714286e+00	 9.856208e+00
0	 2.928571e+00	 5.357143e+00	 9.747121e+00
0	 2.928571e+00	 5.428571e+00	 9.761461e+00
0	 2.928571e+00	 5.500000e+00	 9.776242e+00
0	 2.928571e+00	 5.571429e+00	 9.791464e+00
0	 2.928571e+00	 5.642857e+00	 9.807127e+00
0	 2.928571e+00	 5.714286e+00	 9.823232e+00
0	 3.000000e+00	 5.357143e+00	 9.711000e+00
0	 3.000000e+00	 5.428571e+00	 9.726376e+00
0	 3.000000e+00	 5.500000e+00	 9.742179e+00
0	 3.000000e+00	 5.571429e+00	 9.758408e+00
0	 3.000000e+00	 5.642857e+00	 9.775064e+00
0	 3.000000e+00	 5.714286e+00	 9.792146e+00
0	 3.071429e+00	 5.357143e+00	 9.677330e+00
0	 3.071429e+00	 5.428571e+00	 9.693631e+00
0	 3.071429e+00	 5.500000e+00	 9.710343e+00
0	 3.071429e+00	 5.571429e+00	 9.727467e+00
0	 3.071429e+00	 5.642857e+00	 9.745003e+00
0	 3.071429e+00	 5.714286e+00	 9.762950e+00
0	 3.142857e+00	 5.357143e+00	 9.646112e+00
0	 3.142857e+00	 5.428571e+00	 9.663224e+00
0	 3.142857e+00	 5.500000e+00	 9.680734e+00
0	 3.142857e+00	 5.571429e+00	 9.698640e+00
0	 3.142857e+00	 5.642857e+00	 9.716944e+00
0	 3.142857e+00	 5.714286e+00	 9.735644e+00
0	 3.214286e+00	 5.357143e+00	 9.617345e+00
0	 3.214286e+00	 5.428571e+00	 9.635157e+00
0	 3.214286e+00	 5.500000e+00	 9.653352e+00
0	 3.214286e+00	 5.571429e+00	 9.671928e+00
0	 3.214286e+00	 5.642857e+00	 9.690887e+00
0	 3.214286e+00	 5.714286e+00	 9.710228e+00
0	 2.857143e+00	 5.714286e+00	 9.856208e+00
0	 2.857143e+00	 5.785714e+00	 9.865704e+00
0	 2.857143e+00	 5.857143e+00	 9.875591e+00
0	 2.857143e+00	 5.928571e+00	 9.885869e+00
0	 2.857143e+00	 6.000000e+00	 9.896538e+00
0	 2.857143e+00	 6.071429e+00	 9.907598e+00
0	 2.928571e+00	 5.714286e+00	 9.823232e+00
0	 2.928571e+00	 5.785714e+00	 9.833781e+00
0	 2.928571e+00	 5.857143e+00	 9.844710e+00
0	 2.928571e+00	 5.928571e+00	 9.856020e+00
0	 2.928571e+00	 6.000000e+00	 9.867709e+00
0	 2.928571e+00	 6.071429e+00	 9.879779e+00
0	 3.000000e+00	 5.714286e+00	 9.792146e+00
0	 3.000000e+00	 5.785714e+00	 9.803658e+00
0	 3.000000e+00	 5.857143e+00	 9.815540e+00
0	 3.000000e+00	 5.928571e+00	 9.827790e+00
0	 3.000000e+00	 6.000000e+00	 9.840410e+00
0	 3.000000e+00	 6.071429e+00	 9.853399e+00
0	 3.071429e+00	 5.714286e+00	 9.762950e+00
0	 3.071429e+00	 5.785714e+00	 9.775335e+00
0	 3.071429e+00	 5.857143e+00	 9.788079e+00
0	 3.071429e+00	 5.928571e+00	 9.801181e+00
0	 3.071429e+00	 6.000000e+00	 9.814641e+00
0	 3.071429e+00	 6.071429e+00	 9.828460e+00
0	 3.142857e+00	 5.714286e+00	 9.735644e+00
0	 3.142857e+00	 5.785714e+00	 9.748812e+00
0	 3.142857e+00	 5.857143e+00	 9.762328e+00
0	 3.142857e+00	 5.928571e+00	 9.776191e+00
0	 3.142857e+00	 6.000000e+00	 9.790402e+00
0	 3.142857e+00	 6.071429e+00	 9.804960e+00
0	 3.214286e+00	 5.714286e+00	 9.710228e+00
0	 3.214286e+00	 5.785714e+00	 9.724089e+00
0	 3.214286e+00	 5.857143e+00	 9.738287e+00
0	 3.214286e+00	 5.928571e+00	 9.752821e+00
0	 3.214286e+00	 6.000000e+00	 9.767692e+00
0	 3.214286e+00	 6.071429e+00	 9.782899e+00
0	 2.857143e+00	 6.071429e+00	 9.907598e+00
0	 2.857143e+00	 6.142857e+00	 9.914275e+00
0	 2.857143e+00	 6.214286e+00	 9.921269e+00
0	 2.857143e+00	 6.285714e+00	 9.928579e+00
0	 2.857143e+00	 6.357143e+00	 9.936205e+00
0	 2.857143e+00	 6.428571e+00	 9.944147e+00
0	 2.928571e+00	 6.071429e+00	 9.879779e+00
0	 2.928571e+00	 6.142857e+00	 9.887389e+00
0	 2.928571e+00	 6.214286e+00	 9.895312e+00
0	 2.928571e+00	 6.285714e+00	 9.903546e+00
0	 2.928571e+00	 6.357143e+00	 9.912093e+00
0	 2.928571e+00	 6.428571e+00	 9.920952e+00
0	 3.000000e+00	 6.071429e+00	 9.853399e+00
0	 3.000000e+00	 6.142857e+00	 9.861874e+00
0	 3.000000e+00	 6.214286e+00	 9.870658e+00
0	 3.000000e+00	 6.285714e+00	 9.879749e+00
0	 3.000000e+00	 6.357143e+00	 9.889149e+00
0	 3.000000e+00	 6.428571e+00	 9.898857e+00
0	 3.071429e+00	 6.071429e+00	 9.828460e+00
0	 3.071429e+00	 6.142857e+00	 9.837731e+00
0	 3.071429e+00	 6.214286e+00	 9.847307e+00
0	 3.071429e+00	 6.285714e+00	 9.857188e+00
0	 3.071429e+00	 6.357143e+00	 9.867372e+00
0	 3.071429e+00	 6.428571e+00	 9.877861e+00
0	 3.142857e+00	 6.071429e+00	 9.804960e+00
0	 3.142857e+00	 6.142857e+00	 9.814960e+00
0	 3.142857e+00	 6.214286e+00	 9.825261e+00
0	 3.142857e+00	 6.285714e+00	 9.835862e+00
0	 3.142857e+00	 6.357143e+00	 9.846763e+00
0	 3.142857e+00	 6.428571e+00	 9.857964e+00
0	 3.214286e+00	 6.071429e+00	 9.782899e+00
0	 3.214286e+00	 6.142857e+00	 9.793560e+00
0	 3.214286e+00	 6.214286e+00	 9.804518e+00
0	 3.214286e+00	 6.285714e+00	 9.815771e+00
0	 3.214286e+00	 6.357143e+00	 9.827321e+00
0	 3.214286e+00	 6.428571e+00	 9.839167e+00
0	 2.857143e+00	 6.428571e+00	 9.944147e+00
0	 2.857143e+00	 6.500000e+00	 9.948656e+00
0	 2.857143e+00	 6.571429e+00	 9.953417e+00
0	 2.857143e+00	 6.642857e+00	 9.958432e+00
0	 2.857143e+00	 6.714286e+00	 9.963699e+00
0	 2.857143e+00	 6.785714e+00	 9.969220e+00
0	 2.928571e+00	 6.428571e+00	 9.920952e+00
0	 2.928571e+00	 6.500000e+00	 9.926292e+00
0	 2.928571e+00	 6.571429e+00	 9.931883e+00
0	 2.928571e+00	 6.642857e+00	 9.937728e+00
0	 2.928571e+00	 6.714286e+00	 9.943824e+00
0	 2.928571e+00	 6.785714e+00	 9.950173e+00
0	 3.000000e+00	 6.428571e+00	 9.898857e+00
0	 3.000000e+00	 6.500000e+00	 9.904974e+00
0	 3.000000e+00	 6.571429e+00	 9.911343e+00
0	 3.000000e+00	 6.642857e+00	 9.917963e+00
0	 3.000000e+00	 6.714286e+00	 9.924836e+00
0	 3.000000e+00	 6.785714e+00	 9.931959e+00
0	 3.071429e+00	 6.428571e+00	 9.877861e+00
0	 3.071429e+00	 6.500000e+00	 9.884703e+00
0	 3.071429e+00	 6.571429e+00	 9.891796e+00
0	 3.071429e+00	 6.642857e+00	 9.899139e+00
0	 3.071429e+00	 6.714286e+00	 9.906734e+00
0	 3.071429e+00	 6.785714e+00	 9.914579e+00
0	 3.142857e+00	 6.428571e+00	 9.857964e+00
0	 3.142857e+00	 6.500000e+00	 9.865478e+00
0	 3.142857e+00	 6.571429e+00	 9.873242e+00
0	 3.142857e+00	 6.642857e+00	 9.881255e+00
0	 3.142857e+00	 6.714286e+00	 9.889519e+00
0	 3.142857e+00	 6.785714e+00	 9.898033e+00
0	 3.214286e+00	 6.428571e+00	 9.839167e+00
0	 3.214286e+00	 6.500000e+00	 9.847299e+00
0	 3.214286e+00	 6.571429e+00	 9.855681e+00
0	 3.214286e+00	 6.642857e+00	 9.864311e+00
0	 3.214286e+00	 6.714286e+00	 9.873191e+00
0	 3.214286e+00	 6.785714e+00	 9.882320e+00
0	 2.857143e+00	 6.785714e+00	 9.969220e+00
0	 2.857143e+00	 6.857143e+00	 9.972099e+00
0	 2.857143e+00	 6.928571e+00	 9.975173e+00
0	 2.857143e+00	 7.000000e+00	 9.978441e+00
0	 2.857143e+00	 7.071429e+00	 9.981904e+00
0	 2.857143e+00	 7.142857e+00	 9.985561e+00
0	 2.928571e+00	 6.785714e+00	 9.950173e+00
0	 2.928571e+00	 6.857143e+00	 9.953787e+00
0	 2.928571e+00	 6.928571e+00	 9.957597e+00
0	 2.928571e+00	 7.000000e+00	 9.961605e+00
0	 2.928571e+00	 7.071429e+00	 9.965809e+00
0	 2.928571e+00	 7.142857e+00	 9.970211e+00
0	 3.000000e+00	 6.785714e+00	 9.931959e+00
0	 3.000000e+00	 6.857143e+00	 9.936266e+00
0	 3.000000e+00	 6.928571e+00	 9.940773e+00
0	 3.000000e+00	 7.000000e+00	 9.945478e+00
0	 3.000000e+00	 7.071429e+00	 9.950383e+00
0	 3.000000e+00	 7.142857e+00	 9.955488e+00
0	 3.071429e+00	 6.785714e+00	 9.914579e+00
0	 3.071429e+00	 6.857143e+00	 9.919538e+00
0	 3.071429e+00	 6.928571e+00	 9.924699e+00
0	 3.071429e+00	 7.000000e+00	 9.930061e+00
0	 3.071429e+00	 7.071429e+00	 9.935625e+00
0	 3.071429e+00	 7.142857e+00	 9.941391e+00
0	 3.142857e+00	 6.785714e+00	 9.898033e+00
0	 3.142857e+00	 6.857143e+00	 9.903603e+00
0	 3.142857e+00	 6.928571e+00	 9.909377e+00
0	 3.142857e+00	 7.000000e+00	 9.915354e+00
0	 3.142857e+00	 7.071429e+00	 9.921536e+00
0	 3.142857e+00	 7.142857e+00	 9.927921e+00
0	 3.214286e+00	 6.785714e+00	 9.882320e+00
0	 3.214286e+00	 6.857143e+00	 9.888460e+00
0	 3.214286e+00	 6.928571e+00	 9.894805e+00
0	 3.214286e+00	 7.000000e+00	 9.901356e+00
0	 3.214286e+00	 7.071429e+00	 9.908114e+00
0	 3.214286e+00	 7.142857e+00	 9.915078e+00
0	 2.857143e+00	 7.142857e+00	 9.985561e+00
0	 2.857143e+00	 7.214286e+00	 9.987241e+00
0	 2.857143e+00	 7.285714e+00	 9.989065e+00
0	 2.857143e+00	 7.357143e+00	 9.991031e+00
0	 2.857143e+00	 7.428571e+00	 9.993141e+00
0	 2.857143e+00	 7.500000e+00	 9.995395e+00
0	 2.928571e+00	 7.142857e+00	 9.970211e+00
0	 2.928571e+00	 7.214286e+00	 9.972539e+00
0	 2.928571e+00	 7.285714e+00	 9.975015e+00
0	 2.928571e+00	 7.357143e+00	 9.977639e+00
0	 2.928571e+00	 7.428571e+00	 9.980411e+00
0	 2.928571e+00	 7.500000e+00	 9.983331e+00
0	 3.000000e+00	 7.142857e+00	 9.955488e+00
0	 3.000000e+00	 7.214286e+00	 9.958431e+00
0	 3.000000e+00	 7.285714e+00	 9.961528e+00
0	 3.000000e+00	 7.357143e+00	 9.964776e+00
0	 3.000000e+00	 7.428571e+00	 9.968178e+00
0	 3.000000e+00	 7.500000e+00	 9.971731e+00
0	 3.071429e+00	 7.142857e+00	 9.941391e+00
0	 3.071429e+00	 7.214286e+00	 9.944918e+00
0	 3.071429e+00	 7.285714e+00	 9.948602e+00
0	 3.071429e+00	 7.357143e+00	 9.952442e+00
0	 3.071429e+00	 7.428571e+00	 9.956440e+00
0	 3.071429e+00	 7.500000e+00	 9.960595e+00
0	 3.142857e+00	 7.142857e+00	 9.927921e+00
0	 3.142857e+00	 7.214286e+00	 9.931998e+00
0	 3.142857e+00	 7.285714e+00	 9.936237e+00
0	 3.142857e+00	 7.357143e+00	 9.940638e+00
0	 3.142857e+00	 7.428571e+00	 9.945200e+00
0	 3.142857e+00	 7.500000e+00	 9.949923e+00
0	 3.214286e+00	 7.142857e+00	 9.915078e+00
0	 3.214286e+00	 7.214286e+00	 9.919673e+00
0	 3.214286e+00	 7.285714e+00	 9.924435e+00
0	 3.214286e+00	 7.357143e+00	 9.929362e+00
0	 3.214286e+00	 7.428571e+00	 9.934456e+00
0	 3.214286e+00	 7.500000e+00	 9.939715e+00
0	 2.857143e+00	 7.500000e+00	 9.995395e+00
0	 2.857143e+00	 7.571429e+00	 9.996231e+00
0	 2.857143e+00	 7.642857e+00	 9.997164e+00
0	 2.857143e+00	 7.714286e+00	 9.998195e+00
0	 2.857143e+00	 7.785714e+00	 9.999324e+00
0	 2.857143e+00	 7.857143e+00	 1.000055e+01
0	 2.928571e+00	 7.500000e+00	 9.983331e+00
0	 2.928571e+00	 7.571429e+00	 9.984734e+00
0	 2.928571e+00	 7.642857e+00	 9.986242e+00
0	 2.928571e+00	 7.714286e+00	 9.987855e+00
0	 2.928571e+00	 7.785714e+00	 9.989571e+00
0	 2.928571e+00	 7.857143e+00	 9.991393e+00
0	 3.000000e+00	 7.500000e+00	 9.971731e+00
0	 3.000000e+00	 7.571429e+00	 9.973676e+00
0	 3.000000e+00	 7.642857e+00	 9.975733e+00
0	 3.000000e+00	 7.714286e+00	 9.977900e+00
0	 3.000000e+00	 7.785714e+00	 9.980179e+00
0	 3.000000e+00	 7.857143e+00	 9.982569e+00
0	 3.071429e+00	 7.500000e+00	 9.960595e+00
0	 3.071429e+00	 7.571429e+00	 9.963056e+00
0	 3.071429e+00	 7.642857e+00	 9.965636e+00
0	 3.071429e+00	 7.714286e+00	 9.968333e+00
0	 3.071429e+00	 7.785714e+00	 9.971148e+00
0	 3.071429e+00	 7.857143e+00	 9.974081e+00
0	 3.142857e+00	 7.500000e+00	 9.949923e+00
0	 3.142857e+00	 7.571429e+00	 9.952875e+00
0	 3.142857e+00	 7.642857e+00	 9.955951e+00
0	 3.142857e+00	 7.714286e+00	 9.959152e+00
0	 3.142857e+00	 7.785714e+00	 9.962477e+00
0	 3.142857e+00	 7.857143e+00	 9.965928e+00
0	 3.214286e+00	 7.500000e+00	 9.939715e+00
0	 3.214286e+00	 7.571429e+00	 9.943131e+00
0	 3.214286e+00	 7.642857e+00	 9.946679e+00
0	 3.214286e+00	 7.714286e+00	 9.950357e+00
0	 3.214286e+00	 7.785714e+00	 9.954168e+00
0	 3.214286e+00	 7.857143e+00	 9.958110e+00
0	 2.857143e+00	 7.857143e+00	 1.000055e+01
0	 2.857143e+00	 7.928571e+00	 1.000083e+01
0	 2.857143e+00	 8.000000e+00	 1.000117e+01
0	 2.857143e+00	 8.071429e+00	 1.000157e+01
0	 2.857143e+00	 8.142857e+00	 1.000202e+01
0	 2.857143e+00	 8.214286e+00	 1.000254e+01
0	 2.928571e+00	 7.857143e+00	 9.991393e+00
0	 2.928571e+00	 7.928571e+00	 9.992165e+00
0	 2.928571e+00	 8.000000e+00	 9.993004e+00
0	 2.928571e+00	 8.071429e+00	 9.993910e+00
0	 2.928571e+00	 8.142857e+00	 9.994883e+00
0	 2.928571e+00	 8.214286e+00	 9.995924e+00
0	 3.000000e+00	 7.857143e+00	 9.982569e+00
0	 3.000000e+00	 7.928571e+00	 9.983812e+00
0	 3.000000e+00	 8.000000e+00	 9.985131e+00
0	 3.000000e+00	 8.071429e+00	 9.986525e+00
0	 3.000000e+00	 8.142857e+00	 9.987996e+00
0	 3.000000e+00	 8.214286e+00	 9.989543e+00
0	 3.071429e+00	 7.857143e+00	 9.974081e+00
0	 3.071429e+00	 7.928571e+00	 9.975774e+00
0	 3.071429e+00	 8.000000e+00	 9.977552e+00
0	 3.071429e+00	 8.071429e+00	 9.979415e+00
0	 3.071429e+00	 8.142857e+00	 9.981363e+00
0	 3.071429e+00	 8.214286e+00	 9.983396e+00
0	 3.142857e+00	 7.857143e+00	 9.965928e+00
0	 3.142857e+00	 7.928571e+00	 9.968050e+00
0	 3.142857e+00	 8.000000e+00	 9.970267e+00
0	 3.142857e+00	 8.071429e+00	 9.972577e+00
0	 3.142857e+00	 8.142857e+00	 9.974982e+00
0	 3.142857e+00	 8.214286e+00	 9.977481e+00
0	 3.214286e+00	 7.857143e+00	 9.958110e+00
0	 3.214286e+00	 7.928571e+00	 9.960642e+00
0	 3.214286e+00	 8.000000e+00	 9.963276e+00
0	 3.214286e+00	 8.071429e+00	 9.966014e+00
0	 3.214286e+00	 8.142857e+00	 9.968855e+00
0	 3.214286e+00	 8.214286e+00	 9.971799e+00
0	 2.857143e+00	 8.214286e+00	 1.000254e+01
0	 2.857143e+00	 8.285714e+00	 1.000250e+01
0	 2.857143e+00	 8.357143e+00	 1.000249e+01
0	 2.857143e+00	 8.428571e+00	 1.000250e+01
0	 2.857143e+00	 8.500000e+00	 1.000253e+01
0	 2.857143e+00	 8.571429e+00	 1.000259e+01
0	 2.928571e+00	 8.214286e+00	 9.995924e+00
0	 2.928571e+00	 8.285714e+00	 9.996301e+00
0	 2.928571e+00	 8.357143e+00	 9.996715e+00
0	 2.928571e+00	 8.428571e+00	 9.997164e+00
0	 2.928571e+00	 8.500000e+00	 9.997650e+00
0	 2.928571e+00	 8.571429e+00	 9.998171e+00
0	 3.000000e+00	 8.214286e+00	 9.989543e+00
0	 3.000000e+00	 8.285714e+00	 9.990320e+00
0	 3.000000e+00	 8.357143e+00	 9.991144e+00
0	 3.000000e+00	 8.428571e+00	 9.992015e+00
0	 3.000000e+00	 8.500000e+00	 9.992934e+00
0	 3.000000e+00	 8.571429e+00	 9.993901e+00
0	 3.071429e+00	 8.214286e+00	 9.983396e+00
0	 3.071429e+00	 8.285714e+00	 9.984555e+00
0	 3.071429e+00	 8.357143e+00	 9.985773e+00
0	 3.071429e+00	 8.428571e+00	 9.987050e+00
0	 3.071429e+00	 8.500000e+00	 9.988387e+00
0	 3.071429e+00	 8.571429e+00	 9.989782e+00
0	 3.142857e+00	 8.214286e+00	 9.977481e+00
0	 3.142857e+00	 8.285714e+00	 9.979006e+00
0	 3.142857e+00	 8.357143e+00	 9.980603e+00
0	 3.142857e+00	 8.428571e+00	 9.982270e+00
0	 3.142857e+00	 8.500000e+00	 9.984008e+00
0	 3.142857e+00	 8.571429e+00	 9.985816e+00
0	 3.214286e+00	 8.214286e+00	 9.971799e+00
0	 3.214286e+00	 8.285714e+00	 9.973675e+00
0	 3.214286e+00	 8.357143e+00	 9.975633e+00
0	 3.214286e+00	 8.428571e+00	 9.977674e+00
0	 3.214286e+00	 8.500000e+00	 9.979797e+00
0	 3.214286e+00	 8.571429e+00	 9.982002e+00
0	 2.857143e+00	 8.571429e+00	 1.000259e+01
0	 2.857143e+00	 8.642857e+00	 1.000243e+01
0	 2.857143e+00	 8.714286e+00	 1.000226e+01
0	 2.857143e+00	 8.785714e+00	 1.000208e+01
0	 2.857143e+00	 8.857143e+00	 1.000191e+01
0	 2.857143e+00	 8.928571e+00	 1.000173e+01
0	 2.928571e+00	 8.571429e+00	 9.998171e+00
0	 2.928571e+00	 8.642857e+00	 9.998338e+00
0	 2.928571e+00	 8.714286e+00	 9.998518e+00
0	 2.928571e+00	 8.785714e+00	 9.998709e+00
0	 2.928571e+00	 8.857143e+00	 9.998913e+00
0	 2.928571e+00	 8.928571e+00	 9.999128e+00
0	 3.000000e+00	 8.571429e+00	 9.993901e+00
0	 3.000000e+00	 8.642857e+00	 9.994390e+00
0	 3.000000e+00	 8.714286e+00	 9.994907e+00
0	 3.000000e+00	 8.785714e+00	 9.995451e+00
0	 3.000000e+00	 8.857143e+00	 9.996021e+00
0	 3.000000e+00	 8.928571e+00	 9.996619e+00
0	 3.071429e+00	 8.571429e+00	 9.989782e+00
0	 3.071429e+00	 8.642857e+00	 9.990582e+00
0	 3.071429e+00	 8.714286e+00	 9.991424e+00
0	 3.071429e+00	 8.785714e+00	 9.992308e+00
0	 3.071429e+00	 8.857143e+00	 9.993233e+00
0	 3.071429e+00	 8.928571e+00	 9.994200e+00
0	 3.142857e+00	 8.571429e+00	 9.985816e+00
0	 3.142857e+00	 8.642857e+00	 9.986914e+00
0	 3.142857e+00	 8.714286e+00	 9.988069e+00
0	 3.142857e+00	 8.785714e+00	 9.989280e+00
0	 3.142857e+00	 8.857143e+00	 9.990548e+00
0	 3.142857e+00	 8.928571e+00	 9.991872e+00
0	 3.214286e+00	 8.571429e+00	 9.982002e+00
0	 3.214286e+00	 8.642857e+00	 9.983386e+00
0	 3.214286e+00	 8.714286e+00	 9.984841e+00
0	 3.214286e+00	 8.785714e+00	 9.986368e+00
0	 3.214286e+00	 8.857143e+00	 9.987966e+00
0	 3.214286e+00	 8.928571e+00	 9.989635e+00
0	 2.857143e+00	 8.928571e+00	 1.000173e+01
0	 2.857143e+00	 9.000000e+00	 1.000157e+01
0	 2.857143e+00	 9.071429e+00	 1.000138e+01
0	 2.857143e+00	 9.142857e+00	 1.000118e+01
0	 2.857143e+00	 9.214286e+00	 1.000095e+01
0	 2.857143e+00	 9.285714e+00	 1.000071e+01
0	 2.928571e+00	 8.928571e+00	 9.999128e+00
0	 2.928571e+00	 9.000000e+00	 9.999212e+00
0	 2.928571e+00	 9.071429e+00	 9.999293e+00
0	 2.928571e+00	 9.142857e+00	 9.999372e+00
0	 2.928571e+00	 9.214286e+00	 9.999448e+00
0	 2.928571e+00	 9.285714e+00	 9.999522e+00
0	 3.000000e+00	 8.928571e+00	 9.996619e+00
0	 3.000000e+00	 9.000000e+00	 9.996939e+00
0	 3.000000e+00	 9.071429e+00	 9.997276e+00
0	 3.000000e+00	 9.142857e+00	 9.997629e+00
0	 3.000000e+00	 9.214286e+00	 9.997998e+00
0	 3.000000e+00	 9.285714e+00	 9.998385e+00
0	 3.071429e+00	 8.928571e+00	 9.994200e+00
0	 3.071429e+00	 9.000000e+00	 9.994748e+00
0	 3.071429e+00	 9.071429e+00	 9.995332e+00
0	 3.071429e+00	 9.142857e+00	 9.995951e+00
0	 3.071429e+00	 9.214286e+00	 9.996605e+00
0	 3.071429e+00	 9.285714e+00	 9.997295e+00
0	 3.142857e+00	 8.928571e+00	 9.991872e+00
0	 3.142857e+00	 9.000000e+00	 9.992640e+00
0	 3.142857e+00	 9.071429e+00	 9.993462e+00
0	 3.142857e+00	 9.142857e+00	 9.994338e+00
0	 3.142857e+00	 9.214286e+00	 9.995269e+00
0	 3.142857e+00	 9.285714e+00	 9.996254e+00
0	 3.214286e+00	 8.928571e+00	 9.989635e+00
0	 3.214286e+00	 9.000000e+00	 9.990614e+00
0	 3.214286e+00	 9.071429e+00	 9.991666e+00
0	 3.214286e+00	 9.142857e+00	 9.992791e+00
0	 3.214286e+00	 9.214286e+00	 9.993989e+00
0	 3.214286e+00	 9.285714e+00	 9.995260e+00
0	 2.857143e+00	 9.285714e+00	 1.000071e+01
0	 2.857143e+00	 9.357143e+00	 1.000064e+01
0	 2.857143e+00	 9.428571e+00	 1.000054e+01
0	 2.857143e+00	 9.500000e+00	 1.000041e+01
0	 2.857143e+00	 9.571429e+00	 1.000025e+01
0	 2.857143e+00	 9.642857e+00	 1.000006e+01
0	 2.928571e+00	 9.285714e+00	 9.999522e+00
0	 2.928571e+00	 9.357143e+00	 9.999591e+00
0	 2.928571e+00	 9.428571e+00	 9.999655e+00
0	 2.928571e+00	 9.500000e+00	 9.999714e+00
0	 2.928571e+00	 9.571429e+00	 9.999769e+00
0	 2.928571e+00	 9.642857e+00	 9.999818e+00
0	 3.000000e+00	 9.285714e+00	 9.998385e+00
0	 3.000000e+00	 9.357143e+00	 9.998589e+00
0	 3.000000e+00	 9.428571e+00	 9.998813e+00
0	 3.000000e+00	 9.500000e+00	 9.999056e+00
0	 3.000000e+00	 9.571429e+00	 9.999319e+00
0	 3.000000e+00	 9.642857e+00	 9.999600e+00
0	 3.071429e+00	 9.285714e+00	 9.997295e+00
0	 3.071429e+00	 9.357143e+00	 9.997631e+00
0	 3.071429e+00	 9.428571e+00	 9.998010e+00
0	 3.071429e+00	 9.500000e+00	 9.998433e+00
0	 3.071429e+00	 9.571429e+00	 9.998899e+00
0	 3.071429e+00	 9.642857e+00	 9.999409e+00
0	 3.142857e+00	 9.285714e+00	 9.996254e+00
0	 3.142857e+00	 9.357143e+00	 9.996716e+00
0	 3.142857e+00	 9.428571e+00	 9.997246e+00
0	 3.142857e+00	 9.500000e+00	 9.997844e+00
0	 3.142857e+00	 9.571429e+00	 9.998510e+00
0	 3.142857e+00	 9.642857e+00	 9.999243e+00
0	 3.214286e+00	 9.285714e+00	 9.995260e+00
0	 3.214286e+00	 9.357143e+00	 9.995845e+00
0	 3.214286e+00	 9.428571e+00	 9.996522e+00
0	 3.214286e+00	 9.500000e+00	 9.997290e+00
0	 3.214286e+00	 9.571429e+00	 9.998151e+00
0	 3.214286e+00	 9.642857e+00	 9.999103e+00
0	 2.857143e+00	 9.642857e+00	 1.000006e+01
0	 2.857143e+00	 9.714286e+00	 1.000008e+01
0	 2.857143e+00	 9.785714e+00	 1.000007e+01
0	 2.857143e+00	 9.857143e+00	 1.000004e+01
0	 2.857143e+00	 9.928571e+00	 9.999989e+00
0	 2.857143e+00	 1.000000e+01	 9.999918e+00
0	 2.928571e+00	 9.642857e+00	 9.999818e+00
0	 2.928571e+00	 9.714286e+00	 9.999836e+00
0	 2.928571e+00	 9.785714e+00	 9.999864e+00
0	 2.928571e+00	 9.857143e+00	 9.999903e+00
0	 2.928571e+00	 9.928571e+00	 9.999951e+00
0	 2.928571e+00	 1.000000e+01	 1.000001e+01
0	 3.000000e+00	 9.642857e+00	 9.999600e+00
0	 3.000000e+00	 9.714286e+00	 9.999624e+00
0	 3.000000e+00	 9.785714e+00	 9.999689e+00
0	 3.000000e+00	 9.857143e+00	 9.999795e+00
0	 3.000000e+00	 9.928571e+00	 9.999942e+00
0	 3.000000e+00	 1.000000e+01	 1.000013e+01
0	 3.071429e+00	 9.642857e+00	 9.999409e+00
0	 3.071429e+00	 9.714286e+00	 9.999439e+00
0	 3.071429e+00	 9.785714e+00	 9.999541e+00
0	 3.071429e+00	 9.857143e+00	 9.999716e+00
0	 3.071429e+00	 9.928571e+00	 9.999963e+00
0	 3.071429e+00	 1.000000e+01	 1.000028e+01
0	 3.142857e+00	 9.642857e+00	 9.999243e+00
0	 3.142857e+00	 9.714286e+00	 9.999280e+00
0	 3.142857e+00	 9.785714e+00	 9.999421e+00
0	 3.142857e+00	 9.857143e+00	 9.999665e+00
0	 3.142857e+00	 9.928571e+00	 1.000001e+01
0	 3.142857e+00	 1.000000e+01	 1.000047e+01
0	 3.214286e+00	 9.642857e+00	 9.999103e+00
0	 3.214286e+00	 9.714286e+00	 9.999148e+00
0	 3.214286e+00	 9.785714e+00	 9.999329e+00
0	 3.214286e+00	 9.857143e+00	 9.999644e+00
0	 3.214286e+00	 9.928571e+00	 1.000009e+01
0	 3.214286e+00	 1.000000e+01	 1.000068e+01
0	 3.214286e+00	 0.000000e+00	 8.497804e+00
0	 3.214286e+00	 7.142857e-02	 8.474000e+00
0	 3.214286e+00	 1.428571e-01	 8.462396e+00
0	 3.214286e+00	 2.142857e-01	 8.462993e+00
0	 3.214286e+00	 2.857143e-01	 8.475789e+00
0	 3.214286e+00	 3.571429e-01	 8.500786e+00
0	 3.285714e+00	 0.000000e+00	 8.669890e+00
0	 3.285714e+00	 7.142857e-02	 8.653772e+00
0	 3.285714e+00	 1.428571e-01	 8.649681e+00
0	 3.285714e+00	 2.142857e-01	 8.657618e+00
0	 3.285714e+00	 2.857143e-01	 8.677583e+00
0	 3.285714e+00	 3.571429e-01	 8.709575e+00
0	 3.357143e+00	 0.000000e+00	 8.825138e+00
0	 3.357143e+00	 7.142857e-02	 8.813783e+00
0	 3.357143e+00	 1.428571e-01	 8.814285e+00
0	 3.357143e+00	 2.142857e-01	 8.826641e+00
0	 3.357143e+00	 2.857143e-01	 8.850854e+00
0	 3.357143e+00	 3.571429e-01	 8.886921e+00
0	 3.428571e+00	 0.000000e+00	 8.963546e+00
0	 3.428571e+00	 7.142857e-02	 8.954035e+00
0	 3.428571e+00	 1.428571e-01	 8.956208e+00
0	 3.428571e+00	 2.142857e-01	 8.970063e+00
0	 3.428571e+00	 2.857143e-01	 8.995602e+00
0	 3.428571e+00	 3.571429e-01	 9.032824e+00
0	 3.500000e+00	 0.000000e+00	 9.085115e+00
0	 3.500000e+00	 7.142857e-02	 9.074527e+00
0	 3.500000e+00	 1.428571e-01	 9.075450e+00
0	 3.500000e+00	 2.142857e-01	 9.087884e+00
0	 3.500000e+00	 2.857143e-01	 9.111828e+00
0	 3.500000e+00	 3.571429e-01	 9.147283e+00
0	 3.571429e+00	 0.000000e+00	 9.189846e+00
0	 3.571429e+00	 7.142857e-02	 9.175259e+00
0	 3.571429e+00	 1.428571e-01	 9.172011e+00
0	 3.571429e+00	 2.142857e-01	 9.180102e+00
0	 3.571429e+00	 2.857143e-01	 9.199531e+00
0	 3.571429e+00	 3.571429e-01	 9.230299e+00
0	 3.214286e+00	 3.571429e-01	 8.500786e+00
0	 3.214286e+00	 4.285714e-01	 8.494189e+00
0	 3.214286e+00	 5.000000e-01	 8.512763e+00
0	 3.214286e+00	 5.714286e-01	 8.556507e+00
0	 3.214286e+00	 6.428571e-01	 8.625422e+00
0	 3.214286e+00	 7.142857e-01	 8.719508e+00
0	 3.285714e+00	 3.571429e-01	 8.709575e+00
0	 3.285714e+00	 4.285714e-01	 8.669585e+00
0	 3.285714e+00	 5.000000e-01	 8.651788e+00
0	 3.285714e+00	 5.714286e-01	 8.656183e+00
0	 3.285714e+00	 6.428571e-01	 8.682771e+00
0	 3.285714e+00	 7.142857e-01	 8.731551e+00
0	 3.357143e+00	 3.571429e-01	 8.886921e+00
0	 3.357143e+00	 4.285714e-01	 8.824571e+00
0	 3.357143e+00	 5.000000e-01	 8.781435e+00
0	 3.357143e+00	 5.714286e-01	 8.757514e+00
0	 3.357143e+00	 6.428571e-01	 8.752807e+00
0	 3.357143e+00	 7.142857e-01	 8.767315e+00
0	 3.428571e+00	 3.571429e-01	 9.032824e+00
0	 3.428571e+00	 4.285714e-01	 8.959146e+00
0	 3.428571e+00	 5.000000e-01	 8.901704e+00
0	 3.428571e+00	 5.714286e-01	 8.860499e+00
0	 3.428571e+00	 6.428571e-01	 8.835530e+00
0	 3.428571e+00	 7.142857e-01	 8.826798e+00
0	 3.500000e+00	 3.571429e-01	 9.147283e+00
0	 3.500000e+00	 4.285714e-01	 9.073310e+00
0	 3.500000e+00	 5.000000e-01	 9.012596e+00
0	 3.500000e+00	 5.714286e-01	 8.965139e+00
0	 3.500000e+00	 6.428571e-01	 8.930941e+00
0	 3.500000e+00	 7.142857e-01	 8.910001e+00
0	 3.571429e+00	 3.571429e-01	 9.230299e+00
0	 3.571429e+00	 4.285714e-01	 9.167064e+00
0	 3.571429e+00	 5.000000e-01	 9.114109e+00
0	 3.571429e+00	 5.714286e-01	 9.071434e+00
0	 3.571429e+00	 6.428571e-01	 9.039039e+00
0	 3.571429e+00	 7.142857e-01	 9.016925e+00
0	 3.214286e+00	 7.142857e-01	 8.719508e+00
0	 3.214286e+00	 7.857143e-01	 8.605621e+00
0	 3.214286e+00	 8.571429e-01	 8.504428e+00
0	 3.214286e+00	 9.285714e-01	 8.415929e+00
0	 3.214286e+00	 1.000000e+00	 8.340124e+00
0	 3.214286e+00	 1.071429e+00	 8.277014e+00
0	 3.285714e+00	 7.142857e-01	 8.731551e+00
0	 3.285714e+00	 7.857143e-01	 8.639940e+00
0	 3.285714e+00	 8.571429e-01	 8.560073e+00
0	 3.285714e+00	 9.285714e-01	 8.491949e+00
0	 3.285714e+00	 1.000000e+00	 8.435569e+00
0	 3.285714e+00	 1.071429e+00	 8.390933e+00
0	 3.357143e+00	 7.142857e-01	 8.767315e+00
0	 3.357143e+00	 7.857143e-01	 8.690785e+00
0	 3.357143e+00	 8.571429e-01	 8.625050e+00
0	 3.357143e+00	 9.285714e-01	 8.570107e+00
0	 3.357143e+00	 1.000000e+00	 8.525958e+00
0	 3.357143e+00	 1.071429e+00	 8.492602e+00
0	 3.428571e+00	 7.142857e-01	 8.826798e+00
0	 3.428571e+00	 7.857143e-01	 8.758157e+00
0	 3.428571e+00	 8.571429e-01	 8.699358e+00
0	 3.428571e+00	 9.285714e-01	 8.650403e+00
0	 3.428571e+00	 1.000000e+00	 8.611290e+00
0	 3.428571e+00	 1.071429e+00	 8.582020e+00
0	 3.500000e+00	 7.142857e-01	 8.910001e+00
0	 3.500000e+00	 7.857143e-01	 8.842054e+00
0	 3.500000e+00	 8.571429e-01	 8.782999e+00
0	 3.500000e+00	 9.285714e-01	 8.732836e+00
0	 3.500000e+00	 1.000000e+00	 8.691566e+00
0	 3.500000e+00	 1.071429e+00	 8.659188e+00
0	 3.571429e+00	 7.142857e-01	 9.016925e+00
0	 3.571429e+00	 7.857143e-01	 8.942477e+00
0	 3.571429e+00	 8.571429e-01	 8.875971e+00
0	 3.571429e+00	 9.285714e-01	 8.817407e+00
0	 3.571429e+00	 1.000000e+00	 8.766785e+00
0	 3.571429e+00	 1.071429e+00	 8.724105e+00
0	 3.214286e+00	 1.071429e+00	 8.277014e+00
0	 3.214286e+00	 1.142857e+00	 8.195266e+00
0	 3.214286e+00	 1.214286e+00	 8.108970e+00
0	 3.214286e+00	 1.285714e+00	 8.018127e+00
0	 3.214286e+00	 1.357143e+00	 7.922736e+00
0	 3.214286e+00	 1.428571e+00	 7.822797e+00
0	 3.285714e+00	 1.071429e+00	 8.390933e+00
0	 3.285714e+00	 1.142857e+00	 8.309583e+00
0	 3.285714e+00	 1.214286e+00	 8.225273e+00
0	 3.285714e+00	 1.285714e+00	 8.138001e+00
0	 3.285714e+00	 1.357143e+00	 8.047769e+00
0	 3.285714e+00	 1.428571e+00	 7.954576e+00
0	 3.357143e+00	 1.071429e+00	 8.492602e+00
0	 3.357143e+00	 1.142857e+00	 8.411060e+00
0	 3.357143e+00	 1.214286e+00	 8.328144e+00
0	 3.357143e+00	 1.285714e+00	 8.243854e+00
0	 3.357143e+00	 1.357143e+00	 8.158190e+00
0	 3.357143e+00	 1.428571e+00	 8.071153e+00
0	 3.428571e+00	 1.071429e+00	 8.582020e+00
0	 3.428571e+00	 1.142857e+00	 8.499695e+00
0	 3.428571e+00	 1.214286e+00	 8.417584e+00
0	 3.428571e+00	 1.285714e+00	 8.335685e+00
0	 3.428571e+00	 1.357143e+00	 8.254000e+00
0	 3.428571e+00	 1.428571e+00	 8.172528e+00
0	 3.500000e+00	 1.071429e+00	 8.659188e+00
0	 3.500000e+00	 1.142857e+00	 8.575490e+00
0	 3.500000e+00	 1.214286e+00	 8.493592e+00
0	 3.500000e+00	 1.285714e+00	 8.413495e+00
0	 3.500000e+00	 1.357143e+00	 8.335198e+00
0	 3.500000e+00	 1.428571e+00	 8.258701e+00
0	 3.571429e+00	 1.071429e+00	 8.724105e+00
0	 3.571429e+00	 1.142857e+00	 8.638444e+00
0	 3.571429e+00	 1.214286e+00	 8.556170e+00
0	 3.571429e+00	 1.285714e+00	 8.477284e+00
0	 3.571429e+00	 1.357143e+00	 8.401784e+00
0	 3.571429e+00	 1.428571e+00	 8.329672e+00
0	 3.214286e+00	 1.428571e+00	 7.822797e+00
0	 3.214286e+00	 1.500000e+00	 7.794423e+00
0	 3.214286e+00	 1.571429e+00	 7.758291e+00
0	 3.214286e+00	 1.642857e+00	 7.714399e+00
0	 3.214286e+00	 1.714286e+00	 7.662749e+00
0	 3.214286e+00	 1.785714e+00	 7.603341e+00
0	 3.285714e+00	 1.428571e+00	 7.954576e+00
0	 3.285714e+00	 1.500000e+00	 7.914829e+00
0	 3.285714e+00	 1.571429e+00	 7.867401e+00
0	 3.285714e+00	 1.642857e+00	 7.812292e+00
0	 3.285714e+00	 1.714286e+00	 7.749502e+00
0	 3.285714e+00	 1.785714e+00	 7.679031e+00
0	 3.357143e+00	 1.428571e+00	 8.071153e+00
0	 3.357143e+00	 1.500000e+00	 8.023672e+00
0	 3.357143e+00	 1.571429e+00	 7.968588e+00
0	 3.357143e+00	 1.642857e+00	 7.905901e+00
0	 3.357143e+00	 1.714286e+00	 7.835610e+00
0	 3.357143e+00	 1.785714e+00	 7.757717e+00
0	 3.428571e+00	 1.428571e+00	 8.172528e+00
0	 3.428571e+00	 1.500000e+00	 8.120953e+00
0	 3.428571e+00	 1.571429e+00	 8.061852e+00
0	 3.428571e+00	 1.642857e+00	 7.995226e+00
0	 3.428571e+00	 1.714286e+00	 7.921075e+00
0	 3.428571e+00	 1.785714e+00	 7.839398e+00
0	 3.500000e+00	 1.428571e+00	 8.258701e+00
0	 3.500000e+00	 1.500000e+00	 8.206671e+00
0	 3.500000e+00	 1.571429e+00	 8.147193e+00
0	 3.500000e+00	 1.642857e+00	 8.080268e+00
0	 3.500000e+00	 1.714286e+00	 8.005896e+00
0	 3.500000e+00	 1.785714e+00	 7.924076e+00
0	 3.571429e+00	 1.428571e+00	 8.329672e+00
0	 3.571429e+00	 1.500000e+00	 8.280827e+00
0	 3.571429e+00	 1.571429e+00	 8.224612e+00
0	 3.571429e+00	 1.642857e+00	 8.161027e+00
0	 3.571429e+00	 1.714286e+00	 8.090073e+00
0	 3.571429e+00	 1.785714e+00	 8.011749e+00
0	 3.214286e+00	 1.785714e+00	 7.603341e+00
0	 3.214286e+00	 1.857143e+00	 7.612559e+00
0	 3.214286e+00	 1.928571e+00	 7.609716e+00
0	 3.214286e+00	 2.000000e+00	 7.594813e+00
0	 3.214286e+00	 2.071429e+00	 7.567848e+00
0	 3.214286e+00	 2.142857e+00	 7.528822e+00
0	 3.285714e+00	 1.785714e+00	 7.679031e+00
0	 3.285714e+00	 1.857143e+00	 7.690281e+00
0	 3.285714e+00	 1.928571e+00	 7.690090e+00
0	 3.285714e+00	 2.000000e+00	 7.678456e+00
0	 3.285714e+00	 2.071429e+00	 7.655381e+00
0	 3.285714e+00	 2.142857e+00	 7.620863e+00
0	 3.357143e+00	 1.785714e+00	 7.757717e+00
0	 3.357143e+00	 1.857143e+00	 7.768780e+00
0	 3.357143e+00	 1.928571e+00	 7.769021e+00
0	 3.357143e+00	 2.000000e+00	 7.758439e+00
0	 3.357143e+00	 2.071429e+00	 7.737034e+00
0	 3.357143e+00	 2.142857e+00	 7.704807e+00
0	 3.428571e+00	 1.785714e+00	 7.839398e+00
0	 3.428571e+00	 1.857143e+00	 7.848057e+00
0	 3.428571e+00	 1.928571e+00	 7.846511e+00
0	 3.428571e+00	 2.000000e+00	 7.834762e+00
0	 3.428571e+00	 2.071429e+00	 7.812809e+00
0	 3.428571e+00	 2.142857e+00	 7.780652e+00
0	 3.500000e+00	 1.785714e+00	 7.924076e+00
0	 3.500000e+00	 1.857143e+00	 7.928110e+00
0	 3.500000e+00	 1.928571e+00	 7.922559e+00
0	 3.500000e+00	 2.000000e+00	 7.907424e+00
0	 3.500000e+00	 2.071429e+00	 7.882704e+00
0	 3.500000e+00	 2.142857e+00	 7.848399e+00
0	 3.571429e+00	 1.785714e+00	 8.011749e+00
0	 3.571429e+00	 1.857143e+00	 8.008940e+00
0	 3.571429e+00	 1.928571e+00	 7.997166e+00
0	 3.571429e+00	 2.000000e+00	 7.976426e+00
0	 3.571429e+00	 2.071429e+00	 7.946720e+00
0	 3.571429e+00	 2.142857e+00	 7.908049e+00
0	 3.214286e+00	 2.142857e+00	 7.528822e+00
0	 3.214286e+00	 2.214286e+00	 7.604622e+00
0	 3.214286e+00	 2.285714e+00	 7.667013e+00
0	 3.214286e+00	 2.357143e+00	 7.715994e+00
0	 3.214286e+00	 2.428571e+00	 7.751565e+00
0	 3.214286e+00	 2.500000e+00	 7.773726e+00
0	 3.285714e+00	 2.142857e+00	 7.620863e+00
0	 3.285714e+00	 2.214286e+00	 7.679365e+00
0	 3.285714e+00	 2.285714e+00	 7.725682e+00
0	 3.285714e+00	 2.357143e+00	 7.759812e+00
0	 3.285714e+00	 2.428571e+00	 7.781757e+00
0	 3.285714e+00	 2.500000e+00	 7.791517e+00
0	 3.357143e+00	 2.142857e+00	 7.704807e+00
0	 3.357143e+00	 2.214286e+00	 7.749192e+00
0	 3.357143e+00	 2.285714e+00	 7.782616e+00
0	 3.357143e+00	 2.357143e+00	 7.805078e+00
0	 3.357143e+00	 2.428571e+00	 7.816579e+00
0	 3.357143e+00	 2.500000e+00	 7.817118e+00
0	 3.428571e+00	 2.142857e+00	 7.780652e+00
0	 3.428571e+00	 2.214286e+00	 7.814102e+00
0	 3.428571e+00	 2.285714e+00	 7.837815e+00
0	 3.428571e+00	 2.357143e+00	 7.851791e+00
0	 3.428571e+00	 2.428571e+00	 7.856029e+00
0	 3.428571e+00	 2.500000e+00	 7.850529e+00
0	 3.500000e+00	 2.142857e+00	 7.848399e+00
0	 3.500000e+00	 2.214286e+00	 7.874097e+00
0	 3.500000e+00	 2.285714e+00	 7.891280e+00
0	 3.500000e+00	 2.357143e+00	 7.899951e+00
0	 3.500000e+00	 2.428571e+00	 7.900108e+00
0	 3.500000e+00	 2.500000e+00	 7.891751e+00
0	 3.571429e+00	 2.142857e+00	 7.908049e+00
0	 3.571429e+00	 2.214286e+00	 7.929175e+00
0	 3.571429e+00	 2.285714e+00	 7.943011e+00
0	 3.571429e+00	 2.357143e+00	 7.949558e+00
0	 3.571429e+00	 2.428571e+00	 7.948816e+00
0	 3.571429e+00	 2.500000e+00	 7.940784e+00
0	 3.214286e+00	 2.500000e+00	 7.773726e+00
0	 3.214286e+00	 2.571429e+00	 7.836320e+00
0	 3.214286e+00	 2.642857e+00	 7.894253e+00
0	 3.214286e+00	 2.714286e+00	 7.947526e+00
0	 3.214286e+00	 2.785714e+00	 7.996139e+00
0	 3.214286e+00	 2.857143e+00	 8.040092e+00
0	 3.285714e+00	 2.500000e+00	 7.791517e+00
0	 3.285714e+00	 2.571429e+00	 7.853939e+00
0	 3.285714e+00	 2.642857e+00	 7.911226e+00
0	 3.285714e+00	 2.714286e+00	 7.963377e+00
0	 3.285714e+00	 2.785714e+00	 8.010393e+00
0	 3.285714e+00	 2.857143e+00	 8.052273e+00
0	 3.357143e+00	 2.500000e+00	 7.817118e+00
0	 3.357143e+00	 2.571429e+00	 7.878252e+00
0	 3.357143e+00	 2.642857e+00	 7.933774e+00
0	 3.357143e+00	 2.714286e+00	 7.983686e+00
0	 3.357143e+00	 2.785714e+00	 8.027987e+00
0	 3.357143e+00	 2.857143e+00	 8.066677e+00
0	 3.428571e+00	 2.500000e+00	 7.850529e+00
0	 3.428571e+00	 2.571429e+00	 7.909257e+00
0	 3.428571e+00	 2.642857e+00	 7.961898e+00
0	 3.428571e+00	 2.714286e+00	 8.008453e+00
0	 3.428571e+00	 2.785714e+00	 8.048922e+00
0	 3.428571e+00	 2.857143e+00	 8.083304e+00
0	 3.500000e+00	 2.500000e+00	 7.891751e+00
0	 3.500000e+00	 2.571429e+00	 7.946955e+00
0	 3.500000e+00	 2.642857e+00	 7.995598e+00
0	 3.500000e+00	 2.714286e+00	 8.037678e+00
0	 3.500000e+00	 2.785714e+00	 8.073197e+00
0	 3.500000e+00	 2.857143e+00	 8.102154e+00
0	 3.571429e+00	 2.500000e+00	 7.940784e+00
0	 3.571429e+00	 2.571429e+00	 7.991347e+00
0	 3.571429e+00	 2.642857e+00	 8.034873e+00
0	 3.571429e+00	 2.714286e+00	 8.071362e+00
0	 3.571429e+00	 2.785714e+00	 8.100813e+00
0	 3.571429e+00	 2.857143e+00	 8.123228e+00
0	 3.214286e+00	 2.857143e+00	 8.040092e+00
0	 3.214286e+00	 2.928571e+00	 8.118836e+00
0	 3.214286e+00	 3.000000e+00	 8.192381e+00
0	 3.214286e+00	 3.071429e+00	 8.260726e+00
0	 3.214286e+00	 3.142857e+00	 8.323871e+00
0	 3.214286e+00	 3.214286e+00	 8.381817e+00
0	 3.285714e+00	 2.857143e+00	 8.052273e+00
0	 3.285714e+00	 2.928571e+00	 8.122824e+00
0	 3.285714e+00	 3.000000e+00	 8.188526e+00
0	 3.285714e+00	 3.071429e+00	 8.249378e+00
0	 3.285714e+00	 3.142857e+00	 8.305381e+00
0	 3.285714e+00	 3.214286e+00	 8.356534e+00
0	 3.357143e+00	 2.857143e+00	 8.066677e+00
0	 3.357143e+00	 2.928571e+00	 8.130290e+00
0	 3.357143e+00	 3.000000e+00	 8.189404e+00
0	 3.357143e+00	 3.071429e+00	 8.244019e+00
0	 3.357143e+00	 3.142857e+00	 8.294135e+00
0	 3.357143e+00	 3.214286e+00	 8.339751e+00
0	 3.428571e+00	 2.857143e+00	 8.083304e+00
0	 3.428571e+00	 2.928571e+00	 8.141234e+00
0	 3.428571e+00	 3.000000e+00	 8.195016e+00
0	 3.428571e+00	 3.071429e+00	 8.244648e+00
0	 3.428571e+00	 3.142857e+00	 8.290131e+00
0	 3.428571e+00	 3.214286e+00	 8.331466e+00
0	 3.500000e+00	 2.857143e+00	 8.102154e+00
0	 3.500000e+00	 2.928571e+00	 8.155657e+00
0	 3.500000e+00	 3.000000e+00	 8.205360e+00
0	 3.500000e+00	 3.071429e+00	 8.251266e+00
0	 3.500000e+00	 3.142857e+00	 8.293372e+00
0	 3.500000e+00	 3.214286e+00	 8.331680e+00
0	 3.571429e+00	 2.857143e+00	 8.123228e+00
0	 3.571429e+00	 2.928571e+00	 8.173557e+00
0	 3.571429e+00	 3.000000e+00	 8.220439e+00
0	 3.571429e+00	 3.071429e+00	 8.263871e+00
0	 3.571429e+00	 3.142857e+00	 8.303856e+00
0	 3.571429e+00	 3.214286e+00	 8.340392e+00
0	 3.214286e+00	 3.214286e+00	 8.381817e+00
0	 3.214286e+00	 3.285714e+00	 8.442672e+00
0	 3.214286e+00	 3.357143e+00	 8.502573e+00
0	 3.214286e+00	 3.428571e+00	 8.561519e+00
0	 3.214286e+00	 3.500000e+00	 8.619511e+00
0	 3.214286e+00	 3.571429e+00	 8.676548e+00
0	 3.285714e+00	 3.214286e+00	 8.356534e+00
0	 3.285714e+00	 3.285714e+00	 8.417417e+00
0	 3.285714e+00	 3.357143e+00	 8.476975e+00
0	 3.285714e+00	 3.428571e+00	 8.535208e+00
0	 3.285714e+00	 3.500000e+00	 8.592117e+00
0	 3.285714e+00	 3.571429e+00	 8.647701e+00
0	 3.357143e+00	 3.214286e+00	 8.339751e+00
0	 3.357143e+00	 3.285714e+00	 8.400069e+00
0	 3.357143e+00	 3.357143e+00	 8.458692e+00
0	 3.357143e+00	 3.428571e+00	 8.515620e+00
0	 3.357143e+00	 3.500000e+00	 8.570853e+00
0	 3.357143e+00	 3.571429e+00	 8.624392e+00
0	 3.428571e+00	 3.214286e+00	 8.331466e+00
0	 3.428571e+00	 3.285714e+00	 8.390627e+00
0	 3.428571e+00	 3.357143e+00	 8.447723e+00
0	 3.428571e+00	 3.428571e+00	 8.502755e+00
0	 3.428571e+00	 3.500000e+00	 8.555721e+00
0	 3.428571e+00	 3.571429e+00	 8.606622e+00
0	 3.500000e+00	 3.214286e+00	 8.331680e+00
0	 3.500000e+00	 3.285714e+00	 8.389092e+00
0	 3.500000e+00	 3.357143e+00	 8.444070e+00
0	 3.500000e+00	 3.428571e+00	 8.496612e+00
0	 3.500000e+00	 3.500000e+00	 8.546719e+00
0	 3.500000e+00	 3.571429e+00	 8.594391e+00
0	 3.571429e+00	 3.214286e+00	 8.340392e+00
0	 3.571429e+00	 3.285714e+00	 8.395464e+00
0	 3.571429e+00	 3.357143e+00	 8.447731e+00
0	 3.571429e+00	 3.428571e+00	 8.497192e+00
0	 3.571429e+00	 3.500000e+00	 8.543848e+00
0	 3.571429e+00	 3.571429e+00	 8.587699e+00
0	 3.214286e+00	 3.571429e+00	 8.676548e+00
0	 3.214286e+00	 3.642857e+00	 8.732714e+00
0	 3.214286e+00	 3.714286e+00	 8.787823e+00
0	 3.214286e+00	 3.785714e+00	 8.841877e+00
0	 3.214286e+00	 3.857143e+00	 8.894874e+00
0	 3.214286e+00	 3.928571e+00	 8.946815e+00
0	 3.285714e+00	 3.571429e+00	 8.647701e+00
0	 3.285714e+00	 3.642857e+00	 8.701905e+00
0	 3.285714e+00	 3.714286e+00	 8.755060e+00
0	 3.285714e+00	 3.785714e+00	 8.807164e+00
0	 3.285714e+00	 3.857143e+00	 8.858219e+00
0	 3.285714e+00	 3.928571e+00	 8.908224e+00
0	 3.357143e+00	 3.571429e+00	 8.624392e+00
0	 3.357143e+00	 3.642857e+00	 8.676784e+00
0	 3.357143e+00	 3.714286e+00	 8.728133e+00
0	 3.357143e+00	 3.785714e+00	 8.778439e+00
0	 3.357143e+00	 3.857143e+00	 8.827700e+00
0	 3.357143e+00	 3.928571e+00	 8.875919e+00
0	 3.428571e+00	 3.571429e+00	 8.606622e+00
0	 3.428571e+00	 3.642857e+00	 8.657352e+00
0	 3.428571e+00	 3.714286e+00	 8.707044e+00
0	 3.428571e+00	 3.785714e+00	 8.755699e+00
0	 3.428571e+00	 3.857143e+00	 8.803317e+00
0	 3.428571e+00	 3.928571e+00	 8.849898e+00
0	 3.500000e+00	 3.571429e+00	 8.594391e+00
0	 3.500000e+00	 3.642857e+00	 8.643607e+00
0	 3.500000e+00	 3.714286e+00	 8.691792e+00
0	 3.500000e+00	 3.785714e+00	 8.738947e+00
0	 3.500000e+00	 3.857143e+00	 8.785070e+00
0	 3.500000e+00	 3.928571e+00	 8.830163e+00
0	 3.571429e+00	 3.571429e+00	 8.587699e+00
0	 3.571429e+00	 3.642857e+00	 8.635550e+00
0	 3.571429e+00	 3.714286e+00	 8.682378e+00
0	 3.571429e+00	 3.785714e+00	 8.728181e+00
0	 3.571429e+00	 3.857143e+00	 8.772959e+00
0	 3.571429e+00	 3.928571e+00	 8.816713e+00
0	 3.214286e+00	 3.928571e+00	 8.946815e+00
0	 3.214286e+00	 4.000000e+00	 8.990771e+00
0	 3.214286e+00	 4.071429e+00	 9.034902e+00
0	 3.214286e+00	 4.142857e+00	 9.079206e+00
0	 3.214286e+00	 4.214286e+00	 9.123685e+00
0	 3.214286e+00	 4.285714e+00	 9.168338e+00
0	 3.285714e+00	 3.928571e+00	 8.908224e+00
0	 3.285714e+00	 4.000000e+00	 8.952683e+00
0	 3.285714e+00	 4.071429e+00	 8.997147e+00
0	 3.285714e+00	 4.142857e+00	 9.041616e+00
0	 3.285714e+00	 4.214286e+00	 9.086090e+00
0	 3.285714e+00	 4.285714e+00	 9.130569e+00
0	 3.357143e+00	 3.928571e+00	 8.875919e+00
0	 3.357143e+00	 4.000000e+00	 8.920570e+00
0	 3.357143e+00	 4.071429e+00	 8.965058e+00
0	 3.357143e+00	 4.142857e+00	 9.009381e+00
0	 3.357143e+00	 4.214286e+00	 9.053540e+00
0	 3.357143e+00	 4.285714e+00	 9.097534e+00
0	 3.428571e+00	 3.928571e+00	 8.849898e+00
0	 3.428571e+00	 4.000000e+00	 8.894432e+00
0	 3.428571e+00	 4.071429e+00	 8.938633e+00
0	 3.428571e+00	 4.142857e+00	 8.982500e+00
0	 3.428571e+00	 4.214286e+00	 9.026034e+00
0	 3.428571e+00	 4.285714e+00	 9.069234e+00
0	 3.500000e+00	 3.928571e+00	 8.830163e+00
0	 3.500000e+00	 4.000000e+00	 8.874269e+00
0	 3.500000e+00	 4.071429e+00	 8.917873e+00
0	 3.500000e+00	 4.142857e+00	 8.960974e+00
0	 3.500000e+00	 4.214286e+00	 9.003572e+00
0	 3.500000e+00	 4.285714e+00	 9.045668e+00
0	 3.571429e+00	 3.928571e+00	 8.816713e+00
0	 3.571429e+00	 4.000000e+00	 8.860081e+00
0	 3.571429e+00	 4.071429e+00	 8.902778e+00
0	 3.571429e+00	 4.142857e+00	 8.944802e+00
0	 3.571429e+00	 4.214286e+00	 8.986155e+00
0	 3.571429e+00	 4.285714e+00	 9.026836e+00
0	 3.214286e+00	 4.285714e+00	 9.168338e+00
0	 3.214286e+00	 4.357143e+00	 9.204787e+00
0	 3.214286e+00	 4.428571e+00	 9.241392e+00
0	 3.214286e+00	 4.500000e+00	 9.278153e+00
0	 3.214286e+00	 4.571429e+00	 9.315070e+00
0	 3.214286e+00	 4.642857e+00	 9.352143e+00
0	 3.285714e+00	 4.285714e+00	 9.130569e+00
0	 3.285714e+00	 4.357143e+00	 9.167224e+00
0	 3.285714e+00	 4.428571e+00	 9.203990e+00
0	 3.285714e+00	 4.500000e+00	 9.240867e+00
0	 3.285714e+00	 4.571429e+00	 9.277854e+00
0	 3.285714e+00	 4.642857e+00	 9.314951e+00
0	 3.357143e+00	 4.285714e+00	 9.097534e+00
0	 3.357143e+00	 4.357143e+00	 9.134278e+00
0	 3.357143e+00	 4.428571e+00	 9.171087e+00
0	 3.357143e+00	 4.500000e+00	 9.207961e+00
0	 3.357143e+00	 4.571429e+00	 9.244900e+00
0	 3.357143e+00	 4.642857e+00	 9.281904e+00
0	 3.428571e+00	 4.285714e+00	 9.069234e+00
0	 3.428571e+00	 4.357143e+00	 9.105949e+00
0	 3.428571e+00	 4.428571e+00	 9.142683e+00
0	 3.428571e+00	 4.500000e+00	 9.179437e+00
0	 3.428571e+00	 4.571429e+00	 9.216211e+00
0	 3.428571e+00	 4.642857e+00	 9.253003e+00
0	 3.500000e+00	 4.285714e+00	 9.045668e+00
0	 3.500000e+00	 4.357143e+00	 9.082236e+00
0	 3.500000e+00	 4.428571e+00	 9.118778e+00
0	 3.500000e+00	 4.500000e+00	 9.155294e+00
0	 3.500000e+00	 4.571429e+00	 9.191784e+00
0	 3.500000e+00	 4.642857e+00	 9.228248e+00
0	 3.571429e+00	 4.285714e+00	 9.026836e+00
0	 3.571429e+00	 4.357143e+00	 9.063140e+00
0	 3.571429e+00	 4.428571e+00	 9.099372e+00
0	 3.571429e+00	 4.500000e+00	 9.135533e+00
0	 3.571429e+00	 4.571429e+00	 9.171621e+00
0	 3.571429e+00	 4.642857e+00	 9.207638e+00
0	 3.214286e+00	 4.642857e+00	 9.352143e+00
0	 3.214286e+00	 4.714286e+00	 9.380808e+00
0	 3.214286e+00	 4.785714e+00	 9.409879e+00
0	 3.214286e+00	 4.857143e+00	 9.439355e+00
0	 3.214286e+00	 4.928571e+00	 9.469237e+00
0	 3.214286e+00	 5.000000e+00	 9.499523e+00
0	 3.285714e+00	 4.642857e+00	 9.314951e+00
0	 3.285714e+00	 4.714286e+00	 9.344380e+00
0	 3.285714e+00	 4.785714e+00	 9.374146e+00
0	 3.285714e+00	 4.857143e+00	 9.404249e+00
0	 3.285714e+00	 4.928571e+00	 9.434690e+00
0	 3.285714e+00	 5.000000e+00	 9.465467e+00
0	 3.357143e+00	 4.642857e+00	 9.281904e+00
0	 3.357143e+00	 4.714286e+00	 9.311917e+00
0	 3.357143e+00	 4.785714e+00	 9.342199e+00
0	 3.357143e+00	 4.857143e+00	 9.372750e+00
0	 3.357143e+00	 4.928571e+00	 9.403569e+00
0	 3.357143e+00	 5.000000e+00	 9.434657e+00
0	 3.428571e+00	 4.642857e+00	 9.253003e+00
0	 3.428571e+00	 4.714286e+00	 9.283421e+00
0	 3.428571e+00	 4.785714e+00	 9.314039e+00
0	 3.428571e+00	 4.857143e+00	 9.344857e+00
0	 3.428571e+00	 4.928571e+00	 9.375875e+00
0	 3.428571e+00	 5.000000e+00	 9.407093e+00
0	 3.500000e+00	 4.642857e+00	 9.228248e+00
0	 3.500000e+00	 4.714286e+00	 9.258890e+00
0	 3.500000e+00	 4.785714e+00	 9.289664e+00
0	 3.500000e+00	 4.857143e+00	 9.320570e+00
0	 3.500000e+00	 4.928571e+00	 9.351608e+00
0	 3.500000e+00	 5.000000e+00	 9.382777e+00
0	 3.571429e+00	 4.642857e+00	 9.207638e+00
0	 3.571429e+00	 4.714286e+00	 9.238325e+00
0	 3.571429e+00	 4.785714e+00	 9.269076e+00
0	 3.571429e+00	 4.857143e+00	 9.299889e+00
0	 3.571429e+00	 4.928571e+00	 9.330767e+00
0	 3.571429e+00	 5.000000e+00	 9.361708e+00
0	 3.214286e+00	 5.000000e+00	 9.499523e+00
0	 3.214286e+00	 5.071429e+00	 9.522339e+00
0	 3.214286e+00	 5.142857e+00	 9.545529e+00
0	 3.214286e+00	 5.214286e+00	 9.569094e+00
0	 3.214286e+00	 5.285714e+00	 9.593032e+00
0	 3.214286e+00	 5.357143e+00	 9.617345e+00
0	 3.285714e+00	 5.000000e+00	 9.465467e+00
0	 3.285714e+00	 5.071429e+00	 9.489008e+00
0	 3.285714e+00	 5.142857e+00	 9.512892e+00
0	 3.285714e+00	 5.214286e+00	 9.537120e+00
0	 3.285714e+00	 5.285714e+00	 9.561690e+00
0	 3.285714e+00	 5.357143e+00	 9.586603e+00
0	 3.357143e+00	 5.000000e+00	 9.434657e+00
0	 3.357143e+00	 5.071429e+00	 9.458802e+00
0	 3.357143e+00	 5.142857e+00	 9.483258e+00
0	 3.357143e+00	 5.214286e+00	 9.508027e+00
0	 3.357143e+00	 5.285714e+00	 9.533107e+00
0	 3.357143e+00	 5.357143e+00	 9.558498e+00
0	 3.428571e+00	 5.000000e+00	 9.407093e+00
0	 3.428571e+00	 5.071429e+00	 9.431720e+00
0	 3.428571e+00	 5.142857e+00	 9.456627e+00
0	 3.428571e+00	 5.214286e+00	 9.481814e+00
0	 3.428571e+00	 5.285714e+00	 9.507282e+00
0	 3.428571e+00	 5.357143e+00	 9.533029e+00
0	 3.500000e+00	 5.000000e+00	 9.382777e+00
0	 3.500000e+00	 5.071429e+00	 9.407763e+00
0	 3.500000e+00	 5.142857e+00	 9.432998e+00
0	 3.500000e+00	 5.214286e+00	 9.458482e+00
0	 3.500000e+00	 5.285714e+00	 9.484215e+00
0	 3.500000e+00	 5.357143e+00	 9.510197e+00
0	 3.571429e+00	 5.000000e+00	 9.361708e+00
0	 3.571429e+00	 5.071429e+00	 9.386931e+00
0	 3.571429e+00	 5.142857e+00	 9.412372e+00
0	 3.571429e+00	 5.214286e+00	 9.438031e+00
0	 3.571429e+00	 5.285714e+00	 9.463907e+00
0	 3.571429e+00	 5.357143e+00	 9.490001e+00
0	 3.214286e+00	 5.357143e+00	 9.617345e+00
0	 3.214286e+00	 5.428571e+00	 9.635157e+00
0	 3.214286e+00	 5.500000e+00	 9.653352e+00
0	 3.214286e+00	 5.571429e+00	 9.671928e+00
0	 3.214286e+00	 5.642857e+00	 9.690887e+00
0	 3.214286e+00	 5.714286e+00	 9.710228e+00
0	 3.285714e+00	 5.357143e+00	 9.586603e+00
0	 3.285714e+00	 5.428571e+00	 9.605216e+00
0	 3.285714e+00	 5.500000e+00	 9.624184e+00
0	 3.285714e+00	 5.571429e+00	 9.643506e+00
0	 3.285714e+00	 5.642857e+00	 9.663183e+00
0	 3.285714e+00	 5.714286e+00	 9.683215e+00
0	 3.357143e+00	 5.357143e+00	 9.558498e+00
0	 3.357143e+00	 5.428571e+00	 9.577800e+00
0	 3.357143e+00	 5.500000e+00	 9.597429e+00
0	 3.357143e+00	 5.571429e+00	 9.617385e+00
0	 3.357143e+00	 5.642857e+00	 9.637669e+00
0	 3.357143e+00	 5.714286e+00	 9.658281e+00
0	 3.428571e+00	 5.357143e+00	 9.533029e+00
0	 3.428571e+00	 5.428571e+00	 9.552908e+00
0	 3.428571e+00	 5.500000e+00	 9.573088e+00
0	 3.428571e+00	 5.571429e+00	 9.593567e+00
0	 3.428571e+00	 5.642857e+00	 9.614346e+00
0	 3.428571e+00	 5.714286e+00	 9.635426e+00
0	 3.500000e+00	 5.357143e+00	 9.510197e+00
0	 3.500000e+00	 5.428571e+00	 9.530542e+00
0	 3.500000e+00	 5.500000e+00	 9.551160e+00
0	 3.500000e+00	 5.571429e+00	 9.572051e+00
0	 3.500000e+00	 5.642857e+00	 9.593214e+00
0	 3.500000e+00	 5.714286e+00	 9.614650e+00
0	 3.571429e+00	 5.357143e+00	 9.490001e+00
0	 3.571429e+00	 5.428571e+00	 9.510701e+00
0	 3.571429e+00	 5.500000e+00	 9.531646e+00
0	 3.571429e+00	 5.571429e+00	 9.552836e+00
0	 3.571429e+00	 5.642857e+00	 9.574272e+00
0	 3.571429e+00	 5.714286e+00	 9.595953e+00
0	 3.214286e+00	 5.714286e+00	 9.710228e+00
0	 3.214286e+00	 5.785714e+00	 9.724089e+00
0	 3.214286e+00	 5.857143e+00	 9.738287e+00
0	 3.214286e+00	 5.928571e+00	 9.752821e+00
0	 3.214286e+00	 6.000000e+00	 9.767692e+00
0	 3.214286e+00	 6.071429e+00	 9.782899e+00
0	 3.285714e+00	 5.714286e+00	 9.683215e+00
0	 3.285714e+00	 5.785714e+00	 9.697835e+00
0	 3.285714e+00	 5.857143e+00	 9.712777e+00
0	 3.285714e+00	 5.928571e+00	 9.728041e+00
0	 3.285714e+00	 6.000000e+00	 9.743626e+00
0	 3.285714e+00	 6.071429e+00	 9.759533e+00
0	 3.357143e+00	 5.714286e+00	 9.658281e+00
0	 3.357143e+00	 5.785714e+00	 9.673574e+00
0	 3.357143e+00	 5.857143e+00	 9.689174e+00
0	 3.357143e+00	 5.928571e+00	 9.705081e+00
0	 3.357143e+00	 6.000000e+00	 9.721294e+00
0	 3.357143e+00	 6.071429e+00	 9.737815e+00
0	 3.428571e+00	 5.714286e+00	 9.635426e+00
0	 3.428571e+00	 5.785714e+00	 9.651306e+00
0	 3.428571e+00	 5.857143e+00	 9.667478e+00
0	 3.428571e+00	 5.928571e+00	 9.683942e+00
0	 3.428571e+00	 6.000000e+00	 9.700697e+00
0	 3.428571e+00	 6.071429e+00	 9.717744e+00
0	 3.500000e+00	 5.714286e+00	 9.614650e+00
0	 3.500000e+00	 5.785714e+00	 9.631031e+00
0	 3.500000e+00	 5.857143e+00	 9.647688e+00
0	 3.500000e+00	 5.928571e+00	 9.664623e+00
0	 3.500000e+00	 6.000000e+00	 9.681834e+00
0	 3.500000e+00	 6.071429e+00	 9.699322e+00
0	 3.571429e+00	 5.714286e+00	 9.595953e+00
0	 3.571429e+00	 5.785714e+00	 9.612749e+00
0	 3.571429e+00	 5.857143e+00	 9.629806e+00
0	 3.571429e+00	 5.928571e+00	 9.647125e+00
0	 3.571429e+00	 6.000000e+00	 9.664706e+00
0	 3.571429e+00	 6.071429e+00	 9.682549e+00
0	 3.214286e+00	 6.071429e+00	 9.782899e+00
0	 3.214286e+00	 6.142857e+00	 9.793560e+00
0	 3.214286e+00	 6.214286e+00	 9.804518e+00
0	 3.214286e+00	 6.285714e+00	 9.815771e+00
0	 3.214286e+00	 6.357143e+00	 9.827321e+00
0	 3.214286e+00	 6.428571e+00	 9.839167e+00
0	 3.285714e+00	 6.071429e+00	 9.759533e+00
0	 3.285714e+00	 6.142857e+00	 9.770918e+00
0	 3.285714e+00	 6.214286e+00	 9.782590e+00
0	 3.285714e+00	 6.285714e+00	 9.794549e+00
0	 3.285714e+00	 6.357143e+00	 9.806794e+00
0	 3.285714e+00	 6.428571e+00	 9.819325e+00
0	 3.357143e+00	 6.071429e+00	 9.737815e+00
0	 3.357143e+00	 6.142857e+00	 9.749854e+00
0	 3.357143e+00	 6.214286e+00	 9.762169e+00
0	 3.357143e+00	 6.285714e+00	 9.774762e+00
0	 3.357143e+00	 6.357143e+00	 9.787631e+00
0	 3.357143e+00	 6.428571e+00	 9.800776e+00
0	 3.428571e+00	 6.071429e+00	 9.717744e+00
0	 3.428571e+00	 6.142857e+00	 9.730366e+00
0	 3.428571e+00	 6.214286e+00	 9.743254e+00
0	 3.428571e+00	 6.285714e+00	 9.756409e+00
0	 3.428571e+00	 6.357143e+00	 9.769831e+00
0	 3.428571e+00	 6.428571e+00	 9.783520e+00
0	 3.500000e+00	 6.071429e+00	 9.699322e+00
0	 3.500000e+00	 6.142857e+00	 9.712455e+00
0	 3.500000e+00	 6.214286e+00	 9.725845e+00
0	 3.500000e+00	 6.285714e+00	 9.739492e+00
0	 3.500000e+00	 6.357143e+00	 9.753396e+00
0	 3.500000e+00	 6.428571e+00	 9.767556e+00
0	 3.571429e+00	 6.071429e+00	 9.682549e+00
0	 3.571429e+00	 6.142857e+00	 9.696122e+00
0	 3.571429e+00	 6.214286e+00	 9.709942e+00
0	 3.571429e+00	 6.285714e+00	 9.724009e+00
0	 3.571429e+00	 6.357143e+00	 9.738324e+00
0	 3.571429e+00	 6.428571e+00	 9.752886e+00
0	 3.214286e+00	 6.428571e+00	 9.839167e+00
0	 3.214286e+00	 6.500000e+00	 9.847299e+00
0	 3.214286e+00	 6.571429e+00	 9.855681e+00
0	 3.214286e+00	 6.642857e+00	 9.864311e+00
0	 3.214286e+00	 6.714286e+00	 9.873191e+00
0	 3.214286e+00	 6.785714e+00	 9.882320e+00
0	 3.285714e+00	 6.428571e+00	 9.819325e+00
0	 3.285714e+00	 6.500000e+00	 9.828126e+00
0	 3.285714e+00	 6.571429e+00	 9.837171e+00
0	 3.285714e+00	 6.642857e+00	 9.846462e+00
0	 3.285714e+00	 6.714286e+00	 9.855997e+00
0	 3.285714e+00	 6.785714e+00	 9.865776e+00
0	 3.357143e+00	 6.428571e+00	 9.800776e+00
0	 3.357143e+00	 6.500000e+00	 9.810189e+00
0	 3.357143e+00	 6.571429e+00	 9.819841e+00
0	 3.357143e+00	 6.642857e+00	 9.829735e+00
0	 3.357143e+00	 6.714286e+00	 9.839868e+00
0	 3.357143e+00	 6.785714e+00	 9.850241e+00
0	 3.428571e+00	 6.428571e+00	 9.783520e+00
0	 3.428571e+00	 6.500000e+00	 9.793487e+00
0	 3.428571e+00	 6.571429e+00	 9.803691e+00
0	 3.428571e+00	 6.642857e+00	 9.814130e+00
0	 3.428571e+00	 6.714286e+00	 9.824805e+00
0	 3.428571e+00	 6.785714e+00	 9.835716e+00
0	 3.500000e+00	 6.428571e+00	 9.767556e+00
0	 3.500000e+00	 6.500000e+00	 9.778022e+00
0	 3.500000e+00	 6.571429e+00	 9.788720e+00
0	 3.500000e+00	 6.642857e+00	 9.799648e+00
0	 3.500000e+00	 6.714286e+00	 9.810808e+00
0	 3.500000e+00	 6.785714e+00	 9.822199e+00
0	 3.571429e+00	 6.428571e+00	 9.752886e+00
0	 3.571429e+00	 6.500000e+00	 9.763793e+00
0	 3.571429e+00	 6.571429e+00	 9.774928e+00
0	 3.571429e+00	 6.642857e+00	 9.786289e+00
0	 3.571429e+00	 6.714286e+00	 9.797876e+00
0	 3.571429e+00	 6.785714e+00	 9.809691e+00
0	 3.214286e+00	 6.785714e+00	 9.882320e+00
0	 3.214286e+00	 6.857143e+00	 9.888460e+00
0	 3.214286e+00	 6.928571e+00	 9.894805e+00
0	 3.214286e+00	 7.000000e+00	 9.901356e+00
0	 3.214286e+00	 7.071429e+00	 9.908114e+00
0	 3.214286e+00	 7.142857e+00	 9.915078e+00
0	 3.285714e+00	 6.785714e+00	 9.865776e+00
0	 3.285714e+00	 6.857143e+00	 9.872528e+00
0	 3.285714e+00	 6.928571e+00	 9.879484e+00
0	 3.285714e+00	 7.000000e+00	 9.886646e+00
0	 3.285714e+00	 7.071429e+00	 9.894013e+00
0	 3.285714e+00	 7.142857e+00	 9.901585e+00
0	 3.357143e+00	 6.785714e+00	 9.850241e+00
0	 3.357143e+00	 6.857143e+00	 9.857559e+00
0	 3.357143e+00	 6.928571e+00	 9.865081e+00
0	 3.357143e+00	 7.000000e+00	 9.872806e+00
0	 3.357143e+00	 7.071429e+00	 9.880736e+00
0	 3.357143e+00	 7.142857e+00	 9.888870e+00
0	 3.428571e+00	 6.785714e+00	 9.835716e+00
0	 3.428571e+00	 6.857143e+00	 9.843553e+00
0	 3.428571e+00	 6.928571e+00	 9.851594e+00
0	 3.428571e+00	 7.000000e+00	 9.859838e+00
0	 3.428571e+00	 7.071429e+00	 9.868284e+00
0	 3.428571e+00	 7.142857e+00	 9.876934e+00
0	 3.500000e+00	 6.785714e+00	 9.822199e+00
0	 3.500000e+00	 6.857143e+00	 9.830511e+00
0	 3.500000e+00	 6.928571e+00	 9.839024e+00
0	 3.500000e+00	 7.000000e+00	 9.847740e+00
0	 3.500000e+00	 7.071429e+00	 9.856657e+00
0	 3.500000e+00	 7.142857e+00	 9.865776e+00
0	 3.571429e+00	 6.785714e+00	 9.809691e+00
0	 3.571429e+00	 6.857143e+00	 9.818431e+00
0	 3.571429e+00	 6.928571e+00	 9.827372e+00
0	 3.571429e+00	 7.000000e+00	 9.836513e+00
0	 3.571429e+00	 7.071429e+00	 9.845855e+00
0	 3.571429e+00	 7.142857e+00	 9.855398e+00
0	 3.214286e+00	 7.142857e+00	 9.915078e+00
0	 3.214286e+00	 7.214286e+00	 9.919673e+00
0	 3.214286e+00	 7.285714e+00	 9.924435e+00
0	 3.214286e+00	 7.357143e+00	 9.929362e+00
0	 3.214286e+00	 7.428571e+00	 9.934456e+00
0	 3.214286e+00	 7.500000e+00	 9.939715e+00
0	 3.285714e+00	 7.142857e+00	 9.901585e+00
0	 3.285714e+00	 7.214286e+00	 9.906733e+00
0	 3.285714e+00	 7.285714e+00	 9.912049e+00
0	 3.285714e+00	 7.357143e+00	 9.917533e+00
0	 3.285714e+00	 7.428571e+00	 9.923185e+00
0	 3.285714e+00	 7.500000e+00	 9.929006e+00
0	 3.357143e+00	 7.142857e+00	 9.888870e+00
0	 3.357143e+00	 7.214286e+00	 9.894533e+00
0	 3.357143e+00	 7.285714e+00	 9.900367e+00
0	 3.357143e+00	 7.357143e+00	 9.906371e+00
0	 3.357143e+00	 7.428571e+00	 9.912545e+00
0	 3.357143e+00	 7.500000e+00	 9.918888e+00
0	 3.428571e+00	 7.142857e+00	 9.876934e+00
0	 3.428571e+00	 7.214286e+00	 9.883076e+00
0	 3.428571e+00	 7.285714e+00	 9.889390e+00
0	 3.428571e+00	 7.357143e+00	 9.895876e+00
0	 3.428571e+00	 7.428571e+00	 9.902534e+00
0	 3.428571e+00	 7.500000e+00	 9.909364e+00
0	 3.500000e+00	 7.142857e+00	 9.865776e+00
0	 3.500000e+00	 7.214286e+00	 9.872360e+00
0	 3.500000e+00	 7.285714e+00	 9.879117e+00
0	 3.500000e+00	 7.357143e+00	 9.886048e+00
0	 3.500000e+00	 7.428571e+00	 9.893153e+00
0	 3.500000e+00	 7.500000e+00	 9.900432e+00
0	 3.571429e+00	 7.142857e+00	 9.855398e+00
0	 3.571429e+00	 7.214286e+00	 9.862385e+00
0	 3.571429e+00	 7.285714e+00	 9.869548e+00
0	 3.571429e+00	 7.357143e+00	 9.876887e+00
0	 3.571429e+00	 7.428571e+00	 9.884402e+00
0	 3.571429e+00	 7.500000e+00	 9.892092e+00
0	 3.214286e+00	 7.500000e+00	 9.939715e+00
0	 3.214286e+00	 7.571429e+00	 9.943131e+00
0	 3.214286e+00	 7.642857e+00	 9.946679e+00
0	 3.214286e+00	 7.714286e+00	 9.950357e+00
0	 3.214286e+00	 7.785714e+00	 9.954168e+00
0	 3.214286e+00	 7.857143e+00	 9.958110e+00
0	 3.285714e+00	 7.500000e+00	 9.929006e+00
0	 3.285714e+00	 7.571429e+00	 9.932915e+00
0	 3.285714e+00	 7.642857e+00	 9.936960e+00
0	 3.285714e+00	 7.714286e+00	 9.941141e+00
0	 3.285714e+00	 7.785714e+00	 9.945459e+00
0	 3.285714e+00	 7.857143e+00	 9.949912e+00
0	 3.357143e+00	 7.500000e+00	 9.918888e+00
0	 3.357143e+00	 7.571429e+00	 9.923261e+00
0	 3.357143e+00	 7.642857e+00	 9.927774e+00
0	 3.357143e+00	 7.714286e+00	 9.932427e+00
0	 3.357143e+00	 7.785714e+00	 9.937221e+00
0	 3.357143e+00	 7.857143e+00	 9.942156e+00
0	 3.428571e+00	 7.500000e+00	 9.909364e+00
0	 3.428571e+00	 7.571429e+00	 9.914169e+00
0	 3.428571e+00	 7.642857e+00	 9.919120e+00
0	 3.428571e+00	 7.714286e+00	 9.924215e+00
0	 3.428571e+00	 7.785714e+00	 9.929456e+00
0	 3.428571e+00	 7.857143e+00	 9.934841e+00
0	 3.500000e+00	 7.500000e+00	 9.900432e+00
0	 3.500000e+00	 7.571429e+00	 9.905640e+00
0	 3.500000e+00	 7.642857e+00	 9.910998e+00
0	 3.500000e+00	 7.714286e+00	 9.916505e+00
0	 3.500000e+00	 7.785714e+00	 9.922162e+00
0	 3.500000e+00	 7.857143e+00	 9.927968e+00
0	 3.571429e+00	 7.500000e+00	 9.892092e+00
0	 3.571429e+00	 7.571429e+00	 9.897673e+00
0	 3.571429e+00	 7.642857e+00	 9.903408e+00
0	 3.571429e+00	 7.714286e+00	 9.909297e+00
0	 3.571429e+00	 7.785714e+00	 9.915340e+00
0	 3.571429e+00	 7.857143e+00	 9.921537e+00
0	 3.214286e+00	 7.857143e+00	 9.958110e+00
0	 3.214286e+00	 7.928571e+00	 9.960642e+00
0	 3.214286e+00	 8.000000e+00	 9.963276e+00
0	 3.214286e+00	 8.071429e+00	 9.966014e+00
0	 3.214286e+00	 8.142857e+00	 9.968855e+00
0	 3.214286e+00	 8.214286e+00	 9.971799e+00
0	 3.285714e+00	 7.857143e+00	 9.949912e+00
0	 3.285714e+00	 7.928571e+00	 9.952876e+00
0	 3.285714e+00	 8.000000e+00	 9.955950e+00
0	 3.285714e+00	 8.071429e+00	 9.959135e+00
0	 3.285714e+00	 8.142857e+00	 9.962429e+00
0	 3.285714e+00	 8.214286e+00	 9.965834e+00
0	 3.357143e+00	 7.857143e+00	 9.942156e+00
0	 3.357143e+00	 7.928571e+00	 9.945528e+00
0	 3.357143e+00	 8.000000e+00	 9.949018e+00
0	 3.357143e+00	 8.071429e+00	 9.952624e+00
0	 3.357143e+00	 8.142857e+00	 9.956348e+00
0	 3.357143e+00	 8.214286e+00	 9.960188e+00
0	 3.428571e+00	 7.857143e+00	 9.934841e+00
0	 3.428571e+00	 7.928571e+00	 9.938597e+00
0	 3.428571e+00	 8.000000e+00	 9.942478e+00
0	 3.428571e+00	 8.071429e+00	 9.946482e+00
0	 3.428571e+00	 8.142857e+00	 9.950610e+00
0	 3.428571e+00	 8.214286e+00	 9.954863e+00
0	 3.500000e+00	 7.857143e+00	 9.927968e+00
0	 3.500000e+00	 7.928571e+00	 9.932084e+00
0	 3.500000e+00	 8.000000e+00	 9.936330e+00
0	 3.500000e+00	 8.071429e+00	 9.940708e+00
0	 3.500000e+00	 8.142857e+00	 9.945217e+00
0	 3.500000e+00	 8.214286e+00	 9.949857e+00
0	 3.571429e+00	 7.857143e+00	 9.921537e+00
0	 3.571429e+00	 7.928571e+00	 9.925987e+00
0	 3.571429e+00	 8.000000e+00	 9.930576e+00
0	 3.571429e+00	 8.071429e+00	 9.935303e+00
0	 3.571429e+00	 8.142857e+00	 9.940168e+00
0	 3.571429e+00	 8.214286e+00	 9.945171e+00
0	 3.214286e+00	 8.214286e+00	 9.971799e+00
0	 3.214286e+00	 8.285714e+00	 9.973675e+00
0	 3.214286e+00	 8.357143e+00	 9.975633e+00
0	 3.214286e+00	 8.428571e+00	 9.977674e+00
0	 3.214286e+00	 8.500000e+00	 9.979797e+00
0	 3.214286e+00	 8.571429e+00	 9.982002e+00
0	 3.285714e+00	 8.214286e+00	 9.965834e+00
0	 3.285714e+00	 8.285714e+00	 9.968078e+00
0	 3.285714e+00	 8.357143e+00	 9.970415e+00
0	 3.285714e+00	 8.428571e+00	 9.972843e+00
0	 3.285714e+00	 8.500000e+00	 9.975364e+00
0	 3.285714e+00	 8.571429e+00	 9.977977e+00
0	 3.357143e+00	 8.214286e+00	 9.960188e+00
0	 3.357143e+00	 8.285714e+00	 9.962782e+00
0	 3.357143e+00	 8.357143e+00	 9.965478e+00
0	 3.357143e+00	 8.428571e+00	 9.968275e+00
0	 3.357143e+00	 8.500000e+00	 9.971174e+00
0	 3.357143e+00	 8.571429e+00	 9.974174e+00
0	 3.428571e+00	 8.214286e+00	 9.954863e+00
0	 3.428571e+00	 8.285714e+00	 9.957786e+00
0	 3.428571e+00	 8.357143e+00	 9.960821e+00
0	 3.428571e+00	 8.428571e+00	 9.963968e+00
0	 3.428571e+00	 8.500000e+00	 9.967226e+00
0	 3.428571e+00	 8.571429e+00	 9.970595e+00
0	 3.500000e+00	 8.214286e+00	 9.949857e+00
0	 3.500000e+00	 8.285714e+00	 9.953091e+00
0	 3.500000e+00	 8.357143e+00	 9.956447e+00
0	 3.500000e+00	 8.428571e+00	 9.959923e+00
0	 3.500000e+00	 8.500000e+00	 9.963521e+00
0	 3.500000e+00	 8.571429e+00	 9.967239e+00
0	 3.571429e+00	 8.214286e+00	 9.945171e+00
0	 3.571429e+00	 8.285714e+00	 9.948697e+00
0	 3.571429e+00	 8.357143e+00	 9.952353e+00
0	 3.571429e+00	 8.428571e+00	 9.956140e+00
0	 3.571429e+00	 8.500000e+00	 9.960058e+00
0	 3.571429e+00	 8.571429e+00	 9.964107e+00
0	 3.214286e+00	 8.571429e+00	 9.982002e+00
0	 3.214286e+00	 8.642857e+00	 9.983386e+00
0	 3.214286e+00	 8.714286e+00	 9.984841e+00
0	 3.214286e+00	 8.785714e+00	 9.986368e+00
0	 3.214286e+00	 8.857143e+00	 9.987966e+00
0	 3.214286e+00	 8.928571e+00	 9.989635e+00
0	 3.285714e+00	 8.571429e+00	 9.977977e+00
0	 3.285714e+00	 8.642857e+00	 9.979659e+00
0	 3.285714e+00	 8.714286e+00	 9.981425e+00
0	 3.285714e+00	 8.785714e+00	 9.983276e+00
0	 3.285714e+00	 8.857143e+00	 9.985211e+00
0	 3.285714e+00	 8.928571e+00	 9.987230e+00
0	 3.357143e+00	 8.571429e+00	 9.974174e+00
0	 3.357143e+00	 8.642857e+00	 9.976140e+00
0	 3.357143e+00	 8.714286e+00	 9.978204e+00
0	 3.357143e+00	 8.785714e+00	 9.980364e+00
0	 3.357143e+00	 8.857143e+00	 9.982621e+00
0	 3.357143e+00	 8.928571e+00	 9.984974e+00
0	 3.428571e+00	 8.571429e+00	 9.970595e+00
0	 3.428571e+00	 8.642857e+00	 9.972831e+00
0	 3.428571e+00	 8.714286e+00	 9.975176e+00
0	 3.428571e+00	 8.785714e+00	 9.977631e+00
0	 3.428571e+00	 8.857143e+00	 9.980195e+00
0	 3.428571e+00	 8.928571e+00	 9.982870e+00
0	 3.500000e+00	 8.571429e+00	 9.967239e+00
0	 3.500000e+00	 8.642857e+00	 9.969730e+00
0	 3.500000e+00	 8.714286e+00	 9.972342e+00
0	 3.500000e+00	 8.785714e+00	 9.975078e+00
0	 3.500000e+00	 8.857143e+00	 9.977935e+00
0	 3.500000e+00	 8.928571e+00	 9.980916e+00
0	 3.571429e+00	 8.571429e+00	 9.964107e+00
0	 3.571429e+00	 8.642857e+00	 9.966837e+00
0	 3.571429e+00	 8.714286e+00	 9.969703e+00
0	 3.571429e+00	 8.785714e+00	 9.972704e+00
0	 3.571429e+00	 8.857143e+00	 9.975840e+00
0	 3.571429e+00	 8.928571e+00	 9.979112e+00
0	 3.214286e+00	 8.928571e+00	 9.989635e+00
0	 3.214286e+00	 9.000000e+00	 9.990614e+00
0	 3.214286e+00	 9.071429e+00	 9.991666e+00
0	 3.214286e+00	 9.142857e+00	 9.992791e+00
0	 3.214286e+00	 9.214286e+00	 9.993989e+00
0	 3.214286e+00	 9.285714e+00	 9.995260e+00
0	 3.285714e+00	 8.928571e+00	 9.987230e+00
0	 3.285714e+00	 9.000000e+00	 9.988426e+00
0	 3.285714e+00	 9.071429e+00	 9.989712e+00
0	 3.285714e+00	 9.142857e+00	 9.991088e+00
0	 3.285714e+00	 9.214286e+00	 9.992553e+00
0	 3.285714e+00	 9.285714e+00	 9.994109e+00
0	 3.357143e+00	 8.928571e+00	 9.984974e+00
0	 3.357143e+00	 9.000000e+00	 9.986379e+00
0	 3.357143e+00	 9.071429e+00	 9.987890e+00
0	 3.357143e+00	 9.142857e+00	 9.989507e+00
0	 3.357143e+00	 9.214286e+00	 9.991230e+00
0	 3.357143e+00	 9.285714e+00	 9.993059e+00
0	 3.428571e+00	 8.928571e+00	 9.982870e+00
0	 3.428571e+00	 9.000000e+00	 9.984473e+00
0	 3.428571e+00	 9.071429e+00	 9.986198e+00
0	 3.428571e+00	 9.142857e+00	 9.988047e+00
0	 3.428571e+00	 9.214286e+00	 9.990018e+00
0	 3.428571e+00	 9.285714e+00	 9.992112e+00
0	 3.500000e+00	 8.928571e+00	 9.980916e+00
0	 3.500000e+00	 9.000000e+00	 9.982707e+00
0	 3.500000e+00	 9.071429e+00	 9.984638e+00
0	 3.500000e+00	 9.142857e+00	 9.986708e+00
0	 3.500000e+00	 9.214286e+00	 9.988918e+00
0	 3.500000e+00	 9.285714e+00	 9.991267e+00
0	 3.571429e+00	 8.928571e+00	 9.979112e+00
0	 3.571429e+00	 9.000000e+00	 9.981083e+00
0	 3.571429e+00	 9.071429e+00	 9.983209e+00
0	 3.571429e+00	 9.142857e+00	 9.985492e+00
0	 3.571429e+00	 9.214286e+00	 9.987930e+00
0	 3.571429e+00	 9.285714e+00	 9.990524e+00
0	 3.214286e+00	 9.285714e+00	 9.995260e+00
0	 3.214286e+00	 9.357143e+00	 9.995845e+00
0	 3.214286e+00	 9.428571e+00	 9.996522e+00
0	 3.214286e+00	 9.500000e+00	 9.997290e+00
0	 3.214286e+00	 9.571429e+00	 9.998151e+00
0	 3.214286e+00	 9.642857e+00	 9.999103e+00
0	 3.285714e+00	 9.285714e+00	 9.994109e+00
0	 3.285714e+00	 9.357143e+00	 9.994815e+00
0	 3.285714e+00	 9.428571e+00	 9.995635e+00
0	 3.285714e+00	 9.500000e+00	 9.996568e+00
0	 3.285714e+00	 9.571429e+00	 9.997614e+00
0	 3.285714e+00	 9.642857e+00	 9.998773e+00
0	 3.357143e+00	 9.285714e+00	 9.993059e+00
0	 3.357143e+00	 9.357143e+00	 9.993884e+00
0	 3.357143e+00	 9.428571e+00	 9.994843e+00
0	 3.357143e+00	 9.500000e+00	 9.995936e+00
0	 3.357143e+00	 9.571429e+00	 9.997163e+00
0	 3.357143e+00	 9.642857e+00	 9.998525e+00
0	 3.428571e+00	 9.285714e+00	 9.992112e+00
0	 3.428571e+00	 9.357143e+00	 9.993050e+00
0	 3.428571e+00	 9.428571e+00	 9.994144e+00
0	 3.428571e+00	 9.500000e+00	 9.995394e+00
0	 3.428571e+00	 9.571429e+00	 9.996799e+00
0	 3.428571e+00	 9.642857e+00	 9.998360e+00
0	 3.500000e+00	 9.285714e+00	 9.991267e+00
0	 3.500000e+00	 9.357143e+00	 9.992315e+00
0	 3.500000e+00	 9.428571e+00	 9.993540e+00
0	 3.500000e+00	 9.500000e+00	 9.994942e+00
0	 3.500000e+00	 9.571429e+00	 9.996520e+00
0	 3.500000e+00	 9.642857e+00	 9.998276e+00
0	 3.571429e+00	 9.285714e+00	 9.990524e+00
0	 3.571429e+00	 9.357143e+00	 9.991678e+00
0	 3.571429e+00	 9.428571e+00	 9.993030e+00
0	 3.571429e+00	 9.500000e+00	 9.994580e+00
0	 3.571429e+00	 9.571429e+00	 9.996328e+00
0	 3.571429e+00	 9.642857e+00	 9.998274e+00
0	 3.214286e+00	 9.642857e+00	 9.999103e+00
0	 3.214286e+00	 9.714286e+00	 9.999148e+00
0	 3.214286e+00	 9.785714e+00	 9.999329e+00
0	 3.214286e+00	 9.857143e+00	 9.999644e+00
0	 3.214286e+00	 9.928571e+00	 1.000009e+01
0	 3.214286e+00	 1.000000e+01	 1.000068e+01
0	 3.285714e+00	 9.642857e+00	 9.998773e+00
0	 3.285714e+00	 9.714286e+00	 9.998817e+00
0	 3.285714e+00	 9.785714e+00	 9.999023e+00
0	 3.285714e+00	 9.857143e+00	 9.999392e+00
0	 3.285714e+00	 9.928571e+00	 9.999922e+00
0	 3.285714e+00	 1.000000e+01	 1.000062e+01
0	 3.357143e+00	 9.642857e+00	 9.998525e+00
0	 3.357143e+00	 9.714286e+00	 9.998571e+00
0	 3.357143e+00	 9.785714e+00	 9.998806e+00
0	 3.357143e+00	 9.857143e+00	 9.999231e+00
0	 3.357143e+00	 9.928571e+00	 9.999845e+00
0	 3.357143e+00	 1.000000e+01	 1.000065e+01
0	 3.428571e+00	 9.642857e+00	 9.998360e+00
0	 3.428571e+00	 9.714286e+00	 9.998411e+00
0	 3.428571e+00	 9.785714e+00	 9.998678e+00
0	 3.428571e+00	 9.857143e+00	 9.999163e+00
0	 3.428571e+00	 9.928571e+00	 9.999864e+00
0	 3.428571e+00	 1.000000e+01	 1.000078e+01
0	 3.500000e+00	 9.642857e+00	 9.998276e+00
0	 3.500000e+00	 9.714286e+00	 9.998335e+00
0	 3.500000e+00	 9.785714e+00	 9.998639e+00
0	 3.500000e+00	 9.857143e+00	 9.999186e+00
0	 3.500000e+00	 9.928571e+00	 9.999977e+00
0	 3.500000e+00	 1.000000e+01	 1.000101e+01
0	 3.571429e+00	 9.642857e+00	 9.998274e+00
0	 3.571429e+00	 9.714286e+00	 9.998345e+00
0	 3.571429e+00	 9.785714e+00	 9.998688e+00
0	 3.571429e+00	 9.857143e+00	 9.999301e+00
0	 3.571429e+00	 9.928571e+00	 1.000019e+01
0	 3.571429e+00	 1.000000e+01	 1.000134e+01
0	 3.571429e+00	 0.000000e+00	 9.189846e+00
0	 3.571429e+00	 7.142857e-02	 9.175259e+00
0	 3.571429e+00	 1.428571e-01	 9.172011e+00
0	 3.571429e+00	 2.142857e-01	 9.180102e+00
0	 3.571429e+00	 2.857143e-01	 9.199531e+00
0	 3.571429e+00	 3.571429e-01	 9.230299e+00
0	 3.642857e+00	 0.000000e+00	 9.314971e+00
0	 3.642857e+00	 7.142857e-02	 9.288752e+00
0	 3.642857e+00	 1.428571e-01	 9.273386e+00
0	 3.642857e+00	 2.142857e-01	 9.268875e+00
0	 3.642857e+00	 2.857143e-01	 9.275217e+00
0	 3.642857e+00	 3.571429e-01	 9.292413e+00
0	 3.714286e+00	 0.000000e+00	 9.422982e+00
0	 3.714286e+00	 7.142857e-02	 9.388825e+00
0	 3.714286e+00	 1.428571e-01	 9.365037e+00
0	 3.714286e+00	 2.142857e-01	 9.351619e+00
0	 3.714286e+00	 2.857143e-01	 9.348569e+00
0	 3.714286e+00	 3.571429e-01	 9.355890e+00
0	 3.785714e+00	 0.000000e+00	 9.513877e+00
0	 3.785714e+00	 7.142857e-02	 9.475478e+00
0	 3.785714e+00	 1.428571e-01	 9.446963e+00
0	 3.785714e+00	 2.142857e-01	 9.428333e+00
0	 3.785714e+00	 2.857143e-01	 9.419588e+00
0	 3.785714e+00	 3.571429e-01	 9.420728e+00
0	 3.857143e+00	 0.000000e+00	 9.587657e+00
0	 3.857143e+00	 7.142857e-02	 9.548711e+00
0	 3.857143e+00	 1.428571e-01	 9.519165e+00
0	 3.857143e+00	 2.142857e-01	 9.499019e+00
0	 3.857143e+00	 2.857143e-01	 9.488273e+00
0	 3.857143e+00	 3.571429e-01	 9.486927e+00
0	 3.928571e+00	 0.000000e+00	 9.644322e+00
0	 3.928571e+00	 7.142857e-02	 9.608524e+00
0	 3.928571e+00	 1.428571e-01	 9.581642e+00
0	 3.928571e+00	 2.142857e-01	 9.563676e+00
0	 3.928571e+00	 2.857143e-01	 9.554624e+00
0	 3.928571e+00	 3.571429e-01	 9.554489e+00
0	 3.571429e+00	 3.571429e-01	 9.230299e+00
0	 3.571429e+00	 4.285714e-01	 9.167064e+00
0	 3.571429e+00	 5.000000e-01	 9.114109e+00
0	 3.571429e+00	 5.714286e-01	 9.071434e+00
0	 3.571429e+00	 6.428571e-01	 9.039039e+00
0	 3.571429e+00	 7.142857e-01	 9.016925e+00
0	 3.642857e+00	 3.571429e-01	 9.292413e+00
0	 3.642857e+00	 4.285714e-01	 9.236171e+00
0	 3.642857e+00	 5.000000e-01	 9.190000e+00
0	 3.642857e+00	 5.714286e-01	 9.153901e+00
0	 3.642857e+00	 6.428571e-01	 9.127873e+00
0	 3.642857e+00	 7.142857e-01	 9.111917e+00
0	 3.714286e+00	 3.571429e-01	 9.355890e+00
0	 3.714286e+00	 4.285714e-01	 9.304202e+00
0	 3.714286e+00	 5.000000e-01	 9.262378e+00
0	 3.714286e+00	 5.714286e-01	 9.230416e+00
0	 3.714286e+00	 6.428571e-01	 9.208318e+00
0	 3.714286e+00	 7.142857e-01	 9.196083e+00
0	 3.785714e+00	 3.571429e-01	 9.420728e+00
0	 3.785714e+00	 4.285714e-01	 9.371157e+00
0	 3.785714e+00	 5.000000e-01	 9.331242e+00
0	 3.785714e+00	 5.714286e-01	 9.300980e+00
0	 3.785714e+00	 6.428571e-01	 9.280374e+00
0	 3.785714e+00	 7.142857e-01	 9.269421e+00
0	 3.857143e+00	 3.571429e-01	 9.486927e+00
0	 3.857143e+00	 4.285714e-01	 9.437037e+00
0	 3.857143e+00	 5.000000e-01	 9.396592e+00
0	 3.857143e+00	 5.714286e-01	 9.365593e+00
0	 3.857143e+00	 6.428571e-01	 9.344040e+00
0	 3.857143e+00	 7.142857e-01	 9.331932e+00
0	 3.928571e+00	 3.571429e-01	 9.554489e+00
0	 3.928571e+00	 4.285714e-01	 9.501840e+00
0	 3.928571e+00	 5.000000e-01	 9.458428e+00
0	 3.928571e+00	 5.714286e-01	 9.424254e+00
0	 3.928571e+00	 6.428571e-01	 9.399317e+00
0	 3.928571e+00	 7.142857e-01	 9.383617e+00
0	 3.571429e+00	 7.142857e-01	 9.016925e+00
0	 3.571429e+00	 7.857143e-01	 8.942477e+00
0	 3.571429e+00	 8.571429e-01	 8.875971e+00
0	 3.571429e+00	 9.285714e-01	 8.817407e+00
0	 3.571429e+00	 1.000000e+00	 8.766785e+00
0	 3.571429e+00	 1.071429e+00	 8.724105e+00
0	 3.642857e+00	 7.142857e-01	 9.111917e+00
0	 3.642857e+00	 7.857143e-01	 9.033119e+00
0	 3.642857e+00	 8.571429e-01	 8.961931e+00
0	 3.642857e+00	 9.285714e-01	 8.898351e+00
0	 3.642857e+00	 1.000000e+00	 8.842381e+00
0	 3.642857e+00	 1.071429e+00	 8.794019e+00
0	 3.714286e+00	 7.142857e-01	 9.196083e+00
0	 3.714286e+00	 7.857143e-01	 9.114970e+00
0	 3.714286e+00	 8.571429e-01	 9.041135e+00
0	 3.714286e+00	 9.285714e-01	 8.974575e+00
0	 3.714286e+00	 1.000000e+00	 8.915292e+00
0	 3.714286e+00	 1.071429e+00	 8.863286e+00
0	 3.785714e+00	 7.142857e-01	 9.269421e+00
0	 3.785714e+00	 7.857143e-01	 9.188030e+00
0	 3.785714e+00	 8.571429e-01	 9.113583e+00
0	 3.785714e+00	 9.285714e-01	 9.046080e+00
0	 3.785714e+00	 1.000000e+00	 8.985520e+00
0	 3.785714e+00	 1.071429e+00	 8.931905e+00
0	 3.857143e+00	 7.142857e-01	 9.331932e+00
0	 3.857143e+00	 7.857143e-01	 9.252299e+00
0	 3.857143e+00	 8.571429e-01	 9.179277e+00
0	 3.857143e+00	 9.285714e-01	 9.112865e+00
0	 3.857143e+00	 1.000000e+00	 9.053065e+00
0	 3.857143e+00	 1.071429e+00	 8.999875e+00
0	 3.928571e+00	 7.142857e-01	 9.383617e+00
0	 3.928571e+00	 7.857143e-01	 9.307777e+00
0	 3.928571e+00	 8.571429e-01	 9.238214e+00
0	 3.928571e+00	 9.285714e-01	 9.174931e+00
0	 3.928571e+00	 1.000000e+00	 9.117925e+00
0	 3.928571e+00	 1.071429e+00	 9.067198e+00
0	 3.571429e+00	 1.071429e+00	 8.724105e+00
0	 3.571429e+00	 1.142857e+00	 8.638444e+00
0	 3.571429e+00	 1.214286e+00	 8.556170e+00
0	 3.571429e+00	 1.285714e+00	 8.477284e+00
0	 3.571429e+00	 1.357143e+00	 8.401784e+00
0	 3.571429e+00	 1.428571e+00	 8.329672e+00
0	 3.642857e+00	 1.071429e+00	 8.794019e+00
0	 3.642857e+00	 1.142857e+00	 8.712292e+00
0	 3.642857e+00	 1.214286e+00	 8.633286e+00
0	 3.642857e+00	 1.285714e+00	 8.557001e+00
0	 3.642857e+00	 1.357143e+00	 8.483437e+00
0	 3.642857e+00	 1.428571e+00	 8.412594e+00
0	 3.714286e+00	 1.071429e+00	 8.863286e+00
0	 3.714286e+00	 1.142857e+00	 8.785111e+00
0	 3.714286e+00	 1.214286e+00	 8.708992e+00
0	 3.714286e+00	 1.285714e+00	 8.634927e+00
0	 3.714286e+00	 1.357143e+00	 8.562918e+00
0	 3.714286e+00	 1.428571e+00	 8.492963e+00
0	 3.785714e+00	 1.071429e+00	 8.931905e+00
0	 3.785714e+00	 1.142857e+00	 8.856901e+00
0	 3.785714e+00	 1.214286e+00	 8.783287e+00
0	 3.785714e+00	 1.285714e+00	 8.711062e+00
0	 3.785714e+00	 1.357143e+00	 8.640225e+00
0	 3.785714e+00	 1.428571e+00	 8.570778e+00
0	 3.857143e+00	 1.071429e+00	 8.999875e+00
0	 3.857143e+00	 1.142857e+00	 8.927662e+00
0	 3.857143e+00	 1.214286e+00	 8.856172e+00
0	 3.857143e+00	 1.285714e+00	 8.785405e+00
0	 3.857143e+00	 1.357143e+00	 8.715360e+00
0	 3.857143e+00	 1.428571e+00	 8.646038e+00
0	 3.928571e+00	 1.071429e+00	 9.067198e+00
0	 3.928571e+00	 1.142857e+00	 8.997394e+00
0	 3.928571e+00	 1.214286e+00	 8.927647e+00
0	 3.928571e+00	 1.285714e+00	 8.857956e+00
0	 3.928571e+00	 1.357143e+00	 8.788322e+00
0	 3.928571e+00	 1.428571e+00	 8.718745e+00
0	 3.571429e+00	 1.428571e+00	 8.329672e+00
0	 3.571429e+00	 1.500000e+00	 8.280827e+00
0	 3.571429e+00	 1.571429e+00	 8.224612e+00
0	 3.571429e+00	 1.642857e+00	 8.161027e+00
0	 3.571429e+00	 1.714286e+00	 8.090073e+00
0	 3.571429e+00	 1.785714e+00	 8.011749e+00
0	 3.642857e+00	 1.428571e+00	 8.412594e+00
0	 3.642857e+00	 1.500000e+00	 8.364941e+00
0	 3.642857e+00	 1.571429e+00	 8.310886e+00
0	 3.642857e+00	 1.642857e+00	 8.250429e+00
0	 3.642857e+00	 1.714286e+00	 8.183571e+00
0	 3.642857e+00	 1.785714e+00	 8.110310e+00
0	 3.714286e+00	 1.428571e+00	 8.492963e+00
0	 3.714286e+00	 1.500000e+00	 8.445498e+00
0	 3.714286e+00	 1.571429e+00	 8.392599e+00
0	 3.714286e+00	 1.642857e+00	 8.334266e+00
0	 3.714286e+00	 1.714286e+00	 8.270500e+00
0	 3.714286e+00	 1.785714e+00	 8.201299e+00
0	 3.785714e+00	 1.428571e+00	 8.570778e+00
0	 3.785714e+00	 1.500000e+00	 8.522497e+00
0	 3.785714e+00	 1.571429e+00	 8.469751e+00
0	 3.785714e+00	 1.642857e+00	 8.412539e+00
0	 3.785714e+00	 1.714286e+00	 8.350860e+00
0	 3.785714e+00	 1.785714e+00	 8.284716e+00
0	 3.857143e+00	 1.428571e+00	 8.646038e+00
0	 3.857143e+00	 1.500000e+00	 8.595939e+00
0	 3.857143e+00	 1.571429e+00	 8.542342e+00
0	 3.857143e+00	 1.642857e+00	 8.485246e+00
0	 3.857143e+00	 1.714286e+00	 8.424652e+00
0	 3.857143e+00	 1.785714e+00	 8.360560e+00
0	 3.928571e+00	 1.428571e+00	 8.718745e+00
0	 3.928571e+00	 1.500000e+00	 8.665823e+00
0	 3.928571e+00	 1.571429e+00	 8.610371e+00
0	 3.928571e+00	 1.642857e+00	 8.552388e+00
0	 3.928571e+00	 1.714286e+00	 8.491876e+00
0	 3.928571e+00	 1.785714e+00	 8.428833e+00
0	 3.571429e+00	 1.785714e+00	 8.011749e+00
0	 3.571429e+00	 1.857143e+00	 8.008940e+00
0	 3.571429e+00	 1.928571e+00	 7.997166e+00
0	 3.571429e+00	 2.000000e+00	 7.976426e+00
0	 3.571429e+00	 2.071429e+00	 7.946720e+00
0	 3.571429e+00	 2.142857e+00	 7.908049e+00
0	 3.642857e+00	 1.785714e+00	 8.110310e+00
0	 3.642857e+00	 1.857143e+00	 8.100870e+00
0	 3.642857e+00	 1.928571e+00	 8.083147e+00
0	 3.642857e+00	 2.000000e+00	 8.057143e+00
0	 3.642857e+00	 2.071429e+00	 8.022856e+00
0	 3.642857e+00	 2.142857e+00	 7.980287e+00
0	 3.714286e+00	 1.785714e+00	 8.201299e+00
0	 3.714286e+00	 1.857143e+00	 8.186414e+00
0	 3.714286e+00	 1.928571e+00	 8.163931e+00
0	 3.714286e+00	 2.000000e+00	 8.133850e+00
0	 3.714286e+00	 2.071429e+00	 8.096170e+00
0	 3.714286e+00	 2.142857e+00	 8.050892e+00
0	 3.785714e+00	 1.785714e+00	 8.284716e+00
0	 3.785714e+00	 1.857143e+00	 8.265575e+00
0	 3.785714e+00	 1.928571e+00	 8.239519e+00
0	 3.785714e+00	 2.000000e+00	 8.206548e+00
0	 3.785714e+00	 2.071429e+00	 8.166662e+00
0	 3.785714e+00	 2.142857e+00	 8.119862e+00
0	 3.857143e+00	 1.785714e+00	 8.360560e+00
0	 3.857143e+00	 1.857143e+00	 8.338350e+00
0	 3.857143e+00	 1.928571e+00	 8.309909e+00
0	 3.857143e+00	 2.000000e+00	 8.275237e+00
0	 3.857143e+00	 2.071429e+00	 8.234333e+00
0	 3.857143e+00	 2.142857e+00	 8.187198e+00
0	 3.928571e+00	 1.785714e+00	 8.428833e+00
0	 3.928571e+00	 1.857143e+00	 8.404741e+00
0	 3.928571e+00	 1.928571e+00	 8.375103e+00
0	 3.928571e+00	 2.000000e+00	 8.339916e+00
0	 3.928571e+00	 2.071429e+00	 8.299182e+00
0	 3.928571e+00	 2.142857e+00	 8.252900e+00
0	 3.571429e+00	 2.142857e+00	 7.908049e+00
0	 3.571429e+00	 2.214286e+00	 7.929175e+00
0	 3.571429e+00	 2.285714e+00	 7.943011e+00
0	 3.571429e+00	 2.357143e+00	 7.949558e+00
0	 3.571429e+00	 2.428571e+00	 7.948816e+00
0	 3.571429e+00	 2.500000e+00	 7.940784e+00
0	 3.642857e+00	 2.142857e+00	 7.980287e+00
0	 3.642857e+00	 2.214286e+00	 7.998826e+00
0	 3.642857e+00	 2.285714e+00	 8.010288e+00
0	 3.642857e+00	 2.357143e+00	 8.014675e+00
0	 3.642857e+00	 2.428571e+00	 8.011985e+00
0	 3.642857e+00	 2.500000e+00	 8.002219e+00
0	 3.714286e+00	 2.142857e+00	 8.050892e+00
0	 3.714286e+00	 2.214286e+00	 8.066606e+00
0	 3.714286e+00	 2.285714e+00	 8.075458e+00
0	 3.714286e+00	 2.357143e+00	 8.077447e+00
0	 3.714286e+00	 2.428571e+00	 8.072573e+00
0	 3.714286e+00	 2.500000e+00	 8.060837e+00
0	 3.785714e+00	 2.142857e+00	 8.119862e+00
0	 3.785714e+00	 2.214286e+00	 8.132515e+00
0	 3.785714e+00	 2.285714e+00	 8.138519e+00
0	 3.785714e+00	 2.357143e+00	 8.137874e+00
0	 3.785714e+00	 2.428571e+00	 8.130579e+00
0	 3.785714e+00	 2.500000e+00	 8.116635e+00
0	 3.857143e+00	 2.142857e+00	 8.187198e+00
0	 3.857143e+00	 2.214286e+00	 8.196553e+00
0	 3.857143e+00	 2.285714e+00	 8.199473e+00
0	 3.857143e+00	 2.357143e+00	 8.195956e+00
0	 3.857143e+00	 2.428571e+00	 8.186004e+00
0	 3.857143e+00	 2.500000e+00	 8.169615e+00
0	 3.928571e+00	 2.142857e+00	 8.252900e+00
0	 3.928571e+00	 2.214286e+00	 8.258720e+00
0	 3.928571e+00	 2.285714e+00	 8.258318e+00
0	 3.928571e+00	 2.357143e+00	 8.251694e+00
0	 3.928571e+00	 2.428571e+00	 8.238846e+00
0	 3.928571e+00	 2.500000e+00	 8.219777e+00
0	 3.571429e+00	 2.500000e+00	 7.940784e+00
0	 3.571429e+00	 2.571429e+00	 7.991347e+00
0	 3.571429e+00	 2.642857e+00	 8.034873e+00
0	 3.571429e+00	 2.714286e+00	 8.071362e+00
0	 3.571429e+00	 2.785714e+00	 8.100813e+00
0	 3.571429e+00	 2.857143e+00	 8.123228e+00
0	 3.642857e+00	 2.500000e+00	 8.002219e+00
0	 3.642857e+00	 2.571429e+00	 8.044625e+00
0	 3.642857e+00	 2.642857e+00	 8.080431e+00
0	 3.642857e+00	 2.714286e+00	 8.109636e+00
0	 3.642857e+00	 2.785714e+00	 8.132242e+00
0	 3.642857e+00	 2.857143e+00	 8.148247e+00
0	 3.714286e+00	 2.500000e+00	 8.060837e+00
0	 3.714286e+00	 2.571429e+00	 8.096329e+00
0	 3.714286e+00	 2.642857e+00	 8.125659e+00
0	 3.714286e+00	 2.714286e+00	 8.148826e+00
0	 3.714286e+00	 2.785714e+00	 8.165830e+00
0	 3.714286e+00	 2.857143e+00	 8.176670e+00
0	 3.785714e+00	 2.500000e+00	 8.116635e+00
0	 3.785714e+00	 2.571429e+00	 8.146459e+00
0	 3.785714e+00	 2.642857e+00	 8.170558e+00
0	 3.785714e+00	 2.714286e+00	 8.188930e+00
0	 3.785714e+00	 2.785714e+00	 8.201577e+00
0	 3.785714e+00	 2.857143e+00	 8.208498e+00
0	 3.857143e+00	 2.500000e+00	 8.169615e+00
0	 3.857143e+00	 2.571429e+00	 8.195015e+00
0	 3.857143e+00	 2.642857e+00	 8.215127e+00
0	 3.857143e+00	 2.714286e+00	 8.229950e+00
0	 3.857143e+00	 2.785714e+00	 8.239483e+00
0	 3.857143e+00	 2.857143e+00	 8.243729e+00
0	 3.928571e+00	 2.500000e+00	 8.219777e+00
0	 3.928571e+00	 2.571429e+00	 8.241997e+00
0	 3.928571e+00	 2.642857e+00	 8.259367e+00
0	 3.928571e+00	 2.714286e+00	 8.271884e+00
0	 3.928571e+00	 2.785714e+00	 8.279550e+00
0	 3.928571e+00	 2.857143e+00	 8.282364e+00
0	 3.571429e+00	 2.857143e+00	 8.123228e+00
0	 3.571429e+00	 2.928571e+00	 8.173557e+00
0	 3.571429e+00	 3.000000e+00	 8.220439e+00
0	 3.571429e+00	 3.071429e+00	 8.263871e+00
0	 3.571429e+00	 3.142857e+00	 8.303856e+00
0	 3.571429e+00	 3.214286e+00	 8.340392e+00
0	 3.642857e+00	 2.857143e+00	 8.148247e+00
0	 3.642857e+00	 2.928571e+00	 8.196229e+00
0	 3.642857e+00	 3.000000e+00	 8.240631e+00
0	 3.642857e+00	 3.071429e+00	 8.281454e+00
0	 3.642857e+00	 3.142857e+00	 8.318698e+00
0	 3.642857e+00	 3.214286e+00	 8.352362e+00
0	 3.714286e+00	 2.857143e+00	 8.176670e+00
0	 3.714286e+00	 2.928571e+00	 8.222127e+00
0	 3.714286e+00	 3.000000e+00	 8.263873e+00
0	 3.714286e+00	 3.071429e+00	 8.301910e+00
0	 3.714286e+00	 3.142857e+00	 8.336236e+00
0	 3.714286e+00	 3.214286e+00	 8.366852e+00
0	 3.785714e+00	 2.857143e+00	 8.208498e+00
0	 3.785714e+00	 2.928571e+00	 8.251252e+00
0	 3.785714e+00	 3.000000e+00	 8.290166e+00
0	 3.785714e+00	 3.071429e+00	 8.325239e+00
0	 3.785714e+00	 3.142857e+00	 8.356471e+00
0	 3.785714e+00	 3.214286e+00	 8.383862e+00
0	 3.857143e+00	 2.857143e+00	 8.243729e+00
0	 3.857143e+00	 2.928571e+00	 8.283605e+00
0	 3.857143e+00	 3.000000e+00	 8.319509e+00
0	 3.857143e+00	 3.071429e+00	 8.351442e+00
0	 3.857143e+00	 3.142857e+00	 8.379402e+00
0	 3.857143e+00	 3.214286e+00	 8.403392e+00
0	 3.928571e+00	 2.857143e+00	 8.282364e+00
0	 3.928571e+00	 2.928571e+00	 8.319184e+00
0	 3.928571e+00	 3.000000e+00	 8.351902e+00
0	 3.928571e+00	 3.071429e+00	 8.380518e+00
0	 3.928571e+00	 3.142857e+00	 8.405031e+00
0	 3.928571e+00	 3.214286e+00	 8.425441e+00
0	 3.571429e+00	 3.214286e+00	 8.340392e+00
0	 3.571429e+00	 3.285714e+00	 8.395464e+00
0	 3.571429e+00	 3.357143e+00	 8.447731e+00
0	 3.571429e+00	 3.428571e+00	 8.497192e+00
0	 3.571429e+00	 3.500000e+00	 8.543848e+00
0	 3.571429e+00	 3.571429e+00	 8.587699e+00
0	 3.642857e+00	 3.214286e+00	 8.352362e+00
0	 3.642857e+00	 3.285714e+00	 8.403366e+00
0	 3.642857e+00	 3.357143e+00	 8.451640e+00
0	 3.642857e+00	 3.428571e+00	 8.497185e+00
0	 3.642857e+00	 3.500000e+00	 8.540001e+00
0	 3.642857e+00	 3.571429e+00	 8.580087e+00
0	 3.714286e+00	 3.214286e+00	 8.366852e+00
0	 3.714286e+00	 3.285714e+00	 8.414238e+00
0	 3.714286e+00	 3.357143e+00	 8.458971e+00
0	 3.714286e+00	 3.428571e+00	 8.501050e+00
0	 3.714286e+00	 3.500000e+00	 8.540476e+00
0	 3.714286e+00	 3.571429e+00	 8.577248e+00
0	 3.785714e+00	 3.214286e+00	 8.383862e+00
0	 3.785714e+00	 3.285714e+00	 8.428081e+00
0	 3.785714e+00	 3.357143e+00	 8.469722e+00
0	 3.785714e+00	 3.428571e+00	 8.508786e+00
0	 3.785714e+00	 3.500000e+00	 8.545271e+00
0	 3.785714e+00	 3.571429e+00	 8.579180e+00
0	 3.857143e+00	 3.214286e+00	 8.403392e+00
0	 3.857143e+00	 3.285714e+00	 8.444894e+00
0	 3.857143e+00	 3.357143e+00	 8.483894e+00
0	 3.857143e+00	 3.428571e+00	 8.520392e+00
0	 3.857143e+00	 3.500000e+00	 8.554389e+00
0	 3.857143e+00	 3.571429e+00	 8.585884e+00
0	 3.928571e+00	 3.214286e+00	 8.425441e+00
0	 3.928571e+00	 3.285714e+00	 8.464676e+00
0	 3.928571e+00	 3.357143e+00	 8.501486e+00
0	 3.928571e+00	 3.428571e+00	 8.535870e+00
0	 3.928571e+00	 3.500000e+00	 8.567828e+00
0	 3.928571e+00	 3.571429e+00	 8.597360e+00
0	 3.571429e+00	 3.571429e+00	 8.587699e+00
0	 3.571429e+00	 3.642857e+00	 8.635550e+00
0	 3.571429e+00	 3.714286e+00	 8.682378e+00
0	 3.571429e+00	 3.785714e+00	 8.728181e+00
0	 3.571429e+00	 3.857143e+00	 8.772959e+00
0	 3.571429e+00	 3.928571e+00	 8.816713e+00
0	 3.642857e+00	 3.571429e+00	 8.580087e+00
0	 3.642857e+00	 3.642857e+00	 8.626847e+00
0	 3.642857e+00	 3.714286e+00	 8.672439e+00
0	 3.642857e+00	 3.785714e+00	 8.716862e+00
0	 3.642857e+00	 3.857143e+00	 8.760117e+00
0	 3.642857e+00	 3.928571e+00	 8.802203e+00
0	 3.714286e+00	 3.571429e+00	 8.577248e+00
0	 3.714286e+00	 3.642857e+00	 8.622762e+00
0	 3.714286e+00	 3.714286e+00	 8.666964e+00
0	 3.714286e+00	 3.785714e+00	 8.709854e+00
0	 3.714286e+00	 3.857143e+00	 8.751430e+00
0	 3.714286e+00	 3.928571e+00	 8.791694e+00
0	 3.785714e+00	 3.571429e+00	 8.579180e+00
0	 3.785714e+00	 3.642857e+00	 8.623295e+00
0	 3.785714e+00	 3.714286e+00	 8.665953e+00
0	 3.785714e+00	 3.785714e+00	 8.707154e+00
0	 3.785714e+00	 3.857143e+00	 8.746899e+00
0	 3.785714e+00	 3.928571e+00	 8.785187e+00
0	 3.857143e+00	 3.571429e+00	 8.585884e+00
0	 3.857143e+00	 3.642857e+00	 8.628445e+00
0	 3.857143e+00	 3.714286e+00	 8.669405e+00
0	 3.857143e+00	 3.785714e+00	 8.708764e+00
0	 3.857143e+00	 3.857143e+00	 8.746522e+00
0	 3.857143e+00	 3.928571e+00	 8.782680e+00
0	 3.928571e+00	 3.571429e+00	 8.597360e+00
0	 3.928571e+00	 3.642857e+00	 8.638212e+00
0	 3.928571e+00	 3.714286e+00	 8.677320e+00
0	 3.928571e+00	 3.785714e+00	 8.714683e+00
0	 3.928571e+00	 3.857143e+00	 8.750301e+00
0	 3.928571e+00	 3.928571e+00	 8.784175e+00
0	 3.571429e+00	 3.928571e+00	 8.816713e+00
0	 3.571429e+00	 4.000000e+00	 8.860081e+00
0	 3.571429e+00	 4.071429e+00	 8.902778e+00
0	 3.571429e+00	 4.142857e+00	 8.944802e+00
0	 3.571429e+00	 4.214286e+00	 8.986155e+00
0	 3.571429e+00	 4.285714e+00	 9.026836e+00
0	 3.642857e+00	 3.928571e+00	 8.802203e+00
0	 3.642857e+00	 4.000000e+00	 8.844355e+00
0	 3.642857e+00	 4.071429e+00	 8.885798e+00
0	 3.642857e+00	 4.142857e+00	 8.926533e+00
0	 3.642857e+00	 4.214286e+00	 8.966558e+00
0	 3.642857e+00	 4.285714e+00	 9.005875e+00
0	 3.714286e+00	 3.928571e+00	 8.791694e+00
0	 3.714286e+00	 4.000000e+00	 8.832654e+00
0	 3.714286e+00	 4.071429e+00	 8.872869e+00
0	 3.714286e+00	 4.142857e+00	 8.912337e+00
0	 3.714286e+00	 4.214286e+00	 8.951060e+00
0	 3.714286e+00	 4.285714e+00	 8.989037e+00
0	 3.785714e+00	 3.928571e+00	 8.785187e+00
0	 3.785714e+00	 4.000000e+00	 8.824980e+00
0	 3.785714e+00	 4.071429e+00	 8.863990e+00
0	 3.785714e+00	 4.142857e+00	 8.902217e+00
0	 3.785714e+00	 4.214286e+00	 8.939661e+00
0	 3.785714e+00	 4.285714e+00	 8.976322e+00
0	 3.857143e+00	 3.928571e+00	 8.782680e+00
0	 3.857143e+00	 4.000000e+00	 8.821330e+00
0	 3.857143e+00	 4.071429e+00	 8.859160e+00
0	 3.857143e+00	 4.142857e+00	 8.896170e+00
0	 3.857143e+00	 4.214286e+00	 8.932361e+00
0	 3.857143e+00	 4.285714e+00	 8.967731e+00
0	 3.928571e+00	 3.928571e+00	 8.784175e+00
0	 3.928571e+00	 4.000000e+00	 8.821706e+00
0	 3.928571e+00	 4.071429e+00	 8.858381e+00
0	 3.928571e+00	 4.142857e+00	 8.894199e+00
0	 3.928571e+00	 4.214286e+00	 8.929159e+00
0	 3.928571e+00	 4.285714e+00	 8.963263e+00
0	 3.571429e+00	 4.285714e+00	 9.026836e+00
0	 3.571429e+00	 4.357143e+00	 9.063140e+00
0	 3.571429e+00	 4.428571e+00	 9.099372e+00
0	 3.571429e+00	 4.500000e+00	 9.135533e+00
0	 3.571429e+00	 4.571429e+00	 9.171621e+00
0	 3.571429e+00	 4.642857e+00	 9.207638e+00
0	 3.642857e+00	 4.285714e+00	 9.005875e+00
0	 3.642857e+00	 4.357143e+00	 9.042028e+00
0	 3.642857e+00	 4.428571e+00	 9.078024e+00
0	 3.642857e+00	 4.500000e+00	 9.113864e+00
0	 3.642857e+00	 4.571429e+00	 9.149547e+00
0	 3.642857e+00	 4.642857e+00	 9.185074e+00
0	 3.714286e+00	 4.285714e+00	 8.989037e+00
0	 3.714286e+00	 4.357143e+00	 9.024905e+00
0	 3.714286e+00	 4.428571e+00	 9.060532e+00
0	 3.714286e+00	 4.500000e+00	 9.095918e+00
0	 3.714286e+00	 4.571429e+00	 9.131062e+00
0	 3.714286e+00	 4.642857e+00	 9.165965e+00
0	 3.785714e+00	 4.285714e+00	 8.976322e+00
0	 3.785714e+00	 4.357143e+00	 9.011773e+00
0	 3.785714e+00	 4.428571e+00	 9.046897e+00
0	 3.785714e+00	 4.500000e+00	 9.081695e+00
0	 3.785714e+00	 4.571429e+00	 9.116167e+00
0	 3.785714e+00	 4.642857e+00	 9.150312e+00
0	 3.857143e+00	 4.285714e+00	 8.967731e+00
0	 3.857143e+00	 4.357143e+00	 9.002630e+00
0	 3.857143e+00	 4.428571e+00	 9.037118e+00
0	 3.857143e+00	 4.500000e+00	 9.071195e+00
0	 3.857143e+00	 4.571429e+00	 9.104860e+00
0	 3.857143e+00	 4.642857e+00	 9.138115e+00
0	 3.928571e+00	 4.285714e+00	 8.963263e+00
0	 3.928571e+00	 4.357143e+00	 8.997477e+00
0	 3.928571e+00	 4.428571e+00	 9.031195e+00
0	 3.928571e+00	 4.500000e+00	 9.064417e+00
0	 3.928571e+00	 4.571429e+00	 9.097143e+00
0	 3.928571e+00	 4.642857e+00	 9.129373e+00
0	 3.571429e+00	 4.642857e+00	 9.207638e+00
0	 3.571429e+00	 4.714286e+00	 9.238325e+00
0	 3.571429e+00	 4.785714e+00	 9.269076e+00
0	 3.571429e+00	 4.857143e+00	 9.299889e+00
0	 3.571429e+00	 4.928571e+00	 9.330767e+00
0	 3.571429e+00	 5.000000e+00	 9.361708e+00
0	 3.642857e+00	 4.642857e+00	 9.185074e+00
0	 3.642857e+00	 4.714286e+00	 9.215749e+00
0	 3.642857e+00	 4.785714e+00	 9.246446e+00
0	 3.642857e+00	 4.857143e+00	 9.277164e+00
0	 3.642857e+00	 4.928571e+00	 9.307904e+00
0	 3.642857e+00	 5.000000e+00	 9.338665e+00
0	 3.714286e+00	 4.642857e+00	 9.165965e+00
0	 3.714286e+00	 4.714286e+00	 9.196544e+00
0	 3.714286e+00	 4.785714e+00	 9.227103e+00
0	 3.714286e+00	 4.857143e+00	 9.257641e+00
0	 3.714286e+00	 4.928571e+00	 9.288159e+00
0	 3.714286e+00	 5.000000e+00	 9.318656e+00
0	 3.785714e+00	 4.642857e+00	 9.150312e+00
0	 3.785714e+00	 4.714286e+00	 9.180711e+00
0	 3.785714e+00	 4.785714e+00	 9.211047e+00
0	 3.785714e+00	 4.857143e+00	 9.241321e+00
0	 3.785714e+00	 4.928571e+00	 9.271532e+00
0	 3.785714e+00	 5.000000e+00	 9.301681e+00
0	 3.857143e+00	 4.642857e+00	 9.138115e+00
0	 3.857143e+00	 4.714286e+00	 9.168249e+00
0	 3.857143e+00	 4.785714e+00	 9.198278e+00
0	 3.857143e+00	 4.857143e+00	 9.228203e+00
0	 3.857143e+00	 4.928571e+00	 9.258024e+00
0	 3.857143e+00	 5.000000e+00	 9.287740e+00
0	 3.928571e+00	 4.642857e+00	 9.129373e+00
0	 3.928571e+00	 4.714286e+00	 9.159158e+00
0	 3.928571e+00	 4.785714e+00	 9.188796e+00
0	 3.928571e+00	 4.857143e+00	 9.218288e+00
0	 3.928571e+00	 4.928571e+00	 9.247634e+00
0	 3.928571e+00	 5.000000e+00	 9.276833e+00
0	 3.571429e+00	 5.000000e+00	 9.361708e+00
0	 3.571429e+00	 5.071429e+00	 9.386931e+00
0	 3.571429e+00	 5.142857e+00	 9.412372e+00
0	 3.571429e+00	 5.214286e+00	 9.438031e+00
0	 3.571429e+00	 5.285714e+00	 9.463907e+00
0	 3.571429e+00	 5.357143e+00	 9.490001e+00
0	 3.642857e+00	 5.000000e+00	 9.338665e+00
0	 3.642857e+00	 5.071429e+00	 9.364200e+00
0	 3.642857e+00	 5.142857e+00	 9.389911e+00
0	 3.642857e+00	 5.214286e+00	 9.415795e+00
0	 3.642857e+00	 5.285714e+00	 9.441855e+00
0	 3.642857e+00	 5.357143e+00	 9.468089e+00
0	 3.714286e+00	 5.000000e+00	 9.318656e+00
0	 3.714286e+00	 5.071429e+00	 9.344398e+00
0	 3.714286e+00	 5.142857e+00	 9.370271e+00
0	 3.714286e+00	 5.214286e+00	 9.396277e+00
0	 3.714286e+00	 5.285714e+00	 9.422414e+00
0	 3.714286e+00	 5.357143e+00	 9.448682e+00
0	 3.785714e+00	 5.000000e+00	 9.301681e+00
0	 3.785714e+00	 5.071429e+00	 9.327524e+00
0	 3.785714e+00	 5.142857e+00	 9.353455e+00
0	 3.785714e+00	 5.214286e+00	 9.379475e+00
0	 3.785714e+00	 5.285714e+00	 9.405584e+00
0	 3.785714e+00	 5.357143e+00	 9.431781e+00
0	 3.857143e+00	 5.000000e+00	 9.287740e+00
0	 3.857143e+00	 5.071429e+00	 9.313578e+00
0	 3.857143e+00	 5.142857e+00	 9.339461e+00
0	 3.857143e+00	 5.214286e+00	 9.365390e+00
0	 3.857143e+00	 5.285714e+00	 9.391366e+00
0	 3.857143e+00	 5.357143e+00	 9.417386e+00
0	 3.928571e+00	 5.000000e+00	 9.276833e+00
0	 3.928571e+00	 5.071429e+00	 9.302560e+00
0	 3.928571e+00	 5.142857e+00	 9.328290e+00
0	 3.928571e+00	 5.214286e+00	 9.354023e+00
0	 3.928571e+00	 5.285714e+00	 9.379759e+00
0	 3.928571e+00	 5.357143e+00	 9.405497e+00
0	 3.571429e+00	 5.357143e+00	 9.490001e+00
0	 3.571429e+00	 5.428571e+00	 9.510701e+00
0	 3.571429e+00	 5.500000e+00	 9.531646e+00
0	 3.571429e+00	 5.571429e+00	 9.552836e+00
0	 3.571429e+00	 5.642857e+00	 9.574272e+00
0	 3.571429e+00	 5.714286e+00	 9.595953e+00
0	 3.642857e+00	 5.357143e+00	 9.468089e+00
0	 3.642857e+00	 5.428571e+00	 9.489181e+00
0	 3.642857e+00	 5.500000e+00	 9.510493e+00
0	 3.642857e+00	 5.571429e+00	 9.532025e+00
0	 3.642857e+00	 5.642857e+00	 9.553776e+00
0	 3.642857e+00	 5.714286e+00	 9.575746e+00
0	 3.714286e+00	 5.357143e+00	 9.448682e+00
0	 3.714286e+00	 5.428571e+00	 9.470083e+00
0	 3.714286e+00	 5.500000e+00	 9.491677e+00
0	 3.714286e+00	 5.571429e+00	 9.513465e+00
0	 3.714286e+00	 5.642857e+00	 9.535446e+00
0	 3.714286e+00	 5.714286e+00	 9.557620e+00
0	 3.785714e+00	 5.357143e+00	 9.431781e+00
0	 3.785714e+00	 5.428571e+00	 9.453405e+00
0	 3.785714e+00	 5.500000e+00	 9.475196e+00
0	 3.785714e+00	 5.571429e+00	 9.497155e+00
0	 3.785714e+00	 5.642857e+00	 9.519281e+00
0	 3.785714e+00	 5.714286e+00	 9.541575e+00
0	 3.857143e+00	 5.357143e+00	 9.417386e+00
0	 3.857143e+00	 5.428571e+00	 9.439148e+00
0	 3.857143e+00	 5.500000e+00	 9.461051e+00
0	 3.857143e+00	 5.571429e+00	 9.483096e+00
0	 3.857143e+00	 5.642857e+00	 9.505282e+00
0	 3.857143e+00	 5.714286e+00	 9.527610e+00
0	 3.928571e+00	 5.357143e+00	 9.405497e+00
0	 3.928571e+00	 5.428571e+00	 9.427312e+00
0	 3.928571e+00	 5.500000e+00	 9.449242e+00
0	 3.928571e+00	 5.571429e+00	 9.471288e+00
0	 3.928571e+00	 5.642857e+00	 9.493449e+00
0	 3.928571e+00	 5.714286e+00	 9.515726e+00
0	 3.571429e+00	 5.714286e+00	 9.595953e+00
0	 3.571429e+00	 5.785714e+00	 9.612749e+00
0	 3.571429e+00	 5.857143e+00	 9.629806e+00
0	 3.571429e+00	 5.928571e+00	 9.647125e+00
0	 3.571429e+00	 6.000000e+00	 9.664706e+00
0	 3.571429e+00	 6.071429e+00	 9.682549e+00
0	 3.642857e+00	 5.714286e+00	 9.575746e+00
0	 3.642857e+00	 5.785714e+00	 9.593014e+00
0	 3.642857e+00	 5.857143e+00	 9.610523e+00
0	 3.642857e+00	 5.928571e+00	 9.628274e+00
0	 3.642857e+00	 6.000000e+00	 9.646267e+00
0	 3.642857e+00	 6.071429e+00	 9.664502e+00
0	 3.714286e+00	 5.714286e+00	 9.557620e+00
0	 3.714286e+00	 5.785714e+00	 9.575282e+00
0	 3.714286e+00	 5.857143e+00	 9.593166e+00
0	 3.714286e+00	 5.928571e+00	 9.611272e+00
0	 3.714286e+00	 6.000000e+00	 9.629598e+00
0	 3.714286e+00	 6.071429e+00	 9.648147e+00
0	 3.785714e+00	 5.714286e+00	 9.541575e+00
0	 3.785714e+00	 5.785714e+00	 9.559554e+00
0	 3.785714e+00	 5.857143e+00	 9.577735e+00
0	 3.785714e+00	 5.928571e+00	 9.596116e+00
0	 3.785714e+00	 6.000000e+00	 9.614699e+00
0	 3.785714e+00	 6.071429e+00	 9.633484e+00
0	 3.857143e+00	 5.714286e+00	 9.527610e+00
0	 3.857143e+00	 5.785714e+00	 9.545829e+00
0	 3.857143e+00	 5.857143e+00	 9.564228e+00
0	 3.857143e+00	 5.928571e+00	 9.582809e+00
0	 3.857143e+00	 6.000000e+00	 9.601570e+00
0	 3.857143e+00	 6.071429e+00	 9.620513e+00
0	 3.928571e+00	 5.714286e+00	 9.515726e+00
0	 3.928571e+00	 5.785714e+00	 9.534106e+00
0	 3.928571e+00	 5.857143e+00	 9.552647e+00
0	 3.928571e+00	 5.928571e+00	 9.571349e+00
0	 3.928571e+00	 6.000000e+00	 9.590211e+00
0	 3.928571e+00	 6.071429e+00	 9.609234e+00
0	 3.571429e+00	 6.071429e+00	 9.682549e+00
0	 3.571429e+00	 6.142857e+00	 9.696122e+00
0	 3.571429e+00	 6.214286e+00	 9.709942e+00
0	 3.571429e+00	 6.285714e+00	 9.724009e+00
0	 3.571429e+00	 6.357143e+00	 9.738324e+00
0	 3.571429e+00	 6.428571e+00	 9.752886e+00
0	 3.642857e+00	 6.071429e+00	 9.664502e+00
0	 3.642857e+00	 6.142857e+00	 9.678562e+00
0	 3.642857e+00	 6.214286e+00	 9.692856e+00
0	 3.642857e+00	 6.285714e+00	 9.707386e+00
0	 3.642857e+00	 6.357143e+00	 9.722150e+00
0	 3.642857e+00	 6.428571e+00	 9.737148e+00
0	 3.714286e+00	 6.071429e+00	 9.648147e+00
0	 3.714286e+00	 6.142857e+00	 9.662629e+00
0	 3.714286e+00	 6.214286e+00	 9.677334e+00
0	 3.714286e+00	 6.285714e+00	 9.692260e+00
0	 3.714286e+00	 6.357143e+00	 9.707408e+00
0	 3.714286e+00	 6.428571e+00	 9.722779e+00
0	 3.785714e+00	 6.071429e+00	 9.633484e+00
0	 3.785714e+00	 6.142857e+00	 9.648324e+00
0	 3.785714e+00	 6.214286e+00	 9.663373e+00
0	 3.785714e+00	 6.285714e+00	 9.678632e+00
0	 3.785714e+00	 6.357143e+00	 9.694101e+00
0	 3.785714e+00	 6.428571e+00	 9.709778e+00
0	 3.857143e+00	 6.071429e+00	 9.620513e+00
0	 3.857143e+00	 6.142857e+00	 9.635646e+00
0	 3.857143e+00	 6.214286e+00	 9.650976e+00
0	 3.857143e+00	 6.285714e+00	 9.666502e+00
0	 3.857143e+00	 6.357143e+00	 9.682226e+00
0	 3.857143e+00	 6.428571e+00	 9.698146e+00
0	 3.928571e+00	 6.071429e+00	 9.609234e+00
0	 3.928571e+00	 6.142857e+00	 9.624595e+00
0	 3.928571e+00	 6.214286e+00	 9.640141e+00
0	 3.928571e+00	 6.285714e+00	 9.655870e+00
0	 3.928571e+00	 6.357143e+00	 9.671784e+00
0	 3.928571e+00	 6.428571e+00	 9.687882e+00
0	 3.571429e+00	 6.428571e+00	 9.752886e+00
0	 3.571429e+00	 6.500000e+00	 9.763793e+00
0	 3.571429e+00	 6.571429e+00	 9.774928e+00
0	 3.571429e+00	 6.642857e+00	 9.786289e+00
0	 3.571429e+00	 6.714286e+00	 9.797876e+00
0	 3.571429e+00	 6.785714e+00	 9.809691e+00
0	 3.642857e+00	 6.428571e+00	 9.737148e+00
0	 3.642857e+00	 6.500000e+00	 9.748542e+00
0	 3.642857e+00	 6.571429e+00	 9.760155e+00
0	 3.642857e+00	 6.642857e+00	 9.771986e+00
0	 3.642857e+00	 6.714286e+00	 9.784036e+00
0	 3.642857e+00	 6.785714e+00	 9.796305e+00
0	 3.714286e+00	 6.428571e+00	 9.722779e+00
0	 3.714286e+00	 6.500000e+00	 9.734604e+00
0	 3.714286e+00	 6.571429e+00	 9.746640e+00
0	 3.714286e+00	 6.642857e+00	 9.758886e+00
0	 3.714286e+00	 6.714286e+00	 9.771343e+00
0	 3.714286e+00	 6.785714e+00	 9.784011e+00
0	 3.785714e+00	 6.428571e+00	 9.709778e+00
0	 3.785714e+00	 6.500000e+00	 9.721979e+00
0	 3.785714e+00	 6.571429e+00	 9.734383e+00
0	 3.785714e+00	 6.642857e+00	 9.746989e+00
0	 3.785714e+00	 6.714286e+00	 9.759799e+00
0	 3.785714e+00	 6.785714e+00	 9.772811e+00
0	 3.857143e+00	 6.428571e+00	 9.698146e+00
0	 3.857143e+00	 6.500000e+00	 9.710668e+00
0	 3.857143e+00	 6.571429e+00	 9.723384e+00
0	 3.857143e+00	 6.642857e+00	 9.736296e+00
0	 3.857143e+00	 6.714286e+00	 9.749402e+00
0	 3.857143e+00	 6.785714e+00	 9.762703e+00
0	 3.928571e+00	 6.428571e+00	 9.687882e+00
0	 3.928571e+00	 6.500000e+00	 9.700670e+00
0	 3.928571e+00	 6.571429e+00	 9.713644e+00
0	 3.928571e+00	 6.642857e+00	 9.726805e+00
0	 3.928571e+00	 6.714286e+00	 9.740153e+00
0	 3.928571e+00	 6.785714e+00	 9.753688e+00
0	 3.571429e+00	 6.785714e+00	 9.809691e+00
0	 3.571429e+00	 6.857143e+00	 9.818431e+00
0	 3.571429e+00	 6.928571e+00	 9.827372e+00
0	 3.571429e+00	 7.000000e+00	 9.836513e+00
0	 3.571429e+00	 7.071429e+00	 9.845855e+00
0	 3.571429e+00	 7.142857e+00	 9.855398e+00
0	 3.642857e+00	 6.785714e+00	 9.796305e+00
0	 3.642857e+00	 6.857143e+00	 9.805510e+00
0	 3.642857e+00	 6.928571e+00	 9.814913e+00
0	 3.642857e+00	 7.000000e+00	 9.824513e+00
0	 3.642857e+00	 7.071429e+00	 9.834309e+00
0	 3.642857e+00	 7.142857e+00	 9.844303e+00
0	 3.714286e+00	 6.785714e+00	 9.784011e+00
0	 3.714286e+00	 6.857143e+00	 9.793637e+00
0	 3.714286e+00	 6.928571e+00	 9.803456e+00
0	 3.714286e+00	 7.000000e+00	 9.813467e+00
0	 3.714286e+00	 7.071429e+00	 9.823672e+00
0	 3.714286e+00	 7.142857e+00	 9.834070e+00
0	 3.785714e+00	 6.785714e+00	 9.772811e+00
0	 3.785714e+00	 6.857143e+00	 9.782810e+00
0	 3.785714e+00	 6.928571e+00	 9.792999e+00
0	 3.785714e+00	 7.000000e+00	 9.803376e+00
0	 3.785714e+00	 7.071429e+00	 9.813944e+00
0	 3.785714e+00	 7.142857e+00	 9.824700e+00
0	 3.857143e+00	 6.785714e+00	 9.762703e+00
0	 3.857143e+00	 6.857143e+00	 9.773030e+00
0	 3.857143e+00	 6.928571e+00	 9.783542e+00
0	 3.857143e+00	 7.000000e+00	 9.794240e+00
0	 3.857143e+00	 7.071429e+00	 9.805124e+00
0	 3.857143e+00	 7.142857e+00	 9.816193e+00
0	 3.928571e+00	 6.785714e+00	 9.753688e+00
0	 3.928571e+00	 6.857143e+00	 9.764296e+00
0	 3.928571e+00	 6.928571e+00	 9.775087e+00
0	 3.928571e+00	 7.000000e+00	 9.786059e+00
0	 3.928571e+00	 7.071429e+00	 9.797213e+00
0	 3.928571e+00	 7.142857e+00	 9.808548e+00
0	 3.571429e+00	 7.142857e+00	 9.855398e+00
0	 3.571429e+00	 7.214286e+00	 9.862385e+00
0	 3.571429e+00	 7.285714e+00	 9.869548e+00
0	 3.571429e+00	 7.357143e+00	 9.876887e+00
0	 3.571429e+00	 7.428571e+00	 9.884402e+00
0	 3.571429e+00	 7.500000e+00	 9.892092e+00
0	 3.642857e+00	 7.142857e+00	 9.844303e+00
0	 3.642857e+00	 7.214286e+00	 9.851727e+00
0	 3.642857e+00	 7.285714e+00	 9.859325e+00
0	 3.642857e+00	 7.357143e+00	 9.867100e+00
0	 3.642857e+00	 7.428571e+00	 9.875049e+00
0	 3.642857e+00	 7.500000e+00	 9.883174e+00
0	 3.714286e+00	 7.142857e+00	 9.834070e+00
0	 3.714286e+00	 7.214286e+00	 9.841892e+00
0	 3.714286e+00	 7.285714e+00	 9.849888e+00
0	 3.714286e+00	 7.357143e+00	 9.858059e+00
0	 3.714286e+00	 7.428571e+00	 9.866405e+00
0	 3.714286e+00	 7.500000e+00	 9.874925e+00
0	 3.785714e+00	 7.142857e+00	 9.824700e+00
0	 3.785714e+00	 7.214286e+00	 9.832882e+00
0	 3.785714e+00	 7.285714e+00	 9.841237e+00
0	 3.785714e+00	 7.357143e+00	 9.849766e+00
0	 3.785714e+00	 7.428571e+00	 9.858469e+00
0	 3.785714e+00	 7.500000e+00	 9.867347e+00
0	 3.857143e+00	 7.142857e+00	 9.816193e+00
0	 3.857143e+00	 7.214286e+00	 9.824695e+00
0	 3.857143e+00	 7.285714e+00	 9.833371e+00
0	 3.857143e+00	 7.357143e+00	 9.842220e+00
0	 3.857143e+00	 7.428571e+00	 9.851243e+00
0	 3.857143e+00	 7.500000e+00	 9.860438e+00
0	 3.928571e+00	 7.142857e+00	 9.808548e+00
0	 3.928571e+00	 7.214286e+00	 9.817333e+00
0	 3.928571e+00	 7.285714e+00	 9.826291e+00
0	 3.928571e+00	 7.357143e+00	 9.835421e+00
0	 3.928571e+00	 7.428571e+00	 9.844724e+00
0	 3.928571e+00	 7.500000e+00	 9.854200e+00
0	 3.571429e+00	 7.500000e+00	 9.892092e+00
0	 3.571429e+00	 7.571429e+00	 9.897673e+00
0	 3.571429e+00	 7.642857e+00	 9.903408e+00
0	 3.571429e+00	 7.714286e+00	 9.909297e+00
0	 3.571429e+00	 7.785714e+00	 9.915340e+00
0	 3.571429e+00	 7.857143e+00	 9.921537e+00
0	 3.642857e+00	 7.500000e+00	 9.883174e+00
0	 3.642857e+00	 7.571429e+00	 9.889154e+00
0	 3.642857e+00	 7.642857e+00	 9.895291e+00
0	 3.642857e+00	 7.714286e+00	 9.901583e+00
0	 3.642857e+00	 7.785714e+00	 9.908032e+00
0	 3.642857e+00	 7.857143e+00	 9.914638e+00
0	 3.714286e+00	 7.500000e+00	 9.874925e+00
0	 3.714286e+00	 7.571429e+00	 9.881273e+00
0	 3.714286e+00	 7.642857e+00	 9.887779e+00
0	 3.714286e+00	 7.714286e+00	 9.894444e+00
0	 3.714286e+00	 7.785714e+00	 9.901267e+00
0	 3.714286e+00	 7.857143e+00	 9.908249e+00
0	 3.785714e+00	 7.500000e+00	 9.867347e+00
0	 3.785714e+00	 7.571429e+00	 9.874030e+00
0	 3.785714e+00	 7.642857e+00	 9.880874e+00
0	 3.785714e+00	 7.714286e+00	 9.887879e+00
0	 3.785714e+00	 7.785714e+00	 9.895045e+00
0	 3.785714e+00	 7.857143e+00	 9.902371e+00
0	 3.857143e+00	 7.500000e+00	 9.860438e+00
0	 3.857143e+00	 7.571429e+00	 9.867426e+00
0	 3.857143e+00	 7.642857e+00	 9.874576e+00
0	 3.857143e+00	 7.714286e+00	 9.881889e+00
0	 3.857143e+00	 7.785714e+00	 9.889365e+00
0	 3.857143e+00	 7.857143e+00	 9.897003e+00
0	 3.928571e+00	 7.500000e+00	 9.854200e+00
0	 3.928571e+00	 7.571429e+00	 9.861459e+00
0	 3.928571e+00	 7.642857e+00	 9.868883e+00
0	 3.928571e+00	 7.714286e+00	 9.876472e+00
0	 3.928571e+00	 7.785714e+00	 9.884227e+00
0	 3.928571e+00	 7.857143e+00	 9.892146e+00
0	 3.571429e+00	 7.857143e+00	 9.921537e+00
0	 3.571429e+00	 7.928571e+00	 9.925987e+00
0	 3.571429e+00	 8.000000e+00	 9.930576e+00
0	 3.571429e+00	 8.071429e+00	 9.935303e+00
0	 3.571429e+00	 8.142857e+00	 9.940168e+00
0	 3.571429e+00	 8.214286e+00	 9.945171e+00
0	 3.642857e+00	 7.857143e+00	 9.914638e+00
0	 3.642857e+00	 7.928571e+00	 9.919445e+00
0	 3.642857e+00	 8.000000e+00	 9.924395e+00
0	 3.642857e+00	 8.071429e+00	 9.929488e+00
0	 3.642857e+00	 8.142857e+00	 9.934724e+00
0	 3.642857e+00	 8.214286e+00	 9.940103e+00
0	 3.714286e+00	 7.857143e+00	 9.908249e+00
0	 3.714286e+00	 7.928571e+00	 9.913387e+00
0	 3.714286e+00	 8.000000e+00	 9.918672e+00
0	 3.714286e+00	 8.071429e+00	 9.924105e+00
0	 3.714286e+00	 8.142857e+00	 9.929686e+00
0	 3.714286e+00	 8.214286e+00	 9.935415e+00
0	 3.785714e+00	 7.857143e+00	 9.902371e+00
0	 3.785714e+00	 7.928571e+00	 9.907813e+00
0	 3.785714e+00	 8.000000e+00	 9.913407e+00
0	 3.785714e+00	 8.071429e+00	 9.919154e+00
0	 3.785714e+00	 8.142857e+00	 9.925053e+00
0	 3.785714e+00	 8.214286e+00	 9.931106e+00
0	 3.857143e+00	 7.857143e+00	 9.897003e+00
0	 3.857143e+00	 7.928571e+00	 9.902723e+00
0	 3.857143e+00	 8.000000e+00	 9.908600e+00
0	 3.857143e+00	 8.071429e+00	 9.914635e+00
0	 3.857143e+00	 8.142857e+00	 9.920827e+00
0	 3.857143e+00	 8.214286e+00	 9.927176e+00
0	 3.928571e+00	 7.857143e+00	 9.892146e+00
0	 3.928571e+00	 7.928571e+00	 9.898118e+00
0	 3.928571e+00	 8.000000e+00	 9.904251e+00
0	 3.928571e+00	 8.071429e+00	 9.910547e+00
0	 3.928571e+00	 8.142857e+00	 9.917005e+00
0	 3.928571e+00	 8.214286e+00	 9.923626e+00
0	 3.571429e+00	 8.214286e+00	 9.945171e+00
0	 3.571429e+00	 8.285714e+00	 9.948697e+00
0	 3.571429e+00	 8.357143e+00	 9.952353e+00
0	 3.571429e+00	 8.428571e+00	 9.956140e+00
0	 3.571429e+00	 8.500000e+00	 9.960058e+00
0	 3.571429e+00	 8.571429e+00	 9.964107e+00
0	 3.642857e+00	 8.214286e+00	 9.940103e+00
0	 3.642857e+00	 8.285714e+00	 9.943936e+00
0	 3.642857e+00	 8.357143e+00	 9.947907e+00
0	 3.642857e+00	 8.428571e+00	 9.952016e+00
0	 3.642857e+00	 8.500000e+00	 9.956264e+00
0	 3.642857e+00	 8.571429e+00	 9.960650e+00
0	 3.714286e+00	 8.214286e+00	 9.935415e+00
0	 3.714286e+00	 8.285714e+00	 9.939534e+00
0	 3.714286e+00	 8.357143e+00	 9.943798e+00
0	 3.714286e+00	 8.428571e+00	 9.948209e+00
0	 3.714286e+00	 8.500000e+00	 9.952765e+00
0	 3.714286e+00	 8.571429e+00	 9.957467e+00
0	 3.785714e+00	 8.214286e+00	 9.931106e+00
0	 3.785714e+00	 8.285714e+00	 9.935490e+00
0	 3.785714e+00	 8.357143e+00	 9.940027e+00
0	 3.785714e+00	 8.428571e+00	 9.944718e+00
0	 3.785714e+00	 8.500000e+00	 9.949562e+00
0	 3.785714e+00	 8.571429e+00	 9.954559e+00
0	 3.857143e+00	 8.214286e+00	 9.927176e+00
0	 3.857143e+00	 8.285714e+00	 9.931805e+00
0	 3.857143e+00	 8.357143e+00	 9.936594e+00
0	 3.857143e+00	 8.428571e+00	 9.941544e+00
0	 3.857143e+00	 8.500000e+00	 9.946655e+00
0	 3.857143e+00	 8.571429e+00	 9.951927e+00
0	 3.928571e+00	 8.214286e+00	 9.923626e+00
0	 3.928571e+00	 8.285714e+00	 9.928478e+00
0	 3.928571e+00	 8.357143e+00	 9.933499e+00
0	 3.928571e+00	 8.428571e+00	 9.938687e+00
0	 3.928571e+00	 8.500000e+00	 9.944044e+00
0	 3.928571e+00	 8.571429e+00	 9.949569e+00
0	 3.571429e+00	 8.571429e+00	 9.964107e+00
0	 3.571429e+00	 8.642857e+00	 9.966837e+00
0	 3.571429e+00	 8.714286e+00	 9.969703e+00
0	 3.571429e+00	 8.785714e+00	 9.972704e+00
0	 3.571429e+00	 8.857143e+00	 9.975840e+00
0	 3.571429e+00	 8.928571e+00	 9.979112e+00
0	 3.642857e+00	 8.571429e+00	 9.960650e+00
0	 3.642857e+00	 8.642857e+00	 9.963630e+00
0	 3.642857e+00	 8.714286e+00	 9.966756e+00
0	 3.642857e+00	 8.785714e+00	 9.970027e+00
0	 3.642857e+00	 8.857143e+00	 9.973444e+00
0	 3.642857e+00	 8.928571e+00	 9.977007e+00
0	 3.714286e+00	 8.571429e+00	 9.957467e+00
0	 3.714286e+00	 8.642857e+00	 9.960681e+00
0	 3.714286e+00	 8.714286e+00	 9.964052e+00
0	 3.714286e+00	 8.785714e+00	 9.967578e+00
0	 3.714286e+00	 8.857143e+00	 9.971260e+00
0	 3.714286e+00	 8.928571e+00	 9.975098e+00
0	 3.785714e+00	 8.571429e+00	 9.954559e+00
0	 3.785714e+00	 8.642857e+00	 9.957992e+00
0	 3.785714e+00	 8.714286e+00	 9.961591e+00
0	 3.785714e+00	 8.785714e+00	 9.965356e+00
0	 3.785714e+00	 8.857143e+00	 9.969288e+00
0	 3.785714e+00	 8.928571e+00	 9.973386e+00
0	 3.857143e+00	 8.571429e+00	 9.951927e+00
0	 3.857143e+00	 8.642857e+00	 9.955562e+00
0	 3.857143e+00	 8.714286e+00	 9.959374e+00
0	 3.857143e+00	 8.785714e+00	 9.963363e+00
0	 3.857143e+00	 8.857143e+00	 9.967528e+00
0	 3.857143e+00	 8.928571e+00	 9.971870e+00
0	 3.928571e+00	 8.571429e+00	 9.949569e+00
0	 3.928571e+00	 8.642857e+00	 9.953391e+00
0	 3.928571e+00	 8.714286e+00	 9.957401e+00
0	 3.928571e+00	 8.785714e+00	 9.961597e+00
0	 3.928571e+00	 8.857143e+00	 9.965980e+00
0	 3.928571e+00	 8.928571e+00	 9.970550e+00
0	 3.571429e+00	 8.928571e+00	 9.979112e+00
0	 3.571429e+00	 9.000000e+00	 9.981083e+00
0	 3.571429e+00	 9.071429e+00	 9.983209e+00
0	 3.571429e+00	 9.142857e+00	 9.985492e+00
0	 3.571429e+00	 9.214286e+00	 9.987930e+00
0	 3.571429e+00	 9.285714e+00	 9.990524e+00
0	 3.642857e+00	 8.928571e+00	 9.977007e+00
0	 3.642857e+00	 9.000000e+00	 9.979159e+00
0	 3.642857e+00	 9.071429e+00	 9.981481e+00
0	 3.642857e+00	 9.142857e+00	 9.983972e+00
0	 3.642857e+00	 9.214286e+00	 9.986632e+00
0	 3.642857e+00	 9.285714e+00	 9.989463e+00
0	 3.714286e+00	 8.928571e+00	 9.975098e+00
0	 3.714286e+00	 9.000000e+00	 9.977422e+00
0	 3.714286e+00	 9.071429e+00	 9.979929e+00
0	 3.714286e+00	 9.142857e+00	 9.982618e+00
0	 3.714286e+00	 9.214286e+00	 9.985491e+00
0	 3.714286e+00	 9.285714e+00	 9.988547e+00
0	 3.785714e+00	 8.928571e+00	 9.973386e+00
0	 3.785714e+00	 9.000000e+00	 9.975871e+00
0	 3.785714e+00	 9.071429e+00	 9.978553e+00
0	 3.785714e+00	 9.142857e+00	 9.981431e+00
0	 3.785714e+00	 9.214286e+00	 9.984506e+00
0	 3.785714e+00	 9.285714e+00	 9.987777e+00
0	 3.857143e+00	 8.928571e+00	 9.971870e+00
0	 3.857143e+00	 9.000000e+00	 9.974506e+00
0	 3.857143e+00	 9.071429e+00	 9.977353e+00
0	 3.857143e+00	 9.142857e+00	 9.980410e+00
0	 3.857143e+00	 9.214286e+00	 9.983677e+00
0	 3.857143e+00	 9.285714e+00	 9.987154e+00
0	 3.928571e+00	 8.928571e+00	 9.970550e+00
0	 3.928571e+00	 9.000000e+00	 9.973328e+00
0	 3.928571e+00	 9.071429e+00	 9.976330e+00
0	 3.928571e+00	 9.142857e+00	 9.979555e+00
0	 3.928571e+00	 9.214286e+00	 9.983004e+00
0	 3.928571e+00	 9.285714e+00	 9.986677e+00
0	 3.571429e+00	 9.285714e+00	 9.990524e+00
0	 3.571429e+00	 9.357143e+00	 9.991678e+00
0	 3.571429e+00	 9.428571e+00	 9.993030e+00
0	 3.571429e+00	 9.500000e+00	 9.994580e+00
0	 3.571429e+00	 9.571429e+00	 9.996328e+00
0	 3.571429e+00	 9.642857e+00	 9.998274e+00
0	 3.642857e+00	 9.285714e+00	 9.989463e+00
0	 3.642857e+00	 9.357143e+00	 9.990715e+00
0	 3.642857e+00	 9.428571e+00	 9.992184e+00
0	 3.642857e+00	 9.500000e+00	 9.993868e+00
0	 3.642857e+00	 9.571429e+00	 9.995767e+00
0	 3.642857e+00	 9.642857e+00	 9.997882e+00
0	 3.714286e+00	 9.285714e+00	 9.988547e+00
0	 3.714286e+00	 9.357143e+00	 9.989895e+00
0	 3.714286e+00	 9.428571e+00	 9.991477e+00
0	 3.714286e+00	 9.500000e+00	 9.993291e+00
0	 3.714286e+00	 9.571429e+00	 9.995339e+00
0	 3.714286e+00	 9.642857e+00	 9.997619e+00
0	 3.785714e+00	 9.285714e+00	 9.987777e+00
0	 3.785714e+00	 9.357143e+00	 9.989218e+00
0	 3.785714e+00	 9.428571e+00	 9.990909e+00
0	 3.785714e+00	 9.500000e+00	 9.992851e+00
0	 3.785714e+00	 9.571429e+00	 9.995043e+00
0	 3.785714e+00	 9.642857e+00	 9.997485e+00
0	 3.857143e+00	 9.285714e+00	 9.987154e+00
0	 3.857143e+00	 9.357143e+00	 9.988684e+00
0	 3.857143e+00	 9.428571e+00	 9.990481e+00
0	 3.857143e+00	 9.500000e+00	 9.992546e+00
0	 3.857143e+00	 9.571429e+00	 9.994880e+00
0	 3.857143e+00	 9.642857e+00	 9.997481e+00
0	 3.928571e+00	 9.285714e+00	 9.986677e+00
0	 3.928571e+00	 9.357143e+00	 9.988292e+00
0	 3.928571e+00	 9.428571e+00	 9.990192e+00
0	 3.928571e+00	 9.500000e+00	 9.992378e+00
0	 3.928571e+00	 9.571429e+00	 9.994849e+00
0	 3.928571e+00	 9.642857e+00	 9.997605e+00
0	 3.571429e+00	 9.642857e+00	 9.998274e+00
0	 3.571429e+00	 9.714286e+00	 9.998345e+00
0	 3.571429e+00	 9.785714e+00	 9.998688e+00
0	 3.571429e+00	 9.857143e+00	 9.999301e+00
0	 3.571429e+00	 9.928571e+00	 1.000019e+01
0	 3.571429e+00	 1.000000e+01	 1.000134e+01
0	 3.642857e+00	 9.642857e+00	 9.997882e+00
0	 3.642857e+00	 9.714286e+00	 9.997947e+00
0	 3.642857e+00	 9.785714e+00	 9.998305e+00
0	 3.642857e+00	 9.857143e+00	 9.998956e+00
0	 3.642857e+00	 9.928571e+00	 9.999901e+00
0	 3.642857e+00	 1.000000e+01	 1.000114e+01
0	 3.714286e+00	 9.642857e+00	 9.997619e+00
0	 3.714286e+00	 9.714286e+00	 9.997683e+00
0	 3.714286e+00	 9.785714e+00	 9.998061e+00
0	 3.714286e+00	 9.857143e+00	 9.998756e+00
0	 3.714286e+00	 9.928571e+00	 9.999765e+00
0	 3.714286e+00	 1.000000e+01	 1.000109e+01
0	 3.785714e+00	 9.642857e+00	 9.997485e+00
0	 3.785714e+00	 9.714286e+00	 9.997553e+00
0	 3.785714e+00	 9.785714e+00	 9.997958e+00
0	 3.785714e+00	 9.857143e+00	 9.998700e+00
0	 3.785714e+00	 9.928571e+00	 9.999780e+00
0	 3.785714e+00	 1.000000e+01	 1.000120e+01
0	 3.857143e+00	 9.642857e+00	 9.997481e+00
0	 3.857143e+00	 9.714286e+00	 9.997557e+00
0	 3.857143e+00	 9.785714e+00	 9.997994e+00
0	 3.857143e+00	 9.857143e+00	 9.998789e+00
0	 3.857143e+00	 9.928571e+00	 9.999945e+00
0	 3.857143e+00	 1.000000e+01	 1.000146e+01
0	 3.928571e+00	 9.642857e+00	 9.997605e+00
0	 3.928571e+00	 9.714286e+00	 9.997696e+00
0	 3.928571e+00	 9.785714e+00	 9.998169e+00
0	 3.928571e+00	 9.857143e+00	 9.999024e+00
0	 3.928571e+00	 9.928571e+00	 1.000026e+01
0	 3.928571e+00	 1.000000e+01	 1.000188e+01
0	 3.928571e+00	 0.000000e+00	 9.644322e+00
0	 3.928571e+00	 7.142857e-02	 9.608524e+00
0	 3.928571e+00	 1.428571e-01	 9.581642e+00
0	 3.928571e+00	 2.142857e-01	 9.563676e+00
0	 3.928571e+00	 2.857143e-01	 9.554624e+00
0	 3.928571e+00	 3.571429e-01	 9.554489e+00
0	 4.000000e+00	 0.000000e+00	 9.682246e+00
0	 4.000000e+00	 7.142857e-02	 9.650892e+00
0	 4.000000e+00	 1.428571e-01	 9.628299e+00
0	 4.000000e+00	 2.142857e-01	 9.614468e+00
0	 4.000000e+00	 2.857143e-01	 9.609399e+00
0	 4.000000e+00	 3.571429e-01	 9.613092e+00
0	 4.071429e+00	 0.000000e+00	 9.721148e+00
0	 4.071429e+00	 7.142857e-02	 9.692922e+00
0	 4.071429e+00	 1.428571e-01	 9.673304e+00
0	 4.071429e+00	 2.142857e-01	 9.662294e+00
0	 4.071429e+00	 2.857143e-01	 9.659891e+00
0	 4.071429e+00	 3.571429e-01	 9.666096e+00
0	 4.142857e+00	 0.000000e+00	 9.761030e+00
0	 4.142857e+00	 7.142857e-02	 9.734616e+00
0	 4.142857e+00	 1.428571e-01	 9.716657e+00
0	 4.142857e+00	 2.142857e-01	 9.707151e+00
0	 4.142857e+00	 2.857143e-01	 9.706100e+00
0	 4.142857e+00	 3.571429e-01	 9.713502e+00
0	 4.214286e+00	 0.000000e+00	 9.801890e+00
0	 4.214286e+00	 7.142857e-02	 9.775974e+00
0	 4.214286e+00	 1.428571e-01	 9.758358e+00
0	 4.214286e+00	 2.142857e-01	 9.749042e+00
0	 4.214286e+00	 2.857143e-01	 9.748026e+00
0	 4.214286e+00	 3.571429e-01	 9.755309e+00
0	 4.285714e+00	 0.000000e+00	 9.843729e+00
0	 4.285714e+00	 7.142857e-02	 9.816995e+00
0	 4.285714e+00	 1.428571e-01	 9.798406e+00
0	 4.285714e+00	 2.142857e-01	 9.787964e+00
0	 4.285714e+00	 2.857143e-01	 9.785668e+00
0	 4.285714e+00	 3.571429e-01	 9.791518e+00
0	 3.928571e+00	 3.571429e-01	 9.554489e+00
0	 3.928571e+00	 4.285714e-01	 9.501840e+00
0	 3.928571e+00	 5.000000e-01	 9.458428e+00
0	 3.928571e+00	 5.714286e-01	 9.424254e+00
0	 3.928571e+00	 6.428571e-01	 9.399317e+00
0	 3.928571e+00	 7.142857e-01	 9.383617e+00
0	 4.000000e+00	 3.571429e-01	 9.613092e+00
0	 4.000000e+00	 4.285714e-01	 9.558504e+00
0	 4.000000e+00	 5.000000e-01	 9.512620e+00
0	 4.000000e+00	 5.714286e-01	 9.475440e+00
0	 4.000000e+00	 6.428571e-01	 9.446965e+00
0	 4.000000e+00	 7.142857e-01	 9.427194e+00
0	 4.071429e+00	 3.571429e-01	 9.666096e+00
0	 4.071429e+00	 4.285714e-01	 9.610782e+00
0	 4.071429e+00	 5.000000e-01	 9.563640e+00
0	 4.071429e+00	 5.714286e-01	 9.524669e+00
0	 4.071429e+00	 6.428571e-01	 9.493869e+00
0	 4.071429e+00	 7.142857e-01	 9.471241e+00
0	 4.142857e+00	 3.571429e-01	 9.713502e+00
0	 4.142857e+00	 4.285714e-01	 9.658676e+00
0	 4.142857e+00	 5.000000e-01	 9.611489e+00
0	 4.142857e+00	 5.714286e-01	 9.571940e+00
0	 4.142857e+00	 6.428571e-01	 9.540030e+00
0	 4.142857e+00	 7.142857e-01	 9.515758e+00
0	 4.214286e+00	 3.571429e-01	 9.755309e+00
0	 4.214286e+00	 4.285714e-01	 9.702186e+00
0	 4.214286e+00	 5.000000e-01	 9.656167e+00
0	 4.214286e+00	 5.714286e-01	 9.617254e+00
0	 4.214286e+00	 6.428571e-01	 9.585446e+00
0	 4.214286e+00	 7.142857e-01	 9.560744e+00
0	 4.285714e+00	 3.571429e-01	 9.791518e+00
0	 4.285714e+00	 4.285714e-01	 9.741310e+00
0	 4.285714e+00	 5.000000e-01	 9.697674e+00
0	 4.285714e+00	 5.714286e-01	 9.660610e+00
0	 4.285714e+00	 6.428571e-01	 9.630119e+00
0	 4.285714e+00	 7.142857e-01	 9.606200e+00
0	 3.928571e+00	 7.142857e-01	 9.383617e+00
0	 3.928571e+00	 7.857143e-01	 9.307777e+00
0	 3.928571e+00	 8.571429e-01	 9.238214e+00
0	 3.928571e+00	 9.285714e-01	 9.174931e+00
0	 3.928571e+00	 1.000000e+00	 9.117925e+00
0	 3.928571e+00	 1.071429e+00	 9.067198e+00
0	 4.000000e+00	 7.142857e-01	 9.427194e+00
0	 4.000000e+00	 7.857143e-01	 9.355730e+00
0	 4.000000e+00	 8.571429e-01	 9.290101e+00
0	 4.000000e+00	 9.285714e-01	 9.230307e+00
0	 4.000000e+00	 1.000000e+00	 9.176348e+00
0	 4.000000e+00	 1.071429e+00	 9.128224e+00
0	 4.071429e+00	 7.142857e-01	 9.471241e+00
0	 4.071429e+00	 7.857143e-01	 9.403451e+00
0	 4.071429e+00	 8.571429e-01	 9.341053e+00
0	 4.071429e+00	 9.285714e-01	 9.284047e+00
0	 4.071429e+00	 1.000000e+00	 9.232432e+00
0	 4.071429e+00	 1.071429e+00	 9.186210e+00
0	 4.142857e+00	 7.142857e-01	 9.515758e+00
0	 4.142857e+00	 7.857143e-01	 9.450940e+00
0	 4.142857e+00	 8.571429e-01	 9.391071e+00
0	 4.142857e+00	 9.285714e-01	 9.336151e+00
0	 4.142857e+00	 1.000000e+00	 9.286179e+00
0	 4.142857e+00	 1.071429e+00	 9.241156e+00
0	 4.214286e+00	 7.142857e-01	 9.560744e+00
0	 4.214286e+00	 7.857143e-01	 9.498197e+00
0	 4.214286e+00	 8.571429e-01	 9.440156e+00
0	 4.214286e+00	 9.285714e-01	 9.386620e+00
0	 4.214286e+00	 1.000000e+00	 9.337589e+00
0	 4.214286e+00	 1.071429e+00	 9.293063e+00
0	 4.285714e+00	 7.142857e-01	 9.606200e+00
0	 4.285714e+00	 7.857143e-01	 9.545222e+00
0	 4.285714e+00	 8.571429e-01	 9.488306e+00
0	 4.285714e+00	 9.285714e-01	 9.435452e+00
0	 4.285714e+00	 1.000000e+00	 9.386660e+00
0	 4.285714e+00	 1.071429e+00	 9.341931e+00
0	 3.928571e+00	 1.071429e+00	 9.067198e+00
0	 3.928571e+00	 1.142857e+00	 8.997394e+00
0	 3.928571e+00	 1.214286e+00	 8.927647e+00
0	 3.928571e+00	 1.285714e+00	 8.857956e+00
0	 3.928571e+00	 1.357143e+00	 8.788322e+00
0	 3.928571e+00	 1.428571e+00	 8.718745e+00
0	 4.000000e+00	 1.071429e+00	 9.128224e+00
0	 4.000000e+00	 1.142857e+00	 9.060393e+00
0	 4.000000e+00	 1.214286e+00	 8.992943e+00
0	 4.000000e+00	 1.285714e+00	 8.925872e+00
0	 4.000000e+00	 1.357143e+00	 8.859182e+00
0	 4.000000e+00	 1.428571e+00	 8.792873e+00
0	 4.071429e+00	 1.071429e+00	 9.186210e+00
0	 4.071429e+00	 1.142857e+00	 9.120036e+00
0	 4.071429e+00	 1.214286e+00	 9.054565e+00
0	 4.071429e+00	 1.285714e+00	 8.989799e+00
0	 4.071429e+00	 1.357143e+00	 8.925736e+00
0	 4.071429e+00	 1.428571e+00	 8.862376e+00
0	 4.142857e+00	 1.071429e+00	 9.241156e+00
0	 4.142857e+00	 1.142857e+00	 9.176322e+00
0	 4.142857e+00	 1.214286e+00	 9.112515e+00
0	 4.142857e+00	 1.285714e+00	 9.049735e+00
0	 4.142857e+00	 1.357143e+00	 8.987982e+00
0	 4.142857e+00	 1.428571e+00	 8.927256e+00
0	 4.214286e+00	 1.071429e+00	 9.293063e+00
0	 4.214286e+00	 1.142857e+00	 9.229252e+00
0	 4.214286e+00	 1.214286e+00	 9.166791e+00
0	 4.214286e+00	 1.285714e+00	 9.105681e+00
0	 4.214286e+00	 1.357143e+00	 9.045921e+00
0	 4.214286e+00	 1.428571e+00	 8.987512e+00
0	 4.285714e+00	 1.071429e+00	 9.341931e+00
0	 4.285714e+00	 1.142857e+00	 9.278825e+00
0	 4.285714e+00	 1.214286e+00	 9.217394e+00
0	 4.285714e+00	 1.285714e+00	 9.157636e+00
0	 4.285714e+00	 1.357143e+00	 9.099553e+00
0	 4.285714e+00	 1.428571e+00	 9.043144e+00
0	 3.928571e+00	 1.428571e+00	 8.718745e+00
0	 3.928571e+00	 1.500000e+00	 8.665823e+00
0	 3.928571e+00	 1.571429e+00	 8.610371e+00
0	 3.928571e+00	 1.642857e+00	 8.552388e+00
0	 3.928571e+00	 1.714286e+00	 8.491876e+00
0	 3.928571e+00	 1.785714e+00	 8.428833e+00
0	 4.000000e+00	 1.428571e+00	 8.792873e+00
0	 4.000000e+00	 1.500000e+00	 8.740586e+00
0	 4.000000e+00	 1.571429e+00	 8.685904e+00
0	 4.000000e+00	 1.642857e+00	 8.628827e+00
0	 4.000000e+00	 1.714286e+00	 8.569355e+00
0	 4.000000e+00	 1.785714e+00	 8.507488e+00
0	 4.071429e+00	 1.428571e+00	 8.862376e+00
0	 4.071429e+00	 1.500000e+00	 8.810742e+00
0	 4.071429e+00	 1.571429e+00	 8.756848e+00
0	 4.071429e+00	 1.642857e+00	 8.700695e+00
0	 4.071429e+00	 1.714286e+00	 8.642282e+00
0	 4.071429e+00	 1.785714e+00	 8.581609e+00
0	 4.142857e+00	 1.428571e+00	 8.927256e+00
0	 4.142857e+00	 1.500000e+00	 8.876293e+00
0	 4.142857e+00	 1.571429e+00	 8.823205e+00
0	 4.142857e+00	 1.642857e+00	 8.767992e+00
0	 4.142857e+00	 1.714286e+00	 8.710656e+00
0	 4.142857e+00	 1.785714e+00	 8.651195e+00
0	 4.214286e+00	 1.428571e+00	 8.987512e+00
0	 4.214286e+00	 1.500000e+00	 8.937237e+00
0	 4.214286e+00	 1.571429e+00	 8.884973e+00
0	 4.214286e+00	 1.642857e+00	 8.830720e+00
0	 4.214286e+00	 1.714286e+00	 8.774478e+00
0	 4.214286e+00	 1.785714e+00	 8.716247e+00
0	 4.285714e+00	 1.428571e+00	 9.043144e+00
0	 4.285714e+00	 1.500000e+00	 8.993575e+00
0	 4.285714e+00	 1.571429e+00	 8.942153e+00
0	 4.285714e+00	 1.642857e+00	 8.888876e+00
0	 4.285714e+00	 1.714286e+00	 8.833747e+00
0	 4.285714e+00	 1.785714e+00	 8.776764e+00
0	 3.928571e+00	 1.785714e+00	 8.428833e+00
0	 3.928571e+00	 1.857143e+00	 8.404741e+00
0	 3.928571e+00	 1.928571e+00	 8.375103e+00
0	 3.928571e+00	 2.000000e+00	 8.339916e+00
0	 3.928571e+00	 2.071429e+00	 8.299182e+00
0	 3.928571e+00	 2.142857e+00	 8.252900e+00
0	 4.000000e+00	 1.785714e+00	 8.507488e+00
0	 4.000000e+00	 1.857143e+00	 8.482171e+00
0	 4.000000e+00	 1.928571e+00	 8.451715e+00
0	 4.000000e+00	 2.000000e+00	 8.416120e+00
0	 4.000000e+00	 2.071429e+00	 8.375387e+00
0	 4.000000e+00	 2.142857e+00	 8.329514e+00
0	 4.071429e+00	 1.785714e+00	 8.581609e+00
0	 4.071429e+00	 1.857143e+00	 8.555056e+00
0	 4.071429e+00	 1.928571e+00	 8.523772e+00
0	 4.071429e+00	 2.000000e+00	 8.487759e+00
0	 4.071429e+00	 2.071429e+00	 8.447016e+00
0	 4.071429e+00	 2.142857e+00	 8.401542e+00
0	 4.142857e+00	 1.785714e+00	 8.651195e+00
0	 4.142857e+00	 1.857143e+00	 8.623396e+00
0	 4.142857e+00	 1.928571e+00	 8.591275e+00
0	 4.142857e+00	 2.000000e+00	 8.554833e+00
0	 4.142857e+00	 2.071429e+00	 8.514069e+00
0	 4.142857e+00	 2.142857e+00	 8.468985e+00
0	 4.214286e+00	 1.785714e+00	 8.716247e+00
0	 4.214286e+00	 1.857143e+00	 8.687190e+00
0	 4.214286e+00	 1.928571e+00	 8.654222e+00
0	 4.214286e+00	 2.000000e+00	 8.617341e+00
0	 4.214286e+00	 2.071429e+00	 8.576547e+00
0	 4.214286e+00	 2.142857e+00	 8.531841e+00
0	 4.285714e+00	 1.785714e+00	 8.776764e+00
0	 4.285714e+00	 1.857143e+00	 8.746440e+00
0	 4.285714e+00	 1.928571e+00	 8.712614e+00
0	 4.285714e+00	 2.000000e+00	 8.675283e+00
0	 4.285714e+00	 2.071429e+00	 8.634449e+00
0	 4.285714e+00	 2.142857e+00	 8.590112e+00
0	 3.928571e+00	 2.142857e+00	 8.252900e+00
0	 3.928571e+00	 2.214286e+00	 8.258720e+00
0	 3.928571e+00	 2.285714e+00	 8.258318e+00
0	 3.928571e+00	 2.357143e+00	 8.251694e+00
0	 3.928571e+00	 2.428571e+00	 8.238846e+00
0	 3.928571e+00	 2.500000e+00	 8.219777e+00
0	 4.000000e+00	 2.142857e+00	 8.329514e+00
0	 4.000000e+00	 2.214286e+00	 8.330922e+00
0	 4.000000e+00	 2.285714e+00	 8.326509e+00
0	 4.000000e+00	 2.357143e+00	 8.316274e+00
0	 4.000000e+00	 2.428571e+00	 8.300218e+00
0	 4.000000e+00	 2.500000e+00	 8.278340e+00
0	 4.071429e+00	 2.142857e+00	 8.401542e+00
0	 4.071429e+00	 2.214286e+00	 8.399173e+00
0	 4.071429e+00	 2.285714e+00	 8.391383e+00
0	 4.071429e+00	 2.357143e+00	 8.378172e+00
0	 4.071429e+00	 2.428571e+00	 8.359541e+00
0	 4.071429e+00	 2.500000e+00	 8.335490e+00
0	 4.142857e+00	 2.142857e+00	 8.468985e+00
0	 4.142857e+00	 2.214286e+00	 8.463472e+00
0	 4.142857e+00	 2.285714e+00	 8.452940e+00
0	 4.142857e+00	 2.357143e+00	 8.437388e+00
0	 4.142857e+00	 2.428571e+00	 8.416817e+00
0	 4.142857e+00	 2.500000e+00	 8.391226e+00
0	 4.214286e+00	 2.142857e+00	 8.531841e+00
0	 4.214286e+00	 2.214286e+00	 8.523820e+00
0	 4.214286e+00	 2.285714e+00	 8.511181e+00
0	 4.214286e+00	 2.357143e+00	 8.493922e+00
0	 4.214286e+00	 2.428571e+00	 8.472045e+00
0	 4.214286e+00	 2.500000e+00	 8.445549e+00
0	 4.285714e+00	 2.142857e+00	 8.590112e+00
0	 4.285714e+00	 2.214286e+00	 8.580217e+00
0	 4.285714e+00	 2.285714e+00	 8.566104e+00
0	 4.285714e+00	 2.357143e+00	 8.547774e+00
0	 4.285714e+00	 2.428571e+00	 8.525225e+00
0	 4.285714e+00	 2.500000e+00	 8.498459e+00
0	 3.928571e+00	 2.500000e+00	 8.219777e+00
0	 3.928571e+00	 2.571429e+00	 8.241997e+00
0	 3.928571e+00	 2.642857e+00	 8.259367e+00
0	 3.928571e+00	 2.714286e+00	 8.271884e+00
0	 3.928571e+00	 2.785714e+00	 8.279550e+00
0	 3.928571e+00	 2.857143e+00	 8.282364e+00
0	 4.000000e+00	 2.500000e+00	 8.278340e+00
0	 4.000000e+00	 2.571429e+00	 8.297675e+00
0	 4.000000e+00	 2.642857e+00	 8.312299e+00
0	 4.000000e+00	 2.714286e+00	 8.322213e+00
0	 4.000000e+00	 2.785714e+00	 8.327416e+00
0	 4.000000e+00	 2.857143e+00	 8.327909e+00
0	 4.071429e+00	 2.500000e+00	 8.335490e+00
0	 4.071429e+00	 2.571429e+00	 8.352042e+00
0	 4.071429e+00	 2.642857e+00	 8.364025e+00
0	 4.071429e+00	 2.714286e+00	 8.371438e+00
0	 4.071429e+00	 2.785714e+00	 8.374282e+00
0	 4.071429e+00	 2.857143e+00	 8.372556e+00
0	 4.142857e+00	 2.500000e+00	 8.391226e+00
0	 4.142857e+00	 2.571429e+00	 8.405099e+00
0	 4.142857e+00	 2.642857e+00	 8.414544e+00
0	 4.142857e+00	 2.714286e+00	 8.419560e+00
0	 4.142857e+00	 2.785714e+00	 8.420147e+00
0	 4.142857e+00	 2.857143e+00	 8.416306e+00
0	 4.214286e+00	 2.500000e+00	 8.445549e+00
0	 4.214286e+00	 2.571429e+00	 8.456846e+00
0	 4.214286e+00	 2.642857e+00	 8.463855e+00
0	 4.214286e+00	 2.714286e+00	 8.466577e+00
0	 4.214286e+00	 2.785714e+00	 8.465011e+00
0	 4.214286e+00	 2.857143e+00	 8.459158e+00
0	 4.285714e+00	 2.500000e+00	 8.498459e+00
0	 4.285714e+00	 2.571429e+00	 8.507283e+00
0	 4.285714e+00	 2.642857e+00	 8.511960e+00
0	 4.285714e+00	 2.714286e+00	 8.512490e+00
0	 4.285714e+00	 2.785714e+00	 8.508874e+00
0	 4.285714e+00	 2.857143e+00	 8.501112e+00
0	 3.928571e+00	 2.857143e+00	 8.282364e+00
0	 3.928571e+00	 2.928571e+00	 8.319184e+00
0	 3.928571e+00	 3.000000e+00	 8.351902e+00
0	 3.928571e+00	 3.071429e+00	 8.380518e+00
0	 3.928571e+00	 3.142857e+00	 8.405031e+00
0	 3.928571e+00	 3.214286e+00	 8.425441e+00
0	 4.000000e+00	 2.857143e+00	 8.327909e+00
0	 4.000000e+00	 2.928571e+00	 8.360292e+00
0	 4.000000e+00	 3.000000e+00	 8.388740e+00
0	 4.000000e+00	 3.071429e+00	 8.413252e+00
0	 4.000000e+00	 3.142857e+00	 8.433828e+00
0	 4.000000e+00	 3.214286e+00	 8.450467e+00
0	 4.071429e+00	 2.857143e+00	 8.372556e+00
0	 4.071429e+00	 2.928571e+00	 8.401043e+00
0	 4.071429e+00	 3.000000e+00	 8.425761e+00
0	 4.071429e+00	 3.071429e+00	 8.446709e+00
0	 4.071429e+00	 3.142857e+00	 8.463888e+00
0	 4.071429e+00	 3.214286e+00	 8.477298e+00
0	 4.142857e+00	 2.857143e+00	 8.416306e+00
0	 4.142857e+00	 2.928571e+00	 8.441437e+00
0	 4.142857e+00	 3.000000e+00	 8.462965e+00
0	 4.142857e+00	 3.071429e+00	 8.480890e+00
0	 4.142857e+00	 3.142857e+00	 8.495213e+00
0	 4.142857e+00	 3.214286e+00	 8.505933e+00
0	 4.214286e+00	 2.857143e+00	 8.459158e+00
0	 4.214286e+00	 2.928571e+00	 8.481473e+00
0	 4.214286e+00	 3.000000e+00	 8.500352e+00
0	 4.214286e+00	 3.071429e+00	 8.515795e+00
0	 4.214286e+00	 3.142857e+00	 8.527802e+00
0	 4.214286e+00	 3.214286e+00	 8.536373e+00
0	 4.285714e+00	 2.857143e+00	 8.501112e+00
0	 4.285714e+00	 2.928571e+00	 8.521152e+00
0	 4.285714e+00	 3.000000e+00	 8.537922e+00
0	 4.285714e+00	 3.071429e+00	 8.551423e+00
0	 4.285714e+00	 3.142857e+00	 8.561654e+00
0	 4.285714e+00	 3.214286e+00	 8.568616e+00
0	 3.928571e+00	 3.214286e+00	 8.425441e+00
0	 3.928571e+00	 3.285714e+00	 8.464676e+00
0	 3.928571e+00	 3.357143e+00	 8.501486e+00
0	 3.928571e+00	 3.428571e+00	 8.535870e+00
0	 3.928571e+00	 3.500000e+00	 8.567828e+00
0	 3.928571e+00	 3.571429e+00	 8.597360e+00
0	 4.000000e+00	 3.214286e+00	 8.450467e+00
0	 4.000000e+00	 3.285714e+00	 8.487406e+00
0	 4.000000e+00	 3.357143e+00	 8.521882e+00
0	 4.000000e+00	 3.428571e+00	 8.553897e+00
0	 4.000000e+00	 3.500000e+00	 8.583449e+00
0	 4.000000e+00	 3.571429e+00	 8.610540e+00
0	 4.071429e+00	 3.214286e+00	 8.477298e+00
0	 4.071429e+00	 3.285714e+00	 8.511989e+00
0	 4.071429e+00	 3.357143e+00	 8.544183e+00
0	 4.071429e+00	 3.428571e+00	 8.573878e+00
0	 4.071429e+00	 3.500000e+00	 8.601075e+00
0	 4.071429e+00	 3.571429e+00	 8.625774e+00
0	 4.142857e+00	 3.214286e+00	 8.505933e+00
0	 4.142857e+00	 3.285714e+00	 8.538427e+00
0	 4.142857e+00	 3.357143e+00	 8.568388e+00
0	 4.142857e+00	 3.428571e+00	 8.595813e+00
0	 4.142857e+00	 3.500000e+00	 8.620705e+00
0	 4.142857e+00	 3.571429e+00	 8.643062e+00
0	 4.214286e+00	 3.214286e+00	 8.536373e+00
0	 4.214286e+00	 3.285714e+00	 8.566720e+00
0	 4.214286e+00	 3.357143e+00	 8.594497e+00
0	 4.214286e+00	 3.428571e+00	 8.619703e+00
0	 4.214286e+00	 3.500000e+00	 8.642339e+00
0	 4.214286e+00	 3.571429e+00	 8.662404e+00
0	 4.285714e+00	 3.214286e+00	 8.568616e+00
0	 4.285714e+00	 3.285714e+00	 8.596866e+00
0	 4.285714e+00	 3.357143e+00	 8.622510e+00
0	 4.285714e+00	 3.428571e+00	 8.645547e+00
0	 4.285714e+00	 3.500000e+00	 8.665977e+00
0	 4.285714e+00	 3.571429e+00	 8.683801e+00
0	 3.928571e+00	 3.571429e+00	 8.597360e+00
0	 3.928571e+00	 3.642857e+00	 8.638212e+00
0	 3.928571e+00	 3.714286e+00	 8.677320e+00
0	 3.928571e+00	 3.785714e+00	 8.714683e+00
0	 3.928571e+00	 3.857143e+00	 8.750301e+00
0	 3.928571e+00	 3.928571e+00	 8.784175e+00
0	 4.000000e+00	 3.571429e+00	 8.610540e+00
0	 4.000000e+00	 3.642857e+00	 8.648991e+00
0	 4.000000e+00	 3.714286e+00	 8.685706e+00
0	 4.000000e+00	 3.785714e+00	 8.720682e+00
0	 4.000000e+00	 3.857143e+00	 8.753921e+00
0	 4.000000e+00	 3.928571e+00	 8.785423e+00
0	 4.071429e+00	 3.571429e+00	 8.625774e+00
0	 4.071429e+00	 3.642857e+00	 8.662011e+00
0	 4.071429e+00	 3.714286e+00	 8.696517e+00
0	 4.071429e+00	 3.785714e+00	 8.729294e+00
0	 4.071429e+00	 3.857143e+00	 8.760341e+00
0	 4.071429e+00	 3.928571e+00	 8.789657e+00
0	 4.142857e+00	 3.571429e+00	 8.643062e+00
0	 4.142857e+00	 3.642857e+00	 8.677270e+00
0	 4.142857e+00	 3.714286e+00	 8.709756e+00
0	 4.142857e+00	 3.785714e+00	 8.740519e+00
0	 4.142857e+00	 3.857143e+00	 8.769559e+00
0	 4.142857e+00	 3.928571e+00	 8.796876e+00
0	 4.214286e+00	 3.571429e+00	 8.662404e+00
0	 4.214286e+00	 3.642857e+00	 8.694770e+00
0	 4.214286e+00	 3.714286e+00	 8.725421e+00
0	 4.214286e+00	 3.785714e+00	 8.754356e+00
0	 4.214286e+00	 3.857143e+00	 8.781576e+00
0	 4.214286e+00	 3.928571e+00	 8.807081e+00
0	 4.285714e+00	 3.571429e+00	 8.683801e+00
0	 4.285714e+00	 3.642857e+00	 8.714511e+00
0	 4.285714e+00	 3.714286e+00	 8.743513e+00
0	 4.285714e+00	 3.785714e+00	 8.770807e+00
0	 4.285714e+00	 3.857143e+00	 8.796393e+00
0	 4.285714e+00	 3.928571e+00	 8.820271e+00
0	 3.928571e+00	 3.928571e+00	 8.784175e+00
0	 3.928571e+00	 4.000000e+00	 8.821706e+00
0	 3.928571e+00	 4.071429e+00	 8.858381e+00
0	 3.928571e+00	 4.142857e+00	 8.894199e+00
0	 3.928571e+00	 4.214286e+00	 8.929159e+00
0	 3.928571e+00	 4.285714e+00	 8.963263e+00
0	 4.000000e+00	 3.928571e+00	 8.785423e+00
0	 4.000000e+00	 4.000000e+00	 8.821793e+00
0	 4.000000e+00	 4.071429e+00	 8.857240e+00
0	 4.000000e+00	 4.142857e+00	 8.891765e+00
0	 4.000000e+00	 4.214286e+00	 8.925368e+00
0	 4.000000e+00	 4.285714e+00	 8.958049e+00
0	 4.071429e+00	 3.928571e+00	 8.789657e+00
0	 4.071429e+00	 4.000000e+00	 8.824836e+00
0	 4.071429e+00	 4.071429e+00	 8.859028e+00
0	 4.071429e+00	 4.142857e+00	 8.892232e+00
0	 4.071429e+00	 4.214286e+00	 8.924449e+00
0	 4.071429e+00	 4.285714e+00	 8.955678e+00
0	 4.142857e+00	 3.928571e+00	 8.796876e+00
0	 4.142857e+00	 4.000000e+00	 8.830837e+00
0	 4.142857e+00	 4.071429e+00	 8.863745e+00
0	 4.142857e+00	 4.142857e+00	 8.895600e+00
0	 4.142857e+00	 4.214286e+00	 8.926402e+00
0	 4.142857e+00	 4.285714e+00	 8.956151e+00
0	 4.214286e+00	 3.928571e+00	 8.807081e+00
0	 4.214286e+00	 4.000000e+00	 8.839795e+00
0	 4.214286e+00	 4.071429e+00	 8.871390e+00
0	 4.214286e+00	 4.142857e+00	 8.901867e+00
0	 4.214286e+00	 4.214286e+00	 8.931226e+00
0	 4.214286e+00	 4.285714e+00	 8.959467e+00
0	 4.285714e+00	 3.928571e+00	 8.820271e+00
0	 4.285714e+00	 4.000000e+00	 8.851709e+00
0	 4.285714e+00	 4.071429e+00	 8.881964e+00
0	 4.285714e+00	 4.142857e+00	 8.911035e+00
0	 4.285714e+00	 4.214286e+00	 8.938923e+00
0	 4.285714e+00	 4.285714e+00	 8.965627e+00
0	 3.928571e+00	 4.285714e+00	 8.963263e+00
0	 3.928571e+00	 4.357143e+00	 8.997477e+00
0	 3.928571e+00	 4.428571e+00	 9.031195e+00
0	 3.928571e+00	 4.500000e+00	 9.064417e+00
0	 3.928571e+00	 4.571429e+00	 9.097143e+00
0	 3.928571e+00	 4.642857e+00	 9.129373e+00
0	 4.000000e+00	 4.285714e+00	 8.958049e+00
0	 4.000000e+00	 4.357143e+00	 8.991366e+00
0	 4.000000e+00	 4.428571e+00	 9.024152e+00
0	 4.000000e+00	 4.500000e+00	 9.056406e+00
0	 4.000000e+00	 4.571429e+00	 9.088129e+00
0	 4.000000e+00	 4.642857e+00	 9.119320e+00
0	 4.071429e+00	 4.285714e+00	 8.955678e+00
0	 4.071429e+00	 4.357143e+00	 8.988097e+00
0	 4.071429e+00	 4.428571e+00	 9.019950e+00
0	 4.071429e+00	 4.500000e+00	 9.051235e+00
0	 4.071429e+00	 4.571429e+00	 9.081953e+00
0	 4.071429e+00	 4.642857e+00	 9.112105e+00
0	 4.142857e+00	 4.285714e+00	 8.956151e+00
0	 4.142857e+00	 4.357143e+00	 8.987671e+00
0	 4.142857e+00	 4.428571e+00	 9.018589e+00
0	 4.142857e+00	 4.500000e+00	 9.048904e+00
0	 4.142857e+00	 4.571429e+00	 9.078617e+00
0	 4.142857e+00	 4.642857e+00	 9.107727e+00
0	 4.214286e+00	 4.285714e+00	 8.959467e+00
0	 4.214286e+00	 4.357143e+00	 8.990087e+00
0	 4.214286e+00	 4.428571e+00	 9.020069e+00
0	 4.214286e+00	 4.500000e+00	 9.049413e+00
0	 4.214286e+00	 4.571429e+00	 9.078119e+00
0	 4.214286e+00	 4.642857e+00	 9.106187e+00
0	 4.285714e+00	 4.285714e+00	 8.965627e+00
0	 4.285714e+00	 4.357143e+00	 8.995345e+00
0	 4.285714e+00	 4.428571e+00	 9.024390e+00
0	 4.285714e+00	 4.500000e+00	 9.052761e+00
0	 4.285714e+00	 4.571429e+00	 9.080459e+00
0	 4.285714e+00	 4.642857e+00	 9.107484e+00
0	 3.928571e+00	 4.642857e+00	 9.129373e+00
0	 3.928571e+00	 4.714286e+00	 9.159158e+00
0	 3.928571e+00	 4.785714e+00	 9.188796e+00
0	 3.928571e+00	 4.857143e+00	 9.218288e+00
0	 3.928571e+00	 4.928571e+00	 9.247634e+00
0	 3.928571e+00	 5.000000e+00	 9.276833e+00
0	 4.000000e+00	 4.642857e+00	 9.119320e+00
0	 4.000000e+00	 4.714286e+00	 9.148757e+00
0	 4.000000e+00	 4.785714e+00	 9.177999e+00
0	 4.000000e+00	 4.857143e+00	 9.207047e+00
0	 4.000000e+00	 4.928571e+00	 9.235901e+00
0	 4.000000e+00	 5.000000e+00	 9.264560e+00
0	 4.071429e+00	 4.642857e+00	 9.112105e+00
0	 4.071429e+00	 4.714286e+00	 9.141130e+00
0	 4.071429e+00	 4.785714e+00	 9.169913e+00
0	 4.071429e+00	 4.857143e+00	 9.198454e+00
0	 4.071429e+00	 4.928571e+00	 9.226752e+00
0	 4.071429e+00	 5.000000e+00	 9.254809e+00
0	 4.142857e+00	 4.642857e+00	 9.107727e+00
0	 4.142857e+00	 4.714286e+00	 9.136278e+00
0	 4.142857e+00	 4.785714e+00	 9.164538e+00
0	 4.142857e+00	 4.857143e+00	 9.192508e+00
0	 4.142857e+00	 4.928571e+00	 9.220188e+00
0	 4.142857e+00	 5.000000e+00	 9.247577e+00
0	 4.214286e+00	 4.642857e+00	 9.106187e+00
0	 4.214286e+00	 4.714286e+00	 9.134199e+00
0	 4.214286e+00	 4.785714e+00	 9.161873e+00
0	 4.214286e+00	 4.857143e+00	 9.189209e+00
0	 4.214286e+00	 4.928571e+00	 9.216207e+00
0	 4.214286e+00	 5.000000e+00	 9.242866e+00
0	 4.285714e+00	 4.642857e+00	 9.107484e+00
0	 4.285714e+00	 4.714286e+00	 9.134895e+00
0	 4.285714e+00	 4.785714e+00	 9.161919e+00
0	 4.285714e+00	 4.857143e+00	 9.188557e+00
0	 4.285714e+00	 4.928571e+00	 9.214810e+00
0	 4.285714e+00	 5.000000e+00	 9.240676e+00
0	 3.928571e+00	 5.000000e+00	 9.276833e+00
0	 3.928571e+00	 5.071429e+00	 9.302560e+00
0	 3.928571e+00	 5.142857e+00	 9.328290e+00
0	 3.928571e+00	 5.214286e+00	 9.354023e+00
0	 3.928571e+00	 5.285714e+00	 9.379759e+00
0	 3.928571e+00	 5.357143e+00	 9.405497e+00
0	 4.000000e+00	 5.000000e+00	 9.264560e+00
0	 4.000000e+00	 5.071429e+00	 9.290150e+00
0	 4.000000e+00	 5.142857e+00	 9.315711e+00
0	 4.000000e+00	 5.214286e+00	 9.341243e+00
0	 4.000000e+00	 5.285714e+00	 9.366746e+00
0	 4.000000e+00	 5.357143e+00	 9.392220e+00
0	 4.071429e+00	 5.000000e+00	 9.254809e+00
0	 4.071429e+00	 5.071429e+00	 9.280204e+00
0	 4.071429e+00	 5.142857e+00	 9.305540e+00
0	 4.071429e+00	 5.214286e+00	 9.330814e+00
0	 4.071429e+00	 5.285714e+00	 9.356028e+00
0	 4.071429e+00	 5.357143e+00	 9.381181e+00
0	 4.142857e+00	 5.000000e+00	 9.247577e+00
0	 4.142857e+00	 5.071429e+00	 9.272723e+00
0	 4.142857e+00	 5.142857e+00	 9.297777e+00
0	 4.142857e+00	 5.214286e+00	 9.322738e+00
0	 4.142857e+00	 5.285714e+00	 9.347607e+00
0	 4.142857e+00	 5.357143e+00	 9.372383e+00
0	 4.214286e+00	 5.000000e+00	 9.242866e+00
0	 4.214286e+00	 5.071429e+00	 9.267706e+00
0	 4.214286e+00	 5.142857e+00	 9.292422e+00
0	 4.214286e+00	 5.214286e+00	 9.317013e+00
0	 4.214286e+00	 5.285714e+00	 9.341481e+00
0	 4.214286e+00	 5.357143e+00	 9.365824e+00
0	 4.285714e+00	 5.000000e+00	 9.240676e+00
0	 4.285714e+00	 5.071429e+00	 9.265153e+00
0	 4.285714e+00	 5.142857e+00	 9.289475e+00
0	 4.285714e+00	 5.214286e+00	 9.313641e+00
0	 4.285714e+00	 5.285714e+00	 9.337651e+00
0	 4.285714e+00	 5.357143e+00	 9.361504e+00
0	 3.928571e+00	 5.357143e+00	 9.405497e+00
0	 3.928571e+00	 5.428571e+00	 9.427312e+00
0	 3.928571e+00	 5.500000e+00	 9.449242e+00
0	 3.928571e+00	 5.571429e+00	 9.471288e+00
0	 3.928571e+00	 5.642857e+00	 9.493449e+00
0	 3.928571e+00	 5.714286e+00	 9.515726e+00
0	 4.000000e+00	 5.357143e+00	 9.392220e+00
0	 4.000000e+00	 5.428571e+00	 9.414115e+00
0	 4.000000e+00	 5.500000e+00	 9.436098e+00
0	 4.000000e+00	 5.571429e+00	 9.458167e+00
0	 4.000000e+00	 5.642857e+00	 9.480324e+00
0	 4.000000e+00	 5.714286e+00	 9.502568e+00
0	 4.071429e+00	 5.357143e+00	 9.381181e+00
0	 4.071429e+00	 5.428571e+00	 9.403092e+00
0	 4.071429e+00	 5.500000e+00	 9.425061e+00
0	 4.071429e+00	 5.571429e+00	 9.447089e+00
0	 4.071429e+00	 5.642857e+00	 9.469175e+00
0	 4.071429e+00	 5.714286e+00	 9.491320e+00
0	 4.142857e+00	 5.357143e+00	 9.372383e+00
0	 4.142857e+00	 5.428571e+00	 9.394243e+00
0	 4.142857e+00	 5.500000e+00	 9.416133e+00
0	 4.142857e+00	 5.571429e+00	 9.438053e+00
0	 4.142857e+00	 5.642857e+00	 9.460003e+00
0	 4.142857e+00	 5.714286e+00	 9.481984e+00
0	 4.214286e+00	 5.357143e+00	 9.365824e+00
0	 4.214286e+00	 5.428571e+00	 9.387567e+00
0	 4.214286e+00	 5.500000e+00	 9.409312e+00
0	 4.214286e+00	 5.571429e+00	 9.431059e+00
0	 4.214286e+00	 5.642857e+00	 9.452808e+00
0	 4.214286e+00	 5.714286e+00	 9.474558e+00
0	 4.285714e+00	 5.357143e+00	 9.361504e+00
0	 4.285714e+00	 5.428571e+00	 9.383065e+00
0	 4.285714e+00	 5.500000e+00	 9.404600e+00
0	 4.285714e+00	 5.571429e+00	 9.426108e+00
0	 4.285714e+00	 5.642857e+00	 9.447589e+00
0	 4.285714e+00	 5.714286e+00	 9.469044e+00
0	 3.928571e+00	 5.714286e+00	 9.515726e+00
0	 3.928571e+00	 5.785714e+00	 9.534106e+00
0	 3.928571e+00	 5.857143e+00	 9.552647e+00
0	 3.928571e+00	 5.928571e+00	 9.571349e+00
0	 3.928571e+00	 6.000000e+00	 9.590211e+00
0	 3.928571e+00	 6.071429e+00	 9.609234e+00
0	 4.000000e+00	 5.714286e+00	 9.502568e+00
0	 4.000000e+00	 5.785714e+00	 9.521133e+00
0	 4.000000e+00	 5.857143e+00	 9.539840e+00
0	 4.000000e+00	 5.928571e+00	 9.558688e+00
0	 4.000000e+00	 6.000000e+00	 9.577677e+00
0	 4.000000e+00	 6.071429e+00	 9.596807e+00
0	 4.071429e+00	 5.714286e+00	 9.491320e+00
0	 4.071429e+00	 5.785714e+00	 9.510013e+00
0	 4.071429e+00	 5.857143e+00	 9.528826e+00
0	 4.071429e+00	 5.928571e+00	 9.547761e+00
0	 4.071429e+00	 6.000000e+00	 9.566818e+00
0	 4.071429e+00	 6.071429e+00	 9.585995e+00
0	 4.142857e+00	 5.714286e+00	 9.481984e+00
0	 4.142857e+00	 5.785714e+00	 9.500743e+00
0	 4.142857e+00	 5.857143e+00	 9.519605e+00
0	 4.142857e+00	 5.928571e+00	 9.538567e+00
0	 4.142857e+00	 6.000000e+00	 9.557632e+00
0	 4.142857e+00	 6.071429e+00	 9.576799e+00
0	 4.214286e+00	 5.714286e+00	 9.474558e+00
0	 4.214286e+00	 5.785714e+00	 9.493326e+00
0	 4.214286e+00	 5.857143e+00	 9.512175e+00
0	 4.214286e+00	 5.928571e+00	 9.531107e+00
0	 4.214286e+00	 6.000000e+00	 9.550121e+00
0	 4.214286e+00	 6.071429e+00	 9.569217e+00
0	 4.285714e+00	 5.714286e+00	 9.469044e+00
0	 4.285714e+00	 5.785714e+00	 9.487760e+00
0	 4.285714e+00	 5.857143e+00	 9.506539e+00
0	 4.285714e+00	 5.928571e+00	 9.525380e+00
0	 4.285714e+00	 6.000000e+00	 9.544284e+00
0	 4.285714e+00	 6.071429e+00	 9.563250e+00
0	 3.928571e+00	 6.071429e+00	 9.609234e+00
0	 3.928571e+00	 6.142857e+00	 9.624595e+00
0	 3.928571e+00	 6.214286e+00	 9.640141e+00
0	 3.928571e+00	 6.285714e+00	 9.655870e+00
0	 3.928571e+00	 6.357143e+00	 9.671784e+00
0	 3.928571e+00	 6.428571e+00	 9.687882e+00
0	 4.000000e+00	 6.071429e+00	 9.596807e+00
0	 4.000000e+00	 6.142857e+00	 9.612431e+00
0	 4.000000e+00	 6.214286e+00	 9.628223e+00
0	 4.000000e+00	 6.285714e+00	 9.644186e+00
0	 4.000000e+00	 6.357143e+00	 9.660318e+00
0	 4.000000e+00	 6.428571e+00	 9.676619e+00
0	 4.071429e+00	 6.071429e+00	 9.585995e+00
0	 4.071429e+00	 6.142857e+00	 9.601826e+00
0	 4.071429e+00	 6.214286e+00	 9.617811e+00
0	 4.071429e+00	 6.285714e+00	 9.633951e+00
0	 4.071429e+00	 6.357143e+00	 9.650245e+00
0	 4.071429e+00	 6.428571e+00	 9.666695e+00
0	 4.142857e+00	 6.071429e+00	 9.576799e+00
0	 4.142857e+00	 6.142857e+00	 9.592781e+00
0	 4.142857e+00	 6.214286e+00	 9.608903e+00
0	 4.142857e+00	 6.285714e+00	 9.625165e+00
0	 4.142857e+00	 6.357143e+00	 9.641567e+00
0	 4.142857e+00	 6.428571e+00	 9.658109e+00
0	 4.214286e+00	 6.071429e+00	 9.569217e+00
0	 4.214286e+00	 6.142857e+00	 9.585295e+00
0	 4.214286e+00	 6.214286e+00	 9.601499e+00
0	 4.214286e+00	 6.285714e+00	 9.617828e+00
0	 4.214286e+00	 6.357143e+00	 9.634282e+00
0	 4.214286e+00	 6.428571e+00	 9.650862e+00
0	 4.285714e+00	 6.071429e+00	 9.563250e+00
0	 4.285714e+00	 6.142857e+00	 9.579370e+00
0	 4.285714e+00	 6.214286e+00	 9.595600e+00
0	 4.285714e+00	 6.285714e+00	 9.611940e+00
0	 4.285714e+00	 6.357143e+00	 9.628392e+00
0	 4.285714e+00	 6.428571e+00	 9.644953e+00
0	 3.928571e+00	 6.428571e+00	 9.687882e+00
0	 3.928571e+00	 6.500000e+00	 9.700670e+00
0	 3.928571e+00	 6.571429e+00	 9.713644e+00
0	 3.928571e+00	 6.642857e+00	 9.726805e+00
0	 3.928571e+00	 6.714286e+00	 9.740153e+00
0	 3.928571e+00	 6.785714e+00	 9.753688e+00
0	 4.000000e+00	 6.428571e+00	 9.676619e+00
0	 4.000000e+00	 6.500000e+00	 9.689704e+00
0	 4.000000e+00	 6.571429e+00	 9.702966e+00
0	 4.000000e+00	 6.642857e+00	 9.716405e+00
0	 4.000000e+00	 6.714286e+00	 9.730021e+00
0	 4.000000e+00	 6.785714e+00	 9.743814e+00
0	 4.071429e+00	 6.428571e+00	 9.666695e+00
0	 4.071429e+00	 6.500000e+00	 9.680028e+00
0	 4.071429e+00	 6.571429e+00	 9.693529e+00
0	 4.071429e+00	 6.642857e+00	 9.707197e+00
0	 4.071429e+00	 6.714286e+00	 9.721033e+00
0	 4.071429e+00	 6.785714e+00	 9.735037e+00
0	 4.142857e+00	 6.428571e+00	 9.658109e+00
0	 4.142857e+00	 6.500000e+00	 9.671642e+00
0	 4.142857e+00	 6.571429e+00	 9.685334e+00
0	 4.142857e+00	 6.642857e+00	 9.699183e+00
0	 4.142857e+00	 6.714286e+00	 9.713190e+00
0	 4.142857e+00	 6.785714e+00	 9.727355e+00
0	 4.214286e+00	 6.428571e+00	 9.650862e+00
0	 4.214286e+00	 6.500000e+00	 9.664547e+00
0	 4.214286e+00	 6.571429e+00	 9.678380e+00
0	 4.214286e+00	 6.642857e+00	 9.692361e+00
0	 4.214286e+00	 6.714286e+00	 9.706491e+00
0	 4.214286e+00	 6.785714e+00	 9.720769e+00
0	 4.285714e+00	 6.428571e+00	 9.644953e+00
0	 4.285714e+00	 6.500000e+00	 9.658741e+00
0	 4.285714e+00	 6.571429e+00	 9.672668e+00
0	 4.285714e+00	 6.642857e+00	 9.686733e+00
0	 4.285714e+00	 6.714286e+00	 9.700936e+00
0	 4.285714e+00	 6.785714e+00	 9.715279e+00
0	 3.928571e+00	 6.785714e+00	 9.753688e+00
0	 3.928571e+00	 6.857143e+00	 9.764296e+00
0	 3.928571e+00	 6.928571e+00	 9.775087e+00
0	 3.928571e+00	 7.000000e+00	 9.786059e+00
0	 3.928571e+00	 7.071429e+00	 9.797213e+00
0	 3.928571e+00	 7.142857e+00	 9.808548e+00
0	 4.000000e+00	 6.785714e+00	 9.743814e+00
0	 4.000000e+00	 6.857143e+00	 9.754735e+00
0	 4.000000e+00	 6.928571e+00	 9.765832e+00
0	 4.000000e+00	 7.000000e+00	 9.777104e+00
0	 4.000000e+00	 7.071429e+00	 9.788553e+00
0	 4.000000e+00	 7.142857e+00	 9.800177e+00
0	 4.071429e+00	 6.785714e+00	 9.735037e+00
0	 4.071429e+00	 6.857143e+00	 9.746227e+00
0	 4.071429e+00	 6.928571e+00	 9.757587e+00
0	 4.071429e+00	 7.000000e+00	 9.769118e+00
0	 4.071429e+00	 7.071429e+00	 9.780818e+00
0	 4.071429e+00	 7.142857e+00	 9.792688e+00
0	 4.142857e+00	 6.785714e+00	 9.727355e+00
0	 4.142857e+00	 6.857143e+00	 9.738772e+00
0	 4.142857e+00	 6.928571e+00	 9.750354e+00
0	 4.142857e+00	 7.000000e+00	 9.762099e+00
0	 4.142857e+00	 7.071429e+00	 9.774008e+00
0	 4.142857e+00	 7.142857e+00	 9.786082e+00
0	 4.214286e+00	 6.785714e+00	 9.720769e+00
0	 4.214286e+00	 6.857143e+00	 9.732370e+00
0	 4.214286e+00	 6.928571e+00	 9.744130e+00
0	 4.214286e+00	 7.000000e+00	 9.756048e+00
0	 4.214286e+00	 7.071429e+00	 9.768124e+00
0	 4.214286e+00	 7.142857e+00	 9.780358e+00
0	 4.285714e+00	 6.785714e+00	 9.715279e+00
0	 4.285714e+00	 6.857143e+00	 9.727022e+00
0	 4.285714e+00	 6.928571e+00	 9.738917e+00
0	 4.285714e+00	 7.000000e+00	 9.750965e+00
0	 4.285714e+00	 7.071429e+00	 9.763165e+00
0	 4.285714e+00	 7.142857e+00	 9.775517e+00
0	 3.928571e+00	 7.142857e+00	 9.808548e+00
0	 3.928571e+00	 7.214286e+00	 9.817333e+00
0	 3.928571e+00	 7.285714e+00	 9.826291e+00
0	 3.928571e+00	 7.357143e+00	 9.835421e+00
0	 3.928571e+00	 7.428571e+00	 9.844724e+00
0	 3.928571e+00	 7.500000e+00	 9.854200e+00
0	 4.000000e+00	 7.142857e+00	 9.800177e+00
0	 4.000000e+00	 7.214286e+00	 9.809271e+00
0	 4.000000e+00	 7.285714e+00	 9.818535e+00
0	 4.000000e+00	 7.357143e+00	 9.827970e+00
0	 4.000000e+00	 7.428571e+00	 9.837574e+00
0	 4.000000e+00	 7.500000e+00	 9.847349e+00
0	 4.071429e+00	 7.142857e+00	 9.792688e+00
0	 4.071429e+00	 7.214286e+00	 9.802055e+00
0	 4.071429e+00	 7.285714e+00	 9.811589e+00
0	 4.071429e+00	 7.357143e+00	 9.821291e+00
0	 4.071429e+00	 7.428571e+00	 9.831160e+00
0	 4.071429e+00	 7.500000e+00	 9.841197e+00
0	 4.142857e+00	 7.142857e+00	 9.786082e+00
0	 4.142857e+00	 7.214286e+00	 9.795684e+00
0	 4.142857e+00	 7.285714e+00	 9.805452e+00
0	 4.142857e+00	 7.357143e+00	 9.815384e+00
0	 4.142857e+00	 7.428571e+00	 9.825482e+00
0	 4.142857e+00	 7.500000e+00	 9.835744e+00
0	 4.214286e+00	 7.142857e+00	 9.780358e+00
0	 4.214286e+00	 7.214286e+00	 9.790160e+00
0	 4.214286e+00	 7.285714e+00	 9.800123e+00
0	 4.214286e+00	 7.357143e+00	 9.810250e+00
0	 4.214286e+00	 7.428571e+00	 9.820539e+00
0	 4.214286e+00	 7.500000e+00	 9.830990e+00
0	 4.285714e+00	 7.142857e+00	 9.775517e+00
0	 4.285714e+00	 7.214286e+00	 9.785481e+00
0	 4.285714e+00	 7.285714e+00	 9.795604e+00
0	 4.285714e+00	 7.357143e+00	 9.805888e+00
0	 4.285714e+00	 7.428571e+00	 9.816331e+00
0	 4.285714e+00	 7.500000e+00	 9.826934e+00
0	 3.928571e+00	 7.500000e+00	 9.854200e+00
0	 3.928571e+00	 7.571429e+00	 9.861459e+00
0	 3.928571e+00	 7.642857e+00	 9.868883e+00
0	 3.928571e+00	 7.714286e+00	 9.876472e+00
0	 3.928571e+00	 7.785714e+00	 9.884227e+00
0	 3.928571e+00	 7.857143e+00	 9.892146e+00
0	 4.000000e+00	 7.500000e+00	 9.847349e+00
0	 4.000000e+00	 7.571429e+00	 9.854903e+00
0	 4.000000e+00	 7.642857e+00	 9.862622e+00
0	 4.000000e+00	 7.714286e+00	 9.870506e+00
0	 4.000000e+00	 7.785714e+00	 9.878555e+00
0	 4.000000e+00	 7.857143e+00	 9.886770e+00
0	 4.071429e+00	 7.500000e+00	 9.841197e+00
0	 4.071429e+00	 7.571429e+00	 9.849014e+00
0	 4.071429e+00	 7.642857e+00	 9.856996e+00
0	 4.071429e+00	 7.714286e+00	 9.865144e+00
0	 4.071429e+00	 7.785714e+00	 9.873457e+00
0	 4.071429e+00	 7.857143e+00	 9.881936e+00
0	 4.142857e+00	 7.500000e+00	 9.835744e+00
0	 4.142857e+00	 7.571429e+00	 9.843793e+00
0	 4.142857e+00	 7.642857e+00	 9.852007e+00
0	 4.142857e+00	 7.714286e+00	 9.860387e+00
0	 4.142857e+00	 7.785714e+00	 9.868933e+00
0	 4.142857e+00	 7.857143e+00	 9.877645e+00
0	 4.214286e+00	 7.500000e+00	 9.830990e+00
0	 4.214286e+00	 7.571429e+00	 9.839239e+00
0	 4.214286e+00	 7.642857e+00	 9.847654e+00
0	 4.214286e+00	 7.714286e+00	 9.856235e+00
0	 4.214286e+00	 7.785714e+00	 9.864982e+00
0	 4.214286e+00	 7.857143e+00	 9.873895e+00
0	 4.285714e+00	 7.500000e+00	 9.826934e+00
0	 4.285714e+00	 7.571429e+00	 9.835353e+00
0	 4.285714e+00	 7.642857e+00	 9.843938e+00
0	 4.285714e+00	 7.714286e+00	 9.852688e+00
0	 4.285714e+00	 7.785714e+00	 9.861605e+00
0	 4.285714e+00	 7.857143e+00	 9.870688e+00
0	 3.928571e+00	 7.857143e+00	 9.892146e+00
0	 3.928571e+00	 7.928571e+00	 9.898118e+00
0	 3.928571e+00	 8.000000e+00	 9.904251e+00
0	 3.928571e+00	 8.071429e+00	 9.910547e+00
0	 3.928571e+00	 8.142857e+00	 9.917005e+00
0	 3.928571e+00	 8.214286e+00	 9.923626e+00
0	 4.000000e+00	 7.857143e+00	 9.886770e+00
0	 4.000000e+00	 7.928571e+00	 9.893011e+00
0	 4.000000e+00	 8.000000e+00	 9.899417e+00
0	 4.000000e+00	 8.071429e+00	 9.905988e+00
0	 4.000000e+00	 8.142857e+00	 9.912725e+00
0	 4.000000e+00	 8.214286e+00	 9.919626e+00
0	 4.071429e+00	 7.857143e+00	 9.881936e+00
0	 4.071429e+00	 7.928571e+00	 9.888421e+00
0	 4.071429e+00	 8.000000e+00	 9.895073e+00
0	 4.071429e+00	 8.071429e+00	 9.901894e+00
0	 4.071429e+00	 8.142857e+00	 9.908882e+00
0	 4.071429e+00	 8.214286e+00	 9.916037e+00
0	 4.142857e+00	 7.857143e+00	 9.877645e+00
0	 4.142857e+00	 7.928571e+00	 9.884347e+00
0	 4.142857e+00	 8.000000e+00	 9.891219e+00
0	 4.142857e+00	 8.071429e+00	 9.898263e+00
0	 4.142857e+00	 8.142857e+00	 9.905476e+00
0	 4.142857e+00	 8.214286e+00	 9.912861e+00
0	 4.214286e+00	 7.857143e+00	 9.873895e+00
0	 4.214286e+00	 7.928571e+00	 9.880789e+00
0	 4.214286e+00	 8.000000e+00	 9.887855e+00
0	 4.214286e+00	 8.071429e+00	 9.895095e+00
0	 4.214286e+00	 8.142857e+00	 9.902509e+00
0	 4.214286e+00	 8.214286e+00	 9.910095e+00
0	 4.285714e+00	 7.857143e+00	 9.870688e+00
0	 4.285714e+00	 7.928571e+00	 9.877747e+00
0	 4.285714e+00	 8.000000e+00	 9.884982e+00
0	 4.285714e+00	 8.071429e+00	 9.892392e+00
0	 4.285714e+00	 8.142857e+00	 9.899979e+00
0	 4.285714e+00	 8.214286e+00	 9.907742e+00
0	 3.928571e+00	 8.214286e+00	 9.923626e+00
0	 3.928571e+00	 8.285714e+00	 9.928478e+00
0	 3.928571e+00	 8.357143e+00	 9.933499e+00
0	 3.928571e+00	 8.428571e+00	 9.938687e+00
0	 3.928571e+00	 8.500000e+00	 9.944044e+00
0	 3.928571e+00	 8.571429e+00	 9.949569e+00
0	 4.000000e+00	 8.214286e+00	 9.919626e+00
0	 4.000000e+00	 8.285714e+00	 9.924714e+00
0	 4.000000e+00	 8.357143e+00	 9.929976e+00
0	 4.000000e+00	 8.428571e+00	 9.935411e+00
0	 4.000000e+00	 8.500000e+00	 9.941019e+00
0	 4.000000e+00	 8.571429e+00	 9.946800e+00
0	 4.071429e+00	 8.214286e+00	 9.916037e+00
0	 4.071429e+00	 8.285714e+00	 9.921341e+00
0	 4.071429e+00	 8.357143e+00	 9.926822e+00
0	 4.071429e+00	 8.428571e+00	 9.932482e+00
0	 4.071429e+00	 8.500000e+00	 9.938321e+00
0	 4.071429e+00	 8.571429e+00	 9.944338e+00
0	 4.142857e+00	 8.214286e+00	 9.912861e+00
0	 4.142857e+00	 8.285714e+00	 9.918358e+00
0	 4.142857e+00	 8.357143e+00	 9.924038e+00
0	 4.142857e+00	 8.428571e+00	 9.929903e+00
0	 4.142857e+00	 8.500000e+00	 9.935951e+00
0	 4.142857e+00	 8.571429e+00	 9.942183e+00
0	 4.214286e+00	 8.214286e+00	 9.910095e+00
0	 4.214286e+00	 8.285714e+00	 9.915765e+00
0	 4.214286e+00	 8.357143e+00	 9.921624e+00
0	 4.214286e+00	 8.428571e+00	 9.927671e+00
0	 4.214286e+00	 8.500000e+00	 9.933908e+00
0	 4.214286e+00	 8.571429e+00	 9.940333e+00
0	 4.285714e+00	 8.214286e+00	 9.907742e+00
0	 4.285714e+00	 8.285714e+00	 9.913563e+00
0	 4.285714e+00	 8.357143e+00	 9.919579e+00
0	 4.285714e+00	 8.428571e+00	 9.925789e+00
0	 4.285714e+00	 8.500000e+00	 9.932192e+00
0	 4.285714e+00	 8.571429e+00	 9.938790e+00
0	 3.928571e+00	 8.571429e+00	 9.949569e+00
0	 3.928571e+00	 8.642857e+00	 9.953391e+00
0	 3.928571e+00	 8.714286e+00	 9.957401e+00
0	 3.928571e+00	 8.785714e+00	 9.961597e+00
0	 3.928571e+00	 8.857143e+00	 9.965980e+00
0	 3.928571e+00	 8.928571e+00	 9.970550e+00
0	 4.000000e+00	 8.571429e+00	 9.946800e+00
0	 4.000000e+00	 8.642857e+00	 9.950816e+00
0	 4.000000e+00	 8.714286e+00	 9.955026e+00
0	 4.000000e+00	 8.785714e+00	 9.959431e+00
0	 4.000000e+00	 8.857143e+00	 9.964030e+00
0	 4.000000e+00	 8.928571e+00	 9.968824e+00
0	 4.071429e+00	 8.571429e+00	 9.944338e+00
0	 4.071429e+00	 8.642857e+00	 9.948531e+00
0	 4.071429e+00	 8.714286e+00	 9.952926e+00
0	 4.071429e+00	 8.785714e+00	 9.957524e+00
0	 4.071429e+00	 8.857143e+00	 9.962323e+00
0	 4.071429e+00	 8.928571e+00	 9.967325e+00
0	 4.142857e+00	 8.571429e+00	 9.942183e+00
0	 4.142857e+00	 8.642857e+00	 9.946537e+00
0	 4.142857e+00	 8.714286e+00	 9.951101e+00
0	 4.142857e+00	 8.785714e+00	 9.955875e+00
0	 4.142857e+00	 8.857143e+00	 9.960859e+00
0	 4.142857e+00	 8.928571e+00	 9.966053e+00
0	 4.214286e+00	 8.571429e+00	 9.940333e+00
0	 4.214286e+00	 8.642857e+00	 9.944833e+00
0	 4.214286e+00	 8.714286e+00	 9.949551e+00
0	 4.214286e+00	 8.785714e+00	 9.954486e+00
0	 4.214286e+00	 8.857143e+00	 9.959639e+00
0	 4.214286e+00	 8.928571e+00	 9.965009e+00
0	 4.285714e+00	 8.571429e+00	 9.938790e+00
0	 4.285714e+00	 8.642857e+00	 9.943420e+00
0	 4.285714e+00	 8.714286e+00	 9.948275e+00
0	 4.285714e+00	 8.785714e+00	 9.953356e+00
0	 4.285714e+00	 8.857143e+00	 9.958661e+00
0	 4.285714e+00	 8.928571e+00	 9.964192e+00
0	 3.928571e+00	 8.928571e+00	 9.970550e+00
0	 3.928571e+00	 9.000000e+00	 9.973328e+00
0	 3.928571e+00	 9.071429e+00	 9.976330e+00
0	 3.928571e+00	 9.142857e+00	 9.979555e+00
0	 3.928571e+00	 9.214286e+00	 9.983004e+00
0	 3.928571e+00	 9.285714e+00	 9.986677e+00
0	 4.000000e+00	 8.928571e+00	 9.968824e+00
0	 4.000000e+00	 9.000000e+00	 9.971741e+00
0	 4.000000e+00	 9.071429e+00	 9.974892e+00
0	 4.000000e+00	 9.142857e+00	 9.978277e+00
0	 4.000000e+00	 9.214286e+00	 9.981896e+00
0	 4.000000e+00	 9.285714e+00	 9.985750e+00
0	 4.071429e+00	 8.928571e+00	 9.967325e+00
0	 4.071429e+00	 9.000000e+00	 9.970371e+00
0	 4.071429e+00	 9.071429e+00	 9.973662e+00
0	 4.071429e+00	 9.142857e+00	 9.977197e+00
0	 4.071429e+00	 9.214286e+00	 9.980977e+00
0	 4.071429e+00	 9.285714e+00	 9.985001e+00
0	 4.142857e+00	 8.928571e+00	 9.966053e+00
0	 4.142857e+00	 9.000000e+00	 9.969219e+00
0	 4.142857e+00	 9.071429e+00	 9.972640e+00
0	 4.142857e+00	 9.142857e+00	 9.976316e+00
0	 4.142857e+00	 9.214286e+00	 9.980246e+00
0	 4.142857e+00	 9.285714e+00	 9.984431e+00
0	 4.214286e+00	 8.928571e+00	 9.965009e+00
0	 4.214286e+00	 9.000000e+00	 9.968285e+00
0	 4.214286e+00	 9.071429e+00	 9.971826e+00
0	 4.214286e+00	 9.142857e+00	 9.975633e+00
0	 4.214286e+00	 9.214286e+00	 9.979704e+00
0	 4.214286e+00	 9.285714e+00	 9.984039e+00
0	 4.285714e+00	 8.928571e+00	 9.964192e+00
0	 4.285714e+00	 9.000000e+00	 9.967569e+00
0	 4.285714e+00	 9.071429e+00	 9.971221e+00
0	 4.285714e+00	 9.142857e+00	 9.975147e+00
0	 4.285714e+00	 9.214286e+00	 9.979349e+00
0	 4.285714e+00	 9.285714e+00	 9.983827e+00
0	 3.928571e+00	 9.285714e+00	 9.986677e+00
0	 3.928571e+00	 9.357143e+00	 9.988292e+00
0	 3.928571e+00	 9.428571e+00	 9.990192e+00
0	 3.928571e+00	 9.500000e+00	 9.992378e+00
0	 3.928571e+00	 9.571429e+00	 9.994849e+00
0	 3.928571e+00	 9.642857e+00	 9.997605e+00
0	 4.000000e+00	 9.285714e+00	 9.985750e+00
0	 4.000000e+00	 9.357143e+00	 9.987438e+00
0	 4.000000e+00	 9.428571e+00	 9.989425e+00
0	 4.000000e+00	 9.500000e+00	 9.991710e+00
0	 4.000000e+00	 9.571429e+00	 9.994294e+00
0	 4.000000e+00	 9.642857e+00	 9.997176e+00
0	 4.071429e+00	 9.285714e+00	 9.985001e+00
0	 4.071429e+00	 9.357143e+00	 9.986760e+00
0	 4.071429e+00	 9.428571e+00	 9.988831e+00
0	 4.071429e+00	 9.500000e+00	 9.991213e+00
0	 4.071429e+00	 9.571429e+00	 9.993907e+00
0	 4.071429e+00	 9.642857e+00	 9.996912e+00
0	 4.142857e+00	 9.285714e+00	 9.984431e+00
0	 4.142857e+00	 9.357143e+00	 9.986258e+00
0	 4.142857e+00	 9.428571e+00	 9.988410e+00
0	 4.142857e+00	 9.500000e+00	 9.990887e+00
0	 4.142857e+00	 9.571429e+00	 9.993688e+00
0	 4.142857e+00	 9.642857e+00	 9.996814e+00
0	 4.214286e+00	 9.285714e+00	 9.984039e+00
0	 4.214286e+00	 9.357143e+00	 9.985932e+00
0	 4.214286e+00	 9.428571e+00	 9.988163e+00
0	 4.214286e+00	 9.500000e+00	 9.990731e+00
0	 4.214286e+00	 9.571429e+00	 9.993637e+00
0	 4.214286e+00	 9.642857e+00	 9.996881e+00
0	 4.285714e+00	 9.285714e+00	 9.983827e+00
0	 4.285714e+00	 9.357143e+00	 9.985782e+00
0	 4.285714e+00	 9.428571e+00	 9.988089e+00
0	 4.285714e+00	 9.500000e+00	 9.990746e+00
0	 4.285714e+00	 9.571429e+00	 9.993755e+00
0	 4.285714e+00	 9.642857e+00	 9.997115e+00
0	 3.928571e+00	 9.642857e+00	 9.997605e+00
0	 3.928571e+00	 9.714286e+00	 9.997696e+00
0	 3.928571e+00	 9.785714e+00	 9.998169e+00
0	 3.928571e+00	 9.857143e+00	 9.999024e+00
0	 3.928571e+00	 9.928571e+00	 1.000026e+01
0	 3.928571e+00	 1.000000e+01	 1.000188e+01
0	 4.000000e+00	 9.642857e+00	 9.997176e+00
0	 4.000000e+00	 9.714286e+00	 9.997256e+00
0	 4.000000e+00	 9.785714e+00	 9.997734e+00
0	 4.000000e+00	 9.857143e+00	 9.998611e+00
0	 4.000000e+00	 9.928571e+00	 9.999886e+00
0	 4.000000e+00	 1.000000e+01	 1.000156e+01
0	 4.071429e+00	 9.642857e+00	 9.996912e+00
0	 4.071429e+00	 9.714286e+00	 9.996988e+00
0	 4.071429e+00	 9.785714e+00	 9.997479e+00
0	 4.071429e+00	 9.857143e+00	 9.998384e+00
0	 4.071429e+00	 9.928571e+00	 9.999704e+00
0	 4.071429e+00	 1.000000e+01	 1.000144e+01
0	 4.142857e+00	 9.642857e+00	 9.996814e+00
0	 4.142857e+00	 9.714286e+00	 9.996893e+00
0	 4.142857e+00	 9.785714e+00	 9.997402e+00
0	 4.142857e+00	 9.857143e+00	 9.998343e+00
0	 4.142857e+00	 9.928571e+00	 9.999715e+00
0	 4.142857e+00	 1.000000e+01	 1.000152e+01
0	 4.214286e+00	 9.642857e+00	 9.996881e+00
0	 4.214286e+00	 9.714286e+00	 9.996970e+00
0	 4.214286e+00	 9.785714e+00	 9.997505e+00
0	 4.214286e+00	 9.857143e+00	 9.998488e+00
0	 4.214286e+00	 9.928571e+00	 9.999918e+00
0	 4.214286e+00	 1.000000e+01	 1.000180e+01
0	 4.285714e+00	 9.642857e+00	 9.997115e+00
0	 4.285714e+00	 9.714286e+00	 9.997219e+00
0	 4.285714e+00	 9.785714e+00	 9.997787e+00
0	 4.285714e+00	 9.857143e+00	 9.998819e+00
0	 4.285714e+00	 9.928571e+00	 1.000031e+01
0	 4.285714e+00	 1.000000e+01	 1.000227e+01
0	 4.285714e+00	 0.000000e+00	 9.843729e+00
0	 4.285714e+00	 7.142857e-02	 9.816995e+00
0	 4.285714e+00	 1.428571e-01	 9.798406e+00
0	 4.285714e+00	 2.142857e-01	 9.787964e+00
0	 4.285714e+00	 2.857143e-01	 9.785668e+00
0	 4.285714e+00	 3.571429e-01	 9.791518e+00
0	 4.357143e+00	 0.000000e+00	 9.875478e+00
0	 4.357143e+00	 7.142857e-02	 9.848530e+00
0	 4.357143e+00	 1.428571e-01	 9.829243e+00
0	 4.357143e+00	 2.142857e-01	 9.817619e+00
0	 4.357143e+00	 2.857143e-01	 9.813656e+00
0	 4.357143e+00	 3.571429e-01	 9.817356e+00
0	 4.428571e+00	 0.000000e+00	 9.905485e+00
0	 4.428571e+00	 7.142857e-02	 9.878841e+00
0	 4.428571e+00	 1.428571e-01	 9.859375e+00
0	 4.428571e+00	 2.142857e-01	 9.847087e+00
0	 4.428571e+00	 2.857143e-01	 9.841978e+00
0	 4.428571e+00	 3.571429e-01	 9.844046e+00
0	 4.500000e+00	 0.000000e+00	 9.933749e+00
0	 4.500000e+00	 7.142857e-02	 9.907929e+00
0	 4.500000e+00	 1.428571e-01	 9.888803e+00
0	 4.500000e+00	 2.142857e-01	 9.876370e+00
0	 4.500000e+00	 2.857143e-01	 9.870632e+00
0	 4.500000e+00	 3.571429e-01	 9.871588e+00
0	 4.571429e+00	 0.000000e+00	 9.960271e+00
0	 4.571429e+00	 7.142857e-02	 9.935793e+00
0	 4.571429e+00	 1.428571e-01	 9.917525e+00
0	 4.571429e+00	 2.142857e-01	 9.905468e+00
0	 4.571429e+00	 2.857143e-01	 9.899620e+00
0	 4.571429e+00	 3.571429e-01	 9.899982e+00
0	 4.642857e+00	 0.000000e+00	 9.985050e+00
0	 4.642857e+00	 7.142857e-02	 9.962434e+00
0	 4.642857e+00	 1.428571e-01	 9.945544e+00
0	 4.642857e+00	 2.142857e-01	 9.934379e+00
0	 4.642857e+00	 2.857143e-01	 9.928941e+00
0	 4.642857e+00	 3.571429e-01	 9.929229e+00
0	 4.285714e+00	 3.571429e-01	 9.791518e+00
0	 4.285714e+00	 4.285714e-01	 9.741310e+00
0	 4.285714e+00	 5.000000e-01	 9.697674e+00
0	 4.285714e+00	 5.714286e-01	 9.660610e+00
0	 4.285714e+00	 6.428571e-01	 9.630119e+00
0	 4.285714e+00	 7.142857e-01	 9.606200e+00
0	 4.357143e+00	 3.571429e-01	 9.817356e+00
0	 4.357143e+00	 4.285714e-01	 9.770085e+00
0	 4.357143e+00	 5.000000e-01	 9.729092e+00
0	 4.357143e+00	 5.714286e-01	 9.694378e+00
0	 4.357143e+00	 6.428571e-01	 9.665942e+00
0	 4.357143e+00	 7.142857e-01	 9.643785e+00
0	 4.428571e+00	 3.571429e-01	 9.844046e+00
0	 4.428571e+00	 4.285714e-01	 9.799269e+00
0	 4.428571e+00	 5.000000e-01	 9.760478e+00
0	 4.428571e+00	 5.714286e-01	 9.727671e+00
0	 4.428571e+00	 6.428571e-01	 9.700848e+00
0	 4.428571e+00	 7.142857e-01	 9.680010e+00
0	 4.500000e+00	 3.571429e-01	 9.871588e+00
0	 4.500000e+00	 4.285714e-01	 9.828864e+00
0	 4.500000e+00	 5.000000e-01	 9.791831e+00
0	 4.500000e+00	 5.714286e-01	 9.760489e+00
0	 4.500000e+00	 6.428571e-01	 9.734838e+00
0	 4.500000e+00	 7.142857e-01	 9.714877e+00
0	 4.571429e+00	 3.571429e-01	 9.899982e+00
0	 4.571429e+00	 4.285714e-01	 9.858869e+00
0	 4.571429e+00	 5.000000e-01	 9.823153e+00
0	 4.571429e+00	 5.714286e-01	 9.792834e+00
0	 4.571429e+00	 6.428571e-01	 9.767911e+00
0	 4.571429e+00	 7.142857e-01	 9.748386e+00
0	 4.642857e+00	 3.571429e-01	 9.929229e+00
0	 4.642857e+00	 4.285714e-01	 9.889284e+00
0	 4.642857e+00	 5.000000e-01	 9.854443e+00
0	 4.642857e+00	 5.714286e-01	 9.824704e+00
0	 4.642857e+00	 6.428571e-01	 9.800069e+00
0	 4.642857e+00	 7.142857e-01	 9.780536e+00
0	 4.285714e+00	 7.142857e-01	 9.606200e+00
0	 4.285714e+00	 7.857143e-01	 9.545222e+00
0	 4.285714e+00	 8.571429e-01	 9.488306e+00
0	 4.285714e+00	 9.285714e-01	 9.435452e+00
0	 4.285714e+00	 1.000000e+00	 9.386660e+00
0	 4.285714e+00	 1.071429e+00	 9.341931e+00
0	 4.357143e+00	 7.142857e-01	 9.643785e+00
0	 4.357143e+00	 7.857143e-01	 9.584862e+00
0	 4.357143e+00	 8.571429e-01	 9.529897e+00
0	 4.357143e+00	 9.285714e-01	 9.478889e+00
0	 4.357143e+00	 1.000000e+00	 9.431837e+00
0	 4.357143e+00	 1.071429e+00	 9.388742e+00
0	 4.428571e+00	 7.142857e-01	 9.680010e+00
0	 4.428571e+00	 7.857143e-01	 9.623060e+00
0	 4.428571e+00	 8.571429e-01	 9.569960e+00
0	 4.428571e+00	 9.285714e-01	 9.520712e+00
0	 4.428571e+00	 1.000000e+00	 9.475316e+00
0	 4.428571e+00	 1.071429e+00	 9.433770e+00
0	 4.500000e+00	 7.142857e-01	 9.714877e+00
0	 4.500000e+00	 7.857143e-01	 9.659813e+00
0	 4.500000e+00	 8.571429e-01	 9.608495e+00
0	 4.500000e+00	 9.285714e-01	 9.560923e+00
0	 4.500000e+00	 1.000000e+00	 9.517097e+00
0	 4.500000e+00	 1.071429e+00	 9.477017e+00
0	 4.571429e+00	 7.142857e-01	 9.748386e+00
0	 4.571429e+00	 7.857143e-01	 9.695124e+00
0	 4.571429e+00	 8.571429e-01	 9.645503e+00
0	 4.571429e+00	 9.285714e-01	 9.599522e+00
0	 4.571429e+00	 1.000000e+00	 9.557181e+00
0	 4.571429e+00	 1.071429e+00	 9.518482e+00
0	 4.642857e+00	 7.142857e-01	 9.780536e+00
0	 4.642857e+00	 7.857143e-01	 9.728991e+00
0	 4.642857e+00	 8.571429e-01	 9.680982e+00
0	 4.642857e+00	 9.285714e-01	 9.636508e+00
0	 4.642857e+00	 1.000000e+00	 9.595568e+00
0	 4.642857e+00	 1.071429e+00	 9.558164e+00
0	 4.285714e+00	 1.071429e+00	 9.341931e+00
0	 4.285714e+00	 1.142857e+00	 9.278825e+00
0	 4.285714e+00	 1.214286e+00	 9.217394e+00
0	 4.285714e+00	 1.285714e+00	 9.157636e+00
0	 4.285714e+00	 1.357143e+00	 9.099553e+00
0	 4.285714e+00	 1.428571e+00	 9.043144e+00
0	 4.357143e+00	 1.071429e+00	 9.388742e+00
0	 4.357143e+00	 1.142857e+00	 9.328244e+00
0	 4.357143e+00	 1.214286e+00	 9.269319e+00
0	 4.357143e+00	 1.285714e+00	 9.211966e+00
0	 4.357143e+00	 1.357143e+00	 9.156186e+00
0	 4.357143e+00	 1.428571e+00	 9.101979e+00
0	 4.428571e+00	 1.071429e+00	 9.433770e+00
0	 4.428571e+00	 1.142857e+00	 9.375625e+00
0	 4.428571e+00	 1.214286e+00	 9.318951e+00
0	 4.428571e+00	 1.285714e+00	 9.263748e+00
0	 4.428571e+00	 1.357143e+00	 9.210015e+00
0	 4.428571e+00	 1.428571e+00	 9.157754e+00
0	 4.500000e+00	 1.071429e+00	 9.477017e+00
0	 4.500000e+00	 1.142857e+00	 9.420969e+00
0	 4.500000e+00	 1.214286e+00	 9.366290e+00
0	 4.500000e+00	 1.285714e+00	 9.312980e+00
0	 4.500000e+00	 1.357143e+00	 9.261040e+00
0	 4.500000e+00	 1.428571e+00	 9.210468e+00
0	 4.571429e+00	 1.071429e+00	 9.518482e+00
0	 4.571429e+00	 1.142857e+00	 9.464275e+00
0	 4.571429e+00	 1.214286e+00	 9.411336e+00
0	 4.571429e+00	 1.285714e+00	 9.359664e+00
0	 4.571429e+00	 1.357143e+00	 9.309260e+00
0	 4.571429e+00	 1.428571e+00	 9.260123e+00
0	 4.642857e+00	 1.071429e+00	 9.558164e+00
0	 4.642857e+00	 1.142857e+00	 9.505543e+00
0	 4.642857e+00	 1.214286e+00	 9.454088e+00
0	 4.642857e+00	 1.285714e+00	 9.403799e+00
0	 4.642857e+00	 1.357143e+00	 9.354676e+00
0	 4.642857e+00	 1.428571e+00	 9.306718e+00
0	 4.285714e+00	 1.428571e+00	 9.043144e+00
0	 4.285714e+00	 1.500000e+00	 8.993575e+00
0	 4.285714e+00	 1.571429e+00	 8.942153e+00
0	 4.285714e+00	 1.642857e+00	 8.888876e+00
0	 4.285714e+00	 1.714286e+00	 8.833747e+00
0	 4.285714e+00	 1.785714e+00	 8.776764e+00
0	 4.357143e+00	 1.428571e+00	 9.101979e+00
0	 4.357143e+00	 1.500000e+00	 9.053386e+00
0	 4.357143e+00	 1.571429e+00	 9.003178e+00
0	 4.357143e+00	 1.642857e+00	 8.951357e+00
0	 4.357143e+00	 1.714286e+00	 8.897922e+00
0	 4.357143e+00	 1.785714e+00	 8.842872e+00
0	 4.428571e+00	 1.428571e+00	 9.157754e+00
0	 4.428571e+00	 1.500000e+00	 9.110004e+00
0	 4.428571e+00	 1.571429e+00	 9.060880e+00
0	 4.428571e+00	 1.642857e+00	 9.010381e+00
0	 4.428571e+00	 1.714286e+00	 8.958507e+00
0	 4.428571e+00	 1.785714e+00	 8.905259e+00
0	 4.500000e+00	 1.428571e+00	 9.210468e+00
0	 4.500000e+00	 1.500000e+00	 9.163430e+00
0	 4.500000e+00	 1.571429e+00	 9.115256e+00
0	 4.500000e+00	 1.642857e+00	 9.065947e+00
0	 4.500000e+00	 1.714286e+00	 9.015503e+00
0	 4.500000e+00	 1.785714e+00	 8.963923e+00
0	 4.571429e+00	 1.428571e+00	 9.260123e+00
0	 4.571429e+00	 1.500000e+00	 9.213664e+00
0	 4.571429e+00	 1.571429e+00	 9.166308e+00
0	 4.571429e+00	 1.642857e+00	 9.118057e+00
0	 4.571429e+00	 1.714286e+00	 9.068910e+00
0	 4.571429e+00	 1.785714e+00	 9.018867e+00
0	 4.642857e+00	 1.428571e+00	 9.306718e+00
0	 4.642857e+00	 1.500000e+00	 9.260705e+00
0	 4.642857e+00	 1.571429e+00	 9.214036e+00
0	 4.642857e+00	 1.642857e+00	 9.166710e+00
0	 4.642857e+00	 1.714286e+00	 9.118727e+00
0	 4.642857e+00	 1.785714e+00	 9.070088e+00
0	 4.285714e+00	 1.785714e+00	 8.776764e+00
0	 4.285714e+00	 1.857143e+00	 8.746440e+00
0	 4.285714e+00	 1.928571e+00	 8.712614e+00
0	 4.285714e+00	 2.000000e+00	 8.675283e+00
0	 4.285714e+00	 2.071429e+00	 8.634449e+00
0	 4.285714e+00	 2.142857e+00	 8.590112e+00
0	 4.357143e+00	 1.785714e+00	 8.842872e+00
0	 4.357143e+00	 1.857143e+00	 8.812022e+00
0	 4.357143e+00	 1.928571e+00	 8.777917e+00
0	 4.357143e+00	 2.000000e+00	 8.740557e+00
0	 4.357143e+00	 2.071429e+00	 8.699941e+00
0	 4.357143e+00	 2.142857e+00	 8.656069e+00
0	 4.428571e+00	 1.785714e+00	 8.905259e+00
0	 4.428571e+00	 1.857143e+00	 8.873944e+00
0	 4.428571e+00	 1.928571e+00	 8.839622e+00
0	 4.428571e+00	 2.000000e+00	 8.802293e+00
0	 4.428571e+00	 2.071429e+00	 8.761957e+00
0	 4.428571e+00	 2.142857e+00	 8.718613e+00
0	 4.500000e+00	 1.785714e+00	 8.963923e+00
0	 4.500000e+00	 1.857143e+00	 8.932206e+00
0	 4.500000e+00	 1.928571e+00	 8.897729e+00
0	 4.500000e+00	 2.000000e+00	 8.860493e+00
0	 4.500000e+00	 2.071429e+00	 8.820497e+00
0	 4.500000e+00	 2.142857e+00	 8.777742e+00
0	 4.571429e+00	 1.785714e+00	 9.018867e+00
0	 4.571429e+00	 1.857143e+00	 8.986807e+00
0	 4.571429e+00	 1.928571e+00	 8.952237e+00
0	 4.571429e+00	 2.000000e+00	 8.915155e+00
0	 4.571429e+00	 2.071429e+00	 8.875562e+00
0	 4.571429e+00	 2.142857e+00	 8.833458e+00
0	 4.642857e+00	 1.785714e+00	 9.070088e+00
0	 4.642857e+00	 1.857143e+00	 9.037749e+00
0	 4.642857e+00	 1.928571e+00	 9.003146e+00
0	 4.642857e+00	 2.000000e+00	 8.966280e+00
0	 4.642857e+00	 2.071429e+00	 8.927151e+00
0	 4.642857e+00	 2.142857e+00	 8.885759e+00
0	 4.285714e+00	 2.142857e+00	 8.590112e+00
0	 4.285714e+00	 2.214286e+00	 8.580217e+00
0	 4.285714e+00	 2.285714e+00	 8.566104e+00
0	 4.285714e+00	 2.357143e+00	 8.547774e+00
0	 4.285714e+00	 2.428571e+00	 8.525225e+00
0	 4.285714e+00	 2.500000e+00	 8.498459e+00
0	 4.357143e+00	 2.142857e+00	 8.656069e+00
0	 4.357143e+00	 2.214286e+00	 8.644587e+00
0	 4.357143e+00	 2.285714e+00	 8.629131e+00
0	 4.357143e+00	 2.357143e+00	 8.609702e+00
0	 4.357143e+00	 2.428571e+00	 8.586299e+00
0	 4.357143e+00	 2.500000e+00	 8.558922e+00
0	 4.428571e+00	 2.142857e+00	 8.718613e+00
0	 4.428571e+00	 2.214286e+00	 8.705657e+00
0	 4.428571e+00	 2.285714e+00	 8.688972e+00
0	 4.428571e+00	 2.357143e+00	 8.668557e+00
0	 4.428571e+00	 2.428571e+00	 8.644412e+00
0	 4.428571e+00	 2.500000e+00	 8.616539e+00
0	 4.500000e+00	 2.142857e+00	 8.777742e+00
0	 4.500000e+00	 2.214286e+00	 8.763426e+00
0	 4.500000e+00	 2.285714e+00	 8.745625e+00
0	 4.500000e+00	 2.357143e+00	 8.724339e+00
0	 4.500000e+00	 2.428571e+00	 8.699567e+00
0	 4.500000e+00	 2.500000e+00	 8.671309e+00
0	 4.571429e+00	 2.142857e+00	 8.833458e+00
0	 4.571429e+00	 2.214286e+00	 8.817895e+00
0	 4.571429e+00	 2.285714e+00	 8.799092e+00
0	 4.571429e+00	 2.357143e+00	 8.777047e+00
0	 4.571429e+00	 2.428571e+00	 8.751761e+00
0	 4.571429e+00	 2.500000e+00	 8.723234e+00
0	 4.642857e+00	 2.142857e+00	 8.885759e+00
0	 4.642857e+00	 2.214286e+00	 8.869064e+00
0	 4.642857e+00	 2.285714e+00	 8.849372e+00
0	 4.642857e+00	 2.357143e+00	 8.826683e+00
0	 4.642857e+00	 2.428571e+00	 8.800996e+00
0	 4.642857e+00	 2.500000e+00	 8.772312e+00
0	 4.285714e+00	 2.500000e+00	 8.498459e+00
0	 4.285714e+00	 2.571429e+00	 8.507283e+00
0	 4.285714e+00	 2.642857e+00	 8.511960e+00
0	 4.285714e+00	 2.714286e+00	 8.512490e+00
0	 4.285714e+00	 2.785714e+00	 8.508874e+00
0	 4.285714e+00	 2.857143e+00	 8.501112e+00
0	 4.357143e+00	 2.500000e+00	 8.558922e+00
0	 4.357143e+00	 2.571429e+00	 8.564752e+00
0	 4.357143e+00	 2.642857e+00	 8.566646e+00
0	 4.357143e+00	 2.714286e+00	 8.564604e+00
0	 4.357143e+00	 2.785714e+00	 8.558627e+00
0	 4.357143e+00	 2.857143e+00	 8.548714e+00
0	 4.428571e+00	 2.500000e+00	 8.616539e+00
0	 4.428571e+00	 2.571429e+00	 8.619747e+00
0	 4.428571e+00	 2.642857e+00	 8.619231e+00
0	 4.428571e+00	 2.714286e+00	 8.614989e+00
0	 4.428571e+00	 2.785714e+00	 8.607023e+00
0	 4.428571e+00	 2.857143e+00	 8.595332e+00
0	 4.500000e+00	 2.500000e+00	 8.671309e+00
0	 4.500000e+00	 2.571429e+00	 8.672269e+00
0	 4.500000e+00	 2.642857e+00	 8.669715e+00
0	 4.500000e+00	 2.714286e+00	 8.663646e+00
0	 4.500000e+00	 2.785714e+00	 8.654063e+00
0	 4.500000e+00	 2.857143e+00	 8.640966e+00
0	 4.571429e+00	 2.500000e+00	 8.723234e+00
0	 4.571429e+00	 2.571429e+00	 8.722317e+00
0	 4.571429e+00	 2.642857e+00	 8.718097e+00
0	 4.571429e+00	 2.714286e+00	 8.710573e+00
0	 4.571429e+00	 2.785714e+00	 8.699746e+00
0	 4.571429e+00	 2.857143e+00	 8.685616e+00
0	 4.642857e+00	 2.500000e+00	 8.772312e+00
0	 4.642857e+00	 2.571429e+00	 8.769892e+00
0	 4.642857e+00	 2.642857e+00	 8.764378e+00
0	 4.642857e+00	 2.714286e+00	 8.755772e+00
0	 4.642857e+00	 2.785714e+00	 8.744073e+00
0	 4.642857e+00	 2.857143e+00	 8.729282e+00
0	 4.285714e+00	 2.857143e+00	 8.501112e+00
0	 4.285714e+00	 2.928571e+00	 8.521152e+00
0	 4.285714e+00	 3.000000e+00	 8.537922e+00
0	 4.285714e+00	 3.071429e+00	 8.551423e+00
0	 4.285714e+00	 3.142857e+00	 8.561654e+00
0	 4.285714e+00	 3.214286e+00	 8.568616e+00
0	 4.357143e+00	 2.857143e+00	 8.548714e+00
0	 4.357143e+00	 2.928571e+00	 8.566344e+00
0	 4.357143e+00	 3.000000e+00	 8.580793e+00
0	 4.357143e+00	 3.071429e+00	 8.592060e+00
0	 4.357143e+00	 3.142857e+00	 8.600146e+00
0	 4.357143e+00	 3.214286e+00	 8.605049e+00
0	 4.428571e+00	 2.857143e+00	 8.595332e+00
0	 4.428571e+00	 2.928571e+00	 8.610713e+00
0	 4.428571e+00	 3.000000e+00	 8.623000e+00
0	 4.428571e+00	 3.071429e+00	 8.632193e+00
0	 4.428571e+00	 3.142857e+00	 8.638292e+00
0	 4.428571e+00	 3.214286e+00	 8.641297e+00
0	 4.500000e+00	 2.857143e+00	 8.640966e+00
0	 4.500000e+00	 2.928571e+00	 8.654258e+00
0	 4.500000e+00	 3.000000e+00	 8.664543e+00
0	 4.500000e+00	 3.071429e+00	 8.671822e+00
0	 4.500000e+00	 3.142857e+00	 8.676095e+00
0	 4.500000e+00	 3.214286e+00	 8.677361e+00
0	 4.571429e+00	 2.857143e+00	 8.685616e+00
0	 4.571429e+00	 2.928571e+00	 8.696978e+00
0	 4.571429e+00	 3.000000e+00	 8.705422e+00
0	 4.571429e+00	 3.071429e+00	 8.710946e+00
0	 4.571429e+00	 3.142857e+00	 8.713553e+00
0	 4.571429e+00	 3.214286e+00	 8.713240e+00
0	 4.642857e+00	 2.857143e+00	 8.729282e+00
0	 4.642857e+00	 2.928571e+00	 8.738874e+00
0	 4.642857e+00	 3.000000e+00	 8.745636e+00
0	 4.642857e+00	 3.071429e+00	 8.749566e+00
0	 4.642857e+00	 3.142857e+00	 8.750666e+00
0	 4.642857e+00	 3.214286e+00	 8.748935e+00
0	 4.285714e+00	 3.214286e+00	 8.568616e+00
0	 4.285714e+00	 3.285714e+00	 8.596866e+00
0	 4.285714e+00	 3.357143e+00	 8.622510e+00
0	 4.285714e+00	 3.428571e+00	 8.645547e+00
0	 4.285714e+00	 3.500000e+00	 8.665977e+00
0	 4.285714e+00	 3.571429e+00	 8.683801e+00
0	 4.357143e+00	 3.214286e+00	 8.605049e+00
0	 4.357143e+00	 3.285714e+00	 8.630573e+00
0	 4.357143e+00	 3.357143e+00	 8.653562e+00
0	 4.357143e+00	 3.428571e+00	 8.674014e+00
0	 4.357143e+00	 3.500000e+00	 8.691930e+00
0	 4.357143e+00	 3.571429e+00	 8.707311e+00
0	 4.428571e+00	 3.214286e+00	 8.641297e+00
0	 4.428571e+00	 3.285714e+00	 8.664360e+00
0	 4.428571e+00	 3.357143e+00	 8.684958e+00
0	 4.428571e+00	 3.428571e+00	 8.703090e+00
0	 4.428571e+00	 3.500000e+00	 8.718758e+00
0	 4.428571e+00	 3.571429e+00	 8.731959e+00
0	 4.500000e+00	 3.214286e+00	 8.677361e+00
0	 4.500000e+00	 3.285714e+00	 8.698228e+00
0	 4.500000e+00	 3.357143e+00	 8.716699e+00
0	 4.500000e+00	 3.428571e+00	 8.732777e+00
0	 4.500000e+00	 3.500000e+00	 8.746459e+00
0	 4.500000e+00	 3.571429e+00	 8.757747e+00
0	 4.571429e+00	 3.214286e+00	 8.713240e+00
0	 4.571429e+00	 3.285714e+00	 8.732175e+00
0	 4.571429e+00	 3.357143e+00	 8.748786e+00
0	 4.571429e+00	 3.428571e+00	 8.763072e+00
0	 4.571429e+00	 3.500000e+00	 8.775035e+00
0	 4.571429e+00	 3.571429e+00	 8.784674e+00
0	 4.642857e+00	 3.214286e+00	 8.748935e+00
0	 4.642857e+00	 3.285714e+00	 8.766202e+00
0	 4.642857e+00	 3.357143e+00	 8.781217e+00
0	 4.642857e+00	 3.428571e+00	 8.793978e+00
0	 4.642857e+00	 3.500000e+00	 8.804485e+00
0	 4.642857e+00	 3.571429e+00	 8.812739e+00
0	 4.285714e+00	 3.571429e+00	 8.683801e+00
0	 4.285714e+00	 3.642857e+00	 8.714511e+00
0	 4.285714e+00	 3.714286e+00	 8.743513e+00
0	 4.285714e+00	 3.785714e+00	 8.770807e+00
0	 4.285714e+00	 3.857143e+00	 8.796393e+00
0	 4.285714e+00	 3.928571e+00	 8.820271e+00
0	 4.357143e+00	 3.571429e+00	 8.707311e+00
0	 4.357143e+00	 3.642857e+00	 8.736185e+00
0	 4.357143e+00	 3.714286e+00	 8.763341e+00
0	 4.357143e+00	 3.785714e+00	 8.788780e+00
0	 4.357143e+00	 3.857143e+00	 8.812502e+00
0	 4.357143e+00	 3.928571e+00	 8.834505e+00
0	 4.428571e+00	 3.571429e+00	 8.731959e+00
0	 4.428571e+00	 3.642857e+00	 8.759080e+00
0	 4.428571e+00	 3.714286e+00	 8.784473e+00
0	 4.428571e+00	 3.785714e+00	 8.808139e+00
0	 4.428571e+00	 3.857143e+00	 8.830078e+00
0	 4.428571e+00	 3.928571e+00	 8.850290e+00
0	 4.500000e+00	 3.571429e+00	 8.757747e+00
0	 4.500000e+00	 3.642857e+00	 8.783196e+00
0	 4.500000e+00	 3.714286e+00	 8.806909e+00
0	 4.500000e+00	 3.785714e+00	 8.828884e+00
0	 4.500000e+00	 3.857143e+00	 8.849123e+00
0	 4.500000e+00	 3.928571e+00	 8.867624e+00
0	 4.571429e+00	 3.571429e+00	 8.784674e+00
0	 4.571429e+00	 3.642857e+00	 8.808534e+00
0	 4.571429e+00	 3.714286e+00	 8.830648e+00
0	 4.571429e+00	 3.785714e+00	 8.851015e+00
0	 4.571429e+00	 3.857143e+00	 8.869635e+00
0	 4.571429e+00	 3.928571e+00	 8.886509e+00
0	 4.642857e+00	 3.571429e+00	 8.812739e+00
0	 4.642857e+00	 3.642857e+00	 8.835093e+00
0	 4.642857e+00	 3.714286e+00	 8.855690e+00
0	 4.642857e+00	 3.785714e+00	 8.874531e+00
0	 4.642857e+00	 3.857143e+00	 8.891615e+00
0	 4.642857e+00	 3.928571e+00	 8.906944e+00
0	 4.285714e+00	 3.928571e+00	 8.820271e+00
0	 4.285714e+00	 4.000000e+00	 8.851709e+00
0	 4.285714e+00	 4.071429e+00	 8.881964e+00
0	 4.285714e+00	 4.142857e+00	 8.911035e+00
0	 4.285714e+00	 4.214286e+00	 8.938923e+00
0	 4.285714e+00	 4.285714e+00	 8.965627e+00
0	 4.357143e+00	 3.928571e+00	 8.834505e+00
0	 4.357143e+00	 4.000000e+00	 8.864338e+00
0	 4.357143e+00	 4.071429e+00	 8.892981e+00
0	 4.357143e+00	 4.142857e+00	 8.920432e+00
0	 4.357143e+00	 4.214286e+00	 8.946693e+00
0	 4.357143e+00	 4.285714e+00	 8.971763e+00
0	 4.428571e+00	 3.928571e+00	 8.850290e+00
0	 4.428571e+00	 4.000000e+00	 8.878609e+00
0	 4.428571e+00	 4.071429e+00	 8.905731e+00
0	 4.428571e+00	 4.142857e+00	 8.931655e+00
0	 4.428571e+00	 4.214286e+00	 8.956381e+00
0	 4.428571e+00	 4.285714e+00	 8.979909e+00
0	 4.500000e+00	 3.928571e+00	 8.867624e+00
0	 4.500000e+00	 4.000000e+00	 8.894522e+00
0	 4.500000e+00	 4.071429e+00	 8.920215e+00
0	 4.500000e+00	 4.142857e+00	 8.944702e+00
0	 4.500000e+00	 4.214286e+00	 8.967985e+00
0	 4.500000e+00	 4.285714e+00	 8.990063e+00
0	 4.571429e+00	 3.928571e+00	 8.886509e+00
0	 4.571429e+00	 4.000000e+00	 8.912077e+00
0	 4.571429e+00	 4.071429e+00	 8.936432e+00
0	 4.571429e+00	 4.142857e+00	 8.959576e+00
0	 4.571429e+00	 4.214286e+00	 8.981507e+00
0	 4.571429e+00	 4.285714e+00	 9.002226e+00
0	 4.642857e+00	 3.928571e+00	 8.906944e+00
0	 4.642857e+00	 4.000000e+00	 8.931273e+00
0	 4.642857e+00	 4.071429e+00	 8.954383e+00
0	 4.642857e+00	 4.142857e+00	 8.976274e+00
0	 4.642857e+00	 4.214286e+00	 8.996945e+00
0	 4.642857e+00	 4.285714e+00	 9.016397e+00
0	 4.285714e+00	 4.285714e+00	 8.965627e+00
0	 4.285714e+00	 4.357143e+00	 8.995345e+00
0	 4.285714e+00	 4.428571e+00	 9.024390e+00
0	 4.285714e+00	 4.500000e+00	 9.052761e+00
0	 4.285714e+00	 4.571429e+00	 9.080459e+00
0	 4.285714e+00	 4.642857e+00	 9.107484e+00
0	 4.357143e+00	 4.285714e+00	 8.971763e+00
0	 4.357143e+00	 4.357143e+00	 9.000483e+00
0	 4.357143e+00	 4.428571e+00	 9.028495e+00
0	 4.357143e+00	 4.500000e+00	 9.055800e+00
0	 4.357143e+00	 4.571429e+00	 9.082398e+00
0	 4.357143e+00	 4.642857e+00	 9.108289e+00
0	 4.428571e+00	 4.285714e+00	 8.979909e+00
0	 4.428571e+00	 4.357143e+00	 9.007634e+00
0	 4.428571e+00	 4.428571e+00	 9.034619e+00
0	 4.428571e+00	 4.500000e+00	 9.060862e+00
0	 4.428571e+00	 4.571429e+00	 9.086365e+00
0	 4.428571e+00	 4.642857e+00	 9.111126e+00
0	 4.500000e+00	 4.285714e+00	 8.990063e+00
0	 4.500000e+00	 4.357143e+00	 9.016799e+00
0	 4.500000e+00	 4.428571e+00	 9.042760e+00
0	 4.500000e+00	 4.500000e+00	 9.067947e+00
0	 4.500000e+00	 4.571429e+00	 9.092359e+00
0	 4.500000e+00	 4.642857e+00	 9.115996e+00
0	 4.571429e+00	 4.285714e+00	 9.002226e+00
0	 4.571429e+00	 4.357143e+00	 9.027977e+00
0	 4.571429e+00	 4.428571e+00	 9.052920e+00
0	 4.571429e+00	 4.500000e+00	 9.077054e+00
0	 4.571429e+00	 4.571429e+00	 9.100380e+00
0	 4.571429e+00	 4.642857e+00	 9.122897e+00
0	 4.642857e+00	 4.285714e+00	 9.016397e+00
0	 4.642857e+00	 4.357143e+00	 9.041169e+00
0	 4.642857e+00	 4.428571e+00	 9.065098e+00
0	 4.642857e+00	 4.500000e+00	 9.088185e+00
0	 4.642857e+00	 4.571429e+00	 9.110429e+00
0	 4.642857e+00	 4.642857e+00	 9.131831e+00
0	 4.285714e+00	 4.642857e+00	 9.107484e+00
0	 4.285714e+00	 4.714286e+00	 9.134895e+00
0	 4.285714e+00	 4.785714e+00	 9.161919e+00
0	 4.285714e+00	 4.857143e+00	 9.188557e+00
0	 4.285714e+00	 4.928571e+00	 9.214810e+00
0	 4.285714e+00	 5.000000e+00	 9.240676e+00
0	 4.357143e+00	 4.642857e+00	 9.108289e+00
0	 4.357143e+00	 4.714286e+00	 9.134983e+00
0	 4.357143e+00	 4.785714e+00	 9.161265e+00
0	 4.357143e+00	 4.857143e+00	 9.187135e+00
0	 4.357143e+00	 4.928571e+00	 9.212592e+00
0	 4.357143e+00	 5.000000e+00	 9.237637e+00
0	 4.428571e+00	 4.642857e+00	 9.111126e+00
0	 4.428571e+00	 4.714286e+00	 9.137100e+00
0	 4.428571e+00	 4.785714e+00	 9.162636e+00
0	 4.428571e+00	 4.857143e+00	 9.187733e+00
0	 4.428571e+00	 4.928571e+00	 9.212391e+00
0	 4.428571e+00	 5.000000e+00	 9.236611e+00
0	 4.500000e+00	 4.642857e+00	 9.115996e+00
0	 4.500000e+00	 4.714286e+00	 9.141246e+00
0	 4.500000e+00	 4.785714e+00	 9.166031e+00
0	 4.500000e+00	 4.857143e+00	 9.190351e+00
0	 4.500000e+00	 4.928571e+00	 9.214207e+00
0	 4.500000e+00	 5.000000e+00	 9.237597e+00
0	 4.571429e+00	 4.642857e+00	 9.122897e+00
0	 4.571429e+00	 4.714286e+00	 9.147419e+00
0	 4.571429e+00	 4.785714e+00	 9.171450e+00
0	 4.571429e+00	 4.857143e+00	 9.194990e+00
0	 4.571429e+00	 4.928571e+00	 9.218038e+00
0	 4.571429e+00	 5.000000e+00	 9.240595e+00
0	 4.642857e+00	 4.642857e+00	 9.131831e+00
0	 4.642857e+00	 4.714286e+00	 9.155621e+00
0	 4.642857e+00	 4.785714e+00	 9.178894e+00
0	 4.642857e+00	 4.857143e+00	 9.201649e+00
0	 4.642857e+00	 4.928571e+00	 9.223886e+00
0	 4.642857e+00	 5.000000e+00	 9.245605e+00
0	 4.285714e+00	 5.000000e+00	 9.240676e+00
0	 4.285714e+00	 5.071429e+00	 9.265153e+00
0	 4.285714e+00	 5.142857e+00	 9.289475e+00
0	 4.285714e+00	 5.214286e+00	 9.313641e+00
0	 4.285714e+00	 5.285714e+00	 9.337651e+00
0	 4.285714e+00	 5.357143e+00	 9.361504e+00
0	 4.357143e+00	 5.000000e+00	 9.237637e+00
0	 4.357143e+00	 5.071429e+00	 9.261726e+00
0	 4.357143e+00	 5.142857e+00	 9.285629e+00
0	 4.357143e+00	 5.214286e+00	 9.309347e+00
0	 4.357143e+00	 5.285714e+00	 9.332880e+00
0	 4.357143e+00	 5.357143e+00	 9.356228e+00
0	 4.428571e+00	 5.000000e+00	 9.236611e+00
0	 4.428571e+00	 5.071429e+00	 9.260277e+00
0	 4.428571e+00	 5.142857e+00	 9.283729e+00
0	 4.428571e+00	 5.214286e+00	 9.306966e+00
0	 4.428571e+00	 5.285714e+00	 9.329988e+00
0	 4.428571e+00	 5.357143e+00	 9.352797e+00
0	 4.500000e+00	 5.000000e+00	 9.237597e+00
0	 4.500000e+00	 5.071429e+00	 9.260807e+00
0	 4.500000e+00	 5.142857e+00	 9.283773e+00
0	 4.500000e+00	 5.214286e+00	 9.306496e+00
0	 4.500000e+00	 5.285714e+00	 9.328975e+00
0	 4.500000e+00	 5.357143e+00	 9.351211e+00
0	 4.571429e+00	 5.000000e+00	 9.240595e+00
0	 4.571429e+00	 5.071429e+00	 9.263316e+00
0	 4.571429e+00	 5.142857e+00	 9.285764e+00
0	 4.571429e+00	 5.214286e+00	 9.307939e+00
0	 4.571429e+00	 5.285714e+00	 9.329841e+00
0	 4.571429e+00	 5.357143e+00	 9.351471e+00
0	 4.642857e+00	 5.000000e+00	 9.245605e+00
0	 4.642857e+00	 5.071429e+00	 9.267804e+00
0	 4.642857e+00	 5.142857e+00	 9.289700e+00
0	 4.642857e+00	 5.214286e+00	 9.311294e+00
0	 4.642857e+00	 5.285714e+00	 9.332586e+00
0	 4.642857e+00	 5.357143e+00	 9.353576e+00
0	 4.285714e+00	 5.357143e+00	 9.361504e+00
0	 4.285714e+00	 5.428571e+00	 9.383065e+00
0	 4.285714e+00	 5.500000e+00	 9.404600e+00
0	 4.285714e+00	 5.571429e+00	 9.426108e+00
0	 4.285714e+00	 5.642857e+00	 9.447589e+00
0	 4.285714e+00	 5.714286e+00	 9.469044e+00
0	 4.357143e+00	 5.357143e+00	 9.356228e+00
0	 4.357143e+00	 5.428571e+00	 9.377588e+00
0	 4.357143e+00	 5.500000e+00	 9.398898e+00
0	 4.357143e+00	 5.571429e+00	 9.420160e+00
0	 4.357143e+00	 5.642857e+00	 9.441372e+00
0	 4.357143e+00	 5.714286e+00	 9.462536e+00
0	 4.428571e+00	 5.357143e+00	 9.352797e+00
0	 4.428571e+00	 5.428571e+00	 9.373918e+00
0	 4.428571e+00	 5.500000e+00	 9.394967e+00
0	 4.428571e+00	 5.571429e+00	 9.415945e+00
0	 4.428571e+00	 5.642857e+00	 9.436852e+00
0	 4.428571e+00	 5.714286e+00	 9.457687e+00
0	 4.500000e+00	 5.357143e+00	 9.351211e+00
0	 4.500000e+00	 5.428571e+00	 9.372056e+00
0	 4.500000e+00	 5.500000e+00	 9.392807e+00
0	 4.500000e+00	 5.571429e+00	 9.413464e+00
0	 4.500000e+00	 5.642857e+00	 9.434027e+00
0	 4.500000e+00	 5.714286e+00	 9.454497e+00
0	 4.571429e+00	 5.357143e+00	 9.351471e+00
0	 4.571429e+00	 5.428571e+00	 9.372002e+00
0	 4.571429e+00	 5.500000e+00	 9.392418e+00
0	 4.571429e+00	 5.571429e+00	 9.412717e+00
0	 4.571429e+00	 5.642857e+00	 9.432899e+00
0	 4.571429e+00	 5.714286e+00	 9.452965e+00
0	 4.642857e+00	 5.357143e+00	 9.353576e+00
0	 4.642857e+00	 5.428571e+00	 9.373757e+00
0	 4.642857e+00	 5.500000e+00	 9.393799e+00
0	 4.642857e+00	 5.571429e+00	 9.413703e+00
0	 4.642857e+00	 5.642857e+00	 9.433467e+00
0	 4.642857e+00	 5.714286e+00	 9.453093e+00
0	 4.285714e+00	 5.714286e+00	 9.469044e+00
0	 4.285714e+00	 5.785714e+00	 9.487760e+00
0	 4.285714e+00	 5.857143e+00	 9.506539e+00
0	 4.285714e+00	 5.928571e+00	 9.525380e+00
0	 4.285714e+00	 6.000000e+00	 9.544284e+00
0	 4.285714e+00	 6.071429e+00	 9.563250e+00
0	 4.357143e+00	 5.714286e+00	 9.462536e+00
0	 4.357143e+00	 5.785714e+00	 9.481209e+00
0	 4.357143e+00	 5.857143e+00	 9.499926e+00
0	 4.357143e+00	 5.928571e+00	 9.518686e+00
0	 4.357143e+00	 6.000000e+00	 9.537489e+00
0	 4.357143e+00	 6.071429e+00	 9.556336e+00
0	 4.428571e+00	 5.714286e+00	 9.457687e+00
0	 4.428571e+00	 5.785714e+00	 9.476274e+00
0	 4.428571e+00	 5.857143e+00	 9.494886e+00
0	 4.428571e+00	 5.928571e+00	 9.513521e+00
0	 4.428571e+00	 6.000000e+00	 9.532181e+00
0	 4.428571e+00	 6.071429e+00	 9.550865e+00
0	 4.500000e+00	 5.714286e+00	 9.454497e+00
0	 4.500000e+00	 5.785714e+00	 9.472955e+00
0	 4.500000e+00	 5.857143e+00	 9.491418e+00
0	 4.500000e+00	 5.928571e+00	 9.509886e+00
0	 4.500000e+00	 6.000000e+00	 9.528359e+00
0	 4.500000e+00	 6.071429e+00	 9.546837e+00
0	 4.571429e+00	 5.714286e+00	 9.452965e+00
0	 4.571429e+00	 5.785714e+00	 9.471251e+00
0	 4.571429e+00	 5.857143e+00	 9.489523e+00
0	 4.571429e+00	 5.928571e+00	 9.507780e+00
0	 4.571429e+00	 6.000000e+00	 9.526023e+00
0	 4.571429e+00	 6.071429e+00	 9.544252e+00
0	 4.642857e+00	 5.714286e+00	 9.453093e+00
0	 4.642857e+00	 5.785714e+00	 9.471163e+00
0	 4.642857e+00	 5.857143e+00	 9.489200e+00
0	 4.642857e+00	 5.928571e+00	 9.507203e+00
0	 4.642857e+00	 6.000000e+00	 9.525173e+00
0	 4.642857e+00	 6.071429e+00	 9.543110e+00
0	 4.285714e+00	 6.071429e+00	 9.563250e+00
0	 4.285714e+00	 6.142857e+00	 9.579370e+00
0	 4.285714e+00	 6.214286e+00	 9.595600e+00
0	 4.285714e+00	 6.285714e+00	 9.611940e+00
0	 4.285714e+00	 6.357143e+00	 9.628392e+00
0	 4.285714e+00	 6.428571e+00	 9.644953e+00
0	 4.357143e+00	 6.071429e+00	 9.556336e+00
0	 4.357143e+00	 6.142857e+00	 9.572510e+00
0	 4.357143e+00	 6.214286e+00	 9.588781e+00
0	 4.357143e+00	 6.285714e+00	 9.605148e+00
0	 4.357143e+00	 6.357143e+00	 9.621611e+00
0	 4.357143e+00	 6.428571e+00	 9.638171e+00
0	 4.428571e+00	 6.071429e+00	 9.550865e+00
0	 4.428571e+00	 6.142857e+00	 9.567052e+00
0	 4.428571e+00	 6.214286e+00	 9.583321e+00
0	 4.428571e+00	 6.285714e+00	 9.599672e+00
0	 4.428571e+00	 6.357143e+00	 9.616106e+00
0	 4.428571e+00	 6.428571e+00	 9.632621e+00
0	 4.500000e+00	 6.071429e+00	 9.546837e+00
0	 4.500000e+00	 6.142857e+00	 9.562995e+00
0	 4.500000e+00	 6.214286e+00	 9.579220e+00
0	 4.500000e+00	 6.285714e+00	 9.595514e+00
0	 4.500000e+00	 6.357143e+00	 9.611876e+00
0	 4.500000e+00	 6.428571e+00	 9.628305e+00
0	 4.571429e+00	 6.071429e+00	 9.544252e+00
0	 4.571429e+00	 6.142857e+00	 9.560338e+00
0	 4.571429e+00	 6.214286e+00	 9.576478e+00
0	 4.571429e+00	 6.285714e+00	 9.592673e+00
0	 4.571429e+00	 6.357143e+00	 9.608921e+00
0	 4.571429e+00	 6.428571e+00	 9.625223e+00
0	 4.642857e+00	 6.071429e+00	 9.543110e+00
0	 4.642857e+00	 6.142857e+00	 9.559083e+00
0	 4.642857e+00	 6.214286e+00	 9.575096e+00
0	 4.642857e+00	 6.285714e+00	 9.591149e+00
0	 4.642857e+00	 6.357143e+00	 9.607241e+00
0	 4.642857e+00	 6.428571e+00	 9.623373e+00
0	 4.285714e+00	 6.428571e+00	 9.644953e+00
0	 4.285714e+00	 6.500000e+00	 9.658741e+00
0	 4.285714e+00	 6.571429e+00	 9.672668e+00
0	 4.285714e+00	 6.642857e+00	 9.686733e+00
0	 4.285714e+00	 6.714286e+00	 9.700936e+00
0	 4.285714e+00	 6.785714e+00	 9.715279e+00
0	 4.357143e+00	 6.428571e+00	 9.638171e+00
0	 4.357143e+00	 6.500000e+00	 9.652081e+00
0	 4.357143e+00	 6.571429e+00	 9.666120e+00
0	 4.357143e+00	 6.642857e+00	 9.680287e+00
0	 4.357143e+00	 6.714286e+00	 9.694582e+00
0	 4.357143e+00	 6.785714e+00	 9.709006e+00
0	 4.428571e+00	 6.428571e+00	 9.632621e+00
0	 4.428571e+00	 6.500000e+00	 9.646615e+00
0	 4.428571e+00	 6.571429e+00	 9.660726e+00
0	 4.428571e+00	 6.642857e+00	 9.674955e+00
0	 4.428571e+00	 6.714286e+00	 9.689301e+00
0	 4.428571e+00	 6.785714e+00	 9.703765e+00
0	 4.500000e+00	 6.428571e+00	 9.628305e+00
0	 4.500000e+00	 6.500000e+00	 9.642341e+00
0	 4.500000e+00	 6.571429e+00	 9.656484e+00
0	 4.500000e+00	 6.642857e+00	 9.670735e+00
0	 4.500000e+00	 6.714286e+00	 9.685092e+00
0	 4.500000e+00	 6.785714e+00	 9.699557e+00
0	 4.571429e+00	 6.428571e+00	 9.625223e+00
0	 4.571429e+00	 6.500000e+00	 9.639261e+00
0	 4.571429e+00	 6.571429e+00	 9.653396e+00
0	 4.571429e+00	 6.642857e+00	 9.667628e+00
0	 4.571429e+00	 6.714286e+00	 9.681956e+00
0	 4.571429e+00	 6.785714e+00	 9.696382e+00
0	 4.642857e+00	 6.428571e+00	 9.623373e+00
0	 4.642857e+00	 6.500000e+00	 9.637374e+00
0	 4.642857e+00	 6.571429e+00	 9.651461e+00
0	 4.642857e+00	 6.642857e+00	 9.665634e+00
0	 4.642857e+00	 6.714286e+00	 9.679893e+00
0	 4.642857e+00	 6.785714e+00	 9.694239e+00
0	 4.285714e+00	 6.785714e+00	 9.715279e+00
0	 4.285714e+00	 6.857143e+00	 9.727022e+00
0	 4.285714e+00	 6.928571e+00	 9.738917e+00
0	 4.285714e+00	 7.000000e+00	 9.750965e+00
0	 4.285714e+00	 7.071429e+00	 9.763165e+00
0	 4.285714e+00	 7.142857e+00	 9.775517e+00
0	 4.357143e+00	 6.785714e+00	 9.709006e+00
0	 4.357143e+00	 6.857143e+00	 9.720911e+00
0	 4.357143e+00	 6.928571e+00	 9.732961e+00
0	 4.357143e+00	 7.000000e+00	 9.745157e+00
0	 4.357143e+00	 7.071429e+00	 9.757498e+00
0	 4.357143e+00	 7.142857e+00	 9.769984e+00
0	 4.428571e+00	 6.785714e+00	 9.703765e+00
0	 4.428571e+00	 6.857143e+00	 9.715796e+00
0	 4.428571e+00	 6.928571e+00	 9.727964e+00
0	 4.428571e+00	 7.000000e+00	 9.740271e+00
0	 4.428571e+00	 7.071429e+00	 9.752717e+00
0	 4.428571e+00	 7.142857e+00	 9.765301e+00
0	 4.500000e+00	 6.785714e+00	 9.699557e+00
0	 4.500000e+00	 6.857143e+00	 9.711676e+00
0	 4.500000e+00	 6.928571e+00	 9.723927e+00
0	 4.500000e+00	 7.000000e+00	 9.736308e+00
0	 4.500000e+00	 7.071429e+00	 9.748822e+00
0	 4.500000e+00	 7.142857e+00	 9.761467e+00
0	 4.571429e+00	 6.785714e+00	 9.696382e+00
0	 4.571429e+00	 6.857143e+00	 9.708553e+00
0	 4.571429e+00	 6.928571e+00	 9.720848e+00
0	 4.571429e+00	 7.000000e+00	 9.733268e+00
0	 4.571429e+00	 7.071429e+00	 9.745813e+00
0	 4.571429e+00	 7.142857e+00	 9.758482e+00
0	 4.642857e+00	 6.785714e+00	 9.694239e+00
0	 4.642857e+00	 6.857143e+00	 9.706425e+00
0	 4.642857e+00	 6.928571e+00	 9.718729e+00
0	 4.642857e+00	 7.000000e+00	 9.731150e+00
0	 4.642857e+00	 7.071429e+00	 9.743689e+00
0	 4.642857e+00	 7.142857e+00	 9.756346e+00
0	 4.285714e+00	 7.142857e+00	 9.775517e+00
0	 4.285714e+00	 7.214286e+00	 9.785481e+00
0	 4.285714e+00	 7.285714e+00	 9.795604e+00
0	 4.285714e+00	 7.357143e+00	 9.805888e+00
0	 4.285714e+00	 7.428571e+00	 9.816331e+00
0	 4.285714e+00	 7.500000e+00	 9.826934e+00
0	 4.357143e+00	 7.142857e+00	 9.769984e+00
0	 4.357143e+00	 7.214286e+00	 9.780130e+00
0	 4.357143e+00	 7.285714e+00	 9.790432e+00
0	 4.357143e+00	 7.357143e+00	 9.800890e+00
0	 4.357143e+00	 7.428571e+00	 9.811503e+00
0	 4.357143e+00	 7.500000e+00	 9.822272e+00
0	 4.428571e+00	 7.142857e+00	 9.765301e+00
0	 4.428571e+00	 7.214286e+00	 9.775596e+00
0	 4.428571e+00	 7.285714e+00	 9.786043e+00
0	 4.428571e+00	 7.357143e+00	 9.796642e+00
0	 4.428571e+00	 7.428571e+00	 9.807392e+00
0	 4.428571e+00	 7.500000e+00	 9.818295e+00
0	 4.500000e+00	 7.142857e+00	 9.761467e+00
0	 4.500000e+00	 7.214286e+00	 9.771878e+00
0	 4.500000e+00	 7.285714e+00	 9.782438e+00
0	 4.500000e+00	 7.357143e+00	 9.793145e+00
0	 4.500000e+00	 7.428571e+00	 9.803999e+00
0	 4.500000e+00	 7.500000e+00	 9.815002e+00
0	 4.571429e+00	 7.142857e+00	 9.758482e+00
0	 4.571429e+00	 7.214286e+00	 9.768977e+00
0	 4.571429e+00	 7.285714e+00	 9.779615e+00
0	 4.571429e+00	 7.357143e+00	 9.790398e+00
0	 4.571429e+00	 7.428571e+00	 9.801324e+00
0	 4.571429e+00	 7.500000e+00	 9.812394e+00
0	 4.642857e+00	 7.142857e+00	 9.756346e+00
0	 4.642857e+00	 7.214286e+00	 9.766891e+00
0	 4.642857e+00	 7.285714e+00	 9.777577e+00
0	 4.642857e+00	 7.357143e+00	 9.788402e+00
0	 4.642857e+00	 7.428571e+00	 9.799366e+00
0	 4.642857e+00	 7.500000e+00	 9.810471e+00
0	 4.285714e+00	 7.500000e+00	 9.826934e+00
0	 4.285714e+00	 7.571429e+00	 9.835353e+00
0	 4.285714e+00	 7.642857e+00	 9.843938e+00
0	 4.285714e+00	 7.714286e+00	 9.852688e+00
0	 4.285714e+00	 7.785714e+00	 9.861605e+00
0	 4.285714e+00	 7.857143e+00	 9.870688e+00
0	 4.357143e+00	 7.500000e+00	 9.822272e+00
0	 4.357143e+00	 7.571429e+00	 9.830877e+00
0	 4.357143e+00	 7.642857e+00	 9.839647e+00
0	 4.357143e+00	 7.714286e+00	 9.848582e+00
0	 4.357143e+00	 7.785714e+00	 9.857681e+00
0	 4.357143e+00	 7.857143e+00	 9.866944e+00
0	 4.428571e+00	 7.500000e+00	 9.818295e+00
0	 4.428571e+00	 7.571429e+00	 9.827058e+00
0	 4.428571e+00	 7.642857e+00	 9.835984e+00
0	 4.428571e+00	 7.714286e+00	 9.845073e+00
0	 4.428571e+00	 7.785714e+00	 9.854326e+00
0	 4.428571e+00	 7.857143e+00	 9.863741e+00
0	 4.500000e+00	 7.500000e+00	 9.815002e+00
0	 4.500000e+00	 7.571429e+00	 9.823894e+00
0	 4.500000e+00	 7.642857e+00	 9.832947e+00
0	 4.500000e+00	 7.714286e+00	 9.842163e+00
0	 4.500000e+00	 7.785714e+00	 9.851540e+00
0	 4.500000e+00	 7.857143e+00	 9.861079e+00
0	 4.571429e+00	 7.500000e+00	 9.812394e+00
0	 4.571429e+00	 7.571429e+00	 9.821386e+00
0	 4.571429e+00	 7.642857e+00	 9.830538e+00
0	 4.571429e+00	 7.714286e+00	 9.839851e+00
0	 4.571429e+00	 7.785714e+00	 9.849324e+00
0	 4.571429e+00	 7.857143e+00	 9.858958e+00
0	 4.642857e+00	 7.500000e+00	 9.810471e+00
0	 4.642857e+00	 7.571429e+00	 9.819534e+00
0	 4.642857e+00	 7.642857e+00	 9.828757e+00
0	 4.642857e+00	 7.714286e+00	 9.838138e+00
0	 4.642857e+00	 7.785714e+00	 9.847678e+00
0	 4.642857e+00	 7.857143e+00	 9.857377e+00
0	 4.285714e+00	 7.857143e+00	 9.870688e+00
0	 4.285714e+00	 7.928571e+00	 9.877747e+00
0	 4.285714e+00	 8.000000e+00	 9.884982e+00
0	 4.285714e+00	 8.071429e+00	 9.892392e+00
0	 4.285714e+00	 8.142857e+00	 9.899979e+00
0	 4.285714e+00	 8.214286e+00	 9.907742e+00
0	 4.357143e+00	 7.857143e+00	 9.866944e+00
0	 4.357143e+00	 7.928571e+00	 9.874182e+00
0	 4.357143e+00	 8.000000e+00	 9.881596e+00
0	 4.357143e+00	 8.071429e+00	 9.889187e+00
0	 4.357143e+00	 8.142857e+00	 9.896955e+00
0	 4.357143e+00	 8.214286e+00	 9.904900e+00
0	 4.428571e+00	 7.857143e+00	 9.863741e+00
0	 4.428571e+00	 7.928571e+00	 9.871133e+00
0	 4.428571e+00	 8.000000e+00	 9.878702e+00
0	 4.428571e+00	 8.071429e+00	 9.886449e+00
0	 4.428571e+00	 8.142857e+00	 9.894374e+00
0	 4.428571e+00	 8.214286e+00	 9.902476e+00
0	 4.500000e+00	 7.857143e+00	 9.861079e+00
0	 4.500000e+00	 7.928571e+00	 9.868600e+00
0	 4.500000e+00	 8.000000e+00	 9.876300e+00
0	 4.500000e+00	 8.071429e+00	 9.884179e+00
0	 4.500000e+00	 8.142857e+00	 9.892236e+00
0	 4.500000e+00	 8.214286e+00	 9.900471e+00
0	 4.571429e+00	 7.857143e+00	 9.858958e+00
0	 4.571429e+00	 7.928571e+00	 9.866584e+00
0	 4.571429e+00	 8.000000e+00	 9.874390e+00
0	 4.571429e+00	 8.071429e+00	 9.882376e+00
0	 4.571429e+00	 8.142857e+00	 9.890540e+00
0	 4.571429e+00	 8.214286e+00	 9.898884e+00
0	 4.642857e+00	 7.857143e+00	 9.857377e+00
0	 4.642857e+00	 7.928571e+00	 9.865084e+00
0	 4.642857e+00	 8.000000e+00	 9.872972e+00
0	 4.642857e+00	 8.071429e+00	 9.881039e+00
0	 4.642857e+00	 8.142857e+00	 9.889287e+00
0	 4.642857e+00	 8.214286e+00	 9.897715e+00
0	 4.285714e+00	 8.214286e+00	 9.907742e+00
0	 4.285714e+00	 8.285714e+00	 9.913563e+00
0	 4.285714e+00	 8.357143e+00	 9.919579e+00
0	 4.285714e+00	 8.428571e+00	 9.925789e+00
0	 4.285714e+00	 8.500000e+00	 9.932192e+00
0	 4.285714e+00	 8.571429e+00	 9.938790e+00
0	 4.357143e+00	 8.214286e+00	 9.904900e+00
0	 4.357143e+00	 8.285714e+00	 9.910882e+00
0	 4.357143e+00	 8.357143e+00	 9.917061e+00
0	 4.357143e+00	 8.428571e+00	 9.923437e+00
0	 4.357143e+00	 8.500000e+00	 9.930010e+00
0	 4.357143e+00	 8.571429e+00	 9.936779e+00
0	 4.428571e+00	 8.214286e+00	 9.902476e+00
0	 4.428571e+00	 8.285714e+00	 9.908599e+00
0	 4.428571e+00	 8.357143e+00	 9.914921e+00
0	 4.428571e+00	 8.428571e+00	 9.921443e+00
0	 4.428571e+00	 8.500000e+00	 9.928165e+00
0	 4.428571e+00	 8.571429e+00	 9.935087e+00
0	 4.500000e+00	 8.214286e+00	 9.900471e+00
0	 4.500000e+00	 8.285714e+00	 9.906714e+00
0	 4.500000e+00	 8.357143e+00	 9.913160e+00
0	 4.500000e+00	 8.428571e+00	 9.919808e+00
0	 4.500000e+00	 8.500000e+00	 9.926660e+00
0	 4.500000e+00	 8.571429e+00	 9.933714e+00
0	 4.571429e+00	 8.214286e+00	 9.898884e+00
0	 4.571429e+00	 8.285714e+00	 9.905228e+00
0	 4.571429e+00	 8.357143e+00	 9.911777e+00
0	 4.571429e+00	 8.428571e+00	 9.918532e+00
0	 4.571429e+00	 8.500000e+00	 9.925492e+00
0	 4.571429e+00	 8.571429e+00	 9.932658e+00
0	 4.642857e+00	 8.214286e+00	 9.897715e+00
0	 4.642857e+00	 8.285714e+00	 9.904139e+00
0	 4.642857e+00	 8.357143e+00	 9.910772e+00
0	 4.642857e+00	 8.428571e+00	 9.917613e+00
0	 4.642857e+00	 8.500000e+00	 9.924663e+00
0	 4.642857e+00	 8.571429e+00	 9.931922e+00
0	 4.285714e+00	 8.571429e+00	 9.938790e+00
0	 4.285714e+00	 8.642857e+00	 9.943420e+00
0	 4.285714e+00	 8.714286e+00	 9.948275e+00
0	 4.285714e+00	 8.785714e+00	 9.953356e+00
0	 4.285714e+00	 8.857143e+00	 9.958661e+00
0	 4.285714e+00	 8.928571e+00	 9.964192e+00
0	 4.357143e+00	 8.571429e+00	 9.936779e+00
0	 4.357143e+00	 8.642857e+00	 9.941542e+00
0	 4.357143e+00	 8.714286e+00	 9.946534e+00
0	 4.357143e+00	 8.785714e+00	 9.951757e+00
0	 4.357143e+00	 8.857143e+00	 9.957209e+00
0	 4.357143e+00	 8.928571e+00	 9.962892e+00
0	 4.428571e+00	 8.571429e+00	 9.935087e+00
0	 4.428571e+00	 8.642857e+00	 9.939967e+00
0	 4.428571e+00	 8.714286e+00	 9.945082e+00
0	 4.428571e+00	 8.785714e+00	 9.950432e+00
0	 4.428571e+00	 8.857143e+00	 9.956016e+00
0	 4.428571e+00	 8.928571e+00	 9.961836e+00
0	 4.500000e+00	 8.571429e+00	 9.933714e+00
0	 4.500000e+00	 8.642857e+00	 9.938696e+00
0	 4.500000e+00	 8.714286e+00	 9.943918e+00
0	 4.500000e+00	 8.785714e+00	 9.949380e+00
0	 4.500000e+00	 8.857143e+00	 9.955082e+00
0	 4.500000e+00	 8.928571e+00	 9.961023e+00
0	 4.571429e+00	 8.571429e+00	 9.932658e+00
0	 4.571429e+00	 8.642857e+00	 9.937729e+00
0	 4.571429e+00	 8.714286e+00	 9.943043e+00
0	 4.571429e+00	 8.785714e+00	 9.948603e+00
0	 4.571429e+00	 8.857143e+00	 9.954407e+00
0	 4.571429e+00	 8.928571e+00	 9.960455e+00
0	 4.642857e+00	 8.571429e+00	 9.931922e+00
0	 4.642857e+00	 8.642857e+00	 9.937065e+00
0	 4.642857e+00	 8.714286e+00	 9.942457e+00
0	 4.642857e+00	 8.785714e+00	 9.948099e+00
0	 4.642857e+00	 8.857143e+00	 9.953990e+00
0	 4.642857e+00	 8.928571e+00	 9.960131e+00
0	 4.285714e+00	 8.928571e+00	 9.964192e+00
0	 4.285714e+00	 9.000000e+00	 9.967569e+00
0	 4.285714e+00	 9.071429e+00	 9.971221e+00
0	 4.285714e+00	 9.142857e+00	 9.975147e+00
0	 4.285714e+00	 9.214286e+00	 9.979349e+00
0	 4.285714e+00	 9.285714e+00	 9.983827e+00
0	 4.357143e+00	 8.928571e+00	 9.962892e+00
0	 4.357143e+00	 9.000000e+00	 9.966363e+00
0	 4.357143e+00	 9.071429e+00	 9.970116e+00
0	 4.357143e+00	 9.142857e+00	 9.974151e+00
0	 4.357143e+00	 9.214286e+00	 9.978468e+00
0	 4.357143e+00	 9.285714e+00	 9.983066e+00
0	 4.428571e+00	 8.928571e+00	 9.961836e+00
0	 4.428571e+00	 9.000000e+00	 9.965392e+00
0	 4.428571e+00	 9.071429e+00	 9.969237e+00
0	 4.428571e+00	 9.142857e+00	 9.973371e+00
0	 4.428571e+00	 9.214286e+00	 9.977794e+00
0	 4.428571e+00	 9.285714e+00	 9.982505e+00
0	 4.500000e+00	 8.928571e+00	 9.961023e+00
0	 4.500000e+00	 9.000000e+00	 9.964656e+00
0	 4.500000e+00	 9.071429e+00	 9.968585e+00
0	 4.500000e+00	 9.142857e+00	 9.972809e+00
0	 4.500000e+00	 9.214286e+00	 9.977328e+00
0	 4.500000e+00	 9.285714e+00	 9.982143e+00
0	 4.571429e+00	 8.928571e+00	 9.960455e+00
0	 4.571429e+00	 9.000000e+00	 9.964156e+00
0	 4.571429e+00	 9.071429e+00	 9.968159e+00
0	 4.571429e+00	 9.142857e+00	 9.972463e+00
0	 4.571429e+00	 9.214286e+00	 9.977071e+00
0	 4.571429e+00	 9.285714e+00	 9.981980e+00
0	 4.642857e+00	 8.928571e+00	 9.960131e+00
0	 4.642857e+00	 9.000000e+00	 9.963890e+00
0	 4.642857e+00	 9.071429e+00	 9.967958e+00
0	 4.642857e+00	 9.142857e+00	 9.972335e+00
0	 4.642857e+00	 9.214286e+00	 9.977021e+00
0	 4.642857e+00	 9.285714e+00	 9.982016e+00
0	 4.285714e+00	 9.285714e+00	 9.983827e+00
0	 4.285714e+00	 9.357143e+00	 9.985782e+00
0	 4.285714e+00	 9.428571e+00	 9.988089e+00
0	 4.285714e+00	 9.500000e+00	 9.990746e+00
0	 4.285714e+00	 9.571429e+00	 9.993755e+00
0	 4.285714e+00	 9.642857e+00	 9.997115e+00
0	 4.357143e+00	 9.285714e+00	 9.983066e+00
0	 4.357143e+00	 9.357143e+00	 9.985068e+00
0	 4.357143e+00	 9.428571e+00	 9.987430e+00
0	 4.357143e+00	 9.500000e+00	 9.990151e+00
0	 4.357143e+00	 9.571429e+00	 9.993232e+00
0	 4.357143e+00	 9.642857e+00	 9.996672e+00
0	 4.428571e+00	 9.285714e+00	 9.982505e+00
0	 4.428571e+00	 9.357143e+00	 9.984551e+00
0	 4.428571e+00	 9.428571e+00	 9.986966e+00
0	 4.428571e+00	 9.500000e+00	 9.989749e+00
0	 4.428571e+00	 9.571429e+00	 9.992901e+00
0	 4.428571e+00	 9.642857e+00	 9.996420e+00
0	 4.500000e+00	 9.285714e+00	 9.982143e+00
0	 4.500000e+00	 9.357143e+00	 9.984232e+00
0	 4.500000e+00	 9.428571e+00	 9.986699e+00
0	 4.500000e+00	 9.500000e+00	 9.989542e+00
0	 4.500000e+00	 9.571429e+00	 9.992762e+00
0	 4.500000e+00	 9.642857e+00	 9.996359e+00
0	 4.571429e+00	 9.285714e+00	 9.981980e+00
0	 4.571429e+00	 9.357143e+00	 9.984111e+00
0	 4.571429e+00	 9.428571e+00	 9.986627e+00
0	 4.571429e+00	 9.500000e+00	 9.989529e+00
0	 4.571429e+00	 9.571429e+00	 9.992816e+00
0	 4.571429e+00	 9.642857e+00	 9.996489e+00
0	 4.642857e+00	 9.285714e+00	 9.982016e+00
0	 4.642857e+00	 9.357143e+00	 9.984187e+00
0	 4.642857e+00	 9.428571e+00	 9.986751e+00
0	 4.642857e+00	 9.500000e+00	 9.989710e+00
0	 4.642857e+00	 9.571429e+00	 9.993062e+00
0	 4.642857e+00	 9.642857e+00	 9.996810e+00
0	 4.285714e+00	 9.642857e+00	 9.997115e+00
0	 4.285714e+00	 9.714286e+00	 9.997219e+00
0	 4.285714e+00	 9.785714e+00	 9.997787e+00
0	 4.285714e+00	 9.857143e+00	 9.998819e+00
0	 4.285714e+00	 9.928571e+00	 1.000031e+01
0	 4.285714e+00	 1.000000e+01	 1.000227e+01
0	 4.357143e+00	 9.642857e+00	 9.996672e+00
0	 4.357143e+00	 9.714286e+00	 9.996762e+00
0	 4.357143e+00	 9.785714e+00	 9.997326e+00
0	 4.357143e+00	 9.857143e+00	 9.998365e+00
0	 4.357143e+00	 9.928571e+00	 9.999878e+00
0	 4.357143e+00	 1.000000e+01	 1.000186e+01
0	 4.428571e+00	 9.642857e+00	 9.996420e+00
0	 4.428571e+00	 9.714286e+00	 9.996504e+00
0	 4.428571e+00	 9.785714e+00	 9.997072e+00
0	 4.428571e+00	 9.857143e+00	 9.998125e+00
0	 4.428571e+00	 9.928571e+00	 9.999663e+00
0	 4.428571e+00	 1.000000e+01	 1.000168e+01
0	 4.500000e+00	 9.642857e+00	 9.996359e+00
0	 4.500000e+00	 9.714286e+00	 9.996444e+00
0	 4.500000e+00	 9.785714e+00	 9.997024e+00
0	 4.500000e+00	 9.857143e+00	 9.998099e+00
0	 4.500000e+00	 9.928571e+00	 9.999670e+00
0	 4.500000e+00	 1.000000e+01	 1.000173e+01
0	 4.571429e+00	 9.642857e+00	 9.996489e+00
0	 4.571429e+00	 9.714286e+00	 9.996583e+00
0	 4.571429e+00	 9.785714e+00	 9.997183e+00
0	 4.571429e+00	 9.857143e+00	 9.998288e+00
0	 4.571429e+00	 9.928571e+00	 9.999898e+00
0	 4.571429e+00	 1.000000e+01	 1.000201e+01
0	 4.642857e+00	 9.642857e+00	 9.996810e+00
0	 4.642857e+00	 9.714286e+00	 9.996920e+00
0	 4.642857e+00	 9.785714e+00	 9.997547e+00
0	 4.642857e+00	 9.857143e+00	 9.998690e+00
0	 4.642857e+00	 9.928571e+00	 1.000035e+01
0	 4.642857e+00	 1.000000e+01	 1.000252e+01
0	 4.642857e+00	 0.000000e+00	 9.985050e+00
0	 4.642857e+00	 7.142857e-02	 9.962434e+00
0	 4.642857e+00	 1.428571e-01	 9.945544e+00
0	 4.642857e+00	 2.142857e-01	 9.934379e+00
0	 4.642857e+00	 2.857143e-01	 9.928941e+00
0	 4.642857e+00	 3.571429e-01	 9.929229e+00
0	 4.714286e+00	 0.000000e+00	 1.000140e+01
0	 4.714286e+00	 7.142857e-02	 9.980143e+00
0	 4.714286e+00	 1.428571e-01	 9.964399e+00
0	 4.714286e+00	 2.142857e-01	 9.954172e+00
0	 4.714286e+00	 2.857143e-01	 9.949463e+00
0	 4.714286e+00	 3.571429e-01	 9.950271e+00
0	 4.785714e+00	 0.000000e+00	 1.001900e+01
0	 4.785714e+00	 7.142857e-02	 9.998884e+00
0	 4.785714e+00	 1.428571e-01	 9.984076e+00
0	 4.785714e+00	 2.142857e-01	 9.974577e+00
0	 4.785714e+00	 2.857143e-01	 9.970387e+00
0	 4.785714e+00	 3.571429e-01	 9.971506e+00
0	 4.857143e+00	 0.000000e+00	 1.003784e+01
0	 4.857143e+00	 7.142857e-02	 1.001866e+01
0	 4.857143e+00	 1.428571e-01	 1.000458e+01
0	 4.857143e+00	 2.142857e-01	 9.995595e+00
0	 4.857143e+00	 2.857143e-01	 9.991714e+00
0	 4.857143e+00	 3.571429e-01	 9.992934e+00
0	 4.928571e+00	 0.000000e+00	 1.005792e+01
0	 4.928571e+00	 7.142857e-02	 1.003946e+01
0	 4.928571e+00	 1.428571e-01	 1.002590e+01
0	 4.928571e+00	 2.142857e-01	 1.001722e+01
0	 4.928571e+00	 2.857143e-01	 1.001344e+01
0	 4.928571e+00	 3.571429e-01	 1.001455e+01
0	 5.000000e+00	 0.000000e+00	 1.007924e+01
0	 5.000000e+00	 7.142857e-02	 1.006130e+01
0	 5.000000e+00	 1.428571e-01	 1.004804e+01
0	 5.000000e+00	 2.142857e-01	 1.003947e+01
0	 5.000000e+00	 2.857143e-01	 1.003558e+01
0	 5.000000e+00	 3.571429e-01	 1.003637e+01
0	 4.642857e+00	 3.571429e-01	 9.929229e+00
0	 4.642857e+00	 4.285714e-01	 9.889284e+00
0	 4.642857e+00	 5.000000e-01	 9.854443e+00
0	 4.642857e+00	 5.714286e-01	 9.824704e+00
0	 4.642857e+00	 6.428571e-01	 9.800069e+00
0	 4.642857e+00	 7.142857e-01	 9.780536e+00
0	 4.714286e+00	 3.571429e-01	 9.950271e+00
0	 4.714286e+00	 4.285714e-01	 9.911868e+00
0	 4.714286e+00	 5.000000e-01	 9.878337e+00
0	 4.714286e+00	 5.714286e-01	 9.849678e+00
0	 4.714286e+00	 6.428571e-01	 9.825892e+00
0	 4.714286e+00	 7.142857e-01	 9.806977e+00
0	 4.785714e+00	 3.571429e-01	 9.971506e+00
0	 4.785714e+00	 4.285714e-01	 9.934613e+00
0	 4.785714e+00	 5.000000e-01	 9.902360e+00
0	 4.785714e+00	 5.714286e-01	 9.874750e+00
0	 4.785714e+00	 6.428571e-01	 9.851780e+00
0	 4.785714e+00	 7.142857e-01	 9.833452e+00
0	 4.857143e+00	 3.571429e-01	 9.992934e+00
0	 4.857143e+00	 4.285714e-01	 9.957518e+00
0	 4.857143e+00	 5.000000e-01	 9.926513e+00
0	 4.857143e+00	 5.714286e-01	 9.899918e+00
0	 4.857143e+00	 6.428571e-01	 9.877734e+00
0	 4.857143e+00	 7.142857e-01	 9.859961e+00
0	 4.928571e+00	 3.571429e-01	 1.001455e+01
0	 4.928571e+00	 4.285714e-01	 9.980584e+00
0	 4.928571e+00	 5.000000e-01	 9.950794e+00
0	 4.928571e+00	 5.714286e-01	 9.925184e+00
0	 4.928571e+00	 6.428571e-01	 9.903753e+00
0	 4.928571e+00	 7.142857e-01	 9.886502e+00
0	 5.000000e+00	 3.571429e-01	 1.003637e+01
0	 5.000000e+00	 4.285714e-01	 1.000381e+01
0	 5.000000e+00	 5.000000e-01	 9.975205e+00
0	 5.000000e+00	 5.714286e-01	 9.950547e+00
0	 5.000000e+00	 6.428571e-01	 9.929838e+00
0	 5.000000e+00	 7.142857e-01	 9.913078e+00
0	 4.642857e+00	 7.142857e-01	 9.780536e+00
0	 4.642857e+00	 7.857143e-01	 9.728991e+00
0	 4.642857e+00	 8.571429e-01	 9.680982e+00
0	 4.642857e+00	 9.285714e-01	 9.636508e+00
0	 4.642857e+00	 1.000000e+00	 9.595568e+00
0	 4.642857e+00	 1.071429e+00	 9.558164e+00
0	 4.714286e+00	 7.142857e-01	 9.806977e+00
0	 4.714286e+00	 7.857143e-01	 9.757857e+00
0	 4.714286e+00	 8.571429e-01	 9.712105e+00
0	 4.714286e+00	 9.285714e-01	 9.669723e+00
0	 4.714286e+00	 1.000000e+00	 9.630709e+00
0	 4.714286e+00	 1.071429e+00	 9.595063e+00
0	 4.785714e+00	 7.142857e-01	 9.833452e+00
0	 4.785714e+00	 7.857143e-01	 9.786528e+00
0	 4.785714e+00	 8.571429e-01	 9.742806e+00
0	 4.785714e+00	 9.285714e-01	 9.702286e+00
0	 4.785714e+00	 1.000000e+00	 9.664969e+00
0	 4.785714e+00	 1.071429e+00	 9.630854e+00
0	 4.857143e+00	 7.142857e-01	 9.859961e+00
0	 4.857143e+00	 7.857143e-01	 9.815004e+00
0	 4.857143e+00	 8.571429e-01	 9.773083e+00
0	 4.857143e+00	 9.285714e-01	 9.734198e+00
0	 4.857143e+00	 1.000000e+00	 9.698349e+00
0	 4.857143e+00	 1.071429e+00	 9.665536e+00
0	 4.928571e+00	 7.142857e-01	 9.886502e+00
0	 4.928571e+00	 7.857143e-01	 9.843285e+00
0	 4.928571e+00	 8.571429e-01	 9.802936e+00
0	 4.928571e+00	 9.285714e-01	 9.765458e+00
0	 4.928571e+00	 1.000000e+00	 9.730849e+00
0	 4.928571e+00	 1.071429e+00	 9.699110e+00
0	 5.000000e+00	 7.142857e-01	 9.913078e+00
0	 5.000000e+00	 7.857143e-01	 9.871371e+00
0	 5.000000e+00	 8.571429e-01	 9.832367e+00
0	 5.000000e+00	 9.285714e-01	 9.796066e+00
0	 5.000000e+00	 1.000000e+00	 9.762469e+00
0	 5.000000e+00	 1.071429e+00	 9.731575e+00
0	 4.642857e+00	 1.071429e+00	 9.558164e+00
0	 4.642857e+00	 1.142857e+00	 9.505543e+00
0	 4.642857e+00	 1.214286e+00	 9.454088e+00
0	 4.642857e+00	 1.285714e+00	 9.403799e+00
0	 4.642857e+00	 1.357143e+00	 9.354676e+00
0	 4.642857e+00	 1.428571e+00	 9.306718e+00
0	 4.714286e+00	 1.071429e+00	 9.595063e+00
0	 4.714286e+00	 1.142857e+00	 9.544453e+00
0	 4.714286e+00	 1.214286e+00	 9.495034e+00
0	 4.714286e+00	 1.285714e+00	 9.446807e+00
0	 4.714286e+00	 1.357143e+00	 9.399770e+00
0	 4.714286e+00	 1.428571e+00	 9.353925e+00
0	 4.785714e+00	 1.071429e+00	 9.630854e+00
0	 4.785714e+00	 1.142857e+00	 9.582055e+00
0	 4.785714e+00	 1.214286e+00	 9.534472e+00
0	 4.785714e+00	 1.285714e+00	 9.488106e+00
0	 4.785714e+00	 1.357143e+00	 9.442957e+00
0	 4.785714e+00	 1.428571e+00	 9.399024e+00
0	 4.857143e+00	 1.071429e+00	 9.665536e+00
0	 4.857143e+00	 1.142857e+00	 9.618348e+00
0	 4.857143e+00	 1.214286e+00	 9.572402e+00
0	 4.857143e+00	 1.285714e+00	 9.527698e+00
0	 4.857143e+00	 1.357143e+00	 9.484236e+00
0	 4.857143e+00	 1.428571e+00	 9.442016e+00
0	 4.928571e+00	 1.071429e+00	 9.699110e+00
0	 4.928571e+00	 1.142857e+00	 9.653334e+00
0	 4.928571e+00	 1.214286e+00	 9.608824e+00
0	 4.928571e+00	 1.285714e+00	 9.565583e+00
0	 4.928571e+00	 1.357143e+00	 9.523608e+00
0	 4.928571e+00	 1.428571e+00	 9.482901e+00
0	 5.000000e+00	 1.071429e+00	 9.731575e+00
0	 5.000000e+00	 1.142857e+00	 9.687010e+00
0	 5.000000e+00	 1.214286e+00	 9.643738e+00
0	 5.000000e+00	 1.285714e+00	 9.601759e+00
0	 5.000000e+00	 1.357143e+00	 9.561072e+00
0	 5.000000e+00	 1.428571e+00	 9.521678e+00
0	 4.642857e+00	 1.428571e+00	 9.306718e+00
0	 4.642857e+00	 1.500000e+00	 9.260705e+00
0	 4.642857e+00	 1.571429e+00	 9.214036e+00
0	 4.642857e+00	 1.642857e+00	 9.166710e+00
0	 4.642857e+00	 1.714286e+00	 9.118727e+00
0	 4.642857e+00	 1.785714e+00	 9.070088e+00
0	 4.714286e+00	 1.428571e+00	 9.353925e+00
0	 4.714286e+00	 1.500000e+00	 9.309357e+00
0	 4.714286e+00	 1.571429e+00	 9.264215e+00
0	 4.714286e+00	 1.642857e+00	 9.218498e+00
0	 4.714286e+00	 1.714286e+00	 9.172207e+00
0	 4.714286e+00	 1.785714e+00	 9.125341e+00
0	 4.785714e+00	 1.428571e+00	 9.399024e+00
0	 4.785714e+00	 1.500000e+00	 9.355741e+00
0	 4.785714e+00	 1.571429e+00	 9.311964e+00
0	 4.785714e+00	 1.642857e+00	 9.267695e+00
0	 4.785714e+00	 1.714286e+00	 9.222934e+00
0	 4.785714e+00	 1.785714e+00	 9.177680e+00
0	 4.857143e+00	 1.428571e+00	 9.442016e+00
0	 4.857143e+00	 1.500000e+00	 9.399855e+00
0	 4.857143e+00	 1.571429e+00	 9.357283e+00
0	 4.857143e+00	 1.642857e+00	 9.314301e+00
0	 4.857143e+00	 1.714286e+00	 9.270908e+00
0	 4.857143e+00	 1.785714e+00	 9.227105e+00
0	 4.928571e+00	 1.428571e+00	 9.482901e+00
0	 4.928571e+00	 1.500000e+00	 9.441701e+00
0	 4.928571e+00	 1.571429e+00	 9.400173e+00
0	 4.928571e+00	 1.642857e+00	 9.358316e+00
0	 4.928571e+00	 1.714286e+00	 9.316130e+00
0	 4.928571e+00	 1.785714e+00	 9.273616e+00
0	 5.000000e+00	 1.428571e+00	 9.521678e+00
0	 5.000000e+00	 1.500000e+00	 9.481278e+00
0	 5.000000e+00	 1.571429e+00	 9.440632e+00
0	 5.000000e+00	 1.642857e+00	 9.399739e+00
0	 5.000000e+00	 1.714286e+00	 9.358599e+00
0	 5.000000e+00	 1.785714e+00	 9.317213e+00
0	 4.642857e+00	 1.785714e+00	 9.070088e+00
0	 4.642857e+00	 1.857143e+00	 9.037749e+00
0	 4.642857e+00	 1.928571e+00	 9.003146e+00
0	 4.642857e+00	 2.000000e+00	 8.966280e+00
0	 4.642857e+00	 2.071429e+00	 8.927151e+00
0	 4.642857e+00	 2.142857e+00	 8.885759e+00
0	 4.714286e+00	 1.785714e+00	 9.125341e+00
0	 4.714286e+00	 1.857143e+00	 9.093151e+00
0	 4.714286e+00	 1.928571e+00	 9.058877e+00
0	 4.714286e+00	 2.000000e+00	 9.022520e+00
0	 4.714286e+00	 2.071429e+00	 8.984080e+00
0	 4.714286e+00	 2.142857e+00	 8.943557e+00
0	 4.785714e+00	 1.785714e+00	 9.177680e+00
0	 4.785714e+00	 1.857143e+00	 9.145629e+00
0	 4.785714e+00	 1.928571e+00	 9.111675e+00
0	 4.785714e+00	 2.000000e+00	 9.075818e+00
0	 4.785714e+00	 2.071429e+00	 9.038057e+00
0	 4.785714e+00	 2.142857e+00	 8.998392e+00
0	 4.857143e+00	 1.785714e+00	 9.227105e+00
0	 4.857143e+00	 1.857143e+00	 9.195184e+00
0	 4.857143e+00	 1.928571e+00	 9.161540e+00
0	 4.857143e+00	 2.000000e+00	 9.126173e+00
0	 4.857143e+00	 2.071429e+00	 9.089082e+00
0	 4.857143e+00	 2.142857e+00	 9.050267e+00
0	 4.928571e+00	 1.785714e+00	 9.273616e+00
0	 4.928571e+00	 1.857143e+00	 9.241816e+00
0	 4.928571e+00	 1.928571e+00	 9.208473e+00
0	 4.928571e+00	 2.000000e+00	 9.173586e+00
0	 4.928571e+00	 2.071429e+00	 9.137155e+00
0	 4.928571e+00	 2.142857e+00	 9.099180e+00
0	 5.000000e+00	 1.785714e+00	 9.317213e+00
0	 5.000000e+00	 1.857143e+00	 9.285525e+00
0	 5.000000e+00	 1.928571e+00	 9.252472e+00
0	 5.000000e+00	 2.000000e+00	 9.218056e+00
0	 5.000000e+00	 2.071429e+00	 9.182276e+00
0	 5.000000e+00	 2.142857e+00	 9.145132e+00
0	 4.642857e+00	 2.142857e+00	 8.885759e+00
0	 4.642857e+00	 2.214286e+00	 8.869064e+00
0	 4.642857e+00	 2.285714e+00	 8.849372e+00
0	 4.642857e+00	 2.357143e+00	 8.826683e+00
0	 4.642857e+00	 2.428571e+00	 8.800996e+00
0	 4.642857e+00	 2.500000e+00	 8.772312e+00
0	 4.714286e+00	 2.142857e+00	 8.943557e+00
0	 4.714286e+00	 2.214286e+00	 8.925910e+00
0	 4.714286e+00	 2.285714e+00	 8.905446e+00
0	 4.714286e+00	 2.357143e+00	 8.882167e+00
0	 4.714286e+00	 2.428571e+00	 8.856071e+00
0	 4.714286e+00	 2.500000e+00	 8.827158e+00
0	 4.785714e+00	 2.142857e+00	 8.998392e+00
0	 4.785714e+00	 2.214286e+00	 8.979913e+00
0	 4.785714e+00	 2.285714e+00	 8.958798e+00
0	 4.785714e+00	 2.357143e+00	 8.935048e+00
0	 4.785714e+00	 2.428571e+00	 8.908662e+00
0	 4.785714e+00	 2.500000e+00	 8.879640e+00
0	 4.857143e+00	 2.142857e+00	 9.050267e+00
0	 4.857143e+00	 2.214286e+00	 9.031075e+00
0	 4.857143e+00	 2.285714e+00	 9.009428e+00
0	 4.857143e+00	 2.357143e+00	 8.985326e+00
0	 4.857143e+00	 2.428571e+00	 8.958770e+00
0	 4.857143e+00	 2.500000e+00	 8.929758e+00
0	 4.928571e+00	 2.142857e+00	 9.099180e+00
0	 4.928571e+00	 2.214286e+00	 9.079395e+00
0	 4.928571e+00	 2.285714e+00	 9.057335e+00
0	 4.928571e+00	 2.357143e+00	 9.033001e+00
0	 4.928571e+00	 2.428571e+00	 9.006394e+00
0	 4.928571e+00	 2.500000e+00	 8.977512e+00
0	 5.000000e+00	 2.142857e+00	 9.145132e+00
0	 5.000000e+00	 2.214286e+00	 9.124873e+00
0	 5.000000e+00	 2.285714e+00	 9.102520e+00
0	 5.000000e+00	 2.357143e+00	 9.078074e+00
0	 5.000000e+00	 2.428571e+00	 9.051535e+00
0	 5.000000e+00	 2.500000e+00	 9.022902e+00
0	 4.642857e+00	 2.500000e+00	 8.772312e+00
0	 4.642857e+00	 2.571429e+00	 8.769892e+00
0	 4.642857e+00	 2.642857e+00	 8.764378e+00
0	 4.642857e+00	 2.714286e+00	 8.755772e+00
0	 4.642857e+00	 2.785714e+00	 8.744073e+00
0	 4.642857e+00	 2.857143e+00	 8.729282e+00
0	 4.714286e+00	 2.500000e+00	 8.827158e+00
0	 4.714286e+00	 2.571429e+00	 8.823234e+00
0	 4.714286e+00	 2.642857e+00	 8.816367e+00
0	 4.714286e+00	 2.714286e+00	 8.806556e+00
0	 4.714286e+00	 2.785714e+00	 8.793802e+00
0	 4.714286e+00	 2.857143e+00	 8.778104e+00
0	 4.785714e+00	 2.500000e+00	 8.879640e+00
0	 4.785714e+00	 2.571429e+00	 8.874343e+00
0	 4.785714e+00	 2.642857e+00	 8.866252e+00
0	 4.785714e+00	 2.714286e+00	 8.855367e+00
0	 4.785714e+00	 2.785714e+00	 8.841688e+00
0	 4.785714e+00	 2.857143e+00	 8.825215e+00
0	 4.857143e+00	 2.500000e+00	 8.929758e+00
0	 4.857143e+00	 2.571429e+00	 8.923219e+00
0	 4.857143e+00	 2.642857e+00	 8.914035e+00
0	 4.857143e+00	 2.714286e+00	 8.902206e+00
0	 4.857143e+00	 2.785714e+00	 8.887733e+00
0	 4.857143e+00	 2.857143e+00	 8.870616e+00
0	 4.928571e+00	 2.500000e+00	 8.977512e+00
0	 4.928571e+00	 2.571429e+00	 8.969861e+00
0	 4.928571e+00	 2.642857e+00	 8.959715e+00
0	 4.928571e+00	 2.714286e+00	 8.947073e+00
0	 4.928571e+00	 2.785714e+00	 8.931937e+00
0	 4.928571e+00	 2.857143e+00	 8.914305e+00
0	 5.000000e+00	 2.500000e+00	 9.022902e+00
0	 5.000000e+00	 2.571429e+00	 9.014270e+00
0	 5.000000e+00	 2.642857e+00	 9.003292e+00
0	 5.000000e+00	 2.714286e+00	 8.989968e+00
0	 5.000000e+00	 2.785714e+00	 8.974298e+00
0	 5.000000e+00	 2.857143e+00	 8.956282e+00
0	 4.642857e+00	 2.857143e+00	 8.729282e+00
0	 4.642857e+00	 2.928571e+00	 8.738874e+00
0	 4.642857e+00	 3.000000e+00	 8.745636e+00
0	 4.642857e+00	 3.071429e+00	 8.749566e+00
0	 4.642857e+00	 3.142857e+00	 8.750666e+00
0	 4.642857e+00	 3.214286e+00	 8.748935e+00
0	 4.714286e+00	 2.857143e+00	 8.778104e+00
0	 4.714286e+00	 2.928571e+00	 8.785605e+00
0	 4.714286e+00	 3.000000e+00	 8.790391e+00
0	 4.714286e+00	 3.071429e+00	 8.792462e+00
0	 4.714286e+00	 3.142857e+00	 8.791819e+00
0	 4.714286e+00	 3.214286e+00	 8.788461e+00
0	 4.785714e+00	 2.857143e+00	 8.825215e+00
0	 4.785714e+00	 2.928571e+00	 8.830846e+00
0	 4.785714e+00	 3.000000e+00	 8.833878e+00
0	 4.785714e+00	 3.071429e+00	 8.834311e+00
0	 4.785714e+00	 3.142857e+00	 8.832147e+00
0	 4.785714e+00	 3.214286e+00	 8.827383e+00
0	 4.857143e+00	 2.857143e+00	 8.870616e+00
0	 4.857143e+00	 2.928571e+00	 8.874597e+00
0	 4.857143e+00	 3.000000e+00	 8.876096e+00
0	 4.857143e+00	 3.071429e+00	 8.875113e+00
0	 4.857143e+00	 3.142857e+00	 8.871648e+00
0	 4.857143e+00	 3.214286e+00	 8.865701e+00
0	 4.928571e+00	 2.857143e+00	 8.914305e+00
0	 4.928571e+00	 2.928571e+00	 8.916858e+00
0	 4.928571e+00	 3.000000e+00	 8.917046e+00
0	 4.928571e+00	 3.071429e+00	 8.914868e+00
0	 4.928571e+00	 3.142857e+00	 8.910325e+00
0	 4.928571e+00	 3.214286e+00	 8.903415e+00
0	 5.000000e+00	 2.857143e+00	 8.956282e+00
0	 5.000000e+00	 2.928571e+00	 8.957630e+00
0	 5.000000e+00	 3.000000e+00	 8.956728e+00
0	 5.000000e+00	 3.071429e+00	 8.953576e+00
0	 5.000000e+00	 3.142857e+00	 8.948175e+00
0	 5.000000e+00	 3.214286e+00	 8.940525e+00
0	 4.642857e+00	 3.214286e+00	 8.748935e+00
0	 4.642857e+00	 3.285714e+00	 8.766202e+00
0	 4.642857e+00	 3.357143e+00	 8.781217e+00
0	 4.642857e+00	 3.428571e+00	 8.793978e+00
0	 4.642857e+00	 3.500000e+00	 8.804485e+00
0	 4.642857e+00	 3.571429e+00	 8.812739e+00
0	 4.714286e+00	 3.214286e+00	 8.788461e+00
0	 4.714286e+00	 3.285714e+00	 8.803869e+00
0	 4.714286e+00	 3.357143e+00	 8.817079e+00
0	 4.714286e+00	 3.428571e+00	 8.828089e+00
0	 4.714286e+00	 3.500000e+00	 8.836900e+00
0	 4.714286e+00	 3.571429e+00	 8.843512e+00
0	 4.785714e+00	 3.214286e+00	 8.827383e+00
0	 4.785714e+00	 3.285714e+00	 8.841068e+00
0	 4.785714e+00	 3.357143e+00	 8.852608e+00
0	 4.785714e+00	 3.428571e+00	 8.862003e+00
0	 4.785714e+00	 3.500000e+00	 8.869254e+00
0	 4.785714e+00	 3.571429e+00	 8.874359e+00
0	 4.857143e+00	 3.214286e+00	 8.865701e+00
0	 4.857143e+00	 3.285714e+00	 8.877798e+00
0	 4.857143e+00	 3.357143e+00	 8.887804e+00
0	 4.857143e+00	 3.428571e+00	 8.895720e+00
0	 4.857143e+00	 3.500000e+00	 8.901545e+00
0	 4.857143e+00	 3.571429e+00	 8.905280e+00
0	 4.928571e+00	 3.214286e+00	 8.903415e+00
0	 4.928571e+00	 3.285714e+00	 8.914060e+00
0	 4.928571e+00	 3.357143e+00	 8.922668e+00
0	 4.928571e+00	 3.428571e+00	 8.929240e+00
0	 4.928571e+00	 3.500000e+00	 8.933775e+00
0	 4.928571e+00	 3.571429e+00	 8.936275e+00
0	 5.000000e+00	 3.214286e+00	 8.940525e+00
0	 5.000000e+00	 3.285714e+00	 8.949852e+00
0	 5.000000e+00	 3.357143e+00	 8.957198e+00
0	 5.000000e+00	 3.428571e+00	 8.962562e+00
0	 5.000000e+00	 3.500000e+00	 8.965944e+00
0	 5.000000e+00	 3.571429e+00	 8.967343e+00
0	 4.642857e+00	 3.571429e+00	 8.812739e+00
0	 4.642857e+00	 3.642857e+00	 8.835093e+00
0	 4.642857e+00	 3.714286e+00	 8.855690e+00
0	 4.642857e+00	 3.785714e+00	 8.874531e+00
0	 4.642857e+00	 3.857143e+00	 8.891615e+00
0	 4.642857e+00	 3.928571e+00	 8.906944e+00
0	 4.714286e+00	 3.571429e+00	 8.843512e+00
0	 4.714286e+00	 3.642857e+00	 8.864029e+00
0	 4.714286e+00	 3.714286e+00	 8.882822e+00
0	 4.714286e+00	 3.785714e+00	 8.899893e+00
0	 4.714286e+00	 3.857143e+00	 8.915242e+00
0	 4.714286e+00	 3.928571e+00	 8.928868e+00
0	 4.785714e+00	 3.571429e+00	 8.874359e+00
0	 4.785714e+00	 3.642857e+00	 8.893185e+00
0	 4.785714e+00	 3.714286e+00	 8.910321e+00
0	 4.785714e+00	 3.785714e+00	 8.925769e+00
0	 4.785714e+00	 3.857143e+00	 8.939527e+00
0	 4.785714e+00	 3.928571e+00	 8.951596e+00
0	 4.857143e+00	 3.571429e+00	 8.905280e+00
0	 4.857143e+00	 3.642857e+00	 8.922561e+00
0	 4.857143e+00	 3.714286e+00	 8.938186e+00
0	 4.857143e+00	 3.785714e+00	 8.952156e+00
0	 4.857143e+00	 3.857143e+00	 8.964471e+00
0	 4.857143e+00	 3.928571e+00	 8.975129e+00
0	 4.928571e+00	 3.571429e+00	 8.936275e+00
0	 4.928571e+00	 3.642857e+00	 8.952157e+00
0	 4.928571e+00	 3.714286e+00	 8.966418e+00
0	 4.928571e+00	 3.785714e+00	 8.979056e+00
0	 4.928571e+00	 3.857143e+00	 8.990073e+00
0	 4.928571e+00	 3.928571e+00	 8.999467e+00
0	 5.000000e+00	 3.571429e+00	 8.967343e+00
0	 5.000000e+00	 3.642857e+00	 8.981974e+00
0	 5.000000e+00	 3.714286e+00	 8.995015e+00
0	 5.000000e+00	 3.785714e+00	 9.006469e+00
0	 5.000000e+00	 3.857143e+00	 9.016334e+00
0	 5.000000e+00	 3.928571e+00	 9.024610e+00
0	 4.642857e+00	 3.928571e+00	 8.906944e+00
0	 4.642857e+00	 4.000000e+00	 8.931273e+00
0	 4.642857e+00	 4.071429e+00	 8.954383e+00
0	 4.642857e+00	 4.142857e+00	 8.976274e+00
0	 4.642857e+00	 4.214286e+00	 8.996945e+00
0	 4.642857e+00	 4.285714e+00	 9.016397e+00
0	 4.714286e+00	 3.928571e+00	 8.928868e+00
0	 4.714286e+00	 4.000000e+00	 8.951792e+00
0	 4.714286e+00	 4.071429e+00	 8.973494e+00
0	 4.714286e+00	 4.142857e+00	 8.993975e+00
0	 4.714286e+00	 4.214286e+00	 9.013235e+00
0	 4.714286e+00	 4.285714e+00	 9.031274e+00
0	 4.785714e+00	 3.928571e+00	 8.951596e+00
0	 4.785714e+00	 4.000000e+00	 8.973184e+00
0	 4.785714e+00	 4.071429e+00	 8.993548e+00
0	 4.785714e+00	 4.142857e+00	 9.012689e+00
0	 4.785714e+00	 4.214286e+00	 9.030606e+00
0	 4.785714e+00	 4.285714e+00	 9.047300e+00
0	 4.857143e+00	 3.928571e+00	 8.975129e+00
0	 4.857143e+00	 4.000000e+00	 8.995450e+00
0	 4.857143e+00	 4.071429e+00	 9.014545e+00
0	 4.857143e+00	 4.142857e+00	 9.032414e+00
0	 4.857143e+00	 4.214286e+00	 9.049058e+00
0	 4.857143e+00	 4.285714e+00	 9.064476e+00
0	 4.928571e+00	 3.928571e+00	 8.999467e+00
0	 4.928571e+00	 4.000000e+00	 9.018589e+00
0	 4.928571e+00	 4.071429e+00	 9.036484e+00
0	 4.928571e+00	 4.142857e+00	 9.053151e+00
0	 4.928571e+00	 4.214286e+00	 9.068591e+00
0	 4.928571e+00	 4.285714e+00	 9.082803e+00
0	 5.000000e+00	 3.928571e+00	 9.024610e+00
0	 5.000000e+00	 4.000000e+00	 9.042603e+00
0	 5.000000e+00	 4.071429e+00	 9.059367e+00
0	 5.000000e+00	 4.142857e+00	 9.074900e+00
0	 5.000000e+00	 4.214286e+00	 9.089204e+00
0	 5.000000e+00	 4.285714e+00	 9.102279e+00
0	 4.642857e+00	 4.285714e+00	 9.016397e+00
0	 4.642857e+00	 4.357143e+00	 9.041169e+00
0	 4.642857e+00	 4.428571e+00	 9.065098e+00
0	 4.642857e+00	 4.500000e+00	 9.088185e+00
0	 4.642857e+00	 4.571429e+00	 9.110429e+00
0	 4.642857e+00	 4.642857e+00	 9.131831e+00
0	 4.714286e+00	 4.285714e+00	 9.031274e+00
0	 4.714286e+00	 4.357143e+00	 9.054882e+00
0	 4.714286e+00	 4.428571e+00	 9.077641e+00
0	 4.714286e+00	 4.500000e+00	 9.099548e+00
0	 4.714286e+00	 4.571429e+00	 9.120606e+00
0	 4.714286e+00	 4.642857e+00	 9.140813e+00
0	 4.785714e+00	 4.285714e+00	 9.047300e+00
0	 4.785714e+00	 4.357143e+00	 9.069798e+00
0	 4.785714e+00	 4.428571e+00	 9.091437e+00
0	 4.785714e+00	 4.500000e+00	 9.112218e+00
0	 4.785714e+00	 4.571429e+00	 9.132141e+00
0	 4.785714e+00	 4.642857e+00	 9.151206e+00
0	 4.857143e+00	 4.285714e+00	 9.064476e+00
0	 4.857143e+00	 4.357143e+00	 9.085915e+00
0	 4.857143e+00	 4.428571e+00	 9.106488e+00
0	 4.857143e+00	 4.500000e+00	 9.126195e+00
0	 4.857143e+00	 4.571429e+00	 9.145035e+00
0	 4.857143e+00	 4.642857e+00	 9.163010e+00
0	 4.928571e+00	 4.285714e+00	 9.082803e+00
0	 4.928571e+00	 4.357143e+00	 9.103235e+00
0	 4.928571e+00	 4.428571e+00	 9.122794e+00
0	 4.928571e+00	 4.500000e+00	 9.141478e+00
0	 4.928571e+00	 4.571429e+00	 9.159288e+00
0	 4.928571e+00	 4.642857e+00	 9.176225e+00
0	 5.000000e+00	 4.285714e+00	 9.102279e+00
0	 5.000000e+00	 4.357143e+00	 9.121757e+00
0	 5.000000e+00	 4.428571e+00	 9.140353e+00
0	 5.000000e+00	 4.500000e+00	 9.158068e+00
0	 5.000000e+00	 4.571429e+00	 9.174900e+00
0	 5.000000e+00	 4.642857e+00	 9.190850e+00
0	 4.642857e+00	 4.642857e+00	 9.131831e+00
0	 4.642857e+00	 4.714286e+00	 9.155621e+00
0	 4.642857e+00	 4.785714e+00	 9.178894e+00
0	 4.642857e+00	 4.857143e+00	 9.201649e+00
0	 4.642857e+00	 4.928571e+00	 9.223886e+00
0	 4.642857e+00	 5.000000e+00	 9.245605e+00
0	 4.714286e+00	 4.642857e+00	 9.140813e+00
0	 4.714286e+00	 4.714286e+00	 9.163783e+00
0	 4.714286e+00	 4.785714e+00	 9.186216e+00
0	 4.714286e+00	 4.857143e+00	 9.208112e+00
0	 4.714286e+00	 4.928571e+00	 9.229472e+00
0	 4.714286e+00	 5.000000e+00	 9.250294e+00
0	 4.785714e+00	 4.642857e+00	 9.151206e+00
0	 4.785714e+00	 4.714286e+00	 9.173366e+00
0	 4.785714e+00	 4.785714e+00	 9.194971e+00
0	 4.785714e+00	 4.857143e+00	 9.216019e+00
0	 4.785714e+00	 4.928571e+00	 9.236512e+00
0	 4.785714e+00	 5.000000e+00	 9.256448e+00
0	 4.857143e+00	 4.642857e+00	 9.163010e+00
0	 4.857143e+00	 4.714286e+00	 9.184371e+00
0	 4.857143e+00	 4.785714e+00	 9.205158e+00
0	 4.857143e+00	 4.857143e+00	 9.225370e+00
0	 4.857143e+00	 4.928571e+00	 9.245006e+00
0	 4.857143e+00	 5.000000e+00	 9.264067e+00
0	 4.928571e+00	 4.642857e+00	 9.176225e+00
0	 4.928571e+00	 4.714286e+00	 9.196798e+00
0	 4.928571e+00	 4.785714e+00	 9.216778e+00
0	 4.928571e+00	 4.857143e+00	 9.236163e+00
0	 4.928571e+00	 4.928571e+00	 9.254954e+00
0	 4.928571e+00	 5.000000e+00	 9.273151e+00
0	 5.000000e+00	 4.642857e+00	 9.190850e+00
0	 5.000000e+00	 4.714286e+00	 9.210647e+00
0	 5.000000e+00	 4.785714e+00	 9.229831e+00
0	 5.000000e+00	 4.857143e+00	 9.248400e+00
0	 5.000000e+00	 4.928571e+00	 9.266357e+00
0	 5.000000e+00	 5.000000e+00	 9.283700e+00
0	 4.642857e+00	 5.000000e+00	 9.245605e+00
0	 4.642857e+00	 5.071429e+00	 9.267804e+00
0	 4.642857e+00	 5.142857e+00	 9.289700e+00
0	 4.642857e+00	 5.214286e+00	 9.311294e+00
0	 4.642857e+00	 5.285714e+00	 9.332586e+00
0	 4.642857e+00	 5.357143e+00	 9.353576e+00
0	 4.714286e+00	 5.000000e+00	 9.250294e+00
0	 4.714286e+00	 5.071429e+00	 9.271898e+00
0	 4.714286e+00	 5.142857e+00	 9.293181e+00
0	 4.714286e+00	 5.214286e+00	 9.314144e+00
0	 4.714286e+00	 5.285714e+00	 9.334788e+00
0	 4.714286e+00	 5.357143e+00	 9.355111e+00
0	 4.785714e+00	 5.000000e+00	 9.256448e+00
0	 4.785714e+00	 5.071429e+00	 9.277454e+00
0	 4.785714e+00	 5.142857e+00	 9.298121e+00
0	 4.785714e+00	 5.214286e+00	 9.318451e+00
0	 4.785714e+00	 5.285714e+00	 9.338442e+00
0	 4.785714e+00	 5.357143e+00	 9.358096e+00
0	 4.857143e+00	 5.000000e+00	 9.264067e+00
0	 4.857143e+00	 5.071429e+00	 9.284472e+00
0	 4.857143e+00	 5.142857e+00	 9.304520e+00
0	 4.857143e+00	 5.214286e+00	 9.324213e+00
0	 4.857143e+00	 5.285714e+00	 9.343549e+00
0	 4.857143e+00	 5.357143e+00	 9.362529e+00
0	 4.928571e+00	 5.000000e+00	 9.273151e+00
0	 4.928571e+00	 5.071429e+00	 9.292951e+00
0	 4.928571e+00	 5.142857e+00	 9.312378e+00
0	 4.928571e+00	 5.214286e+00	 9.331430e+00
0	 4.928571e+00	 5.285714e+00	 9.350108e+00
0	 4.928571e+00	 5.357143e+00	 9.368413e+00
0	 5.000000e+00	 5.000000e+00	 9.283700e+00
0	 5.000000e+00	 5.071429e+00	 9.302893e+00
0	 5.000000e+00	 5.142857e+00	 9.321694e+00
0	 5.000000e+00	 5.214286e+00	 9.340103e+00
0	 5.000000e+00	 5.285714e+00	 9.358120e+00
0	 5.000000e+00	 5.357143e+00	 9.375745e+00
0	 4.642857e+00	 5.357143e+00	 9.353576e+00
0	 4.642857e+00	 5.428571e+00	 9.373757e+00
0	 4.642857e+00	 5.500000e+00	 9.393799e+00
0	 4.642857e+00	 5.571429e+00	 9.413703e+00
0	 4.642857e+00	 5.642857e+00	 9.433467e+00
0	 4.642857e+00	 5.714286e+00	 9.453093e+00
0	 4.714286e+00	 5.357143e+00	 9.355111e+00
0	 4.714286e+00	 5.428571e+00	 9.374912e+00
0	 4.714286e+00	 5.500000e+00	 9.394555e+00
0	 4.714286e+00	 5.571429e+00	 9.414041e+00
0	 4.714286e+00	 5.642857e+00	 9.433370e+00
0	 4.714286e+00	 5.714286e+00	 9.452541e+00
0	 4.785714e+00	 5.357143e+00	 9.358096e+00
0	 4.785714e+00	 5.428571e+00	 9.377496e+00
0	 4.785714e+00	 5.500000e+00	 9.396721e+00
0	 4.785714e+00	 5.571429e+00	 9.415770e+00
0	 4.785714e+00	 5.642857e+00	 9.434643e+00
0	 4.785714e+00	 5.714286e+00	 9.453341e+00
0	 4.857143e+00	 5.357143e+00	 9.362529e+00
0	 4.857143e+00	 5.428571e+00	 9.381511e+00
0	 4.857143e+00	 5.500000e+00	 9.400297e+00
0	 4.857143e+00	 5.571429e+00	 9.418890e+00
0	 4.857143e+00	 5.642857e+00	 9.437288e+00
0	 4.857143e+00	 5.714286e+00	 9.455491e+00
0	 4.928571e+00	 5.357143e+00	 9.368413e+00
0	 4.928571e+00	 5.428571e+00	 9.386954e+00
0	 4.928571e+00	 5.500000e+00	 9.405284e+00
0	 4.928571e+00	 5.571429e+00	 9.423400e+00
0	 4.928571e+00	 5.642857e+00	 9.441303e+00
0	 4.928571e+00	 5.714286e+00	 9.458993e+00
0	 5.000000e+00	 5.357143e+00	 9.375745e+00
0	 5.000000e+00	 5.428571e+00	 9.393828e+00
0	 5.000000e+00	 5.500000e+00	 9.411680e+00
0	 5.000000e+00	 5.571429e+00	 9.429300e+00
0	 5.000000e+00	 5.642857e+00	 9.446689e+00
0	 5.000000e+00	 5.714286e+00	 9.463846e+00
0	 4.642857e+00	 5.714286e+00	 9.453093e+00
0	 4.642857e+00	 5.785714e+00	 9.471163e+00
0	 4.642857e+00	 5.857143e+00	 9.489200e+00
0	 4.642857e+00	 5.928571e+00	 9.507203e+00
0	 4.642857e+00	 6.000000e+00	 9.525173e+00
0	 4.642857e+00	 6.071429e+00	 9.543110e+00
0	 4.714286e+00	 5.714286e+00	 9.452541e+00
0	 4.714286e+00	 5.785714e+00	 9.470380e+00
0	 4.714286e+00	 5.857143e+00	 9.488169e+00
0	 4.714286e+00	 5.928571e+00	 9.505910e+00
0	 4.714286e+00	 6.000000e+00	 9.523602e+00
0	 4.714286e+00	 6.071429e+00	 9.541246e+00
0	 4.785714e+00	 5.714286e+00	 9.453341e+00
0	 4.785714e+00	 5.785714e+00	 9.470922e+00
0	 4.785714e+00	 5.857143e+00	 9.488439e+00
0	 4.785714e+00	 5.928571e+00	 9.505892e+00
0	 4.785714e+00	 6.000000e+00	 9.523280e+00
0	 4.785714e+00	 6.071429e+00	 9.540605e+00
0	 4.857143e+00	 5.714286e+00	 9.455491e+00
0	 4.857143e+00	 5.785714e+00	 9.472790e+00
0	 4.857143e+00	 5.857143e+00	 9.490009e+00
0	 4.857143e+00	 5.928571e+00	 9.507148e+00
0	 4.857143e+00	 6.000000e+00	 9.524208e+00
0	 4.857143e+00	 6.071429e+00	 9.541188e+00
0	 4.928571e+00	 5.714286e+00	 9.458993e+00
0	 4.928571e+00	 5.785714e+00	 9.475983e+00
0	 4.928571e+00	 5.857143e+00	 9.492879e+00
0	 4.928571e+00	 5.928571e+00	 9.509679e+00
0	 4.928571e+00	 6.000000e+00	 9.526385e+00
0	 4.928571e+00	 6.071429e+00	 9.542996e+00
0	 5.000000e+00	 5.714286e+00	 9.463846e+00
0	 5.000000e+00	 5.785714e+00	 9.480503e+00
0	 5.000000e+00	 5.857143e+00	 9.497049e+00
0	 5.000000e+00	 5.928571e+00	 9.513485e+00
0	 5.000000e+00	 6.000000e+00	 9.529811e+00
0	 5.000000e+00	 6.071429e+00	 9.546027e+00
0	 4.642857e+00	 6.071429e+00	 9.543110e+00
0	 4.642857e+00	 6.142857e+00	 9.559083e+00
0	 4.642857e+00	 6.214286e+00	 9.575096e+00
0	 4.642857e+00	 6.285714e+00	 9.591149e+00
0	 4.642857e+00	 6.357143e+00	 9.607241e+00
0	 4.642857e+00	 6.428571e+00	 9.623373e+00
0	 4.714286e+00	 6.071429e+00	 9.541246e+00
0	 4.714286e+00	 6.142857e+00	 9.557106e+00
0	 4.714286e+00	 6.214286e+00	 9.572992e+00
0	 4.714286e+00	 6.285714e+00	 9.588906e+00
0	 4.714286e+00	 6.357143e+00	 9.604847e+00
0	 4.714286e+00	 6.428571e+00	 9.620814e+00
0	 4.785714e+00	 6.071429e+00	 9.540605e+00
0	 4.785714e+00	 6.142857e+00	 9.556322e+00
0	 4.785714e+00	 6.214286e+00	 9.572053e+00
0	 4.785714e+00	 6.285714e+00	 9.587798e+00
0	 4.785714e+00	 6.357143e+00	 9.603557e+00
0	 4.785714e+00	 6.428571e+00	 9.619329e+00
0	 4.857143e+00	 6.071429e+00	 9.541188e+00
0	 4.857143e+00	 6.142857e+00	 9.556733e+00
0	 4.857143e+00	 6.214286e+00	 9.572278e+00
0	 4.857143e+00	 6.285714e+00	 9.587824e+00
0	 4.857143e+00	 6.357143e+00	 9.603371e+00
0	 4.857143e+00	 6.428571e+00	 9.618919e+00
0	 4.928571e+00	 6.071429e+00	 9.542996e+00
0	 4.928571e+00	 6.142857e+00	 9.558337e+00
0	 4.928571e+00	 6.214286e+00	 9.573667e+00
0	 4.928571e+00	 6.285714e+00	 9.588985e+00
0	 4.928571e+00	 6.357143e+00	 9.604291e+00
0	 4.928571e+00	 6.428571e+00	 9.619584e+00
0	 5.000000e+00	 6.071429e+00	 9.546027e+00
0	 5.000000e+00	 6.142857e+00	 9.561136e+00
0	 5.000000e+00	 6.214286e+00	 9.576220e+00
0	 5.000000e+00	 6.285714e+00	 9.591280e+00
0	 5.000000e+00	 6.357143e+00	 9.606314e+00
0	 5.000000e+00	 6.428571e+00	 9.621324e+00
0	 4.642857e+00	 6.428571e+00	 9.623373e+00
0	 4.642857e+00	 6.500000e+00	 9.637374e+00
0	 4.642857e+00	 6.571429e+00	 9.651461e+00
0	 4.642857e+00	 6.642857e+00	 9.665634e+00
0	 4.642857e+00	 6.714286e+00	 9.679893e+00
0	 4.642857e+00	 6.785714e+00	 9.694239e+00
0	 4.714286e+00	 6.428571e+00	 9.620814e+00
0	 4.714286e+00	 6.500000e+00	 9.634783e+00
0	 4.714286e+00	 6.571429e+00	 9.648828e+00
0	 4.714286e+00	 6.642857e+00	 9.662950e+00
0	 4.714286e+00	 6.714286e+00	 9.677149e+00
0	 4.714286e+00	 6.785714e+00	 9.691423e+00
0	 4.785714e+00	 6.428571e+00	 9.619329e+00
0	 4.785714e+00	 6.500000e+00	 9.633237e+00
0	 4.785714e+00	 6.571429e+00	 9.647210e+00
0	 4.785714e+00	 6.642857e+00	 9.661251e+00
0	 4.785714e+00	 6.714286e+00	 9.675357e+00
0	 4.785714e+00	 6.785714e+00	 9.689531e+00
0	 4.857143e+00	 6.428571e+00	 9.618919e+00
0	 4.857143e+00	 6.500000e+00	 9.632735e+00
0	 4.857143e+00	 6.571429e+00	 9.646606e+00
0	 4.857143e+00	 6.642857e+00	 9.660535e+00
0	 4.857143e+00	 6.714286e+00	 9.674520e+00
0	 4.857143e+00	 6.785714e+00	 9.688561e+00
0	 4.928571e+00	 6.428571e+00	 9.619584e+00
0	 4.928571e+00	 6.500000e+00	 9.633277e+00
0	 4.928571e+00	 6.571429e+00	 9.647016e+00
0	 4.928571e+00	 6.642857e+00	 9.660803e+00
0	 4.928571e+00	 6.714286e+00	 9.674635e+00
0	 4.928571e+00	 6.785714e+00	 9.688515e+00
0	 5.000000e+00	 6.428571e+00	 9.621324e+00
0	 5.000000e+00	 6.500000e+00	 9.634864e+00
0	 5.000000e+00	 6.571429e+00	 9.648440e+00
0	 5.000000e+00	 6.642857e+00	 9.662054e+00
0	 5.000000e+00	 6.714286e+00	 9.675704e+00
0	 5.000000e+00	 6.785714e+00	 9.689392e+00
0	 4.642857e+00	 6.785714e+00	 9.694239e+00
0	 4.642857e+00	 6.857143e+00	 9.706425e+00
0	 4.642857e+00	 6.928571e+00	 9.718729e+00
0	 4.642857e+00	 7.000000e+00	 9.731150e+00
0	 4.642857e+00	 7.071429e+00	 9.743689e+00
0	 4.642857e+00	 7.142857e+00	 9.756346e+00
0	 4.714286e+00	 6.785714e+00	 9.691423e+00
0	 4.714286e+00	 6.857143e+00	 9.703636e+00
0	 4.714286e+00	 6.928571e+00	 9.715959e+00
0	 4.714286e+00	 7.000000e+00	 9.728392e+00
0	 4.714286e+00	 7.071429e+00	 9.740935e+00
0	 4.714286e+00	 7.142857e+00	 9.753589e+00
0	 4.785714e+00	 6.785714e+00	 9.689531e+00
0	 4.785714e+00	 6.857143e+00	 9.701740e+00
0	 4.785714e+00	 6.928571e+00	 9.714052e+00
0	 4.785714e+00	 7.000000e+00	 9.726467e+00
0	 4.785714e+00	 7.071429e+00	 9.738986e+00
0	 4.785714e+00	 7.142857e+00	 9.751607e+00
0	 4.857143e+00	 6.785714e+00	 9.688561e+00
0	 4.857143e+00	 6.857143e+00	 9.700737e+00
0	 4.857143e+00	 6.928571e+00	 9.713009e+00
0	 4.857143e+00	 7.000000e+00	 9.725377e+00
0	 4.857143e+00	 7.071429e+00	 9.737840e+00
0	 4.857143e+00	 7.142857e+00	 9.750399e+00
0	 4.928571e+00	 6.785714e+00	 9.688515e+00
0	 4.928571e+00	 6.857143e+00	 9.700628e+00
0	 4.928571e+00	 6.928571e+00	 9.712830e+00
0	 4.928571e+00	 7.000000e+00	 9.725120e+00
0	 4.928571e+00	 7.071429e+00	 9.737499e+00
0	 4.928571e+00	 7.142857e+00	 9.749967e+00
0	 5.000000e+00	 6.785714e+00	 9.689392e+00
0	 5.000000e+00	 6.857143e+00	 9.701412e+00
0	 5.000000e+00	 6.928571e+00	 9.713515e+00
0	 5.000000e+00	 7.000000e+00	 9.725698e+00
0	 5.000000e+00	 7.071429e+00	 9.737963e+00
0	 5.000000e+00	 7.142857e+00	 9.750308e+00
0	 4.642857e+00	 7.142857e+00	 9.756346e+00
0	 4.642857e+00	 7.214286e+00	 9.766891e+00
0	 4.642857e+00	 7.285714e+00	 9.777577e+00
0	 4.642857e+00	 7.357143e+00	 9.788402e+00
0	 4.642857e+00	 7.428571e+00	 9.799366e+00
0	 4.642857e+00	 7.500000e+00	 9.810471e+00
0	 4.714286e+00	 7.142857e+00	 9.753589e+00
0	 4.714286e+00	 7.214286e+00	 9.764197e+00
0	 4.714286e+00	 7.285714e+00	 9.774940e+00
0	 4.714286e+00	 7.357143e+00	 9.785818e+00
0	 4.714286e+00	 7.428571e+00	 9.796831e+00
0	 4.714286e+00	 7.500000e+00	 9.807978e+00
0	 4.785714e+00	 7.142857e+00	 9.751607e+00
0	 4.785714e+00	 7.214286e+00	 9.762250e+00
0	 4.785714e+00	 7.285714e+00	 9.773023e+00
0	 4.785714e+00	 7.357143e+00	 9.783926e+00
0	 4.785714e+00	 7.428571e+00	 9.794959e+00
0	 4.785714e+00	 7.500000e+00	 9.806122e+00
0	 4.857143e+00	 7.142857e+00	 9.750399e+00
0	 4.857143e+00	 7.214286e+00	 9.761049e+00
0	 4.857143e+00	 7.285714e+00	 9.771825e+00
0	 4.857143e+00	 7.357143e+00	 9.782725e+00
0	 4.857143e+00	 7.428571e+00	 9.793751e+00
0	 4.857143e+00	 7.500000e+00	 9.804902e+00
0	 4.928571e+00	 7.142857e+00	 9.749967e+00
0	 4.928571e+00	 7.214286e+00	 9.760596e+00
0	 4.928571e+00	 7.285714e+00	 9.771346e+00
0	 4.928571e+00	 7.357143e+00	 9.782217e+00
0	 4.928571e+00	 7.428571e+00	 9.793207e+00
0	 4.928571e+00	 7.500000e+00	 9.804319e+00
0	 5.000000e+00	 7.142857e+00	 9.750308e+00
0	 5.000000e+00	 7.214286e+00	 9.760890e+00
0	 5.000000e+00	 7.285714e+00	 9.771587e+00
0	 5.000000e+00	 7.357143e+00	 9.782400e+00
0	 5.000000e+00	 7.428571e+00	 9.793328e+00
0	 5.000000e+00	 7.500000e+00	 9.804372e+00
0	 4.642857e+00	 7.500000e+00	 9.810471e+00
0	 4.642857e+00	 7.571429e+00	 9.819534e+00
0	 4.642857e+00	 7.642857e+00	 9.828757e+00
0	 4.642857e+00	 7.714286e+00	 9.838138e+00
0	 4.642857e+00	 7.785714e+00	 9.847678e+00
0	 4.642857e+00	 7.857143e+00	 9.857377e+00
0	 4.714286e+00	 7.500000e+00	 9.807978e+00
0	 4.714286e+00	 7.571429e+00	 9.817124e+00
0	 4.714286e+00	 7.642857e+00	 9.826427e+00
0	 4.714286e+00	 7.714286e+00	 9.835885e+00
0	 4.714286e+00	 7.785714e+00	 9.845500e+00
0	 4.714286e+00	 7.857143e+00	 9.855271e+00
0	 4.785714e+00	 7.500000e+00	 9.806122e+00
0	 4.785714e+00	 7.571429e+00	 9.815326e+00
0	 4.785714e+00	 7.642857e+00	 9.824683e+00
0	 4.785714e+00	 7.714286e+00	 9.834194e+00
0	 4.785714e+00	 7.785714e+00	 9.843858e+00
0	 4.785714e+00	 7.857143e+00	 9.853676e+00
0	 4.857143e+00	 7.500000e+00	 9.804902e+00
0	 4.857143e+00	 7.571429e+00	 9.814139e+00
0	 4.857143e+00	 7.642857e+00	 9.823526e+00
0	 4.857143e+00	 7.714286e+00	 9.833064e+00
0	 4.857143e+00	 7.785714e+00	 9.842753e+00
0	 4.857143e+00	 7.857143e+00	 9.852593e+00
0	 4.928571e+00	 7.500000e+00	 9.804319e+00
0	 4.928571e+00	 7.571429e+00	 9.813563e+00
0	 4.928571e+00	 7.642857e+00	 9.822955e+00
0	 4.928571e+00	 7.714286e+00	 9.832496e+00
0	 4.928571e+00	 7.785714e+00	 9.842184e+00
0	 4.928571e+00	 7.857143e+00	 9.852021e+00
0	 5.000000e+00	 7.500000e+00	 9.804372e+00
0	 5.000000e+00	 7.571429e+00	 9.813599e+00
0	 5.000000e+00	 7.642857e+00	 9.822971e+00
0	 5.000000e+00	 7.714286e+00	 9.832488e+00
0	 5.000000e+00	 7.785714e+00	 9.842152e+00
0	 5.000000e+00	 7.857143e+00	 9.851960e+00
0	 4.642857e+00	 7.857143e+00	 9.857377e+00
0	 4.642857e+00	 7.928571e+00	 9.865084e+00
0	 4.642857e+00	 8.000000e+00	 9.872972e+00
0	 4.642857e+00	 8.071429e+00	 9.881039e+00
0	 4.642857e+00	 8.142857e+00	 9.889287e+00
0	 4.642857e+00	 8.214286e+00	 9.897715e+00
0	 4.714286e+00	 7.857143e+00	 9.855271e+00
0	 4.714286e+00	 7.928571e+00	 9.863068e+00
0	 4.714286e+00	 8.000000e+00	 9.871044e+00
0	 4.714286e+00	 8.071429e+00	 9.879199e+00
0	 4.714286e+00	 8.142857e+00	 9.887534e+00
0	 4.714286e+00	 8.214286e+00	 9.896048e+00
0	 4.785714e+00	 7.857143e+00	 9.853676e+00
0	 4.785714e+00	 7.928571e+00	 9.861540e+00
0	 4.785714e+00	 8.000000e+00	 9.869583e+00
0	 4.785714e+00	 8.071429e+00	 9.877805e+00
0	 4.785714e+00	 8.142857e+00	 9.886205e+00
0	 4.785714e+00	 8.214286e+00	 9.894784e+00
0	 4.857143e+00	 7.857143e+00	 9.852593e+00
0	 4.857143e+00	 7.928571e+00	 9.860503e+00
0	 4.857143e+00	 8.000000e+00	 9.868591e+00
0	 4.857143e+00	 8.071429e+00	 9.876857e+00
0	 4.857143e+00	 8.142857e+00	 9.885301e+00
0	 4.857143e+00	 8.214286e+00	 9.893922e+00
0	 4.928571e+00	 7.857143e+00	 9.852021e+00
0	 4.928571e+00	 7.928571e+00	 9.859955e+00
0	 4.928571e+00	 8.000000e+00	 9.868067e+00
0	 4.928571e+00	 8.071429e+00	 9.876355e+00
0	 4.928571e+00	 8.142857e+00	 9.884821e+00
0	 4.928571e+00	 8.214286e+00	 9.893463e+00
0	 5.000000e+00	 7.857143e+00	 9.851960e+00
0	 5.000000e+00	 7.928571e+00	 9.859897e+00
0	 5.000000e+00	 8.000000e+00	 9.868011e+00
0	 5.000000e+00	 8.071429e+00	 9.876300e+00
0	 5.000000e+00	 8.142857e+00	 9.884765e+00
0	 5.000000e+00	 8.214286e+00	 9.893407e+00
0	 4.642857e+00	 8.214286e+00	 9.897715e+00
0	 4.642857e+00	 8.285714e+00	 9.904139e+00
0	 4.642857e+00	 8.357143e+00	 9.910772e+00
0	 4.642857e+00	 8.428571e+00	 9.917613e+00
0	 4.642857e+00	 8.500000e+00	 9.924663e+00
0	 4.642857e+00	 8.571429e+00	 9.931922e+00
0	 4.714286e+00	 8.214286e+00	 9.896048e+00
0	 4.714286e+00	 8.285714e+00	 9.902557e+00
0	 4.714286e+00	 8.357143e+00	 9.909276e+00
0	 4.714286e+00	 8.428571e+00	 9.916204e+00
0	 4.714286e+00	 8.500000e+00	 9.923341e+00
0	 4.714286e+00	 8.571429e+00	 9.930688e+00
0	 4.785714e+00	 8.214286e+00	 9.894784e+00
0	 4.785714e+00	 8.285714e+00	 9.901360e+00
0	 4.785714e+00	 8.357143e+00	 9.908147e+00
0	 4.785714e+00	 8.428571e+00	 9.915144e+00
0	 4.785714e+00	 8.500000e+00	 9.922351e+00
0	 4.785714e+00	 8.571429e+00	 9.929768e+00
0	 4.857143e+00	 8.214286e+00	 9.893922e+00
0	 4.857143e+00	 8.285714e+00	 9.900548e+00
0	 4.857143e+00	 8.357143e+00	 9.907385e+00
0	 4.857143e+00	 8.428571e+00	 9.914433e+00
0	 4.857143e+00	 8.500000e+00	 9.921692e+00
0	 4.857143e+00	 8.571429e+00	 9.929162e+00
0	 4.928571e+00	 8.214286e+00	 9.893463e+00
0	 4.928571e+00	 8.285714e+00	 9.900121e+00
0	 4.928571e+00	 8.357143e+00	 9.906990e+00
0	 4.928571e+00	 8.428571e+00	 9.914071e+00
0	 4.928571e+00	 8.500000e+00	 9.921364e+00
0	 4.928571e+00	 8.571429e+00	 9.928869e+00
0	 5.000000e+00	 8.214286e+00	 9.893407e+00
0	 5.000000e+00	 8.285714e+00	 9.900078e+00
0	 5.000000e+00	 8.357143e+00	 9.906962e+00
0	 5.000000e+00	 8.428571e+00	 9.914058e+00
0	 5.000000e+00	 8.500000e+00	 9.921368e+00
0	 5.000000e+00	 8.571429e+00	 9.928890e+00
0	 4.642857e+00	 8.571429e+00	 9.931922e+00
0	 4.642857e+00	 8.642857e+00	 9.937065e+00
0	 4.642857e+00	 8.714286e+00	 9.942457e+00
0	 4.642857e+00	 8.785714e+00	 9.948099e+00
0	 4.642857e+00	 8.857143e+00	 9.953990e+00
0	 4.642857e+00	 8.928571e+00	 9.960131e+00
0	 4.714286e+00	 8.571429e+00	 9.930688e+00
0	 4.714286e+00	 8.642857e+00	 9.935903e+00
0	 4.714286e+00	 8.714286e+00	 9.941369e+00
0	 4.714286e+00	 8.785714e+00	 9.947086e+00
0	 4.714286e+00	 8.857143e+00	 9.953056e+00
0	 4.714286e+00	 8.928571e+00	 9.959277e+00
0	 4.785714e+00	 8.571429e+00	 9.929768e+00
0	 4.785714e+00	 8.642857e+00	 9.935041e+00
0	 4.785714e+00	 8.714286e+00	 9.940567e+00
0	 4.785714e+00	 8.785714e+00	 9.946347e+00
0	 4.785714e+00	 8.857143e+00	 9.952382e+00
0	 4.785714e+00	 8.928571e+00	 9.958670e+00
0	 4.857143e+00	 8.571429e+00	 9.929162e+00
0	 4.857143e+00	 8.642857e+00	 9.934479e+00
0	 4.857143e+00	 8.714286e+00	 9.940053e+00
0	 4.857143e+00	 8.785714e+00	 9.945882e+00
0	 4.857143e+00	 8.857143e+00	 9.951968e+00
0	 4.857143e+00	 8.928571e+00	 9.958309e+00
0	 4.928571e+00	 8.571429e+00	 9.928869e+00
0	 4.928571e+00	 8.642857e+00	 9.934218e+00
0	 4.928571e+00	 8.714286e+00	 9.939825e+00
0	 4.928571e+00	 8.785714e+00	 9.945690e+00
0	 4.928571e+00	 8.857143e+00	 9.951814e+00
0	 4.928571e+00	 8.928571e+00	 9.958196e+00
0	 5.000000e+00	 8.571429e+00	 9.928890e+00
0	 5.000000e+00	 8.642857e+00	 9.934256e+00
0	 5.000000e+00	 8.714286e+00	 9.939884e+00
0	 5.000000e+00	 8.785714e+00	 9.945772e+00
0	 5.000000e+00	 8.857143e+00	 9.951920e+00
0	 5.000000e+00	 8.928571e+00	 9.958330e+00
0	 4.642857e+00	 8.928571e+00	 9.960131e+00
0	 4.642857e+00	 9.000000e+00	 9.963890e+00
0	 4.642857e+00	 9.071429e+00	 9.967958e+00
0	 4.642857e+00	 9.142857e+00	 9.972335e+00
0	 4.642857e+00	 9.214286e+00	 9.977021e+00
0	 4.642857e+00	 9.285714e+00	 9.982016e+00
0	 4.714286e+00	 8.928571e+00	 9.959277e+00
0	 4.714286e+00	 9.000000e+00	 9.963085e+00
0	 4.714286e+00	 9.071429e+00	 9.967206e+00
0	 4.714286e+00	 9.142857e+00	 9.971639e+00
0	 4.714286e+00	 9.214286e+00	 9.976385e+00
0	 4.714286e+00	 9.285714e+00	 9.981442e+00
0	 4.785714e+00	 8.928571e+00	 9.958670e+00
0	 4.785714e+00	 9.000000e+00	 9.962520e+00
0	 4.785714e+00	 9.071429e+00	 9.966685e+00
0	 4.785714e+00	 9.142857e+00	 9.971167e+00
0	 4.785714e+00	 9.214286e+00	 9.975964e+00
0	 4.785714e+00	 9.285714e+00	 9.981076e+00
0	 4.857143e+00	 8.928571e+00	 9.958309e+00
0	 4.857143e+00	 9.000000e+00	 9.962193e+00
0	 4.857143e+00	 9.071429e+00	 9.966396e+00
0	 4.857143e+00	 9.142857e+00	 9.970918e+00
0	 4.857143e+00	 9.214286e+00	 9.975759e+00
0	 4.857143e+00	 9.285714e+00	 9.980919e+00
0	 4.928571e+00	 8.928571e+00	 9.958196e+00
0	 4.928571e+00	 9.000000e+00	 9.962106e+00
0	 4.928571e+00	 9.071429e+00	 9.966338e+00
0	 4.928571e+00	 9.142857e+00	 9.970893e+00
0	 4.928571e+00	 9.214286e+00	 9.975770e+00
0	 4.928571e+00	 9.285714e+00	 9.980970e+00
0	 5.000000e+00	 8.928571e+00	 9.958330e+00
0	 5.000000e+00	 9.000000e+00	 9.962258e+00
0	 5.000000e+00	 9.071429e+00	 9.966512e+00
0	 5.000000e+00	 9.142857e+00	 9.971092e+00
0	 5.000000e+00	 9.214286e+00	 9.975998e+00
0	 5.000000e+00	 9.285714e+00	 9.981229e+00
0	 4.642857e+00	 9.285714e+00	 9.982016e+00
0	 4.642857e+00	 9.357143e+00	 9.984187e+00
0	 4.642857e+00	 9.428571e+00	 9.986751e+00
0	 4.642857e+00	 9.500000e+00	 9.989710e+00
0	 4.642857e+00	 9.571429e+00	 9.993062e+00
0	 4.642857e+00	 9.642857e+00	 9.996810e+00
0	 4.714286e+00	 9.285714e+00	 9.981442e+00
0	 4.714286e+00	 9.357143e+00	 9.983632e+00
0	 4.714286e+00	 9.428571e+00	 9.986220e+00
0	 4.714286e+00	 9.500000e+00	 9.989207e+00
0	 4.714286e+00	 9.571429e+00	 9.992592e+00
0	 4.714286e+00	 9.642857e+00	 9.996376e+00
0	 4.785714e+00	 9.285714e+00	 9.981076e+00
0	 4.785714e+00	 9.357143e+00	 9.983285e+00
0	 4.785714e+00	 9.428571e+00	 9.985897e+00
0	 4.785714e+00	 9.500000e+00	 9.988911e+00
0	 4.785714e+00	 9.571429e+00	 9.992328e+00
0	 4.785714e+00	 9.642857e+00	 9.996147e+00
0	 4.857143e+00	 9.285714e+00	 9.980919e+00
0	 4.857143e+00	 9.357143e+00	 9.983146e+00
0	 4.857143e+00	 9.428571e+00	 9.985780e+00
0	 4.857143e+00	 9.500000e+00	 9.988821e+00
0	 4.857143e+00	 9.571429e+00	 9.992268e+00
0	 4.857143e+00	 9.642857e+00	 9.996122e+00
0	 4.928571e+00	 9.285714e+00	 9.980970e+00
0	 4.928571e+00	 9.357143e+00	 9.983214e+00
0	 4.928571e+00	 9.428571e+00	 9.985870e+00
0	 4.928571e+00	 9.500000e+00	 9.988936e+00
0	 4.928571e+00	 9.571429e+00	 9.992414e+00
0	 4.928571e+00	 9.642857e+00	 9.996302e+00
0	 5.000000e+00	 9.285714e+00	 9.981229e+00
0	 5.000000e+00	 9.357143e+00	 9.983490e+00
0	 5.000000e+00	 9.428571e+00	 9.986166e+00
0	 5.000000e+00	 9.500000e+00	 9.989258e+00
0	 5.000000e+00	 9.571429e+00	 9.992764e+00
0	 5.000000e+00	 9.642857e+00	 9.996686e+00
0	 4.642857e+00	 9.642857e+00	 9.996810e+00
0	 4.642857e+00	 9.714286e+00	 9.996920e+00
0	 4.642857e+00	 9.785714e+00	 9.997547e+00
0	 4.642857e+00	 9.857143e+00	 9.998690e+00
0	 4.642857e+00	 9.928571e+00	 1.000035e+01
0	 4.642857e+00	 1.000000e+01	 1.000252e+01
0	 4.714286e+00	 9.642857e+00	 9.996376e+00
0	 4.714286e+00	 9.714286e+00	 9.996470e+00
0	 4.714286e+00	 9.785714e+00	 9.997085e+00
0	 4.714286e+00	 9.857143e+00	 9.998220e+00
0	 4.714286e+00	 9.928571e+00	 9.999876e+00
0	 4.714286e+00	 1.000000e+01	 1.000205e+01
0	 4.785714e+00	 9.642857e+00	 9.996147e+00
0	 4.785714e+00	 9.714286e+00	 9.996233e+00
0	 4.785714e+00	 9.785714e+00	 9.996844e+00
0	 4.785714e+00	 9.857143e+00	 9.997980e+00
0	 4.785714e+00	 9.928571e+00	 9.999641e+00
0	 4.785714e+00	 1.000000e+01	 1.000183e+01
0	 4.857143e+00	 9.642857e+00	 9.996122e+00
0	 4.857143e+00	 9.714286e+00	 9.996208e+00
0	 4.857143e+00	 9.785714e+00	 9.996824e+00
0	 4.857143e+00	 9.857143e+00	 9.997969e+00
0	 4.857143e+00	 9.928571e+00	 9.999644e+00
0	 4.857143e+00	 1.000000e+01	 1.000185e+01
0	 4.928571e+00	 9.642857e+00	 9.996302e+00
0	 4.928571e+00	 9.714286e+00	 9.996396e+00
0	 4.928571e+00	 9.785714e+00	 9.997025e+00
0	 4.928571e+00	 9.857143e+00	 9.998188e+00
0	 4.928571e+00	 9.928571e+00	 9.999885e+00
0	 4.928571e+00	 1.000000e+01	 1.000212e+01
0	 5.000000e+00	 9.642857e+00	 9.996686e+00
0	 5.000000e+00	 9.714286e+00	 9.996797e+00
0	 5.000000e+00	 9.785714e+00	 9.997447e+00
0	 5.000000e+00	 9.857143e+00	 9.998636e+00
0	 5.000000e+00	 9.928571e+00	 1.000036e+01
0	 5.000000e+00	 1.000000e+01	 1.000263e+01
0	 5.000000e+00	 0.000000e+00	 1.007924e+01
0	 5.000000e+00	 7.142857e-02	 1.006130e+01
0	 5.000000e+00	 1.428571e-01	 1.004804e+01
0	 5.000000e+00	 2.142857e-01	 1.003947e+01
0	 5.000000e+00	 2.857143e-01	 1.003558e+01
0	 5.000000e+00	 3.571429e-01	 1.003637e+01
0	 5.071429e+00	 0.000000e+00	 1.009297e+01
0	 5.071429e+00	 7.142857e-02	 1.007582e+01
0	 5.071429e+00	 1.428571e-01	 1.006312e+01
0	 5.071429e+00	 2.142857e-01	 1.005487e+01
0	 5.071429e+00	 2.857143e-01	 1.005106e+01
0	 5.071429e+00	 3.571429e-01	 1.005169e+01
0	 5.142857e+00	 0.000000e+00	 1.010768e+01
0	 5.142857e+00	 7.142857e-02	 1.009133e+01
0	 5.142857e+00	 1.428571e-01	 1.007919e+01
0	 5.142857e+00	 2.142857e-01	 1.007125e+01
0	 5.142857e+00	 2.857143e-01	 1.006753e+01
0	 5.142857e+00	 3.571429e-01	 1.006800e+01
0	 5.214286e+00	 0.000000e+00	 1.012337e+01
0	 5.214286e+00	 7.142857e-02	 1.010782e+01
0	 5.214286e+00	 1.428571e-01	 1.009624e+01
0	 5.214286e+00	 2.142857e-01	 1.008863e+01
0	 5.214286e+00	 2.857143e-01	 1.008498e+01
0	 5.214286e+00	 3.571429e-01	 1.008530e+01
0	 5.285714e+00	 0.000000e+00	 1.014005e+01
0	 5.285714e+00	 7.142857e-02	 1.012530e+01
0	 5.285714e+00	 1.428571e-01	 1.011428e+01
0	 5.285714e+00	 2.142857e-01	 1.010698e+01
0	 5.285714e+00	 2.857143e-01	 1.010342e+01
0	 5.285714e+00	 3.571429e-01	 1.010359e+01
0	 5.357143e+00	 0.000000e+00	 1.015771e+01
0	 5.357143e+00	 7.142857e-02	 1.014376e+01
0	 5.357143e+00	 1.428571e-01	 1.013330e+01
0	 5.357143e+00	 2.142857e-01	 1.012633e+01
0	 5.357143e+00	 2.857143e-01	 1.012285e+01
0	 5.357143e+00	 3.571429e-01	 1.012286e+01
0	 5.000000e+00	 3.571429e-01	 1.003637e+01
0	 5.000000e+00	 4.285714e-01	 1.000381e+01
0	 5.000000e+00	 5.000000e-01	 9.975205e+00
0	 5.000000e+00	 5.714286e-01	 9.950547e+00
0	 5.000000e+00	 6.428571e-01	 9.929838e+00
0	 5.000000e+00	 7.142857e-01	 9.913078e+00
0	 5.071429e+00	 3.571429e-01	 1.005169e+01
0	 5.071429e+00	 4.285714e-01	 1.002074e+01
0	 5.071429e+00	 5.000000e-01	 9.993567e+00
0	 5.071429e+00	 5.714286e-01	 9.970164e+00
0	 5.071429e+00	 6.428571e-01	 9.950534e+00
0	 5.071429e+00	 7.142857e-01	 9.934677e+00
0	 5.142857e+00	 3.571429e-01	 1.006800e+01
0	 5.142857e+00	 4.285714e-01	 1.003852e+01
0	 5.142857e+00	 5.000000e-01	 1.001264e+01
0	 5.142857e+00	 5.714286e-01	 9.990348e+00
0	 5.142857e+00	 6.428571e-01	 9.971657e+00
0	 5.142857e+00	 7.142857e-01	 9.956564e+00
0	 5.214286e+00	 3.571429e-01	 1.008530e+01
0	 5.214286e+00	 4.285714e-01	 1.005715e+01
0	 5.214286e+00	 5.000000e-01	 1.003241e+01
0	 5.214286e+00	 5.714286e-01	 1.001110e+01
0	 5.214286e+00	 6.428571e-01	 9.993208e+00
0	 5.214286e+00	 7.142857e-01	 9.978738e+00
0	 5.285714e+00	 3.571429e-01	 1.010359e+01
0	 5.285714e+00	 4.285714e-01	 1.007662e+01
0	 5.285714e+00	 5.000000e-01	 1.005290e+01
0	 5.285714e+00	 5.714286e-01	 1.003242e+01
0	 5.285714e+00	 6.428571e-01	 1.001519e+01
0	 5.285714e+00	 7.142857e-01	 1.000120e+01
0	 5.357143e+00	 3.571429e-01	 1.012286e+01
0	 5.357143e+00	 4.285714e-01	 1.009694e+01
0	 5.357143e+00	 5.000000e-01	 1.007409e+01
0	 5.357143e+00	 5.714286e-01	 1.005430e+01
0	 5.357143e+00	 6.428571e-01	 1.003759e+01
0	 5.357143e+00	 7.142857e-01	 1.002395e+01
0	 5.000000e+00	 7.142857e-01	 9.913078e+00
0	 5.000000e+00	 7.857143e-01	 9.871371e+00
0	 5.000000e+00	 8.571429e-01	 9.832367e+00
0	 5.000000e+00	 9.285714e-01	 9.796066e+00
0	 5.000000e+00	 1.000000e+00	 9.762469e+00
0	 5.000000e+00	 1.071429e+00	 9.731575e+00
0	 5.071429e+00	 7.142857e-01	 9.934677e+00
0	 5.071429e+00	 7.857143e-01	 9.894845e+00
0	 5.071429e+00	 8.571429e-01	 9.857622e+00
0	 5.071429e+00	 9.285714e-01	 9.823006e+00
0	 5.071429e+00	 1.000000e+00	 9.790998e+00
0	 5.071429e+00	 1.071429e+00	 9.761598e+00
0	 5.142857e+00	 7.142857e-01	 9.956564e+00
0	 5.142857e+00	 7.857143e-01	 9.918442e+00
0	 5.142857e+00	 8.571429e-01	 9.882833e+00
0	 5.142857e+00	 9.285714e-01	 9.849737e+00
0	 5.142857e+00	 1.000000e+00	 9.819153e+00
0	 5.142857e+00	 1.071429e+00	 9.791082e+00
0	 5.214286e+00	 7.142857e-01	 9.978738e+00
0	 5.214286e+00	 7.857143e-01	 9.942161e+00
0	 5.214286e+00	 8.571429e-01	 9.908002e+00
0	 5.214286e+00	 9.285714e-01	 9.876259e+00
0	 5.214286e+00	 1.000000e+00	 9.846934e+00
0	 5.214286e+00	 1.071429e+00	 9.820027e+00
0	 5.285714e+00	 7.142857e-01	 1.000120e+01
0	 5.285714e+00	 7.857143e-01	 9.966002e+00
0	 5.285714e+00	 8.571429e-01	 9.933127e+00
0	 5.285714e+00	 9.285714e-01	 9.902574e+00
0	 5.285714e+00	 1.000000e+00	 9.874342e+00
0	 5.285714e+00	 1.071429e+00	 9.848433e+00
0	 5.357143e+00	 7.142857e-01	 1.002395e+01
0	 5.357143e+00	 7.857143e-01	 9.989966e+00
0	 5.357143e+00	 8.571429e-01	 9.958209e+00
0	 5.357143e+00	 9.285714e-01	 9.928679e+00
0	 5.357143e+00	 1.000000e+00	 9.901376e+00
0	 5.357143e+00	 1.071429e+00	 9.876300e+00
0	 5.000000e+00	 1.071429e+00	 9.731575e+00
0	 5.000000e+00	 1.142857e+00	 9.687010e+00
0	 5.000000e+00	 1.214286e+00	 9.643738e+00
0	 5.000000e+00	 1.285714e+00	 9.601759e+00
0	 5.000000e+00	 1.357143e+00	 9.561072e+00
0	 5.000000e+00	 1.428571e+00	 9.521678e+00
0	 5.071429e+00	 1.071429e+00	 9.761598e+00
0	 5.071429e+00	 1.142857e+00	 9.718907e+00
0	 5.071429e+00	 1.214286e+00	 9.677477e+00
0	 5.071429e+00	 1.285714e+00	 9.637309e+00
0	 5.071429e+00	 1.357143e+00	 9.598402e+00
0	 5.071429e+00	 1.428571e+00	 9.560757e+00
0	 5.142857e+00	 1.071429e+00	 9.791082e+00
0	 5.142857e+00	 1.142857e+00	 9.750083e+00
0	 5.142857e+00	 1.214286e+00	 9.710314e+00
0	 5.142857e+00	 1.285714e+00	 9.671775e+00
0	 5.142857e+00	 1.357143e+00	 9.634466e+00
0	 5.142857e+00	 1.428571e+00	 9.598388e+00
0	 5.214286e+00	 1.071429e+00	 9.820027e+00
0	 5.214286e+00	 1.142857e+00	 9.780538e+00
0	 5.214286e+00	 1.214286e+00	 9.742248e+00
0	 5.214286e+00	 1.285714e+00	 9.705157e+00
0	 5.214286e+00	 1.357143e+00	 9.669264e+00
0	 5.214286e+00	 1.428571e+00	 9.634571e+00
0	 5.285714e+00	 1.071429e+00	 9.848433e+00
0	 5.285714e+00	 1.142857e+00	 9.810273e+00
0	 5.285714e+00	 1.214286e+00	 9.773280e+00
0	 5.285714e+00	 1.285714e+00	 9.737454e+00
0	 5.285714e+00	 1.357143e+00	 9.702796e+00
0	 5.285714e+00	 1.428571e+00	 9.669306e+00
0	 5.357143e+00	 1.071429e+00	 9.876300e+00
0	 5.357143e+00	 1.142857e+00	 9.839286e+00
0	 5.357143e+00	 1.214286e+00	 9.803409e+00
0	 5.357143e+00	 1.285714e+00	 9.768667e+00
0	 5.357143e+00	 1.357143e+00	 9.735062e+00
0	 5.357143e+00	 1.428571e+00	 9.702593e+00
0	 5.000000e+00	 1.428571e+00	 9.521678e+00
0	 5.000000e+00	 1.500000e+00	 9.481278e+00
0	 5.000000e+00	 1.571429e+00	 9.440632e+00
0	 5.000000e+00	 1.642857e+00	 9.399739e+00
0	 5.000000e+00	 1.714286e+00	 9.358599e+00
0	 5.000000e+00	 1.785714e+00	 9.317213e+00
0	 5.071429e+00	 1.428571e+00	 9.560757e+00
0	 5.071429e+00	 1.500000e+00	 9.521609e+00
0	 5.071429e+00	 1.571429e+00	 9.482280e+00
0	 5.071429e+00	 1.642857e+00	 9.442771e+00
0	 5.071429e+00	 1.714286e+00	 9.403080e+00
0	 5.071429e+00	 1.785714e+00	 9.363209e+00
0	 5.142857e+00	 1.428571e+00	 9.598388e+00
0	 5.142857e+00	 1.500000e+00	 9.560378e+00
0	 5.142857e+00	 1.571429e+00	 9.522253e+00
0	 5.142857e+00	 1.642857e+00	 9.484013e+00
0	 5.142857e+00	 1.714286e+00	 9.445657e+00
0	 5.142857e+00	 1.785714e+00	 9.407186e+00
0	 5.214286e+00	 1.428571e+00	 9.634571e+00
0	 5.214286e+00	 1.500000e+00	 9.597585e+00
0	 5.214286e+00	 1.571429e+00	 9.560549e+00
0	 5.214286e+00	 1.642857e+00	 9.523464e+00
0	 5.214286e+00	 1.714286e+00	 9.486330e+00
0	 5.214286e+00	 1.785714e+00	 9.449145e+00
0	 5.285714e+00	 1.428571e+00	 9.669306e+00
0	 5.285714e+00	 1.500000e+00	 9.633229e+00
0	 5.285714e+00	 1.571429e+00	 9.597169e+00
0	 5.285714e+00	 1.642857e+00	 9.561125e+00
0	 5.285714e+00	 1.714286e+00	 9.525097e+00
0	 5.285714e+00	 1.785714e+00	 9.489086e+00
0	 5.357143e+00	 1.428571e+00	 9.702593e+00
0	 5.357143e+00	 1.500000e+00	 9.667312e+00
0	 5.357143e+00	 1.571429e+00	 9.632113e+00
0	 5.357143e+00	 1.642857e+00	 9.596996e+00
0	 5.357143e+00	 1.714286e+00	 9.561961e+00
0	 5.357143e+00	 1.785714e+00	 9.527007e+00
0	 5.000000e+00	 1.785714e+00	 9.317213e+00
0	 5.000000e+00	 1.857143e+00	 9.285525e+00
0	 5.000000e+00	 1.928571e+00	 9.252472e+00
0	 5.000000e+00	 2.000000e+00	 9.218056e+00
0	 5.000000e+00	 2.071429e+00	 9.182276e+00
0	 5.000000e+00	 2.142857e+00	 9.145132e+00
0	 5.071429e+00	 1.785714e+00	 9.363209e+00
0	 5.071429e+00	 1.857143e+00	 9.332079e+00
0	 5.071429e+00	 1.928571e+00	 9.299692e+00
0	 5.071429e+00	 2.000000e+00	 9.266048e+00
0	 5.071429e+00	 2.071429e+00	 9.231145e+00
0	 5.071429e+00	 2.142857e+00	 9.194985e+00
0	 5.142857e+00	 1.785714e+00	 9.407186e+00
0	 5.142857e+00	 1.857143e+00	 9.376561e+00
0	 5.142857e+00	 1.928571e+00	 9.344783e+00
0	 5.142857e+00	 2.000000e+00	 9.311855e+00
0	 5.142857e+00	 2.071429e+00	 9.277775e+00
0	 5.142857e+00	 2.142857e+00	 9.242545e+00
0	 5.214286e+00	 1.785714e+00	 9.449145e+00
0	 5.214286e+00	 1.857143e+00	 9.418968e+00
0	 5.214286e+00	 1.928571e+00	 9.387746e+00
0	 5.214286e+00	 2.000000e+00	 9.355479e+00
0	 5.214286e+00	 2.071429e+00	 9.322167e+00
0	 5.214286e+00	 2.142857e+00	 9.287810e+00
0	 5.285714e+00	 1.785714e+00	 9.489086e+00
0	 5.285714e+00	 1.857143e+00	 9.459302e+00
0	 5.285714e+00	 1.928571e+00	 9.428579e+00
0	 5.285714e+00	 2.000000e+00	 9.396918e+00
0	 5.285714e+00	 2.071429e+00	 9.364319e+00
0	 5.285714e+00	 2.142857e+00	 9.330781e+00
0	 5.357143e+00	 1.785714e+00	 9.527007e+00
0	 5.357143e+00	 1.857143e+00	 9.497562e+00
0	 5.357143e+00	 1.928571e+00	 9.467284e+00
0	 5.357143e+00	 2.000000e+00	 9.436174e+00
0	 5.357143e+00	 2.071429e+00	 9.404232e+00
0	 5.357143e+00	 2.142857e+00	 9.371458e+00
0	 5.000000e+00	 2.142857e+00	 9.145132e+00
0	 5.000000e+00	 2.214286e+00	 9.124873e+00
0	 5.000000e+00	 2.285714e+00	 9.102520e+00
0	 5.000000e+00	 2.357143e+00	 9.078074e+00
0	 5.000000e+00	 2.428571e+00	 9.051535e+00
0	 5.000000e+00	 2.500000e+00	 9.022902e+00
0	 5.071429e+00	 2.142857e+00	 9.194985e+00
0	 5.071429e+00	 2.214286e+00	 9.174452e+00
0	 5.071429e+00	 2.285714e+00	 9.151957e+00
0	 5.071429e+00	 2.357143e+00	 9.127502e+00
0	 5.071429e+00	 2.428571e+00	 9.101086e+00
0	 5.071429e+00	 2.500000e+00	 9.072710e+00
0	 5.142857e+00	 2.142857e+00	 9.242545e+00
0	 5.142857e+00	 2.214286e+00	 9.221768e+00
0	 5.142857e+00	 2.285714e+00	 9.199163e+00
0	 5.142857e+00	 2.357143e+00	 9.174729e+00
0	 5.142857e+00	 2.428571e+00	 9.148467e+00
0	 5.142857e+00	 2.500000e+00	 9.120377e+00
0	 5.214286e+00	 2.142857e+00	 9.287810e+00
0	 5.214286e+00	 2.214286e+00	 9.266820e+00
0	 5.214286e+00	 2.285714e+00	 9.244135e+00
0	 5.214286e+00	 2.357143e+00	 9.219754e+00
0	 5.214286e+00	 2.428571e+00	 9.193677e+00
0	 5.214286e+00	 2.500000e+00	 9.165904e+00
0	 5.285714e+00	 2.142857e+00	 9.330781e+00
0	 5.285714e+00	 2.214286e+00	 9.309610e+00
0	 5.285714e+00	 2.285714e+00	 9.286875e+00
0	 5.285714e+00	 2.357143e+00	 9.262577e+00
0	 5.285714e+00	 2.428571e+00	 9.236716e+00
0	 5.285714e+00	 2.500000e+00	 9.209291e+00
0	 5.357143e+00	 2.142857e+00	 9.371458e+00
0	 5.357143e+00	 2.214286e+00	 9.350136e+00
0	 5.357143e+00	 2.285714e+00	 9.327383e+00
0	 5.357143e+00	 2.357143e+00	 9.303199e+00
0	 5.357143e+00	 2.428571e+00	 9.277584e+00
0	 5.357143e+00	 2.500000e+00	 9.250538e+00
0	 5.000000e+00	 2.500000e+00	 9.022902e+00
0	 5.000000e+00	 2.571429e+00	 9.014270e+00
0	 5.000000e+00	 2.642857e+00	 9.003292e+00
0	 5.000000e+00	 2.714286e+00	 8.989968e+00
0	 5.000000e+00	 2.785714e+00	 8.974298e+00
0	 5.000000e+00	 2.857143e+00	 8.956282e+00
0	 5.071429e+00	 2.500000e+00	 9.072710e+00
0	 5.071429e+00	 2.571429e+00	 9.063108e+00
0	 5.071429e+00	 2.642857e+00	 9.051282e+00
0	 5.071429e+00	 2.714286e+00	 9.037231e+00
0	 5.071429e+00	 2.785714e+00	 9.020955e+00
0	 5.071429e+00	 2.857143e+00	 9.002455e+00
0	 5.142857e+00	 2.500000e+00	 9.120377e+00
0	 5.142857e+00	 2.571429e+00	 9.109915e+00
0	 5.142857e+00	 2.642857e+00	 9.097349e+00
0	 5.142857e+00	 2.714286e+00	 9.082680e+00
0	 5.142857e+00	 2.785714e+00	 9.065906e+00
0	 5.142857e+00	 2.857143e+00	 9.047029e+00
0	 5.214286e+00	 2.500000e+00	 9.165904e+00
0	 5.214286e+00	 2.571429e+00	 9.154690e+00
0	 5.214286e+00	 2.642857e+00	 9.141493e+00
0	 5.214286e+00	 2.714286e+00	 9.126313e+00
0	 5.214286e+00	 2.785714e+00	 9.109150e+00
0	 5.214286e+00	 2.857143e+00	 9.090004e+00
0	 5.285714e+00	 2.500000e+00	 9.209291e+00
0	 5.285714e+00	 2.571429e+00	 9.197433e+00
0	 5.285714e+00	 2.642857e+00	 9.183713e+00
0	 5.285714e+00	 2.714286e+00	 9.168131e+00
0	 5.285714e+00	 2.785714e+00	 9.150687e+00
0	 5.285714e+00	 2.857143e+00	 9.131381e+00
0	 5.357143e+00	 2.500000e+00	 9.250538e+00
0	 5.357143e+00	 2.571429e+00	 9.238144e+00
0	 5.357143e+00	 2.642857e+00	 9.224009e+00
0	 5.357143e+00	 2.714286e+00	 9.208134e+00
0	 5.357143e+00	 2.785714e+00	 9.190517e+00
0	 5.357143e+00	 2.857143e+00	 9.171159e+00
0	 5.000000e+00	 2.857143e+00	 8.956282e+00
0	 5.000000e+00	 2.928571e+00	 8.957630e+00
0	 5.000000e+00	 3.000000e+00	 8.956728e+00
0	 5.000000e+00	 3.071429e+00	 8.953576e+00
0	 5.000000e+00	 3.142857e+00	 8.948175e+00
0	 5.000000e+00	 3.214286e+00	 8.940525e+00
0	 5.071429e+00	 2.857143e+00	 9.002455e+00
0	 5.071429e+00	 2.928571e+00	 9.002517e+00
0	 5.071429e+00	 3.000000e+00	 9.000422e+00
0	 5.071429e+00	 3.071429e+00	 8.996169e+00
0	 5.071429e+00	 3.142857e+00	 8.989760e+00
0	 5.071429e+00	 3.214286e+00	 8.981194e+00
0	 5.142857e+00	 2.857143e+00	 9.047029e+00
0	 5.142857e+00	 2.928571e+00	 9.045918e+00
0	 5.142857e+00	 3.000000e+00	 9.042743e+00
0	 5.142857e+00	 3.071429e+00	 9.037503e+00
0	 5.142857e+00	 3.142857e+00	 9.030199e+00
0	 5.142857e+00	 3.214286e+00	 9.020831e+00
0	 5.214286e+00	 2.857143e+00	 9.090004e+00
0	 5.214286e+00	 2.928571e+00	 9.087834e+00
0	 5.214286e+00	 3.000000e+00	 9.083692e+00
0	 5.214286e+00	 3.071429e+00	 9.077578e+00
0	 5.214286e+00	 3.142857e+00	 9.069492e+00
0	 5.214286e+00	 3.214286e+00	 9.059435e+00
0	 5.285714e+00	 2.857143e+00	 9.131381e+00
0	 5.285714e+00	 2.928571e+00	 9.128264e+00
0	 5.285714e+00	 3.000000e+00	 9.123268e+00
0	 5.285714e+00	 3.071429e+00	 9.116393e+00
0	 5.285714e+00	 3.142857e+00	 9.107639e+00
0	 5.285714e+00	 3.214286e+00	 9.097006e+00
0	 5.357143e+00	 2.857143e+00	 9.171159e+00
0	 5.357143e+00	 2.928571e+00	 9.167209e+00
0	 5.357143e+00	 3.000000e+00	 9.161473e+00
0	 5.357143e+00	 3.071429e+00	 9.153950e+00
0	 5.357143e+00	 3.142857e+00	 9.144641e+00
0	 5.357143e+00	 3.214286e+00	 9.133545e+00
0	 5.000000e+00	 3.214286e+00	 8.940525e+00
0	 5.000000e+00	 3.285714e+00	 8.949852e+00
0	 5.000000e+00	 3.357143e+00	 8.957198e+00
0	 5.000000e+00	 3.428571e+00	 8.962562e+00
0	 5.000000e+00	 3.500000e+00	 8.965944e+00
0	 5.000000e+00	 3.571429e+00	 8.967343e+00
0	 5.071429e+00	 3.214286e+00	 8.981194e+00
0	 5.071429e+00	 3.285714e+00	 8.988996e+00
0	 5.071429e+00	 3.357143e+00	 8.994883e+00
0	 5.071429e+00	 3.428571e+00	 8.998855e+00
0	 5.071429e+00	 3.500000e+00	 9.000913e+00
0	 5.071429e+00	 3.571429e+00	 9.001056e+00
0	 5.142857e+00	 3.214286e+00	 9.020831e+00
0	 5.142857e+00	 3.285714e+00	 9.027245e+00
0	 5.142857e+00	 3.357143e+00	 9.031811e+00
0	 5.142857e+00	 3.428571e+00	 9.034531e+00
0	 5.142857e+00	 3.500000e+00	 9.035403e+00
0	 5.142857e+00	 3.571429e+00	 9.034428e+00
0	 5.214286e+00	 3.214286e+00	 9.059435e+00
0	 5.214286e+00	 3.285714e+00	 9.064600e+00
0	 5.214286e+00	 3.357143e+00	 9.067985e+00
0	 5.214286e+00	 3.428571e+00	 9.069590e+00
0	 5.214286e+00	 3.500000e+00	 9.069415e+00
0	 5.214286e+00	 3.571429e+00	 9.067461e+00
0	 5.285714e+00	 3.214286e+00	 9.097006e+00
0	 5.285714e+00	 3.285714e+00	 9.101060e+00
0	 5.285714e+00	 3.357143e+00	 9.103402e+00
0	 5.285714e+00	 3.428571e+00	 9.104032e+00
0	 5.285714e+00	 3.500000e+00	 9.102949e+00
0	 5.285714e+00	 3.571429e+00	 9.100154e+00
0	 5.357143e+00	 3.214286e+00	 9.133545e+00
0	 5.357143e+00	 3.285714e+00	 9.136627e+00
0	 5.357143e+00	 3.357143e+00	 9.138064e+00
0	 5.357143e+00	 3.428571e+00	 9.137857e+00
0	 5.357143e+00	 3.500000e+00	 9.136004e+00
0	 5.357143e+00	 3.571429e+00	 9.132507e+00
0	 5.000000e+00	 3.571429e+00	 8.967343e+00
0	 5.000000e+00	 3.642857e+00	 8.981974e+00
0	 5.000000e+00	 3.714286e+00	 8.995015e+00
0	 5.000000e+00	 3.785714e+00	 9.006469e+00
0	 5.000000e+00	 3.857143e+00	 9.016334e+00
0	 5.000000e+00	 3.928571e+00	 9.024610e+00
0	 5.071429e+00	 3.571429e+00	 9.001056e+00
0	 5.071429e+00	 3.642857e+00	 9.014269e+00
0	 5.071429e+00	 3.714286e+00	 9.025929e+00
0	 5.071429e+00	 3.785714e+00	 9.036035e+00
0	 5.071429e+00	 3.857143e+00	 9.044586e+00
0	 5.071429e+00	 3.928571e+00	 9.051583e+00
0	 5.142857e+00	 3.571429e+00	 9.034428e+00
0	 5.142857e+00	 3.642857e+00	 9.046325e+00
0	 5.142857e+00	 3.714286e+00	 9.056702e+00
0	 5.142857e+00	 3.785714e+00	 9.065559e+00
0	 5.142857e+00	 3.857143e+00	 9.072897e+00
0	 5.142857e+00	 3.928571e+00	 9.078714e+00
0	 5.214286e+00	 3.571429e+00	 9.067461e+00
0	 5.214286e+00	 3.642857e+00	 9.078140e+00
0	 5.214286e+00	 3.714286e+00	 9.087334e+00
0	 5.214286e+00	 3.785714e+00	 9.095043e+00
0	 5.214286e+00	 3.857143e+00	 9.101266e+00
0	 5.214286e+00	 3.928571e+00	 9.106003e+00
0	 5.285714e+00	 3.571429e+00	 9.100154e+00
0	 5.285714e+00	 3.642857e+00	 9.109716e+00
0	 5.285714e+00	 3.714286e+00	 9.117826e+00
0	 5.285714e+00	 3.785714e+00	 9.124485e+00
0	 5.285714e+00	 3.857143e+00	 9.129692e+00
0	 5.285714e+00	 3.928571e+00	 9.133449e+00
0	 5.357143e+00	 3.571429e+00	 9.132507e+00
0	 5.357143e+00	 3.642857e+00	 9.141050e+00
0	 5.357143e+00	 3.714286e+00	 9.148176e+00
0	 5.357143e+00	 3.785714e+00	 9.153885e+00
0	 5.357143e+00	 3.857143e+00	 9.158177e+00
0	 5.357143e+00	 3.928571e+00	 9.161053e+00
0	 5.000000e+00	 3.928571e+00	 9.024610e+00
0	 5.000000e+00	 4.000000e+00	 9.042603e+00
0	 5.000000e+00	 4.071429e+00	 9.059367e+00
0	 5.000000e+00	 4.142857e+00	 9.074900e+00
0	 5.000000e+00	 4.214286e+00	 9.089204e+00
0	 5.000000e+00	 4.285714e+00	 9.102279e+00
0	 5.071429e+00	 3.928571e+00	 9.051583e+00
0	 5.071429e+00	 4.000000e+00	 9.068252e+00
0	 5.071429e+00	 4.071429e+00	 9.083710e+00
0	 5.071429e+00	 4.142857e+00	 9.097955e+00
0	 5.071429e+00	 4.214286e+00	 9.110989e+00
0	 5.071429e+00	 4.285714e+00	 9.122812e+00
0	 5.142857e+00	 3.928571e+00	 9.078714e+00
0	 5.142857e+00	 4.000000e+00	 9.094147e+00
0	 5.142857e+00	 4.071429e+00	 9.108386e+00
0	 5.142857e+00	 4.142857e+00	 9.121432e+00
0	 5.142857e+00	 4.214286e+00	 9.133285e+00
0	 5.142857e+00	 4.285714e+00	 9.143943e+00
0	 5.214286e+00	 3.928571e+00	 9.106003e+00
0	 5.214286e+00	 4.000000e+00	 9.120288e+00
0	 5.214286e+00	 4.071429e+00	 9.133397e+00
0	 5.214286e+00	 4.142857e+00	 9.145331e+00
0	 5.214286e+00	 4.214286e+00	 9.156090e+00
0	 5.214286e+00	 4.285714e+00	 9.165673e+00
0	 5.285714e+00	 3.928571e+00	 9.133449e+00
0	 5.285714e+00	 4.000000e+00	 9.146674e+00
0	 5.285714e+00	 4.071429e+00	 9.158742e+00
0	 5.285714e+00	 4.142857e+00	 9.169652e+00
0	 5.285714e+00	 4.214286e+00	 9.179405e+00
0	 5.285714e+00	 4.285714e+00	 9.188000e+00
0	 5.357143e+00	 3.928571e+00	 9.161053e+00
0	 5.357143e+00	 4.000000e+00	 9.173306e+00
0	 5.357143e+00	 4.071429e+00	 9.184420e+00
0	 5.357143e+00	 4.142857e+00	 9.194394e+00
0	 5.357143e+00	 4.214286e+00	 9.203230e+00
0	 5.357143e+00	 4.285714e+00	 9.210926e+00
0	 5.000000e+00	 4.285714e+00	 9.102279e+00
0	 5.000000e+00	 4.357143e+00	 9.121757e+00
0	 5.000000e+00	 4.428571e+00	 9.140353e+00
0	 5.000000e+00	 4.500000e+00	 9.158068e+00
0	 5.000000e+00	 4.571429e+00	 9.174900e+00
0	 5.000000e+00	 4.642857e+00	 9.190850e+00
0	 5.071429e+00	 4.285714e+00	 9.122812e+00
0	 5.071429e+00	 4.357143e+00	 9.141208e+00
0	 5.071429e+00	 4.428571e+00	 9.158723e+00
0	 5.071429e+00	 4.500000e+00	 9.175356e+00
0	 5.071429e+00	 4.571429e+00	 9.191107e+00
0	 5.071429e+00	 4.642857e+00	 9.205976e+00
0	 5.142857e+00	 4.285714e+00	 9.143943e+00
0	 5.142857e+00	 4.357143e+00	 9.161308e+00
0	 5.142857e+00	 4.428571e+00	 9.177791e+00
0	 5.142857e+00	 4.500000e+00	 9.193392e+00
0	 5.142857e+00	 4.571429e+00	 9.208112e+00
0	 5.142857e+00	 4.642857e+00	 9.221951e+00
0	 5.214286e+00	 4.285714e+00	 9.165673e+00
0	 5.214286e+00	 4.357143e+00	 9.182055e+00
0	 5.214286e+00	 4.428571e+00	 9.197557e+00
0	 5.214286e+00	 4.500000e+00	 9.212177e+00
0	 5.214286e+00	 4.571429e+00	 9.225916e+00
0	 5.214286e+00	 4.642857e+00	 9.238774e+00
0	 5.285714e+00	 4.285714e+00	 9.188000e+00
0	 5.285714e+00	 4.357143e+00	 9.203451e+00
0	 5.285714e+00	 4.428571e+00	 9.218022e+00
0	 5.285714e+00	 4.500000e+00	 9.231711e+00
0	 5.285714e+00	 4.571429e+00	 9.244519e+00
0	 5.285714e+00	 4.642857e+00	 9.256447e+00
0	 5.357143e+00	 4.285714e+00	 9.210926e+00
0	 5.357143e+00	 4.357143e+00	 9.225496e+00
0	 5.357143e+00	 4.428571e+00	 9.239185e+00
0	 5.357143e+00	 4.500000e+00	 9.251994e+00
0	 5.357143e+00	 4.571429e+00	 9.263921e+00
0	 5.357143e+00	 4.642857e+00	 9.274969e+00
0	 5.000000e+00	 4.642857e+00	 9.190850e+00
0	 5.000000e+00	 4.714286e+00	 9.210647e+00
0	 5.000000e+00	 4.785714e+00	 9.229831e+00
0	 5.000000e+00	 4.857143e+00	 9.248400e+00
0	 5.000000e+00	 4.928571e+00	 9.266357e+00
0	 5.000000e+00	 5.000000e+00	 9.283700e+00
0	 5.071429e+00	 4.642857e+00	 9.205976e+00
0	 5.071429e+00	 4.714286e+00	 9.224882e+00
0	 5.071429e+00	 4.785714e+00	 9.243168e+00
0	 5.071429e+00	 4.857143e+00	 9.260836e+00
0	 5.071429e+00	 4.928571e+00	 9.277884e+00
0	 5.071429e+00	 5.000000e+00	 9.294313e+00
0	 5.142857e+00	 4.642857e+00	 9.221951e+00
0	 5.142857e+00	 4.714286e+00	 9.239998e+00
0	 5.142857e+00	 4.785714e+00	 9.257420e+00
0	 5.142857e+00	 4.857143e+00	 9.274217e+00
0	 5.142857e+00	 4.928571e+00	 9.290389e+00
0	 5.142857e+00	 5.000000e+00	 9.305936e+00
0	 5.214286e+00	 4.642857e+00	 9.238774e+00
0	 5.214286e+00	 4.714286e+00	 9.255995e+00
0	 5.214286e+00	 4.785714e+00	 9.272585e+00
0	 5.214286e+00	 4.857143e+00	 9.288544e+00
0	 5.214286e+00	 4.928571e+00	 9.303872e+00
0	 5.214286e+00	 5.000000e+00	 9.318569e+00
0	 5.285714e+00	 4.642857e+00	 9.256447e+00
0	 5.285714e+00	 4.714286e+00	 9.272873e+00
0	 5.285714e+00	 4.785714e+00	 9.288663e+00
0	 5.285714e+00	 4.857143e+00	 9.303816e+00
0	 5.285714e+00	 4.928571e+00	 9.318333e+00
0	 5.285714e+00	 5.000000e+00	 9.332213e+00
0	 5.357143e+00	 4.642857e+00	 9.274969e+00
0	 5.357143e+00	 4.714286e+00	 9.290633e+00
0	 5.357143e+00	 4.785714e+00	 9.305655e+00
0	 5.357143e+00	 4.857143e+00	 9.320035e+00
0	 5.357143e+00	 4.928571e+00	 9.333772e+00
0	 5.357143e+00	 5.000000e+00	 9.346867e+00
0	 5.000000e+00	 5.000000e+00	 9.283700e+00
0	 5.000000e+00	 5.071429e+00	 9.302893e+00
0	 5.000000e+00	 5.142857e+00	 9.321694e+00
0	 5.000000e+00	 5.214286e+00	 9.340103e+00
0	 5.000000e+00	 5.285714e+00	 9.358120e+00
0	 5.000000e+00	 5.357143e+00	 9.375745e+00
0	 5.071429e+00	 5.000000e+00	 9.294313e+00
0	 5.071429e+00	 5.071429e+00	 9.312830e+00
0	 5.071429e+00	 5.142857e+00	 9.330944e+00
0	 5.071429e+00	 5.214286e+00	 9.348654e+00
0	 5.071429e+00	 5.285714e+00	 9.365961e+00
0	 5.071429e+00	 5.357143e+00	 9.382864e+00
0	 5.142857e+00	 5.000000e+00	 9.305936e+00
0	 5.142857e+00	 5.071429e+00	 9.323787e+00
0	 5.142857e+00	 5.142857e+00	 9.341223e+00
0	 5.142857e+00	 5.214286e+00	 9.358244e+00
0	 5.142857e+00	 5.285714e+00	 9.374850e+00
0	 5.142857e+00	 5.357143e+00	 9.391042e+00
0	 5.214286e+00	 5.000000e+00	 9.318569e+00
0	 5.214286e+00	 5.071429e+00	 9.335763e+00
0	 5.214286e+00	 5.142857e+00	 9.352531e+00
0	 5.214286e+00	 5.214286e+00	 9.368872e+00
0	 5.214286e+00	 5.285714e+00	 9.384787e+00
0	 5.214286e+00	 5.357143e+00	 9.400276e+00
0	 5.285714e+00	 5.000000e+00	 9.332213e+00
0	 5.285714e+00	 5.071429e+00	 9.348759e+00
0	 5.285714e+00	 5.142857e+00	 9.364868e+00
0	 5.285714e+00	 5.214286e+00	 9.380539e+00
0	 5.285714e+00	 5.285714e+00	 9.395772e+00
0	 5.285714e+00	 5.357143e+00	 9.410568e+00
0	 5.357143e+00	 5.000000e+00	 9.346867e+00
0	 5.357143e+00	 5.071429e+00	 9.362775e+00
0	 5.357143e+00	 5.142857e+00	 9.378234e+00
0	 5.357143e+00	 5.214286e+00	 9.393244e+00
0	 5.357143e+00	 5.285714e+00	 9.407806e+00
0	 5.357143e+00	 5.357143e+00	 9.421918e+00
0	 5.000000e+00	 5.357143e+00	 9.375745e+00
0	 5.000000e+00	 5.428571e+00	 9.393828e+00
0	 5.000000e+00	 5.500000e+00	 9.411680e+00
0	 5.000000e+00	 5.571429e+00	 9.429300e+00
0	 5.000000e+00	 5.642857e+00	 9.446689e+00
0	 5.000000e+00	 5.714286e+00	 9.463846e+00
0	 5.071429e+00	 5.357143e+00	 9.382864e+00
0	 5.071429e+00	 5.428571e+00	 9.400439e+00
0	 5.071429e+00	 5.500000e+00	 9.417770e+00
0	 5.071429e+00	 5.571429e+00	 9.434858e+00
0	 5.071429e+00	 5.642857e+00	 9.451703e+00
0	 5.071429e+00	 5.714286e+00	 9.468305e+00
0	 5.142857e+00	 5.357143e+00	 9.391042e+00
0	 5.142857e+00	 5.428571e+00	 9.408105e+00
0	 5.142857e+00	 5.500000e+00	 9.424914e+00
0	 5.142857e+00	 5.571429e+00	 9.441467e+00
0	 5.142857e+00	 5.642857e+00	 9.457765e+00
0	 5.142857e+00	 5.714286e+00	 9.473808e+00
0	 5.214286e+00	 5.357143e+00	 9.400276e+00
0	 5.214286e+00	 5.428571e+00	 9.416826e+00
0	 5.214286e+00	 5.500000e+00	 9.433109e+00
0	 5.214286e+00	 5.571429e+00	 9.449125e+00
0	 5.214286e+00	 5.642857e+00	 9.464874e+00
0	 5.214286e+00	 5.714286e+00	 9.480357e+00
0	 5.285714e+00	 5.357143e+00	 9.410568e+00
0	 5.285714e+00	 5.428571e+00	 9.426602e+00
0	 5.285714e+00	 5.500000e+00	 9.442358e+00
0	 5.285714e+00	 5.571429e+00	 9.457834e+00
0	 5.285714e+00	 5.642857e+00	 9.473031e+00
0	 5.285714e+00	 5.714286e+00	 9.487950e+00
0	 5.357143e+00	 5.357143e+00	 9.421918e+00
0	 5.357143e+00	 5.428571e+00	 9.437433e+00
0	 5.357143e+00	 5.500000e+00	 9.452658e+00
0	 5.357143e+00	 5.571429e+00	 9.467592e+00
0	 5.357143e+00	 5.642857e+00	 9.482236e+00
0	 5.357143e+00	 5.714286e+00	 9.496589e+00
0	 5.000000e+00	 5.714286e+00	 9.463846e+00
0	 5.000000e+00	 5.785714e+00	 9.480503e+00
0	 5.000000e+00	 5.857143e+00	 9.497049e+00
0	 5.000000e+00	 5.928571e+00	 9.513485e+00
0	 5.000000e+00	 6.000000e+00	 9.529811e+00
0	 5.000000e+00	 6.071429e+00	 9.546027e+00
0	 5.071429e+00	 5.714286e+00	 9.468305e+00
0	 5.071429e+00	 5.785714e+00	 9.484601e+00
0	 5.071429e+00	 5.857143e+00	 9.500776e+00
0	 5.071429e+00	 5.928571e+00	 9.516828e+00
0	 5.071429e+00	 6.000000e+00	 9.532759e+00
0	 5.071429e+00	 6.071429e+00	 9.548567e+00
0	 5.142857e+00	 5.714286e+00	 9.473808e+00
0	 5.142857e+00	 5.785714e+00	 9.489732e+00
0	 5.142857e+00	 5.857143e+00	 9.505522e+00
0	 5.142857e+00	 5.928571e+00	 9.521178e+00
0	 5.142857e+00	 6.000000e+00	 9.536700e+00
0	 5.142857e+00	 6.071429e+00	 9.552088e+00
0	 5.214286e+00	 5.714286e+00	 9.480357e+00
0	 5.214286e+00	 5.785714e+00	 9.495895e+00
0	 5.214286e+00	 5.857143e+00	 9.511288e+00
0	 5.214286e+00	 5.928571e+00	 9.526534e+00
0	 5.214286e+00	 6.000000e+00	 9.541635e+00
0	 5.214286e+00	 6.071429e+00	 9.556590e+00
0	 5.285714e+00	 5.714286e+00	 9.487950e+00
0	 5.285714e+00	 5.785714e+00	 9.503090e+00
0	 5.285714e+00	 5.857143e+00	 9.518073e+00
0	 5.285714e+00	 5.928571e+00	 9.532897e+00
0	 5.285714e+00	 6.000000e+00	 9.547564e+00
0	 5.285714e+00	 6.071429e+00	 9.562072e+00
0	 5.357143e+00	 5.714286e+00	 9.496589e+00
0	 5.357143e+00	 5.785714e+00	 9.511318e+00
0	 5.357143e+00	 5.857143e+00	 9.525877e+00
0	 5.357143e+00	 5.928571e+00	 9.540266e+00
0	 5.357143e+00	 6.000000e+00	 9.554486e+00
0	 5.357143e+00	 6.071429e+00	 9.568536e+00
0	 5.000000e+00	 6.071429e+00	 9.546027e+00
0	 5.000000e+00	 6.142857e+00	 9.561136e+00
0	 5.000000e+00	 6.214286e+00	 9.576220e+00
0	 5.000000e+00	 6.285714e+00	 9.591280e+00
0	 5.000000e+00	 6.357143e+00	 9.606314e+00
0	 5.000000e+00	 6.428571e+00	 9.621324e+00
0	 5.071429e+00	 6.071429e+00	 9.548567e+00
0	 5.071429e+00	 6.142857e+00	 9.563430e+00
0	 5.071429e+00	 6.214286e+00	 9.578257e+00
0	 5.071429e+00	 6.285714e+00	 9.593050e+00
0	 5.071429e+00	 6.357143e+00	 9.607807e+00
0	 5.071429e+00	 6.428571e+00	 9.622529e+00
0	 5.142857e+00	 6.071429e+00	 9.552088e+00
0	 5.142857e+00	 6.142857e+00	 9.566686e+00
0	 5.142857e+00	 6.214286e+00	 9.581239e+00
0	 5.142857e+00	 6.285714e+00	 9.595746e+00
0	 5.142857e+00	 6.357143e+00	 9.610208e+00
0	 5.142857e+00	 6.428571e+00	 9.624624e+00
0	 5.214286e+00	 6.071429e+00	 9.556590e+00
0	 5.214286e+00	 6.142857e+00	 9.570906e+00
0	 5.214286e+00	 6.214286e+00	 9.585166e+00
0	 5.214286e+00	 6.285714e+00	 9.599370e+00
0	 5.214286e+00	 6.357143e+00	 9.613518e+00
0	 5.214286e+00	 6.428571e+00	 9.627610e+00
0	 5.285714e+00	 6.071429e+00	 9.562072e+00
0	 5.285714e+00	 6.142857e+00	 9.576088e+00
0	 5.285714e+00	 6.214286e+00	 9.590037e+00
0	 5.285714e+00	 6.285714e+00	 9.603919e+00
0	 5.285714e+00	 6.357143e+00	 9.617736e+00
0	 5.285714e+00	 6.428571e+00	 9.631486e+00
0	 5.357143e+00	 6.071429e+00	 9.568536e+00
0	 5.357143e+00	 6.142857e+00	 9.582232e+00
0	 5.357143e+00	 6.214286e+00	 9.595852e+00
0	 5.357143e+00	 6.285714e+00	 9.609396e+00
0	 5.357143e+00	 6.357143e+00	 9.622862e+00
0	 5.357143e+00	 6.428571e+00	 9.636252e+00
0	 5.000000e+00	 6.428571e+00	 9.621324e+00
0	 5.000000e+00	 6.500000e+00	 9.634864e+00
0	 5.000000e+00	 6.571429e+00	 9.648440e+00
0	 5.000000e+00	 6.642857e+00	 9.662054e+00
0	 5.000000e+00	 6.714286e+00	 9.675704e+00
0	 5.000000e+00	 6.785714e+00	 9.689392e+00
0	 5.071429e+00	 6.428571e+00	 9.622529e+00
0	 5.071429e+00	 6.500000e+00	 9.635912e+00
0	 5.071429e+00	 6.571429e+00	 9.649324e+00
0	 5.071429e+00	 6.642857e+00	 9.662763e+00
0	 5.071429e+00	 6.714286e+00	 9.676231e+00
0	 5.071429e+00	 6.785714e+00	 9.689727e+00
0	 5.142857e+00	 6.428571e+00	 9.624624e+00
0	 5.142857e+00	 6.500000e+00	 9.637830e+00
0	 5.142857e+00	 6.571429e+00	 9.651054e+00
0	 5.142857e+00	 6.642857e+00	 9.664299e+00
0	 5.142857e+00	 6.714286e+00	 9.677562e+00
0	 5.142857e+00	 6.785714e+00	 9.690845e+00
0	 5.214286e+00	 6.428571e+00	 9.627610e+00
0	 5.214286e+00	 6.500000e+00	 9.640616e+00
0	 5.214286e+00	 6.571429e+00	 9.653633e+00
0	 5.214286e+00	 6.642857e+00	 9.666661e+00
0	 5.214286e+00	 6.714286e+00	 9.679699e+00
0	 5.214286e+00	 6.785714e+00	 9.692748e+00
0	 5.285714e+00	 6.428571e+00	 9.631486e+00
0	 5.285714e+00	 6.500000e+00	 9.644272e+00
0	 5.285714e+00	 6.571429e+00	 9.657059e+00
0	 5.285714e+00	 6.642857e+00	 9.669849e+00
0	 5.285714e+00	 6.714286e+00	 9.682640e+00
0	 5.285714e+00	 6.785714e+00	 9.695434e+00
0	 5.357143e+00	 6.428571e+00	 9.636252e+00
0	 5.357143e+00	 6.500000e+00	 9.648796e+00
0	 5.357143e+00	 6.571429e+00	 9.661333e+00
0	 5.357143e+00	 6.642857e+00	 9.673864e+00
0	 5.357143e+00	 6.714286e+00	 9.686387e+00
0	 5.357143e+00	 6.785714e+00	 9.698904e+00
0	 5.000000e+00	 6.785714e+00	 9.689392e+00
0	 5.000000e+00	 6.857143e+00	 9.701412e+00
0	 5.000000e+00	 6.928571e+00	 9.713515e+00
0	 5.000000e+00	 7.000000e+00	 9.725698e+00
0	 5.000000e+00	 7.071429e+00	 9.737963e+00
0	 5.000000e+00	 7.142857e+00	 9.750308e+00
0	 5.071429e+00	 6.785714e+00	 9.689727e+00
0	 5.071429e+00	 6.857143e+00	 9.701657e+00
0	 5.071429e+00	 6.928571e+00	 9.713661e+00
0	 5.071429e+00	 7.000000e+00	 9.725740e+00
0	 5.071429e+00	 7.071429e+00	 9.737893e+00
0	 5.071429e+00	 7.142857e+00	 9.750121e+00
0	 5.142857e+00	 6.785714e+00	 9.690845e+00
0	 5.142857e+00	 6.857143e+00	 9.702662e+00
0	 5.142857e+00	 6.928571e+00	 9.714547e+00
0	 5.142857e+00	 7.000000e+00	 9.726499e+00
0	 5.142857e+00	 7.071429e+00	 9.738519e+00
0	 5.142857e+00	 7.142857e+00	 9.750606e+00
0	 5.214286e+00	 6.785714e+00	 9.692748e+00
0	 5.214286e+00	 6.857143e+00	 9.704429e+00
0	 5.214286e+00	 6.928571e+00	 9.716172e+00
0	 5.214286e+00	 7.000000e+00	 9.727975e+00
0	 5.214286e+00	 7.071429e+00	 9.739839e+00
0	 5.214286e+00	 7.142857e+00	 9.751764e+00
0	 5.285714e+00	 6.785714e+00	 9.695434e+00
0	 5.285714e+00	 6.857143e+00	 9.706958e+00
0	 5.285714e+00	 6.928571e+00	 9.718536e+00
0	 5.285714e+00	 7.000000e+00	 9.730168e+00
0	 5.285714e+00	 7.071429e+00	 9.741854e+00
0	 5.285714e+00	 7.142857e+00	 9.753594e+00
0	 5.357143e+00	 6.785714e+00	 9.698904e+00
0	 5.357143e+00	 6.857143e+00	 9.710248e+00
0	 5.357143e+00	 6.928571e+00	 9.721640e+00
0	 5.357143e+00	 7.000000e+00	 9.733078e+00
0	 5.357143e+00	 7.071429e+00	 9.744564e+00
0	 5.357143e+00	 7.142857e+00	 9.756097e+00
0	 5.000000e+00	 7.142857e+00	 9.750308e+00
0	 5.000000e+00	 7.214286e+00	 9.760890e+00
0	 5.000000e+00	 7.285714e+00	 9.771587e+00
0	 5.000000e+00	 7.357143e+00	 9.782400e+00
0	 5.000000e+00	 7.428571e+00	 9.793328e+00
0	 5.000000e+00	 7.500000e+00	 9.804372e+00
0	 5.071429e+00	 7.142857e+00	 9.750121e+00
0	 5.071429e+00	 7.214286e+00	 9.760659e+00
0	 5.071429e+00	 7.285714e+00	 9.771307e+00
0	 5.071429e+00	 7.357143e+00	 9.782067e+00
0	 5.071429e+00	 7.428571e+00	 9.792936e+00
0	 5.071429e+00	 7.500000e+00	 9.803916e+00
0	 5.142857e+00	 7.142857e+00	 9.750606e+00
0	 5.142857e+00	 7.214286e+00	 9.761079e+00
0	 5.142857e+00	 7.285714e+00	 9.771657e+00
0	 5.142857e+00	 7.357143e+00	 9.782340e+00
0	 5.142857e+00	 7.428571e+00	 9.793129e+00
0	 5.142857e+00	 7.500000e+00	 9.804024e+00
0	 5.214286e+00	 7.142857e+00	 9.751764e+00
0	 5.214286e+00	 7.214286e+00	 9.762149e+00
0	 5.214286e+00	 7.285714e+00	 9.772635e+00
0	 5.214286e+00	 7.357143e+00	 9.783221e+00
0	 5.214286e+00	 7.428571e+00	 9.793907e+00
0	 5.214286e+00	 7.500000e+00	 9.804694e+00
0	 5.285714e+00	 7.142857e+00	 9.753594e+00
0	 5.285714e+00	 7.214286e+00	 9.763870e+00
0	 5.285714e+00	 7.285714e+00	 9.774241e+00
0	 5.285714e+00	 7.357143e+00	 9.784708e+00
0	 5.285714e+00	 7.428571e+00	 9.795270e+00
0	 5.285714e+00	 7.500000e+00	 9.805927e+00
0	 5.357143e+00	 7.142857e+00	 9.756097e+00
0	 5.357143e+00	 7.214286e+00	 9.766242e+00
0	 5.357143e+00	 7.285714e+00	 9.776477e+00
0	 5.357143e+00	 7.357143e+00	 9.786802e+00
0	 5.357143e+00	 7.428571e+00	 9.797218e+00
0	 5.357143e+00	 7.500000e+00	 9.807724e+00
0	 5.000000e+00	 7.500000e+00	 9.804372e+00
0	 5.000000e+00	 7.571429e+00	 9.813599e+00
0	 5.000000e+00	 7.642857e+00	 9.822971e+00
0	 5.000000e+00	 7.714286e+00	 9.832488e+00
0	 5.000000e+00	 7.785714e+00	 9.842152e+00
0	 5.000000e+00	 7.857143e+00	 9.851960e+00
0	 5.071429e+00	 7.500000e+00	 9.803916e+00
0	 5.071429e+00	 7.571429e+00	 9.813131e+00
0	 5.071429e+00	 7.642857e+00	 9.822487e+00
0	 5.071429e+00	 7.714286e+00	 9.831986e+00
0	 5.071429e+00	 7.785714e+00	 9.841626e+00
0	 5.071429e+00	 7.857143e+00	 9.851409e+00
0	 5.142857e+00	 7.500000e+00	 9.804024e+00
0	 5.142857e+00	 7.571429e+00	 9.813206e+00
0	 5.142857e+00	 7.642857e+00	 9.822526e+00
0	 5.142857e+00	 7.714286e+00	 9.831985e+00
0	 5.142857e+00	 7.785714e+00	 9.841582e+00
0	 5.142857e+00	 7.857143e+00	 9.851319e+00
0	 5.214286e+00	 7.500000e+00	 9.804694e+00
0	 5.214286e+00	 7.571429e+00	 9.813823e+00
0	 5.214286e+00	 7.642857e+00	 9.823087e+00
0	 5.214286e+00	 7.714286e+00	 9.832485e+00
0	 5.214286e+00	 7.785714e+00	 9.842019e+00
0	 5.214286e+00	 7.857143e+00	 9.851689e+00
0	 5.285714e+00	 7.500000e+00	 9.805927e+00
0	 5.285714e+00	 7.571429e+00	 9.814982e+00
0	 5.285714e+00	 7.642857e+00	 9.824169e+00
0	 5.285714e+00	 7.714286e+00	 9.833488e+00
0	 5.285714e+00	 7.785714e+00	 9.842938e+00
0	 5.285714e+00	 7.857143e+00	 9.852519e+00
0	 5.357143e+00	 7.500000e+00	 9.807724e+00
0	 5.357143e+00	 7.571429e+00	 9.816685e+00
0	 5.357143e+00	 7.642857e+00	 9.825774e+00
0	 5.357143e+00	 7.714286e+00	 9.834991e+00
0	 5.357143e+00	 7.785714e+00	 9.844337e+00
0	 5.357143e+00	 7.857143e+00	 9.853811e+00
0	 5.000000e+00	 7.857143e+00	 9.851960e+00
0	 5.000000e+00	 7.928571e+00	 9.859897e+00
0	 5.000000e+00	 8.000000e+00	 9.868011e+00
0	 5.000000e+00	 8.071429e+00	 9.876300e+00
0	 5.000000e+00	 8.142857e+00	 9.884765e+00
0	 5.000000e+00	 8.214286e+00	 9.893407e+00
0	 5.071429e+00	 7.857143e+00	 9.851409e+00
0	 5.071429e+00	 7.928571e+00	 9.859352e+00
0	 5.071429e+00	 8.000000e+00	 9.867470e+00
0	 5.071429e+00	 8.071429e+00	 9.875761e+00
0	 5.071429e+00	 8.142857e+00	 9.884227e+00
0	 5.071429e+00	 8.214286e+00	 9.892866e+00
0	 5.142857e+00	 7.857143e+00	 9.851319e+00
0	 5.142857e+00	 7.928571e+00	 9.859250e+00
0	 5.142857e+00	 8.000000e+00	 9.867353e+00
0	 5.142857e+00	 8.071429e+00	 9.875628e+00
0	 5.142857e+00	 8.142857e+00	 9.884076e+00
0	 5.142857e+00	 8.214286e+00	 9.892695e+00
0	 5.214286e+00	 7.857143e+00	 9.851689e+00
0	 5.214286e+00	 7.928571e+00	 9.859590e+00
0	 5.214286e+00	 8.000000e+00	 9.867661e+00
0	 5.214286e+00	 8.071429e+00	 9.875902e+00
0	 5.214286e+00	 8.142857e+00	 9.884313e+00
0	 5.214286e+00	 8.214286e+00	 9.892894e+00
0	 5.285714e+00	 7.857143e+00	 9.852519e+00
0	 5.285714e+00	 7.928571e+00	 9.860372e+00
0	 5.285714e+00	 8.000000e+00	 9.868393e+00
0	 5.285714e+00	 8.071429e+00	 9.876581e+00
0	 5.285714e+00	 8.142857e+00	 9.884938e+00
0	 5.285714e+00	 8.214286e+00	 9.893462e+00
0	 5.357143e+00	 7.857143e+00	 9.853811e+00
0	 5.357143e+00	 7.928571e+00	 9.861597e+00
0	 5.357143e+00	 8.000000e+00	 9.869549e+00
0	 5.357143e+00	 8.071429e+00	 9.877667e+00
0	 5.357143e+00	 8.142857e+00	 9.885950e+00
0	 5.357143e+00	 8.214286e+00	 9.894400e+00
0	 5.000000e+00	 8.214286e+00	 9.893407e+00
0	 5.000000e+00	 8.285714e+00	 9.900078e+00
0	 5.000000e+00	 8.357143e+00	 9.906962e+00
0	 5.000000e+00	 8.428571e+00	 9.914058e+00
0	 5.000000e+00	 8.500000e+00	 9.921368e+00
0	 5.000000e+00	 8.571429e+00	 9.928890e+00
0	 5.071429e+00	 8.214286e+00	 9.892866e+00
0	 5.071429e+00	 8.285714e+00	 9.899551e+00
0	 5.071429e+00	 8.357143e+00	 9.906448e+00
0	 5.071429e+00	 8.428571e+00	 9.913557e+00
0	 5.071429e+00	 8.500000e+00	 9.920877e+00
0	 5.071429e+00	 8.571429e+00	 9.928409e+00
0	 5.142857e+00	 8.214286e+00	 9.892695e+00
0	 5.142857e+00	 8.285714e+00	 9.899379e+00
0	 5.142857e+00	 8.357143e+00	 9.906274e+00
0	 5.142857e+00	 8.428571e+00	 9.913380e+00
0	 5.142857e+00	 8.500000e+00	 9.920696e+00
0	 5.142857e+00	 8.571429e+00	 9.928223e+00
0	 5.214286e+00	 8.214286e+00	 9.892894e+00
0	 5.214286e+00	 8.285714e+00	 9.899562e+00
0	 5.214286e+00	 8.357143e+00	 9.906439e+00
0	 5.214286e+00	 8.428571e+00	 9.913527e+00
0	 5.214286e+00	 8.500000e+00	 9.920824e+00
0	 5.214286e+00	 8.571429e+00	 9.928331e+00
0	 5.285714e+00	 8.214286e+00	 9.893462e+00
0	 5.285714e+00	 8.285714e+00	 9.900099e+00
0	 5.285714e+00	 8.357143e+00	 9.906944e+00
0	 5.285714e+00	 8.428571e+00	 9.913999e+00
0	 5.285714e+00	 8.500000e+00	 9.921262e+00
0	 5.285714e+00	 8.571429e+00	 9.928734e+00
0	 5.357143e+00	 8.214286e+00	 9.894400e+00
0	 5.357143e+00	 8.285714e+00	 9.900990e+00
0	 5.357143e+00	 8.357143e+00	 9.907788e+00
0	 5.357143e+00	 8.428571e+00	 9.914794e+00
0	 5.357143e+00	 8.500000e+00	 9.922008e+00
0	 5.357143e+00	 8.571429e+00	 9.929430e+00
0	 5.000000e+00	 8.571429e+00	 9.928890e+00
0	 5.000000e+00	 8.642857e+00	 9.934256e+00
0	 5.000000e+00	 8.714286e+00	 9.939884e+00
0	 5.000000e+00	 8.785714e+00	 9.945772e+00
0	 5.000000e+00	 8.857143e+00	 9.951920e+00
0	 5.000000e+00	 8.928571e+00	 9.958330e+00
0	 5.071429e+00	 8.571429e+00	 9.928409e+00
0	 5.071429e+00	 8.642857e+00	 9.933790e+00
0	 5.071429e+00	 8.714286e+00	 9.939431e+00
0	 5.071429e+00	 8.785714e+00	 9.945332e+00
0	 5.071429e+00	 8.857143e+00	 9.951493e+00
0	 5.071429e+00	 8.928571e+00	 9.957915e+00
0	 5.142857e+00	 8.571429e+00	 9.928223e+00
0	 5.142857e+00	 8.642857e+00	 9.933606e+00
0	 5.142857e+00	 8.714286e+00	 9.939249e+00
0	 5.142857e+00	 8.785714e+00	 9.945152e+00
0	 5.142857e+00	 8.857143e+00	 9.951315e+00
0	 5.142857e+00	 8.928571e+00	 9.957739e+00
0	 5.214286e+00	 8.571429e+00	 9.928331e+00
0	 5.214286e+00	 8.642857e+00	 9.933705e+00
0	 5.214286e+00	 8.714286e+00	 9.939339e+00
0	 5.214286e+00	 8.785714e+00	 9.945233e+00
0	 5.214286e+00	 8.857143e+00	 9.951387e+00
0	 5.214286e+00	 8.928571e+00	 9.957800e+00
0	 5.285714e+00	 8.571429e+00	 9.928734e+00
0	 5.285714e+00	 8.642857e+00	 9.934088e+00
0	 5.285714e+00	 8.714286e+00	 9.939701e+00
0	 5.285714e+00	 8.785714e+00	 9.945574e+00
0	 5.285714e+00	 8.857143e+00	 9.951707e+00
0	 5.285714e+00	 8.928571e+00	 9.958100e+00
0	 5.357143e+00	 8.571429e+00	 9.929430e+00
0	 5.357143e+00	 8.642857e+00	 9.934753e+00
0	 5.357143e+00	 8.714286e+00	 9.940335e+00
0	 5.357143e+00	 8.785714e+00	 9.946176e+00
0	 5.357143e+00	 8.857143e+00	 9.952277e+00
0	 5.357143e+00	 8.928571e+00	 9.958638e+00
0	 5.000000e+00	 8.928571e+00	 9.958330e+00
0	 5.000000e+00	 9.000000e+00	 9.962258e+00
0	 5.000000e+00	 9.071429e+00	 9.966512e+00
0	 5.000000e+00	 9.142857e+00	 9.971092e+00
0	 5.000000e+00	 9.214286e+00	 9.975998e+00
0	 5.000000e+00	 9.285714e+00	 9.981229e+00
0	 5.071429e+00	 8.928571e+00	 9.957915e+00
0	 5.071429e+00	 9.000000e+00	 9.961850e+00
0	 5.071429e+00	 9.071429e+00	 9.966111e+00
0	 5.071429e+00	 9.142857e+00	 9.970698e+00
0	 5.071429e+00	 9.214286e+00	 9.975610e+00
0	 5.071429e+00	 9.285714e+00	 9.980849e+00
0	 5.142857e+00	 8.928571e+00	 9.957739e+00
0	 5.142857e+00	 9.000000e+00	 9.961674e+00
0	 5.142857e+00	 9.071429e+00	 9.965935e+00
0	 5.142857e+00	 9.142857e+00	 9.970523e+00
0	 5.142857e+00	 9.214286e+00	 9.975436e+00
0	 5.142857e+00	 9.285714e+00	 9.980676e+00
0	 5.214286e+00	 8.928571e+00	 9.957800e+00
0	 5.214286e+00	 9.000000e+00	 9.961730e+00
0	 5.214286e+00	 9.071429e+00	 9.965985e+00
0	 5.214286e+00	 9.142857e+00	 9.970567e+00
0	 5.214286e+00	 9.214286e+00	 9.975475e+00
0	 5.214286e+00	 9.285714e+00	 9.980709e+00
0	 5.285714e+00	 8.928571e+00	 9.958100e+00
0	 5.285714e+00	 9.000000e+00	 9.962017e+00
0	 5.285714e+00	 9.071429e+00	 9.966261e+00
0	 5.285714e+00	 9.142857e+00	 9.970831e+00
0	 5.285714e+00	 9.214286e+00	 9.975727e+00
0	 5.285714e+00	 9.285714e+00	 9.980949e+00
0	 5.357143e+00	 8.928571e+00	 9.958638e+00
0	 5.357143e+00	 9.000000e+00	 9.962537e+00
0	 5.357143e+00	 9.071429e+00	 9.966762e+00
0	 5.357143e+00	 9.142857e+00	 9.971314e+00
0	 5.357143e+00	 9.214286e+00	 9.976192e+00
0	 5.357143e+00	 9.285714e+00	 9.981397e+00
0	 5.000000e+00	 9.285714e+00	 9.981229e+00
0	 5.000000e+00	 9.357143e+00	 9.983490e+00
0	 5.000000e+00	 9.428571e+00	 9.986166e+00
0	 5.000000e+00	 9.500000e+00	 9.989258e+00
0	 5.000000e+00	 9.571429e+00	 9.992764e+00
0	 5.000000e+00	 9.642857e+00	 9.996686e+00
0	 5.071429e+00	 9.285714e+00	 9.980849e+00
0	 5.071429e+00	 9.357143e+00	 9.983105e+00
0	 5.071429e+00	 9.428571e+00	 9.985776e+00
0	 5.071429e+00	 9.500000e+00	 9.988863e+00
0	 5.071429e+00	 9.571429e+00	 9.992364e+00
0	 5.071429e+00	 9.642857e+00	 9.996281e+00
0	 5.142857e+00	 9.285714e+00	 9.980676e+00
0	 5.142857e+00	 9.357143e+00	 9.982927e+00
0	 5.142857e+00	 9.428571e+00	 9.985593e+00
0	 5.142857e+00	 9.500000e+00	 9.988674e+00
0	 5.142857e+00	 9.571429e+00	 9.992171e+00
0	 5.142857e+00	 9.642857e+00	 9.996082e+00
0	 5.214286e+00	 9.285714e+00	 9.980709e+00
0	 5.214286e+00	 9.357143e+00	 9.982955e+00
0	 5.214286e+00	 9.428571e+00	 9.985617e+00
0	 5.214286e+00	 9.500000e+00	 9.988693e+00
0	 5.214286e+00	 9.571429e+00	 9.992185e+00
0	 5.214286e+00	 9.642857e+00	 9.996092e+00
0	 5.285714e+00	 9.285714e+00	 9.980949e+00
0	 5.285714e+00	 9.357143e+00	 9.983191e+00
0	 5.285714e+00	 9.428571e+00	 9.985848e+00
0	 5.285714e+00	 9.500000e+00	 9.988919e+00
0	 5.285714e+00	 9.571429e+00	 9.992406e+00
0	 5.285714e+00	 9.642857e+00	 9.996308e+00
0	 5.357143e+00	 9.285714e+00	 9.981397e+00
0	 5.357143e+00	 9.357143e+00	 9.983634e+00
0	 5.357143e+00	 9.428571e+00	 9.986286e+00
0	 5.357143e+00	 9.500000e+00	 9.989353e+00
0	 5.357143e+00	 9.571429e+00	 9.992835e+00
0	 5.357143e+00	 9.642857e+00	 9.996732e+00
0	 5.000000e+00	 9.642857e+00	 9.996686e+00
0	 5.000000e+00	 9.714286e+00	 9.996797e+00
0	 5.000000e+00	 9.785714e+00	 9.997447e+00
0	 5.000000e+00	 9.857143e+00	 9.998636e+00
0	 5.000000e+00	 9.928571e+00	 1.000036e+01
0	 5.000000e+00	 1.000000e+01	 1.000263e+01
0	 5.071429e+00	 9.642857e+00	 9.996281e+00
0	 5.071429e+00	 9.714286e+00	 9.996374e+00
0	 5.071429e+00	 9.785714e+00	 9.997005e+00
0	 5.071429e+00	 9.857143e+00	 9.998174e+00
0	 5.071429e+00	 9.928571e+00	 9.999881e+00
0	 5.071429e+00	 1.000000e+01	 1.000213e+01
0	 5.142857e+00	 9.642857e+00	 9.996082e+00
0	 5.142857e+00	 9.714286e+00	 9.996166e+00
0	 5.142857e+00	 9.785714e+00	 9.996787e+00
0	 5.142857e+00	 9.857143e+00	 9.997945e+00
0	 5.142857e+00	 9.928571e+00	 9.999639e+00
0	 5.142857e+00	 1.000000e+01	 1.000187e+01
0	 5.214286e+00	 9.642857e+00	 9.996092e+00
0	 5.214286e+00	 9.714286e+00	 9.996174e+00
0	 5.214286e+00	 9.785714e+00	 9.996793e+00
0	 5.214286e+00	 9.857143e+00	 9.997948e+00
0	 5.214286e+00	 9.928571e+00	 9.999638e+00
0	 5.214286e+00	 1.000000e+01	 1.000187e+01
0	 5.285714e+00	 9.642857e+00	 9.996308e+00
0	 5.285714e+00	 9.714286e+00	 9.996398e+00
0	 5.285714e+00	 9.785714e+00	 9.997023e+00
0	 5.285714e+00	 9.857143e+00	 9.998183e+00
0	 5.285714e+00	 9.928571e+00	 9.999878e+00
0	 5.285714e+00	 1.000000e+01	 1.000211e+01
0	 5.357143e+00	 9.642857e+00	 9.996732e+00
0	 5.357143e+00	 9.714286e+00	 9.996837e+00
0	 5.357143e+00	 9.785714e+00	 9.997477e+00
0	 5.357143e+00	 9.857143e+00	 9.998651e+00
0	 5.357143e+00	 9.928571e+00	 1.000036e+01
0	 5.357143e+00	 1.000000e+01	 1.000260e+01
0	 5.357143e+00	 0.000000e+00	 1.015771e+01
0	 5.357143e+00	 7.142857e-02	 1.014376e+01
0	 5.357143e+00	 1.428571e-01	 1.013330e+01
0	 5.357143e+00	 2.142857e-01	 1.012633e+01
0	 5.357143e+00	 2.857143e-01	 1.012285e+01
0	 5.357143e+00	 3.571429e-01	 1.012286e+01
0	 5.428571e+00	 0.000000e+00	 1.016985e+01
0	 5.428571e+00	 7.142857e-02	 1.015656e+01
0	 5.428571e+00	 1.428571e-01	 1.014661e+01
0	 5.428571e+00	 2.142857e-01	 1.013999e+01
0	 5.428571e+00	 2.857143e-01	 1.013672e+01
0	 5.428571e+00	 3.571429e-01	 1.013679e+01
0	 5.500000e+00	 0.000000e+00	 1.018322e+01
0	 5.500000e+00	 7.142857e-02	 1.017054e+01
0	 5.500000e+00	 1.428571e-01	 1.016105e+01
0	 5.500000e+00	 2.142857e-01	 1.015476e+01
0	 5.500000e+00	 2.857143e-01	 1.015165e+01
0	 5.500000e+00	 3.571429e-01	 1.015174e+01
0	 5.571429e+00	 0.000000e+00	 1.019781e+01
0	 5.571429e+00	 7.142857e-02	 1.018570e+01
0	 5.571429e+00	 1.428571e-01	 1.017664e+01
0	 5.571429e+00	 2.142857e-01	 1.017061e+01
0	 5.571429e+00	 2.857143e-01	 1.016763e+01
0	 5.571429e+00	 3.571429e-01	 1.016770e+01
0	 5.642857e+00	 0.000000e+00	 1.021361e+01
0	 5.642857e+00	 7.142857e-02	 1.020204e+01
0	 5.642857e+00	 1.428571e-01	 1.019336e+01
0	 5.642857e+00	 2.142857e-01	 1.018757e+01
0	 5.642857e+00	 2.857143e-01	 1.018467e+01
0	 5.642857e+00	 3.571429e-01	 1.018467e+01
0	 5.714286e+00	 0.000000e+00	 1.023064e+01
0	 5.714286e+00	 7.142857e-02	 1.021956e+01
0	 5.714286e+00	 1.428571e-01	 1.021122e+01
0	 5.714286e+00	 2.142857e-01	 1.020562e+01
0	 5.714286e+00	 2.857143e-01	 1.020276e+01
0	 5.714286e+00	 3.571429e-01	 1.020265e+01
0	 5.357143e+00	 3.571429e-01	 1.012286e+01
0	 5.357143e+00	 4.285714e-01	 1.009694e+01
0	 5.357143e+00	 5.000000e-01	 1.007409e+01
0	 5.357143e+00	 5.714286e-01	 1.005430e+01
0	 5.357143e+00	 6.428571e-01	 1.003759e+01
0	 5.357143e+00	 7.142857e-01	 1.002395e+01
0	 5.428571e+00	 3.571429e-01	 1.013679e+01
0	 5.428571e+00	 4.285714e-01	 1.011210e+01
0	 5.428571e+00	 5.000000e-01	 1.009034e+01
0	 5.428571e+00	 5.714286e-01	 1.007152e+01
0	 5.428571e+00	 6.428571e-01	 1.005563e+01
0	 5.428571e+00	 7.142857e-01	 1.004268e+01
0	 5.500000e+00	 3.571429e-01	 1.015174e+01
0	 5.500000e+00	 4.285714e-01	 1.012818e+01
0	 5.500000e+00	 5.000000e-01	 1.010742e+01
0	 5.500000e+00	 5.714286e-01	 1.008946e+01
0	 5.500000e+00	 6.428571e-01	 1.007430e+01
0	 5.500000e+00	 7.142857e-01	 1.006195e+01
0	 5.571429e+00	 3.571429e-01	 1.016770e+01
0	 5.571429e+00	 4.285714e-01	 1.014517e+01
0	 5.571429e+00	 5.000000e-01	 1.012532e+01
0	 5.571429e+00	 5.714286e-01	 1.010813e+01
0	 5.571429e+00	 6.428571e-01	 1.009361e+01
0	 5.571429e+00	 7.142857e-01	 1.008176e+01
0	 5.642857e+00	 3.571429e-01	 1.018467e+01
0	 5.642857e+00	 4.285714e-01	 1.016309e+01
0	 5.642857e+00	 5.000000e-01	 1.014404e+01
0	 5.642857e+00	 5.714286e-01	 1.012753e+01
0	 5.642857e+00	 6.428571e-01	 1.011355e+01
0	 5.642857e+00	 7.142857e-01	 1.010211e+01
0	 5.714286e+00	 3.571429e-01	 1.020265e+01
0	 5.714286e+00	 4.285714e-01	 1.018192e+01
0	 5.714286e+00	 5.000000e-01	 1.016359e+01
0	 5.714286e+00	 5.714286e-01	 1.014766e+01
0	 5.714286e+00	 6.428571e-01	 1.013413e+01
0	 5.714286e+00	 7.142857e-01	 1.012300e+01
0	 5.357143e+00	 7.142857e-01	 1.002395e+01
0	 5.357143e+00	 7.857143e-01	 9.989966e+00
0	 5.357143e+00	 8.571429e-01	 9.958209e+00
0	 5.357143e+00	 9.285714e-01	 9.928679e+00
0	 5.357143e+00	 1.000000e+00	 9.901376e+00
0	 5.357143e+00	 1.071429e+00	 9.876300e+00
0	 5.428571e+00	 7.142857e-01	 1.004268e+01
0	 5.428571e+00	 7.857143e-01	 1.001025e+01
0	 5.428571e+00	 8.571429e-01	 9.979960e+00
0	 5.428571e+00	 9.285714e-01	 9.951807e+00
0	 5.428571e+00	 1.000000e+00	 9.925794e+00
0	 5.428571e+00	 1.071429e+00	 9.901918e+00
0	 5.500000e+00	 7.142857e-01	 1.006195e+01
0	 5.500000e+00	 7.857143e-01	 1.003094e+01
0	 5.500000e+00	 8.571429e-01	 1.000198e+01
0	 5.500000e+00	 9.285714e-01	 9.975064e+00
0	 5.500000e+00	 1.000000e+00	 9.950203e+00
0	 5.500000e+00	 1.071429e+00	 9.927392e+00
0	 5.571429e+00	 7.142857e-01	 1.008176e+01
0	 5.571429e+00	 7.857143e-01	 1.005203e+01
0	 5.571429e+00	 8.571429e-01	 1.002426e+01
0	 5.571429e+00	 9.285714e-01	 9.998450e+00
0	 5.571429e+00	 1.000000e+00	 9.974604e+00
0	 5.571429e+00	 1.071429e+00	 9.952721e+00
0	 5.642857e+00	 7.142857e-01	 1.010211e+01
0	 5.642857e+00	 7.857143e-01	 1.007352e+01
0	 5.642857e+00	 8.571429e-01	 1.004681e+01
0	 5.642857e+00	 9.285714e-01	 1.002196e+01
0	 5.642857e+00	 1.000000e+00	 9.998997e+00
0	 5.642857e+00	 1.071429e+00	 9.977905e+00
0	 5.714286e+00	 7.142857e-01	 1.012300e+01
0	 5.714286e+00	 7.857143e-01	 1.009542e+01
0	 5.714286e+00	 8.571429e-01	 1.006962e+01
0	 5.714286e+00	 9.285714e-01	 1.004561e+01
0	 5.714286e+00	 1.000000e+00	 1.002338e+01
0	 5.714286e+00	 1.071429e+00	 1.000294e+01
0	 5.357143e+00	 1.071429e+00	 9.876300e+00
0	 5.357143e+00	 1.142857e+00	 9.839286e+00
0	 5.357143e+00	 1.214286e+00	 9.803409e+00
0	 5.357143e+00	 1.285714e+00	 9.768667e+00
0	 5.357143e+00	 1.357143e+00	 9.735062e+00
0	 5.357143e+00	 1.428571e+00	 9.702593e+00
0	 5.428571e+00	 1.071429e+00	 9.901918e+00
0	 5.428571e+00	 1.142857e+00	 9.866418e+00
0	 5.428571e+00	 1.214286e+00	 9.832031e+00
0	 5.428571e+00	 1.285714e+00	 9.798758e+00
0	 5.428571e+00	 1.357143e+00	 9.766598e+00
0	 5.428571e+00	 1.428571e+00	 9.735552e+00
0	 5.500000e+00	 1.071429e+00	 9.927392e+00
0	 5.500000e+00	 1.142857e+00	 9.893266e+00
0	 5.500000e+00	 1.214286e+00	 9.860230e+00
0	 5.500000e+00	 1.285714e+00	 9.828286e+00
0	 5.500000e+00	 1.357143e+00	 9.797433e+00
0	 5.500000e+00	 1.428571e+00	 9.767671e+00
0	 5.571429e+00	 1.071429e+00	 9.952721e+00
0	 5.571429e+00	 1.142857e+00	 9.919829e+00
0	 5.571429e+00	 1.214286e+00	 9.888007e+00
0	 5.571429e+00	 1.285714e+00	 9.857252e+00
0	 5.571429e+00	 1.357143e+00	 9.827567e+00
0	 5.571429e+00	 1.428571e+00	 9.798950e+00
0	 5.642857e+00	 1.071429e+00	 9.977905e+00
0	 5.642857e+00	 1.142857e+00	 9.946109e+00
0	 5.642857e+00	 1.214286e+00	 9.915360e+00
0	 5.642857e+00	 1.285714e+00	 9.885657e+00
0	 5.642857e+00	 1.357143e+00	 9.856999e+00
0	 5.642857e+00	 1.428571e+00	 9.829388e+00
0	 5.714286e+00	 1.071429e+00	 1.000294e+01
0	 5.714286e+00	 1.142857e+00	 9.972105e+00
0	 5.714286e+00	 1.214286e+00	 9.942290e+00
0	 5.714286e+00	 1.285714e+00	 9.913498e+00
0	 5.714286e+00	 1.357143e+00	 9.885730e+00
0	 5.714286e+00	 1.428571e+00	 9.858985e+00
0	 5.357143e+00	 1.428571e+00	 9.702593e+00
0	 5.357143e+00	 1.500000e+00	 9.667312e+00
0	 5.357143e+00	 1.571429e+00	 9.632113e+00
0	 5.357143e+00	 1.642857e+00	 9.596996e+00
0	 5.357143e+00	 1.714286e+00	 9.561961e+00
0	 5.357143e+00	 1.785714e+00	 9.527007e+00
0	 5.428571e+00	 1.428571e+00	 9.735552e+00
0	 5.428571e+00	 1.500000e+00	 9.701498e+00
0	 5.428571e+00	 1.571429e+00	 9.667554e+00
0	 5.428571e+00	 1.642857e+00	 9.633720e+00
0	 5.428571e+00	 1.714286e+00	 9.599997e+00
0	 5.428571e+00	 1.785714e+00	 9.566384e+00
0	 5.500000e+00	 1.428571e+00	 9.767671e+00
0	 5.500000e+00	 1.500000e+00	 9.734724e+00
0	 5.500000e+00	 1.571429e+00	 9.701915e+00
0	 5.500000e+00	 1.642857e+00	 9.669245e+00
0	 5.500000e+00	 1.714286e+00	 9.636714e+00
0	 5.500000e+00	 1.785714e+00	 9.604322e+00
0	 5.571429e+00	 1.428571e+00	 9.798950e+00
0	 5.571429e+00	 1.500000e+00	 9.766989e+00
0	 5.571429e+00	 1.571429e+00	 9.735196e+00
0	 5.571429e+00	 1.642857e+00	 9.703570e+00
0	 5.571429e+00	 1.714286e+00	 9.672111e+00
0	 5.571429e+00	 1.785714e+00	 9.640821e+00
0	 5.642857e+00	 1.428571e+00	 9.829388e+00
0	 5.642857e+00	 1.500000e+00	 9.798294e+00
0	 5.642857e+00	 1.571429e+00	 9.767397e+00
0	 5.642857e+00	 1.642857e+00	 9.736695e+00
0	 5.642857e+00	 1.714286e+00	 9.706190e+00
0	 5.642857e+00	 1.785714e+00	 9.675880e+00
0	 5.714286e+00	 1.428571e+00	 9.858985e+00
0	 5.714286e+00	 1.500000e+00	 9.828639e+00
0	 5.714286e+00	 1.571429e+00	 9.798518e+00
0	 5.714286e+00	 1.642857e+00	 9.768621e+00
0	 5.714286e+00	 1.714286e+00	 9.738949e+00
0	 5.714286e+00	 1.785714e+00	 9.709501e+00
0	 5.357143e+00	 1.785714e+00	 9.527007e+00
0	 5.357143e+00	 1.857143e+00	 9.497562e+00
0	 5.357143e+00	 1.928571e+00	 9.467284e+00
0	 5.357143e+00	 2.000000e+00	 9.436174e+00
0	 5.357143e+00	 2.071429e+00	 9.404232e+00
0	 5.357143e+00	 2.142857e+00	 9.371458e+00
0	 5.428571e+00	 1.785714e+00	 9.566384e+00
0	 5.428571e+00	 1.857143e+00	 9.537586e+00
0	 5.428571e+00	 1.928571e+00	 9.508029e+00
0	 5.428571e+00	 2.000000e+00	 9.477714e+00
0	 5.428571e+00	 2.071429e+00	 9.446641e+00
0	 5.428571e+00	 2.142857e+00	 9.414809e+00
0	 5.500000e+00	 1.785714e+00	 9.604322e+00
0	 5.500000e+00	 1.857143e+00	 9.576115e+00
0	 5.500000e+00	 1.928571e+00	 9.547223e+00
0	 5.500000e+00	 2.000000e+00	 9.517646e+00
0	 5.500000e+00	 2.071429e+00	 9.487386e+00
0	 5.500000e+00	 2.142857e+00	 9.456440e+00
0	 5.571429e+00	 1.785714e+00	 9.640821e+00
0	 5.571429e+00	 1.857143e+00	 9.613148e+00
0	 5.571429e+00	 1.928571e+00	 9.584865e+00
0	 5.571429e+00	 2.000000e+00	 9.555971e+00
0	 5.571429e+00	 2.071429e+00	 9.526467e+00
0	 5.571429e+00	 2.142857e+00	 9.496352e+00
0	 5.642857e+00	 1.785714e+00	 9.675880e+00
0	 5.642857e+00	 1.857143e+00	 9.648686e+00
0	 5.642857e+00	 1.928571e+00	 9.620956e+00
0	 5.642857e+00	 2.000000e+00	 9.592689e+00
0	 5.642857e+00	 2.071429e+00	 9.563885e+00
0	 5.642857e+00	 2.142857e+00	 9.534544e+00
0	 5.714286e+00	 1.785714e+00	 9.709501e+00
0	 5.714286e+00	 1.857143e+00	 9.682730e+00
0	 5.714286e+00	 1.928571e+00	 9.655496e+00
0	 5.714286e+00	 2.000000e+00	 9.627799e+00
0	 5.714286e+00	 2.071429e+00	 9.599639e+00
0	 5.714286e+00	 2.142857e+00	 9.571016e+00
0	 5.357143e+00	 2.142857e+00	 9.371458e+00
0	 5.357143e+00	 2.214286e+00	 9.350136e+00
0	 5.357143e+00	 2.285714e+00	 9.327383e+00
0	 5.357143e+00	 2.357143e+00	 9.303199e+00
0	 5.357143e+00	 2.428571e+00	 9.277584e+00
0	 5.357143e+00	 2.500000e+00	 9.250538e+00
0	 5.428571e+00	 2.142857e+00	 9.414809e+00
0	 5.428571e+00	 2.214286e+00	 9.393549e+00
0	 5.428571e+00	 2.285714e+00	 9.370948e+00
0	 5.428571e+00	 2.357143e+00	 9.347006e+00
0	 5.428571e+00	 2.428571e+00	 9.321723e+00
0	 5.428571e+00	 2.500000e+00	 9.295099e+00
0	 5.500000e+00	 2.142857e+00	 9.456440e+00
0	 5.500000e+00	 2.214286e+00	 9.435242e+00
0	 5.500000e+00	 2.285714e+00	 9.412793e+00
0	 5.500000e+00	 2.357143e+00	 9.389093e+00
0	 5.500000e+00	 2.428571e+00	 9.364142e+00
0	 5.500000e+00	 2.500000e+00	 9.337941e+00
0	 5.571429e+00	 2.142857e+00	 9.496352e+00
0	 5.571429e+00	 2.214286e+00	 9.475215e+00
0	 5.571429e+00	 2.285714e+00	 9.452919e+00
0	 5.571429e+00	 2.357143e+00	 9.429461e+00
0	 5.571429e+00	 2.428571e+00	 9.404843e+00
0	 5.571429e+00	 2.500000e+00	 9.379065e+00
0	 5.642857e+00	 2.142857e+00	 9.534544e+00
0	 5.642857e+00	 2.214286e+00	 9.513470e+00
0	 5.642857e+00	 2.285714e+00	 9.491325e+00
0	 5.642857e+00	 2.357143e+00	 9.468110e+00
0	 5.642857e+00	 2.428571e+00	 9.443825e+00
0	 5.642857e+00	 2.500000e+00	 9.418470e+00
0	 5.714286e+00	 2.142857e+00	 9.571016e+00
0	 5.714286e+00	 2.214286e+00	 9.550004e+00
0	 5.714286e+00	 2.285714e+00	 9.528013e+00
0	 5.714286e+00	 2.357143e+00	 9.505041e+00
0	 5.714286e+00	 2.428571e+00	 9.481089e+00
0	 5.714286e+00	 2.500000e+00	 9.456156e+00
0	 5.357143e+00	 2.500000e+00	 9.250538e+00
0	 5.357143e+00	 2.571429e+00	 9.238144e+00
0	 5.357143e+00	 2.642857e+00	 9.224009e+00
0	 5.357143e+00	 2.714286e+00	 9.208134e+00
0	 5.357143e+00	 2.785714e+00	 9.190517e+00
0	 5.357143e+00	 2.857143e+00	 9.171159e+00
0	 5.428571e+00	 2.500000e+00	 9.295099e+00
0	 5.428571e+00	 2.571429e+00	 9.282239e+00
0	 5.428571e+00	 2.642857e+00	 9.267731e+00
0	 5.428571e+00	 2.714286e+00	 9.251575e+00
0	 5.428571e+00	 2.785714e+00	 9.233770e+00
0	 5.428571e+00	 2.857143e+00	 9.214316e+00
0	 5.500000e+00	 2.500000e+00	 9.337941e+00
0	 5.500000e+00	 2.571429e+00	 9.324662e+00
0	 5.500000e+00	 2.642857e+00	 9.309827e+00
0	 5.500000e+00	 2.714286e+00	 9.293436e+00
0	 5.500000e+00	 2.785714e+00	 9.275489e+00
0	 5.500000e+00	 2.857143e+00	 9.255987e+00
0	 5.571429e+00	 2.500000e+00	 9.379065e+00
0	 5.571429e+00	 2.571429e+00	 9.365413e+00
0	 5.571429e+00	 2.642857e+00	 9.350297e+00
0	 5.571429e+00	 2.714286e+00	 9.333718e+00
0	 5.571429e+00	 2.785714e+00	 9.315676e+00
0	 5.571429e+00	 2.857143e+00	 9.296171e+00
0	 5.642857e+00	 2.500000e+00	 9.418470e+00
0	 5.642857e+00	 2.571429e+00	 9.404491e+00
0	 5.642857e+00	 2.642857e+00	 9.389142e+00
0	 5.642857e+00	 2.714286e+00	 9.372421e+00
0	 5.642857e+00	 2.785714e+00	 9.354330e+00
0	 5.642857e+00	 2.857143e+00	 9.334868e+00
0	 5.714286e+00	 2.500000e+00	 9.456156e+00
0	 5.714286e+00	 2.571429e+00	 9.441897e+00
0	 5.714286e+00	 2.642857e+00	 9.426360e+00
0	 5.714286e+00	 2.714286e+00	 9.409545e+00
0	 5.714286e+00	 2.785714e+00	 9.391451e+00
0	 5.714286e+00	 2.857143e+00	 9.372080e+00
0	 5.357143e+00	 2.857143e+00	 9.171159e+00
0	 5.357143e+00	 2.928571e+00	 9.167209e+00
0	 5.357143e+00	 3.000000e+00	 9.161473e+00
0	 5.357143e+00	 3.071429e+00	 9.153950e+00
0	 5.357143e+00	 3.142857e+00	 9.144641e+00
0	 5.357143e+00	 3.214286e+00	 9.133545e+00
0	 5.428571e+00	 2.857143e+00	 9.214316e+00
0	 5.428571e+00	 2.928571e+00	 9.209490e+00
0	 5.428571e+00	 3.000000e+00	 9.202958e+00
0	 5.428571e+00	 3.071429e+00	 9.194718e+00
0	 5.428571e+00	 3.142857e+00	 9.184772e+00
0	 5.428571e+00	 3.214286e+00	 9.173119e+00
0	 5.500000e+00	 2.857143e+00	 9.255987e+00
0	 5.500000e+00	 2.928571e+00	 9.250370e+00
0	 5.500000e+00	 3.000000e+00	 9.243125e+00
0	 5.500000e+00	 3.071429e+00	 9.234254e+00
0	 5.500000e+00	 3.142857e+00	 9.223756e+00
0	 5.500000e+00	 3.214286e+00	 9.211631e+00
0	 5.571429e+00	 2.857143e+00	 9.296171e+00
0	 5.571429e+00	 2.928571e+00	 9.289847e+00
0	 5.571429e+00	 3.000000e+00	 9.281976e+00
0	 5.571429e+00	 3.071429e+00	 9.272558e+00
0	 5.571429e+00	 3.142857e+00	 9.261593e+00
0	 5.571429e+00	 3.214286e+00	 9.249080e+00
0	 5.642857e+00	 2.857143e+00	 9.334868e+00
0	 5.642857e+00	 2.928571e+00	 9.327923e+00
0	 5.642857e+00	 3.000000e+00	 9.319510e+00
0	 5.642857e+00	 3.071429e+00	 9.309629e+00
0	 5.642857e+00	 3.142857e+00	 9.298281e+00
0	 5.642857e+00	 3.214286e+00	 9.285466e+00
0	 5.714286e+00	 2.857143e+00	 9.372080e+00
0	 5.714286e+00	 2.928571e+00	 9.364597e+00
0	 5.714286e+00	 3.000000e+00	 9.355726e+00
0	 5.714286e+00	 3.071429e+00	 9.345468e+00
0	 5.714286e+00	 3.142857e+00	 9.333822e+00
0	 5.714286e+00	 3.214286e+00	 9.320789e+00
0	 5.357143e+00	 3.214286e+00	 9.133545e+00
0	 5.357143e+00	 3.285714e+00	 9.136627e+00
0	 5.357143e+00	 3.357143e+00	 9.138064e+00
0	 5.357143e+00	 3.428571e+00	 9.137857e+00
0	 5.357143e+00	 3.500000e+00	 9.136004e+00
0	 5.357143e+00	 3.571429e+00	 9.132507e+00
0	 5.428571e+00	 3.214286e+00	 9.173119e+00
0	 5.428571e+00	 3.285714e+00	 9.175139e+00
0	 5.428571e+00	 3.357143e+00	 9.175572e+00
0	 5.428571e+00	 3.428571e+00	 9.174420e+00
0	 5.428571e+00	 3.500000e+00	 9.171682e+00
0	 5.428571e+00	 3.571429e+00	 9.167359e+00
0	 5.500000e+00	 3.214286e+00	 9.211631e+00
0	 5.500000e+00	 3.285714e+00	 9.212674e+00
0	 5.500000e+00	 3.357143e+00	 9.212190e+00
0	 5.500000e+00	 3.428571e+00	 9.210180e+00
0	 5.500000e+00	 3.500000e+00	 9.206644e+00
0	 5.500000e+00	 3.571429e+00	 9.201581e+00
0	 5.571429e+00	 3.214286e+00	 9.249080e+00
0	 5.571429e+00	 3.285714e+00	 9.249233e+00
0	 5.571429e+00	 3.357143e+00	 9.247919e+00
0	 5.571429e+00	 3.428571e+00	 9.245138e+00
0	 5.571429e+00	 3.500000e+00	 9.240889e+00
0	 5.571429e+00	 3.571429e+00	 9.235173e+00
0	 5.642857e+00	 3.214286e+00	 9.285466e+00
0	 5.642857e+00	 3.285714e+00	 9.284816e+00
0	 5.642857e+00	 3.357143e+00	 9.282758e+00
0	 5.642857e+00	 3.428571e+00	 9.279292e+00
0	 5.642857e+00	 3.500000e+00	 9.274418e+00
0	 5.642857e+00	 3.571429e+00	 9.268135e+00
0	 5.714286e+00	 3.214286e+00	 9.320789e+00
0	 5.714286e+00	 3.285714e+00	 9.319423e+00
0	 5.714286e+00	 3.357143e+00	 9.316707e+00
0	 5.714286e+00	 3.428571e+00	 9.312643e+00
0	 5.714286e+00	 3.500000e+00	 9.307230e+00
0	 5.714286e+00	 3.571429e+00	 9.300468e+00
0	 5.357143e+00	 3.571429e+00	 9.132507e+00
0	 5.357143e+00	 3.642857e+00	 9.141050e+00
0	 5.357143e+00	 3.714286e+00	 9.148176e+00
0	 5.357143e+00	 3.785714e+00	 9.153885e+00
0	 5.357143e+00	 3.857143e+00	 9.158177e+00
0	 5.357143e+00	 3.928571e+00	 9.161053e+00
0	 5.428571e+00	 3.571429e+00	 9.167359e+00
0	 5.428571e+00	 3.642857e+00	 9.174741e+00
0	 5.428571e+00	 3.714286e+00	 9.180747e+00
0	 5.428571e+00	 3.785714e+00	 9.185378e+00
0	 5.428571e+00	 3.857143e+00	 9.188633e+00
0	 5.428571e+00	 3.928571e+00	 9.190512e+00
0	 5.500000e+00	 3.571429e+00	 9.201581e+00
0	 5.500000e+00	 3.642857e+00	 9.207892e+00
0	 5.500000e+00	 3.714286e+00	 9.212868e+00
0	 5.500000e+00	 3.785714e+00	 9.216511e+00
0	 5.500000e+00	 3.857143e+00	 9.218819e+00
0	 5.500000e+00	 3.928571e+00	 9.219793e+00
0	 5.571429e+00	 3.571429e+00	 9.235173e+00
0	 5.571429e+00	 3.642857e+00	 9.240503e+00
0	 5.571429e+00	 3.714286e+00	 9.244540e+00
0	 5.571429e+00	 3.785714e+00	 9.247284e+00
0	 5.571429e+00	 3.857143e+00	 9.248735e+00
0	 5.571429e+00	 3.928571e+00	 9.248894e+00
0	 5.642857e+00	 3.571429e+00	 9.268135e+00
0	 5.642857e+00	 3.642857e+00	 9.272574e+00
0	 5.642857e+00	 3.714286e+00	 9.275762e+00
0	 5.642857e+00	 3.785714e+00	 9.277698e+00
0	 5.642857e+00	 3.857143e+00	 9.278383e+00
0	 5.642857e+00	 3.928571e+00	 9.277816e+00
0	 5.714286e+00	 3.571429e+00	 9.300468e+00
0	 5.714286e+00	 3.642857e+00	 9.304106e+00
0	 5.714286e+00	 3.714286e+00	 9.306535e+00
0	 5.714286e+00	 3.785714e+00	 9.307753e+00
0	 5.714286e+00	 3.857143e+00	 9.307761e+00
0	 5.714286e+00	 3.928571e+00	 9.306559e+00
0	 5.357143e+00	 3.928571e+00	 9.161053e+00
0	 5.357143e+00	 4.000000e+00	 9.173306e+00
0	 5.357143e+00	 4.071429e+00	 9.184420e+00
0	 5.357143e+00	 4.142857e+00	 9.194394e+00
0	 5.357143e+00	 4.214286e+00	 9.203230e+00
0	 5.357143e+00	 4.285714e+00	 9.210926e+00
0	 5.428571e+00	 3.928571e+00	 9.190512e+00
0	 5.428571e+00	 4.000000e+00	 9.201669e+00
0	 5.428571e+00	 4.071429e+00	 9.211709e+00
0	 5.428571e+00	 4.142857e+00	 9.220632e+00
0	 5.428571e+00	 4.214286e+00	 9.228438e+00
0	 5.428571e+00	 4.285714e+00	 9.235128e+00
0	 5.500000e+00	 3.928571e+00	 9.219793e+00
0	 5.500000e+00	 4.000000e+00	 9.229922e+00
0	 5.500000e+00	 4.071429e+00	 9.238957e+00
0	 5.500000e+00	 4.142857e+00	 9.246898e+00
0	 5.500000e+00	 4.214286e+00	 9.253744e+00
0	 5.500000e+00	 4.285714e+00	 9.259496e+00
0	 5.571429e+00	 3.928571e+00	 9.248894e+00
0	 5.571429e+00	 4.000000e+00	 9.258065e+00
0	 5.571429e+00	 4.071429e+00	 9.266165e+00
0	 5.571429e+00	 4.142857e+00	 9.273193e+00
0	 5.571429e+00	 4.214286e+00	 9.279148e+00
0	 5.571429e+00	 4.285714e+00	 9.284032e+00
0	 5.642857e+00	 3.928571e+00	 9.277816e+00
0	 5.642857e+00	 4.000000e+00	 9.286099e+00
0	 5.642857e+00	 4.071429e+00	 9.293332e+00
0	 5.642857e+00	 4.142857e+00	 9.299515e+00
0	 5.642857e+00	 4.214286e+00	 9.304650e+00
0	 5.642857e+00	 4.285714e+00	 9.308734e+00
0	 5.714286e+00	 3.928571e+00	 9.306559e+00
0	 5.714286e+00	 4.000000e+00	 9.314022e+00
0	 5.714286e+00	 4.071429e+00	 9.320458e+00
0	 5.714286e+00	 4.142857e+00	 9.325867e+00
0	 5.714286e+00	 4.214286e+00	 9.330249e+00
0	 5.714286e+00	 4.285714e+00	 9.333604e+00
0	 5.357143e+00	 4.285714e+00	 9.210926e+00
0	 5.357143e+00	 4.357143e+00	 9.225496e+00
0	 5.357143e+00	 4.428571e+00	 9.239185e+00
0	 5.357143e+00	 4.500000e+00	 9.251994e+00
0	 5.357143e+00	 4.571429e+00	 9.263921e+00
0	 5.357143e+00	 4.642857e+00	 9.274969e+00
0	 5.428571e+00	 4.285714e+00	 9.235128e+00
0	 5.428571e+00	 4.357143e+00	 9.248691e+00
0	 5.428571e+00	 4.428571e+00	 9.261385e+00
0	 5.428571e+00	 4.500000e+00	 9.273209e+00
0	 5.428571e+00	 4.571429e+00	 9.284164e+00
0	 5.428571e+00	 4.642857e+00	 9.294249e+00
0	 5.500000e+00	 4.285714e+00	 9.259496e+00
0	 5.500000e+00	 4.357143e+00	 9.272109e+00
0	 5.500000e+00	 4.428571e+00	 9.283863e+00
0	 5.500000e+00	 4.500000e+00	 9.294759e+00
0	 5.500000e+00	 4.571429e+00	 9.304796e+00
0	 5.500000e+00	 4.642857e+00	 9.313975e+00
0	 5.571429e+00	 4.285714e+00	 9.284032e+00
0	 5.571429e+00	 4.357143e+00	 9.295750e+00
0	 5.571429e+00	 4.428571e+00	 9.306620e+00
0	 5.571429e+00	 4.500000e+00	 9.316643e+00
0	 5.571429e+00	 4.571429e+00	 9.325818e+00
0	 5.571429e+00	 4.642857e+00	 9.334146e+00
0	 5.642857e+00	 4.285714e+00	 9.308734e+00
0	 5.642857e+00	 4.357143e+00	 9.319613e+00
0	 5.642857e+00	 4.428571e+00	 9.329655e+00
0	 5.642857e+00	 4.500000e+00	 9.338861e+00
0	 5.642857e+00	 4.571429e+00	 9.347230e+00
0	 5.642857e+00	 4.642857e+00	 9.354763e+00
0	 5.714286e+00	 4.285714e+00	 9.333604e+00
0	 5.714286e+00	 4.357143e+00	 9.343699e+00
0	 5.714286e+00	 4.428571e+00	 9.352968e+00
0	 5.714286e+00	 4.500000e+00	 9.361413e+00
0	 5.714286e+00	 4.571429e+00	 9.369032e+00
0	 5.714286e+00	 4.642857e+00	 9.375825e+00
0	 5.357143e+00	 4.642857e+00	 9.274969e+00
0	 5.357143e+00	 4.714286e+00	 9.290633e+00
0	 5.357143e+00	 4.785714e+00	 9.305655e+00
0	 5.357143e+00	 4.857143e+00	 9.320035e+00
0	 5.357143e+00	 4.928571e+00	 9.333772e+00
0	 5.357143e+00	 5.000000e+00	 9.346867e+00
0	 5.428571e+00	 4.642857e+00	 9.294249e+00
0	 5.428571e+00	 4.714286e+00	 9.309058e+00
0	 5.428571e+00	 4.785714e+00	 9.323227e+00
0	 5.428571e+00	 4.857143e+00	 9.336754e+00
0	 5.428571e+00	 4.928571e+00	 9.349640e+00
0	 5.428571e+00	 5.000000e+00	 9.361884e+00
0	 5.500000e+00	 4.642857e+00	 9.313975e+00
0	 5.500000e+00	 4.714286e+00	 9.327964e+00
0	 5.500000e+00	 4.785714e+00	 9.341313e+00
0	 5.500000e+00	 4.857143e+00	 9.354022e+00
0	 5.500000e+00	 4.928571e+00	 9.366091e+00
0	 5.500000e+00	 5.000000e+00	 9.377520e+00
0	 5.571429e+00	 4.642857e+00	 9.334146e+00
0	 5.571429e+00	 4.714286e+00	 9.347349e+00
0	 5.571429e+00	 4.785714e+00	 9.359914e+00
0	 5.571429e+00	 4.857143e+00	 9.371839e+00
0	 5.571429e+00	 4.928571e+00	 9.383126e+00
0	 5.571429e+00	 5.000000e+00	 9.393773e+00
0	 5.642857e+00	 4.642857e+00	 9.354763e+00
0	 5.642857e+00	 4.714286e+00	 9.367215e+00
0	 5.642857e+00	 4.785714e+00	 9.379029e+00
0	 5.642857e+00	 4.857143e+00	 9.390205e+00
0	 5.642857e+00	 4.928571e+00	 9.400744e+00
0	 5.642857e+00	 5.000000e+00	 9.410645e+00
0	 5.714286e+00	 4.642857e+00	 9.375825e+00
0	 5.714286e+00	 4.714286e+00	 9.387561e+00
0	 5.714286e+00	 4.785714e+00	 9.398659e+00
0	 5.714286e+00	 4.857143e+00	 9.409121e+00
0	 5.714286e+00	 4.928571e+00	 9.418946e+00
0	 5.714286e+00	 5.000000e+00	 9.428135e+00
0	 5.357143e+00	 5.000000e+00	 9.346867e+00
0	 5.357143e+00	 5.071429e+00	 9.362775e+00
0	 5.357143e+00	 5.142857e+00	 9.378234e+00
0	 5.357143e+00	 5.214286e+00	 9.393244e+00
0	 5.357143e+00	 5.285714e+00	 9.407806e+00
0	 5.357143e+00	 5.357143e+00	 9.421918e+00
0	 5.428571e+00	 5.000000e+00	 9.361884e+00
0	 5.428571e+00	 5.071429e+00	 9.377078e+00
0	 5.428571e+00	 5.142857e+00	 9.391820e+00
0	 5.428571e+00	 5.214286e+00	 9.406108e+00
0	 5.428571e+00	 5.285714e+00	 9.419945e+00
0	 5.428571e+00	 5.357143e+00	 9.433329e+00
0	 5.500000e+00	 5.000000e+00	 9.377520e+00
0	 5.500000e+00	 5.071429e+00	 9.392020e+00
0	 5.500000e+00	 5.142857e+00	 9.406064e+00
0	 5.500000e+00	 5.214286e+00	 9.419652e+00
0	 5.500000e+00	 5.285714e+00	 9.432784e+00
0	 5.500000e+00	 5.357143e+00	 9.445460e+00
0	 5.571429e+00	 5.000000e+00	 9.393773e+00
0	 5.571429e+00	 5.071429e+00	 9.407600e+00
0	 5.571429e+00	 5.142857e+00	 9.420967e+00
0	 5.571429e+00	 5.214286e+00	 9.433875e+00
0	 5.571429e+00	 5.285714e+00	 9.446323e+00
0	 5.571429e+00	 5.357143e+00	 9.458312e+00
0	 5.642857e+00	 5.000000e+00	 9.410645e+00
0	 5.642857e+00	 5.071429e+00	 9.423819e+00
0	 5.642857e+00	 5.142857e+00	 9.436530e+00
0	 5.642857e+00	 5.214286e+00	 9.448778e+00
0	 5.642857e+00	 5.285714e+00	 9.460562e+00
0	 5.642857e+00	 5.357143e+00	 9.471884e+00
0	 5.714286e+00	 5.000000e+00	 9.428135e+00
0	 5.714286e+00	 5.071429e+00	 9.440676e+00
0	 5.714286e+00	 5.142857e+00	 9.452751e+00
0	 5.714286e+00	 5.214286e+00	 9.464360e+00
0	 5.714286e+00	 5.285714e+00	 9.475501e+00
0	 5.714286e+00	 5.357143e+00	 9.486176e+00
0	 5.357143e+00	 5.357143e+00	 9.421918e+00
0	 5.357143e+00	 5.428571e+00	 9.437433e+00
0	 5.357143e+00	 5.500000e+00	 9.452658e+00
0	 5.357143e+00	 5.571429e+00	 9.467592e+00
0	 5.357143e+00	 5.642857e+00	 9.482236e+00
0	 5.357143e+00	 5.714286e+00	 9.496589e+00
0	 5.428571e+00	 5.357143e+00	 9.433329e+00
0	 5.428571e+00	 5.428571e+00	 9.448275e+00
0	 5.428571e+00	 5.500000e+00	 9.462923e+00
0	 5.428571e+00	 5.571429e+00	 9.477274e+00
0	 5.428571e+00	 5.642857e+00	 9.491327e+00
0	 5.428571e+00	 5.714286e+00	 9.505083e+00
0	 5.500000e+00	 5.357143e+00	 9.445460e+00
0	 5.500000e+00	 5.428571e+00	 9.459843e+00
0	 5.500000e+00	 5.500000e+00	 9.473922e+00
0	 5.500000e+00	 5.571429e+00	 9.487696e+00
0	 5.500000e+00	 5.642857e+00	 9.501165e+00
0	 5.500000e+00	 5.714286e+00	 9.514331e+00
0	 5.571429e+00	 5.357143e+00	 9.458312e+00
0	 5.571429e+00	 5.428571e+00	 9.472138e+00
0	 5.571429e+00	 5.500000e+00	 9.485654e+00
0	 5.571429e+00	 5.571429e+00	 9.498858e+00
0	 5.571429e+00	 5.642857e+00	 9.511751e+00
0	 5.571429e+00	 5.714286e+00	 9.524332e+00
0	 5.642857e+00	 5.357143e+00	 9.471884e+00
0	 5.642857e+00	 5.428571e+00	 9.485161e+00
0	 5.642857e+00	 5.500000e+00	 9.498119e+00
0	 5.642857e+00	 5.571429e+00	 9.510760e+00
0	 5.642857e+00	 5.642857e+00	 9.523082e+00
0	 5.642857e+00	 5.714286e+00	 9.535087e+00
0	 5.714286e+00	 5.357143e+00	 9.486176e+00
0	 5.714286e+00	 5.428571e+00	 9.498910e+00
0	 5.714286e+00	 5.500000e+00	 9.511318e+00
0	 5.714286e+00	 5.571429e+00	 9.523402e+00
0	 5.714286e+00	 5.642857e+00	 9.535161e+00
0	 5.714286e+00	 5.714286e+00	 9.546595e+00
0	 5.357143e+00	 5.714286e+00	 9.496589e+00
0	 5.357143e+00	 5.785714e+00	 9.511318e+00
0	 5.357143e+00	 5.857143e+00	 9.525877e+00
0	 5.357143e+00	 5.928571e+00	 9.540266e+00
0	 5.357143e+00	 6.000000e+00	 9.554486e+00
0	 5.357143e+00	 6.071429e+00	 9.568536e+00
0	 5.428571e+00	 5.714286e+00	 9.505083e+00
0	 5.428571e+00	 5.785714e+00	 9.519365e+00
0	 5.428571e+00	 5.857143e+00	 9.533469e+00
0	 5.428571e+00	 5.928571e+00	 9.547396e+00
0	 5.428571e+00	 6.000000e+00	 9.561146e+00
0	 5.428571e+00	 6.071429e+00	 9.574718e+00
0	 5.500000e+00	 5.714286e+00	 9.514331e+00
0	 5.500000e+00	 5.785714e+00	 9.528163e+00
0	 5.500000e+00	 5.857143e+00	 9.541811e+00
0	 5.500000e+00	 5.928571e+00	 9.555273e+00
0	 5.500000e+00	 6.000000e+00	 9.568550e+00
0	 5.500000e+00	 6.071429e+00	 9.581642e+00
0	 5.571429e+00	 5.714286e+00	 9.524332e+00
0	 5.571429e+00	 5.785714e+00	 9.537713e+00
0	 5.571429e+00	 5.857143e+00	 9.550901e+00
0	 5.571429e+00	 5.928571e+00	 9.563896e+00
0	 5.571429e+00	 6.000000e+00	 9.576698e+00
0	 5.571429e+00	 6.071429e+00	 9.589308e+00
0	 5.642857e+00	 5.714286e+00	 9.535087e+00
0	 5.642857e+00	 5.785714e+00	 9.548014e+00
0	 5.642857e+00	 5.857143e+00	 9.560740e+00
0	 5.642857e+00	 5.928571e+00	 9.573266e+00
0	 5.642857e+00	 6.000000e+00	 9.585591e+00
0	 5.642857e+00	 6.071429e+00	 9.597716e+00
0	 5.714286e+00	 5.714286e+00	 9.546595e+00
0	 5.714286e+00	 5.785714e+00	 9.559066e+00
0	 5.714286e+00	 5.857143e+00	 9.571328e+00
0	 5.714286e+00	 5.928571e+00	 9.583382e+00
0	 5.714286e+00	 6.000000e+00	 9.595228e+00
0	 5.714286e+00	 6.071429e+00	 9.606867e+00
0	 5.357143e+00	 6.071429e+00	 9.568536e+00
0	 5.357143e+00	 6.142857e+00	 9.582232e+00
0	 5.357143e+00	 6.214286e+00	 9.595852e+00
0	 5.357143e+00	 6.285714e+00	 9.609396e+00
0	 5.357143e+00	 6.357143e+00	 9.622862e+00
0	 5.357143e+00	 6.428571e+00	 9.636252e+00
0	 5.428571e+00	 6.071429e+00	 9.574718e+00
0	 5.428571e+00	 6.142857e+00	 9.588074e+00
0	 5.428571e+00	 6.214286e+00	 9.601346e+00
0	 5.428571e+00	 6.285714e+00	 9.614534e+00
0	 5.428571e+00	 6.357143e+00	 9.627637e+00
0	 5.428571e+00	 6.428571e+00	 9.640656e+00
0	 5.500000e+00	 6.071429e+00	 9.581642e+00
0	 5.500000e+00	 6.142857e+00	 9.594649e+00
0	 5.500000e+00	 6.214286e+00	 9.607564e+00
0	 5.500000e+00	 6.285714e+00	 9.620387e+00
0	 5.500000e+00	 6.357143e+00	 9.633118e+00
0	 5.500000e+00	 6.428571e+00	 9.645757e+00
0	 5.571429e+00	 6.071429e+00	 9.589308e+00
0	 5.571429e+00	 6.142857e+00	 9.601957e+00
0	 5.571429e+00	 6.214286e+00	 9.614506e+00
0	 5.571429e+00	 6.285714e+00	 9.626955e+00
0	 5.571429e+00	 6.357143e+00	 9.639304e+00
0	 5.571429e+00	 6.428571e+00	 9.651553e+00
0	 5.642857e+00	 6.071429e+00	 9.597716e+00
0	 5.642857e+00	 6.142857e+00	 9.609998e+00
0	 5.642857e+00	 6.214286e+00	 9.622171e+00
0	 5.642857e+00	 6.285714e+00	 9.634237e+00
0	 5.642857e+00	 6.357143e+00	 9.646196e+00
0	 5.642857e+00	 6.428571e+00	 9.658046e+00
0	 5.714286e+00	 6.071429e+00	 9.606867e+00
0	 5.714286e+00	 6.142857e+00	 9.618771e+00
0	 5.714286e+00	 6.214286e+00	 9.630560e+00
0	 5.714286e+00	 6.285714e+00	 9.642234e+00
0	 5.714286e+00	 6.357143e+00	 9.653793e+00
0	 5.714286e+00	 6.428571e+00	 9.665236e+00
0	 5.357143e+00	 6.428571e+00	 9.636252e+00
0	 5.357143e+00	 6.500000e+00	 9.648796e+00
0	 5.357143e+00	 6.571429e+00	 9.661333e+00
0	 5.357143e+00	 6.642857e+00	 9.673864e+00
0	 5.357143e+00	 6.714286e+00	 9.686387e+00
0	 5.357143e+00	 6.785714e+00	 9.698904e+00
0	 5.428571e+00	 6.428571e+00	 9.640656e+00
0	 5.428571e+00	 6.500000e+00	 9.652946e+00
0	 5.428571e+00	 6.571429e+00	 9.665222e+00
0	 5.428571e+00	 6.642857e+00	 9.677484e+00
0	 5.428571e+00	 6.714286e+00	 9.689733e+00
0	 5.428571e+00	 6.785714e+00	 9.701967e+00
0	 5.500000e+00	 6.428571e+00	 9.645757e+00
0	 5.500000e+00	 6.500000e+00	 9.657779e+00
0	 5.500000e+00	 6.571429e+00	 9.669781e+00
0	 5.500000e+00	 6.642857e+00	 9.681762e+00
0	 5.500000e+00	 6.714286e+00	 9.693722e+00
0	 5.500000e+00	 6.785714e+00	 9.705662e+00
0	 5.571429e+00	 6.428571e+00	 9.651553e+00
0	 5.571429e+00	 6.500000e+00	 9.663295e+00
0	 5.571429e+00	 6.571429e+00	 9.675009e+00
0	 5.571429e+00	 6.642857e+00	 9.686696e+00
0	 5.571429e+00	 6.714286e+00	 9.698355e+00
0	 5.571429e+00	 6.785714e+00	 9.709986e+00
0	 5.642857e+00	 6.428571e+00	 9.658046e+00
0	 5.642857e+00	 6.500000e+00	 9.669495e+00
0	 5.642857e+00	 6.571429e+00	 9.680909e+00
0	 5.642857e+00	 6.642857e+00	 9.692288e+00
0	 5.642857e+00	 6.714286e+00	 9.703632e+00
0	 5.642857e+00	 6.785714e+00	 9.714942e+00
0	 5.714286e+00	 6.428571e+00	 9.665236e+00
0	 5.714286e+00	 6.500000e+00	 9.676378e+00
0	 5.714286e+00	 6.571429e+00	 9.687478e+00
0	 5.714286e+00	 6.642857e+00	 9.698536e+00
0	 5.714286e+00	 6.714286e+00	 9.709553e+00
0	 5.714286e+00	 6.785714e+00	 9.720529e+00
0	 5.357143e+00	 6.785714e+00	 9.698904e+00
0	 5.357143e+00	 6.857143e+00	 9.710248e+00
0	 5.357143e+00	 6.928571e+00	 9.721640e+00
0	 5.357143e+00	 7.000000e+00	 9.733078e+00
0	 5.357143e+00	 7.071429e+00	 9.744564e+00
0	 5.357143e+00	 7.142857e+00	 9.756097e+00
0	 5.428571e+00	 6.785714e+00	 9.701967e+00
0	 5.428571e+00	 6.857143e+00	 9.713126e+00
0	 5.428571e+00	 6.928571e+00	 9.724326e+00
0	 5.428571e+00	 7.000000e+00	 9.735568e+00
0	 5.428571e+00	 7.071429e+00	 9.746850e+00
0	 5.428571e+00	 7.142857e+00	 9.758174e+00
0	 5.500000e+00	 6.785714e+00	 9.705662e+00
0	 5.500000e+00	 6.857143e+00	 9.716620e+00
0	 5.500000e+00	 6.928571e+00	 9.727613e+00
0	 5.500000e+00	 7.000000e+00	 9.738642e+00
0	 5.500000e+00	 7.071429e+00	 9.749705e+00
0	 5.500000e+00	 7.142857e+00	 9.760804e+00
0	 5.571429e+00	 6.785714e+00	 9.709986e+00
0	 5.571429e+00	 6.857143e+00	 9.720728e+00
0	 5.571429e+00	 6.928571e+00	 9.731500e+00
0	 5.571429e+00	 7.000000e+00	 9.742300e+00
0	 5.571429e+00	 7.071429e+00	 9.753130e+00
0	 5.571429e+00	 7.142857e+00	 9.763988e+00
0	 5.642857e+00	 6.785714e+00	 9.714942e+00
0	 5.642857e+00	 6.857143e+00	 9.725453e+00
0	 5.642857e+00	 6.928571e+00	 9.735986e+00
0	 5.642857e+00	 7.000000e+00	 9.746543e+00
0	 5.642857e+00	 7.071429e+00	 9.757123e+00
0	 5.642857e+00	 7.142857e+00	 9.767726e+00
0	 5.714286e+00	 6.785714e+00	 9.720529e+00
0	 5.714286e+00	 6.857143e+00	 9.730792e+00
0	 5.714286e+00	 6.928571e+00	 9.741073e+00
0	 5.714286e+00	 7.000000e+00	 9.751370e+00
0	 5.714286e+00	 7.071429e+00	 9.761685e+00
0	 5.714286e+00	 7.142857e+00	 9.772017e+00
0	 5.357143e+00	 7.142857e+00	 9.756097e+00
0	 5.357143e+00	 7.214286e+00	 9.766242e+00
0	 5.357143e+00	 7.285714e+00	 9.776477e+00
0	 5.357143e+00	 7.357143e+00	 9.786802e+00
0	 5.357143e+00	 7.428571e+00	 9.797218e+00
0	 5.357143e+00	 7.500000e+00	 9.807724e+00
0	 5.428571e+00	 7.142857e+00	 9.758174e+00
0	 5.428571e+00	 7.214286e+00	 9.768185e+00
0	 5.428571e+00	 7.285714e+00	 9.778283e+00
0	 5.428571e+00	 7.357143e+00	 9.788465e+00
0	 5.428571e+00	 7.428571e+00	 9.798733e+00
0	 5.428571e+00	 7.500000e+00	 9.809086e+00
0	 5.500000e+00	 7.142857e+00	 9.760804e+00
0	 5.500000e+00	 7.214286e+00	 9.770667e+00
0	 5.500000e+00	 7.285714e+00	 9.780610e+00
0	 5.500000e+00	 7.357143e+00	 9.790633e+00
0	 5.500000e+00	 7.428571e+00	 9.800738e+00
0	 5.500000e+00	 7.500000e+00	 9.810922e+00
0	 5.571429e+00	 7.142857e+00	 9.763988e+00
0	 5.571429e+00	 7.214286e+00	 9.773686e+00
0	 5.571429e+00	 7.285714e+00	 9.783458e+00
0	 5.571429e+00	 7.357143e+00	 9.793307e+00
0	 5.571429e+00	 7.428571e+00	 9.803231e+00
0	 5.571429e+00	 7.500000e+00	 9.813231e+00
0	 5.642857e+00	 7.142857e+00	 9.767726e+00
0	 5.642857e+00	 7.214286e+00	 9.777242e+00
0	 5.642857e+00	 7.285714e+00	 9.786829e+00
0	 5.642857e+00	 7.357143e+00	 9.796486e+00
0	 5.642857e+00	 7.428571e+00	 9.806214e+00
0	 5.642857e+00	 7.500000e+00	 9.816013e+00
0	 5.714286e+00	 7.142857e+00	 9.772017e+00
0	 5.714286e+00	 7.214286e+00	 9.781336e+00
0	 5.714286e+00	 7.285714e+00	 9.790720e+00
0	 5.714286e+00	 7.357143e+00	 9.800170e+00
0	 5.714286e+00	 7.428571e+00	 9.809686e+00
0	 5.714286e+00	 7.500000e+00	 9.819268e+00
0	 5.357143e+00	 7.500000e+00	 9.807724e+00
0	 5.357143e+00	 7.571429e+00	 9.816685e+00
0	 5.357143e+00	 7.642857e+00	 9.825774e+00
0	 5.357143e+00	 7.714286e+00	 9.834991e+00
0	 5.357143e+00	 7.785714e+00	 9.844337e+00
0	 5.357143e+00	 7.857143e+00	 9.853811e+00
0	 5.428571e+00	 7.500000e+00	 9.809086e+00
0	 5.428571e+00	 7.571429e+00	 9.817953e+00
0	 5.428571e+00	 7.642857e+00	 9.826944e+00
0	 5.428571e+00	 7.714286e+00	 9.836059e+00
0	 5.428571e+00	 7.785714e+00	 9.845299e+00
0	 5.428571e+00	 7.857143e+00	 9.854663e+00
0	 5.500000e+00	 7.500000e+00	 9.810922e+00
0	 5.500000e+00	 7.571429e+00	 9.819679e+00
0	 5.500000e+00	 7.642857e+00	 9.828556e+00
0	 5.500000e+00	 7.714286e+00	 9.837553e+00
0	 5.500000e+00	 7.785714e+00	 9.846672e+00
0	 5.500000e+00	 7.857143e+00	 9.855910e+00
0	 5.571429e+00	 7.500000e+00	 9.813231e+00
0	 5.571429e+00	 7.571429e+00	 9.821862e+00
0	 5.571429e+00	 7.642857e+00	 9.830610e+00
0	 5.571429e+00	 7.714286e+00	 9.839474e+00
0	 5.571429e+00	 7.785714e+00	 9.848454e+00
0	 5.571429e+00	 7.857143e+00	 9.857552e+00
0	 5.642857e+00	 7.500000e+00	 9.816013e+00
0	 5.642857e+00	 7.571429e+00	 9.824503e+00
0	 5.642857e+00	 7.642857e+00	 9.833105e+00
0	 5.642857e+00	 7.714286e+00	 9.841820e+00
0	 5.642857e+00	 7.785714e+00	 9.850648e+00
0	 5.642857e+00	 7.857143e+00	 9.859588e+00
0	 5.714286e+00	 7.500000e+00	 9.819268e+00
0	 5.714286e+00	 7.571429e+00	 9.827601e+00
0	 5.714286e+00	 7.642857e+00	 9.836042e+00
0	 5.714286e+00	 7.714286e+00	 9.844592e+00
0	 5.714286e+00	 7.785714e+00	 9.853251e+00
0	 5.714286e+00	 7.857143e+00	 9.862019e+00
0	 5.357143e+00	 7.857143e+00	 9.853811e+00
0	 5.357143e+00	 7.928571e+00	 9.861597e+00
0	 5.357143e+00	 8.000000e+00	 9.869549e+00
0	 5.357143e+00	 8.071429e+00	 9.877667e+00
0	 5.357143e+00	 8.142857e+00	 9.885950e+00
0	 5.357143e+00	 8.214286e+00	 9.894400e+00
0	 5.428571e+00	 7.857143e+00	 9.854663e+00
0	 5.428571e+00	 7.928571e+00	 9.862382e+00
0	 5.428571e+00	 8.000000e+00	 9.870264e+00
0	 5.428571e+00	 8.071429e+00	 9.878308e+00
0	 5.428571e+00	 8.142857e+00	 9.886515e+00
0	 5.428571e+00	 8.214286e+00	 9.894885e+00
0	 5.500000e+00	 7.857143e+00	 9.855910e+00
0	 5.500000e+00	 7.928571e+00	 9.863548e+00
0	 5.500000e+00	 8.000000e+00	 9.871345e+00
0	 5.500000e+00	 8.071429e+00	 9.879302e+00
0	 5.500000e+00	 8.142857e+00	 9.887418e+00
0	 5.500000e+00	 8.214286e+00	 9.895694e+00
0	 5.571429e+00	 7.857143e+00	 9.857552e+00
0	 5.571429e+00	 7.928571e+00	 9.865093e+00
0	 5.571429e+00	 8.000000e+00	 9.872792e+00
0	 5.571429e+00	 8.071429e+00	 9.880647e+00
0	 5.571429e+00	 8.142857e+00	 9.888658e+00
0	 5.571429e+00	 8.214286e+00	 9.896827e+00
0	 5.642857e+00	 7.857143e+00	 9.859588e+00
0	 5.642857e+00	 7.928571e+00	 9.867020e+00
0	 5.642857e+00	 8.000000e+00	 9.874605e+00
0	 5.642857e+00	 8.071429e+00	 9.882344e+00
0	 5.642857e+00	 8.142857e+00	 9.890236e+00
0	 5.642857e+00	 8.214286e+00	 9.898282e+00
0	 5.714286e+00	 7.857143e+00	 9.862019e+00
0	 5.714286e+00	 7.928571e+00	 9.869326e+00
0	 5.714286e+00	 8.000000e+00	 9.876784e+00
0	 5.714286e+00	 8.071429e+00	 9.884393e+00
0	 5.714286e+00	 8.142857e+00	 9.892152e+00
0	 5.714286e+00	 8.214286e+00	 9.900061e+00
0	 5.357143e+00	 8.214286e+00	 9.894400e+00
0	 5.357143e+00	 8.285714e+00	 9.900990e+00
0	 5.357143e+00	 8.357143e+00	 9.907788e+00
0	 5.357143e+00	 8.428571e+00	 9.914794e+00
0	 5.357143e+00	 8.500000e+00	 9.922008e+00
0	 5.357143e+00	 8.571429e+00	 9.929430e+00
0	 5.428571e+00	 8.214286e+00	 9.894885e+00
0	 5.428571e+00	 8.285714e+00	 9.901426e+00
0	 5.428571e+00	 8.357143e+00	 9.908173e+00
0	 5.428571e+00	 8.428571e+00	 9.915124e+00
0	 5.428571e+00	 8.500000e+00	 9.922281e+00
0	 5.428571e+00	 8.571429e+00	 9.929644e+00
0	 5.500000e+00	 8.214286e+00	 9.895694e+00
0	 5.500000e+00	 8.285714e+00	 9.902174e+00
0	 5.500000e+00	 8.357143e+00	 9.908856e+00
0	 5.500000e+00	 8.428571e+00	 9.915741e+00
0	 5.500000e+00	 8.500000e+00	 9.922830e+00
0	 5.500000e+00	 8.571429e+00	 9.930120e+00
0	 5.571429e+00	 8.214286e+00	 9.896827e+00
0	 5.571429e+00	 8.285714e+00	 9.903233e+00
0	 5.571429e+00	 8.357143e+00	 9.909839e+00
0	 5.571429e+00	 8.428571e+00	 9.916646e+00
0	 5.571429e+00	 8.500000e+00	 9.923653e+00
0	 5.571429e+00	 8.571429e+00	 9.930861e+00
0	 5.642857e+00	 8.214286e+00	 9.898282e+00
0	 5.642857e+00	 8.285714e+00	 9.904603e+00
0	 5.642857e+00	 8.357143e+00	 9.911121e+00
0	 5.642857e+00	 8.428571e+00	 9.917838e+00
0	 5.642857e+00	 8.500000e+00	 9.924752e+00
0	 5.642857e+00	 8.571429e+00	 9.931864e+00
0	 5.714286e+00	 8.214286e+00	 9.900061e+00
0	 5.714286e+00	 8.285714e+00	 9.906284e+00
0	 5.714286e+00	 8.357143e+00	 9.912703e+00
0	 5.714286e+00	 8.428571e+00	 9.919317e+00
0	 5.714286e+00	 8.500000e+00	 9.926127e+00
0	 5.714286e+00	 8.571429e+00	 9.933131e+00
0	 5.357143e+00	 8.571429e+00	 9.929430e+00
0	 5.357143e+00	 8.642857e+00	 9.934753e+00
0	 5.357143e+00	 8.714286e+00	 9.940335e+00
0	 5.357143e+00	 8.785714e+00	 9.946176e+00
0	 5.357143e+00	 8.857143e+00	 9.952277e+00
0	 5.357143e+00	 8.928571e+00	 9.958638e+00
0	 5.428571e+00	 8.571429e+00	 9.929644e+00
0	 5.428571e+00	 8.642857e+00	 9.934928e+00
0	 5.428571e+00	 8.714286e+00	 9.940469e+00
0	 5.428571e+00	 8.785714e+00	 9.946267e+00
0	 5.428571e+00	 8.857143e+00	 9.952323e+00
0	 5.428571e+00	 8.928571e+00	 9.958635e+00
0	 5.500000e+00	 8.571429e+00	 9.930120e+00
0	 5.500000e+00	 8.642857e+00	 9.935357e+00
0	 5.500000e+00	 8.714286e+00	 9.940848e+00
0	 5.500000e+00	 8.785714e+00	 9.946595e+00
0	 5.500000e+00	 8.857143e+00	 9.952596e+00
0	 5.500000e+00	 8.928571e+00	 9.958852e+00
0	 5.571429e+00	 8.571429e+00	 9.930861e+00
0	 5.571429e+00	 8.642857e+00	 9.936041e+00
0	 5.571429e+00	 8.714286e+00	 9.941474e+00
0	 5.571429e+00	 8.785714e+00	 9.947159e+00
0	 5.571429e+00	 8.857143e+00	 9.953097e+00
0	 5.571429e+00	 8.928571e+00	 9.959288e+00
0	 5.642857e+00	 8.571429e+00	 9.931864e+00
0	 5.642857e+00	 8.642857e+00	 9.936980e+00
0	 5.642857e+00	 8.714286e+00	 9.942345e+00
0	 5.642857e+00	 8.785714e+00	 9.947961e+00
0	 5.642857e+00	 8.857143e+00	 9.953827e+00
0	 5.642857e+00	 8.928571e+00	 9.959943e+00
0	 5.714286e+00	 8.571429e+00	 9.933131e+00
0	 5.714286e+00	 8.642857e+00	 9.938173e+00
0	 5.714286e+00	 8.714286e+00	 9.943462e+00
0	 5.714286e+00	 8.785714e+00	 9.948999e+00
0	 5.714286e+00	 8.857143e+00	 9.954785e+00
0	 5.714286e+00	 8.928571e+00	 9.960818e+00
0	 5.357143e+00	 8.928571e+00	 9.958638e+00
0	 5.357143e+00	 9.000000e+00	 9.962537e+00
0	 5.357143e+00	 9.071429e+00	 9.966762e+00
0	 5.357143e+00	 9.142857e+00	 9.971314e+00
0	 5.357143e+00	 9.214286e+00	 9.976192e+00
0	 5.357143e+00	 9.285714e+00	 9.981397e+00
0	 5.428571e+00	 8.928571e+00	 9.958635e+00
0	 5.428571e+00	 9.000000e+00	 9.962502e+00
0	 5.428571e+00	 9.071429e+00	 9.966693e+00
0	 5.428571e+00	 9.142857e+00	 9.971207e+00
0	 5.428571e+00	 9.214286e+00	 9.976045e+00
0	 5.428571e+00	 9.285714e+00	 9.981208e+00
0	 5.500000e+00	 8.928571e+00	 9.958852e+00
0	 5.500000e+00	 9.000000e+00	 9.962682e+00
0	 5.500000e+00	 9.071429e+00	 9.966834e+00
0	 5.500000e+00	 9.142857e+00	 9.971306e+00
0	 5.500000e+00	 9.214286e+00	 9.976100e+00
0	 5.500000e+00	 9.285714e+00	 9.981214e+00
0	 5.571429e+00	 8.928571e+00	 9.959288e+00
0	 5.571429e+00	 9.000000e+00	 9.963077e+00
0	 5.571429e+00	 9.071429e+00	 9.967184e+00
0	 5.571429e+00	 9.142857e+00	 9.971610e+00
0	 5.571429e+00	 9.214286e+00	 9.976355e+00
0	 5.571429e+00	 9.285714e+00	 9.981418e+00
0	 5.642857e+00	 8.928571e+00	 9.959943e+00
0	 5.642857e+00	 9.000000e+00	 9.963686e+00
0	 5.642857e+00	 9.071429e+00	 9.967745e+00
0	 5.642857e+00	 9.142857e+00	 9.972120e+00
0	 5.642857e+00	 9.214286e+00	 9.976811e+00
0	 5.642857e+00	 9.285714e+00	 9.981817e+00
0	 5.714286e+00	 8.928571e+00	 9.960818e+00
0	 5.714286e+00	 9.000000e+00	 9.964510e+00
0	 5.714286e+00	 9.071429e+00	 9.968516e+00
0	 5.714286e+00	 9.142857e+00	 9.972835e+00
0	 5.714286e+00	 9.214286e+00	 9.977467e+00
0	 5.714286e+00	 9.285714e+00	 9.982412e+00
0	 5.357143e+00	 9.285714e+00	 9.981397e+00
0	 5.357143e+00	 9.357143e+00	 9.983634e+00
0	 5.357143e+00	 9.428571e+00	 9.986286e+00
0	 5.357143e+00	 9.500000e+00	 9.989353e+00
0	 5.357143e+00	 9.571429e+00	 9.992835e+00
0	 5.357143e+00	 9.642857e+00	 9.996732e+00
0	 5.428571e+00	 9.285714e+00	 9.981208e+00
0	 5.428571e+00	 9.357143e+00	 9.983417e+00
0	 5.428571e+00	 9.428571e+00	 9.986039e+00
0	 5.428571e+00	 9.500000e+00	 9.989071e+00
0	 5.428571e+00	 9.571429e+00	 9.992515e+00
0	 5.428571e+00	 9.642857e+00	 9.996370e+00
0	 5.500000e+00	 9.285714e+00	 9.981214e+00
0	 5.500000e+00	 9.357143e+00	 9.983398e+00
0	 5.500000e+00	 9.428571e+00	 9.985990e+00
0	 5.500000e+00	 9.500000e+00	 9.988988e+00
0	 5.500000e+00	 9.571429e+00	 9.992395e+00
0	 5.500000e+00	 9.642857e+00	 9.996209e+00
0	 5.571429e+00	 9.285714e+00	 9.981418e+00
0	 5.571429e+00	 9.357143e+00	 9.983576e+00
0	 5.571429e+00	 9.428571e+00	 9.986138e+00
0	 5.571429e+00	 9.500000e+00	 9.989104e+00
0	 5.571429e+00	 9.571429e+00	 9.992474e+00
0	 5.571429e+00	 9.642857e+00	 9.996248e+00
0	 5.642857e+00	 9.285714e+00	 9.981817e+00
0	 5.642857e+00	 9.357143e+00	 9.983951e+00
0	 5.642857e+00	 9.428571e+00	 9.986485e+00
0	 5.642857e+00	 9.500000e+00	 9.989419e+00
0	 5.642857e+00	 9.571429e+00	 9.992753e+00
0	 5.642857e+00	 9.642857e+00	 9.996487e+00
0	 5.714286e+00	 9.285714e+00	 9.982412e+00
0	 5.714286e+00	 9.357143e+00	 9.984523e+00
0	 5.714286e+00	 9.428571e+00	 9.987029e+00
0	 5.714286e+00	 9.500000e+00	 9.989932e+00
0	 5.714286e+00	 9.571429e+00	 9.993232e+00
0	 5.714286e+00	 9.642857e+00	 9.996927e+00
0	 5.357143e+00	 9.642857e+00	 9.996732e+00
0	 5.357143e+00	 9.714286e+00	 9.996837e+00
0	 5.357143e+00	 9.785714e+00	 9.997477e+00
0	 5.357143e+00	 9.857143e+00	 9.998651e+00
0	 5.357143e+00	 9.928571e+00	 1.000036e+01
0	 5.357143e+00	 1.000000e+01	 1.000260e+01
0	 5.428571e+00	 9.642857e+00	 9.996370e+00
0	 5.428571e+00	 9.714286e+00	 9.996458e+00
0	 5.428571e+00	 9.785714e+00	 9.997073e+00
0	 5.428571e+00	 9.857143e+00	 9.998218e+00
0	 5.428571e+00	 9.928571e+00	 9.999890e+00
0	 5.428571e+00	 1.000000e+01	 1.000209e+01
0	 5.500000e+00	 9.642857e+00	 9.996209e+00
0	 5.500000e+00	 9.714286e+00	 9.996286e+00
0	 5.500000e+00	 9.785714e+00	 9.996886e+00
0	 5.500000e+00	 9.857143e+00	 9.998009e+00
0	 5.500000e+00	 9.928571e+00	 9.999654e+00
0	 5.500000e+00	 1.000000e+01	 1.000182e+01
0	 5.571429e+00	 9.642857e+00	 9.996248e+00
0	 5.571429e+00	 9.714286e+00	 9.996323e+00
0	 5.571429e+00	 9.785714e+00	 9.996915e+00
0	 5.571429e+00	 9.857143e+00	 9.998024e+00
0	 5.571429e+00	 9.928571e+00	 9.999650e+00
0	 5.571429e+00	 1.000000e+01	 1.000179e+01
0	 5.642857e+00	 9.642857e+00	 9.996487e+00
0	 5.642857e+00	 9.714286e+00	 9.996569e+00
0	 5.642857e+00	 9.785714e+00	 9.997161e+00
0	 5.642857e+00	 9.857143e+00	 9.998264e+00
0	 5.642857e+00	 9.928571e+00	 9.999878e+00
0	 5.642857e+00	 1.000000e+01	 1.000200e+01
0	 5.714286e+00	 9.642857e+00	 9.996927e+00
0	 5.714286e+00	 9.714286e+00	 9.997022e+00
0	 5.714286e+00	 9.785714e+00	 9.997623e+00
0	 5.714286e+00	 9.857143e+00	 9.998728e+00
0	 5.714286e+00	 9.928571e+00	 1.000034e+01
0	 5.714286e+00	 1.000000e+01	 1.000245e+01
0	 5.714286e+00	 0.000000e+00	 1.023064e+01
0	 5.714286e+00	 7.142857e-02	 1.021956e+01
0	 5.714286e+00	 1.428571e-01	 1.021122e+01
0	 5.714286e+00	 2.142857e-01	 1.020562e+01
0	 5.714286e+00	 2.857143e-01	 1.020276e+01
0	 5.714286e+00	 3.571429e-01	 1.020265e+01
0	 5.785714e+00	 0.000000e+00	 1.024301e+01
0	 5.785714e+00	 7.142857e-02	 1.023246e+01
0	 5.785714e+00	 1.428571e-01	 1.022452e+01
0	 5.785714e+00	 2.142857e-01	 1.021920e+01
0	 5.785714e+00	 2.857143e-01	 1.021650e+01
0	 5.785714e+00	 3.571429e-01	 1.021641e+01
0	 5.857143e+00	 0.000000e+00	 1.025657e+01
0	 5.857143e+00	 7.142857e-02	 1.024652e+01
0	 5.857143e+00	 1.428571e-01	 1.023896e+01
0	 5.857143e+00	 2.142857e-01	 1.023389e+01
0	 5.857143e+00	 2.857143e-01	 1.023131e+01
0	 5.857143e+00	 3.571429e-01	 1.023122e+01
0	 5.928571e+00	 0.000000e+00	 1.027133e+01
0	 5.928571e+00	 7.142857e-02	 1.026175e+01
0	 5.928571e+00	 1.428571e-01	 1.025454e+01
0	 5.928571e+00	 2.142857e-01	 1.024969e+01
0	 5.928571e+00	 2.857143e-01	 1.024721e+01
0	 5.928571e+00	 3.571429e-01	 1.024709e+01
0	 6.000000e+00	 0.000000e+00	 1.028727e+01
0	 6.000000e+00	 7.142857e-02	 1.027814e+01
0	 6.000000e+00	 1.428571e-01	 1.027125e+01
0	 6.000000e+00	 2.142857e-01	 1.026659e+01
0	 6.000000e+00	 2.857143e-01	 1.026418e+01
0	 6.000000e+00	 3.571429e-01	 1.026400e+01
0	 6.071429e+00	 0.000000e+00	 1.030441e+01
0	 6.071429e+00	 7.142857e-02	 1.029569e+01
0	 6.071429e+00	 1.428571e-01	 1.028909e+01
0	 6.071429e+00	 2.142857e-01	 1.028460e+01
0	 6.071429e+00	 2.857143e-01	 1.028223e+01
0	 6.071429e+00	 3.571429e-01	 1.028196e+01
0	 5.714286e+00	 3.571429e-01	 1.020265e+01
0	 5.714286e+00	 4.285714e-01	 1.018192e+01
0	 5.714286e+00	 5.000000e-01	 1.016359e+01
0	 5.714286e+00	 5.714286e-01	 1.014766e+01
0	 5.714286e+00	 6.428571e-01	 1.013413e+01
0	 5.714286e+00	 7.142857e-01	 1.012300e+01
0	 5.785714e+00	 3.571429e-01	 1.021641e+01
0	 5.785714e+00	 4.285714e-01	 1.019664e+01
0	 5.785714e+00	 5.000000e-01	 1.017917e+01
0	 5.785714e+00	 5.714286e-01	 1.016400e+01
0	 5.785714e+00	 6.428571e-01	 1.015112e+01
0	 5.785714e+00	 7.142857e-01	 1.014054e+01
0	 5.857143e+00	 3.571429e-01	 1.023122e+01
0	 5.857143e+00	 4.285714e-01	 1.021234e+01
0	 5.857143e+00	 5.000000e-01	 1.019566e+01
0	 5.857143e+00	 5.714286e-01	 1.018117e+01
0	 5.857143e+00	 6.428571e-01	 1.016887e+01
0	 5.857143e+00	 7.142857e-01	 1.015876e+01
0	 5.928571e+00	 3.571429e-01	 1.024709e+01
0	 5.928571e+00	 4.285714e-01	 1.022902e+01
0	 5.928571e+00	 5.000000e-01	 1.021304e+01
0	 5.928571e+00	 5.714286e-01	 1.019916e+01
0	 5.928571e+00	 6.428571e-01	 1.018736e+01
0	 5.928571e+00	 7.142857e-01	 1.017766e+01
0	 6.000000e+00	 3.571429e-01	 1.026400e+01
0	 6.000000e+00	 4.285714e-01	 1.024667e+01
0	 6.000000e+00	 5.000000e-01	 1.023133e+01
0	 6.000000e+00	 5.714286e-01	 1.021798e+01
0	 6.000000e+00	 6.428571e-01	 1.020661e+01
0	 6.000000e+00	 7.142857e-01	 1.019723e+01
0	 6.071429e+00	 3.571429e-01	 1.028196e+01
0	 6.071429e+00	 4.285714e-01	 1.026530e+01
0	 6.071429e+00	 5.000000e-01	 1.025052e+01
0	 6.071429e+00	 5.714286e-01	 1.023762e+01
0	 6.071429e+00	 6.428571e-01	 1.022661e+01
0	 6.071429e+00	 7.142857e-01	 1.021748e+01
0	 5.714286e+00	 7.142857e-01	 1.012300e+01
0	 5.714286e+00	 7.857143e-01	 1.009542e+01
0	 5.714286e+00	 8.571429e-01	 1.006962e+01
0	 5.714286e+00	 9.285714e-01	 1.004561e+01
0	 5.714286e+00	 1.000000e+00	 1.002338e+01
0	 5.714286e+00	 1.071429e+00	 1.000294e+01
0	 5.785714e+00	 7.142857e-01	 1.014054e+01
0	 5.785714e+00	 7.857143e-01	 1.011419e+01
0	 5.785714e+00	 8.571429e-01	 1.008955e+01
0	 5.785714e+00	 9.285714e-01	 1.006663e+01
0	 5.785714e+00	 1.000000e+00	 1.004543e+01
0	 5.785714e+00	 1.071429e+00	 1.002595e+01
0	 5.857143e+00	 7.142857e-01	 1.015876e+01
0	 5.857143e+00	 7.857143e-01	 1.013353e+01
0	 5.857143e+00	 8.571429e-01	 1.010994e+01
0	 5.857143e+00	 9.285714e-01	 1.008801e+01
0	 5.857143e+00	 1.000000e+00	 1.006773e+01
0	 5.857143e+00	 1.071429e+00	 1.004909e+01
0	 5.928571e+00	 7.142857e-01	 1.017766e+01
0	 5.928571e+00	 7.857143e-01	 1.015344e+01
0	 5.928571e+00	 8.571429e-01	 1.013080e+01
0	 5.928571e+00	 9.285714e-01	 1.010974e+01
0	 5.928571e+00	 1.000000e+00	 1.009027e+01
0	 5.928571e+00	 1.071429e+00	 1.007237e+01
0	 6.000000e+00	 7.142857e-01	 1.019723e+01
0	 6.000000e+00	 7.857143e-01	 1.017391e+01
0	 6.000000e+00	 8.571429e-01	 1.015211e+01
0	 6.000000e+00	 9.285714e-01	 1.013183e+01
0	 6.000000e+00	 1.000000e+00	 1.011305e+01
0	 6.000000e+00	 1.071429e+00	 1.009579e+01
0	 6.071429e+00	 7.142857e-01	 1.021748e+01
0	 6.071429e+00	 7.857143e-01	 1.019496e+01
0	 6.071429e+00	 8.571429e-01	 1.017389e+01
0	 6.071429e+00	 9.285714e-01	 1.015426e+01
0	 6.071429e+00	 1.000000e+00	 1.013608e+01
0	 6.071429e+00	 1.071429e+00	 1.011934e+01
0	 5.714286e+00	 1.071429e+00	 1.000294e+01
0	 5.714286e+00	 1.142857e+00	 9.972105e+00
0	 5.714286e+00	 1.214286e+00	 9.942290e+00
0	 5.714286e+00	 1.285714e+00	 9.913498e+00
0	 5.714286e+00	 1.357143e+00	 9.885730e+00
0	 5.714286e+00	 1.428571e+00	 9.858985e+00
0	 5.785714e+00	 1.071429e+00	 1.002595e+01
0	 5.785714e+00	 1.142857e+00	 9.996374e+00
0	 5.785714e+00	 1.214286e+00	 9.967792e+00
0	 5.785714e+00	 1.285714e+00	 9.940207e+00
0	 5.785714e+00	 1.357143e+00	 9.913617e+00
0	 5.785714e+00	 1.428571e+00	 9.888024e+00
0	 5.857143e+00	 1.071429e+00	 1.004909e+01
0	 5.857143e+00	 1.142857e+00	 1.002066e+01
0	 5.857143e+00	 1.214286e+00	 9.993198e+00
0	 5.857143e+00	 1.285714e+00	 9.966703e+00
0	 5.857143e+00	 1.357143e+00	 9.941176e+00
0	 5.857143e+00	 1.428571e+00	 9.916617e+00
0	 5.928571e+00	 1.071429e+00	 1.007237e+01
0	 5.928571e+00	 1.142857e+00	 1.004497e+01
0	 5.928571e+00	 1.214286e+00	 1.001851e+01
0	 5.928571e+00	 1.285714e+00	 9.992986e+00
0	 5.928571e+00	 1.357143e+00	 9.968405e+00
0	 5.928571e+00	 1.428571e+00	 9.944764e+00
0	 6.000000e+00	 1.071429e+00	 1.009579e+01
0	 6.000000e+00	 1.142857e+00	 1.006930e+01
0	 6.000000e+00	 1.214286e+00	 1.004372e+01
0	 6.000000e+00	 1.285714e+00	 1.001906e+01
0	 6.000000e+00	 1.357143e+00	 9.995304e+00
0	 6.000000e+00	 1.428571e+00	 9.972466e+00
0	 6.071429e+00	 1.071429e+00	 1.011934e+01
0	 6.071429e+00	 1.142857e+00	 1.009365e+01
0	 6.071429e+00	 1.214286e+00	 1.006884e+01
0	 6.071429e+00	 1.285714e+00	 1.004491e+01
0	 6.071429e+00	 1.357143e+00	 1.002188e+01
0	 6.071429e+00	 1.428571e+00	 9.999722e+00
0	 5.714286e+00	 1.428571e+00	 9.858985e+00
0	 5.714286e+00	 1.500000e+00	 9.828639e+00
0	 5.714286e+00	 1.571429e+00	 9.798518e+00
0	 5.714286e+00	 1.642857e+00	 9.768621e+00
0	 5.714286e+00	 1.714286e+00	 9.738949e+00
0	 5.714286e+00	 1.785714e+00	 9.709501e+00
0	 5.785714e+00	 1.428571e+00	 9.888024e+00
0	 5.785714e+00	 1.500000e+00	 9.858721e+00
0	 5.785714e+00	 1.571429e+00	 9.829657e+00
0	 5.785714e+00	 1.642857e+00	 9.800832e+00
0	 5.785714e+00	 1.714286e+00	 9.772247e+00
0	 5.785714e+00	 1.785714e+00	 9.743900e+00
0	 5.857143e+00	 1.428571e+00	 9.916617e+00
0	 5.857143e+00	 1.500000e+00	 9.888261e+00
0	 5.857143e+00	 1.571429e+00	 9.860160e+00
0	 5.857143e+00	 1.642857e+00	 9.832312e+00
0	 5.857143e+00	 1.714286e+00	 9.804718e+00
0	 5.857143e+00	 1.785714e+00	 9.777377e+00
0	 5.928571e+00	 1.428571e+00	 9.944764e+00
0	 5.928571e+00	 1.500000e+00	 9.917261e+00
0	 5.928571e+00	 1.571429e+00	 9.890026e+00
0	 5.928571e+00	 1.642857e+00	 9.863060e+00
0	 5.928571e+00	 1.714286e+00	 9.836362e+00
0	 5.928571e+00	 1.785714e+00	 9.809932e+00
0	 6.000000e+00	 1.428571e+00	 9.972466e+00
0	 6.000000e+00	 1.500000e+00	 9.945720e+00
0	 6.000000e+00	 1.571429e+00	 9.919256e+00
0	 6.000000e+00	 1.642857e+00	 9.893076e+00
0	 6.000000e+00	 1.714286e+00	 9.867179e+00
0	 6.000000e+00	 1.785714e+00	 9.841565e+00
0	 6.071429e+00	 1.428571e+00	 9.999722e+00
0	 6.071429e+00	 1.500000e+00	 9.973637e+00
0	 6.071429e+00	 1.571429e+00	 9.947850e+00
0	 6.071429e+00	 1.642857e+00	 9.922361e+00
0	 6.071429e+00	 1.714286e+00	 9.897169e+00
0	 6.071429e+00	 1.785714e+00	 9.872274e+00
0	 5.714286e+00	 1.785714e+00	 9.709501e+00
0	 5.714286e+00	 1.857143e+00	 9.682730e+00
0	 5.714286e+00	 1.928571e+00	 9.655496e+00
0	 5.714286e+00	 2.000000e+00	 9.627799e+00
0	 5.714286e+00	 2.071429e+00	 9.599639e+00
0	 5.714286e+00	 2.142857e+00	 9.571016e+00
0	 5.785714e+00	 1.785714e+00	 9.743900e+00
0	 5.785714e+00	 1.857143e+00	 9.717818e+00
0	 5.785714e+00	 1.928571e+00	 9.691317e+00
0	 5.785714e+00	 2.000000e+00	 9.664398e+00
0	 5.785714e+00	 2.071429e+00	 9.637061e+00
0	 5.785714e+00	 2.142857e+00	 9.609305e+00
0	 5.857143e+00	 1.785714e+00	 9.777377e+00
0	 5.857143e+00	 1.857143e+00	 9.751919e+00
0	 5.857143e+00	 1.928571e+00	 9.726087e+00
0	 5.857143e+00	 2.000000e+00	 9.699882e+00
0	 5.857143e+00	 2.071429e+00	 9.673303e+00
0	 5.857143e+00	 2.142857e+00	 9.646352e+00
0	 5.928571e+00	 1.785714e+00	 9.809932e+00
0	 5.928571e+00	 1.857143e+00	 9.785034e+00
0	 5.928571e+00	 1.928571e+00	 9.759806e+00
0	 5.928571e+00	 2.000000e+00	 9.734251e+00
0	 5.928571e+00	 2.071429e+00	 9.708367e+00
0	 5.928571e+00	 2.142857e+00	 9.682154e+00
0	 6.000000e+00	 1.785714e+00	 9.841565e+00
0	 6.000000e+00	 1.857143e+00	 9.817162e+00
0	 6.000000e+00	 1.928571e+00	 9.792475e+00
0	 6.000000e+00	 2.000000e+00	 9.767505e+00
0	 6.000000e+00	 2.071429e+00	 9.742251e+00
0	 6.000000e+00	 2.142857e+00	 9.716713e+00
0	 6.071429e+00	 1.785714e+00	 9.872274e+00
0	 6.071429e+00	 1.857143e+00	 9.848303e+00
0	 6.071429e+00	 1.928571e+00	 9.824092e+00
0	 6.071429e+00	 2.000000e+00	 9.799643e+00
0	 6.071429e+00	 2.071429e+00	 9.774955e+00
0	 6.071429e+00	 2.142857e+00	 9.750029e+00
0	 5.714286e+00	 2.142857e+00	 9.571016e+00
0	 5.714286e+00	 2.214286e+00	 9.550004e+00
0	 5.714286e+00	 2.285714e+00	 9.528013e+00
0	 5.714286e+00	 2.357143e+00	 9.505041e+00
0	 5.714286e+00	 2.428571e+00	 9.481089e+00
0	 5.714286e+00	 2.500000e+00	 9.456156e+00
0	 5.785714e+00	 2.142857e+00	 9.609305e+00
0	 5.785714e+00	 2.214286e+00	 9.588530e+00
0	 5.785714e+00	 2.285714e+00	 9.566838e+00
0	 5.785714e+00	 2.357143e+00	 9.544232e+00
0	 5.785714e+00	 2.428571e+00	 9.520710e+00
0	 5.785714e+00	 2.500000e+00	 9.496272e+00
0	 5.857143e+00	 2.142857e+00	 9.646352e+00
0	 5.857143e+00	 2.214286e+00	 9.625791e+00
0	 5.857143e+00	 2.285714e+00	 9.604380e+00
0	 5.857143e+00	 2.357143e+00	 9.582119e+00
0	 5.857143e+00	 2.428571e+00	 9.559008e+00
0	 5.857143e+00	 2.500000e+00	 9.535046e+00
0	 5.928571e+00	 2.142857e+00	 9.682154e+00
0	 5.928571e+00	 2.214286e+00	 9.661789e+00
0	 5.928571e+00	 2.285714e+00	 9.640639e+00
0	 5.928571e+00	 2.357143e+00	 9.618704e+00
0	 5.928571e+00	 2.428571e+00	 9.595982e+00
0	 5.928571e+00	 2.500000e+00	 9.572476e+00
0	 6.000000e+00	 2.142857e+00	 9.716713e+00
0	 6.000000e+00	 2.214286e+00	 9.696524e+00
0	 6.000000e+00	 2.285714e+00	 9.675615e+00
0	 6.000000e+00	 2.357143e+00	 9.653984e+00
0	 6.000000e+00	 2.428571e+00	 9.631634e+00
0	 6.000000e+00	 2.500000e+00	 9.608562e+00
0	 6.071429e+00	 2.142857e+00	 9.750029e+00
0	 6.071429e+00	 2.214286e+00	 9.729995e+00
0	 6.071429e+00	 2.285714e+00	 9.709307e+00
0	 6.071429e+00	 2.357143e+00	 9.687962e+00
0	 6.071429e+00	 2.428571e+00	 9.665962e+00
0	 6.071429e+00	 2.500000e+00	 9.643306e+00
0	 5.714286e+00	 2.500000e+00	 9.456156e+00
0	 5.714286e+00	 2.571429e+00	 9.441897e+00
0	 5.714286e+00	 2.642857e+00	 9.426360e+00
0	 5.714286e+00	 2.714286e+00	 9.409545e+00
0	 5.714286e+00	 2.785714e+00	 9.391451e+00
0	 5.714286e+00	 2.857143e+00	 9.372080e+00
0	 5.785714e+00	 2.500000e+00	 9.496272e+00
0	 5.785714e+00	 2.571429e+00	 9.481824e+00
0	 5.785714e+00	 2.642857e+00	 9.466166e+00
0	 5.785714e+00	 2.714286e+00	 9.449299e+00
0	 5.785714e+00	 2.785714e+00	 9.431223e+00
0	 5.785714e+00	 2.857143e+00	 9.411937e+00
0	 5.857143e+00	 2.500000e+00	 9.535046e+00
0	 5.857143e+00	 2.571429e+00	 9.520426e+00
0	 5.857143e+00	 2.642857e+00	 9.504667e+00
0	 5.857143e+00	 2.714286e+00	 9.487767e+00
0	 5.857143e+00	 2.785714e+00	 9.469728e+00
0	 5.857143e+00	 2.857143e+00	 9.450548e+00
0	 5.928571e+00	 2.500000e+00	 9.572476e+00
0	 5.928571e+00	 2.571429e+00	 9.557705e+00
0	 5.928571e+00	 2.642857e+00	 9.541863e+00
0	 5.928571e+00	 2.714286e+00	 9.524950e+00
0	 5.928571e+00	 2.785714e+00	 9.506967e+00
0	 5.928571e+00	 2.857143e+00	 9.487912e+00
0	 6.000000e+00	 2.500000e+00	 9.608562e+00
0	 6.000000e+00	 2.571429e+00	 9.593660e+00
0	 6.000000e+00	 2.642857e+00	 9.577755e+00
0	 6.000000e+00	 2.714286e+00	 9.560848e+00
0	 6.000000e+00	 2.785714e+00	 9.542939e+00
0	 6.000000e+00	 2.857143e+00	 9.524028e+00
0	 6.071429e+00	 2.500000e+00	 9.643306e+00
0	 6.071429e+00	 2.571429e+00	 9.628290e+00
0	 6.071429e+00	 2.642857e+00	 9.612342e+00
0	 6.071429e+00	 2.714286e+00	 9.595460e+00
0	 6.071429e+00	 2.785714e+00	 9.577645e+00
0	 6.071429e+00	 2.857143e+00	 9.558898e+00
0	 5.714286e+00	 2.857143e+00	 9.372080e+00
0	 5.714286e+00	 2.928571e+00	 9.364597e+00
0	 5.714286e+00	 3.000000e+00	 9.355726e+00
0	 5.714286e+00	 3.071429e+00	 9.345468e+00
0	 5.714286e+00	 3.142857e+00	 9.333822e+00
0	 5.714286e+00	 3.214286e+00	 9.320789e+00
0	 5.785714e+00	 2.857143e+00	 9.411937e+00
0	 5.785714e+00	 2.928571e+00	 9.403926e+00
0	 5.785714e+00	 3.000000e+00	 9.394592e+00
0	 5.785714e+00	 3.071429e+00	 9.383934e+00
0	 5.785714e+00	 3.142857e+00	 9.371953e+00
0	 5.785714e+00	 3.214286e+00	 9.358648e+00
0	 5.857143e+00	 2.857143e+00	 9.450548e+00
0	 5.857143e+00	 2.928571e+00	 9.442054e+00
0	 5.857143e+00	 3.000000e+00	 9.432301e+00
0	 5.857143e+00	 3.071429e+00	 9.421288e+00
0	 5.857143e+00	 3.142857e+00	 9.409016e+00
0	 5.857143e+00	 3.214286e+00	 9.395485e+00
0	 5.928571e+00	 2.857143e+00	 9.487912e+00
0	 5.928571e+00	 2.928571e+00	 9.478980e+00
0	 5.928571e+00	 3.000000e+00	 9.468852e+00
0	 5.928571e+00	 3.071429e+00	 9.457530e+00
0	 5.928571e+00	 3.142857e+00	 9.445013e+00
0	 5.928571e+00	 3.214286e+00	 9.431301e+00
0	 6.000000e+00	 2.857143e+00	 9.524028e+00
0	 6.000000e+00	 2.928571e+00	 9.514703e+00
0	 6.000000e+00	 3.000000e+00	 9.504247e+00
0	 6.000000e+00	 3.071429e+00	 9.492661e+00
0	 6.000000e+00	 3.142857e+00	 9.479944e+00
0	 6.000000e+00	 3.214286e+00	 9.466095e+00
0	 6.071429e+00	 2.857143e+00	 9.558898e+00
0	 6.071429e+00	 2.928571e+00	 9.549225e+00
0	 6.071429e+00	 3.000000e+00	 9.538486e+00
0	 6.071429e+00	 3.071429e+00	 9.526680e+00
0	 6.071429e+00	 3.142857e+00	 9.513807e+00
0	 6.071429e+00	 3.214286e+00	 9.499868e+00
0	 5.714286e+00	 3.214286e+00	 9.320789e+00
0	 5.714286e+00	 3.285714e+00	 9.319423e+00
0	 5.714286e+00	 3.357143e+00	 9.316707e+00
0	 5.714286e+00	 3.428571e+00	 9.312643e+00
0	 5.714286e+00	 3.500000e+00	 9.307230e+00
0	 5.714286e+00	 3.571429e+00	 9.300468e+00
0	 5.785714e+00	 3.214286e+00	 9.358648e+00
0	 5.785714e+00	 3.285714e+00	 9.356511e+00
0	 5.785714e+00	 3.357143e+00	 9.353078e+00
0	 5.785714e+00	 3.428571e+00	 9.348350e+00
0	 5.785714e+00	 3.500000e+00	 9.342326e+00
0	 5.785714e+00	 3.571429e+00	 9.335006e+00
0	 5.857143e+00	 3.214286e+00	 9.395485e+00
0	 5.857143e+00	 3.285714e+00	 9.392641e+00
0	 5.857143e+00	 3.357143e+00	 9.388553e+00
0	 5.857143e+00	 3.428571e+00	 9.383224e+00
0	 5.857143e+00	 3.500000e+00	 9.376652e+00
0	 5.857143e+00	 3.571429e+00	 9.368837e+00
0	 5.928571e+00	 3.214286e+00	 9.431301e+00
0	 5.928571e+00	 3.285714e+00	 9.427811e+00
0	 5.928571e+00	 3.357143e+00	 9.423132e+00
0	 5.928571e+00	 3.428571e+00	 9.417264e+00
0	 5.928571e+00	 3.500000e+00	 9.410207e+00
0	 5.928571e+00	 3.571429e+00	 9.401960e+00
0	 6.000000e+00	 3.214286e+00	 9.466095e+00
0	 6.000000e+00	 3.285714e+00	 9.462023e+00
0	 6.000000e+00	 3.357143e+00	 9.456815e+00
0	 6.000000e+00	 3.428571e+00	 9.450472e+00
0	 6.000000e+00	 3.500000e+00	 9.442992e+00
0	 6.000000e+00	 3.571429e+00	 9.434376e+00
0	 6.071429e+00	 3.214286e+00	 9.499868e+00
0	 6.071429e+00	 3.285714e+00	 9.495277e+00
0	 6.071429e+00	 3.357143e+00	 9.489603e+00
0	 6.071429e+00	 3.428571e+00	 9.482846e+00
0	 6.071429e+00	 3.500000e+00	 9.475006e+00
0	 6.071429e+00	 3.571429e+00	 9.466084e+00
0	 5.714286e+00	 3.571429e+00	 9.300468e+00
0	 5.714286e+00	 3.642857e+00	 9.304106e+00
0	 5.714286e+00	 3.714286e+00	 9.306535e+00
0	 5.714286e+00	 3.785714e+00	 9.307753e+00
0	 5.714286e+00	 3.857143e+00	 9.307761e+00
0	 5.714286e+00	 3.928571e+00	 9.306559e+00
0	 5.785714e+00	 3.571429e+00	 9.335006e+00
0	 5.785714e+00	 3.642857e+00	 9.337763e+00
0	 5.785714e+00	 3.714286e+00	 9.339350e+00
0	 5.785714e+00	 3.785714e+00	 9.339765e+00
0	 5.785714e+00	 3.857143e+00	 9.339009e+00
0	 5.785714e+00	 3.928571e+00	 9.337082e+00
0	 5.857143e+00	 3.571429e+00	 9.368837e+00
0	 5.857143e+00	 3.642857e+00	 9.370776e+00
0	 5.857143e+00	 3.714286e+00	 9.371582e+00
0	 5.857143e+00	 3.785714e+00	 9.371257e+00
0	 5.857143e+00	 3.857143e+00	 9.369800e+00
0	 5.857143e+00	 3.928571e+00	 9.367211e+00
0	 5.928571e+00	 3.571429e+00	 9.401960e+00
0	 5.928571e+00	 3.642857e+00	 9.403143e+00
0	 5.928571e+00	 3.714286e+00	 9.403232e+00
0	 5.928571e+00	 3.785714e+00	 9.402229e+00
0	 5.928571e+00	 3.857143e+00	 9.400134e+00
0	 5.928571e+00	 3.928571e+00	 9.396945e+00
0	 6.000000e+00	 3.571429e+00	 9.434376e+00
0	 6.000000e+00	 3.642857e+00	 9.434865e+00
0	 6.000000e+00	 3.714286e+00	 9.434300e+00
0	 6.000000e+00	 3.785714e+00	 9.432682e+00
0	 6.000000e+00	 3.857143e+00	 9.430010e+00
0	 6.000000e+00	 3.928571e+00	 9.426285e+00
0	 6.071429e+00	 3.571429e+00	 9.466084e+00
0	 6.071429e+00	 3.642857e+00	 9.465942e+00
0	 6.071429e+00	 3.714286e+00	 9.464786e+00
0	 6.071429e+00	 3.785714e+00	 9.462615e+00
0	 6.071429e+00	 3.857143e+00	 9.459429e+00
0	 6.071429e+00	 3.928571e+00	 9.455229e+00
0	 5.714286e+00	 3.928571e+00	 9.306559e+00
0	 5.714286e+00	 4.000000e+00	 9.314022e+00
0	 5.714286e+00	 4.071429e+00	 9.320458e+00
0	 5.714286e+00	 4.142857e+00	 9.325867e+00
0	 5.714286e+00	 4.214286e+00	 9.330249e+00
0	 5.714286e+00	 4.285714e+00	 9.333604e+00
0	 5.785714e+00	 3.928571e+00	 9.337082e+00
0	 5.785714e+00	 4.000000e+00	 9.343625e+00
0	 5.785714e+00	 4.071429e+00	 9.349168e+00
0	 5.785714e+00	 4.142857e+00	 9.353711e+00
0	 5.785714e+00	 4.214286e+00	 9.357254e+00
0	 5.785714e+00	 4.285714e+00	 9.359796e+00
0	 5.857143e+00	 3.928571e+00	 9.367211e+00
0	 5.857143e+00	 4.000000e+00	 9.372894e+00
0	 5.857143e+00	 4.071429e+00	 9.377603e+00
0	 5.857143e+00	 4.142857e+00	 9.381339e+00
0	 5.857143e+00	 4.214286e+00	 9.384102e+00
0	 5.857143e+00	 4.285714e+00	 9.385892e+00
0	 5.928571e+00	 3.928571e+00	 9.396945e+00
0	 5.928571e+00	 4.000000e+00	 9.401827e+00
0	 5.928571e+00	 4.071429e+00	 9.405763e+00
0	 5.928571e+00	 4.142857e+00	 9.408752e+00
0	 5.928571e+00	 4.214286e+00	 9.410794e+00
0	 5.928571e+00	 4.285714e+00	 9.411891e+00
0	 6.000000e+00	 3.928571e+00	 9.426285e+00
0	 6.000000e+00	 4.000000e+00	 9.430425e+00
0	 6.000000e+00	 4.071429e+00	 9.433646e+00
0	 6.000000e+00	 4.142857e+00	 9.435948e+00
0	 6.000000e+00	 4.214286e+00	 9.437330e+00
0	 6.000000e+00	 4.285714e+00	 9.437792e+00
0	 6.071429e+00	 3.928571e+00	 9.455229e+00
0	 6.071429e+00	 4.000000e+00	 9.458688e+00
0	 6.071429e+00	 4.071429e+00	 9.461255e+00
0	 6.071429e+00	 4.142857e+00	 9.462928e+00
0	 6.071429e+00	 4.214286e+00	 9.463709e+00
0	 6.071429e+00	 4.285714e+00	 9.463597e+00
0	 5.714286e+00	 4.285714e+00	 9.333604e+00
0	 5.714286e+00	 4.357143e+00	 9.343699e+00
0	 5.714286e+00	 4.428571e+00	 9.352968e+00
0	 5.714286e+00	 4.500000e+00	 9.361413e+00
0	 5.714286e+00	 4.571429e+00	 9.369032e+00
0	 5.714286e+00	 4.642857e+00	 9.375825e+00
0	 5.785714e+00	 4.285714e+00	 9.359796e+00
0	 5.785714e+00	 4.357143e+00	 9.369016e+00
0	 5.785714e+00	 4.428571e+00	 9.377427e+00
0	 5.785714e+00	 4.500000e+00	 9.385027e+00
0	 5.785714e+00	 4.571429e+00	 9.391817e+00
0	 5.785714e+00	 4.642857e+00	 9.397798e+00
0	 5.857143e+00	 4.285714e+00	 9.385892e+00
0	 5.857143e+00	 4.357143e+00	 9.394284e+00
0	 5.857143e+00	 4.428571e+00	 9.401882e+00
0	 5.857143e+00	 4.500000e+00	 9.408685e+00
0	 5.857143e+00	 4.571429e+00	 9.414694e+00
0	 5.857143e+00	 4.642857e+00	 9.419908e+00
0	 5.928571e+00	 4.285714e+00	 9.411891e+00
0	 5.928571e+00	 4.357143e+00	 9.419502e+00
0	 5.928571e+00	 4.428571e+00	 9.426334e+00
0	 5.928571e+00	 4.500000e+00	 9.432387e+00
0	 5.928571e+00	 4.571429e+00	 9.437660e+00
0	 5.928571e+00	 4.642857e+00	 9.442155e+00
0	 6.000000e+00	 4.285714e+00	 9.437792e+00
0	 6.000000e+00	 4.357143e+00	 9.444669e+00
0	 6.000000e+00	 4.428571e+00	 9.450783e+00
0	 6.000000e+00	 4.500000e+00	 9.456132e+00
0	 6.000000e+00	 4.571429e+00	 9.460718e+00
0	 6.000000e+00	 4.642857e+00	 9.464540e+00
0	 6.071429e+00	 4.285714e+00	 9.463597e+00
0	 6.071429e+00	 4.357143e+00	 9.469787e+00
0	 6.071429e+00	 4.428571e+00	 9.475229e+00
0	 6.071429e+00	 4.500000e+00	 9.479922e+00
0	 6.071429e+00	 4.571429e+00	 9.483866e+00
0	 6.071429e+00	 4.642857e+00	 9.487063e+00
0	 5.714286e+00	 4.642857e+00	 9.375825e+00
0	 5.714286e+00	 4.714286e+00	 9.387561e+00
0	 5.714286e+00	 4.785714e+00	 9.398659e+00
0	 5.714286e+00	 4.857143e+00	 9.409121e+00
0	 5.714286e+00	 4.928571e+00	 9.418946e+00
0	 5.714286e+00	 5.000000e+00	 9.428135e+00
0	 5.785714e+00	 4.642857e+00	 9.397798e+00
0	 5.785714e+00	 4.714286e+00	 9.408731e+00
0	 5.785714e+00	 4.785714e+00	 9.419036e+00
0	 5.785714e+00	 4.857143e+00	 9.428711e+00
0	 5.785714e+00	 4.928571e+00	 9.437757e+00
0	 5.785714e+00	 5.000000e+00	 9.446175e+00
0	 5.857143e+00	 4.642857e+00	 9.419908e+00
0	 5.857143e+00	 4.714286e+00	 9.430075e+00
0	 5.857143e+00	 4.785714e+00	 9.439622e+00
0	 5.857143e+00	 4.857143e+00	 9.448547e+00
0	 5.857143e+00	 4.928571e+00	 9.456850e+00
0	 5.857143e+00	 5.000000e+00	 9.464532e+00
0	 5.928571e+00	 4.642857e+00	 9.442155e+00
0	 5.928571e+00	 4.714286e+00	 9.451593e+00
0	 5.928571e+00	 4.785714e+00	 9.460417e+00
0	 5.928571e+00	 4.857143e+00	 9.468628e+00
0	 5.928571e+00	 4.928571e+00	 9.476225e+00
0	 5.928571e+00	 5.000000e+00	 9.483208e+00
0	 6.000000e+00	 4.642857e+00	 9.464540e+00
0	 6.000000e+00	 4.714286e+00	 9.473284e+00
0	 6.000000e+00	 4.785714e+00	 9.481422e+00
0	 6.000000e+00	 4.857143e+00	 9.488954e+00
0	 6.000000e+00	 4.928571e+00	 9.495880e+00
0	 6.000000e+00	 5.000000e+00	 9.502200e+00
0	 6.071429e+00	 4.642857e+00	 9.487063e+00
0	 6.071429e+00	 4.714286e+00	 9.495149e+00
0	 6.071429e+00	 4.785714e+00	 9.502637e+00
0	 6.071429e+00	 4.857143e+00	 9.509527e+00
0	 6.071429e+00	 4.928571e+00	 9.515818e+00
0	 6.071429e+00	 5.000000e+00	 9.521510e+00
0	 5.714286e+00	 5.000000e+00	 9.428135e+00
0	 5.714286e+00	 5.071429e+00	 9.440676e+00
0	 5.714286e+00	 5.142857e+00	 9.452751e+00
0	 5.714286e+00	 5.214286e+00	 9.464360e+00
0	 5.714286e+00	 5.285714e+00	 9.475501e+00
0	 5.714286e+00	 5.357143e+00	 9.486176e+00
0	 5.785714e+00	 5.000000e+00	 9.446175e+00
0	 5.785714e+00	 5.071429e+00	 9.458017e+00
0	 5.785714e+00	 5.142857e+00	 9.469395e+00
0	 5.785714e+00	 5.214286e+00	 9.480308e+00
0	 5.785714e+00	 5.285714e+00	 9.490755e+00
0	 5.785714e+00	 5.357143e+00	 9.500738e+00
0	 5.857143e+00	 5.000000e+00	 9.464532e+00
0	 5.857143e+00	 5.071429e+00	 9.475699e+00
0	 5.857143e+00	 5.142857e+00	 9.486402e+00
0	 5.857143e+00	 5.214286e+00	 9.496642e+00
0	 5.857143e+00	 5.285714e+00	 9.506418e+00
0	 5.857143e+00	 5.357143e+00	 9.515731e+00
0	 5.928571e+00	 5.000000e+00	 9.483208e+00
0	 5.928571e+00	 5.071429e+00	 9.493721e+00
0	 5.928571e+00	 5.142857e+00	 9.503773e+00
0	 5.928571e+00	 5.214286e+00	 9.513363e+00
0	 5.928571e+00	 5.285714e+00	 9.522491e+00
0	 5.928571e+00	 5.357143e+00	 9.531156e+00
0	 6.000000e+00	 5.000000e+00	 9.502200e+00
0	 6.000000e+00	 5.071429e+00	 9.512084e+00
0	 6.000000e+00	 5.142857e+00	 9.521507e+00
0	 6.000000e+00	 5.214286e+00	 9.530470e+00
0	 6.000000e+00	 5.285714e+00	 9.538972e+00
0	 6.000000e+00	 5.357143e+00	 9.547014e+00
0	 6.071429e+00	 5.000000e+00	 9.521510e+00
0	 6.071429e+00	 5.071429e+00	 9.530786e+00
0	 6.071429e+00	 5.142857e+00	 9.539604e+00
0	 6.071429e+00	 5.214286e+00	 9.547963e+00
0	 6.071429e+00	 5.285714e+00	 9.555863e+00
0	 6.071429e+00	 5.357143e+00	 9.563304e+00
0	 5.714286e+00	 5.357143e+00	 9.486176e+00
0	 5.714286e+00	 5.428571e+00	 9.498910e+00
0	 5.714286e+00	 5.500000e+00	 9.511318e+00
0	 5.714286e+00	 5.571429e+00	 9.523402e+00
0	 5.714286e+00	 5.642857e+00	 9.535161e+00
0	 5.714286e+00	 5.714286e+00	 9.546595e+00
0	 5.785714e+00	 5.357143e+00	 9.500738e+00
0	 5.785714e+00	 5.428571e+00	 9.512875e+00
0	 5.785714e+00	 5.500000e+00	 9.524685e+00
0	 5.785714e+00	 5.571429e+00	 9.536169e+00
0	 5.785714e+00	 5.642857e+00	 9.547326e+00
0	 5.785714e+00	 5.714286e+00	 9.558157e+00
0	 5.857143e+00	 5.357143e+00	 9.515731e+00
0	 5.857143e+00	 5.428571e+00	 9.527285e+00
0	 5.857143e+00	 5.500000e+00	 9.538510e+00
0	 5.857143e+00	 5.571429e+00	 9.549407e+00
0	 5.857143e+00	 5.642857e+00	 9.559975e+00
0	 5.857143e+00	 5.714286e+00	 9.570215e+00
0	 5.928571e+00	 5.357143e+00	 9.531156e+00
0	 5.928571e+00	 5.428571e+00	 9.542140e+00
0	 5.928571e+00	 5.500000e+00	 9.552793e+00
0	 5.928571e+00	 5.571429e+00	 9.563116e+00
0	 5.928571e+00	 5.642857e+00	 9.573108e+00
0	 5.928571e+00	 5.714286e+00	 9.582770e+00
0	 6.000000e+00	 5.357143e+00	 9.547014e+00
0	 6.000000e+00	 5.428571e+00	 9.557440e+00
0	 6.000000e+00	 5.500000e+00	 9.567534e+00
0	 6.000000e+00	 5.571429e+00	 9.577295e+00
0	 6.000000e+00	 5.642857e+00	 9.586725e+00
0	 6.000000e+00	 5.714286e+00	 9.595822e+00
0	 6.071429e+00	 5.357143e+00	 9.563304e+00
0	 6.071429e+00	 5.428571e+00	 9.573185e+00
0	 6.071429e+00	 5.500000e+00	 9.582733e+00
0	 6.071429e+00	 5.571429e+00	 9.591946e+00
0	 6.071429e+00	 5.642857e+00	 9.600826e+00
0	 6.071429e+00	 5.714286e+00	 9.609371e+00
0	 5.714286e+00	 5.714286e+00	 9.546595e+00
0	 5.714286e+00	 5.785714e+00	 9.559066e+00
0	 5.714286e+00	 5.857143e+00	 9.571328e+00
0	 5.714286e+00	 5.928571e+00	 9.583382e+00
0	 5.714286e+00	 6.000000e+00	 9.595228e+00
0	 5.714286e+00	 6.071429e+00	 9.606867e+00
0	 5.785714e+00	 5.714286e+00	 9.558157e+00
0	 5.785714e+00	 5.785714e+00	 9.570133e+00
0	 5.785714e+00	 5.857143e+00	 9.581896e+00
0	 5.785714e+00	 5.928571e+00	 9.593448e+00
0	 5.785714e+00	 6.000000e+00	 9.604788e+00
0	 5.785714e+00	 6.071429e+00	 9.615917e+00
0	 5.857143e+00	 5.714286e+00	 9.570215e+00
0	 5.857143e+00	 5.785714e+00	 9.581701e+00
0	 5.857143e+00	 5.857143e+00	 9.592970e+00
0	 5.857143e+00	 5.928571e+00	 9.604024e+00
0	 5.857143e+00	 6.000000e+00	 9.614862e+00
0	 5.857143e+00	 6.071429e+00	 9.625484e+00
0	 5.928571e+00	 5.714286e+00	 9.582770e+00
0	 5.928571e+00	 5.785714e+00	 9.593770e+00
0	 5.928571e+00	 5.857143e+00	 9.604550e+00
0	 5.928571e+00	 5.928571e+00	 9.615109e+00
0	 5.928571e+00	 6.000000e+00	 9.625449e+00
0	 5.928571e+00	 6.071429e+00	 9.635569e+00
0	 6.000000e+00	 5.714286e+00	 9.595822e+00
0	 6.000000e+00	 5.785714e+00	 9.606340e+00
0	 6.000000e+00	 5.857143e+00	 9.616634e+00
0	 6.000000e+00	 5.928571e+00	 9.626704e+00
0	 6.000000e+00	 6.000000e+00	 9.636550e+00
0	 6.000000e+00	 6.071429e+00	 9.646171e+00
0	 6.071429e+00	 5.714286e+00	 9.609371e+00
0	 6.071429e+00	 5.785714e+00	 9.619411e+00
0	 6.071429e+00	 5.857143e+00	 9.629224e+00
0	 6.071429e+00	 5.928571e+00	 9.638808e+00
0	 6.071429e+00	 6.000000e+00	 9.648164e+00
0	 6.071429e+00	 6.071429e+00	 9.657292e+00
0	 5.714286e+00	 6.071429e+00	 9.606867e+00
0	 5.714286e+00	 6.142857e+00	 9.618771e+00
0	 5.714286e+00	 6.214286e+00	 9.630560e+00
0	 5.714286e+00	 6.285714e+00	 9.642234e+00
0	 5.714286e+00	 6.357143e+00	 9.653793e+00
0	 5.714286e+00	 6.428571e+00	 9.665236e+00
0	 5.785714e+00	 6.071429e+00	 9.615917e+00
0	 5.785714e+00	 6.142857e+00	 9.627417e+00
0	 5.785714e+00	 6.214286e+00	 9.638798e+00
0	 5.785714e+00	 6.285714e+00	 9.650058e+00
0	 5.785714e+00	 6.357143e+00	 9.661198e+00
0	 5.785714e+00	 6.428571e+00	 9.672218e+00
0	 5.857143e+00	 6.071429e+00	 9.625484e+00
0	 5.857143e+00	 6.142857e+00	 9.636579e+00
0	 5.857143e+00	 6.214286e+00	 9.647549e+00
0	 5.857143e+00	 6.285714e+00	 9.658394e+00
0	 5.857143e+00	 6.357143e+00	 9.669113e+00
0	 5.857143e+00	 6.428571e+00	 9.679708e+00
0	 5.928571e+00	 6.071429e+00	 9.635569e+00
0	 5.928571e+00	 6.142857e+00	 9.646256e+00
0	 5.928571e+00	 6.214286e+00	 9.656813e+00
0	 5.928571e+00	 6.285714e+00	 9.667240e+00
0	 5.928571e+00	 6.357143e+00	 9.677538e+00
0	 5.928571e+00	 6.428571e+00	 9.687705e+00
0	 6.000000e+00	 6.071429e+00	 9.646171e+00
0	 6.000000e+00	 6.142857e+00	 9.656449e+00
0	 6.000000e+00	 6.214286e+00	 9.666591e+00
0	 6.000000e+00	 6.285714e+00	 9.676599e+00
0	 6.000000e+00	 6.357143e+00	 9.686472e+00
0	 6.000000e+00	 6.428571e+00	 9.696210e+00
0	 6.071429e+00	 6.071429e+00	 9.657292e+00
0	 6.071429e+00	 6.142857e+00	 9.667157e+00
0	 6.071429e+00	 6.214286e+00	 9.676883e+00
0	 6.071429e+00	 6.285714e+00	 9.686469e+00
0	 6.071429e+00	 6.357143e+00	 9.695915e+00
0	 6.071429e+00	 6.428571e+00	 9.705221e+00
0	 5.714286e+00	 6.428571e+00	 9.665236e+00
0	 5.714286e+00	 6.500000e+00	 9.676378e+00
0	 5.714286e+00	 6.571429e+00	 9.687478e+00
0	 5.714286e+00	 6.642857e+00	 9.698536e+00
0	 5.714286e+00	 6.714286e+00	 9.709553e+00
0	 5.714286e+00	 6.785714e+00	 9.720529e+00
0	 5.785714e+00	 6.428571e+00	 9.672218e+00
0	 5.785714e+00	 6.500000e+00	 9.683036e+00
0	 5.785714e+00	 6.571429e+00	 9.693807e+00
0	 5.785714e+00	 6.642857e+00	 9.704531e+00
0	 5.785714e+00	 6.714286e+00	 9.715208e+00
0	 5.785714e+00	 6.785714e+00	 9.725839e+00
0	 5.857143e+00	 6.428571e+00	 9.679708e+00
0	 5.857143e+00	 6.500000e+00	 9.690195e+00
0	 5.857143e+00	 6.571429e+00	 9.700630e+00
0	 5.857143e+00	 6.642857e+00	 9.711013e+00
0	 5.857143e+00	 6.714286e+00	 9.721344e+00
0	 5.857143e+00	 6.785714e+00	 9.731623e+00
0	 5.928571e+00	 6.428571e+00	 9.687705e+00
0	 5.928571e+00	 6.500000e+00	 9.697854e+00
0	 5.928571e+00	 6.571429e+00	 9.707947e+00
0	 5.928571e+00	 6.642857e+00	 9.717982e+00
0	 5.928571e+00	 6.714286e+00	 9.727961e+00
0	 5.928571e+00	 6.785714e+00	 9.737882e+00
0	 6.000000e+00	 6.428571e+00	 9.696210e+00
0	 6.000000e+00	 6.500000e+00	 9.706015e+00
0	 6.000000e+00	 6.571429e+00	 9.715758e+00
0	 6.000000e+00	 6.642857e+00	 9.725439e+00
0	 6.000000e+00	 6.714286e+00	 9.735058e+00
0	 6.000000e+00	 6.785714e+00	 9.744615e+00
0	 6.071429e+00	 6.428571e+00	 9.705221e+00
0	 6.071429e+00	 6.500000e+00	 9.714676e+00
0	 6.071429e+00	 6.571429e+00	 9.724063e+00
0	 6.071429e+00	 6.642857e+00	 9.733383e+00
0	 6.071429e+00	 6.714286e+00	 9.742636e+00
0	 6.071429e+00	 6.785714e+00	 9.751822e+00
0	 5.714286e+00	 6.785714e+00	 9.720529e+00
0	 5.714286e+00	 6.857143e+00	 9.730792e+00
0	 5.714286e+00	 6.928571e+00	 9.741073e+00
0	 5.714286e+00	 7.000000e+00	 9.751370e+00
0	 5.714286e+00	 7.071429e+00	 9.761685e+00
0	 5.714286e+00	 7.142857e+00	 9.772017e+00
0	 5.785714e+00	 6.785714e+00	 9.725839e+00
0	 5.785714e+00	 6.857143e+00	 9.735844e+00
0	 5.785714e+00	 6.928571e+00	 9.745861e+00
0	 5.785714e+00	 7.000000e+00	 9.755891e+00
0	 5.785714e+00	 7.071429e+00	 9.765933e+00
0	 5.785714e+00	 7.142857e+00	 9.775988e+00
0	 5.857143e+00	 6.785714e+00	 9.731623e+00
0	 5.857143e+00	 6.857143e+00	 9.741361e+00
0	 5.857143e+00	 6.928571e+00	 9.751106e+00
0	 5.857143e+00	 7.000000e+00	 9.760858e+00
0	 5.857143e+00	 7.071429e+00	 9.770618e+00
0	 5.857143e+00	 7.142857e+00	 9.780386e+00
0	 5.928571e+00	 6.785714e+00	 9.737882e+00
0	 5.928571e+00	 6.857143e+00	 9.747343e+00
0	 5.928571e+00	 6.928571e+00	 9.756806e+00
0	 5.928571e+00	 7.000000e+00	 9.766272e+00
0	 5.928571e+00	 7.071429e+00	 9.775740e+00
0	 5.928571e+00	 7.142857e+00	 9.785212e+00
0	 6.000000e+00	 6.785714e+00	 9.744615e+00
0	 6.000000e+00	 6.857143e+00	 9.753789e+00
0	 6.000000e+00	 6.928571e+00	 9.762962e+00
0	 6.000000e+00	 7.000000e+00	 9.772132e+00
0	 6.000000e+00	 7.071429e+00	 9.781299e+00
0	 6.000000e+00	 7.142857e+00	 9.790465e+00
0	 6.071429e+00	 6.785714e+00	 9.751822e+00
0	 6.071429e+00	 6.857143e+00	 9.760701e+00
0	 6.071429e+00	 6.928571e+00	 9.769573e+00
0	 6.071429e+00	 7.000000e+00	 9.778438e+00
0	 6.071429e+00	 7.071429e+00	 9.787295e+00
0	 6.071429e+00	 7.142857e+00	 9.796146e+00
0	 5.714286e+00	 7.142857e+00	 9.772017e+00
0	 5.714286e+00	 7.214286e+00	 9.781336e+00
0	 5.714286e+00	 7.285714e+00	 9.790720e+00
0	 5.714286e+00	 7.357143e+00	 9.800170e+00
0	 5.714286e+00	 7.428571e+00	 9.809686e+00
0	 5.714286e+00	 7.500000e+00	 9.819268e+00
0	 5.785714e+00	 7.142857e+00	 9.775988e+00
0	 5.785714e+00	 7.214286e+00	 9.785102e+00
0	 5.785714e+00	 7.285714e+00	 9.794277e+00
0	 5.785714e+00	 7.357143e+00	 9.803514e+00
0	 5.785714e+00	 7.428571e+00	 9.812813e+00
0	 5.785714e+00	 7.500000e+00	 9.822173e+00
0	 5.857143e+00	 7.142857e+00	 9.780386e+00
0	 5.857143e+00	 7.214286e+00	 9.789285e+00
0	 5.857143e+00	 7.285714e+00	 9.798241e+00
0	 5.857143e+00	 7.357143e+00	 9.807254e+00
0	 5.857143e+00	 7.428571e+00	 9.816324e+00
0	 5.857143e+00	 7.500000e+00	 9.825451e+00
0	 5.928571e+00	 7.142857e+00	 9.785212e+00
0	 5.928571e+00	 7.214286e+00	 9.793885e+00
0	 5.928571e+00	 7.285714e+00	 9.802610e+00
0	 5.928571e+00	 7.357143e+00	 9.811389e+00
0	 5.928571e+00	 7.428571e+00	 9.820219e+00
0	 5.928571e+00	 7.500000e+00	 9.829103e+00
0	 6.000000e+00	 7.142857e+00	 9.790465e+00
0	 6.000000e+00	 7.214286e+00	 9.798901e+00
0	 6.000000e+00	 7.285714e+00	 9.807386e+00
0	 6.000000e+00	 7.357143e+00	 9.815919e+00
0	 6.000000e+00	 7.428571e+00	 9.824500e+00
0	 6.000000e+00	 7.500000e+00	 9.833129e+00
0	 6.071429e+00	 7.142857e+00	 9.796146e+00
0	 6.071429e+00	 7.214286e+00	 9.804335e+00
0	 6.071429e+00	 7.285714e+00	 9.812568e+00
0	 6.071429e+00	 7.357143e+00	 9.820844e+00
0	 6.071429e+00	 7.428571e+00	 9.829165e+00
0	 6.071429e+00	 7.500000e+00	 9.837529e+00
0	 5.714286e+00	 7.500000e+00	 9.819268e+00
0	 5.714286e+00	 7.571429e+00	 9.827601e+00
0	 5.714286e+00	 7.642857e+00	 9.836042e+00
0	 5.714286e+00	 7.714286e+00	 9.844592e+00
0	 5.714286e+00	 7.785714e+00	 9.853251e+00
0	 5.714286e+00	 7.857143e+00	 9.862019e+00
0	 5.785714e+00	 7.500000e+00	 9.822173e+00
0	 5.785714e+00	 7.571429e+00	 9.830343e+00
0	 5.785714e+00	 7.642857e+00	 9.838619e+00
0	 5.785714e+00	 7.714286e+00	 9.846999e+00
0	 5.785714e+00	 7.785714e+00	 9.855484e+00
0	 5.785714e+00	 7.857143e+00	 9.864074e+00
0	 5.857143e+00	 7.500000e+00	 9.825451e+00
0	 5.857143e+00	 7.571429e+00	 9.833449e+00
0	 5.857143e+00	 7.642857e+00	 9.841547e+00
0	 5.857143e+00	 7.714286e+00	 9.849747e+00
0	 5.857143e+00	 7.785714e+00	 9.858047e+00
0	 5.857143e+00	 7.857143e+00	 9.866448e+00
0	 5.928571e+00	 7.500000e+00	 9.829103e+00
0	 5.928571e+00	 7.571429e+00	 9.836917e+00
0	 5.928571e+00	 7.642857e+00	 9.844828e+00
0	 5.928571e+00	 7.714286e+00	 9.852835e+00
0	 5.928571e+00	 7.785714e+00	 9.860940e+00
0	 5.928571e+00	 7.857143e+00	 9.869141e+00
0	 6.000000e+00	 7.500000e+00	 9.833129e+00
0	 6.000000e+00	 7.571429e+00	 9.840748e+00
0	 6.000000e+00	 7.642857e+00	 9.848460e+00
0	 6.000000e+00	 7.714286e+00	 9.856265e+00
0	 6.000000e+00	 7.785714e+00	 9.864163e+00
0	 6.000000e+00	 7.857143e+00	 9.872153e+00
0	 6.071429e+00	 7.500000e+00	 9.837529e+00
0	 6.071429e+00	 7.571429e+00	 9.844942e+00
0	 6.071429e+00	 7.642857e+00	 9.852444e+00
0	 6.071429e+00	 7.714286e+00	 9.860035e+00
0	 6.071429e+00	 7.785714e+00	 9.867715e+00
0	 6.071429e+00	 7.857143e+00	 9.875484e+00
0	 5.714286e+00	 7.857143e+00	 9.862019e+00
0	 5.714286e+00	 7.928571e+00	 9.869326e+00
0	 5.714286e+00	 8.000000e+00	 9.876784e+00
0	 5.714286e+00	 8.071429e+00	 9.884393e+00
0	 5.714286e+00	 8.142857e+00	 9.892152e+00
0	 5.714286e+00	 8.214286e+00	 9.900061e+00
0	 5.785714e+00	 7.857143e+00	 9.864074e+00
0	 5.785714e+00	 7.928571e+00	 9.871253e+00
0	 5.785714e+00	 8.000000e+00	 9.878578e+00
0	 5.785714e+00	 8.071429e+00	 9.886050e+00
0	 5.785714e+00	 8.142857e+00	 9.893669e+00
0	 5.785714e+00	 8.214286e+00	 9.901435e+00
0	 5.857143e+00	 7.857143e+00	 9.866448e+00
0	 5.857143e+00	 7.928571e+00	 9.873488e+00
0	 5.857143e+00	 8.000000e+00	 9.880670e+00
0	 5.857143e+00	 8.071429e+00	 9.887996e+00
0	 5.857143e+00	 8.142857e+00	 9.895465e+00
0	 5.857143e+00	 8.214286e+00	 9.903077e+00
0	 5.928571e+00	 7.857143e+00	 9.869141e+00
0	 5.928571e+00	 7.928571e+00	 9.876031e+00
0	 5.928571e+00	 8.000000e+00	 9.883060e+00
0	 5.928571e+00	 8.071429e+00	 9.890229e+00
0	 5.928571e+00	 8.142857e+00	 9.897538e+00
0	 5.928571e+00	 8.214286e+00	 9.904986e+00
0	 6.000000e+00	 7.857143e+00	 9.872153e+00
0	 6.000000e+00	 7.928571e+00	 9.878883e+00
0	 6.000000e+00	 8.000000e+00	 9.885749e+00
0	 6.000000e+00	 8.071429e+00	 9.892751e+00
0	 6.000000e+00	 8.142857e+00	 9.899889e+00
0	 6.000000e+00	 8.214286e+00	 9.907163e+00
0	 6.071429e+00	 7.857143e+00	 9.875484e+00
0	 6.071429e+00	 7.928571e+00	 9.882044e+00
0	 6.071429e+00	 8.000000e+00	 9.888737e+00
0	 6.071429e+00	 8.071429e+00	 9.895561e+00
0	 6.071429e+00	 8.142857e+00	 9.902518e+00
0	 6.071429e+00	 8.214286e+00	 9.909607e+00
0	 5.714286e+00	 8.214286e+00	 9.900061e+00
0	 5.714286e+00	 8.285714e+00	 9.906284e+00
0	 5.714286e+00	 8.357143e+00	 9.912703e+00
0	 5.714286e+00	 8.428571e+00	 9.919317e+00
0	 5.714286e+00	 8.500000e+00	 9.926127e+00
0	 5.714286e+00	 8.571429e+00	 9.933131e+00
0	 5.785714e+00	 8.214286e+00	 9.901435e+00
0	 5.785714e+00	 8.285714e+00	 9.907555e+00
0	 5.785714e+00	 8.357143e+00	 9.913866e+00
0	 5.785714e+00	 8.428571e+00	 9.920370e+00
0	 5.785714e+00	 8.500000e+00	 9.927065e+00
0	 5.785714e+00	 8.571429e+00	 9.933952e+00
0	 5.857143e+00	 8.214286e+00	 9.903077e+00
0	 5.857143e+00	 8.285714e+00	 9.909084e+00
0	 5.857143e+00	 8.357143e+00	 9.915280e+00
0	 5.857143e+00	 8.428571e+00	 9.921664e+00
0	 5.857143e+00	 8.500000e+00	 9.928236e+00
0	 5.857143e+00	 8.571429e+00	 9.934996e+00
0	 5.928571e+00	 8.214286e+00	 9.904986e+00
0	 5.928571e+00	 8.285714e+00	 9.910873e+00
0	 5.928571e+00	 8.357143e+00	 9.916944e+00
0	 5.928571e+00	 8.428571e+00	 9.923199e+00
0	 5.928571e+00	 8.500000e+00	 9.929640e+00
0	 5.928571e+00	 8.571429e+00	 9.936265e+00
0	 6.000000e+00	 8.214286e+00	 9.907163e+00
0	 6.000000e+00	 8.285714e+00	 9.912920e+00
0	 6.000000e+00	 8.357143e+00	 9.918858e+00
0	 6.000000e+00	 8.428571e+00	 9.924976e+00
0	 6.000000e+00	 8.500000e+00	 9.931276e+00
0	 6.000000e+00	 8.571429e+00	 9.937757e+00
0	 6.071429e+00	 8.214286e+00	 9.909607e+00
0	 6.071429e+00	 8.285714e+00	 9.915226e+00
0	 6.071429e+00	 8.357143e+00	 9.921022e+00
0	 6.071429e+00	 8.428571e+00	 9.926995e+00
0	 6.071429e+00	 8.500000e+00	 9.933146e+00
0	 6.071429e+00	 8.571429e+00	 9.939474e+00
0	 5.714286e+00	 8.571429e+00	 9.933131e+00
0	 5.714286e+00	 8.642857e+00	 9.938173e+00
0	 5.714286e+00	 8.714286e+00	 9.943462e+00
0	 5.714286e+00	 8.785714e+00	 9.948999e+00
0	 5.714286e+00	 8.857143e+00	 9.954785e+00
0	 5.714286e+00	 8.928571e+00	 9.960818e+00
0	 5.785714e+00	 8.571429e+00	 9.933952e+00
0	 5.785714e+00	 8.642857e+00	 9.938910e+00
0	 5.785714e+00	 8.714286e+00	 9.944112e+00
0	 5.785714e+00	 8.785714e+00	 9.949558e+00
0	 5.785714e+00	 8.857143e+00	 9.955248e+00
0	 5.785714e+00	 8.928571e+00	 9.961182e+00
0	 5.857143e+00	 8.571429e+00	 9.934996e+00
0	 5.857143e+00	 8.642857e+00	 9.939865e+00
0	 5.857143e+00	 8.714286e+00	 9.944973e+00
0	 5.857143e+00	 8.785714e+00	 9.950322e+00
0	 5.857143e+00	 8.857143e+00	 9.955910e+00
0	 5.857143e+00	 8.928571e+00	 9.961739e+00
0	 5.928571e+00	 8.571429e+00	 9.936265e+00
0	 5.928571e+00	 8.642857e+00	 9.941038e+00
0	 5.928571e+00	 8.714286e+00	 9.946046e+00
0	 5.928571e+00	 8.785714e+00	 9.951291e+00
0	 5.928571e+00	 8.857143e+00	 9.956772e+00
0	 5.928571e+00	 8.928571e+00	 9.962488e+00
0	 6.000000e+00	 8.571429e+00	 9.937757e+00
0	 6.000000e+00	 8.642857e+00	 9.942428e+00
0	 6.000000e+00	 8.714286e+00	 9.947331e+00
0	 6.000000e+00	 8.785714e+00	 9.952465e+00
0	 6.000000e+00	 8.857143e+00	 9.957832e+00
0	 6.000000e+00	 8.928571e+00	 9.963430e+00
0	 6.071429e+00	 8.571429e+00	 9.939474e+00
0	 6.071429e+00	 8.642857e+00	 9.944036e+00
0	 6.071429e+00	 8.714286e+00	 9.948827e+00
0	 6.071429e+00	 8.785714e+00	 9.953845e+00
0	 6.071429e+00	 8.857143e+00	 9.959091e+00
0	 6.071429e+00	 8.928571e+00	 9.964565e+00
0	 5.714286e+00	 8.928571e+00	 9.960818e+00
0	 5.714286e+00	 9.000000e+00	 9.964510e+00
0	 5.714286e+00	 9.071429e+00	 9.968516e+00
0	 5.714286e+00	 9.142857e+00	 9.972835e+00
0	 5.714286e+00	 9.214286e+00	 9.977467e+00
0	 5.714286e+00	 9.285714e+00	 9.982412e+00
0	 5.785714e+00	 8.928571e+00	 9.961182e+00
0	 5.785714e+00	 9.000000e+00	 9.964810e+00
0	 5.785714e+00	 9.071429e+00	 9.968746e+00
0	 5.785714e+00	 9.142857e+00	 9.972990e+00
0	 5.785714e+00	 9.214286e+00	 9.977542e+00
0	 5.785714e+00	 9.285714e+00	 9.982402e+00
0	 5.857143e+00	 8.928571e+00	 9.961739e+00
0	 5.857143e+00	 9.000000e+00	 9.965299e+00
0	 5.857143e+00	 9.071429e+00	 9.969162e+00
0	 5.857143e+00	 9.142857e+00	 9.973328e+00
0	 5.857143e+00	 9.214286e+00	 9.977797e+00
0	 5.857143e+00	 9.285714e+00	 9.982569e+00
0	 5.928571e+00	 8.928571e+00	 9.962488e+00
0	 5.928571e+00	 9.000000e+00	 9.965977e+00
0	 5.928571e+00	 9.071429e+00	 9.969765e+00
0	 5.928571e+00	 9.142857e+00	 9.973850e+00
0	 5.928571e+00	 9.214286e+00	 9.978233e+00
0	 5.928571e+00	 9.285714e+00	 9.982915e+00
0	 6.000000e+00	 8.928571e+00	 9.963430e+00
0	 6.000000e+00	 9.000000e+00	 9.966846e+00
0	 6.000000e+00	 9.071429e+00	 9.970554e+00
0	 6.000000e+00	 9.142857e+00	 9.974556e+00
0	 6.000000e+00	 9.214286e+00	 9.978850e+00
0	 6.000000e+00	 9.285714e+00	 9.983438e+00
0	 6.071429e+00	 8.928571e+00	 9.964565e+00
0	 6.071429e+00	 9.000000e+00	 9.967904e+00
0	 6.071429e+00	 9.071429e+00	 9.971530e+00
0	 6.071429e+00	 9.142857e+00	 9.975445e+00
0	 6.071429e+00	 9.214286e+00	 9.979648e+00
0	 6.071429e+00	 9.285714e+00	 9.984139e+00
0	 5.714286e+00	 9.285714e+00	 9.982412e+00
0	 5.714286e+00	 9.357143e+00	 9.984523e+00
0	 5.714286e+00	 9.428571e+00	 9.987029e+00
0	 5.714286e+00	 9.500000e+00	 9.989932e+00
0	 5.714286e+00	 9.571429e+00	 9.993232e+00
0	 5.714286e+00	 9.642857e+00	 9.996927e+00
0	 5.785714e+00	 9.285714e+00	 9.982402e+00
0	 5.785714e+00	 9.357143e+00	 9.984467e+00
0	 5.785714e+00	 9.428571e+00	 9.986921e+00
0	 5.785714e+00	 9.500000e+00	 9.989765e+00
0	 5.785714e+00	 9.571429e+00	 9.992999e+00
0	 5.785714e+00	 9.642857e+00	 9.996621e+00
0	 5.857143e+00	 9.285714e+00	 9.982569e+00
0	 5.857143e+00	 9.357143e+00	 9.984590e+00
0	 5.857143e+00	 9.428571e+00	 9.986994e+00
0	 5.857143e+00	 9.500000e+00	 9.989780e+00
0	 5.857143e+00	 9.571429e+00	 9.992949e+00
0	 5.857143e+00	 9.642857e+00	 9.996501e+00
0	 5.928571e+00	 9.285714e+00	 9.982915e+00
0	 5.928571e+00	 9.357143e+00	 9.984893e+00
0	 5.928571e+00	 9.428571e+00	 9.987248e+00
0	 5.928571e+00	 9.500000e+00	 9.989978e+00
0	 5.928571e+00	 9.571429e+00	 9.993083e+00
0	 5.928571e+00	 9.642857e+00	 9.996565e+00
0	 6.000000e+00	 9.285714e+00	 9.983438e+00
0	 6.000000e+00	 9.357143e+00	 9.985375e+00
0	 6.000000e+00	 9.428571e+00	 9.987682e+00
0	 6.000000e+00	 9.500000e+00	 9.990357e+00
0	 6.000000e+00	 9.571429e+00	 9.993401e+00
0	 6.000000e+00	 9.642857e+00	 9.996814e+00
0	 6.071429e+00	 9.285714e+00	 9.984139e+00
0	 6.071429e+00	 9.357143e+00	 9.986036e+00
0	 6.071429e+00	 9.428571e+00	 9.988296e+00
0	 6.071429e+00	 9.500000e+00	 9.990918e+00
0	 6.071429e+00	 9.571429e+00	 9.993902e+00
0	 6.071429e+00	 9.642857e+00	 9.997248e+00
0	 5.714286e+00	 9.642857e+00	 9.996927e+00
0	 5.714286e+00	 9.714286e+00	 9.997022e+00
0	 5.714286e+00	 9.785714e+00	 9.997623e+00
0	 5.714286e+00	 9.857143e+00	 9.998728e+00
0	 5.714286e+00	 9.928571e+00	 1.000034e+01
0	 5.714286e+00	 1.000000e+01	 1.000245e+01
0	 5.785714e+00	 9.642857e+00	 9.996621e+00
0	 5.785714e+00	 9.714286e+00	 9.996699e+00
0	 5.785714e+00	 9.785714e+00	 9.997272e+00
0	 5.785714e+00	 9.857143e+00	 9.998340e+00
0	 5.785714e+00	 9.928571e+00	 9.999904e+00
0	 5.785714e+00	 1.000000e+01	 1.000196e+01
0	 5.857143e+00	 9.642857e+00	 9.996501e+00
0	 5.857143e+00	 9.714286e+00	 9.996568e+00
0	 5.857143e+00	 9.785714e+00	 9.997121e+00
0	 5.857143e+00	 9.857143e+00	 9.998160e+00
0	 5.857143e+00	 9.928571e+00	 9.999683e+00
0	 5.857143e+00	 1.000000e+01	 1.000169e+01
0	 5.928571e+00	 9.642857e+00	 9.996565e+00
0	 5.928571e+00	 9.714286e+00	 9.996629e+00
0	 5.928571e+00	 9.785714e+00	 9.997169e+00
0	 5.928571e+00	 9.857143e+00	 9.998185e+00
0	 5.928571e+00	 9.928571e+00	 9.999677e+00
0	 5.928571e+00	 1.000000e+01	 1.000164e+01
0	 6.000000e+00	 9.642857e+00	 9.996814e+00
0	 6.000000e+00	 9.714286e+00	 9.996883e+00
0	 6.000000e+00	 9.785714e+00	 9.997417e+00
0	 6.000000e+00	 9.857143e+00	 9.998418e+00
0	 6.000000e+00	 9.928571e+00	 9.999884e+00
0	 6.000000e+00	 1.000000e+01	 1.000182e+01
0	 6.071429e+00	 9.642857e+00	 9.997248e+00
0	 6.071429e+00	 9.714286e+00	 9.997328e+00
0	 6.071429e+00	 9.785714e+00	 9.997864e+00
0	 6.071429e+00	 9.857143e+00	 9.998857e+00
0	 6.071429e+00	 9.928571e+00	 1.000030e+01
0	 6.071429e+00	 1.000000e+01	 1.000221e+01
0	 6.071429e+00	 0.000000e+00	 1.030441e+01
0	 6.071429e+00	 7.142857e-02	 1.029569e+01
0	 6.071429e+00	 1.428571e-01	 1.028909e+01
0	 6.071429e+00	 2.142857e-01	 1.028460e+01
0	 6.071429e+00	 2.857143e-01	 1.028223e+01
0	 6.071429e+00	 3.571429e-01	 1.028196e+01
0	 6.142857e+00	 0.000000e+00	 1.031790e+01
0	 6.142857e+00	 7.142857e-02	 1.030958e+01
0	 6.142857e+00	 1.428571e-01	 1.030327e+01
0	 6.142857e+00	 2.142857e-01	 1.029899e+01
0	 6.142857e+00	 2.857143e-01	 1.029673e+01
0	 6.142857e+00	 3.571429e-01	 1.029648e+01
0	 6.214286e+00	 0.000000e+00	 1.033255e+01
0	 6.214286e+00	 7.142857e-02	 1.032460e+01
0	 6.214286e+00	 1.428571e-01	 1.031857e+01
0	 6.214286e+00	 2.142857e-01	 1.031447e+01
0	 6.214286e+00	 2.857143e-01	 1.031230e+01
0	 6.214286e+00	 3.571429e-01	 1.031206e+01
0	 6.285714e+00	 0.000000e+00	 1.034836e+01
0	 6.285714e+00	 7.142857e-02	 1.034075e+01
0	 6.285714e+00	 1.428571e-01	 1.033498e+01
0	 6.285714e+00	 2.142857e-01	 1.033105e+01
0	 6.285714e+00	 2.857143e-01	 1.032895e+01
0	 6.285714e+00	 3.571429e-01	 1.032869e+01
0	 6.357143e+00	 0.000000e+00	 1.036531e+01
0	 6.357143e+00	 7.142857e-02	 1.035804e+01
0	 6.357143e+00	 1.428571e-01	 1.035251e+01
0	 6.357143e+00	 2.142857e-01	 1.034872e+01
0	 6.357143e+00	 2.857143e-01	 1.034667e+01
0	 6.357143e+00	 3.571429e-01	 1.034637e+01
0	 6.428571e+00	 0.000000e+00	 1.038342e+01
0	 6.428571e+00	 7.142857e-02	 1.037646e+01
0	 6.428571e+00	 1.428571e-01	 1.037115e+01
0	 6.428571e+00	 2.142857e-01	 1.036748e+01
0	 6.428571e+00	 2.857143e-01	 1.036547e+01
0	 6.428571e+00	 3.571429e-01	 1.036511e+01
0	 6.071429e+00	 3.571429e-01	 1.028196e+01
0	 6.071429e+00	 4.285714e-01	 1.026530e+01
0	 6.071429e+00	 5.000000e-01	 1.025052e+01
0	 6.071429e+00	 5.714286e-01	 1.023762e+01
0	 6.071429e+00	 6.428571e-01	 1.022661e+01
0	 6.071429e+00	 7.142857e-01	 1.021748e+01
0	 6.142857e+00	 3.571429e-01	 1.029648e+01
0	 6.142857e+00	 4.285714e-01	 1.028057e+01
0	 6.142857e+00	 5.000000e-01	 1.026646e+01
0	 6.142857e+00	 5.714286e-01	 1.025416e+01
0	 6.142857e+00	 6.428571e-01	 1.024366e+01
0	 6.142857e+00	 7.142857e-01	 1.023496e+01
0	 6.214286e+00	 3.571429e-01	 1.031206e+01
0	 6.214286e+00	 4.285714e-01	 1.029684e+01
0	 6.214286e+00	 5.000000e-01	 1.028334e+01
0	 6.214286e+00	 5.714286e-01	 1.027157e+01
0	 6.214286e+00	 6.428571e-01	 1.026152e+01
0	 6.214286e+00	 7.142857e-01	 1.025319e+01
0	 6.285714e+00	 3.571429e-01	 1.032869e+01
0	 6.285714e+00	 4.285714e-01	 1.031410e+01
0	 6.285714e+00	 5.000000e-01	 1.030116e+01
0	 6.285714e+00	 5.714286e-01	 1.028986e+01
0	 6.285714e+00	 6.428571e-01	 1.028020e+01
0	 6.285714e+00	 7.142857e-01	 1.027218e+01
0	 6.357143e+00	 3.571429e-01	 1.034637e+01
0	 6.357143e+00	 4.285714e-01	 1.033236e+01
0	 6.357143e+00	 5.000000e-01	 1.031991e+01
0	 6.357143e+00	 5.714286e-01	 1.030902e+01
0	 6.357143e+00	 6.428571e-01	 1.029969e+01
0	 6.357143e+00	 7.142857e-01	 1.029193e+01
0	 6.428571e+00	 3.571429e-01	 1.036511e+01
0	 6.428571e+00	 4.285714e-01	 1.035161e+01
0	 6.428571e+00	 5.000000e-01	 1.033959e+01
0	 6.428571e+00	 5.714286e-01	 1.032906e+01
0	 6.428571e+00	 6.428571e-01	 1.032000e+01
0	 6.428571e+00	 7.142857e-01	 1.031243e+01
0	 6.071429e+00	 7.142857e-01	 1.021748e+01
0	 6.071429e+00	 7.857143e-01	 1.019496e+01
0	 6.071429e+00	 8.571429e-01	 1.017389e+01
0	 6.071429e+00	 9.285714e-01	 1.015426e+01
0	 6.071429e+00	 1.000000e+00	 1.013608e+01
0	 6.071429e+00	 1.071429e+00	 1.011934e+01
0	 6.142857e+00	 7.142857e-01	 1.023496e+01
0	 6.142857e+00	 7.857143e-01	 1.021341e+01
0	 6.142857e+00	 8.571429e-01	 1.019325e+01
0	 6.142857e+00	 9.285714e-01	 1.017447e+01
0	 6.142857e+00	 1.000000e+00	 1.015709e+01
0	 6.142857e+00	 1.071429e+00	 1.014109e+01
0	 6.214286e+00	 7.142857e-01	 1.025319e+01
0	 6.214286e+00	 7.857143e-01	 1.023252e+01
0	 6.214286e+00	 8.571429e-01	 1.021319e+01
0	 6.214286e+00	 9.285714e-01	 1.019519e+01
0	 6.214286e+00	 1.000000e+00	 1.017851e+01
0	 6.214286e+00	 1.071429e+00	 1.016318e+01
0	 6.285714e+00	 7.142857e-01	 1.027218e+01
0	 6.285714e+00	 7.857143e-01	 1.025231e+01
0	 6.285714e+00	 8.571429e-01	 1.023372e+01
0	 6.285714e+00	 9.285714e-01	 1.021640e+01
0	 6.285714e+00	 1.000000e+00	 1.020036e+01
0	 6.285714e+00	 1.071429e+00	 1.018560e+01
0	 6.357143e+00	 7.142857e-01	 1.029193e+01
0	 6.357143e+00	 7.857143e-01	 1.027277e+01
0	 6.357143e+00	 8.571429e-01	 1.025484e+01
0	 6.357143e+00	 9.285714e-01	 1.023812e+01
0	 6.357143e+00	 1.000000e+00	 1.022263e+01
0	 6.357143e+00	 1.071429e+00	 1.020835e+01
0	 6.428571e+00	 7.142857e-01	 1.031243e+01
0	 6.428571e+00	 7.857143e-01	 1.029391e+01
0	 6.428571e+00	 8.571429e-01	 1.027654e+01
0	 6.428571e+00	 9.285714e-01	 1.026035e+01
0	 6.428571e+00	 1.000000e+00	 1.024532e+01
0	 6.428571e+00	 1.071429e+00	 1.023145e+01
0	 6.071429e+00	 1.071429e+00	 1.011934e+01
0	 6.071429e+00	 1.142857e+00	 1.009365e+01
0	 6.071429e+00	 1.214286e+00	 1.006884e+01
0	 6.071429e+00	 1.285714e+00	 1.004491e+01
0	 6.071429e+00	 1.357143e+00	 1.002188e+01
0	 6.071429e+00	 1.428571e+00	 9.999722e+00
0	 6.142857e+00	 1.071429e+00	 1.014109e+01
0	 6.142857e+00	 1.142857e+00	 1.011641e+01
0	 6.142857e+00	 1.214286e+00	 1.009258e+01
0	 6.142857e+00	 1.285714e+00	 1.006962e+01
0	 6.142857e+00	 1.357143e+00	 1.004751e+01
0	 6.142857e+00	 1.428571e+00	 1.002627e+01
0	 6.214286e+00	 1.071429e+00	 1.016318e+01
0	 6.214286e+00	 1.142857e+00	 1.013941e+01
0	 6.214286e+00	 1.214286e+00	 1.011648e+01
0	 6.214286e+00	 1.285714e+00	 1.009438e+01
0	 6.214286e+00	 1.357143e+00	 1.007312e+01
0	 6.214286e+00	 1.428571e+00	 1.005269e+01
0	 6.285714e+00	 1.071429e+00	 1.018560e+01
0	 6.285714e+00	 1.142857e+00	 1.016266e+01
0	 6.285714e+00	 1.214286e+00	 1.014053e+01
0	 6.285714e+00	 1.285714e+00	 1.011921e+01
0	 6.285714e+00	 1.357143e+00	 1.009869e+01
0	 6.285714e+00	 1.428571e+00	 1.007898e+01
0	 6.357143e+00	 1.071429e+00	 1.020835e+01
0	 6.357143e+00	 1.142857e+00	 1.018615e+01
0	 6.357143e+00	 1.214286e+00	 1.016473e+01
0	 6.357143e+00	 1.285714e+00	 1.014409e+01
0	 6.357143e+00	 1.357143e+00	 1.012423e+01
0	 6.357143e+00	 1.428571e+00	 1.010515e+01
0	 6.428571e+00	 1.071429e+00	 1.023145e+01
0	 6.428571e+00	 1.142857e+00	 1.020989e+01
0	 6.428571e+00	 1.214286e+00	 1.018908e+01
0	 6.428571e+00	 1.285714e+00	 1.016903e+01
0	 6.428571e+00	 1.357143e+00	 1.014974e+01
0	 6.428571e+00	 1.428571e+00	 1.013120e+01
0	 6.071429e+00	 1.428571e+00	 9.999722e+00
0	 6.071429e+00	 1.500000e+00	 9.973637e+00
0	 6.071429e+00	 1.571429e+00	 9.947850e+00
0	 6.071429e+00	 1.642857e+00	 9.922361e+00
0	 6.071429e+00	 1.714286e+00	 9.897169e+00
0	 6.071429e+00	 1.785714e+00	 9.872274e+00
0	 6.142857e+00	 1.428571e+00	 1.002627e+01
0	 6.142857e+00	 1.500000e+00	 1.000107e+01
0	 6.142857e+00	 1.571429e+00	 9.976184e+00
0	 6.142857e+00	 1.642857e+00	 9.951595e+00
0	 6.142857e+00	 1.714286e+00	 9.927307e+00
0	 6.142857e+00	 1.785714e+00	 9.903320e+00
0	 6.214286e+00	 1.428571e+00	 1.005269e+01
0	 6.214286e+00	 1.500000e+00	 1.002830e+01
0	 6.214286e+00	 1.571429e+00	 1.000423e+01
0	 6.214286e+00	 1.642857e+00	 9.980453e+00
0	 6.214286e+00	 1.714286e+00	 9.956984e+00
0	 6.214286e+00	 1.785714e+00	 9.933821e+00
0	 6.285714e+00	 1.428571e+00	 1.007898e+01
0	 6.285714e+00	 1.500000e+00	 1.005532e+01
0	 6.285714e+00	 1.571429e+00	 1.003197e+01
0	 6.285714e+00	 1.642857e+00	 1.000893e+01
0	 6.285714e+00	 1.714286e+00	 9.986201e+00
0	 6.285714e+00	 1.785714e+00	 9.963776e+00
0	 6.357143e+00	 1.428571e+00	 1.010515e+01
0	 6.357143e+00	 1.500000e+00	 1.008214e+01
0	 6.357143e+00	 1.571429e+00	 1.005943e+01
0	 6.357143e+00	 1.642857e+00	 1.003704e+01
0	 6.357143e+00	 1.714286e+00	 1.001496e+01
0	 6.357143e+00	 1.785714e+00	 9.993186e+00
0	 6.428571e+00	 1.428571e+00	 1.013120e+01
0	 6.428571e+00	 1.500000e+00	 1.010874e+01
0	 6.428571e+00	 1.571429e+00	 1.008659e+01
0	 6.428571e+00	 1.642857e+00	 1.006476e+01
0	 6.428571e+00	 1.714286e+00	 1.004325e+01
0	 6.428571e+00	 1.785714e+00	 1.002205e+01
0	 6.071429e+00	 1.785714e+00	 9.872274e+00
0	 6.071429e+00	 1.857143e+00	 9.848303e+00
0	 6.071429e+00	 1.928571e+00	 9.824092e+00
0	 6.071429e+00	 2.000000e+00	 9.799643e+00
0	 6.071429e+00	 2.071429e+00	 9.774955e+00
0	 6.071429e+00	 2.142857e+00	 9.750029e+00
0	 6.142857e+00	 1.785714e+00	 9.903320e+00
0	 6.142857e+00	 1.857143e+00	 9.879982e+00
0	 6.142857e+00	 1.928571e+00	 9.856434e+00
0	 6.142857e+00	 2.000000e+00	 9.832675e+00
0	 6.142857e+00	 2.071429e+00	 9.808707e+00
0	 6.142857e+00	 2.142857e+00	 9.784528e+00
0	 6.214286e+00	 1.785714e+00	 9.933821e+00
0	 6.214286e+00	 1.857143e+00	 9.911056e+00
0	 6.214286e+00	 1.928571e+00	 9.888110e+00
0	 6.214286e+00	 2.000000e+00	 9.864982e+00
0	 6.214286e+00	 2.071429e+00	 9.841674e+00
0	 6.214286e+00	 2.142857e+00	 9.818184e+00
0	 6.285714e+00	 1.785714e+00	 9.963776e+00
0	 6.285714e+00	 1.857143e+00	 9.941525e+00
0	 6.285714e+00	 1.928571e+00	 9.919121e+00
0	 6.285714e+00	 2.000000e+00	 9.896565e+00
0	 6.285714e+00	 2.071429e+00	 9.873856e+00
0	 6.285714e+00	 2.142857e+00	 9.850995e+00
0	 6.357143e+00	 1.785714e+00	 9.993186e+00
0	 6.357143e+00	 1.857143e+00	 9.971389e+00
0	 6.357143e+00	 1.928571e+00	 9.949467e+00
0	 6.357143e+00	 2.000000e+00	 9.927422e+00
0	 6.357143e+00	 2.071429e+00	 9.905254e+00
0	 6.357143e+00	 2.142857e+00	 9.882962e+00
0	 6.428571e+00	 1.785714e+00	 1.002205e+01
0	 6.428571e+00	 1.857143e+00	 1.000065e+01
0	 6.428571e+00	 1.928571e+00	 9.979149e+00
0	 6.428571e+00	 2.000000e+00	 9.957555e+00
0	 6.428571e+00	 2.071429e+00	 9.935867e+00
0	 6.428571e+00	 2.142857e+00	 9.914084e+00
0	 6.071429e+00	 2.142857e+00	 9.750029e+00
0	 6.071429e+00	 2.214286e+00	 9.729995e+00
0	 6.071429e+00	 2.285714e+00	 9.709307e+00
0	 6.071429e+00	 2.357143e+00	 9.687962e+00
0	 6.071429e+00	 2.428571e+00	 9.665962e+00
0	 6.071429e+00	 2.500000e+00	 9.643306e+00
0	 6.142857e+00	 2.142857e+00	 9.784528e+00
0	 6.142857e+00	 2.214286e+00	 9.764807e+00
0	 6.142857e+00	 2.285714e+00	 9.744474e+00
0	 6.142857e+00	 2.357143e+00	 9.723530e+00
0	 6.142857e+00	 2.428571e+00	 9.701975e+00
0	 6.142857e+00	 2.500000e+00	 9.679808e+00
0	 6.214286e+00	 2.142857e+00	 9.818184e+00
0	 6.214286e+00	 2.214286e+00	 9.798743e+00
0	 6.214286e+00	 2.285714e+00	 9.778735e+00
0	 6.214286e+00	 2.357143e+00	 9.758161e+00
0	 6.214286e+00	 2.428571e+00	 9.737020e+00
0	 6.214286e+00	 2.500000e+00	 9.715311e+00
0	 6.285714e+00	 2.142857e+00	 9.850995e+00
0	 6.285714e+00	 2.214286e+00	 9.831804e+00
0	 6.285714e+00	 2.285714e+00	 9.812090e+00
0	 6.285714e+00	 2.357143e+00	 9.791854e+00
0	 6.285714e+00	 2.428571e+00	 9.771096e+00
0	 6.285714e+00	 2.500000e+00	 9.749815e+00
0	 6.357143e+00	 2.142857e+00	 9.882962e+00
0	 6.357143e+00	 2.214286e+00	 9.863989e+00
0	 6.357143e+00	 2.285714e+00	 9.844538e+00
0	 6.357143e+00	 2.357143e+00	 9.824610e+00
0	 6.357143e+00	 2.428571e+00	 9.804203e+00
0	 6.357143e+00	 2.500000e+00	 9.783318e+00
0	 6.428571e+00	 2.142857e+00	 9.914084e+00
0	 6.428571e+00	 2.214286e+00	 9.895299e+00
0	 6.428571e+00	 2.285714e+00	 9.876080e+00
0	 6.428571e+00	 2.357143e+00	 9.856428e+00
0	 6.428571e+00	 2.428571e+00	 9.836342e+00
0	 6.428571e+00	 2.500000e+00	 9.815822e+00
0	 6.071429e+00	 2.500000e+00	 9.643306e+00
0	 6.071429e+00	 2.571429e+00	 9.628290e+00
0	 6.071429e+00	 2.642857e+00	 9.612342e+00
0	 6.071429e+00	 2.714286e+00	 9.595460e+00
0	 6.071429e+00	 2.785714e+00	 9.577645e+00
0	 6.071429e+00	 2.857143e+00	 9.558898e+00
0	 6.142857e+00	 2.500000e+00	 9.679808e+00
0	 6.142857e+00	 2.571429e+00	 9.664769e+00
0	 6.142857e+00	 2.642857e+00	 9.648849e+00
0	 6.142857e+00	 2.714286e+00	 9.632047e+00
0	 6.142857e+00	 2.785714e+00	 9.614365e+00
0	 6.142857e+00	 2.857143e+00	 9.595802e+00
0	 6.214286e+00	 2.500000e+00	 9.715311e+00
0	 6.214286e+00	 2.571429e+00	 9.700247e+00
0	 6.214286e+00	 2.642857e+00	 9.684353e+00
0	 6.214286e+00	 2.714286e+00	 9.667631e+00
0	 6.214286e+00	 2.785714e+00	 9.650079e+00
0	 6.214286e+00	 2.857143e+00	 9.631699e+00
0	 6.285714e+00	 2.500000e+00	 9.749815e+00
0	 6.285714e+00	 2.571429e+00	 9.734723e+00
0	 6.285714e+00	 2.642857e+00	 9.718855e+00
0	 6.285714e+00	 2.714286e+00	 9.702210e+00
0	 6.285714e+00	 2.785714e+00	 9.684787e+00
0	 6.285714e+00	 2.857143e+00	 9.666588e+00
0	 6.357143e+00	 2.500000e+00	 9.783318e+00
0	 6.357143e+00	 2.571429e+00	 9.768199e+00
0	 6.357143e+00	 2.642857e+00	 9.752354e+00
0	 6.357143e+00	 2.714286e+00	 9.735785e+00
0	 6.357143e+00	 2.785714e+00	 9.718490e+00
0	 6.357143e+00	 2.857143e+00	 9.700471e+00
0	 6.428571e+00	 2.500000e+00	 9.815822e+00
0	 6.428571e+00	 2.571429e+00	 9.800673e+00
0	 6.428571e+00	 2.642857e+00	 9.784851e+00
0	 6.428571e+00	 2.714286e+00	 9.768356e+00
0	 6.428571e+00	 2.785714e+00	 9.751187e+00
0	 6.428571e+00	 2.857143e+00	 9.733346e+00
0	 6.071429e+00	 2.857143e+00	 9.558898e+00
0	 6.071429e+00	 2.928571e+00	 9.549225e+00
0	 6.071429e+00	 3.000000e+00	 9.538486e+00
0	 6.071429e+00	 3.071429e+00	 9.526680e+00
0	 6.071429e+00	 3.142857e+00	 9.513807e+00
0	 6.071429e+00	 3.214286e+00	 9.499868e+00
0	 6.142857e+00	 2.857143e+00	 9.595802e+00
0	 6.142857e+00	 2.928571e+00	 9.585812e+00
0	 6.142857e+00	 3.000000e+00	 9.574807e+00
0	 6.142857e+00	 3.071429e+00	 9.562786e+00
0	 6.142857e+00	 3.142857e+00	 9.549749e+00
0	 6.142857e+00	 3.214286e+00	 9.535698e+00
0	 6.214286e+00	 2.857143e+00	 9.631699e+00
0	 6.214286e+00	 2.928571e+00	 9.621414e+00
0	 6.214286e+00	 3.000000e+00	 9.610166e+00
0	 6.214286e+00	 3.071429e+00	 9.597952e+00
0	 6.214286e+00	 3.142857e+00	 9.584775e+00
0	 6.214286e+00	 3.214286e+00	 9.570633e+00
0	 6.285714e+00	 2.857143e+00	 9.666588e+00
0	 6.285714e+00	 2.928571e+00	 9.656032e+00
0	 6.285714e+00	 3.000000e+00	 9.644563e+00
0	 6.285714e+00	 3.071429e+00	 9.632180e+00
0	 6.285714e+00	 3.142857e+00	 9.618884e+00
0	 6.285714e+00	 3.214286e+00	 9.604674e+00
0	 6.357143e+00	 2.857143e+00	 9.700471e+00
0	 6.357143e+00	 2.928571e+00	 9.689665e+00
0	 6.357143e+00	 3.000000e+00	 9.677998e+00
0	 6.357143e+00	 3.071429e+00	 9.665468e+00
0	 6.357143e+00	 3.142857e+00	 9.652076e+00
0	 6.357143e+00	 3.214286e+00	 9.637821e+00
0	 6.428571e+00	 2.857143e+00	 9.733346e+00
0	 6.428571e+00	 2.928571e+00	 9.722314e+00
0	 6.428571e+00	 3.000000e+00	 9.710471e+00
0	 6.428571e+00	 3.071429e+00	 9.697816e+00
0	 6.428571e+00	 3.142857e+00	 9.684351e+00
0	 6.428571e+00	 3.214286e+00	 9.670074e+00
0	 6.071429e+00	 3.214286e+00	 9.499868e+00
0	 6.071429e+00	 3.285714e+00	 9.495277e+00
0	 6.071429e+00	 3.357143e+00	 9.489603e+00
0	 6.071429e+00	 3.428571e+00	 9.482846e+00
0	 6.071429e+00	 3.500000e+00	 9.475006e+00
0	 6.071429e+00	 3.571429e+00	 9.466084e+00
0	 6.142857e+00	 3.214286e+00	 9.535698e+00
0	 6.142857e+00	 3.285714e+00	 9.530570e+00
0	 6.142857e+00	 3.357143e+00	 9.524406e+00
0	 6.142857e+00	 3.428571e+00	 9.517203e+00
0	 6.142857e+00	 3.500000e+00	 9.508963e+00
0	 6.142857e+00	 3.571429e+00	 9.499685e+00
0	 6.214286e+00	 3.214286e+00	 9.570633e+00
0	 6.214286e+00	 3.285714e+00	 9.565007e+00
0	 6.214286e+00	 3.357143e+00	 9.558388e+00
0	 6.214286e+00	 3.428571e+00	 9.550777e+00
0	 6.214286e+00	 3.500000e+00	 9.542173e+00
0	 6.214286e+00	 3.571429e+00	 9.532576e+00
0	 6.285714e+00	 3.214286e+00	 9.604674e+00
0	 6.285714e+00	 3.285714e+00	 9.598586e+00
0	 6.285714e+00	 3.357143e+00	 9.591550e+00
0	 6.285714e+00	 3.428571e+00	 9.583567e+00
0	 6.285714e+00	 3.500000e+00	 9.574636e+00
0	 6.285714e+00	 3.571429e+00	 9.564758e+00
0	 6.357143e+00	 3.214286e+00	 9.637821e+00
0	 6.357143e+00	 3.285714e+00	 9.631308e+00
0	 6.357143e+00	 3.357143e+00	 9.623892e+00
0	 6.357143e+00	 3.428571e+00	 9.615574e+00
0	 6.357143e+00	 3.500000e+00	 9.606353e+00
0	 6.357143e+00	 3.571429e+00	 9.596229e+00
0	 6.428571e+00	 3.214286e+00	 9.670074e+00
0	 6.428571e+00	 3.285714e+00	 9.663172e+00
0	 6.428571e+00	 3.357143e+00	 9.655413e+00
0	 6.428571e+00	 3.428571e+00	 9.646797e+00
0	 6.428571e+00	 3.500000e+00	 9.637323e+00
0	 6.428571e+00	 3.571429e+00	 9.626992e+00
0	 6.071429e+00	 3.571429e+00	 9.466084e+00
0	 6.071429e+00	 3.642857e+00	 9.465942e+00
0	 6.071429e+00	 3.714286e+00	 9.464786e+00
0	 6.071429e+00	 3.785714e+00	 9.462615e+00
0	 6.071429e+00	 3.857143e+00	 9.459429e+00
0	 6.071429e+00	 3.928571e+00	 9.455229e+00
0	 6.142857e+00	 3.571429e+00	 9.499685e+00
0	 6.142857e+00	 3.642857e+00	 9.498861e+00
0	 6.142857e+00	 3.714286e+00	 9.497060e+00
0	 6.142857e+00	 3.785714e+00	 9.494280e+00
0	 6.142857e+00	 3.857143e+00	 9.490522e+00
0	 6.142857e+00	 3.928571e+00	 9.485786e+00
0	 6.214286e+00	 3.571429e+00	 9.532576e+00
0	 6.214286e+00	 3.642857e+00	 9.531115e+00
0	 6.214286e+00	 3.714286e+00	 9.528713e+00
0	 6.214286e+00	 3.785714e+00	 9.525370e+00
0	 6.214286e+00	 3.857143e+00	 9.521084e+00
0	 6.214286e+00	 3.928571e+00	 9.515857e+00
0	 6.285714e+00	 3.571429e+00	 9.564758e+00
0	 6.285714e+00	 3.642857e+00	 9.562705e+00
0	 6.285714e+00	 3.714286e+00	 9.559747e+00
0	 6.285714e+00	 3.785714e+00	 9.555884e+00
0	 6.285714e+00	 3.857143e+00	 9.551116e+00
0	 6.285714e+00	 3.928571e+00	 9.545442e+00
0	 6.357143e+00	 3.571429e+00	 9.596229e+00
0	 6.357143e+00	 3.642857e+00	 9.593629e+00
0	 6.357143e+00	 3.714286e+00	 9.590160e+00
0	 6.357143e+00	 3.785714e+00	 9.585823e+00
0	 6.357143e+00	 3.857143e+00	 9.580616e+00
0	 6.357143e+00	 3.928571e+00	 9.574541e+00
0	 6.428571e+00	 3.571429e+00	 9.626992e+00
0	 6.428571e+00	 3.642857e+00	 9.623889e+00
0	 6.428571e+00	 3.714286e+00	 9.619953e+00
0	 6.428571e+00	 3.785714e+00	 9.615186e+00
0	 6.428571e+00	 3.857143e+00	 9.609586e+00
0	 6.428571e+00	 3.928571e+00	 9.603154e+00
0	 6.071429e+00	 3.928571e+00	 9.455229e+00
0	 6.071429e+00	 4.000000e+00	 9.458688e+00
0	 6.071429e+00	 4.071429e+00	 9.461255e+00
0	 6.071429e+00	 4.142857e+00	 9.462928e+00
0	 6.071429e+00	 4.214286e+00	 9.463709e+00
0	 6.071429e+00	 4.285714e+00	 9.463597e+00
0	 6.142857e+00	 3.928571e+00	 9.485786e+00
0	 6.142857e+00	 4.000000e+00	 9.488499e+00
0	 6.142857e+00	 4.071429e+00	 9.490345e+00
0	 6.142857e+00	 4.142857e+00	 9.491326e+00
0	 6.142857e+00	 4.214286e+00	 9.491441e+00
0	 6.142857e+00	 4.285714e+00	 9.490690e+00
0	 6.214286e+00	 3.928571e+00	 9.515857e+00
0	 6.214286e+00	 4.000000e+00	 9.517867e+00
0	 6.214286e+00	 4.071429e+00	 9.519037e+00
0	 6.214286e+00	 4.142857e+00	 9.519368e+00
0	 6.214286e+00	 4.214286e+00	 9.518860e+00
0	 6.214286e+00	 4.285714e+00	 9.517513e+00
0	 6.285714e+00	 3.928571e+00	 9.545442e+00
0	 6.285714e+00	 4.000000e+00	 9.546792e+00
0	 6.285714e+00	 4.071429e+00	 9.547329e+00
0	 6.285714e+00	 4.142857e+00	 9.547054e+00
0	 6.285714e+00	 4.214286e+00	 9.545967e+00
0	 6.285714e+00	 4.285714e+00	 9.544068e+00
0	 6.357143e+00	 3.928571e+00	 9.574541e+00
0	 6.357143e+00	 4.000000e+00	 9.575275e+00
0	 6.357143e+00	 4.071429e+00	 9.575223e+00
0	 6.357143e+00	 4.142857e+00	 9.574385e+00
0	 6.357143e+00	 4.214286e+00	 9.572762e+00
0	 6.357143e+00	 4.285714e+00	 9.570354e+00
0	 6.428571e+00	 3.928571e+00	 9.603154e+00
0	 6.428571e+00	 4.000000e+00	 9.603315e+00
0	 6.428571e+00	 4.071429e+00	 9.602717e+00
0	 6.428571e+00	 4.142857e+00	 9.601360e+00
0	 6.428571e+00	 4.214286e+00	 9.599245e+00
0	 6.428571e+00	 4.285714e+00	 9.596371e+00
0	 6.071429e+00	 4.285714e+00	 9.463597e+00
0	 6.071429e+00	 4.357143e+00	 9.469787e+00
0	 6.071429e+00	 4.428571e+00	 9.475229e+00
0	 6.071429e+00	 4.500000e+00	 9.479922e+00
0	 6.071429e+00	 4.571429e+00	 9.483866e+00
0	 6.071429e+00	 4.642857e+00	 9.487063e+00
0	 6.142857e+00	 4.285714e+00	 9.490690e+00
0	 6.142857e+00	 4.357143e+00	 9.496120e+00
0	 6.142857e+00	 4.428571e+00	 9.500821e+00
0	 6.142857e+00	 4.500000e+00	 9.504791e+00
0	 6.142857e+00	 4.571429e+00	 9.508032e+00
0	 6.142857e+00	 4.642857e+00	 9.510543e+00
0	 6.214286e+00	 4.285714e+00	 9.517513e+00
0	 6.214286e+00	 4.357143e+00	 9.522224e+00
0	 6.214286e+00	 4.428571e+00	 9.526223e+00
0	 6.214286e+00	 4.500000e+00	 9.529510e+00
0	 6.214286e+00	 4.571429e+00	 9.532086e+00
0	 6.214286e+00	 4.642857e+00	 9.533951e+00
0	 6.285714e+00	 4.285714e+00	 9.544068e+00
0	 6.285714e+00	 4.357143e+00	 9.548098e+00
0	 6.285714e+00	 4.428571e+00	 9.551435e+00
0	 6.285714e+00	 4.500000e+00	 9.554079e+00
0	 6.285714e+00	 4.571429e+00	 9.556029e+00
0	 6.285714e+00	 4.642857e+00	 9.557287e+00
0	 6.357143e+00	 4.285714e+00	 9.570354e+00
0	 6.357143e+00	 4.357143e+00	 9.573743e+00
0	 6.357143e+00	 4.428571e+00	 9.576457e+00
0	 6.357143e+00	 4.500000e+00	 9.578496e+00
0	 6.357143e+00	 4.571429e+00	 9.579861e+00
0	 6.357143e+00	 4.642857e+00	 9.580551e+00
0	 6.428571e+00	 4.285714e+00	 9.596371e+00
0	 6.428571e+00	 4.357143e+00	 9.599158e+00
0	 6.428571e+00	 4.428571e+00	 9.601288e+00
0	 6.428571e+00	 4.500000e+00	 9.602763e+00
0	 6.428571e+00	 4.571429e+00	 9.603581e+00
0	 6.428571e+00	 4.642857e+00	 9.603742e+00
0	 6.071429e+00	 4.642857e+00	 9.487063e+00
0	 6.071429e+00	 4.714286e+00	 9.495149e+00
0	 6.071429e+00	 4.785714e+00	 9.502637e+00
0	 6.071429e+00	 4.857143e+00	 9.509527e+00
0	 6.071429e+00	 4.928571e+00	 9.515818e+00
0	 6.071429e+00	 5.000000e+00	 9.521510e+00
0	 6.142857e+00	 4.642857e+00	 9.510543e+00
0	 6.142857e+00	 4.714286e+00	 9.517905e+00
0	 6.142857e+00	 4.785714e+00	 9.524680e+00
0	 6.142857e+00	 4.857143e+00	 9.530868e+00
0	 6.142857e+00	 4.928571e+00	 9.536468e+00
0	 6.142857e+00	 5.000000e+00	 9.541481e+00
0	 6.214286e+00	 4.642857e+00	 9.533951e+00
0	 6.214286e+00	 4.714286e+00	 9.540620e+00
0	 6.214286e+00	 4.785714e+00	 9.546714e+00
0	 6.214286e+00	 4.857143e+00	 9.552230e+00
0	 6.214286e+00	 4.928571e+00	 9.557171e+00
0	 6.214286e+00	 5.000000e+00	 9.561535e+00
0	 6.285714e+00	 4.642857e+00	 9.557287e+00
0	 6.285714e+00	 4.714286e+00	 9.563295e+00
0	 6.285714e+00	 4.785714e+00	 9.568737e+00
0	 6.285714e+00	 4.857143e+00	 9.573614e+00
0	 6.285714e+00	 4.928571e+00	 9.577926e+00
0	 6.285714e+00	 5.000000e+00	 9.581672e+00
0	 6.357143e+00	 4.642857e+00	 9.580551e+00
0	 6.357143e+00	 4.714286e+00	 9.585928e+00
0	 6.357143e+00	 4.785714e+00	 9.590751e+00
0	 6.357143e+00	 4.857143e+00	 9.595020e+00
0	 6.357143e+00	 4.928571e+00	 9.598734e+00
0	 6.357143e+00	 5.000000e+00	 9.601894e+00
0	 6.428571e+00	 4.642857e+00	 9.603742e+00
0	 6.428571e+00	 4.714286e+00	 9.608520e+00
0	 6.428571e+00	 4.785714e+00	 9.612755e+00
0	 6.428571e+00	 4.857143e+00	 9.616446e+00
0	 6.428571e+00	 4.928571e+00	 9.619594e+00
0	 6.428571e+00	 5.000000e+00	 9.622199e+00
0	 6.071429e+00	 5.000000e+00	 9.521510e+00
0	 6.071429e+00	 5.071429e+00	 9.530786e+00
0	 6.071429e+00	 5.142857e+00	 9.539604e+00
0	 6.071429e+00	 5.214286e+00	 9.547963e+00
0	 6.071429e+00	 5.285714e+00	 9.555863e+00
0	 6.071429e+00	 5.357143e+00	 9.563304e+00
0	 6.142857e+00	 5.000000e+00	 9.541481e+00
0	 6.142857e+00	 5.071429e+00	 9.550091e+00
0	 6.142857e+00	 5.142857e+00	 9.558248e+00
0	 6.142857e+00	 5.214286e+00	 9.565951e+00
0	 6.142857e+00	 5.285714e+00	 9.573202e+00
0	 6.142857e+00	 5.357143e+00	 9.580000e+00
0	 6.214286e+00	 5.000000e+00	 9.561535e+00
0	 6.214286e+00	 5.071429e+00	 9.569502e+00
0	 6.214286e+00	 5.142857e+00	 9.577021e+00
0	 6.214286e+00	 5.214286e+00	 9.584093e+00
0	 6.214286e+00	 5.285714e+00	 9.590718e+00
0	 6.214286e+00	 5.357143e+00	 9.596895e+00
0	 6.285714e+00	 5.000000e+00	 9.581672e+00
0	 6.285714e+00	 5.071429e+00	 9.589019e+00
0	 6.285714e+00	 5.142857e+00	 9.595925e+00
0	 6.285714e+00	 5.214286e+00	 9.602389e+00
0	 6.285714e+00	 5.285714e+00	 9.608410e+00
0	 6.285714e+00	 5.357143e+00	 9.613991e+00
0	 6.357143e+00	 5.000000e+00	 9.601894e+00
0	 6.357143e+00	 5.071429e+00	 9.608644e+00
0	 6.357143e+00	 5.142857e+00	 9.614959e+00
0	 6.357143e+00	 5.214286e+00	 9.620837e+00
0	 6.357143e+00	 5.285714e+00	 9.626279e+00
0	 6.357143e+00	 5.357143e+00	 9.631286e+00
0	 6.428571e+00	 5.000000e+00	 9.622199e+00
0	 6.428571e+00	 5.071429e+00	 9.628376e+00
0	 6.428571e+00	 5.142857e+00	 9.634122e+00
0	 6.428571e+00	 5.214286e+00	 9.639439e+00
0	 6.428571e+00	 5.285714e+00	 9.644325e+00
0	 6.428571e+00	 5.357143e+00	 9.648781e+00
0	 6.071429e+00	 5.357143e+00	 9.563304e+00
0	 6.071429e+00	 5.428571e+00	 9.573185e+00
0	 6.071429e+00	 5.500000e+00	 9.582733e+00
0	 6.071429e+00	 5.571429e+00	 9.591946e+00
0	 6.071429e+00	 5.642857e+00	 9.600826e+00
0	 6.071429e+00	 5.714286e+00	 9.609371e+00
0	 6.142857e+00	 5.357143e+00	 9.580000e+00
0	 6.142857e+00	 5.428571e+00	 9.589289e+00
0	 6.142857e+00	 5.500000e+00	 9.598246e+00
0	 6.142857e+00	 5.571429e+00	 9.606870e+00
0	 6.142857e+00	 5.642857e+00	 9.615163e+00
0	 6.142857e+00	 5.714286e+00	 9.623122e+00
0	 6.214286e+00	 5.357143e+00	 9.596895e+00
0	 6.214286e+00	 5.428571e+00	 9.605607e+00
0	 6.214286e+00	 5.500000e+00	 9.613989e+00
0	 6.214286e+00	 5.571429e+00	 9.622039e+00
0	 6.214286e+00	 5.642857e+00	 9.629759e+00
0	 6.214286e+00	 5.714286e+00	 9.637149e+00
0	 6.285714e+00	 5.357143e+00	 9.613991e+00
0	 6.285714e+00	 5.428571e+00	 9.622140e+00
0	 6.285714e+00	 5.500000e+00	 9.629961e+00
0	 6.285714e+00	 5.571429e+00	 9.637453e+00
0	 6.285714e+00	 5.642857e+00	 9.644616e+00
0	 6.285714e+00	 5.714286e+00	 9.651449e+00
0	 6.357143e+00	 5.357143e+00	 9.631286e+00
0	 6.357143e+00	 5.428571e+00	 9.638888e+00
0	 6.357143e+00	 5.500000e+00	 9.646163e+00
0	 6.357143e+00	 5.571429e+00	 9.653111e+00
0	 6.357143e+00	 5.642857e+00	 9.659732e+00
0	 6.357143e+00	 5.714286e+00	 9.666025e+00
0	 6.428571e+00	 5.357143e+00	 9.648781e+00
0	 6.428571e+00	 5.428571e+00	 9.655851e+00
0	 6.428571e+00	 5.500000e+00	 9.662596e+00
0	 6.428571e+00	 5.571429e+00	 9.669014e+00
0	 6.428571e+00	 5.642857e+00	 9.675108e+00
0	 6.428571e+00	 5.714286e+00	 9.680875e+00
0	 6.071429e+00	 5.714286e+00	 9.609371e+00
0	 6.071429e+00	 5.785714e+00	 9.619411e+00
0	 6.071429e+00	 5.857143e+00	 9.629224e+00
0	 6.071429e+00	 5.928571e+00	 9.638808e+00
0	 6.071429e+00	 6.000000e+00	 9.648164e+00
0	 6.071429e+00	 6.071429e+00	 9.657292e+00
0	 6.142857e+00	 5.714286e+00	 9.623122e+00
0	 6.142857e+00	 5.785714e+00	 9.632647e+00
0	 6.142857e+00	 5.857143e+00	 9.641943e+00
0	 6.142857e+00	 5.928571e+00	 9.651010e+00
0	 6.142857e+00	 6.000000e+00	 9.659847e+00
0	 6.142857e+00	 6.071429e+00	 9.668456e+00
0	 6.214286e+00	 5.714286e+00	 9.637149e+00
0	 6.214286e+00	 5.785714e+00	 9.646166e+00
0	 6.214286e+00	 5.857143e+00	 9.654953e+00
0	 6.214286e+00	 5.928571e+00	 9.663511e+00
0	 6.214286e+00	 6.000000e+00	 9.671839e+00
0	 6.214286e+00	 6.071429e+00	 9.679937e+00
0	 6.285714e+00	 5.714286e+00	 9.651449e+00
0	 6.285714e+00	 5.785714e+00	 9.659968e+00
0	 6.285714e+00	 5.857143e+00	 9.668255e+00
0	 6.285714e+00	 5.928571e+00	 9.676312e+00
0	 6.285714e+00	 6.000000e+00	 9.684138e+00
0	 6.285714e+00	 6.071429e+00	 9.691734e+00
0	 6.357143e+00	 5.714286e+00	 9.666025e+00
0	 6.357143e+00	 5.785714e+00	 9.674052e+00
0	 6.357143e+00	 5.857143e+00	 9.681848e+00
0	 6.357143e+00	 5.928571e+00	 9.689412e+00
0	 6.357143e+00	 6.000000e+00	 9.696745e+00
0	 6.357143e+00	 6.071429e+00	 9.703846e+00
0	 6.428571e+00	 5.714286e+00	 9.680875e+00
0	 6.428571e+00	 5.785714e+00	 9.688420e+00
0	 6.428571e+00	 5.857143e+00	 9.695732e+00
0	 6.428571e+00	 5.928571e+00	 9.702812e+00
0	 6.428571e+00	 6.000000e+00	 9.709660e+00
0	 6.428571e+00	 6.071429e+00	 9.716275e+00
0	 6.071429e+00	 6.071429e+00	 9.657292e+00
0	 6.071429e+00	 6.142857e+00	 9.667157e+00
0	 6.071429e+00	 6.214286e+00	 9.676883e+00
0	 6.071429e+00	 6.285714e+00	 9.686469e+00
0	 6.071429e+00	 6.357143e+00	 9.695915e+00
0	 6.071429e+00	 6.428571e+00	 9.705221e+00
0	 6.142857e+00	 6.071429e+00	 9.668456e+00
0	 6.142857e+00	 6.142857e+00	 9.677881e+00
0	 6.142857e+00	 6.214286e+00	 9.687164e+00
0	 6.142857e+00	 6.285714e+00	 9.696305e+00
0	 6.142857e+00	 6.357143e+00	 9.705304e+00
0	 6.142857e+00	 6.428571e+00	 9.714161e+00
0	 6.214286e+00	 6.071429e+00	 9.679937e+00
0	 6.214286e+00	 6.142857e+00	 9.688924e+00
0	 6.214286e+00	 6.214286e+00	 9.697767e+00
0	 6.214286e+00	 6.285714e+00	 9.706466e+00
0	 6.214286e+00	 6.357143e+00	 9.715019e+00
0	 6.214286e+00	 6.428571e+00	 9.723429e+00
0	 6.285714e+00	 6.071429e+00	 9.691734e+00
0	 6.285714e+00	 6.142857e+00	 9.700286e+00
0	 6.285714e+00	 6.214286e+00	 9.708692e+00
0	 6.285714e+00	 6.285714e+00	 9.716950e+00
0	 6.285714e+00	 6.357143e+00	 9.725061e+00
0	 6.285714e+00	 6.428571e+00	 9.733026e+00
0	 6.357143e+00	 6.071429e+00	 9.703846e+00
0	 6.357143e+00	 6.142857e+00	 9.711966e+00
0	 6.357143e+00	 6.214286e+00	 9.719937e+00
0	 6.357143e+00	 6.285714e+00	 9.727758e+00
0	 6.357143e+00	 6.357143e+00	 9.735430e+00
0	 6.357143e+00	 6.428571e+00	 9.742952e+00
0	 6.428571e+00	 6.071429e+00	 9.716275e+00
0	 6.428571e+00	 6.142857e+00	 9.723965e+00
0	 6.428571e+00	 6.214286e+00	 9.731504e+00
0	 6.428571e+00	 6.285714e+00	 9.738890e+00
0	 6.428571e+00	 6.357143e+00	 9.746125e+00
0	 6.428571e+00	 6.428571e+00	 9.753207e+00
0	 6.071429e+00	 6.428571e+00	 9.705221e+00
0	 6.071429e+00	 6.500000e+00	 9.714676e+00
0	 6.071429e+00	 6.571429e+00	 9.724063e+00
0	 6.071429e+00	 6.642857e+00	 9.733383e+00
0	 6.071429e+00	 6.714286e+00	 9.742636e+00
0	 6.071429e+00	 6.785714e+00	 9.751822e+00
0	 6.142857e+00	 6.428571e+00	 9.714161e+00
0	 6.142857e+00	 6.500000e+00	 9.723244e+00
0	 6.142857e+00	 6.571429e+00	 9.732256e+00
0	 6.142857e+00	 6.642857e+00	 9.741198e+00
0	 6.142857e+00	 6.714286e+00	 9.750070e+00
0	 6.142857e+00	 6.785714e+00	 9.758872e+00
0	 6.214286e+00	 6.428571e+00	 9.723429e+00
0	 6.214286e+00	 6.500000e+00	 9.732139e+00
0	 6.214286e+00	 6.571429e+00	 9.740775e+00
0	 6.214286e+00	 6.642857e+00	 9.749338e+00
0	 6.214286e+00	 6.714286e+00	 9.757827e+00
0	 6.214286e+00	 6.785714e+00	 9.766243e+00
0	 6.285714e+00	 6.428571e+00	 9.733026e+00
0	 6.285714e+00	 6.500000e+00	 9.741362e+00
0	 6.285714e+00	 6.571429e+00	 9.749621e+00
0	 6.285714e+00	 6.642857e+00	 9.757803e+00
0	 6.285714e+00	 6.714286e+00	 9.765908e+00
0	 6.285714e+00	 6.785714e+00	 9.773936e+00
0	 6.357143e+00	 6.428571e+00	 9.742952e+00
0	 6.357143e+00	 6.500000e+00	 9.750912e+00
0	 6.357143e+00	 6.571429e+00	 9.758792e+00
0	 6.357143e+00	 6.642857e+00	 9.766592e+00
0	 6.357143e+00	 6.714286e+00	 9.774311e+00
0	 6.357143e+00	 6.785714e+00	 9.781950e+00
0	 6.428571e+00	 6.428571e+00	 9.753207e+00
0	 6.428571e+00	 6.500000e+00	 9.760790e+00
0	 6.428571e+00	 6.571429e+00	 9.768289e+00
0	 6.428571e+00	 6.642857e+00	 9.775705e+00
0	 6.428571e+00	 6.714286e+00	 9.783037e+00
0	 6.428571e+00	 6.785714e+00	 9.790286e+00
0	 6.071429e+00	 6.785714e+00	 9.751822e+00
0	 6.071429e+00	 6.857143e+00	 9.760701e+00
0	 6.071429e+00	 6.928571e+00	 9.769573e+00
0	 6.071429e+00	 7.000000e+00	 9.778438e+00
0	 6.071429e+00	 7.071429e+00	 9.787295e+00
0	 6.071429e+00	 7.142857e+00	 9.796146e+00
0	 6.142857e+00	 6.785714e+00	 9.758872e+00
0	 6.142857e+00	 6.857143e+00	 9.767440e+00
0	 6.142857e+00	 6.928571e+00	 9.775998e+00
0	 6.142857e+00	 7.000000e+00	 9.784545e+00
0	 6.142857e+00	 7.071429e+00	 9.793082e+00
0	 6.142857e+00	 7.142857e+00	 9.801607e+00
0	 6.214286e+00	 6.785714e+00	 9.766243e+00
0	 6.214286e+00	 6.857143e+00	 9.774497e+00
0	 6.214286e+00	 6.928571e+00	 9.782736e+00
0	 6.214286e+00	 7.000000e+00	 9.790962e+00
0	 6.214286e+00	 7.071429e+00	 9.799172e+00
0	 6.214286e+00	 7.142857e+00	 9.807369e+00
0	 6.285714e+00	 6.785714e+00	 9.773936e+00
0	 6.285714e+00	 6.857143e+00	 9.781871e+00
0	 6.285714e+00	 6.928571e+00	 9.789788e+00
0	 6.285714e+00	 7.000000e+00	 9.797687e+00
0	 6.285714e+00	 7.071429e+00	 9.805568e+00
0	 6.285714e+00	 7.142857e+00	 9.813430e+00
0	 6.357143e+00	 6.785714e+00	 9.781950e+00
0	 6.357143e+00	 6.857143e+00	 9.789562e+00
0	 6.357143e+00	 6.928571e+00	 9.797152e+00
0	 6.357143e+00	 7.000000e+00	 9.804721e+00
0	 6.357143e+00	 7.071429e+00	 9.812267e+00
0	 6.357143e+00	 7.142857e+00	 9.819792e+00
0	 6.428571e+00	 6.785714e+00	 9.790286e+00
0	 6.428571e+00	 6.857143e+00	 9.797571e+00
0	 6.428571e+00	 6.928571e+00	 9.804830e+00
0	 6.428571e+00	 7.000000e+00	 9.812063e+00
0	 6.428571e+00	 7.071429e+00	 9.819271e+00
0	 6.428571e+00	 7.142857e+00	 9.826454e+00
0	 6.071429e+00	 7.142857e+00	 9.796146e+00
0	 6.071429e+00	 7.214286e+00	 9.804335e+00
0	 6.071429e+00	 7.285714e+00	 9.812568e+00
0	 6.071429e+00	 7.357143e+00	 9.820844e+00
0	 6.071429e+00	 7.428571e+00	 9.829165e+00
0	 6.071429e+00	 7.500000e+00	 9.837529e+00
0	 6.142857e+00	 7.142857e+00	 9.801607e+00
0	 6.142857e+00	 7.214286e+00	 9.809538e+00
0	 6.142857e+00	 7.285714e+00	 9.817509e+00
0	 6.142857e+00	 7.357143e+00	 9.825520e+00
0	 6.142857e+00	 7.428571e+00	 9.833571e+00
0	 6.142857e+00	 7.500000e+00	 9.841662e+00
0	 6.214286e+00	 7.142857e+00	 9.807369e+00
0	 6.214286e+00	 7.214286e+00	 9.815036e+00
0	 6.214286e+00	 7.285714e+00	 9.822739e+00
0	 6.214286e+00	 7.357143e+00	 9.830479e+00
0	 6.214286e+00	 7.428571e+00	 9.838254e+00
0	 6.214286e+00	 7.500000e+00	 9.846066e+00
0	 6.285714e+00	 7.142857e+00	 9.813430e+00
0	 6.285714e+00	 7.214286e+00	 9.820828e+00
0	 6.285714e+00	 7.285714e+00	 9.828257e+00
0	 6.285714e+00	 7.357143e+00	 9.835719e+00
0	 6.285714e+00	 7.428571e+00	 9.843213e+00
0	 6.285714e+00	 7.500000e+00	 9.850740e+00
0	 6.357143e+00	 7.142857e+00	 9.819792e+00
0	 6.357143e+00	 7.214286e+00	 9.826914e+00
0	 6.357143e+00	 7.285714e+00	 9.834064e+00
0	 6.357143e+00	 7.357143e+00	 9.841242e+00
0	 6.357143e+00	 7.428571e+00	 9.848449e+00
0	 6.357143e+00	 7.500000e+00	 9.855685e+00
0	 6.428571e+00	 7.142857e+00	 9.826454e+00
0	 6.428571e+00	 7.214286e+00	 9.833294e+00
0	 6.428571e+00	 7.285714e+00	 9.840158e+00
0	 6.428571e+00	 7.357143e+00	 9.847048e+00
0	 6.428571e+00	 7.428571e+00	 9.853961e+00
0	 6.428571e+00	 7.500000e+00	 9.860900e+00
0	 6.071429e+00	 7.500000e+00	 9.837529e+00
0	 6.071429e+00	 7.571429e+00	 9.844942e+00
0	 6.071429e+00	 7.642857e+00	 9.852444e+00
0	 6.071429e+00	 7.714286e+00	 9.860035e+00
0	 6.071429e+00	 7.785714e+00	 9.867715e+00
0	 6.071429e+00	 7.857143e+00	 9.875484e+00
0	 6.142857e+00	 7.500000e+00	 9.841662e+00
0	 6.142857e+00	 7.571429e+00	 9.848861e+00
0	 6.142857e+00	 7.642857e+00	 9.856145e+00
0	 6.142857e+00	 7.714286e+00	 9.863515e+00
0	 6.142857e+00	 7.785714e+00	 9.870969e+00
0	 6.142857e+00	 7.857143e+00	 9.878509e+00
0	 6.214286e+00	 7.500000e+00	 9.846066e+00
0	 6.214286e+00	 7.571429e+00	 9.853044e+00
0	 6.214286e+00	 7.642857e+00	 9.860104e+00
0	 6.214286e+00	 7.714286e+00	 9.867245e+00
0	 6.214286e+00	 7.785714e+00	 9.874467e+00
0	 6.214286e+00	 7.857143e+00	 9.881771e+00
0	 6.285714e+00	 7.500000e+00	 9.850740e+00
0	 6.285714e+00	 7.571429e+00	 9.857491e+00
0	 6.285714e+00	 7.642857e+00	 9.864320e+00
0	 6.285714e+00	 7.714286e+00	 9.871226e+00
0	 6.285714e+00	 7.785714e+00	 9.878210e+00
0	 6.285714e+00	 7.857143e+00	 9.885270e+00
0	 6.357143e+00	 7.500000e+00	 9.855685e+00
0	 6.357143e+00	 7.571429e+00	 9.862202e+00
0	 6.357143e+00	 7.642857e+00	 9.868793e+00
0	 6.357143e+00	 7.714286e+00	 9.875458e+00
0	 6.357143e+00	 7.785714e+00	 9.882196e+00
0	 6.357143e+00	 7.857143e+00	 9.889008e+00
0	 6.428571e+00	 7.500000e+00	 9.860900e+00
0	 6.428571e+00	 7.571429e+00	 9.867177e+00
0	 6.428571e+00	 7.642857e+00	 9.873524e+00
0	 6.428571e+00	 7.714286e+00	 9.879940e+00
0	 6.428571e+00	 7.785714e+00	 9.886427e+00
0	 6.428571e+00	 7.857143e+00	 9.892982e+00
0	 6.071429e+00	 7.857143e+00	 9.875484e+00
0	 6.071429e+00	 7.928571e+00	 9.882044e+00
0	 6.071429e+00	 8.000000e+00	 9.888737e+00
0	 6.071429e+00	 8.071429e+00	 9.895561e+00
0	 6.071429e+00	 8.142857e+00	 9.902518e+00
0	 6.071429e+00	 8.214286e+00	 9.909607e+00
0	 6.142857e+00	 7.857143e+00	 9.878509e+00
0	 6.142857e+00	 7.928571e+00	 9.884891e+00
0	 6.142857e+00	 8.000000e+00	 9.891402e+00
0	 6.142857e+00	 8.071429e+00	 9.898041e+00
0	 6.142857e+00	 8.142857e+00	 9.904808e+00
0	 6.142857e+00	 8.214286e+00	 9.911704e+00
0	 6.214286e+00	 7.857143e+00	 9.881771e+00
0	 6.214286e+00	 7.928571e+00	 9.887970e+00
0	 6.214286e+00	 8.000000e+00	 9.894292e+00
0	 6.214286e+00	 8.071429e+00	 9.900739e+00
0	 6.214286e+00	 8.142857e+00	 9.907311e+00
0	 6.214286e+00	 8.214286e+00	 9.914006e+00
0	 6.285714e+00	 7.857143e+00	 9.885270e+00
0	 6.285714e+00	 7.928571e+00	 9.891279e+00
0	 6.285714e+00	 8.000000e+00	 9.897408e+00
0	 6.285714e+00	 8.071429e+00	 9.903656e+00
0	 6.285714e+00	 8.142857e+00	 9.910025e+00
0	 6.285714e+00	 8.214286e+00	 9.916515e+00
0	 6.357143e+00	 7.857143e+00	 9.889008e+00
0	 6.357143e+00	 7.928571e+00	 9.894819e+00
0	 6.357143e+00	 8.000000e+00	 9.900747e+00
0	 6.357143e+00	 8.071429e+00	 9.906792e+00
0	 6.357143e+00	 8.142857e+00	 9.912952e+00
0	 6.357143e+00	 8.214286e+00	 9.919229e+00
0	 6.428571e+00	 7.857143e+00	 9.892982e+00
0	 6.428571e+00	 7.928571e+00	 9.898591e+00
0	 6.428571e+00	 8.000000e+00	 9.904312e+00
0	 6.428571e+00	 8.071429e+00	 9.910145e+00
0	 6.428571e+00	 8.142857e+00	 9.916091e+00
0	 6.428571e+00	 8.214286e+00	 9.922148e+00
0	 6.071429e+00	 8.214286e+00	 9.909607e+00
0	 6.071429e+00	 8.285714e+00	 9.915226e+00
0	 6.071429e+00	 8.357143e+00	 9.921022e+00
0	 6.071429e+00	 8.428571e+00	 9.926995e+00
0	 6.071429e+00	 8.500000e+00	 9.933146e+00
0	 6.071429e+00	 8.571429e+00	 9.939474e+00
0	 6.142857e+00	 8.214286e+00	 9.911704e+00
0	 6.142857e+00	 8.285714e+00	 9.917176e+00
0	 6.142857e+00	 8.357143e+00	 9.922821e+00
0	 6.142857e+00	 8.428571e+00	 9.928639e+00
0	 6.142857e+00	 8.500000e+00	 9.934630e+00
0	 6.142857e+00	 8.571429e+00	 9.940794e+00
0	 6.214286e+00	 8.214286e+00	 9.914006e+00
0	 6.214286e+00	 8.285714e+00	 9.919327e+00
0	 6.214286e+00	 8.357143e+00	 9.924815e+00
0	 6.214286e+00	 8.428571e+00	 9.930473e+00
0	 6.214286e+00	 8.500000e+00	 9.936298e+00
0	 6.214286e+00	 8.571429e+00	 9.942292e+00
0	 6.285714e+00	 8.214286e+00	 9.916515e+00
0	 6.285714e+00	 8.285714e+00	 9.921678e+00
0	 6.285714e+00	 8.357143e+00	 9.927005e+00
0	 6.285714e+00	 8.428571e+00	 9.932496e+00
0	 6.285714e+00	 8.500000e+00	 9.938151e+00
0	 6.285714e+00	 8.571429e+00	 9.943970e+00
0	 6.357143e+00	 8.214286e+00	 9.919229e+00
0	 6.357143e+00	 8.285714e+00	 9.924229e+00
0	 6.357143e+00	 8.357143e+00	 9.929389e+00
0	 6.357143e+00	 8.428571e+00	 9.934708e+00
0	 6.357143e+00	 8.500000e+00	 9.940187e+00
0	 6.357143e+00	 8.571429e+00	 9.945825e+00
0	 6.428571e+00	 8.214286e+00	 9.922148e+00
0	 6.428571e+00	 8.285714e+00	 9.926981e+00
0	 6.428571e+00	 8.357143e+00	 9.931968e+00
0	 6.428571e+00	 8.428571e+00	 9.937110e+00
0	 6.428571e+00	 8.500000e+00	 9.942408e+00
0	 6.428571e+00	 8.571429e+00	 9.947860e+00
0	 6.071429e+00	 8.571429e+00	 9.939474e+00
0	 6.071429e+00	 8.642857e+00	 9.944036e+00
0	 6.071429e+00	 8.714286e+00	 9.948827e+00
0	 6.071429e+00	 8.785714e+00	 9.953845e+00
0	 6.071429e+00	 8.857143e+00	 9.959091e+00
0	 6.071429e+00	 8.928571e+00	 9.964565e+00
0	 6.142857e+00	 8.571429e+00	 9.940794e+00
0	 6.142857e+00	 8.642857e+00	 9.945237e+00
0	 6.142857e+00	 8.714286e+00	 9.949903e+00
0	 6.142857e+00	 8.785714e+00	 9.954792e+00
0	 6.142857e+00	 8.857143e+00	 9.959903e+00
0	 6.142857e+00	 8.928571e+00	 9.965237e+00
0	 6.214286e+00	 8.571429e+00	 9.942292e+00
0	 6.214286e+00	 8.642857e+00	 9.946613e+00
0	 6.214286e+00	 8.714286e+00	 9.951151e+00
0	 6.214286e+00	 8.785714e+00	 9.955907e+00
0	 6.214286e+00	 8.857143e+00	 9.960880e+00
0	 6.214286e+00	 8.928571e+00	 9.966070e+00
0	 6.285714e+00	 8.571429e+00	 9.943970e+00
0	 6.285714e+00	 8.642857e+00	 9.948164e+00
0	 6.285714e+00	 8.714286e+00	 9.952571e+00
0	 6.285714e+00	 8.785714e+00	 9.957189e+00
0	 6.285714e+00	 8.857143e+00	 9.962020e+00
0	 6.285714e+00	 8.928571e+00	 9.967062e+00
0	 6.357143e+00	 8.571429e+00	 9.945825e+00
0	 6.357143e+00	 8.642857e+00	 9.949890e+00
0	 6.357143e+00	 8.714286e+00	 9.954161e+00
0	 6.357143e+00	 8.785714e+00	 9.958639e+00
0	 6.357143e+00	 8.857143e+00	 9.963324e+00
0	 6.357143e+00	 8.928571e+00	 9.968215e+00
0	 6.428571e+00	 8.571429e+00	 9.947860e+00
0	 6.428571e+00	 8.642857e+00	 9.951791e+00
0	 6.428571e+00	 8.714286e+00	 9.955923e+00
0	 6.428571e+00	 8.785714e+00	 9.960257e+00
0	 6.428571e+00	 8.857143e+00	 9.964791e+00
0	 6.428571e+00	 8.928571e+00	 9.969527e+00
0	 6.071429e+00	 8.928571e+00	 9.964565e+00
0	 6.071429e+00	 9.000000e+00	 9.967904e+00
0	 6.071429e+00	 9.071429e+00	 9.971530e+00
0	 6.071429e+00	 9.142857e+00	 9.975445e+00
0	 6.071429e+00	 9.214286e+00	 9.979648e+00
0	 6.071429e+00	 9.285714e+00	 9.984139e+00
0	 6.142857e+00	 8.928571e+00	 9.965237e+00
0	 6.142857e+00	 9.000000e+00	 9.968485e+00
0	 6.142857e+00	 9.071429e+00	 9.972014e+00
0	 6.142857e+00	 9.142857e+00	 9.975824e+00
0	 6.142857e+00	 9.214286e+00	 9.979915e+00
0	 6.142857e+00	 9.285714e+00	 9.984287e+00
0	 6.214286e+00	 8.928571e+00	 9.966070e+00
0	 6.214286e+00	 9.000000e+00	 9.969225e+00
0	 6.214286e+00	 9.071429e+00	 9.972655e+00
0	 6.214286e+00	 9.142857e+00	 9.976359e+00
0	 6.214286e+00	 9.214286e+00	 9.980337e+00
0	 6.214286e+00	 9.285714e+00	 9.984590e+00
0	 6.285714e+00	 8.928571e+00	 9.967062e+00
0	 6.285714e+00	 9.000000e+00	 9.970124e+00
0	 6.285714e+00	 9.071429e+00	 9.973453e+00
0	 6.285714e+00	 9.142857e+00	 9.977050e+00
0	 6.285714e+00	 9.214286e+00	 9.980914e+00
0	 6.285714e+00	 9.285714e+00	 9.985045e+00
0	 6.357143e+00	 8.928571e+00	 9.968215e+00
0	 6.357143e+00	 9.000000e+00	 9.971182e+00
0	 6.357143e+00	 9.071429e+00	 9.974409e+00
0	 6.357143e+00	 9.142857e+00	 9.977897e+00
0	 6.357143e+00	 9.214286e+00	 9.981645e+00
0	 6.357143e+00	 9.285714e+00	 9.985654e+00
0	 6.428571e+00	 8.928571e+00	 9.969527e+00
0	 6.428571e+00	 9.000000e+00	 9.972398e+00
0	 6.428571e+00	 9.071429e+00	 9.975522e+00
0	 6.428571e+00	 9.142857e+00	 9.978900e+00
0	 6.428571e+00	 9.214286e+00	 9.982531e+00
0	 6.428571e+00	 9.285714e+00	 9.986417e+00
0	 6.071429e+00	 9.285714e+00	 9.984139e+00
0	 6.071429e+00	 9.357143e+00	 9.986036e+00
0	 6.071429e+00	 9.428571e+00	 9.988296e+00
0	 6.071429e+00	 9.500000e+00	 9.990918e+00
0	 6.071429e+00	 9.571429e+00	 9.993902e+00
0	 6.071429e+00	 9.642857e+00	 9.997248e+00
0	 6.142857e+00	 9.285714e+00	 9.984287e+00
0	 6.142857e+00	 9.357143e+00	 9.986126e+00
0	 6.142857e+00	 9.428571e+00	 9.988317e+00
0	 6.142857e+00	 9.500000e+00	 9.990861e+00
0	 6.142857e+00	 9.571429e+00	 9.993757e+00
0	 6.142857e+00	 9.642857e+00	 9.997006e+00
0	 6.214286e+00	 9.285714e+00	 9.984590e+00
0	 6.214286e+00	 9.357143e+00	 9.986370e+00
0	 6.214286e+00	 9.428571e+00	 9.988494e+00
0	 6.214286e+00	 9.500000e+00	 9.990962e+00
0	 6.214286e+00	 9.571429e+00	 9.993773e+00
0	 6.214286e+00	 9.642857e+00	 9.996927e+00
0	 6.285714e+00	 9.285714e+00	 9.985045e+00
0	 6.285714e+00	 9.357143e+00	 9.986770e+00
0	 6.285714e+00	 9.428571e+00	 9.988829e+00
0	 6.285714e+00	 9.500000e+00	 9.991222e+00
0	 6.285714e+00	 9.571429e+00	 9.993949e+00
0	 6.285714e+00	 9.642857e+00	 9.997010e+00
0	 6.357143e+00	 9.285714e+00	 9.985654e+00
0	 6.357143e+00	 9.357143e+00	 9.987325e+00
0	 6.357143e+00	 9.428571e+00	 9.989321e+00
0	 6.357143e+00	 9.500000e+00	 9.991641e+00
0	 6.357143e+00	 9.571429e+00	 9.994287e+00
0	 6.357143e+00	 9.642857e+00	 9.997257e+00
0	 6.428571e+00	 9.285714e+00	 9.986417e+00
0	 6.428571e+00	 9.357143e+00	 9.988035e+00
0	 6.428571e+00	 9.428571e+00	 9.989970e+00
0	 6.428571e+00	 9.500000e+00	 9.992220e+00
0	 6.428571e+00	 9.571429e+00	 9.994785e+00
0	 6.428571e+00	 9.642857e+00	 9.997666e+00
0	 6.071429e+00	 9.642857e+00	 9.997248e+00
0	 6.071429e+00	 9.714286e+00	 9.997328e+00
0	 6.071429e+00	 9.785714e+00	 9.997864e+00
0	 6.071429e+00	 9.857143e+00	 9.998857e+00
0	 6.071429e+00	 9.928571e+00	 1.000030e+01
0	 6.071429e+00	 1.000000e+01	 1.000221e+01
0	 6.142857e+00	 9.642857e+00	 9.997006e+00
0	 6.142857e+00	 9.714286e+00	 9.997070e+00
0	 6.142857e+00	 9.785714e+00	 9.997578e+00
0	 6.142857e+00	 9.857143e+00	 9.998528e+00
0	 6.142857e+00	 9.928571e+00	 9.999921e+00
0	 6.142857e+00	 1.000000e+01	 1.000176e+01
0	 6.214286e+00	 9.642857e+00	 9.996927e+00
0	 6.214286e+00	 9.714286e+00	 9.996982e+00
0	 6.214286e+00	 9.785714e+00	 9.997466e+00
0	 6.214286e+00	 9.857143e+00	 9.998381e+00
0	 6.214286e+00	 9.928571e+00	 9.999725e+00
0	 6.214286e+00	 1.000000e+01	 1.000150e+01
0	 6.285714e+00	 9.642857e+00	 9.997010e+00
0	 6.285714e+00	 9.714286e+00	 9.997062e+00
0	 6.285714e+00	 9.785714e+00	 9.997530e+00
0	 6.285714e+00	 9.857143e+00	 9.998414e+00
0	 6.285714e+00	 9.928571e+00	 9.999716e+00
0	 6.285714e+00	 1.000000e+01	 1.000143e+01
0	 6.357143e+00	 9.642857e+00	 9.997257e+00
0	 6.357143e+00	 9.714286e+00	 9.997311e+00
0	 6.357143e+00	 9.785714e+00	 9.997768e+00
0	 6.357143e+00	 9.857143e+00	 9.998629e+00
0	 6.357143e+00	 9.928571e+00	 9.999894e+00
0	 6.357143e+00	 1.000000e+01	 1.000156e+01
0	 6.428571e+00	 9.642857e+00	 9.997666e+00
0	 6.428571e+00	 9.714286e+00	 9.997728e+00
0	 6.428571e+00	 9.785714e+00	 9.998181e+00
0	 6.428571e+00	 9.857143e+00	 9.999025e+00
0	 6.428571e+00	 9.928571e+00	 1.000026e+01
0	 6.428571e+00	 1.000000e+01	 1.000188e+01
0	 6.428571e+00	 0.000000e+00	 1.038342e+01
0	 6.428571e+00	 7.142857e-02	 1.037646e+01
0	 6.428571e+00	 1.428571e-01	 1.037115e+01
0	 6.428571e+00	 2.142857e-01	 1.036748e+01
0	 6.428571e+00	 2.857143e-01	 1.036547e+01
0	 6.428571e+00	 3.571429e-01	 1.036511e+01
0	 6.500000e+00	 0.000000e+00	 1.039855e+01
0	 6.500000e+00	 7.142857e-02	 1.039189e+01
0	 6.500000e+00	 1.428571e-01	 1.038681e+01
0	 6.500000e+00	 2.142857e-01	 1.038331e+01
0	 6.500000e+00	 2.857143e-01	 1.038139e+01
0	 6.500000e+00	 3.571429e-01	 1.038105e+01
0	 6.571429e+00	 0.000000e+00	 1.041481e+01
0	 6.571429e+00	 7.142857e-02	 1.040844e+01
0	 6.571429e+00	 1.428571e-01	 1.040358e+01
0	 6.571429e+00	 2.142857e-01	 1.040023e+01
0	 6.571429e+00	 2.857143e-01	 1.039838e+01
0	 6.571429e+00	 3.571429e-01	 1.039804e+01
0	 6.642857e+00	 0.000000e+00	 1.043220e+01
0	 6.642857e+00	 7.142857e-02	 1.042611e+01
0	 6.642857e+00	 1.428571e-01	 1.042146e+01
0	 6.642857e+00	 2.142857e-01	 1.041823e+01
0	 6.642857e+00	 2.857143e-01	 1.041644e+01
0	 6.642857e+00	 3.571429e-01	 1.041608e+01
0	 6.714286e+00	 0.000000e+00	 1.045074e+01
0	 6.714286e+00	 7.142857e-02	 1.044490e+01
0	 6.714286e+00	 1.428571e-01	 1.044043e+01
0	 6.714286e+00	 2.142857e-01	 1.043732e+01
0	 6.714286e+00	 2.857143e-01	 1.043556e+01
0	 6.714286e+00	 3.571429e-01	 1.043517e+01
0	 6.785714e+00	 0.000000e+00	 1.047041e+01
0	 6.785714e+00	 7.142857e-02	 1.046481e+01
0	 6.785714e+00	 1.428571e-01	 1.046051e+01
0	 6.785714e+00	 2.142857e-01	 1.045749e+01
0	 6.785714e+00	 2.857143e-01	 1.045576e+01
0	 6.785714e+00	 3.571429e-01	 1.045531e+01
0	 6.428571e+00	 3.571429e-01	 1.036511e+01
0	 6.428571e+00	 4.285714e-01	 1.035161e+01
0	 6.428571e+00	 5.000000e-01	 1.033959e+01
0	 6.428571e+00	 5.714286e-01	 1.032906e+01
0	 6.428571e+00	 6.428571e-01	 1.032000e+01
0	 6.428571e+00	 7.142857e-01	 1.031243e+01
0	 6.500000e+00	 3.571429e-01	 1.038105e+01
0	 6.500000e+00	 4.285714e-01	 1.036812e+01
0	 6.500000e+00	 5.000000e-01	 1.035662e+01
0	 6.500000e+00	 5.714286e-01	 1.034653e+01
0	 6.500000e+00	 6.428571e-01	 1.033787e+01
0	 6.500000e+00	 7.142857e-01	 1.033061e+01
0	 6.571429e+00	 3.571429e-01	 1.039804e+01
0	 6.571429e+00	 4.285714e-01	 1.038564e+01
0	 6.571429e+00	 5.000000e-01	 1.037461e+01
0	 6.571429e+00	 5.714286e-01	 1.036492e+01
0	 6.571429e+00	 6.428571e-01	 1.035660e+01
0	 6.571429e+00	 7.142857e-01	 1.034962e+01
0	 6.642857e+00	 3.571429e-01	 1.041608e+01
0	 6.642857e+00	 4.285714e-01	 1.040417e+01
0	 6.642857e+00	 5.000000e-01	 1.039355e+01
0	 6.642857e+00	 5.714286e-01	 1.038423e+01
0	 6.642857e+00	 6.428571e-01	 1.037620e+01
0	 6.642857e+00	 7.142857e-01	 1.036946e+01
0	 6.714286e+00	 3.571429e-01	 1.043517e+01
0	 6.714286e+00	 4.285714e-01	 1.042370e+01
0	 6.714286e+00	 5.000000e-01	 1.041346e+01
0	 6.714286e+00	 5.714286e-01	 1.040445e+01
0	 6.714286e+00	 6.428571e-01	 1.039667e+01
0	 6.714286e+00	 7.142857e-01	 1.039012e+01
0	 6.785714e+00	 3.571429e-01	 1.045531e+01
0	 6.785714e+00	 4.285714e-01	 1.044424e+01
0	 6.785714e+00	 5.000000e-01	 1.043433e+01
0	 6.785714e+00	 5.714286e-01	 1.042559e+01
0	 6.785714e+00	 6.428571e-01	 1.041801e+01
0	 6.785714e+00	 7.142857e-01	 1.041160e+01
0	 6.428571e+00	 7.142857e-01	 1.031243e+01
0	 6.428571e+00	 7.857143e-01	 1.029391e+01
0	 6.428571e+00	 8.571429e-01	 1.027654e+01
0	 6.428571e+00	 9.285714e-01	 1.026035e+01
0	 6.428571e+00	 1.000000e+00	 1.024532e+01
0	 6.428571e+00	 1.071429e+00	 1.023145e+01
0	 6.500000e+00	 7.142857e-01	 1.033061e+01
0	 6.500000e+00	 7.857143e-01	 1.031284e+01
0	 6.500000e+00	 8.571429e-01	 1.029619e+01
0	 6.500000e+00	 9.285714e-01	 1.028065e+01
0	 6.500000e+00	 1.000000e+00	 1.026624e+01
0	 6.500000e+00	 1.071429e+00	 1.025294e+01
0	 6.571429e+00	 7.142857e-01	 1.034962e+01
0	 6.571429e+00	 7.857143e-01	 1.033254e+01
0	 6.571429e+00	 8.571429e-01	 1.031653e+01
0	 6.571429e+00	 9.285714e-01	 1.030159e+01
0	 6.571429e+00	 1.000000e+00	 1.028772e+01
0	 6.571429e+00	 1.071429e+00	 1.027492e+01
0	 6.642857e+00	 7.142857e-01	 1.036946e+01
0	 6.642857e+00	 7.857143e-01	 1.035299e+01
0	 6.642857e+00	 8.571429e-01	 1.033756e+01
0	 6.642857e+00	 9.285714e-01	 1.032314e+01
0	 6.642857e+00	 1.000000e+00	 1.030976e+01
0	 6.642857e+00	 1.071429e+00	 1.029740e+01
0	 6.714286e+00	 7.142857e-01	 1.039012e+01
0	 6.714286e+00	 7.857143e-01	 1.037421e+01
0	 6.714286e+00	 8.571429e-01	 1.035928e+01
0	 6.714286e+00	 9.285714e-01	 1.034533e+01
0	 6.714286e+00	 1.000000e+00	 1.033236e+01
0	 6.714286e+00	 1.071429e+00	 1.032037e+01
0	 6.785714e+00	 7.142857e-01	 1.041160e+01
0	 6.785714e+00	 7.857143e-01	 1.039618e+01
0	 6.785714e+00	 8.571429e-01	 1.038169e+01
0	 6.785714e+00	 9.285714e-01	 1.036813e+01
0	 6.785714e+00	 1.000000e+00	 1.035551e+01
0	 6.785714e+00	 1.071429e+00	 1.034383e+01
0	 6.428571e+00	 1.071429e+00	 1.023145e+01
0	 6.428571e+00	 1.142857e+00	 1.020989e+01
0	 6.428571e+00	 1.214286e+00	 1.018908e+01
0	 6.428571e+00	 1.285714e+00	 1.016903e+01
0	 6.428571e+00	 1.357143e+00	 1.014974e+01
0	 6.428571e+00	 1.428571e+00	 1.013120e+01
0	 6.500000e+00	 1.071429e+00	 1.025294e+01
0	 6.500000e+00	 1.142857e+00	 1.023218e+01
0	 6.500000e+00	 1.214286e+00	 1.021216e+01
0	 6.500000e+00	 1.285714e+00	 1.019287e+01
0	 6.500000e+00	 1.357143e+00	 1.017431e+01
0	 6.500000e+00	 1.428571e+00	 1.015648e+01
0	 6.571429e+00	 1.071429e+00	 1.027492e+01
0	 6.571429e+00	 1.142857e+00	 1.025490e+01
0	 6.571429e+00	 1.214286e+00	 1.023558e+01
0	 6.571429e+00	 1.285714e+00	 1.021697e+01
0	 6.571429e+00	 1.357143e+00	 1.019906e+01
0	 6.571429e+00	 1.428571e+00	 1.018187e+01
0	 6.642857e+00	 1.071429e+00	 1.029740e+01
0	 6.642857e+00	 1.142857e+00	 1.027803e+01
0	 6.642857e+00	 1.214286e+00	 1.025934e+01
0	 6.642857e+00	 1.285714e+00	 1.024133e+01
0	 6.642857e+00	 1.357143e+00	 1.022401e+01
0	 6.642857e+00	 1.428571e+00	 1.020737e+01
0	 6.714286e+00	 1.071429e+00	 1.032037e+01
0	 6.714286e+00	 1.142857e+00	 1.030157e+01
0	 6.714286e+00	 1.214286e+00	 1.028344e+01
0	 6.714286e+00	 1.285714e+00	 1.026597e+01
0	 6.714286e+00	 1.357143e+00	 1.024915e+01
0	 6.714286e+00	 1.428571e+00	 1.023299e+01
0	 6.785714e+00	 1.071429e+00	 1.034383e+01
0	 6.785714e+00	 1.142857e+00	 1.032554e+01
0	 6.785714e+00	 1.214286e+00	 1.030788e+01
0	 6.785714e+00	 1.285714e+00	 1.029087e+01
0	 6.785714e+00	 1.357143e+00	 1.027448e+01
0	 6.785714e+00	 1.428571e+00	 1.025873e+01
0	 6.428571e+00	 1.428571e+00	 1.013120e+01
0	 6.428571e+00	 1.500000e+00	 1.010874e+01
0	 6.428571e+00	 1.571429e+00	 1.008659e+01
0	 6.428571e+00	 1.642857e+00	 1.006476e+01
0	 6.428571e+00	 1.714286e+00	 1.004325e+01
0	 6.428571e+00	 1.785714e+00	 1.002205e+01
0	 6.500000e+00	 1.428571e+00	 1.015648e+01
0	 6.500000e+00	 1.500000e+00	 1.013474e+01
0	 6.500000e+00	 1.571429e+00	 1.011333e+01
0	 6.500000e+00	 1.642857e+00	 1.009222e+01
0	 6.500000e+00	 1.714286e+00	 1.007143e+01
0	 6.500000e+00	 1.785714e+00	 1.005096e+01
0	 6.571429e+00	 1.428571e+00	 1.018187e+01
0	 6.571429e+00	 1.500000e+00	 1.016079e+01
0	 6.571429e+00	 1.571429e+00	 1.014003e+01
0	 6.571429e+00	 1.642857e+00	 1.011959e+01
0	 6.571429e+00	 1.714286e+00	 1.009945e+01
0	 6.571429e+00	 1.785714e+00	 1.007962e+01
0	 6.642857e+00	 1.428571e+00	 1.020737e+01
0	 6.642857e+00	 1.500000e+00	 1.018689e+01
0	 6.642857e+00	 1.571429e+00	 1.016672e+01
0	 6.642857e+00	 1.642857e+00	 1.014685e+01
0	 6.642857e+00	 1.714286e+00	 1.012730e+01
0	 6.642857e+00	 1.785714e+00	 1.010805e+01
0	 6.714286e+00	 1.428571e+00	 1.023299e+01
0	 6.714286e+00	 1.500000e+00	 1.021303e+01
0	 6.714286e+00	 1.571429e+00	 1.019337e+01
0	 6.714286e+00	 1.642857e+00	 1.017402e+01
0	 6.714286e+00	 1.714286e+00	 1.015498e+01
0	 6.714286e+00	 1.785714e+00	 1.013625e+01
0	 6.785714e+00	 1.428571e+00	 1.025873e+01
0	 6.785714e+00	 1.500000e+00	 1.023921e+01
0	 6.785714e+00	 1.571429e+00	 1.022000e+01
0	 6.785714e+00	 1.642857e+00	 1.020110e+01
0	 6.785714e+00	 1.714286e+00	 1.018250e+01
0	 6.785714e+00	 1.785714e+00	 1.016420e+01
0	 6.428571e+00	 1.785714e+00	 1.002205e+01
0	 6.428571e+00	 1.857143e+00	 1.000065e+01
0	 6.428571e+00	 1.928571e+00	 9.979149e+00
0	 6.428571e+00	 2.000000e+00	 9.957555e+00
0	 6.428571e+00	 2.071429e+00	 9.935867e+00
0	 6.428571e+00	 2.142857e+00	 9.914084e+00
0	 6.500000e+00	 1.785714e+00	 1.005096e+01
0	 6.500000e+00	 1.857143e+00	 1.003011e+01
0	 6.500000e+00	 1.928571e+00	 1.000918e+01
0	 6.500000e+00	 2.000000e+00	 9.988180e+00
0	 6.500000e+00	 2.071429e+00	 9.967099e+00
0	 6.500000e+00	 2.142857e+00	 9.945940e+00
0	 6.571429e+00	 1.785714e+00	 1.007962e+01
0	 6.571429e+00	 1.857143e+00	 1.005928e+01
0	 6.571429e+00	 1.928571e+00	 1.003887e+01
0	 6.571429e+00	 2.000000e+00	 1.001840e+01
0	 6.571429e+00	 2.071429e+00	 9.997866e+00
0	 6.571429e+00	 2.142857e+00	 9.977275e+00
0	 6.642857e+00	 1.785714e+00	 1.010805e+01
0	 6.642857e+00	 1.857143e+00	 1.008815e+01
0	 6.642857e+00	 1.928571e+00	 1.006820e+01
0	 6.642857e+00	 2.000000e+00	 1.004821e+01
0	 6.642857e+00	 2.071429e+00	 1.002817e+01
0	 6.642857e+00	 2.142857e+00	 1.000809e+01
0	 6.714286e+00	 1.785714e+00	 1.013625e+01
0	 6.714286e+00	 1.857143e+00	 1.011673e+01
0	 6.714286e+00	 1.928571e+00	 1.009718e+01
0	 6.714286e+00	 2.000000e+00	 1.007761e+01
0	 6.714286e+00	 2.071429e+00	 1.005801e+01
0	 6.714286e+00	 2.142857e+00	 1.003838e+01
0	 6.785714e+00	 1.785714e+00	 1.016420e+01
0	 6.785714e+00	 1.857143e+00	 1.014501e+01
0	 6.785714e+00	 1.928571e+00	 1.012581e+01
0	 6.785714e+00	 2.000000e+00	 1.010660e+01
0	 6.785714e+00	 2.071429e+00	 1.008738e+01
0	 6.785714e+00	 2.142857e+00	 1.006815e+01
0	 6.428571e+00	 2.142857e+00	 9.914084e+00
0	 6.428571e+00	 2.214286e+00	 9.895299e+00
0	 6.428571e+00	 2.285714e+00	 9.876080e+00
0	 6.428571e+00	 2.357143e+00	 9.856428e+00
0	 6.428571e+00	 2.428571e+00	 9.836342e+00
0	 6.428571e+00	 2.500000e+00	 9.815822e+00
0	 6.500000e+00	 2.142857e+00	 9.945940e+00
0	 6.500000e+00	 2.214286e+00	 9.927471e+00
0	 6.500000e+00	 2.285714e+00	 9.908598e+00
0	 6.500000e+00	 2.357143e+00	 9.889323e+00
0	 6.500000e+00	 2.428571e+00	 9.869646e+00
0	 6.500000e+00	 2.500000e+00	 9.849566e+00
0	 6.571429e+00	 2.142857e+00	 9.977275e+00
0	 6.571429e+00	 2.214286e+00	 9.959085e+00
0	 6.571429e+00	 2.285714e+00	 9.940523e+00
0	 6.571429e+00	 2.357143e+00	 9.921589e+00
0	 6.571429e+00	 2.428571e+00	 9.902284e+00
0	 6.571429e+00	 2.500000e+00	 9.882608e+00
0	 6.642857e+00	 2.142857e+00	 1.000809e+01
0	 6.642857e+00	 2.214286e+00	 9.990141e+00
0	 6.642857e+00	 2.285714e+00	 9.971854e+00
0	 6.642857e+00	 2.357143e+00	 9.953226e+00
0	 6.642857e+00	 2.428571e+00	 9.934257e+00
0	 6.642857e+00	 2.500000e+00	 9.914949e+00
0	 6.714286e+00	 2.142857e+00	 1.003838e+01
0	 6.714286e+00	 2.214286e+00	 1.002064e+01
0	 6.714286e+00	 2.285714e+00	 1.000259e+01
0	 6.714286e+00	 2.357143e+00	 9.984232e+00
0	 6.714286e+00	 2.428571e+00	 9.965565e+00
0	 6.714286e+00	 2.500000e+00	 9.946588e+00
0	 6.785714e+00	 2.142857e+00	 1.006815e+01
0	 6.785714e+00	 2.214286e+00	 1.005058e+01
0	 6.785714e+00	 2.285714e+00	 1.003273e+01
0	 6.785714e+00	 2.357143e+00	 1.001461e+01
0	 6.785714e+00	 2.428571e+00	 9.996207e+00
0	 6.785714e+00	 2.500000e+00	 9.977526e+00
0	 6.428571e+00	 2.500000e+00	 9.815822e+00
0	 6.428571e+00	 2.571429e+00	 9.800673e+00
0	 6.428571e+00	 2.642857e+00	 9.784851e+00
0	 6.428571e+00	 2.714286e+00	 9.768356e+00
0	 6.428571e+00	 2.785714e+00	 9.751187e+00
0	 6.428571e+00	 2.857143e+00	 9.733346e+00
0	 6.500000e+00	 2.500000e+00	 9.849566e+00
0	 6.500000e+00	 2.571429e+00	 9.834473e+00
0	 6.500000e+00	 2.642857e+00	 9.818746e+00
0	 6.500000e+00	 2.714286e+00	 9.802385e+00
0	 6.500000e+00	 2.785714e+00	 9.785388e+00
0	 6.500000e+00	 2.857143e+00	 9.767757e+00
0	 6.571429e+00	 2.500000e+00	 9.882608e+00
0	 6.571429e+00	 2.571429e+00	 9.867558e+00
0	 6.571429e+00	 2.642857e+00	 9.851912e+00
0	 6.571429e+00	 2.714286e+00	 9.835669e+00
0	 6.571429e+00	 2.785714e+00	 9.818831e+00
0	 6.571429e+00	 2.857143e+00	 9.801395e+00
0	 6.642857e+00	 2.500000e+00	 9.914949e+00
0	 6.642857e+00	 2.571429e+00	 9.899927e+00
0	 6.642857e+00	 2.642857e+00	 9.884347e+00
0	 6.642857e+00	 2.714286e+00	 9.868210e+00
0	 6.642857e+00	 2.785714e+00	 9.851514e+00
0	 6.642857e+00	 2.857143e+00	 9.834261e+00
0	 6.714286e+00	 2.500000e+00	 9.946588e+00
0	 6.714286e+00	 2.571429e+00	 9.931580e+00
0	 6.714286e+00	 2.642857e+00	 9.916053e+00
0	 6.714286e+00	 2.714286e+00	 9.900006e+00
0	 6.714286e+00	 2.785714e+00	 9.883440e+00
0	 6.714286e+00	 2.857143e+00	 9.866354e+00
0	 6.785714e+00	 2.500000e+00	 9.977526e+00
0	 6.785714e+00	 2.571429e+00	 9.962518e+00
0	 6.785714e+00	 2.642857e+00	 9.947029e+00
0	 6.785714e+00	 2.714286e+00	 9.931058e+00
0	 6.785714e+00	 2.785714e+00	 9.914607e+00
0	 6.785714e+00	 2.857143e+00	 9.897674e+00
0	 6.428571e+00	 2.857143e+00	 9.733346e+00
0	 6.428571e+00	 2.928571e+00	 9.722314e+00
0	 6.428571e+00	 3.000000e+00	 9.710471e+00
0	 6.428571e+00	 3.071429e+00	 9.697816e+00
0	 6.428571e+00	 3.142857e+00	 9.684351e+00
0	 6.428571e+00	 3.214286e+00	 9.670074e+00
0	 6.500000e+00	 2.857143e+00	 9.767757e+00
0	 6.500000e+00	 2.928571e+00	 9.756540e+00
0	 6.500000e+00	 3.000000e+00	 9.744552e+00
0	 6.500000e+00	 3.071429e+00	 9.731793e+00
0	 6.500000e+00	 3.142857e+00	 9.718263e+00
0	 6.500000e+00	 3.214286e+00	 9.703962e+00
0	 6.571429e+00	 2.857143e+00	 9.801395e+00
0	 6.571429e+00	 2.928571e+00	 9.789998e+00
0	 6.571429e+00	 3.000000e+00	 9.777870e+00
0	 6.571429e+00	 3.071429e+00	 9.765011e+00
0	 6.571429e+00	 3.142857e+00	 9.751421e+00
0	 6.571429e+00	 3.214286e+00	 9.737101e+00
0	 6.642857e+00	 2.857143e+00	 9.834261e+00
0	 6.642857e+00	 2.928571e+00	 9.822688e+00
0	 6.642857e+00	 3.000000e+00	 9.810425e+00
0	 6.642857e+00	 3.071429e+00	 9.797471e+00
0	 6.642857e+00	 3.142857e+00	 9.783826e+00
0	 6.642857e+00	 3.214286e+00	 9.769492e+00
0	 6.714286e+00	 2.857143e+00	 9.866354e+00
0	 6.714286e+00	 2.928571e+00	 9.854610e+00
0	 6.714286e+00	 3.000000e+00	 9.842216e+00
0	 6.714286e+00	 3.071429e+00	 9.829172e+00
0	 6.714286e+00	 3.142857e+00	 9.815478e+00
0	 6.714286e+00	 3.214286e+00	 9.801134e+00
0	 6.785714e+00	 2.857143e+00	 9.897674e+00
0	 6.785714e+00	 2.928571e+00	 9.885765e+00
0	 6.785714e+00	 3.000000e+00	 9.873245e+00
0	 6.785714e+00	 3.071429e+00	 9.860116e+00
0	 6.785714e+00	 3.142857e+00	 9.846377e+00
0	 6.785714e+00	 3.214286e+00	 9.832027e+00
0	 6.428571e+00	 3.214286e+00	 9.670074e+00
0	 6.428571e+00	 3.285714e+00	 9.663172e+00
0	 6.428571e+00	 3.357143e+00	 9.655413e+00
0	 6.428571e+00	 3.428571e+00	 9.646797e+00
0	 6.428571e+00	 3.500000e+00	 9.637323e+00
0	 6.428571e+00	 3.571429e+00	 9.626992e+00
0	 6.500000e+00	 3.214286e+00	 9.703962e+00
0	 6.500000e+00	 3.285714e+00	 9.696675e+00
0	 6.500000e+00	 3.357143e+00	 9.688569e+00
0	 6.500000e+00	 3.428571e+00	 9.679644e+00
0	 6.500000e+00	 3.500000e+00	 9.669898e+00
0	 6.500000e+00	 3.571429e+00	 9.659332e+00
0	 6.571429e+00	 3.214286e+00	 9.737101e+00
0	 6.571429e+00	 3.285714e+00	 9.729449e+00
0	 6.571429e+00	 3.357143e+00	 9.721015e+00
0	 6.571429e+00	 3.428571e+00	 9.711799e+00
0	 6.571429e+00	 3.500000e+00	 9.701801e+00
0	 6.571429e+00	 3.571429e+00	 9.691020e+00
0	 6.642857e+00	 3.214286e+00	 9.769492e+00
0	 6.642857e+00	 3.285714e+00	 9.761494e+00
0	 6.642857e+00	 3.357143e+00	 9.752751e+00
0	 6.642857e+00	 3.428571e+00	 9.743264e+00
0	 6.642857e+00	 3.500000e+00	 9.733032e+00
0	 6.642857e+00	 3.571429e+00	 9.722055e+00
0	 6.714286e+00	 3.214286e+00	 9.801134e+00
0	 6.714286e+00	 3.285714e+00	 9.792809e+00
0	 6.714286e+00	 3.357143e+00	 9.783777e+00
0	 6.714286e+00	 3.428571e+00	 9.774038e+00
0	 6.714286e+00	 3.500000e+00	 9.763591e+00
0	 6.714286e+00	 3.571429e+00	 9.752438e+00
0	 6.785714e+00	 3.214286e+00	 9.832027e+00
0	 6.785714e+00	 3.285714e+00	 9.823395e+00
0	 6.785714e+00	 3.357143e+00	 9.814092e+00
0	 6.785714e+00	 3.428571e+00	 9.804120e+00
0	 6.785714e+00	 3.500000e+00	 9.793479e+00
0	 6.785714e+00	 3.571429e+00	 9.782168e+00
0	 6.428571e+00	 3.571429e+00	 9.626992e+00
0	 6.428571e+00	 3.642857e+00	 9.623889e+00
0	 6.428571e+00	 3.714286e+00	 9.619953e+00
0	 6.428571e+00	 3.785714e+00	 9.615186e+00
0	 6.428571e+00	 3.857143e+00	 9.609586e+00
0	 6.428571e+00	 3.928571e+00	 9.603154e+00
0	 6.500000e+00	 3.571429e+00	 9.659332e+00
0	 6.500000e+00	 3.642857e+00	 9.655702e+00
0	 6.500000e+00	 3.714286e+00	 9.651272e+00
0	 6.500000e+00	 3.785714e+00	 9.646042e+00
0	 6.500000e+00	 3.857143e+00	 9.640012e+00
0	 6.500000e+00	 3.928571e+00	 9.633182e+00
0	 6.571429e+00	 3.571429e+00	 9.691020e+00
0	 6.571429e+00	 3.642857e+00	 9.686890e+00
0	 6.571429e+00	 3.714286e+00	 9.681993e+00
0	 6.571429e+00	 3.785714e+00	 9.676327e+00
0	 6.571429e+00	 3.857143e+00	 9.669894e+00
0	 6.571429e+00	 3.928571e+00	 9.662693e+00
0	 6.642857e+00	 3.571429e+00	 9.722055e+00
0	 6.642857e+00	 3.642857e+00	 9.717453e+00
0	 6.642857e+00	 3.714286e+00	 9.712115e+00
0	 6.642857e+00	 3.785714e+00	 9.706041e+00
0	 6.642857e+00	 3.857143e+00	 9.699231e+00
0	 6.642857e+00	 3.928571e+00	 9.691687e+00
0	 6.714286e+00	 3.571429e+00	 9.752438e+00
0	 6.714286e+00	 3.642857e+00	 9.747390e+00
0	 6.714286e+00	 3.714286e+00	 9.741638e+00
0	 6.714286e+00	 3.785714e+00	 9.735183e+00
0	 6.714286e+00	 3.857143e+00	 9.728025e+00
0	 6.714286e+00	 3.928571e+00	 9.720163e+00
0	 6.785714e+00	 3.571429e+00	 9.782168e+00
0	 6.785714e+00	 3.642857e+00	 9.776701e+00
0	 6.785714e+00	 3.714286e+00	 9.770564e+00
0	 6.785714e+00	 3.785714e+00	 9.763755e+00
0	 6.785714e+00	 3.857143e+00	 9.756274e+00
0	 6.785714e+00	 3.928571e+00	 9.748123e+00
0	 6.428571e+00	 3.928571e+00	 9.603154e+00
0	 6.428571e+00	 4.000000e+00	 9.603315e+00
0	 6.428571e+00	 4.071429e+00	 9.602717e+00
0	 6.428571e+00	 4.142857e+00	 9.601360e+00
0	 6.428571e+00	 4.214286e+00	 9.599245e+00
0	 6.428571e+00	 4.285714e+00	 9.596371e+00
0	 6.500000e+00	 3.928571e+00	 9.633182e+00
0	 6.500000e+00	 4.000000e+00	 9.632727e+00
0	 6.500000e+00	 4.071429e+00	 9.631539e+00
0	 6.500000e+00	 4.142857e+00	 9.629618e+00
0	 6.500000e+00	 4.214286e+00	 9.626964e+00
0	 6.500000e+00	 4.285714e+00	 9.623578e+00
0	 6.571429e+00	 3.928571e+00	 9.662693e+00
0	 6.571429e+00	 4.000000e+00	 9.661652e+00
0	 6.571429e+00	 4.071429e+00	 9.659905e+00
0	 6.571429e+00	 4.142857e+00	 9.657450e+00
0	 6.571429e+00	 4.214286e+00	 9.654289e+00
0	 6.571429e+00	 4.285714e+00	 9.650420e+00
0	 6.642857e+00	 3.928571e+00	 9.691687e+00
0	 6.642857e+00	 4.000000e+00	 9.690092e+00
0	 6.642857e+00	 4.071429e+00	 9.687815e+00
0	 6.642857e+00	 4.142857e+00	 9.684858e+00
0	 6.642857e+00	 4.214286e+00	 9.681218e+00
0	 6.642857e+00	 4.285714e+00	 9.676898e+00
0	 6.714286e+00	 3.928571e+00	 9.720163e+00
0	 6.714286e+00	 4.000000e+00	 9.718044e+00
0	 6.714286e+00	 4.071429e+00	 9.715270e+00
0	 6.714286e+00	 4.142857e+00	 9.711839e+00
0	 6.714286e+00	 4.214286e+00	 9.707753e+00
0	 6.714286e+00	 4.285714e+00	 9.703012e+00
0	 6.785714e+00	 3.928571e+00	 9.748123e+00
0	 6.785714e+00	 4.000000e+00	 9.745511e+00
0	 6.785714e+00	 4.071429e+00	 9.742268e+00
0	 6.785714e+00	 4.142857e+00	 9.738396e+00
0	 6.785714e+00	 4.214286e+00	 9.733893e+00
0	 6.785714e+00	 4.285714e+00	 9.728761e+00
0	 6.428571e+00	 4.285714e+00	 9.596371e+00
0	 6.428571e+00	 4.357143e+00	 9.599158e+00
0	 6.428571e+00	 4.428571e+00	 9.601288e+00
0	 6.428571e+00	 4.500000e+00	 9.602763e+00
0	 6.428571e+00	 4.571429e+00	 9.603581e+00
0	 6.428571e+00	 4.642857e+00	 9.603742e+00
0	 6.500000e+00	 4.285714e+00	 9.623578e+00
0	 6.500000e+00	 4.357143e+00	 9.625712e+00
0	 6.500000e+00	 4.428571e+00	 9.627210e+00
0	 6.500000e+00	 4.500000e+00	 9.628070e+00
0	 6.500000e+00	 4.571429e+00	 9.628293e+00
0	 6.500000e+00	 4.642857e+00	 9.627879e+00
0	 6.571429e+00	 4.285714e+00	 9.650420e+00
0	 6.571429e+00	 4.357143e+00	 9.651932e+00
0	 6.571429e+00	 4.428571e+00	 9.652825e+00
0	 6.571429e+00	 4.500000e+00	 9.653101e+00
0	 6.571429e+00	 4.571429e+00	 9.652758e+00
0	 6.571429e+00	 4.642857e+00	 9.651797e+00
0	 6.642857e+00	 4.285714e+00	 9.676898e+00
0	 6.642857e+00	 4.357143e+00	 9.677816e+00
0	 6.642857e+00	 4.428571e+00	 9.678135e+00
0	 6.642857e+00	 4.500000e+00	 9.677854e+00
0	 6.642857e+00	 4.571429e+00	 9.676974e+00
0	 6.642857e+00	 4.642857e+00	 9.675496e+00
0	 6.714286e+00	 4.285714e+00	 9.703012e+00
0	 6.714286e+00	 4.357143e+00	 9.703365e+00
0	 6.714286e+00	 4.428571e+00	 9.703138e+00
0	 6.714286e+00	 4.500000e+00	 9.702330e+00
0	 6.714286e+00	 4.571429e+00	 9.700943e+00
0	 6.714286e+00	 4.642857e+00	 9.698975e+00
0	 6.785714e+00	 4.285714e+00	 9.728761e+00
0	 6.785714e+00	 4.357143e+00	 9.728578e+00
0	 6.785714e+00	 4.428571e+00	 9.727834e+00
0	 6.785714e+00	 4.500000e+00	 9.726529e+00
0	 6.785714e+00	 4.571429e+00	 9.724663e+00
0	 6.785714e+00	 4.642857e+00	 9.722236e+00
0	 6.428571e+00	 4.642857e+00	 9.603742e+00
0	 6.428571e+00	 4.714286e+00	 9.608520e+00
0	 6.428571e+00	 4.785714e+00	 9.612755e+00
0	 6.428571e+00	 4.857143e+00	 9.616446e+00
0	 6.428571e+00	 4.928571e+00	 9.619594e+00
0	 6.428571e+00	 5.000000e+00	 9.622199e+00
0	 6.500000e+00	 4.642857e+00	 9.627879e+00
0	 6.500000e+00	 4.714286e+00	 9.632005e+00
0	 6.500000e+00	 4.785714e+00	 9.635601e+00
0	 6.500000e+00	 4.857143e+00	 9.638667e+00
0	 6.500000e+00	 4.928571e+00	 9.641203e+00
0	 6.500000e+00	 5.000000e+00	 9.643209e+00
0	 6.571429e+00	 4.642857e+00	 9.651797e+00
0	 6.571429e+00	 4.714286e+00	 9.655297e+00
0	 6.571429e+00	 4.785714e+00	 9.658280e+00
0	 6.571429e+00	 4.857143e+00	 9.660747e+00
0	 6.571429e+00	 4.928571e+00	 9.662696e+00
0	 6.571429e+00	 5.000000e+00	 9.664129e+00
0	 6.642857e+00	 4.642857e+00	 9.675496e+00
0	 6.642857e+00	 4.714286e+00	 9.678396e+00
0	 6.642857e+00	 4.785714e+00	 9.680792e+00
0	 6.642857e+00	 4.857143e+00	 9.682684e+00
0	 6.642857e+00	 4.928571e+00	 9.684073e+00
0	 6.642857e+00	 5.000000e+00	 9.684958e+00
0	 6.714286e+00	 4.642857e+00	 9.698975e+00
0	 6.714286e+00	 4.714286e+00	 9.701301e+00
0	 6.714286e+00	 4.785714e+00	 9.703135e+00
0	 6.714286e+00	 4.857143e+00	 9.704479e+00
0	 6.714286e+00	 4.928571e+00	 9.705333e+00
0	 6.714286e+00	 5.000000e+00	 9.705696e+00
0	 6.785714e+00	 4.642857e+00	 9.722236e+00
0	 6.785714e+00	 4.714286e+00	 9.724012e+00
0	 6.785714e+00	 4.785714e+00	 9.725311e+00
0	 6.785714e+00	 4.857143e+00	 9.726133e+00
0	 6.785714e+00	 4.928571e+00	 9.726477e+00
0	 6.785714e+00	 5.000000e+00	 9.726343e+00
0	 6.428571e+00	 5.000000e+00	 9.622199e+00
0	 6.428571e+00	 5.071429e+00	 9.628376e+00
0	 6.428571e+00	 5.142857e+00	 9.634122e+00
0	 6.428571e+00	 5.214286e+00	 9.639439e+00
0	 6.428571e+00	 5.285714e+00	 9.644325e+00
0	 6.428571e+00	 5.357143e+00	 9.648781e+00
0	 6.500000e+00	 5.000000e+00	 9.643209e+00
0	 6.500000e+00	 5.071429e+00	 9.648765e+00
0	 6.500000e+00	 5.142857e+00	 9.653899e+00
0	 6.500000e+00	 5.214286e+00	 9.658610e+00
0	 6.500000e+00	 5.285714e+00	 9.662899e+00
0	 6.500000e+00	 5.357143e+00	 9.666767e+00
0	 6.571429e+00	 5.000000e+00	 9.664129e+00
0	 6.571429e+00	 5.071429e+00	 9.669084e+00
0	 6.571429e+00	 5.142857e+00	 9.673625e+00
0	 6.571429e+00	 5.214286e+00	 9.677752e+00
0	 6.571429e+00	 5.285714e+00	 9.681465e+00
0	 6.571429e+00	 5.357143e+00	 9.684764e+00
0	 6.642857e+00	 5.000000e+00	 9.684958e+00
0	 6.642857e+00	 5.071429e+00	 9.689332e+00
0	 6.642857e+00	 5.142857e+00	 9.693300e+00
0	 6.642857e+00	 5.214286e+00	 9.696863e+00
0	 6.642857e+00	 5.285714e+00	 9.700020e+00
0	 6.642857e+00	 5.357143e+00	 9.702772e+00
0	 6.714286e+00	 5.000000e+00	 9.705696e+00
0	 6.714286e+00	 5.071429e+00	 9.709510e+00
0	 6.714286e+00	 5.142857e+00	 9.712926e+00
0	 6.714286e+00	 5.214286e+00	 9.715945e+00
0	 6.714286e+00	 5.285714e+00	 9.718567e+00
0	 6.714286e+00	 5.357143e+00	 9.720790e+00
0	 6.785714e+00	 5.000000e+00	 9.726343e+00
0	 6.785714e+00	 5.071429e+00	 9.729617e+00
0	 6.785714e+00	 5.142857e+00	 9.732502e+00
0	 6.785714e+00	 5.214286e+00	 9.734998e+00
0	 6.785714e+00	 5.285714e+00	 9.737104e+00
0	 6.785714e+00	 5.357143e+00	 9.738820e+00
0	 6.428571e+00	 5.357143e+00	 9.648781e+00
0	 6.428571e+00	 5.428571e+00	 9.655851e+00
0	 6.428571e+00	 5.500000e+00	 9.662596e+00
0	 6.428571e+00	 5.571429e+00	 9.669014e+00
0	 6.428571e+00	 5.642857e+00	 9.675108e+00
0	 6.428571e+00	 5.714286e+00	 9.680875e+00
0	 6.500000e+00	 5.357143e+00	 9.666767e+00
0	 6.500000e+00	 5.428571e+00	 9.673262e+00
0	 6.500000e+00	 5.500000e+00	 9.679437e+00
0	 6.500000e+00	 5.571429e+00	 9.685290e+00
0	 6.500000e+00	 5.642857e+00	 9.690822e+00
0	 6.500000e+00	 5.714286e+00	 9.696033e+00
0	 6.571429e+00	 5.357143e+00	 9.684764e+00
0	 6.571429e+00	 5.428571e+00	 9.690700e+00
0	 6.571429e+00	 5.500000e+00	 9.696319e+00
0	 6.571429e+00	 5.571429e+00	 9.701622e+00
0	 6.571429e+00	 5.642857e+00	 9.706608e+00
0	 6.571429e+00	 5.714286e+00	 9.711277e+00
0	 6.642857e+00	 5.357143e+00	 9.702772e+00
0	 6.642857e+00	 5.428571e+00	 9.708163e+00
0	 6.642857e+00	 5.500000e+00	 9.713243e+00
0	 6.642857e+00	 5.571429e+00	 9.718010e+00
0	 6.642857e+00	 5.642857e+00	 9.722465e+00
0	 6.642857e+00	 5.714286e+00	 9.726607e+00
0	 6.714286e+00	 5.357143e+00	 9.720790e+00
0	 6.714286e+00	 5.428571e+00	 9.725653e+00
0	 6.714286e+00	 5.500000e+00	 9.730208e+00
0	 6.714286e+00	 5.571429e+00	 9.734455e+00
0	 6.714286e+00	 5.642857e+00	 9.738394e+00
0	 6.714286e+00	 5.714286e+00	 9.742024e+00
0	 6.785714e+00	 5.357143e+00	 9.738820e+00
0	 6.785714e+00	 5.428571e+00	 9.743169e+00
0	 6.785714e+00	 5.500000e+00	 9.747214e+00
0	 6.785714e+00	 5.571429e+00	 9.750956e+00
0	 6.785714e+00	 5.642857e+00	 9.754393e+00
0	 6.785714e+00	 5.714286e+00	 9.757528e+00
0	 6.428571e+00	 5.714286e+00	 9.680875e+00
0	 6.428571e+00	 5.785714e+00	 9.688420e+00
0	 6.428571e+00	 5.857143e+00	 9.695732e+00
0	 6.428571e+00	 5.928571e+00	 9.702812e+00
0	 6.428571e+00	 6.000000e+00	 9.709660e+00
0	 6.428571e+00	 6.071429e+00	 9.716275e+00
0	 6.500000e+00	 5.714286e+00	 9.696033e+00
0	 6.500000e+00	 5.785714e+00	 9.703060e+00
0	 6.500000e+00	 5.857143e+00	 9.709856e+00
0	 6.500000e+00	 5.928571e+00	 9.716422e+00
0	 6.500000e+00	 6.000000e+00	 9.722757e+00
0	 6.500000e+00	 6.071429e+00	 9.728861e+00
0	 6.571429e+00	 5.714286e+00	 9.711277e+00
0	 6.571429e+00	 5.785714e+00	 9.717797e+00
0	 6.571429e+00	 5.857143e+00	 9.724087e+00
0	 6.571429e+00	 5.928571e+00	 9.730148e+00
0	 6.571429e+00	 6.000000e+00	 9.735981e+00
0	 6.571429e+00	 6.071429e+00	 9.741584e+00
0	 6.642857e+00	 5.714286e+00	 9.726607e+00
0	 6.642857e+00	 5.785714e+00	 9.732630e+00
0	 6.642857e+00	 5.857143e+00	 9.738424e+00
0	 6.642857e+00	 5.928571e+00	 9.743991e+00
0	 6.642857e+00	 6.000000e+00	 9.749330e+00
0	 6.642857e+00	 6.071429e+00	 9.754442e+00
0	 6.714286e+00	 5.714286e+00	 9.742024e+00
0	 6.714286e+00	 5.785714e+00	 9.747559e+00
0	 6.714286e+00	 5.857143e+00	 9.752868e+00
0	 6.714286e+00	 5.928571e+00	 9.757950e+00
0	 6.714286e+00	 6.000000e+00	 9.762807e+00
0	 6.714286e+00	 6.071429e+00	 9.767437e+00
0	 6.785714e+00	 5.714286e+00	 9.757528e+00
0	 6.785714e+00	 5.785714e+00	 9.762585e+00
0	 6.785714e+00	 5.857143e+00	 9.767417e+00
0	 6.785714e+00	 5.928571e+00	 9.772025e+00
0	 6.785714e+00	 6.000000e+00	 9.776409e+00
0	 6.785714e+00	 6.071429e+00	 9.780568e+00
0	 6.428571e+00	 6.071429e+00	 9.716275e+00
0	 6.428571e+00	 6.142857e+00	 9.723965e+00
0	 6.428571e+00	 6.214286e+00	 9.731504e+00
0	 6.428571e+00	 6.285714e+00	 9.738890e+00
0	 6.428571e+00	 6.357143e+00	 9.746125e+00
0	 6.428571e+00	 6.428571e+00	 9.753207e+00
0	 6.500000e+00	 6.071429e+00	 9.728861e+00
0	 6.500000e+00	 6.142857e+00	 9.736094e+00
0	 6.500000e+00	 6.214286e+00	 9.743174e+00
0	 6.500000e+00	 6.285714e+00	 9.750102e+00
0	 6.500000e+00	 6.357143e+00	 9.756878e+00
0	 6.500000e+00	 6.428571e+00	 9.763501e+00
0	 6.571429e+00	 6.071429e+00	 9.741584e+00
0	 6.571429e+00	 6.142857e+00	 9.748364e+00
0	 6.571429e+00	 6.214286e+00	 9.754992e+00
0	 6.571429e+00	 6.285714e+00	 9.761467e+00
0	 6.571429e+00	 6.357143e+00	 9.767790e+00
0	 6.571429e+00	 6.428571e+00	 9.773960e+00
0	 6.642857e+00	 6.071429e+00	 9.754442e+00
0	 6.642857e+00	 6.142857e+00	 9.760777e+00
0	 6.642857e+00	 6.214286e+00	 9.766958e+00
0	 6.642857e+00	 6.285714e+00	 9.772986e+00
0	 6.642857e+00	 6.357143e+00	 9.778861e+00
0	 6.642857e+00	 6.428571e+00	 9.784583e+00
0	 6.714286e+00	 6.071429e+00	 9.767437e+00
0	 6.714286e+00	 6.142857e+00	 9.773331e+00
0	 6.714286e+00	 6.214286e+00	 9.779071e+00
0	 6.714286e+00	 6.285714e+00	 9.784658e+00
0	 6.714286e+00	 6.357143e+00	 9.790091e+00
0	 6.714286e+00	 6.428571e+00	 9.795371e+00
0	 6.785714e+00	 6.071429e+00	 9.780568e+00
0	 6.785714e+00	 6.142857e+00	 9.786027e+00
0	 6.785714e+00	 6.214286e+00	 9.791332e+00
0	 6.785714e+00	 6.285714e+00	 9.796483e+00
0	 6.785714e+00	 6.357143e+00	 9.801480e+00
0	 6.785714e+00	 6.428571e+00	 9.806323e+00
0	 6.428571e+00	 6.428571e+00	 9.753207e+00
0	 6.428571e+00	 6.500000e+00	 9.760790e+00
0	 6.428571e+00	 6.571429e+00	 9.768289e+00
0	 6.428571e+00	 6.642857e+00	 9.775705e+00
0	 6.428571e+00	 6.714286e+00	 9.783037e+00
0	 6.428571e+00	 6.785714e+00	 9.790286e+00
0	 6.500000e+00	 6.428571e+00	 9.763501e+00
0	 6.500000e+00	 6.500000e+00	 9.770685e+00
0	 6.500000e+00	 6.571429e+00	 9.777784e+00
0	 6.500000e+00	 6.642857e+00	 9.784798e+00
0	 6.500000e+00	 6.714286e+00	 9.791726e+00
0	 6.500000e+00	 6.785714e+00	 9.798569e+00
0	 6.571429e+00	 6.428571e+00	 9.773960e+00
0	 6.571429e+00	 6.500000e+00	 9.780747e+00
0	 6.571429e+00	 6.571429e+00	 9.787448e+00
0	 6.571429e+00	 6.642857e+00	 9.794061e+00
0	 6.571429e+00	 6.714286e+00	 9.800588e+00
0	 6.571429e+00	 6.785714e+00	 9.807028e+00
0	 6.642857e+00	 6.428571e+00	 9.784583e+00
0	 6.642857e+00	 6.500000e+00	 9.790976e+00
0	 6.642857e+00	 6.571429e+00	 9.797281e+00
0	 6.642857e+00	 6.642857e+00	 9.803496e+00
0	 6.642857e+00	 6.714286e+00	 9.809624e+00
0	 6.642857e+00	 6.785714e+00	 9.815662e+00
0	 6.714286e+00	 6.428571e+00	 9.795371e+00
0	 6.714286e+00	 6.500000e+00	 9.801372e+00
0	 6.714286e+00	 6.571429e+00	 9.807283e+00
0	 6.714286e+00	 6.642857e+00	 9.813103e+00
0	 6.714286e+00	 6.714286e+00	 9.818833e+00
0	 6.714286e+00	 6.785714e+00	 9.824472e+00
0	 6.785714e+00	 6.428571e+00	 9.806323e+00
0	 6.785714e+00	 6.500000e+00	 9.811935e+00
0	 6.785714e+00	 6.571429e+00	 9.817454e+00
0	 6.785714e+00	 6.642857e+00	 9.822881e+00
0	 6.785714e+00	 6.714286e+00	 9.828216e+00
0	 6.785714e+00	 6.785714e+00	 9.833458e+00
0	 6.428571e+00	 6.785714e+00	 9.790286e+00
0	 6.428571e+00	 6.857143e+00	 9.797571e+00
0	 6.428571e+00	 6.928571e+00	 9.804830e+00
0	 6.428571e+00	 7.000000e+00	 9.812063e+00
0	 6.428571e+00	 7.071429e+00	 9.819271e+00
0	 6.428571e+00	 7.142857e+00	 9.826454e+00
0	 6.500000e+00	 6.785714e+00	 9.798569e+00
0	 6.500000e+00	 6.857143e+00	 9.805509e+00
0	 6.500000e+00	 6.928571e+00	 9.812422e+00
0	 6.500000e+00	 7.000000e+00	 9.819306e+00
0	 6.500000e+00	 7.071429e+00	 9.826162e+00
0	 6.500000e+00	 7.142857e+00	 9.832991e+00
0	 6.571429e+00	 6.785714e+00	 9.807028e+00
0	 6.571429e+00	 6.857143e+00	 9.813624e+00
0	 6.571429e+00	 6.928571e+00	 9.820189e+00
0	 6.571429e+00	 7.000000e+00	 9.826724e+00
0	 6.571429e+00	 7.071429e+00	 9.833228e+00
0	 6.571429e+00	 7.142857e+00	 9.839702e+00
0	 6.642857e+00	 6.785714e+00	 9.815662e+00
0	 6.642857e+00	 6.857143e+00	 9.821914e+00
0	 6.642857e+00	 6.928571e+00	 9.828132e+00
0	 6.642857e+00	 7.000000e+00	 9.834317e+00
0	 6.642857e+00	 7.071429e+00	 9.840469e+00
0	 6.642857e+00	 7.142857e+00	 9.846588e+00
0	 6.714286e+00	 6.785714e+00	 9.824472e+00
0	 6.714286e+00	 6.857143e+00	 9.830379e+00
0	 6.714286e+00	 6.928571e+00	 9.836250e+00
0	 6.714286e+00	 7.000000e+00	 9.842086e+00
0	 6.714286e+00	 7.071429e+00	 9.847885e+00
0	 6.714286e+00	 7.142857e+00	 9.853649e+00
0	 6.785714e+00	 6.785714e+00	 9.833458e+00
0	 6.785714e+00	 6.857143e+00	 9.839020e+00
0	 6.785714e+00	 6.928571e+00	 9.844544e+00
0	 6.785714e+00	 7.000000e+00	 9.850029e+00
0	 6.785714e+00	 7.071429e+00	 9.855477e+00
0	 6.785714e+00	 7.142857e+00	 9.860885e+00
0	 6.428571e+00	 7.142857e+00	 9.826454e+00
0	 6.428571e+00	 7.214286e+00	 9.833294e+00
0	 6.428571e+00	 7.285714e+00	 9.840158e+00
0	 6.428571e+00	 7.357143e+00	 9.847048e+00
0	 6.428571e+00	 7.428571e+00	 9.853961e+00
0	 6.428571e+00	 7.500000e+00	 9.860900e+00
0	 6.500000e+00	 7.142857e+00	 9.832991e+00
0	 6.500000e+00	 7.214286e+00	 9.839536e+00
0	 6.500000e+00	 7.285714e+00	 9.846102e+00
0	 6.500000e+00	 7.357143e+00	 9.852691e+00
0	 6.500000e+00	 7.428571e+00	 9.859300e+00
0	 6.500000e+00	 7.500000e+00	 9.865932e+00
0	 6.571429e+00	 7.142857e+00	 9.839702e+00
0	 6.571429e+00	 7.214286e+00	 9.845951e+00
0	 6.571429e+00	 7.285714e+00	 9.852218e+00
0	 6.571429e+00	 7.357143e+00	 9.858503e+00
0	 6.571429e+00	 7.428571e+00	 9.864807e+00
0	 6.571429e+00	 7.500000e+00	 9.871130e+00
0	 6.642857e+00	 7.142857e+00	 9.846588e+00
0	 6.642857e+00	 7.214286e+00	 9.852539e+00
0	 6.642857e+00	 7.285714e+00	 9.858505e+00
0	 6.642857e+00	 7.357143e+00	 9.864486e+00
0	 6.642857e+00	 7.428571e+00	 9.870482e+00
0	 6.642857e+00	 7.500000e+00	 9.876493e+00
0	 6.714286e+00	 7.142857e+00	 9.853649e+00
0	 6.714286e+00	 7.214286e+00	 9.859300e+00
0	 6.714286e+00	 7.285714e+00	 9.864963e+00
0	 6.714286e+00	 7.357143e+00	 9.870637e+00
0	 6.714286e+00	 7.428571e+00	 9.876324e+00
0	 6.714286e+00	 7.500000e+00	 9.882023e+00
0	 6.785714e+00	 7.142857e+00	 9.860885e+00
0	 6.785714e+00	 7.214286e+00	 9.866234e+00
0	 6.785714e+00	 7.285714e+00	 9.871592e+00
0	 6.785714e+00	 7.357143e+00	 9.876958e+00
0	 6.785714e+00	 7.428571e+00	 9.882334e+00
0	 6.785714e+00	 7.500000e+00	 9.887719e+00
0	 6.428571e+00	 7.500000e+00	 9.860900e+00
0	 6.428571e+00	 7.571429e+00	 9.867177e+00
0	 6.428571e+00	 7.642857e+00	 9.873524e+00
0	 6.428571e+00	 7.714286e+00	 9.879940e+00
0	 6.428571e+00	 7.785714e+00	 9.886427e+00
0	 6.428571e+00	 7.857143e+00	 9.892982e+00
0	 6.500000e+00	 7.500000e+00	 9.865932e+00
0	 6.500000e+00	 7.571429e+00	 9.871958e+00
0	 6.500000e+00	 7.642857e+00	 9.878050e+00
0	 6.500000e+00	 7.714286e+00	 9.884208e+00
0	 6.500000e+00	 7.785714e+00	 9.890433e+00
0	 6.500000e+00	 7.857143e+00	 9.896723e+00
0	 6.571429e+00	 7.500000e+00	 9.871130e+00
0	 6.571429e+00	 7.571429e+00	 9.876902e+00
0	 6.571429e+00	 7.642857e+00	 9.882737e+00
0	 6.571429e+00	 7.714286e+00	 9.888635e+00
0	 6.571429e+00	 7.785714e+00	 9.894595e+00
0	 6.571429e+00	 7.857143e+00	 9.900617e+00
0	 6.642857e+00	 7.500000e+00	 9.876493e+00
0	 6.642857e+00	 7.571429e+00	 9.882010e+00
0	 6.642857e+00	 7.642857e+00	 9.887585e+00
0	 6.642857e+00	 7.714286e+00	 9.893219e+00
0	 6.642857e+00	 7.785714e+00	 9.898912e+00
0	 6.642857e+00	 7.857143e+00	 9.904664e+00
0	 6.714286e+00	 7.500000e+00	 9.882023e+00
0	 6.714286e+00	 7.571429e+00	 9.887281e+00
0	 6.714286e+00	 7.642857e+00	 9.892594e+00
0	 6.714286e+00	 7.714286e+00	 9.897962e+00
0	 6.714286e+00	 7.785714e+00	 9.903386e+00
0	 6.714286e+00	 7.857143e+00	 9.908864e+00
0	 6.785714e+00	 7.500000e+00	 9.887719e+00
0	 6.785714e+00	 7.571429e+00	 9.892715e+00
0	 6.785714e+00	 7.642857e+00	 9.897764e+00
0	 6.785714e+00	 7.714286e+00	 9.902863e+00
0	 6.785714e+00	 7.785714e+00	 9.908015e+00
0	 6.785714e+00	 7.857143e+00	 9.913217e+00
0	 6.428571e+00	 7.857143e+00	 9.892982e+00
0	 6.428571e+00	 7.928571e+00	 9.898591e+00
0	 6.428571e+00	 8.000000e+00	 9.904312e+00
0	 6.428571e+00	 8.071429e+00	 9.910145e+00
0	 6.428571e+00	 8.142857e+00	 9.916091e+00
0	 6.428571e+00	 8.214286e+00	 9.922148e+00
0	 6.500000e+00	 7.857143e+00	 9.896723e+00
0	 6.500000e+00	 7.928571e+00	 9.902119e+00
0	 6.500000e+00	 8.000000e+00	 9.907624e+00
0	 6.500000e+00	 8.071429e+00	 9.913236e+00
0	 6.500000e+00	 8.142857e+00	 9.918957e+00
0	 6.500000e+00	 8.214286e+00	 9.924785e+00
0	 6.571429e+00	 7.857143e+00	 9.900617e+00
0	 6.571429e+00	 7.928571e+00	 9.905798e+00
0	 6.571429e+00	 8.000000e+00	 9.911083e+00
0	 6.571429e+00	 8.071429e+00	 9.916472e+00
0	 6.571429e+00	 8.142857e+00	 9.921965e+00
0	 6.571429e+00	 8.214286e+00	 9.927562e+00
0	 6.642857e+00	 7.857143e+00	 9.904664e+00
0	 6.642857e+00	 7.928571e+00	 9.909627e+00
0	 6.642857e+00	 8.000000e+00	 9.914691e+00
0	 6.642857e+00	 8.071429e+00	 9.919853e+00
0	 6.642857e+00	 8.142857e+00	 9.925116e+00
0	 6.642857e+00	 8.214286e+00	 9.930478e+00
0	 6.714286e+00	 7.857143e+00	 9.908864e+00
0	 6.714286e+00	 7.928571e+00	 9.913607e+00
0	 6.714286e+00	 8.000000e+00	 9.918446e+00
0	 6.714286e+00	 8.071429e+00	 9.923380e+00
0	 6.714286e+00	 8.142857e+00	 9.928409e+00
0	 6.714286e+00	 8.214286e+00	 9.933534e+00
0	 6.785714e+00	 7.857143e+00	 9.913217e+00
0	 6.785714e+00	 7.928571e+00	 9.917737e+00
0	 6.785714e+00	 8.000000e+00	 9.922349e+00
0	 6.785714e+00	 8.071429e+00	 9.927051e+00
0	 6.785714e+00	 8.142857e+00	 9.931845e+00
0	 6.785714e+00	 8.214286e+00	 9.936731e+00
0	 6.428571e+00	 8.214286e+00	 9.922148e+00
0	 6.428571e+00	 8.285714e+00	 9.926981e+00
0	 6.428571e+00	 8.357143e+00	 9.931968e+00
0	 6.428571e+00	 8.428571e+00	 9.937110e+00
0	 6.428571e+00	 8.500000e+00	 9.942408e+00
0	 6.428571e+00	 8.571429e+00	 9.947860e+00
0	 6.500000e+00	 8.214286e+00	 9.924785e+00
0	 6.500000e+00	 8.285714e+00	 9.929439e+00
0	 6.500000e+00	 8.357143e+00	 9.934244e+00
0	 6.500000e+00	 8.428571e+00	 9.939198e+00
0	 6.500000e+00	 8.500000e+00	 9.944303e+00
0	 6.500000e+00	 8.571429e+00	 9.949558e+00
0	 6.571429e+00	 8.214286e+00	 9.927562e+00
0	 6.571429e+00	 8.285714e+00	 9.932036e+00
0	 6.571429e+00	 8.357143e+00	 9.936655e+00
0	 6.571429e+00	 8.428571e+00	 9.941420e+00
0	 6.571429e+00	 8.500000e+00	 9.946330e+00
0	 6.571429e+00	 8.571429e+00	 9.951385e+00
0	 6.642857e+00	 8.214286e+00	 9.930478e+00
0	 6.642857e+00	 8.285714e+00	 9.934770e+00
0	 6.642857e+00	 8.357143e+00	 9.939203e+00
0	 6.642857e+00	 8.428571e+00	 9.943775e+00
0	 6.642857e+00	 8.500000e+00	 9.948488e+00
0	 6.642857e+00	 8.571429e+00	 9.953341e+00
0	 6.714286e+00	 8.214286e+00	 9.933534e+00
0	 6.714286e+00	 8.285714e+00	 9.937642e+00
0	 6.714286e+00	 8.357143e+00	 9.941885e+00
0	 6.714286e+00	 8.428571e+00	 9.946264e+00
0	 6.714286e+00	 8.500000e+00	 9.950777e+00
0	 6.714286e+00	 8.571429e+00	 9.955427e+00
0	 6.785714e+00	 8.214286e+00	 9.936731e+00
0	 6.785714e+00	 8.285714e+00	 9.940652e+00
0	 6.785714e+00	 8.357143e+00	 9.944703e+00
0	 6.785714e+00	 8.428571e+00	 9.948885e+00
0	 6.785714e+00	 8.500000e+00	 9.953198e+00
0	 6.785714e+00	 8.571429e+00	 9.957641e+00
0	 6.428571e+00	 8.571429e+00	 9.947860e+00
0	 6.428571e+00	 8.642857e+00	 9.951791e+00
0	 6.428571e+00	 8.714286e+00	 9.955923e+00
0	 6.428571e+00	 8.785714e+00	 9.960257e+00
0	 6.428571e+00	 8.857143e+00	 9.964791e+00
0	 6.428571e+00	 8.928571e+00	 9.969527e+00
0	 6.500000e+00	 8.571429e+00	 9.949558e+00
0	 6.500000e+00	 8.642857e+00	 9.953344e+00
0	 6.500000e+00	 8.714286e+00	 9.957325e+00
0	 6.500000e+00	 8.785714e+00	 9.961502e+00
0	 6.500000e+00	 8.857143e+00	 9.965873e+00
0	 6.500000e+00	 8.928571e+00	 9.970440e+00
0	 6.571429e+00	 8.571429e+00	 9.951385e+00
0	 6.571429e+00	 8.642857e+00	 9.955025e+00
0	 6.571429e+00	 8.714286e+00	 9.958854e+00
0	 6.571429e+00	 8.785714e+00	 9.962872e+00
0	 6.571429e+00	 8.857143e+00	 9.967079e+00
0	 6.571429e+00	 8.928571e+00	 9.971475e+00
0	 6.642857e+00	 8.571429e+00	 9.953341e+00
0	 6.642857e+00	 8.642857e+00	 9.956834e+00
0	 6.642857e+00	 8.714286e+00	 9.960510e+00
0	 6.642857e+00	 8.785714e+00	 9.964368e+00
0	 6.642857e+00	 8.857143e+00	 9.968409e+00
0	 6.642857e+00	 8.928571e+00	 9.972634e+00
0	 6.714286e+00	 8.571429e+00	 9.955427e+00
0	 6.714286e+00	 8.642857e+00	 9.958771e+00
0	 6.714286e+00	 8.714286e+00	 9.962292e+00
0	 6.714286e+00	 8.785714e+00	 9.965990e+00
0	 6.714286e+00	 8.857143e+00	 9.969864e+00
0	 6.714286e+00	 8.928571e+00	 9.973915e+00
0	 6.785714e+00	 8.571429e+00	 9.957641e+00
0	 6.785714e+00	 8.642857e+00	 9.960836e+00
0	 6.785714e+00	 8.714286e+00	 9.964201e+00
0	 6.785714e+00	 8.785714e+00	 9.967737e+00
0	 6.785714e+00	 8.857143e+00	 9.971443e+00
0	 6.785714e+00	 8.928571e+00	 9.975320e+00
0	 6.428571e+00	 8.928571e+00	 9.969527e+00
0	 6.428571e+00	 9.000000e+00	 9.972398e+00
0	 6.428571e+00	 9.071429e+00	 9.975522e+00
0	 6.428571e+00	 9.142857e+00	 9.978900e+00
0	 6.428571e+00	 9.214286e+00	 9.982531e+00
0	 6.428571e+00	 9.285714e+00	 9.986417e+00
0	 6.500000e+00	 8.928571e+00	 9.970440e+00
0	 6.500000e+00	 9.000000e+00	 9.973200e+00
0	 6.500000e+00	 9.071429e+00	 9.976206e+00
0	 6.500000e+00	 9.142857e+00	 9.979458e+00
0	 6.500000e+00	 9.214286e+00	 9.982955e+00
0	 6.500000e+00	 9.285714e+00	 9.986699e+00
0	 6.571429e+00	 8.928571e+00	 9.971475e+00
0	 6.571429e+00	 9.000000e+00	 9.974126e+00
0	 6.571429e+00	 9.071429e+00	 9.977014e+00
0	 6.571429e+00	 9.142857e+00	 9.980140e+00
0	 6.571429e+00	 9.214286e+00	 9.983504e+00
0	 6.571429e+00	 9.285714e+00	 9.987105e+00
0	 6.642857e+00	 8.928571e+00	 9.972634e+00
0	 6.642857e+00	 9.000000e+00	 9.975175e+00
0	 6.642857e+00	 9.071429e+00	 9.977946e+00
0	 6.642857e+00	 9.142857e+00	 9.980947e+00
0	 6.642857e+00	 9.214286e+00	 9.984177e+00
0	 6.642857e+00	 9.285714e+00	 9.987636e+00
0	 6.714286e+00	 8.928571e+00	 9.973915e+00
0	 6.714286e+00	 9.000000e+00	 9.976348e+00
0	 6.714286e+00	 9.071429e+00	 9.979001e+00
0	 6.714286e+00	 9.142857e+00	 9.981877e+00
0	 6.714286e+00	 9.214286e+00	 9.984974e+00
0	 6.714286e+00	 9.285714e+00	 9.988292e+00
0	 6.785714e+00	 8.928571e+00	 9.975320e+00
0	 6.785714e+00	 9.000000e+00	 9.977644e+00
0	 6.785714e+00	 9.071429e+00	 9.980180e+00
0	 6.785714e+00	 9.142857e+00	 9.982931e+00
0	 6.785714e+00	 9.214286e+00	 9.985895e+00
0	 6.785714e+00	 9.285714e+00	 9.989072e+00
0	 6.428571e+00	 9.285714e+00	 9.986417e+00
0	 6.428571e+00	 9.357143e+00	 9.988035e+00
0	 6.428571e+00	 9.428571e+00	 9.989970e+00
0	 6.428571e+00	 9.500000e+00	 9.992220e+00
0	 6.428571e+00	 9.571429e+00	 9.994785e+00
0	 6.428571e+00	 9.642857e+00	 9.997666e+00
0	 6.500000e+00	 9.285714e+00	 9.986699e+00
0	 6.500000e+00	 9.357143e+00	 9.988248e+00
0	 6.500000e+00	 9.428571e+00	 9.990102e+00
0	 6.500000e+00	 9.500000e+00	 9.992261e+00
0	 6.500000e+00	 9.571429e+00	 9.994724e+00
0	 6.500000e+00	 9.642857e+00	 9.997492e+00
0	 6.571429e+00	 9.285714e+00	 9.987105e+00
0	 6.571429e+00	 9.357143e+00	 9.988588e+00
0	 6.571429e+00	 9.428571e+00	 9.990364e+00
0	 6.571429e+00	 9.500000e+00	 9.992433e+00
0	 6.571429e+00	 9.571429e+00	 9.994797e+00
0	 6.571429e+00	 9.642857e+00	 9.997453e+00
0	 6.642857e+00	 9.285714e+00	 9.987636e+00
0	 6.642857e+00	 9.357143e+00	 9.989054e+00
0	 6.642857e+00	 9.428571e+00	 9.990754e+00
0	 6.642857e+00	 9.500000e+00	 9.992737e+00
0	 6.642857e+00	 9.571429e+00	 9.995002e+00
0	 6.642857e+00	 9.642857e+00	 9.997550e+00
0	 6.714286e+00	 9.285714e+00	 9.988292e+00
0	 6.714286e+00	 9.357143e+00	 9.989647e+00
0	 6.714286e+00	 9.428571e+00	 9.991273e+00
0	 6.714286e+00	 9.500000e+00	 9.993171e+00
0	 6.714286e+00	 9.571429e+00	 9.995341e+00
0	 6.714286e+00	 9.642857e+00	 9.997783e+00
0	 6.785714e+00	 9.285714e+00	 9.989072e+00
0	 6.785714e+00	 9.357143e+00	 9.990366e+00
0	 6.785714e+00	 9.428571e+00	 9.991921e+00
0	 6.785714e+00	 9.500000e+00	 9.993737e+00
0	 6.785714e+00	 9.571429e+00	 9.995814e+00
0	 6.785714e+00	 9.642857e+00	 9.998151e+00
0	 6.428571e+00	 9.642857e+00	 9.997666e+00
0	 6.428571e+00	 9.714286e+00	 9.997728e+00
0	 6.428571e+00	 9.785714e+00	 9.998181e+00
0	 6.428571e+00	 9.857143e+00	 9.999025e+00
0	 6.428571e+00	 9.928571e+00	 1.000026e+01
0	 6.428571e+00	 1.000000e+01	 1.000188e+01
0	 6.500000e+00	 9.642857e+00	 9.997492e+00
0	 6.500000e+00	 9.714286e+00	 9.997541e+00
0	 6.500000e+00	 9.785714e+00	 9.997965e+00
0	 6.500000e+00	 9.857143e+00	 9.998765e+00
0	 6.500000e+00	 9.928571e+00	 9.999940e+00
0	 6.500000e+00	 1.000000e+01	 1.000149e+01
0	 6.571429e+00	 9.642857e+00	 9.997453e+00
0	 6.571429e+00	 9.714286e+00	 9.997493e+00
0	 6.571429e+00	 9.785714e+00	 9.997894e+00
0	 6.571429e+00	 9.857143e+00	 9.998654e+00
0	 6.571429e+00	 9.928571e+00	 9.999774e+00
0	 6.571429e+00	 1.000000e+01	 1.000126e+01
0	 6.642857e+00	 9.642857e+00	 9.997550e+00
0	 6.642857e+00	 9.714286e+00	 9.997586e+00
0	 6.642857e+00	 9.785714e+00	 9.997967e+00
0	 6.642857e+00	 9.857143e+00	 9.998693e+00
0	 6.642857e+00	 9.928571e+00	 9.999764e+00
0	 6.642857e+00	 1.000000e+01	 1.000118e+01
0	 6.714286e+00	 9.642857e+00	 9.997783e+00
0	 6.714286e+00	 9.714286e+00	 9.997820e+00
0	 6.714286e+00	 9.785714e+00	 9.998186e+00
0	 6.714286e+00	 9.857143e+00	 9.998882e+00
0	 6.714286e+00	 9.928571e+00	 9.999908e+00
0	 6.714286e+00	 1.000000e+01	 1.000126e+01
0	 6.785714e+00	 9.642857e+00	 9.998151e+00
0	 6.785714e+00	 9.714286e+00	 9.998193e+00
0	 6.785714e+00	 9.785714e+00	 9.998550e+00
0	 6.785714e+00	 9.857143e+00	 9.999221e+00
0	 6.785714e+00	 9.928571e+00	 1.000021e+01
0	 6.785714e+00	 1.000000e+01	 1.000151e+01
0	 6.785714e+00	 0.000000e+00	 1.047041e+01
0	 6.785714e+00	 7.142857e-02	 1.046481e+01
0	 6.785714e+00	 1.428571e-01	 1.046051e+01
0	 6.785714e+00	 2.142857e-01	 1.045749e+01
0	 6.785714e+00	 2.857143e-01	 1.045576e+01
0	 6.785714e+00	 3.571429e-01	 1.045531e+01
0	 6.857143e+00	 0.000000e+00	 1.048763e+01
0	 6.857143e+00	 7.142857e-02	 1.048227e+01
0	 6.857143e+00	 1.428571e-01	 1.047814e+01
0	 6.857143e+00	 2.142857e-01	 1.047524e+01
0	 6.857143e+00	 2.857143e-01	 1.047357e+01
0	 6.857143e+00	 3.571429e-01	 1.047313e+01
0	 6.928571e+00	 0.000000e+00	 1.050600e+01
0	 6.928571e+00	 7.142857e-02	 1.050086e+01
0	 6.928571e+00	 1.428571e-01	 1.049689e+01
0	 6.928571e+00	 2.142857e-01	 1.049410e+01
0	 6.928571e+00	 2.857143e-01	 1.049248e+01
0	 6.928571e+00	 3.571429e-01	 1.049203e+01
0	 7.000000e+00	 0.000000e+00	 1.052550e+01
0	 7.000000e+00	 7.142857e-02	 1.052057e+01
0	 7.000000e+00	 1.428571e-01	 1.051675e+01
0	 7.000000e+00	 2.142857e-01	 1.051405e+01
0	 7.000000e+00	 2.857143e-01	 1.051247e+01
0	 7.000000e+00	 3.571429e-01	 1.051200e+01
0	 7.071429e+00	 0.000000e+00	 1.054614e+01
0	 7.071429e+00	 7.142857e-02	 1.054140e+01
0	 7.071429e+00	 1.428571e-01	 1.053772e+01
0	 7.071429e+00	 2.142857e-01	 1.053511e+01
0	 7.071429e+00	 2.857143e-01	 1.053355e+01
0	 7.071429e+00	 3.571429e-01	 1.053305e+01
0	 7.142857e+00	 0.000000e+00	 1.056792e+01
0	 7.142857e+00	 7.142857e-02	 1.056336e+01
0	 7.142857e+00	 1.428571e-01	 1.055981e+01
0	 7.142857e+00	 2.142857e-01	 1.055726e+01
0	 7.142857e+00	 2.857143e-01	 1.055572e+01
0	 7.142857e+00	 3.571429e-01	 1.055518e+01
0	 6.785714e+00	 3.571429e-01	 1.045531e+01
0	 6.785714e+00	 4.285714e-01	 1.044424e+01
0	 6.785714e+00	 5.000000e-01	 1.043433e+01
0	 6.785714e+00	 5.714286e-01	 1.042559e+01
0	 6.785714e+00	 6.428571e-01	 1.041801e+01
0	 6.785714e+00	 7.142857e-01	 1.041160e+01
0	 6.857143e+00	 3.571429e-01	 1.047313e+01
0	 6.857143e+00	 4.285714e-01	 1.046250e+01
0	 6.857143e+00	 5.000000e-01	 1.045298e+01
0	 6.857143e+00	 5.714286e-01	 1.044458e+01
0	 6.857143e+00	 6.428571e-01	 1.043730e+01
0	 6.857143e+00	 7.142857e-01	 1.043113e+01
0	 6.928571e+00	 3.571429e-01	 1.049203e+01
0	 6.928571e+00	 4.285714e-01	 1.048180e+01
0	 6.928571e+00	 5.000000e-01	 1.047264e+01
0	 6.928571e+00	 5.714286e-01	 1.046454e+01
0	 6.928571e+00	 6.428571e-01	 1.045751e+01
0	 6.928571e+00	 7.142857e-01	 1.045155e+01
0	 7.000000e+00	 3.571429e-01	 1.051200e+01
0	 7.000000e+00	 4.285714e-01	 1.050214e+01
0	 7.000000e+00	 5.000000e-01	 1.049330e+01
0	 7.000000e+00	 5.714286e-01	 1.048547e+01
0	 7.000000e+00	 6.428571e-01	 1.047866e+01
0	 7.000000e+00	 7.142857e-01	 1.047286e+01
0	 7.071429e+00	 3.571429e-01	 1.053305e+01
0	 7.071429e+00	 4.285714e-01	 1.052352e+01
0	 7.071429e+00	 5.000000e-01	 1.051496e+01
0	 7.071429e+00	 5.714286e-01	 1.050737e+01
0	 7.071429e+00	 6.428571e-01	 1.050074e+01
0	 7.071429e+00	 7.142857e-01	 1.049507e+01
0	 7.142857e+00	 3.571429e-01	 1.055518e+01
0	 7.142857e+00	 4.285714e-01	 1.054595e+01
0	 7.142857e+00	 5.000000e-01	 1.053763e+01
0	 7.142857e+00	 5.714286e-01	 1.053023e+01
0	 7.142857e+00	 6.428571e-01	 1.052374e+01
0	 7.142857e+00	 7.142857e-01	 1.051817e+01
0	 6.785714e+00	 7.142857e-01	 1.041160e+01
0	 6.785714e+00	 7.857143e-01	 1.039618e+01
0	 6.785714e+00	 8.571429e-01	 1.038169e+01
0	 6.785714e+00	 9.285714e-01	 1.036813e+01
0	 6.785714e+00	 1.000000e+00	 1.035551e+01
0	 6.785714e+00	 1.071429e+00	 1.034383e+01
0	 6.857143e+00	 7.142857e-01	 1.043113e+01
0	 6.857143e+00	 7.857143e-01	 1.041628e+01
0	 6.857143e+00	 8.571429e-01	 1.040233e+01
0	 6.857143e+00	 9.285714e-01	 1.038928e+01
0	 6.857143e+00	 1.000000e+00	 1.037712e+01
0	 6.857143e+00	 1.071429e+00	 1.036586e+01
0	 6.928571e+00	 7.142857e-01	 1.045155e+01
0	 6.928571e+00	 7.857143e-01	 1.043722e+01
0	 6.928571e+00	 8.571429e-01	 1.042376e+01
0	 6.928571e+00	 9.285714e-01	 1.041116e+01
0	 6.928571e+00	 1.000000e+00	 1.039941e+01
0	 6.928571e+00	 1.071429e+00	 1.038853e+01
0	 7.000000e+00	 7.142857e-01	 1.047286e+01
0	 7.000000e+00	 7.857143e-01	 1.045901e+01
0	 7.000000e+00	 8.571429e-01	 1.044598e+01
0	 7.000000e+00	 9.285714e-01	 1.043377e+01
0	 7.000000e+00	 1.000000e+00	 1.042238e+01
0	 7.000000e+00	 1.071429e+00	 1.041182e+01
0	 7.071429e+00	 7.142857e-01	 1.049507e+01
0	 7.071429e+00	 7.857143e-01	 1.048163e+01
0	 7.071429e+00	 8.571429e-01	 1.046898e+01
0	 7.071429e+00	 9.285714e-01	 1.045712e+01
0	 7.071429e+00	 1.000000e+00	 1.044603e+01
0	 7.071429e+00	 1.071429e+00	 1.043574e+01
0	 7.142857e+00	 7.142857e-01	 1.051817e+01
0	 7.142857e+00	 7.857143e-01	 1.050510e+01
0	 7.142857e+00	 8.571429e-01	 1.049277e+01
0	 7.142857e+00	 9.285714e-01	 1.048120e+01
0	 7.142857e+00	 1.000000e+00	 1.047037e+01
0	 7.142857e+00	 1.071429e+00	 1.046028e+01
0	 6.785714e+00	 1.071429e+00	 1.034383e+01
0	 6.785714e+00	 1.142857e+00	 1.032554e+01
0	 6.785714e+00	 1.214286e+00	 1.030788e+01
0	 6.785714e+00	 1.285714e+00	 1.029087e+01
0	 6.785714e+00	 1.357143e+00	 1.027448e+01
0	 6.785714e+00	 1.428571e+00	 1.025873e+01
0	 6.857143e+00	 1.071429e+00	 1.036586e+01
0	 6.857143e+00	 1.142857e+00	 1.034820e+01
0	 6.857143e+00	 1.214286e+00	 1.033115e+01
0	 6.857143e+00	 1.285714e+00	 1.031471e+01
0	 6.857143e+00	 1.357143e+00	 1.029889e+01
0	 6.857143e+00	 1.428571e+00	 1.028368e+01
0	 6.928571e+00	 1.071429e+00	 1.038853e+01
0	 6.928571e+00	 1.142857e+00	 1.037143e+01
0	 6.928571e+00	 1.214286e+00	 1.035492e+01
0	 6.928571e+00	 1.285714e+00	 1.033900e+01
0	 6.928571e+00	 1.357143e+00	 1.032367e+01
0	 6.928571e+00	 1.428571e+00	 1.030894e+01
0	 7.000000e+00	 1.071429e+00	 1.041182e+01
0	 7.000000e+00	 1.142857e+00	 1.039522e+01
0	 7.000000e+00	 1.214286e+00	 1.037919e+01
0	 7.000000e+00	 1.285714e+00	 1.036373e+01
0	 7.000000e+00	 1.357143e+00	 1.034884e+01
0	 7.000000e+00	 1.428571e+00	 1.033452e+01
0	 7.071429e+00	 1.071429e+00	 1.043574e+01
0	 7.071429e+00	 1.142857e+00	 1.041958e+01
0	 7.071429e+00	 1.214286e+00	 1.040396e+01
0	 7.071429e+00	 1.285714e+00	 1.038890e+01
0	 7.071429e+00	 1.357143e+00	 1.037439e+01
0	 7.071429e+00	 1.428571e+00	 1.036042e+01
0	 7.142857e+00	 1.071429e+00	 1.046028e+01
0	 7.142857e+00	 1.142857e+00	 1.044450e+01
0	 7.142857e+00	 1.214286e+00	 1.042924e+01
0	 7.142857e+00	 1.285714e+00	 1.041451e+01
0	 7.142857e+00	 1.357143e+00	 1.040031e+01
0	 7.142857e+00	 1.428571e+00	 1.038663e+01
0	 6.785714e+00	 1.428571e+00	 1.025873e+01
0	 6.785714e+00	 1.500000e+00	 1.023921e+01
0	 6.785714e+00	 1.571429e+00	 1.022000e+01
0	 6.785714e+00	 1.642857e+00	 1.020110e+01
0	 6.785714e+00	 1.714286e+00	 1.018250e+01
0	 6.785714e+00	 1.785714e+00	 1.016420e+01
0	 6.857143e+00	 1.428571e+00	 1.028368e+01
0	 6.857143e+00	 1.500000e+00	 1.026474e+01
0	 6.857143e+00	 1.571429e+00	 1.024610e+01
0	 6.857143e+00	 1.642857e+00	 1.022777e+01
0	 6.857143e+00	 1.714286e+00	 1.020973e+01
0	 6.857143e+00	 1.785714e+00	 1.019200e+01
0	 6.928571e+00	 1.428571e+00	 1.030894e+01
0	 6.928571e+00	 1.500000e+00	 1.029052e+01
0	 6.928571e+00	 1.571429e+00	 1.027240e+01
0	 6.928571e+00	 1.642857e+00	 1.025457e+01
0	 6.928571e+00	 1.714286e+00	 1.023704e+01
0	 6.928571e+00	 1.785714e+00	 1.021980e+01
0	 7.000000e+00	 1.428571e+00	 1.033452e+01
0	 7.000000e+00	 1.500000e+00	 1.031656e+01
0	 7.000000e+00	 1.571429e+00	 1.029889e+01
0	 7.000000e+00	 1.642857e+00	 1.028151e+01
0	 7.000000e+00	 1.714286e+00	 1.026442e+01
0	 7.000000e+00	 1.785714e+00	 1.024762e+01
0	 7.071429e+00	 1.428571e+00	 1.036042e+01
0	 7.071429e+00	 1.500000e+00	 1.034285e+01
0	 7.071429e+00	 1.571429e+00	 1.032557e+01
0	 7.071429e+00	 1.642857e+00	 1.030858e+01
0	 7.071429e+00	 1.714286e+00	 1.029187e+01
0	 7.071429e+00	 1.785714e+00	 1.027545e+01
0	 7.142857e+00	 1.428571e+00	 1.038663e+01
0	 7.142857e+00	 1.500000e+00	 1.036940e+01
0	 7.142857e+00	 1.571429e+00	 1.035245e+01
0	 7.142857e+00	 1.642857e+00	 1.033578e+01
0	 7.142857e+00	 1.714286e+00	 1.031939e+01
0	 7.142857e+00	 1.785714e+00	 1.030329e+01
0	 6.785714e+00	 1.785714e+00	 1.016420e+01
0	 6.785714e+00	 1.857143e+00	 1.014501e+01
0	 6.785714e+00	 1.928571e+00	 1.012581e+01
0	 6.785714e+00	 2.000000e+00	 1.010660e+01
0	 6.785714e+00	 2.071429e+00	 1.008738e+01
0	 6.785714e+00	 2.142857e+00	 1.006815e+01
0	 6.857143e+00	 1.785714e+00	 1.019200e+01
0	 6.857143e+00	 1.857143e+00	 1.017326e+01
0	 6.857143e+00	 1.928571e+00	 1.015453e+01
0	 6.857143e+00	 2.000000e+00	 1.013579e+01
0	 6.857143e+00	 2.071429e+00	 1.011706e+01
0	 6.857143e+00	 2.142857e+00	 1.009832e+01
0	 6.928571e+00	 1.785714e+00	 1.021980e+01
0	 6.928571e+00	 1.857143e+00	 1.020147e+01
0	 6.928571e+00	 1.928571e+00	 1.018315e+01
0	 6.928571e+00	 2.000000e+00	 1.016484e+01
0	 6.928571e+00	 2.071429e+00	 1.014654e+01
0	 6.928571e+00	 2.142857e+00	 1.012825e+01
0	 7.000000e+00	 1.785714e+00	 1.024762e+01
0	 7.000000e+00	 1.857143e+00	 1.022964e+01
0	 7.000000e+00	 1.928571e+00	 1.021168e+01
0	 7.000000e+00	 2.000000e+00	 1.019374e+01
0	 7.000000e+00	 2.071429e+00	 1.017582e+01
0	 7.000000e+00	 2.142857e+00	 1.015792e+01
0	 7.071429e+00	 1.785714e+00	 1.027545e+01
0	 7.071429e+00	 1.857143e+00	 1.025777e+01
0	 7.071429e+00	 1.928571e+00	 1.024011e+01
0	 7.071429e+00	 2.000000e+00	 1.022249e+01
0	 7.071429e+00	 2.071429e+00	 1.020490e+01
0	 7.071429e+00	 2.142857e+00	 1.018733e+01
0	 7.142857e+00	 1.785714e+00	 1.030329e+01
0	 7.142857e+00	 1.857143e+00	 1.028585e+01
0	 7.142857e+00	 1.928571e+00	 1.026845e+01
0	 7.142857e+00	 2.000000e+00	 1.025109e+01
0	 7.142857e+00	 2.071429e+00	 1.023378e+01
0	 7.142857e+00	 2.142857e+00	 1.021650e+01
0	 6.785714e+00	 2.142857e+00	 1.006815e+01
0	 6.785714e+00	 2.214286e+00	 1.005058e+01
0	 6.785714e+00	 2.285714e+00	 1.003273e+01
0	 6.785714e+00	 2.357143e+00	 1.001461e+01
0	 6.785714e+00	 2.428571e+00	 9.996207e+00
0	 6.785714e+00	 2.500000e+00	 9.977526e+00
0	 6.857143e+00	 2.142857e+00	 1.009832e+01
0	 6.857143e+00	 2.214286e+00	 1.008103e+01
0	 6.857143e+00	 2.285714e+00	 1.006349e+01
0	 6.857143e+00	 2.357143e+00	 1.004569e+01
0	 6.857143e+00	 2.428571e+00	 1.002763e+01
0	 6.857143e+00	 2.500000e+00	 1.000931e+01
0	 6.928571e+00	 2.142857e+00	 1.012825e+01
0	 6.928571e+00	 2.214286e+00	 1.011120e+01
0	 6.928571e+00	 2.285714e+00	 1.009391e+01
0	 6.928571e+00	 2.357143e+00	 1.007639e+01
0	 6.928571e+00	 2.428571e+00	 1.005864e+01
0	 6.928571e+00	 2.500000e+00	 1.004064e+01
0	 7.000000e+00	 2.142857e+00	 1.015792e+01
0	 7.000000e+00	 2.214286e+00	 1.014107e+01
0	 7.000000e+00	 2.285714e+00	 1.012401e+01
0	 7.000000e+00	 2.357143e+00	 1.010673e+01
0	 7.000000e+00	 2.428571e+00	 1.008924e+01
0	 7.000000e+00	 2.500000e+00	 1.007153e+01
0	 7.071429e+00	 2.142857e+00	 1.018733e+01
0	 7.071429e+00	 2.214286e+00	 1.017065e+01
0	 7.071429e+00	 2.285714e+00	 1.015377e+01
0	 7.071429e+00	 2.357143e+00	 1.013670e+01
0	 7.071429e+00	 2.428571e+00	 1.011943e+01
0	 7.071429e+00	 2.500000e+00	 1.010198e+01
0	 7.142857e+00	 2.142857e+00	 1.021650e+01
0	 7.142857e+00	 2.214286e+00	 1.019994e+01
0	 7.142857e+00	 2.285714e+00	 1.018320e+01
0	 7.142857e+00	 2.357143e+00	 1.016630e+01
0	 7.142857e+00	 2.428571e+00	 1.014922e+01
0	 7.142857e+00	 2.500000e+00	 1.013197e+01
0	 6.785714e+00	 2.500000e+00	 9.977526e+00
0	 6.785714e+00	 2.571429e+00	 9.962518e+00
0	 6.785714e+00	 2.642857e+00	 9.947029e+00
0	 6.785714e+00	 2.714286e+00	 9.931058e+00
0	 6.785714e+00	 2.785714e+00	 9.914607e+00
0	 6.785714e+00	 2.857143e+00	 9.897674e+00
0	 6.857143e+00	 2.500000e+00	 1.000931e+01
0	 6.857143e+00	 2.571429e+00	 9.994377e+00
0	 6.857143e+00	 2.642857e+00	 9.978993e+00
0	 6.857143e+00	 2.714286e+00	 9.963157e+00
0	 6.857143e+00	 2.785714e+00	 9.946869e+00
0	 6.857143e+00	 2.857143e+00	 9.930127e+00
0	 6.928571e+00	 2.500000e+00	 1.004064e+01
0	 6.928571e+00	 2.571429e+00	 1.002577e+01
0	 6.928571e+00	 2.642857e+00	 1.001047e+01
0	 6.928571e+00	 2.714286e+00	 9.994742e+00
0	 6.928571e+00	 2.785714e+00	 9.978593e+00
0	 6.928571e+00	 2.857143e+00	 9.962020e+00
0	 7.000000e+00	 2.500000e+00	 1.007153e+01
0	 7.000000e+00	 2.571429e+00	 1.005669e+01
0	 7.000000e+00	 2.642857e+00	 1.004145e+01
0	 7.000000e+00	 2.714286e+00	 1.002581e+01
0	 7.000000e+00	 2.785714e+00	 1.000978e+01
0	 7.000000e+00	 2.857143e+00	 9.993352e+00
0	 7.071429e+00	 2.500000e+00	 1.010198e+01
0	 7.071429e+00	 2.571429e+00	 1.008714e+01
0	 7.071429e+00	 2.642857e+00	 1.007194e+01
0	 7.071429e+00	 2.714286e+00	 1.005636e+01
0	 7.071429e+00	 2.785714e+00	 1.004043e+01
0	 7.071429e+00	 2.857143e+00	 1.002412e+01
0	 7.142857e+00	 2.500000e+00	 1.013197e+01
0	 7.142857e+00	 2.571429e+00	 1.011712e+01
0	 7.142857e+00	 2.642857e+00	 1.010193e+01
0	 7.142857e+00	 2.714286e+00	 1.008640e+01
0	 7.142857e+00	 2.785714e+00	 1.007054e+01
0	 7.142857e+00	 2.857143e+00	 1.005433e+01
0	 6.785714e+00	 2.857143e+00	 9.897674e+00
0	 6.785714e+00	 2.928571e+00	 9.885765e+00
0	 6.785714e+00	 3.000000e+00	 9.873245e+00
0	 6.785714e+00	 3.071429e+00	 9.860116e+00
0	 6.785714e+00	 3.142857e+00	 9.846377e+00
0	 6.785714e+00	 3.214286e+00	 9.832027e+00
0	 6.857143e+00	 2.857143e+00	 9.930127e+00
0	 6.857143e+00	 2.928571e+00	 9.918098e+00
0	 6.857143e+00	 3.000000e+00	 9.905490e+00
0	 6.857143e+00	 3.071429e+00	 9.892304e+00
0	 6.857143e+00	 3.142857e+00	 9.878539e+00
0	 6.857143e+00	 3.214286e+00	 9.864195e+00
0	 6.928571e+00	 2.857143e+00	 9.962020e+00
0	 6.928571e+00	 2.928571e+00	 9.949863e+00
0	 6.928571e+00	 3.000000e+00	 9.937159e+00
0	 6.928571e+00	 3.071429e+00	 9.923908e+00
0	 6.928571e+00	 3.142857e+00	 9.910110e+00
0	 6.928571e+00	 3.214286e+00	 9.895765e+00
0	 7.000000e+00	 2.857143e+00	 9.993352e+00
0	 7.000000e+00	 2.928571e+00	 9.981060e+00
0	 7.000000e+00	 3.000000e+00	 9.968252e+00
0	 7.000000e+00	 3.071429e+00	 9.954929e+00
0	 7.000000e+00	 3.142857e+00	 9.941090e+00
0	 7.000000e+00	 3.214286e+00	 9.926735e+00
0	 7.071429e+00	 2.857143e+00	 1.002412e+01
0	 7.071429e+00	 2.928571e+00	 1.001169e+01
0	 7.071429e+00	 3.000000e+00	 9.998769e+00
0	 7.071429e+00	 3.071429e+00	 9.985366e+00
0	 7.071429e+00	 3.142857e+00	 9.971478e+00
0	 7.071429e+00	 3.214286e+00	 9.957107e+00
0	 7.142857e+00	 2.857143e+00	 1.005433e+01
0	 7.142857e+00	 2.928571e+00	 1.004175e+01
0	 7.142857e+00	 3.000000e+00	 1.002871e+01
0	 7.142857e+00	 3.071429e+00	 1.001522e+01
0	 7.142857e+00	 3.142857e+00	 1.000128e+01
0	 7.142857e+00	 3.214286e+00	 9.986880e+00
0	 6.785714e+00	 3.214286e+00	 9.832027e+00
0	 6.785714e+00	 3.285714e+00	 9.823395e+00
0	 6.785714e+00	 3.357143e+00	 9.814092e+00
0	 6.785714e+00	 3.428571e+00	 9.804120e+00
0	 6.785714e+00	 3.500000e+00	 9.793479e+00
0	 6.785714e+00	 3.571429e+00	 9.782168e+00
0	 6.857143e+00	 3.214286e+00	 9.864195e+00
0	 6.857143e+00	 3.285714e+00	 9.855271e+00
0	 6.857143e+00	 3.357143e+00	 9.845708e+00
0	 6.857143e+00	 3.428571e+00	 9.835506e+00
0	 6.857143e+00	 3.500000e+00	 9.824666e+00
0	 6.857143e+00	 3.571429e+00	 9.813187e+00
0	 6.928571e+00	 3.214286e+00	 9.895765e+00
0	 6.928571e+00	 3.285714e+00	 9.886553e+00
0	 6.928571e+00	 3.357143e+00	 9.876734e+00
0	 6.928571e+00	 3.428571e+00	 9.866307e+00
0	 6.928571e+00	 3.500000e+00	 9.855273e+00
0	 6.928571e+00	 3.571429e+00	 9.843631e+00
0	 7.000000e+00	 3.214286e+00	 9.926735e+00
0	 7.000000e+00	 3.285714e+00	 9.917241e+00
0	 7.000000e+00	 3.357143e+00	 9.907171e+00
0	 7.000000e+00	 3.428571e+00	 9.896523e+00
0	 7.000000e+00	 3.500000e+00	 9.885299e+00
0	 7.000000e+00	 3.571429e+00	 9.873499e+00
0	 7.071429e+00	 3.214286e+00	 9.957107e+00
0	 7.071429e+00	 3.285714e+00	 9.947335e+00
0	 7.071429e+00	 3.357143e+00	 9.937018e+00
0	 7.071429e+00	 3.428571e+00	 9.926155e+00
0	 7.071429e+00	 3.500000e+00	 9.914746e+00
0	 7.071429e+00	 3.571429e+00	 9.902791e+00
0	 7.142857e+00	 3.214286e+00	 9.986880e+00
0	 7.142857e+00	 3.285714e+00	 9.976835e+00
0	 7.142857e+00	 3.357143e+00	 9.966276e+00
0	 7.142857e+00	 3.428571e+00	 9.955201e+00
0	 7.142857e+00	 3.500000e+00	 9.943612e+00
0	 7.142857e+00	 3.571429e+00	 9.931508e+00
0	 6.785714e+00	 3.571429e+00	 9.782168e+00
0	 6.785714e+00	 3.642857e+00	 9.776701e+00
0	 6.785714e+00	 3.714286e+00	 9.770564e+00
0	 6.785714e+00	 3.785714e+00	 9.763755e+00
0	 6.785714e+00	 3.857143e+00	 9.756274e+00
0	 6.785714e+00	 3.928571e+00	 9.748123e+00
0	 6.857143e+00	 3.571429e+00	 9.813187e+00
0	 6.857143e+00	 3.642857e+00	 9.807294e+00
0	 6.857143e+00	 3.714286e+00	 9.800758e+00
0	 6.857143e+00	 3.785714e+00	 9.793579e+00
0	 6.857143e+00	 3.857143e+00	 9.785757e+00
0	 6.857143e+00	 3.928571e+00	 9.777291e+00
0	 6.928571e+00	 3.571429e+00	 9.843631e+00
0	 6.928571e+00	 3.642857e+00	 9.837325e+00
0	 6.928571e+00	 3.714286e+00	 9.830404e+00
0	 6.928571e+00	 3.785714e+00	 9.822868e+00
0	 6.928571e+00	 3.857143e+00	 9.814717e+00
0	 6.928571e+00	 3.928571e+00	 9.805950e+00
0	 7.000000e+00	 3.571429e+00	 9.873499e+00
0	 7.000000e+00	 3.642857e+00	 9.866794e+00
0	 7.000000e+00	 3.714286e+00	 9.859502e+00
0	 7.000000e+00	 3.785714e+00	 9.851622e+00
0	 7.000000e+00	 3.857143e+00	 9.843155e+00
0	 7.000000e+00	 3.928571e+00	 9.834101e+00
0	 7.071429e+00	 3.571429e+00	 9.902791e+00
0	 7.071429e+00	 3.642857e+00	 9.895701e+00
0	 7.071429e+00	 3.714286e+00	 9.888050e+00
0	 7.071429e+00	 3.785714e+00	 9.879841e+00
0	 7.071429e+00	 3.857143e+00	 9.871072e+00
0	 7.071429e+00	 3.928571e+00	 9.861743e+00
0	 7.142857e+00	 3.571429e+00	 9.931508e+00
0	 7.142857e+00	 3.642857e+00	 9.924045e+00
0	 7.142857e+00	 3.714286e+00	 9.916050e+00
0	 7.142857e+00	 3.785714e+00	 9.907524e+00
0	 7.142857e+00	 3.857143e+00	 9.898466e+00
0	 7.142857e+00	 3.928571e+00	 9.888877e+00
0	 6.785714e+00	 3.928571e+00	 9.748123e+00
0	 6.785714e+00	 4.000000e+00	 9.745511e+00
0	 6.785714e+00	 4.071429e+00	 9.742268e+00
0	 6.785714e+00	 4.142857e+00	 9.738396e+00
0	 6.785714e+00	 4.214286e+00	 9.733893e+00
0	 6.785714e+00	 4.285714e+00	 9.728761e+00
0	 6.857143e+00	 3.928571e+00	 9.777291e+00
0	 6.857143e+00	 4.000000e+00	 9.774161e+00
0	 6.857143e+00	 4.071429e+00	 9.770424e+00
0	 6.857143e+00	 4.142857e+00	 9.766081e+00
0	 6.857143e+00	 4.214286e+00	 9.761132e+00
0	 6.857143e+00	 4.285714e+00	 9.755576e+00
0	 6.928571e+00	 3.928571e+00	 9.805950e+00
0	 6.928571e+00	 4.000000e+00	 9.802321e+00
0	 6.928571e+00	 4.071429e+00	 9.798108e+00
0	 6.928571e+00	 4.142857e+00	 9.793312e+00
0	 6.928571e+00	 4.214286e+00	 9.787934e+00
0	 6.928571e+00	 4.285714e+00	 9.781972e+00
0	 7.000000e+00	 3.928571e+00	 9.834101e+00
0	 7.000000e+00	 4.000000e+00	 9.829990e+00
0	 7.000000e+00	 4.071429e+00	 9.825319e+00
0	 7.000000e+00	 4.142857e+00	 9.820089e+00
0	 7.000000e+00	 4.214286e+00	 9.814300e+00
0	 7.000000e+00	 4.285714e+00	 9.807951e+00
0	 7.071429e+00	 3.928571e+00	 9.861743e+00
0	 7.071429e+00	 4.000000e+00	 9.857168e+00
0	 7.071429e+00	 4.071429e+00	 9.852058e+00
0	 7.071429e+00	 4.142857e+00	 9.846411e+00
0	 7.071429e+00	 4.214286e+00	 9.840229e+00
0	 7.071429e+00	 4.285714e+00	 9.833511e+00
0	 7.142857e+00	 3.928571e+00	 9.888877e+00
0	 7.142857e+00	 4.000000e+00	 9.883856e+00
0	 7.142857e+00	 4.071429e+00	 9.878324e+00
0	 7.142857e+00	 4.142857e+00	 9.872279e+00
0	 7.142857e+00	 4.214286e+00	 9.865722e+00
0	 7.142857e+00	 4.285714e+00	 9.858652e+00
0	 6.785714e+00	 4.285714e+00	 9.728761e+00
0	 6.785714e+00	 4.357143e+00	 9.728578e+00
0	 6.785714e+00	 4.428571e+00	 9.727834e+00
0	 6.785714e+00	 4.500000e+00	 9.726529e+00
0	 6.785714e+00	 4.571429e+00	 9.724663e+00
0	 6.785714e+00	 4.642857e+00	 9.722236e+00
0	 6.857143e+00	 4.285714e+00	 9.755576e+00
0	 6.857143e+00	 4.357143e+00	 9.754823e+00
0	 6.857143e+00	 4.428571e+00	 9.753528e+00
0	 6.857143e+00	 4.500000e+00	 9.751691e+00
0	 6.857143e+00	 4.571429e+00	 9.749311e+00
0	 6.857143e+00	 4.642857e+00	 9.746388e+00
0	 6.928571e+00	 4.285714e+00	 9.781972e+00
0	 6.928571e+00	 4.357143e+00	 9.780670e+00
0	 6.928571e+00	 4.428571e+00	 9.778843e+00
0	 6.928571e+00	 4.500000e+00	 9.776493e+00
0	 6.928571e+00	 4.571429e+00	 9.773619e+00
0	 6.928571e+00	 4.642857e+00	 9.770221e+00
0	 7.000000e+00	 4.285714e+00	 9.807951e+00
0	 7.000000e+00	 4.357143e+00	 9.806118e+00
0	 7.000000e+00	 4.428571e+00	 9.803779e+00
0	 7.000000e+00	 4.500000e+00	 9.800936e+00
0	 7.000000e+00	 4.571429e+00	 9.797587e+00
0	 7.000000e+00	 4.642857e+00	 9.793733e+00
0	 7.071429e+00	 4.285714e+00	 9.833511e+00
0	 7.071429e+00	 4.357143e+00	 9.831167e+00
0	 7.071429e+00	 4.428571e+00	 9.828336e+00
0	 7.071429e+00	 4.500000e+00	 9.825020e+00
0	 7.071429e+00	 4.571429e+00	 9.821216e+00
0	 7.071429e+00	 4.642857e+00	 9.816926e+00
0	 7.142857e+00	 4.285714e+00	 9.858652e+00
0	 7.142857e+00	 4.357143e+00	 9.855817e+00
0	 7.142857e+00	 4.428571e+00	 9.852515e+00
0	 7.142857e+00	 4.500000e+00	 9.848744e+00
0	 7.142857e+00	 4.571429e+00	 9.844506e+00
0	 7.142857e+00	 4.642857e+00	 9.839799e+00
0	 6.785714e+00	 4.642857e+00	 9.722236e+00
0	 6.785714e+00	 4.714286e+00	 9.724012e+00
0	 6.785714e+00	 4.785714e+00	 9.725311e+00
0	 6.785714e+00	 4.857143e+00	 9.726133e+00
0	 6.785714e+00	 4.928571e+00	 9.726477e+00
0	 6.785714e+00	 5.000000e+00	 9.726343e+00
0	 6.857143e+00	 4.642857e+00	 9.746388e+00
0	 6.857143e+00	 4.714286e+00	 9.747578e+00
0	 6.857143e+00	 4.785714e+00	 9.748304e+00
0	 6.857143e+00	 4.857143e+00	 9.748566e+00
0	 6.857143e+00	 4.928571e+00	 9.748365e+00
0	 6.857143e+00	 5.000000e+00	 9.747700e+00
0	 6.928571e+00	 4.642857e+00	 9.770221e+00
0	 6.928571e+00	 4.714286e+00	 9.770842e+00
0	 6.928571e+00	 4.785714e+00	 9.771014e+00
0	 6.928571e+00	 4.857143e+00	 9.770736e+00
0	 6.928571e+00	 4.928571e+00	 9.770008e+00
0	 6.928571e+00	 5.000000e+00	 9.768830e+00
0	 7.000000e+00	 4.642857e+00	 9.793733e+00
0	 7.000000e+00	 4.714286e+00	 9.793805e+00
0	 7.000000e+00	 4.785714e+00	 9.793442e+00
0	 7.000000e+00	 4.857143e+00	 9.792642e+00
0	 7.000000e+00	 4.928571e+00	 9.791406e+00
0	 7.000000e+00	 5.000000e+00	 9.789735e+00
0	 7.071429e+00	 4.642857e+00	 9.816926e+00
0	 7.071429e+00	 4.714286e+00	 9.816468e+00
0	 7.071429e+00	 4.785714e+00	 9.815587e+00
0	 7.071429e+00	 4.857143e+00	 9.814285e+00
0	 7.071429e+00	 4.928571e+00	 9.812560e+00
0	 7.071429e+00	 5.000000e+00	 9.810414e+00
0	 7.142857e+00	 4.642857e+00	 9.839799e+00
0	 7.142857e+00	 4.714286e+00	 9.838829e+00
0	 7.142857e+00	 4.785714e+00	 9.837451e+00
0	 7.142857e+00	 4.857143e+00	 9.835664e+00
0	 7.142857e+00	 4.928571e+00	 9.833470e+00
0	 7.142857e+00	 5.000000e+00	 9.830867e+00
0	 6.785714e+00	 5.000000e+00	 9.726343e+00
0	 6.785714e+00	 5.071429e+00	 9.729617e+00
0	 6.785714e+00	 5.142857e+00	 9.732502e+00
0	 6.785714e+00	 5.214286e+00	 9.734998e+00
0	 6.785714e+00	 5.285714e+00	 9.737104e+00
0	 6.785714e+00	 5.357143e+00	 9.738820e+00
0	 6.857143e+00	 5.000000e+00	 9.747700e+00
0	 6.857143e+00	 5.071429e+00	 9.750396e+00
0	 6.857143e+00	 5.142857e+00	 9.752713e+00
0	 6.857143e+00	 5.214286e+00	 9.754650e+00
0	 6.857143e+00	 5.285714e+00	 9.756207e+00
0	 6.857143e+00	 5.357143e+00	 9.757385e+00
0	 6.928571e+00	 5.000000e+00	 9.768830e+00
0	 6.928571e+00	 5.071429e+00	 9.770966e+00
0	 6.928571e+00	 5.142857e+00	 9.772731e+00
0	 6.928571e+00	 5.214286e+00	 9.774126e+00
0	 6.928571e+00	 5.285714e+00	 9.775151e+00
0	 6.928571e+00	 5.357143e+00	 9.775806e+00
0	 7.000000e+00	 5.000000e+00	 9.789735e+00
0	 7.000000e+00	 5.071429e+00	 9.791326e+00
0	 7.000000e+00	 5.142857e+00	 9.792556e+00
0	 7.000000e+00	 5.214286e+00	 9.793426e+00
0	 7.000000e+00	 5.285714e+00	 9.793936e+00
0	 7.000000e+00	 5.357143e+00	 9.794084e+00
0	 7.071429e+00	 5.000000e+00	 9.810414e+00
0	 7.071429e+00	 5.071429e+00	 9.811477e+00
0	 7.071429e+00	 5.142857e+00	 9.812189e+00
0	 7.071429e+00	 5.214286e+00	 9.812550e+00
0	 7.071429e+00	 5.285714e+00	 9.812560e+00
0	 7.071429e+00	 5.357143e+00	 9.812219e+00
0	 7.142857e+00	 5.000000e+00	 9.830867e+00
0	 7.142857e+00	 5.071429e+00	 9.831418e+00
0	 7.142857e+00	 5.142857e+00	 9.831628e+00
0	 7.142857e+00	 5.214286e+00	 9.831497e+00
0	 7.142857e+00	 5.285714e+00	 9.831025e+00
0	 7.142857e+00	 5.357143e+00	 9.830211e+00
0	 6.785714e+00	 5.357143e+00	 9.738820e+00
0	 6.785714e+00	 5.428571e+00	 9.743169e+00
0	 6.785714e+00	 5.500000e+00	 9.747214e+00
0	 6.785714e+00	 5.571429e+00	 9.750956e+00
0	 6.785714e+00	 5.642857e+00	 9.754393e+00
0	 6.785714e+00	 5.714286e+00	 9.757528e+00
0	 6.857143e+00	 5.357143e+00	 9.757385e+00
0	 6.857143e+00	 5.428571e+00	 9.761185e+00
0	 6.857143e+00	 5.500000e+00	 9.764687e+00
0	 6.857143e+00	 5.571429e+00	 9.767892e+00
0	 6.857143e+00	 5.642857e+00	 9.770799e+00
0	 6.857143e+00	 5.714286e+00	 9.773409e+00
0	 6.928571e+00	 5.357143e+00	 9.775806e+00
0	 6.928571e+00	 5.428571e+00	 9.779071e+00
0	 6.928571e+00	 5.500000e+00	 9.782044e+00
0	 6.928571e+00	 5.571429e+00	 9.784726e+00
0	 6.928571e+00	 5.642857e+00	 9.787116e+00
0	 6.928571e+00	 5.714286e+00	 9.789215e+00
0	 7.000000e+00	 5.357143e+00	 9.794084e+00
0	 7.000000e+00	 5.428571e+00	 9.796827e+00
0	 7.000000e+00	 5.500000e+00	 9.799284e+00
0	 7.000000e+00	 5.571429e+00	 9.801456e+00
0	 7.000000e+00	 5.642857e+00	 9.803343e+00
0	 7.000000e+00	 5.714286e+00	 9.804944e+00
0	 7.071429e+00	 5.357143e+00	 9.812219e+00
0	 7.071429e+00	 5.428571e+00	 9.814454e+00
0	 7.071429e+00	 5.500000e+00	 9.816409e+00
0	 7.071429e+00	 5.571429e+00	 9.818084e+00
0	 7.071429e+00	 5.642857e+00	 9.819481e+00
0	 7.071429e+00	 5.714286e+00	 9.820598e+00
0	 7.142857e+00	 5.357143e+00	 9.830211e+00
0	 7.142857e+00	 5.428571e+00	 9.831951e+00
0	 7.142857e+00	 5.500000e+00	 9.833417e+00
0	 7.142857e+00	 5.571429e+00	 9.834609e+00
0	 7.142857e+00	 5.642857e+00	 9.835529e+00
0	 7.142857e+00	 5.714286e+00	 9.836175e+00
0	 6.785714e+00	 5.714286e+00	 9.757528e+00
0	 6.785714e+00	 5.785714e+00	 9.762585e+00
0	 6.785714e+00	 5.857143e+00	 9.767417e+00
0	 6.785714e+00	 5.928571e+00	 9.772025e+00
0	 6.785714e+00	 6.000000e+00	 9.776409e+00
0	 6.785714e+00	 6.071429e+00	 9.780568e+00
0	 6.857143e+00	 5.714286e+00	 9.773409e+00
0	 6.857143e+00	 5.785714e+00	 9.777958e+00
0	 6.857143e+00	 5.857143e+00	 9.782286e+00
0	 6.857143e+00	 5.928571e+00	 9.786393e+00
0	 6.857143e+00	 6.000000e+00	 9.790278e+00
0	 6.857143e+00	 6.071429e+00	 9.793942e+00
0	 6.928571e+00	 5.714286e+00	 9.789215e+00
0	 6.928571e+00	 5.785714e+00	 9.793266e+00
0	 6.928571e+00	 5.857143e+00	 9.797099e+00
0	 6.928571e+00	 5.928571e+00	 9.800715e+00
0	 6.928571e+00	 6.000000e+00	 9.804112e+00
0	 6.928571e+00	 6.071429e+00	 9.807292e+00
0	 7.000000e+00	 5.714286e+00	 9.804944e+00
0	 7.000000e+00	 5.785714e+00	 9.808508e+00
0	 7.000000e+00	 5.857143e+00	 9.811857e+00
0	 7.000000e+00	 5.928571e+00	 9.814992e+00
0	 7.000000e+00	 6.000000e+00	 9.817912e+00
0	 7.000000e+00	 6.071429e+00	 9.820617e+00
0	 7.071429e+00	 5.714286e+00	 9.820598e+00
0	 7.071429e+00	 5.785714e+00	 9.823684e+00
0	 7.071429e+00	 5.857143e+00	 9.826560e+00
0	 7.071429e+00	 5.928571e+00	 9.829224e+00
0	 7.071429e+00	 6.000000e+00	 9.831676e+00
0	 7.071429e+00	 6.071429e+00	 9.833917e+00
0	 7.142857e+00	 5.714286e+00	 9.836175e+00
0	 7.142857e+00	 5.785714e+00	 9.838795e+00
0	 7.142857e+00	 5.857143e+00	 9.841207e+00
0	 7.142857e+00	 5.928571e+00	 9.843411e+00
0	 7.142857e+00	 6.000000e+00	 9.845406e+00
0	 7.142857e+00	 6.071429e+00	 9.847194e+00
0	 6.785714e+00	 6.071429e+00	 9.780568e+00
0	 6.785714e+00	 6.142857e+00	 9.786027e+00
0	 6.785714e+00	 6.214286e+00	 9.791332e+00
0	 6.785714e+00	 6.285714e+00	 9.796483e+00
0	 6.785714e+00	 6.357143e+00	 9.801480e+00
0	 6.785714e+00	 6.428571e+00	 9.806323e+00
0	 6.857143e+00	 6.071429e+00	 9.793942e+00
0	 6.857143e+00	 6.142857e+00	 9.798940e+00
0	 6.857143e+00	 6.214286e+00	 9.803786e+00
0	 6.857143e+00	 6.285714e+00	 9.808479e+00
0	 6.857143e+00	 6.357143e+00	 9.813019e+00
0	 6.857143e+00	 6.428571e+00	 9.817406e+00
0	 6.928571e+00	 6.071429e+00	 9.807292e+00
0	 6.928571e+00	 6.142857e+00	 9.811837e+00
0	 6.928571e+00	 6.214286e+00	 9.816230e+00
0	 6.928571e+00	 6.285714e+00	 9.820472e+00
0	 6.928571e+00	 6.357143e+00	 9.824563e+00
0	 6.928571e+00	 6.428571e+00	 9.828501e+00
0	 7.000000e+00	 6.071429e+00	 9.820617e+00
0	 7.000000e+00	 6.142857e+00	 9.824716e+00
0	 7.000000e+00	 6.214286e+00	 9.828665e+00
0	 7.000000e+00	 6.285714e+00	 9.832463e+00
0	 7.000000e+00	 6.357143e+00	 9.836111e+00
0	 7.000000e+00	 6.428571e+00	 9.839609e+00
0	 7.071429e+00	 6.071429e+00	 9.833917e+00
0	 7.071429e+00	 6.142857e+00	 9.837578e+00
0	 7.071429e+00	 6.214286e+00	 9.841090e+00
0	 7.071429e+00	 6.285714e+00	 9.844452e+00
0	 7.071429e+00	 6.357143e+00	 9.847665e+00
0	 7.071429e+00	 6.428571e+00	 9.850728e+00
0	 7.142857e+00	 6.071429e+00	 9.847194e+00
0	 7.142857e+00	 6.142857e+00	 9.850424e+00
0	 7.142857e+00	 6.214286e+00	 9.853505e+00
0	 7.142857e+00	 6.285714e+00	 9.856439e+00
0	 7.142857e+00	 6.357143e+00	 9.859224e+00
0	 7.142857e+00	 6.428571e+00	 9.861861e+00
0	 6.785714e+00	 6.428571e+00	 9.806323e+00
0	 6.785714e+00	 6.500000e+00	 9.811935e+00
0	 6.785714e+00	 6.571429e+00	 9.817454e+00
0	 6.785714e+00	 6.642857e+00	 9.822881e+00
0	 6.785714e+00	 6.714286e+00	 9.828216e+00
0	 6.785714e+00	 6.785714e+00	 9.833458e+00
0	 6.857143e+00	 6.428571e+00	 9.817406e+00
0	 6.857143e+00	 6.500000e+00	 9.822606e+00
0	 6.857143e+00	 6.571429e+00	 9.827714e+00
0	 6.857143e+00	 6.642857e+00	 9.832729e+00
0	 6.857143e+00	 6.714286e+00	 9.837652e+00
0	 6.857143e+00	 6.785714e+00	 9.842482e+00
0	 6.928571e+00	 6.428571e+00	 9.828501e+00
0	 6.928571e+00	 6.500000e+00	 9.833296e+00
0	 6.928571e+00	 6.571429e+00	 9.837997e+00
0	 6.928571e+00	 6.642857e+00	 9.842605e+00
0	 6.928571e+00	 6.714286e+00	 9.847120e+00
0	 6.928571e+00	 6.785714e+00	 9.851542e+00
0	 7.000000e+00	 6.428571e+00	 9.839609e+00
0	 7.000000e+00	 6.500000e+00	 9.844002e+00
0	 7.000000e+00	 6.571429e+00	 9.848302e+00
0	 7.000000e+00	 6.642857e+00	 9.852508e+00
0	 7.000000e+00	 6.714286e+00	 9.856621e+00
0	 7.000000e+00	 6.785714e+00	 9.860640e+00
0	 7.071429e+00	 6.428571e+00	 9.850728e+00
0	 7.071429e+00	 6.500000e+00	 9.854726e+00
0	 7.071429e+00	 6.571429e+00	 9.858629e+00
0	 7.071429e+00	 6.642857e+00	 9.862438e+00
0	 7.071429e+00	 6.714286e+00	 9.866153e+00
0	 7.071429e+00	 6.785714e+00	 9.869775e+00
0	 7.142857e+00	 6.428571e+00	 9.861861e+00
0	 7.142857e+00	 6.500000e+00	 9.865467e+00
0	 7.142857e+00	 6.571429e+00	 9.868978e+00
0	 7.142857e+00	 6.642857e+00	 9.872396e+00
0	 7.142857e+00	 6.714286e+00	 9.875718e+00
0	 7.142857e+00	 6.785714e+00	 9.878947e+00
0	 6.785714e+00	 6.785714e+00	 9.833458e+00
0	 6.785714e+00	 6.857143e+00	 9.839020e+00
0	 6.785714e+00	 6.928571e+00	 9.844544e+00
0	 6.785714e+00	 7.000000e+00	 9.850029e+00
0	 6.785714e+00	 7.071429e+00	 9.855477e+00
0	 6.785714e+00	 7.142857e+00	 9.860885e+00
0	 6.857143e+00	 6.785714e+00	 9.842482e+00
0	 6.857143e+00	 6.857143e+00	 9.847682e+00
0	 6.857143e+00	 6.928571e+00	 9.852842e+00
0	 6.857143e+00	 7.000000e+00	 9.857962e+00
0	 6.857143e+00	 7.071429e+00	 9.863042e+00
0	 6.857143e+00	 7.142857e+00	 9.868082e+00
0	 6.928571e+00	 6.785714e+00	 9.851542e+00
0	 6.928571e+00	 6.857143e+00	 9.856383e+00
0	 6.928571e+00	 6.928571e+00	 9.861183e+00
0	 6.928571e+00	 7.000000e+00	 9.865941e+00
0	 6.928571e+00	 7.071429e+00	 9.870657e+00
0	 6.928571e+00	 7.142857e+00	 9.875331e+00
0	 7.000000e+00	 6.785714e+00	 9.860640e+00
0	 7.000000e+00	 6.857143e+00	 9.865125e+00
0	 7.000000e+00	 6.928571e+00	 9.869567e+00
0	 7.000000e+00	 7.000000e+00	 9.873966e+00
0	 7.000000e+00	 7.071429e+00	 9.878321e+00
0	 7.000000e+00	 7.142857e+00	 9.882633e+00
0	 7.071429e+00	 6.785714e+00	 9.869775e+00
0	 7.071429e+00	 6.857143e+00	 9.873907e+00
0	 7.071429e+00	 6.928571e+00	 9.877995e+00
0	 7.071429e+00	 7.000000e+00	 9.882037e+00
0	 7.071429e+00	 7.071429e+00	 9.886035e+00
0	 7.071429e+00	 7.142857e+00	 9.889988e+00
0	 7.142857e+00	 6.785714e+00	 9.878947e+00
0	 7.142857e+00	 6.857143e+00	 9.882729e+00
0	 7.142857e+00	 6.928571e+00	 9.886465e+00
0	 7.142857e+00	 7.000000e+00	 9.890155e+00
0	 7.142857e+00	 7.071429e+00	 9.893798e+00
0	 7.142857e+00	 7.142857e+00	 9.897394e+00
0	 6.785714e+00	 7.142857e+00	 9.860885e+00
0	 6.785714e+00	 7.214286e+00	 9.866234e+00
0	 6.785714e+00	 7.285714e+00	 9.871592e+00
0	 6.785714e+00	 7.357143e+00	 9.876958e+00
0	 6.785714e+00	 7.428571e+00	 9.882334e+00
0	 6.785714e+00	 7.500000e+00	 9.887719e+00
0	 6.857143e+00	 7.142857e+00	 9.868082e+00
0	 6.857143e+00	 7.214286e+00	 9.873115e+00
0	 6.857143e+00	 7.285714e+00	 9.878154e+00
0	 6.857143e+00	 7.357143e+00	 9.883200e+00
0	 6.857143e+00	 7.428571e+00	 9.888252e+00
0	 6.857143e+00	 7.500000e+00	 9.893310e+00
0	 6.928571e+00	 7.142857e+00	 9.875331e+00
0	 6.928571e+00	 7.214286e+00	 9.880050e+00
0	 6.928571e+00	 7.285714e+00	 9.884773e+00
0	 6.928571e+00	 7.357143e+00	 9.889500e+00
0	 6.928571e+00	 7.428571e+00	 9.894230e+00
0	 6.928571e+00	 7.500000e+00	 9.898964e+00
0	 7.000000e+00	 7.142857e+00	 9.882633e+00
0	 7.000000e+00	 7.214286e+00	 9.887040e+00
0	 7.000000e+00	 7.285714e+00	 9.891448e+00
0	 7.000000e+00	 7.357143e+00	 9.895857e+00
0	 7.000000e+00	 7.428571e+00	 9.900267e+00
0	 7.000000e+00	 7.500000e+00	 9.904679e+00
0	 7.071429e+00	 7.142857e+00	 9.889988e+00
0	 7.071429e+00	 7.214286e+00	 9.894084e+00
0	 7.071429e+00	 7.285714e+00	 9.898179e+00
0	 7.071429e+00	 7.357143e+00	 9.902273e+00
0	 7.071429e+00	 7.428571e+00	 9.906365e+00
0	 7.071429e+00	 7.500000e+00	 9.910456e+00
0	 7.142857e+00	 7.142857e+00	 9.897394e+00
0	 7.142857e+00	 7.214286e+00	 9.901182e+00
0	 7.142857e+00	 7.285714e+00	 9.904966e+00
0	 7.142857e+00	 7.357143e+00	 9.908746e+00
0	 7.142857e+00	 7.428571e+00	 9.912522e+00
0	 7.142857e+00	 7.500000e+00	 9.916294e+00
0	 6.785714e+00	 7.500000e+00	 9.887719e+00
0	 6.785714e+00	 7.571429e+00	 9.892715e+00
0	 6.785714e+00	 7.642857e+00	 9.897764e+00
0	 6.785714e+00	 7.714286e+00	 9.902863e+00
0	 6.785714e+00	 7.785714e+00	 9.908015e+00
0	 6.785714e+00	 7.857143e+00	 9.913217e+00
0	 6.857143e+00	 7.500000e+00	 9.893310e+00
0	 6.857143e+00	 7.571429e+00	 9.898034e+00
0	 6.857143e+00	 7.642857e+00	 9.902806e+00
0	 6.857143e+00	 7.714286e+00	 9.907626e+00
0	 6.857143e+00	 7.785714e+00	 9.912494e+00
0	 6.857143e+00	 7.857143e+00	 9.917410e+00
0	 6.928571e+00	 7.500000e+00	 9.898964e+00
0	 6.928571e+00	 7.571429e+00	 9.903416e+00
0	 6.928571e+00	 7.642857e+00	 9.907912e+00
0	 6.928571e+00	 7.714286e+00	 9.912453e+00
0	 6.928571e+00	 7.785714e+00	 9.917039e+00
0	 6.928571e+00	 7.857143e+00	 9.921670e+00
0	 7.000000e+00	 7.500000e+00	 9.904679e+00
0	 7.000000e+00	 7.571429e+00	 9.908860e+00
0	 7.000000e+00	 7.642857e+00	 9.913082e+00
0	 7.000000e+00	 7.714286e+00	 9.917345e+00
0	 7.000000e+00	 7.785714e+00	 9.921650e+00
0	 7.000000e+00	 7.857143e+00	 9.925997e+00
0	 7.071429e+00	 7.500000e+00	 9.910456e+00
0	 7.071429e+00	 7.571429e+00	 9.914367e+00
0	 7.071429e+00	 7.642857e+00	 9.918315e+00
0	 7.071429e+00	 7.714286e+00	 9.922302e+00
0	 7.071429e+00	 7.785714e+00	 9.926327e+00
0	 7.071429e+00	 7.857143e+00	 9.930391e+00
0	 7.142857e+00	 7.500000e+00	 9.916294e+00
0	 7.142857e+00	 7.571429e+00	 9.919936e+00
0	 7.142857e+00	 7.642857e+00	 9.923613e+00
0	 7.142857e+00	 7.714286e+00	 9.927325e+00
0	 7.142857e+00	 7.785714e+00	 9.931071e+00
0	 7.142857e+00	 7.857143e+00	 9.934852e+00
0	 6.785714e+00	 7.857143e+00	 9.913217e+00
0	 6.785714e+00	 7.928571e+00	 9.917737e+00
0	 6.785714e+00	 8.000000e+00	 9.922349e+00
0	 6.785714e+00	 8.071429e+00	 9.927051e+00
0	 6.785714e+00	 8.142857e+00	 9.931845e+00
0	 6.785714e+00	 8.214286e+00	 9.936731e+00
0	 6.857143e+00	 7.857143e+00	 9.917410e+00
0	 6.857143e+00	 7.928571e+00	 9.921696e+00
0	 6.857143e+00	 8.000000e+00	 9.926069e+00
0	 6.857143e+00	 8.071429e+00	 9.930530e+00
0	 6.857143e+00	 8.142857e+00	 9.935077e+00
0	 6.857143e+00	 8.214286e+00	 9.939712e+00
0	 6.928571e+00	 7.857143e+00	 9.921670e+00
0	 6.928571e+00	 7.928571e+00	 9.925723e+00
0	 6.928571e+00	 8.000000e+00	 9.929859e+00
0	 6.928571e+00	 8.071429e+00	 9.934078e+00
0	 6.928571e+00	 8.142857e+00	 9.938380e+00
0	 6.928571e+00	 8.214286e+00	 9.942765e+00
0	 7.000000e+00	 7.857143e+00	 9.925997e+00
0	 7.000000e+00	 7.928571e+00	 9.929817e+00
0	 7.000000e+00	 8.000000e+00	 9.933717e+00
0	 7.000000e+00	 8.071429e+00	 9.937695e+00
0	 7.000000e+00	 8.142857e+00	 9.941753e+00
0	 7.000000e+00	 8.214286e+00	 9.945889e+00
0	 7.071429e+00	 7.857143e+00	 9.930391e+00
0	 7.071429e+00	 7.928571e+00	 9.933980e+00
0	 7.071429e+00	 8.000000e+00	 9.937644e+00
0	 7.071429e+00	 8.071429e+00	 9.941383e+00
0	 7.071429e+00	 8.142857e+00	 9.945197e+00
0	 7.071429e+00	 8.214286e+00	 9.949085e+00
0	 7.142857e+00	 7.857143e+00	 9.934852e+00
0	 7.142857e+00	 7.928571e+00	 9.938211e+00
0	 7.142857e+00	 8.000000e+00	 9.941640e+00
0	 7.142857e+00	 8.071429e+00	 9.945140e+00
0	 7.142857e+00	 8.142857e+00	 9.948711e+00
0	 7.142857e+00	 8.214286e+00	 9.952352e+00
0	 6.785714e+00	 8.214286e+00	 9.936731e+00
0	 6.785714e+00	 8.285714e+00	 9.940652e+00
0	 6.785714e+00	 8.357143e+00	 9.944703e+00
0	 6.785714e+00	 8.428571e+00	 9.948885e+00
0	 6.785714e+00	 8.500000e+00	 9.953198e+00
0	 6.785714e+00	 8.571429e+00	 9.957641e+00
0	 6.857143e+00	 8.214286e+00	 9.939712e+00
0	 6.857143e+00	 8.285714e+00	 9.943436e+00
0	 6.857143e+00	 8.357143e+00	 9.947285e+00
0	 6.857143e+00	 8.428571e+00	 9.951260e+00
0	 6.857143e+00	 8.500000e+00	 9.955360e+00
0	 6.857143e+00	 8.571429e+00	 9.959585e+00
0	 6.928571e+00	 8.214286e+00	 9.942765e+00
0	 6.928571e+00	 8.285714e+00	 9.946293e+00
0	 6.928571e+00	 8.357143e+00	 9.949941e+00
0	 6.928571e+00	 8.428571e+00	 9.953709e+00
0	 6.928571e+00	 8.500000e+00	 9.957597e+00
0	 6.928571e+00	 8.571429e+00	 9.961606e+00
0	 7.000000e+00	 8.214286e+00	 9.945889e+00
0	 7.000000e+00	 8.285714e+00	 9.949222e+00
0	 7.000000e+00	 8.357143e+00	 9.952670e+00
0	 7.000000e+00	 8.428571e+00	 9.956233e+00
0	 7.000000e+00	 8.500000e+00	 9.959910e+00
0	 7.000000e+00	 8.571429e+00	 9.963703e+00
0	 7.071429e+00	 8.214286e+00	 9.949085e+00
0	 7.071429e+00	 8.285714e+00	 9.952224e+00
0	 7.071429e+00	 8.357143e+00	 9.955472e+00
0	 7.071429e+00	 8.428571e+00	 9.958830e+00
0	 7.071429e+00	 8.500000e+00	 9.962299e+00
0	 7.071429e+00	 8.571429e+00	 9.965876e+00
0	 7.142857e+00	 8.214286e+00	 9.952352e+00
0	 7.142857e+00	 8.285714e+00	 9.955298e+00
0	 7.142857e+00	 8.357143e+00	 9.958348e+00
0	 7.142857e+00	 8.428571e+00	 9.961503e+00
0	 7.142857e+00	 8.500000e+00	 9.964762e+00
0	 7.142857e+00	 8.571429e+00	 9.968126e+00
0	 6.785714e+00	 8.571429e+00	 9.957641e+00
0	 6.785714e+00	 8.642857e+00	 9.960836e+00
0	 6.785714e+00	 8.714286e+00	 9.964201e+00
0	 6.785714e+00	 8.785714e+00	 9.967737e+00
0	 6.785714e+00	 8.857143e+00	 9.971443e+00
0	 6.785714e+00	 8.928571e+00	 9.975320e+00
0	 6.857143e+00	 8.571429e+00	 9.959585e+00
0	 6.857143e+00	 8.642857e+00	 9.962619e+00
0	 6.857143e+00	 8.714286e+00	 9.965817e+00
0	 6.857143e+00	 8.785714e+00	 9.969180e+00
0	 6.857143e+00	 8.857143e+00	 9.972706e+00
0	 6.857143e+00	 8.928571e+00	 9.976396e+00
0	 6.928571e+00	 8.571429e+00	 9.961606e+00
0	 6.928571e+00	 8.642857e+00	 9.964481e+00
0	 6.928571e+00	 8.714286e+00	 9.967513e+00
0	 6.928571e+00	 8.785714e+00	 9.970703e+00
0	 6.928571e+00	 8.857143e+00	 9.974050e+00
0	 6.928571e+00	 8.928571e+00	 9.977554e+00
0	 7.000000e+00	 8.571429e+00	 9.963703e+00
0	 7.000000e+00	 8.642857e+00	 9.966420e+00
0	 7.000000e+00	 8.714286e+00	 9.969288e+00
0	 7.000000e+00	 8.785714e+00	 9.972306e+00
0	 7.000000e+00	 8.857143e+00	 9.975476e+00
0	 7.000000e+00	 8.928571e+00	 9.978796e+00
0	 7.071429e+00	 8.571429e+00	 9.965876e+00
0	 7.071429e+00	 8.642857e+00	 9.968437e+00
0	 7.071429e+00	 8.714286e+00	 9.971142e+00
0	 7.071429e+00	 8.785714e+00	 9.973991e+00
0	 7.071429e+00	 8.857143e+00	 9.976984e+00
0	 7.071429e+00	 8.928571e+00	 9.980121e+00
0	 7.142857e+00	 8.571429e+00	 9.968126e+00
0	 7.142857e+00	 8.642857e+00	 9.970532e+00
0	 7.142857e+00	 8.714286e+00	 9.973074e+00
0	 7.142857e+00	 8.785714e+00	 9.975755e+00
0	 7.142857e+00	 8.857143e+00	 9.978573e+00
0	 7.142857e+00	 8.928571e+00	 9.981529e+00
0	 6.785714e+00	 8.928571e+00	 9.975320e+00
0	 6.785714e+00	 9.000000e+00	 9.977644e+00
0	 6.785714e+00	 9.071429e+00	 9.980180e+00
0	 6.785714e+00	 9.142857e+00	 9.982931e+00
0	 6.785714e+00	 9.214286e+00	 9.985895e+00
0	 6.785714e+00	 9.285714e+00	 9.989072e+00
0	 6.857143e+00	 8.928571e+00	 9.976396e+00
0	 6.857143e+00	 9.000000e+00	 9.978598e+00
0	 6.857143e+00	 9.071429e+00	 9.981005e+00
0	 6.857143e+00	 9.142857e+00	 9.983617e+00
0	 6.857143e+00	 9.214286e+00	 9.986434e+00
0	 6.857143e+00	 9.285714e+00	 9.989456e+00
0	 6.928571e+00	 8.928571e+00	 9.977554e+00
0	 6.928571e+00	 9.000000e+00	 9.979638e+00
0	 6.928571e+00	 9.071429e+00	 9.981917e+00
0	 6.928571e+00	 9.142857e+00	 9.984392e+00
0	 6.928571e+00	 9.214286e+00	 9.987064e+00
0	 6.928571e+00	 9.285714e+00	 9.989932e+00
0	 7.000000e+00	 8.928571e+00	 9.978796e+00
0	 7.000000e+00	 9.000000e+00	 9.980762e+00
0	 7.000000e+00	 9.071429e+00	 9.982916e+00
0	 7.000000e+00	 9.142857e+00	 9.985256e+00
0	 7.000000e+00	 9.214286e+00	 9.987785e+00
0	 7.000000e+00	 9.285714e+00	 9.990501e+00
0	 7.071429e+00	 8.928571e+00	 9.980121e+00
0	 7.071429e+00	 9.000000e+00	 9.981972e+00
0	 7.071429e+00	 9.071429e+00	 9.984001e+00
0	 7.071429e+00	 9.142857e+00	 9.986209e+00
0	 7.071429e+00	 9.214286e+00	 9.988596e+00
0	 7.071429e+00	 9.285714e+00	 9.991162e+00
0	 7.142857e+00	 8.928571e+00	 9.981529e+00
0	 7.142857e+00	 9.000000e+00	 9.983266e+00
0	 7.142857e+00	 9.071429e+00	 9.985174e+00
0	 7.142857e+00	 9.142857e+00	 9.987251e+00
0	 7.142857e+00	 9.214286e+00	 9.989499e+00
0	 7.142857e+00	 9.285714e+00	 9.991916e+00
0	 6.785714e+00	 9.285714e+00	 9.989072e+00
0	 6.785714e+00	 9.357143e+00	 9.990366e+00
0	 6.785714e+00	 9.428571e+00	 9.991921e+00
0	 6.785714e+00	 9.500000e+00	 9.993737e+00
0	 6.785714e+00	 9.571429e+00	 9.995814e+00
0	 6.785714e+00	 9.642857e+00	 9.998151e+00
0	 6.857143e+00	 9.285714e+00	 9.989456e+00
0	 6.857143e+00	 9.357143e+00	 9.990675e+00
0	 6.857143e+00	 9.428571e+00	 9.992144e+00
0	 6.857143e+00	 9.500000e+00	 9.993862e+00
0	 6.857143e+00	 9.571429e+00	 9.995829e+00
0	 6.857143e+00	 9.642857e+00	 9.998044e+00
0	 6.928571e+00	 9.285714e+00	 9.989932e+00
0	 6.928571e+00	 9.357143e+00	 9.991080e+00
0	 6.928571e+00	 9.428571e+00	 9.992465e+00
0	 6.928571e+00	 9.500000e+00	 9.994087e+00
0	 6.928571e+00	 9.571429e+00	 9.995946e+00
0	 6.928571e+00	 9.642857e+00	 9.998043e+00
0	 7.000000e+00	 9.285714e+00	 9.990501e+00
0	 7.000000e+00	 9.357143e+00	 9.991579e+00
0	 7.000000e+00	 9.428571e+00	 9.992883e+00
0	 7.000000e+00	 9.500000e+00	 9.994412e+00
0	 7.000000e+00	 9.571429e+00	 9.996167e+00
0	 7.000000e+00	 9.642857e+00	 9.998147e+00
0	 7.071429e+00	 9.285714e+00	 9.991162e+00
0	 7.071429e+00	 9.357143e+00	 9.992173e+00
0	 7.071429e+00	 9.428571e+00	 9.993398e+00
0	 7.071429e+00	 9.500000e+00	 9.994837e+00
0	 7.071429e+00	 9.571429e+00	 9.996490e+00
0	 7.071429e+00	 9.642857e+00	 9.998356e+00
0	 7.142857e+00	 9.285714e+00	 9.991916e+00
0	 7.142857e+00	 9.357143e+00	 9.992863e+00
0	 7.142857e+00	 9.428571e+00	 9.994012e+00
0	 7.142857e+00	 9.500000e+00	 9.995362e+00
0	 7.142857e+00	 9.571429e+00	 9.996915e+00
0	 7.142857e+00	 9.642857e+00	 9.998670e+00
0	 6.785714e+00	 9.642857e+00	 9.998151e+00
0	 6.785714e+00	 9.714286e+00	 9.998193e+00
0	 6.785714e+00	 9.785714e+00	 9.998550e+00
0	 6.785714e+00	 9.857143e+00	 9.999221e+00
0	 6.785714e+00	 9.928571e+00	 1.000021e+01
0	 6.785714e+00	 1.000000e+01	 1.000151e+01
0	 6.857143e+00	 9.642857e+00	 9.998044e+00
0	 6.857143e+00	 9.714286e+00	 9.998076e+00
0	 6.857143e+00	 9.785714e+00	 9.998405e+00
0	 6.857143e+00	 9.857143e+00	 9.999033e+00
0	 6.857143e+00	 9.928571e+00	 9.999959e+00
0	 6.857143e+00	 1.000000e+01	 1.000118e+01
0	 6.928571e+00	 9.642857e+00	 9.998043e+00
0	 6.928571e+00	 9.714286e+00	 9.998067e+00
0	 6.928571e+00	 9.785714e+00	 9.998372e+00
0	 6.928571e+00	 9.857143e+00	 9.998960e+00
0	 6.928571e+00	 9.928571e+00	 9.999829e+00
0	 6.928571e+00	 1.000000e+01	 1.000098e+01
0	 7.000000e+00	 9.642857e+00	 9.998147e+00
0	 7.000000e+00	 9.714286e+00	 9.998166e+00
0	 7.000000e+00	 9.785714e+00	 9.998451e+00
0	 7.000000e+00	 9.857143e+00	 9.999002e+00
0	 7.000000e+00	 9.928571e+00	 9.999818e+00
0	 7.000000e+00	 1.000000e+01	 1.000090e+01
0	 7.071429e+00	 9.642857e+00	 9.998356e+00
0	 7.071429e+00	 9.714286e+00	 9.998374e+00
0	 7.071429e+00	 9.785714e+00	 9.998642e+00
0	 7.071429e+00	 9.857143e+00	 9.999159e+00
0	 7.071429e+00	 9.928571e+00	 9.999925e+00
0	 7.071429e+00	 1.000000e+01	 1.000094e+01
0	 7.142857e+00	 9.642857e+00	 9.998670e+00
0	 7.142857e+00	 9.714286e+00	 9.998691e+00
0	 7.142857e+00	 9.785714e+00	 9.998944e+00
0	 7.142857e+00	 9.857143e+00	 9.999431e+00
0	 7.142857e+00	 9.928571e+00	 1.000015e+01
0	 7.142857e+00	 1.000000e+01	 1.000110e+01
0	 7.142857e+00	 0.000000e+00	 1.056792e+01
0	 7.142857e+00	 7.142857e-02	 1.056336e+01
0	 7.142857e+00	 1.428571e-01	 1.055981e+01
0	 7.142857e+00	 2.142857e-01	 1.055726e+01
0	 7.142857e+00	 2.857143e-01	 1.055572e+01
0	 7.142857e+00	 3.571429e-01	 1.055518e+01
0	 7.214286e+00	 0.000000e+00	 1.058765e+01
0	 7.214286e+00	 7.142857e-02	 1.058327e+01
0	 7.214286e+00	 1.428571e-01	 1.057985e+01
0	 7.214286e+00	 2.142857e-01	 1.057739e+01
0	 7.214286e+00	 2.857143e-01	 1.057589e+01
0	 7.214286e+00	 3.571429e-01	 1.057535e+01
0	 7.285714e+00	 0.000000e+00	 1.060856e+01
0	 7.285714e+00	 7.142857e-02	 1.060435e+01
0	 7.285714e+00	 1.428571e-01	 1.060105e+01
0	 7.285714e+00	 2.142857e-01	 1.059867e+01
0	 7.285714e+00	 2.857143e-01	 1.059720e+01
0	 7.285714e+00	 3.571429e-01	 1.059665e+01
0	 7.357143e+00	 0.000000e+00	 1.063065e+01
0	 7.357143e+00	 7.142857e-02	 1.062660e+01
0	 7.357143e+00	 1.428571e-01	 1.062342e+01
0	 7.357143e+00	 2.142857e-01	 1.062110e+01
0	 7.357143e+00	 2.857143e-01	 1.061966e+01
0	 7.357143e+00	 3.571429e-01	 1.061908e+01
0	 7.428571e+00	 0.000000e+00	 1.065393e+01
0	 7.428571e+00	 7.142857e-02	 1.065002e+01
0	 7.428571e+00	 1.428571e-01	 1.064694e+01
0	 7.428571e+00	 2.142857e-01	 1.064468e+01
0	 7.428571e+00	 2.857143e-01	 1.064325e+01
0	 7.428571e+00	 3.571429e-01	 1.064264e+01
0	 7.500000e+00	 0.000000e+00	 1.067839e+01
0	 7.500000e+00	 7.142857e-02	 1.067462e+01
0	 7.500000e+00	 1.428571e-01	 1.067163e+01
0	 7.500000e+00	 2.142857e-01	 1.066942e+01
0	 7.500000e+00	 2.857143e-01	 1.066799e+01
0	 7.500000e+00	 3.571429e-01	 1.066734e+01
0	 7.142857e+00	 3.571429e-01	 1.055518e+01
0	 7.142857e+00	 4.285714e-01	 1.054595e+01
0	 7.142857e+00	 5.000000e-01	 1.053763e+01
0	 7.142857e+00	 5.714286e-01	 1.053023e+01
0	 7.142857e+00	 6.428571e-01	 1.052374e+01
0	 7.142857e+00	 7.142857e-01	 1.051817e+01
0	 7.214286e+00	 3.571429e-01	 1.057535e+01
0	 7.214286e+00	 4.285714e-01	 1.056644e+01
0	 7.214286e+00	 5.000000e-01	 1.055842e+01
0	 7.214286e+00	 5.714286e-01	 1.055127e+01
0	 7.214286e+00	 6.428571e-01	 1.054499e+01
0	 7.214286e+00	 7.142857e-01	 1.053959e+01
0	 7.285714e+00	 3.571429e-01	 1.059665e+01
0	 7.285714e+00	 4.285714e-01	 1.058805e+01
0	 7.285714e+00	 5.000000e-01	 1.058028e+01
0	 7.285714e+00	 5.714286e-01	 1.057334e+01
0	 7.285714e+00	 6.428571e-01	 1.056725e+01
0	 7.285714e+00	 7.142857e-01	 1.056199e+01
0	 7.357143e+00	 3.571429e-01	 1.061908e+01
0	 7.357143e+00	 4.285714e-01	 1.061075e+01
0	 7.357143e+00	 5.000000e-01	 1.060321e+01
0	 7.357143e+00	 5.714286e-01	 1.059647e+01
0	 7.357143e+00	 6.428571e-01	 1.059052e+01
0	 7.357143e+00	 7.142857e-01	 1.058537e+01
0	 7.428571e+00	 3.571429e-01	 1.064264e+01
0	 7.428571e+00	 4.285714e-01	 1.063455e+01
0	 7.428571e+00	 5.000000e-01	 1.062721e+01
0	 7.428571e+00	 5.714286e-01	 1.062063e+01
0	 7.428571e+00	 6.428571e-01	 1.061480e+01
0	 7.428571e+00	 7.142857e-01	 1.060974e+01
0	 7.500000e+00	 3.571429e-01	 1.066734e+01
0	 7.500000e+00	 4.285714e-01	 1.065945e+01
0	 7.500000e+00	 5.000000e-01	 1.065229e+01
0	 7.500000e+00	 5.714286e-01	 1.064583e+01
0	 7.500000e+00	 6.428571e-01	 1.064010e+01
0	 7.500000e+00	 7.142857e-01	 1.063508e+01
0	 7.142857e+00	 7.142857e-01	 1.051817e+01
0	 7.142857e+00	 7.857143e-01	 1.050510e+01
0	 7.142857e+00	 8.571429e-01	 1.049277e+01
0	 7.142857e+00	 9.285714e-01	 1.048120e+01
0	 7.142857e+00	 1.000000e+00	 1.047037e+01
0	 7.142857e+00	 1.071429e+00	 1.046028e+01
0	 7.214286e+00	 7.142857e-01	 1.053959e+01
0	 7.214286e+00	 7.857143e-01	 1.052695e+01
0	 7.214286e+00	 8.571429e-01	 1.051502e+01
0	 7.214286e+00	 9.285714e-01	 1.050381e+01
0	 7.214286e+00	 1.000000e+00	 1.049332e+01
0	 7.214286e+00	 1.071429e+00	 1.048355e+01
0	 7.285714e+00	 7.142857e-01	 1.056199e+01
0	 7.285714e+00	 7.857143e-01	 1.054973e+01
0	 7.285714e+00	 8.571429e-01	 1.053816e+01
0	 7.285714e+00	 9.285714e-01	 1.052728e+01
0	 7.285714e+00	 1.000000e+00	 1.051709e+01
0	 7.285714e+00	 1.071429e+00	 1.050758e+01
0	 7.357143e+00	 7.142857e-01	 1.058537e+01
0	 7.357143e+00	 7.857143e-01	 1.057346e+01
0	 7.357143e+00	 8.571429e-01	 1.056220e+01
0	 7.357143e+00	 9.285714e-01	 1.055160e+01
0	 7.357143e+00	 1.000000e+00	 1.054165e+01
0	 7.357143e+00	 1.071429e+00	 1.053236e+01
0	 7.428571e+00	 7.142857e-01	 1.060974e+01
0	 7.428571e+00	 7.857143e-01	 1.059812e+01
0	 7.428571e+00	 8.571429e-01	 1.058713e+01
0	 7.428571e+00	 9.285714e-01	 1.057677e+01
0	 7.428571e+00	 1.000000e+00	 1.056703e+01
0	 7.428571e+00	 1.071429e+00	 1.055791e+01
0	 7.500000e+00	 7.142857e-01	 1.063508e+01
0	 7.500000e+00	 7.857143e-01	 1.062372e+01
0	 7.500000e+00	 8.571429e-01	 1.061296e+01
0	 7.500000e+00	 9.285714e-01	 1.060278e+01
0	 7.500000e+00	 1.000000e+00	 1.059321e+01
0	 7.500000e+00	 1.071429e+00	 1.058422e+01
0	 7.142857e+00	 1.071429e+00	 1.046028e+01
0	 7.142857e+00	 1.142857e+00	 1.044450e+01
0	 7.142857e+00	 1.214286e+00	 1.042924e+01
0	 7.142857e+00	 1.285714e+00	 1.041451e+01
0	 7.142857e+00	 1.357143e+00	 1.040031e+01
0	 7.142857e+00	 1.428571e+00	 1.038663e+01
0	 7.214286e+00	 1.071429e+00	 1.048355e+01
0	 7.214286e+00	 1.142857e+00	 1.046823e+01
0	 7.214286e+00	 1.214286e+00	 1.045343e+01
0	 7.214286e+00	 1.285714e+00	 1.043913e+01
0	 7.214286e+00	 1.357143e+00	 1.042533e+01
0	 7.214286e+00	 1.428571e+00	 1.041205e+01
0	 7.285714e+00	 1.071429e+00	 1.050758e+01
0	 7.285714e+00	 1.142857e+00	 1.049268e+01
0	 7.285714e+00	 1.214286e+00	 1.047827e+01
0	 7.285714e+00	 1.285714e+00	 1.046434e+01
0	 7.285714e+00	 1.357143e+00	 1.045091e+01
0	 7.285714e+00	 1.428571e+00	 1.043797e+01
0	 7.357143e+00	 1.071429e+00	 1.053236e+01
0	 7.357143e+00	 1.142857e+00	 1.051783e+01
0	 7.357143e+00	 1.214286e+00	 1.050376e+01
0	 7.357143e+00	 1.285714e+00	 1.049016e+01
0	 7.357143e+00	 1.357143e+00	 1.047704e+01
0	 7.357143e+00	 1.428571e+00	 1.046438e+01
0	 7.428571e+00	 1.071429e+00	 1.055791e+01
0	 7.428571e+00	 1.142857e+00	 1.054369e+01
0	 7.428571e+00	 1.214286e+00	 1.052991e+01
0	 7.428571e+00	 1.285714e+00	 1.051658e+01
0	 7.428571e+00	 1.357143e+00	 1.050371e+01
0	 7.428571e+00	 1.428571e+00	 1.049129e+01
0	 7.500000e+00	 1.071429e+00	 1.058422e+01
0	 7.500000e+00	 1.142857e+00	 1.057025e+01
0	 7.500000e+00	 1.214286e+00	 1.055672e+01
0	 7.500000e+00	 1.285714e+00	 1.054361e+01
0	 7.500000e+00	 1.357143e+00	 1.053094e+01
0	 7.500000e+00	 1.428571e+00	 1.051870e+01
0	 7.142857e+00	 1.428571e+00	 1.038663e+01
0	 7.142857e+00	 1.500000e+00	 1.036940e+01
0	 7.142857e+00	 1.571429e+00	 1.035245e+01
0	 7.142857e+00	 1.642857e+00	 1.033578e+01
0	 7.142857e+00	 1.714286e+00	 1.031939e+01
0	 7.142857e+00	 1.785714e+00	 1.030329e+01
0	 7.214286e+00	 1.428571e+00	 1.041205e+01
0	 7.214286e+00	 1.500000e+00	 1.039526e+01
0	 7.214286e+00	 1.571429e+00	 1.037874e+01
0	 7.214286e+00	 1.642857e+00	 1.036249e+01
0	 7.214286e+00	 1.714286e+00	 1.034653e+01
0	 7.214286e+00	 1.785714e+00	 1.033083e+01
0	 7.285714e+00	 1.428571e+00	 1.043797e+01
0	 7.285714e+00	 1.500000e+00	 1.042156e+01
0	 7.285714e+00	 1.571429e+00	 1.040541e+01
0	 7.285714e+00	 1.642857e+00	 1.038954e+01
0	 7.285714e+00	 1.714286e+00	 1.037393e+01
0	 7.285714e+00	 1.785714e+00	 1.035860e+01
0	 7.357143e+00	 1.428571e+00	 1.046438e+01
0	 7.357143e+00	 1.500000e+00	 1.044830e+01
0	 7.357143e+00	 1.571429e+00	 1.043248e+01
0	 7.357143e+00	 1.642857e+00	 1.041692e+01
0	 7.357143e+00	 1.714286e+00	 1.040162e+01
0	 7.357143e+00	 1.785714e+00	 1.038659e+01
0	 7.428571e+00	 1.428571e+00	 1.049129e+01
0	 7.428571e+00	 1.500000e+00	 1.047548e+01
0	 7.428571e+00	 1.571429e+00	 1.045993e+01
0	 7.428571e+00	 1.642857e+00	 1.044463e+01
0	 7.428571e+00	 1.714286e+00	 1.042959e+01
0	 7.428571e+00	 1.785714e+00	 1.041481e+01
0	 7.500000e+00	 1.428571e+00	 1.051870e+01
0	 7.500000e+00	 1.500000e+00	 1.050311e+01
0	 7.500000e+00	 1.571429e+00	 1.048777e+01
0	 7.500000e+00	 1.642857e+00	 1.047268e+01
0	 7.500000e+00	 1.714286e+00	 1.045784e+01
0	 7.500000e+00	 1.785714e+00	 1.044325e+01
0	 7.142857e+00	 1.785714e+00	 1.030329e+01
0	 7.142857e+00	 1.857143e+00	 1.028585e+01
0	 7.142857e+00	 1.928571e+00	 1.026845e+01
0	 7.142857e+00	 2.000000e+00	 1.025109e+01
0	 7.142857e+00	 2.071429e+00	 1.023378e+01
0	 7.142857e+00	 2.142857e+00	 1.021650e+01
0	 7.214286e+00	 1.785714e+00	 1.033083e+01
0	 7.214286e+00	 1.857143e+00	 1.031374e+01
0	 7.214286e+00	 1.928571e+00	 1.029669e+01
0	 7.214286e+00	 2.000000e+00	 1.027969e+01
0	 7.214286e+00	 2.071429e+00	 1.026274e+01
0	 7.214286e+00	 2.142857e+00	 1.024583e+01
0	 7.285714e+00	 1.785714e+00	 1.035860e+01
0	 7.285714e+00	 1.857143e+00	 1.034180e+01
0	 7.285714e+00	 1.928571e+00	 1.032506e+01
0	 7.285714e+00	 2.000000e+00	 1.030837e+01
0	 7.285714e+00	 2.071429e+00	 1.029172e+01
0	 7.285714e+00	 2.142857e+00	 1.027513e+01
0	 7.357143e+00	 1.785714e+00	 1.038659e+01
0	 7.357143e+00	 1.857143e+00	 1.037004e+01
0	 7.357143e+00	 1.928571e+00	 1.035355e+01
0	 7.357143e+00	 2.000000e+00	 1.033712e+01
0	 7.357143e+00	 2.071429e+00	 1.032074e+01
0	 7.357143e+00	 2.142857e+00	 1.030441e+01
0	 7.428571e+00	 1.785714e+00	 1.041481e+01
0	 7.428571e+00	 1.857143e+00	 1.039846e+01
0	 7.428571e+00	 1.928571e+00	 1.038217e+01
0	 7.428571e+00	 2.000000e+00	 1.036594e+01
0	 7.428571e+00	 2.071429e+00	 1.034977e+01
0	 7.428571e+00	 2.142857e+00	 1.033367e+01
0	 7.500000e+00	 1.785714e+00	 1.044325e+01
0	 7.500000e+00	 1.857143e+00	 1.042705e+01
0	 7.500000e+00	 1.928571e+00	 1.041091e+01
0	 7.500000e+00	 2.000000e+00	 1.039484e+01
0	 7.500000e+00	 2.071429e+00	 1.037884e+01
0	 7.500000e+00	 2.142857e+00	 1.036290e+01
0	 7.142857e+00	 2.142857e+00	 1.021650e+01
0	 7.142857e+00	 2.214286e+00	 1.019994e+01
0	 7.142857e+00	 2.285714e+00	 1.018320e+01
0	 7.142857e+00	 2.357143e+00	 1.016630e+01
0	 7.142857e+00	 2.428571e+00	 1.014922e+01
0	 7.142857e+00	 2.500000e+00	 1.013197e+01
0	 7.214286e+00	 2.142857e+00	 1.024583e+01
0	 7.214286e+00	 2.214286e+00	 1.022948e+01
0	 7.214286e+00	 2.285714e+00	 1.021297e+01
0	 7.214286e+00	 2.357143e+00	 1.019631e+01
0	 7.214286e+00	 2.428571e+00	 1.017949e+01
0	 7.214286e+00	 2.500000e+00	 1.016251e+01
0	 7.285714e+00	 2.142857e+00	 1.027513e+01
0	 7.285714e+00	 2.214286e+00	 1.025895e+01
0	 7.285714e+00	 2.285714e+00	 1.024263e+01
0	 7.285714e+00	 2.357143e+00	 1.022617e+01
0	 7.285714e+00	 2.428571e+00	 1.020956e+01
0	 7.285714e+00	 2.500000e+00	 1.019282e+01
0	 7.357143e+00	 2.142857e+00	 1.030441e+01
0	 7.357143e+00	 2.214286e+00	 1.028837e+01
0	 7.357143e+00	 2.285714e+00	 1.027219e+01
0	 7.357143e+00	 2.357143e+00	 1.025589e+01
0	 7.357143e+00	 2.428571e+00	 1.023945e+01
0	 7.357143e+00	 2.500000e+00	 1.022290e+01
0	 7.428571e+00	 2.142857e+00	 1.033367e+01
0	 7.428571e+00	 2.214286e+00	 1.031771e+01
0	 7.428571e+00	 2.285714e+00	 1.030164e+01
0	 7.428571e+00	 2.357143e+00	 1.028546e+01
0	 7.428571e+00	 2.428571e+00	 1.026916e+01
0	 7.428571e+00	 2.500000e+00	 1.025275e+01
0	 7.500000e+00	 2.142857e+00	 1.036290e+01
0	 7.500000e+00	 2.214286e+00	 1.034699e+01
0	 7.500000e+00	 2.285714e+00	 1.033098e+01
0	 7.500000e+00	 2.357143e+00	 1.031488e+01
0	 7.500000e+00	 2.428571e+00	 1.029868e+01
0	 7.500000e+00	 2.500000e+00	 1.028238e+01
0	 7.142857e+00	 2.500000e+00	 1.013197e+01
0	 7.142857e+00	 2.571429e+00	 1.011712e+01
0	 7.142857e+00	 2.642857e+00	 1.010193e+01
0	 7.142857e+00	 2.714286e+00	 1.008640e+01
0	 7.142857e+00	 2.785714e+00	 1.007054e+01
0	 7.142857e+00	 2.857143e+00	 1.005433e+01
0	 7.214286e+00	 2.500000e+00	 1.016251e+01
0	 7.214286e+00	 2.571429e+00	 1.014771e+01
0	 7.214286e+00	 2.642857e+00	 1.013260e+01
0	 7.214286e+00	 2.714286e+00	 1.011717e+01
0	 7.214286e+00	 2.785714e+00	 1.010142e+01
0	 7.214286e+00	 2.857143e+00	 1.008536e+01
0	 7.285714e+00	 2.500000e+00	 1.019282e+01
0	 7.285714e+00	 2.571429e+00	 1.017805e+01
0	 7.285714e+00	 2.642857e+00	 1.016298e+01
0	 7.285714e+00	 2.714286e+00	 1.014762e+01
0	 7.285714e+00	 2.785714e+00	 1.013196e+01
0	 7.285714e+00	 2.857143e+00	 1.011601e+01
0	 7.357143e+00	 2.500000e+00	 1.022290e+01
0	 7.357143e+00	 2.571429e+00	 1.020812e+01
0	 7.357143e+00	 2.642857e+00	 1.019307e+01
0	 7.357143e+00	 2.714286e+00	 1.017775e+01
0	 7.357143e+00	 2.785714e+00	 1.016215e+01
0	 7.357143e+00	 2.857143e+00	 1.014628e+01
0	 7.428571e+00	 2.500000e+00	 1.025275e+01
0	 7.428571e+00	 2.571429e+00	 1.023794e+01
0	 7.428571e+00	 2.642857e+00	 1.022288e+01
0	 7.428571e+00	 2.714286e+00	 1.020757e+01
0	 7.428571e+00	 2.785714e+00	 1.019200e+01
0	 7.428571e+00	 2.857143e+00	 1.017618e+01
0	 7.500000e+00	 2.500000e+00	 1.028238e+01
0	 7.500000e+00	 2.571429e+00	 1.026751e+01
0	 7.500000e+00	 2.642857e+00	 1.025241e+01
0	 7.500000e+00	 2.714286e+00	 1.023707e+01
0	 7.500000e+00	 2.785714e+00	 1.022151e+01
0	 7.500000e+00	 2.857143e+00	 1.020571e+01
0	 7.142857e+00	 2.857143e+00	 1.005433e+01
0	 7.142857e+00	 2.928571e+00	 1.004175e+01
0	 7.142857e+00	 3.000000e+00	 1.002871e+01
0	 7.142857e+00	 3.071429e+00	 1.001522e+01
0	 7.142857e+00	 3.142857e+00	 1.000128e+01
0	 7.142857e+00	 3.214286e+00	 9.986880e+00
0	 7.214286e+00	 2.857143e+00	 1.008536e+01
0	 7.214286e+00	 2.928571e+00	 1.007267e+01
0	 7.214286e+00	 3.000000e+00	 1.005955e+01
0	 7.214286e+00	 3.071429e+00	 1.004600e+01
0	 7.214286e+00	 3.142857e+00	 1.003203e+01
0	 7.214286e+00	 3.214286e+00	 1.001763e+01
0	 7.285714e+00	 2.857143e+00	 1.011601e+01
0	 7.285714e+00	 2.928571e+00	 1.010319e+01
0	 7.285714e+00	 3.000000e+00	 1.008998e+01
0	 7.285714e+00	 3.071429e+00	 1.007636e+01
0	 7.285714e+00	 3.142857e+00	 1.006234e+01
0	 7.285714e+00	 3.214286e+00	 1.004791e+01
0	 7.357143e+00	 2.857143e+00	 1.014628e+01
0	 7.357143e+00	 2.928571e+00	 1.013333e+01
0	 7.357143e+00	 3.000000e+00	 1.012000e+01
0	 7.357143e+00	 3.071429e+00	 1.010629e+01
0	 7.357143e+00	 3.142857e+00	 1.009220e+01
0	 7.357143e+00	 3.214286e+00	 1.007773e+01
0	 7.428571e+00	 2.857143e+00	 1.017618e+01
0	 7.428571e+00	 2.928571e+00	 1.016307e+01
0	 7.428571e+00	 3.000000e+00	 1.014961e+01
0	 7.428571e+00	 3.071429e+00	 1.013580e+01
0	 7.428571e+00	 3.142857e+00	 1.012162e+01
0	 7.428571e+00	 3.214286e+00	 1.010710e+01
0	 7.500000e+00	 2.857143e+00	 1.020571e+01
0	 7.500000e+00	 2.928571e+00	 1.019243e+01
0	 7.500000e+00	 3.000000e+00	 1.017882e+01
0	 7.500000e+00	 3.071429e+00	 1.016488e+01
0	 7.500000e+00	 3.142857e+00	 1.015060e+01
0	 7.500000e+00	 3.214286e+00	 1.013600e+01
0	 7.142857e+00	 3.214286e+00	 9.986880e+00
0	 7.142857e+00	 3.285714e+00	 9.976835e+00
0	 7.142857e+00	 3.357143e+00	 9.966276e+00
0	 7.142857e+00	 3.428571e+00	 9.955201e+00
0	 7.142857e+00	 3.500000e+00	 9.943612e+00
0	 7.142857e+00	 3.571429e+00	 9.931508e+00
0	 7.214286e+00	 3.214286e+00	 1.001763e+01
0	 7.214286e+00	 3.285714e+00	 1.000733e+01
0	 7.214286e+00	 3.357143e+00	 9.996547e+00
0	 7.214286e+00	 3.428571e+00	 9.985274e+00
0	 7.214286e+00	 3.500000e+00	 9.973511e+00
0	 7.214286e+00	 3.571429e+00	 9.961259e+00
0	 7.285714e+00	 3.214286e+00	 1.004791e+01
0	 7.285714e+00	 3.285714e+00	 1.003736e+01
0	 7.285714e+00	 3.357143e+00	 1.002635e+01
0	 7.285714e+00	 3.428571e+00	 1.001487e+01
0	 7.285714e+00	 3.500000e+00	 1.000292e+01
0	 7.285714e+00	 3.571429e+00	 9.990515e+00
0	 7.357143e+00	 3.214286e+00	 1.007773e+01
0	 7.357143e+00	 3.285714e+00	 1.006692e+01
0	 7.357143e+00	 3.357143e+00	 1.005567e+01
0	 7.357143e+00	 3.428571e+00	 1.004398e+01
0	 7.357143e+00	 3.500000e+00	 1.003185e+01
0	 7.357143e+00	 3.571429e+00	 1.001928e+01
0	 7.428571e+00	 3.214286e+00	 1.010710e+01
0	 7.428571e+00	 3.285714e+00	 1.009602e+01
0	 7.428571e+00	 3.357143e+00	 1.008452e+01
0	 7.428571e+00	 3.428571e+00	 1.007261e+01
0	 7.428571e+00	 3.500000e+00	 1.006028e+01
0	 7.428571e+00	 3.571429e+00	 1.004754e+01
0	 7.500000e+00	 3.214286e+00	 1.013600e+01
0	 7.500000e+00	 3.285714e+00	 1.012464e+01
0	 7.500000e+00	 3.357143e+00	 1.011289e+01
0	 7.500000e+00	 3.428571e+00	 1.010076e+01
0	 7.500000e+00	 3.500000e+00	 1.008823e+01
0	 7.500000e+00	 3.571429e+00	 1.007532e+01
0	 7.142857e+00	 3.571429e+00	 9.931508e+00
0	 7.142857e+00	 3.642857e+00	 9.924045e+00
0	 7.142857e+00	 3.714286e+00	 9.916050e+00
0	 7.142857e+00	 3.785714e+00	 9.907524e+00
0	 7.142857e+00	 3.857143e+00	 9.898466e+00
0	 7.142857e+00	 3.928571e+00	 9.888877e+00
0	 7.214286e+00	 3.571429e+00	 9.961259e+00
0	 7.214286e+00	 3.642857e+00	 9.953427e+00
0	 7.214286e+00	 3.714286e+00	 9.945088e+00
0	 7.214286e+00	 3.785714e+00	 9.936240e+00
0	 7.214286e+00	 3.857143e+00	 9.926886e+00
0	 7.214286e+00	 3.928571e+00	 9.917023e+00
0	 7.285714e+00	 3.571429e+00	 9.990515e+00
0	 7.285714e+00	 3.642857e+00	 9.982316e+00
0	 7.285714e+00	 3.714286e+00	 9.973634e+00
0	 7.285714e+00	 3.785714e+00	 9.964467e+00
0	 7.285714e+00	 3.857143e+00	 9.954817e+00
0	 7.285714e+00	 3.928571e+00	 9.944683e+00
0	 7.357143e+00	 3.571429e+00	 1.001928e+01
0	 7.357143e+00	 3.642857e+00	 1.001071e+01
0	 7.357143e+00	 3.714286e+00	 1.000169e+01
0	 7.357143e+00	 3.785714e+00	 9.992205e+00
0	 7.357143e+00	 3.857143e+00	 9.982260e+00
0	 7.357143e+00	 3.928571e+00	 9.971856e+00
0	 7.428571e+00	 3.571429e+00	 1.004754e+01
0	 7.428571e+00	 3.642857e+00	 1.003862e+01
0	 7.428571e+00	 3.714286e+00	 1.002925e+01
0	 7.428571e+00	 3.785714e+00	 1.001945e+01
0	 7.428571e+00	 3.857143e+00	 1.000922e+01
0	 7.428571e+00	 3.928571e+00	 9.998542e+00
0	 7.500000e+00	 3.571429e+00	 1.007532e+01
0	 7.500000e+00	 3.642857e+00	 1.006603e+01
0	 7.500000e+00	 3.714286e+00	 1.005633e+01
0	 7.500000e+00	 3.785714e+00	 1.004621e+01
0	 7.500000e+00	 3.857143e+00	 1.003568e+01
0	 7.500000e+00	 3.928571e+00	 1.002474e+01
0	 7.142857e+00	 3.928571e+00	 9.888877e+00
0	 7.142857e+00	 4.000000e+00	 9.883856e+00
0	 7.142857e+00	 4.071429e+00	 9.878324e+00
0	 7.142857e+00	 4.142857e+00	 9.872279e+00
0	 7.142857e+00	 4.214286e+00	 9.865722e+00
0	 7.142857e+00	 4.285714e+00	 9.858652e+00
0	 7.214286e+00	 3.928571e+00	 9.917023e+00
0	 7.214286e+00	 4.000000e+00	 9.911547e+00
0	 7.214286e+00	 4.071429e+00	 9.905579e+00
0	 7.214286e+00	 4.142857e+00	 9.899120e+00
0	 7.214286e+00	 4.214286e+00	 9.892169e+00
0	 7.214286e+00	 4.285714e+00	 9.884727e+00
0	 7.285714e+00	 3.928571e+00	 9.944683e+00
0	 7.285714e+00	 4.000000e+00	 9.938758e+00
0	 7.285714e+00	 4.071429e+00	 9.932362e+00
0	 7.285714e+00	 4.142857e+00	 9.925496e+00
0	 7.285714e+00	 4.214286e+00	 9.918160e+00
0	 7.285714e+00	 4.285714e+00	 9.910353e+00
0	 7.357143e+00	 3.928571e+00	 9.971856e+00
0	 7.357143e+00	 4.000000e+00	 9.965489e+00
0	 7.357143e+00	 4.071429e+00	 9.958673e+00
0	 7.357143e+00	 4.142857e+00	 9.951408e+00
0	 7.357143e+00	 4.214286e+00	 9.943693e+00
0	 7.357143e+00	 4.285714e+00	 9.935528e+00
0	 7.428571e+00	 3.928571e+00	 9.998542e+00
0	 7.428571e+00	 4.000000e+00	 9.991742e+00
0	 7.428571e+00	 4.071429e+00	 9.984513e+00
0	 7.428571e+00	 4.142857e+00	 9.976855e+00
0	 7.428571e+00	 4.214286e+00	 9.968769e+00
0	 7.428571e+00	 4.285714e+00	 9.960254e+00
0	 7.500000e+00	 3.928571e+00	 1.002474e+01
0	 7.500000e+00	 4.000000e+00	 1.001751e+01
0	 7.500000e+00	 4.071429e+00	 1.000988e+01
0	 7.500000e+00	 4.142857e+00	 1.000184e+01
0	 7.500000e+00	 4.214286e+00	 9.993388e+00
0	 7.500000e+00	 4.285714e+00	 9.984530e+00
0	 7.142857e+00	 4.285714e+00	 9.858652e+00
0	 7.142857e+00	 4.357143e+00	 9.855817e+00
0	 7.142857e+00	 4.428571e+00	 9.852515e+00
0	 7.142857e+00	 4.500000e+00	 9.848744e+00
0	 7.142857e+00	 4.571429e+00	 9.844506e+00
0	 7.142857e+00	 4.642857e+00	 9.839799e+00
0	 7.214286e+00	 4.285714e+00	 9.884727e+00
0	 7.214286e+00	 4.357143e+00	 9.881381e+00
0	 7.214286e+00	 4.428571e+00	 9.877585e+00
0	 7.214286e+00	 4.500000e+00	 9.873338e+00
0	 7.214286e+00	 4.571429e+00	 9.868640e+00
0	 7.214286e+00	 4.642857e+00	 9.863492e+00
0	 7.285714e+00	 4.285714e+00	 9.910353e+00
0	 7.285714e+00	 4.357143e+00	 9.906506e+00
0	 7.285714e+00	 4.428571e+00	 9.902226e+00
0	 7.285714e+00	 4.500000e+00	 9.897513e+00
0	 7.285714e+00	 4.571429e+00	 9.892367e+00
0	 7.285714e+00	 4.642857e+00	 9.886788e+00
0	 7.357143e+00	 4.285714e+00	 9.935528e+00
0	 7.357143e+00	 4.357143e+00	 9.931192e+00
0	 7.357143e+00	 4.428571e+00	 9.926439e+00
0	 7.357143e+00	 4.500000e+00	 9.921271e+00
0	 7.357143e+00	 4.571429e+00	 9.915687e+00
0	 7.357143e+00	 4.642857e+00	 9.909687e+00
0	 7.428571e+00	 4.285714e+00	 9.960254e+00
0	 7.428571e+00	 4.357143e+00	 9.955438e+00
0	 7.428571e+00	 4.428571e+00	 9.950223e+00
0	 7.428571e+00	 4.500000e+00	 9.944610e+00
0	 7.428571e+00	 4.571429e+00	 9.938599e+00
0	 7.428571e+00	 4.642857e+00	 9.932189e+00
0	 7.500000e+00	 4.285714e+00	 9.984530e+00
0	 7.500000e+00	 4.357143e+00	 9.979245e+00
0	 7.500000e+00	 4.428571e+00	 9.973579e+00
0	 7.500000e+00	 4.500000e+00	 9.967532e+00
0	 7.500000e+00	 4.571429e+00	 9.961104e+00
0	 7.500000e+00	 4.642857e+00	 9.954295e+00
0	 7.142857e+00	 4.642857e+00	 9.839799e+00
0	 7.142857e+00	 4.714286e+00	 9.838829e+00
0	 7.142857e+00	 4.785714e+00	 9.837451e+00
0	 7.142857e+00	 4.857143e+00	 9.835664e+00
0	 7.142857e+00	 4.928571e+00	 9.833470e+00
0	 7.142857e+00	 5.000000e+00	 9.830867e+00
0	 7.214286e+00	 4.642857e+00	 9.863492e+00
0	 7.214286e+00	 4.714286e+00	 9.861984e+00
0	 7.214286e+00	 4.785714e+00	 9.860082e+00
0	 7.214286e+00	 4.857143e+00	 9.857785e+00
0	 7.214286e+00	 4.928571e+00	 9.855093e+00
0	 7.214286e+00	 5.000000e+00	 9.852007e+00
0	 7.285714e+00	 4.642857e+00	 9.886788e+00
0	 7.285714e+00	 4.714286e+00	 9.884754e+00
0	 7.285714e+00	 4.785714e+00	 9.882340e+00
0	 7.285714e+00	 4.857143e+00	 9.879545e+00
0	 7.285714e+00	 4.928571e+00	 9.876369e+00
0	 7.285714e+00	 5.000000e+00	 9.872812e+00
0	 7.357143e+00	 4.642857e+00	 9.909687e+00
0	 7.357143e+00	 4.714286e+00	 9.907140e+00
0	 7.357143e+00	 4.785714e+00	 9.904226e+00
0	 7.357143e+00	 4.857143e+00	 9.900944e+00
0	 7.357143e+00	 4.928571e+00	 9.897295e+00
0	 7.357143e+00	 5.000000e+00	 9.893279e+00
0	 7.428571e+00	 4.642857e+00	 9.932189e+00
0	 7.428571e+00	 4.714286e+00	 9.929141e+00
0	 7.428571e+00	 4.785714e+00	 9.925739e+00
0	 7.428571e+00	 4.857143e+00	 9.921983e+00
0	 7.428571e+00	 4.928571e+00	 9.917874e+00
0	 7.428571e+00	 5.000000e+00	 9.913411e+00
0	 7.500000e+00	 4.642857e+00	 9.954295e+00
0	 7.500000e+00	 4.714286e+00	 9.950757e+00
0	 7.500000e+00	 4.785714e+00	 9.946879e+00
0	 7.500000e+00	 4.857143e+00	 9.942661e+00
0	 7.500000e+00	 4.928571e+00	 9.938104e+00
0	 7.500000e+00	 5.000000e+00	 9.933206e+00
0	 7.142857e+00	 5.000000e+00	 9.830867e+00
0	 7.142857e+00	 5.071429e+00	 9.831418e+00
0	 7.142857e+00	 5.142857e+00	 9.831628e+00
0	 7.142857e+00	 5.214286e+00	 9.831497e+00
0	 7.142857e+00	 5.285714e+00	 9.831025e+00
0	 7.142857e+00	 5.357143e+00	 9.830211e+00
0	 7.214286e+00	 5.000000e+00	 9.852007e+00
0	 7.214286e+00	 5.071429e+00	 9.852020e+00
0	 7.214286e+00	 5.142857e+00	 9.851700e+00
0	 7.214286e+00	 5.214286e+00	 9.851050e+00
0	 7.214286e+00	 5.285714e+00	 9.850069e+00
0	 7.214286e+00	 5.357143e+00	 9.848756e+00
0	 7.285714e+00	 5.000000e+00	 9.872812e+00
0	 7.285714e+00	 5.071429e+00	 9.872296e+00
0	 7.285714e+00	 5.142857e+00	 9.871460e+00
0	 7.285714e+00	 5.214286e+00	 9.870303e+00
0	 7.285714e+00	 5.285714e+00	 9.868824e+00
0	 7.285714e+00	 5.357143e+00	 9.867024e+00
0	 7.357143e+00	 5.000000e+00	 9.893279e+00
0	 7.357143e+00	 5.071429e+00	 9.892249e+00
0	 7.357143e+00	 5.142857e+00	 9.890907e+00
0	 7.357143e+00	 5.214286e+00	 9.889255e+00
0	 7.357143e+00	 5.285714e+00	 9.887291e+00
0	 7.357143e+00	 5.357143e+00	 9.885016e+00
0	 7.428571e+00	 5.000000e+00	 9.913411e+00
0	 7.428571e+00	 5.071429e+00	 9.911877e+00
0	 7.428571e+00	 5.142857e+00	 9.910042e+00
0	 7.428571e+00	 5.214286e+00	 9.907906e+00
0	 7.428571e+00	 5.285714e+00	 9.905469e+00
0	 7.428571e+00	 5.357143e+00	 9.902732e+00
0	 7.500000e+00	 5.000000e+00	 9.933206e+00
0	 7.500000e+00	 5.071429e+00	 9.931180e+00
0	 7.500000e+00	 5.142857e+00	 9.928864e+00
0	 7.500000e+00	 5.214286e+00	 9.926257e+00
0	 7.500000e+00	 5.285714e+00	 9.923359e+00
0	 7.500000e+00	 5.357143e+00	 9.920170e+00
0	 7.142857e+00	 5.357143e+00	 9.830211e+00
0	 7.142857e+00	 5.428571e+00	 9.831951e+00
0	 7.142857e+00	 5.500000e+00	 9.833417e+00
0	 7.142857e+00	 5.571429e+00	 9.834609e+00
0	 7.142857e+00	 5.642857e+00	 9.835529e+00
0	 7.142857e+00	 5.714286e+00	 9.836175e+00
0	 7.214286e+00	 5.357143e+00	 9.848756e+00
0	 7.214286e+00	 5.428571e+00	 9.849973e+00
0	 7.214286e+00	 5.500000e+00	 9.850924e+00
0	 7.214286e+00	 5.571429e+00	 9.851608e+00
0	 7.214286e+00	 5.642857e+00	 9.852026e+00
0	 7.214286e+00	 5.714286e+00	 9.852177e+00
0	 7.285714e+00	 5.357143e+00	 9.867024e+00
0	 7.285714e+00	 5.428571e+00	 9.867730e+00
0	 7.285714e+00	 5.500000e+00	 9.868176e+00
0	 7.285714e+00	 5.571429e+00	 9.868363e+00
0	 7.285714e+00	 5.642857e+00	 9.868290e+00
0	 7.285714e+00	 5.714286e+00	 9.867958e+00
0	 7.357143e+00	 5.357143e+00	 9.885016e+00
0	 7.357143e+00	 5.428571e+00	 9.885222e+00
0	 7.357143e+00	 5.500000e+00	 9.885174e+00
0	 7.357143e+00	 5.571429e+00	 9.884875e+00
0	 7.357143e+00	 5.642857e+00	 9.884323e+00
0	 7.357143e+00	 5.714286e+00	 9.883518e+00
0	 7.428571e+00	 5.357143e+00	 9.902732e+00
0	 7.428571e+00	 5.428571e+00	 9.902448e+00
0	 7.428571e+00	 5.500000e+00	 9.901918e+00
0	 7.428571e+00	 5.571429e+00	 9.901143e+00
0	 7.428571e+00	 5.642857e+00	 9.900123e+00
0	 7.428571e+00	 5.714286e+00	 9.898857e+00
0	 7.500000e+00	 5.357143e+00	 9.920170e+00
0	 7.500000e+00	 5.428571e+00	 9.919409e+00
0	 7.500000e+00	 5.500000e+00	 9.918408e+00
0	 7.500000e+00	 5.571429e+00	 9.917169e+00
0	 7.500000e+00	 5.642857e+00	 9.915691e+00
0	 7.500000e+00	 5.714286e+00	 9.913975e+00
0	 7.142857e+00	 5.714286e+00	 9.836175e+00
0	 7.142857e+00	 5.785714e+00	 9.838795e+00
0	 7.142857e+00	 5.857143e+00	 9.841207e+00
0	 7.142857e+00	 5.928571e+00	 9.843411e+00
0	 7.142857e+00	 6.000000e+00	 9.845406e+00
0	 7.142857e+00	 6.071429e+00	 9.847194e+00
0	 7.214286e+00	 5.714286e+00	 9.852177e+00
0	 7.214286e+00	 5.785714e+00	 9.854305e+00
0	 7.214286e+00	 5.857143e+00	 9.856229e+00
0	 7.214286e+00	 5.928571e+00	 9.857949e+00
0	 7.214286e+00	 6.000000e+00	 9.859466e+00
0	 7.214286e+00	 6.071429e+00	 9.860778e+00
0	 7.285714e+00	 5.714286e+00	 9.867958e+00
0	 7.285714e+00	 5.785714e+00	 9.869604e+00
0	 7.285714e+00	 5.857143e+00	 9.871050e+00
0	 7.285714e+00	 5.928571e+00	 9.872296e+00
0	 7.285714e+00	 6.000000e+00	 9.873343e+00
0	 7.285714e+00	 6.071429e+00	 9.874190e+00
0	 7.357143e+00	 5.714286e+00	 9.883518e+00
0	 7.357143e+00	 5.785714e+00	 9.884691e+00
0	 7.357143e+00	 5.857143e+00	 9.885669e+00
0	 7.357143e+00	 5.928571e+00	 9.886451e+00
0	 7.357143e+00	 6.000000e+00	 9.887038e+00
0	 7.357143e+00	 6.071429e+00	 9.887429e+00
0	 7.428571e+00	 5.714286e+00	 9.898857e+00
0	 7.428571e+00	 5.785714e+00	 9.899567e+00
0	 7.428571e+00	 5.857143e+00	 9.900086e+00
0	 7.428571e+00	 5.928571e+00	 9.900413e+00
0	 7.428571e+00	 6.000000e+00	 9.900550e+00
0	 7.428571e+00	 6.071429e+00	 9.900496e+00
0	 7.500000e+00	 5.714286e+00	 9.913975e+00
0	 7.500000e+00	 5.785714e+00	 9.914231e+00
0	 7.500000e+00	 5.857143e+00	 9.914301e+00
0	 7.500000e+00	 5.928571e+00	 9.914184e+00
0	 7.500000e+00	 6.000000e+00	 9.913881e+00
0	 7.500000e+00	 6.071429e+00	 9.913390e+00
0	 7.142857e+00	 6.071429e+00	 9.847194e+00
0	 7.142857e+00	 6.142857e+00	 9.850424e+00
0	 7.142857e+00	 6.214286e+00	 9.853505e+00
0	 7.142857e+00	 6.285714e+00	 9.856439e+00
0	 7.142857e+00	 6.357143e+00	 9.859224e+00
0	 7.142857e+00	 6.428571e+00	 9.861861e+00
0	 7.214286e+00	 6.071429e+00	 9.860778e+00
0	 7.214286e+00	 6.142857e+00	 9.863554e+00
0	 7.214286e+00	 6.214286e+00	 9.866185e+00
0	 7.214286e+00	 6.285714e+00	 9.868669e+00
0	 7.214286e+00	 6.357143e+00	 9.871007e+00
0	 7.214286e+00	 6.428571e+00	 9.873198e+00
0	 7.285714e+00	 6.071429e+00	 9.874190e+00
0	 7.285714e+00	 6.142857e+00	 9.876521e+00
0	 7.285714e+00	 6.214286e+00	 9.878708e+00
0	 7.285714e+00	 6.285714e+00	 9.880751e+00
0	 7.285714e+00	 6.357143e+00	 9.882650e+00
0	 7.285714e+00	 6.428571e+00	 9.884405e+00
0	 7.357143e+00	 6.071429e+00	 9.887429e+00
0	 7.357143e+00	 6.142857e+00	 9.889323e+00
0	 7.357143e+00	 6.214286e+00	 9.891075e+00
0	 7.357143e+00	 6.285714e+00	 9.892685e+00
0	 7.357143e+00	 6.357143e+00	 9.894154e+00
0	 7.357143e+00	 6.428571e+00	 9.895480e+00
0	 7.428571e+00	 6.071429e+00	 9.900496e+00
0	 7.428571e+00	 6.142857e+00	 9.901961e+00
0	 7.428571e+00	 6.214286e+00	 9.903287e+00
0	 7.428571e+00	 6.285714e+00	 9.904472e+00
0	 7.428571e+00	 6.357143e+00	 9.905518e+00
0	 7.428571e+00	 6.428571e+00	 9.906424e+00
0	 7.500000e+00	 6.071429e+00	 9.913390e+00
0	 7.500000e+00	 6.142857e+00	 9.914435e+00
0	 7.500000e+00	 6.214286e+00	 9.915342e+00
0	 7.500000e+00	 6.285714e+00	 9.916111e+00
0	 7.500000e+00	 6.357143e+00	 9.916743e+00
0	 7.500000e+00	 6.428571e+00	 9.917237e+00
0	 7.142857e+00	 6.428571e+00	 9.861861e+00
0	 7.142857e+00	 6.500000e+00	 9.865467e+00
0	 7.142857e+00	 6.571429e+00	 9.868978e+00
0	 7.142857e+00	 6.642857e+00	 9.872396e+00
0	 7.142857e+00	 6.714286e+00	 9.875718e+00
0	 7.142857e+00	 6.785714e+00	 9.878947e+00
0	 7.214286e+00	 6.428571e+00	 9.873198e+00
0	 7.214286e+00	 6.500000e+00	 9.876394e+00
0	 7.214286e+00	 6.571429e+00	 9.879495e+00
0	 7.214286e+00	 6.642857e+00	 9.882503e+00
0	 7.214286e+00	 6.714286e+00	 9.885416e+00
0	 7.214286e+00	 6.785714e+00	 9.888235e+00
0	 7.285714e+00	 6.428571e+00	 9.884405e+00
0	 7.285714e+00	 6.500000e+00	 9.887197e+00
0	 7.285714e+00	 6.571429e+00	 9.889895e+00
0	 7.285714e+00	 6.642857e+00	 9.892499e+00
0	 7.285714e+00	 6.714286e+00	 9.895010e+00
0	 7.285714e+00	 6.785714e+00	 9.897427e+00
0	 7.357143e+00	 6.428571e+00	 9.895480e+00
0	 7.357143e+00	 6.500000e+00	 9.897875e+00
0	 7.357143e+00	 6.571429e+00	 9.900177e+00
0	 7.357143e+00	 6.642857e+00	 9.902385e+00
0	 7.357143e+00	 6.714286e+00	 9.904500e+00
0	 7.357143e+00	 6.785714e+00	 9.906522e+00
0	 7.428571e+00	 6.428571e+00	 9.906424e+00
0	 7.428571e+00	 6.500000e+00	 9.908429e+00
0	 7.428571e+00	 6.571429e+00	 9.910341e+00
0	 7.428571e+00	 6.642857e+00	 9.912161e+00
0	 7.428571e+00	 6.714286e+00	 9.913887e+00
0	 7.428571e+00	 6.785714e+00	 9.915521e+00
0	 7.500000e+00	 6.428571e+00	 9.917237e+00
0	 7.500000e+00	 6.500000e+00	 9.918859e+00
0	 7.500000e+00	 6.571429e+00	 9.920388e+00
0	 7.500000e+00	 6.642857e+00	 9.921825e+00
0	 7.500000e+00	 6.714286e+00	 9.923170e+00
0	 7.500000e+00	 6.785714e+00	 9.924422e+00
0	 7.142857e+00	 6.785714e+00	 9.878947e+00
0	 7.142857e+00	 6.857143e+00	 9.882729e+00
0	 7.142857e+00	 6.928571e+00	 9.886465e+00
0	 7.142857e+00	 7.000000e+00	 9.890155e+00
0	 7.142857e+00	 7.071429e+00	 9.893798e+00
0	 7.142857e+00	 7.142857e+00	 9.897394e+00
0	 7.214286e+00	 6.785714e+00	 9.888235e+00
0	 7.214286e+00	 6.857143e+00	 9.891652e+00
0	 7.214286e+00	 6.928571e+00	 9.895020e+00
0	 7.214286e+00	 7.000000e+00	 9.898341e+00
0	 7.214286e+00	 7.071429e+00	 9.901615e+00
0	 7.214286e+00	 7.142857e+00	 9.904841e+00
0	 7.285714e+00	 6.785714e+00	 9.897427e+00
0	 7.285714e+00	 6.857143e+00	 9.900483e+00
0	 7.285714e+00	 6.928571e+00	 9.903490e+00
0	 7.285714e+00	 7.000000e+00	 9.906449e+00
0	 7.285714e+00	 7.071429e+00	 9.909359e+00
0	 7.285714e+00	 7.142857e+00	 9.912220e+00
0	 7.357143e+00	 6.785714e+00	 9.906522e+00
0	 7.357143e+00	 6.857143e+00	 9.909223e+00
0	 7.357143e+00	 6.928571e+00	 9.911874e+00
0	 7.357143e+00	 7.000000e+00	 9.914476e+00
0	 7.357143e+00	 7.071429e+00	 9.917029e+00
0	 7.357143e+00	 7.142857e+00	 9.919532e+00
0	 7.428571e+00	 6.785714e+00	 9.915521e+00
0	 7.428571e+00	 6.857143e+00	 9.917872e+00
0	 7.428571e+00	 6.928571e+00	 9.920174e+00
0	 7.428571e+00	 7.000000e+00	 9.922425e+00
0	 7.428571e+00	 7.071429e+00	 9.924625e+00
0	 7.428571e+00	 7.142857e+00	 9.926775e+00
0	 7.500000e+00	 6.785714e+00	 9.924422e+00
0	 7.500000e+00	 6.857143e+00	 9.926431e+00
0	 7.500000e+00	 6.928571e+00	 9.928388e+00
0	 7.500000e+00	 7.000000e+00	 9.930294e+00
0	 7.500000e+00	 7.071429e+00	 9.932148e+00
0	 7.500000e+00	 7.142857e+00	 9.933951e+00
0	 7.142857e+00	 7.142857e+00	 9.897394e+00
0	 7.142857e+00	 7.214286e+00	 9.901182e+00
0	 7.142857e+00	 7.285714e+00	 9.904966e+00
0	 7.142857e+00	 7.357143e+00	 9.908746e+00
0	 7.142857e+00	 7.428571e+00	 9.912522e+00
0	 7.142857e+00	 7.500000e+00	 9.916294e+00
0	 7.214286e+00	 7.142857e+00	 9.904841e+00
0	 7.214286e+00	 7.214286e+00	 9.908306e+00
0	 7.214286e+00	 7.285714e+00	 9.911765e+00
0	 7.214286e+00	 7.357143e+00	 9.915218e+00
0	 7.214286e+00	 7.428571e+00	 9.918664e+00
0	 7.214286e+00	 7.500000e+00	 9.922105e+00
0	 7.285714e+00	 7.142857e+00	 9.912220e+00
0	 7.285714e+00	 7.214286e+00	 9.915367e+00
0	 7.285714e+00	 7.285714e+00	 9.918506e+00
0	 7.285714e+00	 7.357143e+00	 9.921636e+00
0	 7.285714e+00	 7.428571e+00	 9.924759e+00
0	 7.285714e+00	 7.500000e+00	 9.927874e+00
0	 7.357143e+00	 7.142857e+00	 9.919532e+00
0	 7.357143e+00	 7.214286e+00	 9.922365e+00
0	 7.357143e+00	 7.285714e+00	 9.925189e+00
0	 7.357143e+00	 7.357143e+00	 9.928003e+00
0	 7.357143e+00	 7.428571e+00	 9.930806e+00
0	 7.357143e+00	 7.500000e+00	 9.933599e+00
0	 7.428571e+00	 7.142857e+00	 9.926775e+00
0	 7.428571e+00	 7.214286e+00	 9.929301e+00
0	 7.428571e+00	 7.285714e+00	 9.931815e+00
0	 7.428571e+00	 7.357143e+00	 9.934316e+00
0	 7.428571e+00	 7.428571e+00	 9.936805e+00
0	 7.428571e+00	 7.500000e+00	 9.939282e+00
0	 7.500000e+00	 7.142857e+00	 9.933951e+00
0	 7.500000e+00	 7.214286e+00	 9.936174e+00
0	 7.500000e+00	 7.285714e+00	 9.938383e+00
0	 7.500000e+00	 7.357143e+00	 9.940577e+00
0	 7.500000e+00	 7.428571e+00	 9.942757e+00
0	 7.500000e+00	 7.500000e+00	 9.944923e+00
0	 7.142857e+00	 7.500000e+00	 9.916294e+00
0	 7.142857e+00	 7.571429e+00	 9.919936e+00
0	 7.142857e+00	 7.642857e+00	 9.923613e+00
0	 7.142857e+00	 7.714286e+00	 9.927325e+00
0	 7.142857e+00	 7.785714e+00	 9.931071e+00
0	 7.142857e+00	 7.857143e+00	 9.934852e+00
0	 7.214286e+00	 7.500000e+00	 9.922105e+00
0	 7.214286e+00	 7.571429e+00	 9.925466e+00
0	 7.214286e+00	 7.642857e+00	 9.928858e+00
0	 7.214286e+00	 7.714286e+00	 9.932282e+00
0	 7.214286e+00	 7.785714e+00	 9.935738e+00
0	 7.214286e+00	 7.857143e+00	 9.939225e+00
0	 7.285714e+00	 7.500000e+00	 9.927874e+00
0	 7.285714e+00	 7.571429e+00	 9.930957e+00
0	 7.285714e+00	 7.642857e+00	 9.934069e+00
0	 7.285714e+00	 7.714286e+00	 9.937210e+00
0	 7.285714e+00	 7.785714e+00	 9.940380e+00
0	 7.285714e+00	 7.857143e+00	 9.943578e+00
0	 7.357143e+00	 7.500000e+00	 9.933599e+00
0	 7.357143e+00	 7.571429e+00	 9.936410e+00
0	 7.357143e+00	 7.642857e+00	 9.939247e+00
0	 7.357143e+00	 7.714286e+00	 9.942109e+00
0	 7.357143e+00	 7.785714e+00	 9.944997e+00
0	 7.357143e+00	 7.857143e+00	 9.947911e+00
0	 7.428571e+00	 7.500000e+00	 9.939282e+00
0	 7.428571e+00	 7.571429e+00	 9.941825e+00
0	 7.428571e+00	 7.642857e+00	 9.944391e+00
0	 7.428571e+00	 7.714286e+00	 9.946979e+00
0	 7.428571e+00	 7.785714e+00	 9.949590e+00
0	 7.428571e+00	 7.857143e+00	 9.952223e+00
0	 7.500000e+00	 7.500000e+00	 9.944923e+00
0	 7.500000e+00	 7.571429e+00	 9.947202e+00
0	 7.500000e+00	 7.642857e+00	 9.949501e+00
0	 7.500000e+00	 7.714286e+00	 9.951820e+00
0	 7.500000e+00	 7.785714e+00	 9.954158e+00
0	 7.500000e+00	 7.857143e+00	 9.956515e+00
0	 7.142857e+00	 7.857143e+00	 9.934852e+00
0	 7.142857e+00	 7.928571e+00	 9.938211e+00
0	 7.142857e+00	 8.000000e+00	 9.941640e+00
0	 7.142857e+00	 8.071429e+00	 9.945140e+00
0	 7.142857e+00	 8.142857e+00	 9.948711e+00
0	 7.142857e+00	 8.214286e+00	 9.952352e+00
0	 7.214286e+00	 7.857143e+00	 9.939225e+00
0	 7.214286e+00	 7.928571e+00	 9.942342e+00
0	 7.214286e+00	 8.000000e+00	 9.945525e+00
0	 7.214286e+00	 8.071429e+00	 9.948775e+00
0	 7.214286e+00	 8.142857e+00	 9.952091e+00
0	 7.214286e+00	 8.214286e+00	 9.955474e+00
0	 7.285714e+00	 7.857143e+00	 9.943578e+00
0	 7.285714e+00	 7.928571e+00	 9.946457e+00
0	 7.285714e+00	 8.000000e+00	 9.949398e+00
0	 7.285714e+00	 8.071429e+00	 9.952402e+00
0	 7.285714e+00	 8.142857e+00	 9.955469e+00
0	 7.285714e+00	 8.214286e+00	 9.958598e+00
0	 7.357143e+00	 7.857143e+00	 9.947911e+00
0	 7.357143e+00	 7.928571e+00	 9.950556e+00
0	 7.357143e+00	 8.000000e+00	 9.953260e+00
0	 7.357143e+00	 8.071429e+00	 9.956022e+00
0	 7.357143e+00	 8.142857e+00	 9.958843e+00
0	 7.357143e+00	 8.214286e+00	 9.961722e+00
0	 7.428571e+00	 7.857143e+00	 9.952223e+00
0	 7.428571e+00	 7.928571e+00	 9.954639e+00
0	 7.428571e+00	 8.000000e+00	 9.957109e+00
0	 7.428571e+00	 8.071429e+00	 9.959634e+00
0	 7.428571e+00	 8.142857e+00	 9.962213e+00
0	 7.428571e+00	 8.214286e+00	 9.964847e+00
0	 7.500000e+00	 7.857143e+00	 9.956515e+00
0	 7.500000e+00	 7.928571e+00	 9.958706e+00
0	 7.500000e+00	 8.000000e+00	 9.960947e+00
0	 7.500000e+00	 8.071429e+00	 9.963239e+00
0	 7.500000e+00	 8.142857e+00	 9.965581e+00
0	 7.500000e+00	 8.214286e+00	 9.967973e+00
0	 7.142857e+00	 8.214286e+00	 9.952352e+00
0	 7.142857e+00	 8.285714e+00	 9.955298e+00
0	 7.142857e+00	 8.357143e+00	 9.958348e+00
0	 7.142857e+00	 8.428571e+00	 9.961503e+00
0	 7.142857e+00	 8.500000e+00	 9.964762e+00
0	 7.142857e+00	 8.571429e+00	 9.968126e+00
0	 7.214286e+00	 8.214286e+00	 9.955474e+00
0	 7.214286e+00	 8.285714e+00	 9.958216e+00
0	 7.214286e+00	 8.357143e+00	 9.961057e+00
0	 7.214286e+00	 8.428571e+00	 9.963997e+00
0	 7.214286e+00	 8.500000e+00	 9.967037e+00
0	 7.214286e+00	 8.571429e+00	 9.970177e+00
0	 7.285714e+00	 8.214286e+00	 9.958598e+00
0	 7.285714e+00	 8.285714e+00	 9.961139e+00
0	 7.285714e+00	 8.357143e+00	 9.963775e+00
0	 7.285714e+00	 8.428571e+00	 9.966505e+00
0	 7.285714e+00	 8.500000e+00	 9.969330e+00
0	 7.285714e+00	 8.571429e+00	 9.972249e+00
0	 7.357143e+00	 8.214286e+00	 9.961722e+00
0	 7.357143e+00	 8.285714e+00	 9.964067e+00
0	 7.357143e+00	 8.357143e+00	 9.966502e+00
0	 7.357143e+00	 8.428571e+00	 9.969026e+00
0	 7.357143e+00	 8.500000e+00	 9.971639e+00
0	 7.357143e+00	 8.571429e+00	 9.974342e+00
0	 7.428571e+00	 8.214286e+00	 9.964847e+00
0	 7.428571e+00	 8.285714e+00	 9.967001e+00
0	 7.428571e+00	 8.357143e+00	 9.969238e+00
0	 7.428571e+00	 8.428571e+00	 9.971560e+00
0	 7.428571e+00	 8.500000e+00	 9.973966e+00
0	 7.428571e+00	 8.571429e+00	 9.976456e+00
0	 7.500000e+00	 8.214286e+00	 9.967973e+00
0	 7.500000e+00	 8.285714e+00	 9.969939e+00
0	 7.500000e+00	 8.357143e+00	 9.971984e+00
0	 7.500000e+00	 8.428571e+00	 9.974108e+00
0	 7.500000e+00	 8.500000e+00	 9.976310e+00
0	 7.500000e+00	 8.571429e+00	 9.978592e+00
0	 7.142857e+00	 8.571429e+00	 9.968126e+00
0	 7.142857e+00	 8.642857e+00	 9.970532e+00
0	 7.142857e+00	 8.714286e+00	 9.973074e+00
0	 7.142857e+00	 8.785714e+00	 9.975755e+00
0	 7.142857e+00	 8.857143e+00	 9.978573e+00
0	 7.142857e+00	 8.928571e+00	 9.981529e+00
0	 7.214286e+00	 8.571429e+00	 9.970177e+00
0	 7.214286e+00	 8.642857e+00	 9.972416e+00
0	 7.214286e+00	 8.714286e+00	 9.974786e+00
0	 7.214286e+00	 8.785714e+00	 9.977288e+00
0	 7.214286e+00	 8.857143e+00	 9.979921e+00
0	 7.214286e+00	 8.928571e+00	 9.982684e+00
0	 7.285714e+00	 8.571429e+00	 9.972249e+00
0	 7.285714e+00	 8.642857e+00	 9.974326e+00
0	 7.285714e+00	 8.714286e+00	 9.976528e+00
0	 7.285714e+00	 8.785714e+00	 9.978854e+00
0	 7.285714e+00	 8.857143e+00	 9.981305e+00
0	 7.285714e+00	 8.928571e+00	 9.983880e+00
0	 7.357143e+00	 8.571429e+00	 9.974342e+00
0	 7.357143e+00	 8.642857e+00	 9.976261e+00
0	 7.357143e+00	 8.714286e+00	 9.978298e+00
0	 7.357143e+00	 8.785714e+00	 9.980453e+00
0	 7.357143e+00	 8.857143e+00	 9.982726e+00
0	 7.357143e+00	 8.928571e+00	 9.985117e+00
0	 7.428571e+00	 8.571429e+00	 9.976456e+00
0	 7.428571e+00	 8.642857e+00	 9.978221e+00
0	 7.428571e+00	 8.714286e+00	 9.980098e+00
0	 7.428571e+00	 8.785714e+00	 9.982086e+00
0	 7.428571e+00	 8.857143e+00	 9.984185e+00
0	 7.428571e+00	 8.928571e+00	 9.986396e+00
0	 7.500000e+00	 8.571429e+00	 9.978592e+00
0	 7.500000e+00	 8.642857e+00	 9.980207e+00
0	 7.500000e+00	 8.714286e+00	 9.981927e+00
0	 7.500000e+00	 8.785714e+00	 9.983752e+00
0	 7.500000e+00	 8.857143e+00	 9.985681e+00
0	 7.500000e+00	 8.928571e+00	 9.987715e+00
0	 7.142857e+00	 8.928571e+00	 9.981529e+00
0	 7.142857e+00	 9.000000e+00	 9.983266e+00
0	 7.142857e+00	 9.071429e+00	 9.985174e+00
0	 7.142857e+00	 9.142857e+00	 9.987251e+00
0	 7.142857e+00	 9.214286e+00	 9.989499e+00
0	 7.142857e+00	 9.285714e+00	 9.991916e+00
0	 7.214286e+00	 8.928571e+00	 9.982684e+00
0	 7.214286e+00	 9.000000e+00	 9.984297e+00
0	 7.214286e+00	 9.071429e+00	 9.986072e+00
0	 7.214286e+00	 9.142857e+00	 9.988008e+00
0	 7.214286e+00	 9.214286e+00	 9.990105e+00
0	 7.214286e+00	 9.285714e+00	 9.992364e+00
0	 7.285714e+00	 8.928571e+00	 9.983880e+00
0	 7.285714e+00	 9.000000e+00	 9.985373e+00
0	 7.285714e+00	 9.071429e+00	 9.987018e+00
0	 7.285714e+00	 9.142857e+00	 9.988816e+00
0	 7.285714e+00	 9.214286e+00	 9.990767e+00
0	 7.285714e+00	 9.285714e+00	 9.992871e+00
0	 7.357143e+00	 8.928571e+00	 9.985117e+00
0	 7.357143e+00	 9.000000e+00	 9.986493e+00
0	 7.357143e+00	 9.071429e+00	 9.988013e+00
0	 7.357143e+00	 9.142857e+00	 9.989677e+00
0	 7.357143e+00	 9.214286e+00	 9.991485e+00
0	 7.357143e+00	 9.285714e+00	 9.993437e+00
0	 7.428571e+00	 8.928571e+00	 9.986396e+00
0	 7.428571e+00	 9.000000e+00	 9.987658e+00
0	 7.428571e+00	 9.071429e+00	 9.989056e+00
0	 7.428571e+00	 9.142857e+00	 9.990589e+00
0	 7.428571e+00	 9.214286e+00	 9.992258e+00
0	 7.428571e+00	 9.285714e+00	 9.994063e+00
0	 7.500000e+00	 8.928571e+00	 9.987715e+00
0	 7.500000e+00	 9.000000e+00	 9.988868e+00
0	 7.500000e+00	 9.071429e+00	 9.990147e+00
0	 7.500000e+00	 9.142857e+00	 9.991553e+00
0	 7.500000e+00	 9.214286e+00	 9.993087e+00
0	 7.500000e+00	 9.285714e+00	 9.994747e+00
0	 7.142857e+00	 9.285714e+00	 9.991916e+00
0	 7.142857e+00	 9.357143e+00	 9.992863e+00
0	 7.142857e+00	 9.428571e+00	 9.994012e+00
0	 7.142857e+00	 9.500000e+00	 9.995362e+00
0	 7.142857e+00	 9.571429e+00	 9.996915e+00
0	 7.142857e+00	 9.642857e+00	 9.998670e+00
0	 7.214286e+00	 9.285714e+00	 9.992364e+00
0	 7.214286e+00	 9.357143e+00	 9.993236e+00
0	 7.214286e+00	 9.428571e+00	 9.994298e+00
0	 7.214286e+00	 9.500000e+00	 9.995550e+00
0	 7.214286e+00	 9.571429e+00	 9.996993e+00
0	 7.214286e+00	 9.642857e+00	 9.998626e+00
0	 7.285714e+00	 9.285714e+00	 9.992871e+00
0	 7.285714e+00	 9.357143e+00	 9.993671e+00
0	 7.285714e+00	 9.428571e+00	 9.994649e+00
0	 7.285714e+00	 9.500000e+00	 9.995806e+00
0	 7.285714e+00	 9.571429e+00	 9.997141e+00
0	 7.285714e+00	 9.642857e+00	 9.998656e+00
0	 7.357143e+00	 9.285714e+00	 9.993437e+00
0	 7.357143e+00	 9.357143e+00	 9.994168e+00
0	 7.357143e+00	 9.428571e+00	 9.995065e+00
0	 7.357143e+00	 9.500000e+00	 9.996129e+00
0	 7.357143e+00	 9.571429e+00	 9.997361e+00
0	 7.357143e+00	 9.642857e+00	 9.998759e+00
0	 7.428571e+00	 9.285714e+00	 9.994063e+00
0	 7.428571e+00	 9.357143e+00	 9.994727e+00
0	 7.428571e+00	 9.428571e+00	 9.995546e+00
0	 7.428571e+00	 9.500000e+00	 9.996521e+00
0	 7.428571e+00	 9.571429e+00	 9.997651e+00
0	 7.428571e+00	 9.642857e+00	 9.998936e+00
0	 7.500000e+00	 9.285714e+00	 9.994747e+00
0	 7.500000e+00	 9.357143e+00	 9.995348e+00
0	 7.500000e+00	 9.428571e+00	 9.996092e+00
0	 7.500000e+00	 9.500000e+00	 9.996980e+00
0	 7.500000e+00	 9.571429e+00	 9.998012e+00
0	 7.500000e+00	 9.642857e+00	 9.999187e+00
0	 7.142857e+00	 9.642857e+00	 9.998670e+00
0	 7.142857e+00	 9.714286e+00	 9.998691e+00
0	 7.142857e+00	 9.785714e+00	 9.998944e+00
0	 7.142857e+00	 9.857143e+00	 9.999431e+00
0	 7.142857e+00	 9.928571e+00	 1.000015e+01
0	 7.142857e+00	 1.000000e+01	 1.000110e+01
0	 7.214286e+00	 9.642857e+00	 9.998626e+00
0	 7.214286e+00	 9.714286e+00	 9.998639e+00
0	 7.214286e+00	 9.785714e+00	 9.998868e+00
0	 7.214286e+00	 9.857143e+00	 9.999315e+00
0	 7.214286e+00	 9.928571e+00	 9.999978e+00
0	 7.214286e+00	 1.000000e+01	 1.000086e+01
0	 7.285714e+00	 9.642857e+00	 9.998656e+00
0	 7.285714e+00	 9.714286e+00	 9.998662e+00
0	 7.285714e+00	 9.785714e+00	 9.998869e+00
0	 7.285714e+00	 9.857143e+00	 9.999277e+00
0	 7.285714e+00	 9.928571e+00	 9.999886e+00
0	 7.285714e+00	 1.000000e+01	 1.000069e+01
0	 7.357143e+00	 9.642857e+00	 9.998759e+00
0	 7.357143e+00	 9.714286e+00	 9.998761e+00
0	 7.357143e+00	 9.785714e+00	 9.998948e+00
0	 7.357143e+00	 9.857143e+00	 9.999319e+00
0	 7.357143e+00	 9.928571e+00	 9.999875e+00
0	 7.357143e+00	 1.000000e+01	 1.000061e+01
0	 7.428571e+00	 9.642857e+00	 9.998936e+00
0	 7.428571e+00	 9.714286e+00	 9.998936e+00
0	 7.428571e+00	 9.785714e+00	 9.999104e+00
0	 7.428571e+00	 9.857143e+00	 9.999440e+00
0	 7.428571e+00	 9.928571e+00	 9.999944e+00
0	 7.428571e+00	 1.000000e+01	 1.000062e+01
0	 7.500000e+00	 9.642857e+00	 9.999187e+00
0	 7.500000e+00	 9.714286e+00	 9.999186e+00
0	 7.500000e+00	 9.785714e+00	 9.999337e+00
0	 7.500000e+00	 9.857143e+00	 9.999640e+00
0	 7.500000e+00	 9.928571e+00	 1.000010e+01
0	 7.500000e+00	 1.000000e+01	 1.000070e+01
0	 7.500000e+00	 0.000000e+00	 1.067839e+01
0	 7.500000e+00	 7.142857e-02	 1.067462e+01
0	 7.500000e+00	 1.428571e-01	 1.067163e+01
0	 7.500000e+00	 2.142857e-01	 1.066942e+01
0	 7.500000e+00	 2.857143e-01	 1.066799e+01
0	 7.500000e+00	 3.571429e-01	 1.066734e+01
0	 7.571429e+00	 0.000000e+00	 1.070109e+01
0	 7.571429e+00	 7.142857e-02	 1.069745e+01
0	 7.571429e+00	 1.428571e-01	 1.069455e+01
0	 7.571429e+00	 2.142857e-01	 1.069240e+01
0	 7.571429e+00	 2.857143e-01	 1.069100e+01
0	 7.571429e+00	 3.571429e-01	 1.069034e+01
0	 7.642857e+00	 0.000000e+00	 1.072506e+01
0	 7.642857e+00	 7.142857e-02	 1.072154e+01
0	 7.642857e+00	 1.428571e-01	 1.071873e+01
0	 7.642857e+00	 2.142857e-01	 1.071663e+01
0	 7.642857e+00	 2.857143e-01	 1.071525e+01
0	 7.642857e+00	 3.571429e-01	 1.071457e+01
0	 7.714286e+00	 0.000000e+00	 1.075030e+01
0	 7.714286e+00	 7.142857e-02	 1.074690e+01
0	 7.714286e+00	 1.428571e-01	 1.074417e+01
0	 7.714286e+00	 2.142857e-01	 1.074211e+01
0	 7.714286e+00	 2.857143e-01	 1.074073e+01
0	 7.714286e+00	 3.571429e-01	 1.074003e+01
0	 7.785714e+00	 0.000000e+00	 1.077682e+01
0	 7.785714e+00	 7.142857e-02	 1.077352e+01
0	 7.785714e+00	 1.428571e-01	 1.077086e+01
0	 7.785714e+00	 2.142857e-01	 1.076884e+01
0	 7.785714e+00	 2.857143e-01	 1.076746e+01
0	 7.785714e+00	 3.571429e-01	 1.076672e+01
0	 7.857143e+00	 0.000000e+00	 1.080461e+01
0	 7.857143e+00	 7.142857e-02	 1.080141e+01
0	 7.857143e+00	 1.428571e-01	 1.079880e+01
0	 7.857143e+00	 2.142857e-01	 1.079681e+01
0	 7.857143e+00	 2.857143e-01	 1.079542e+01
0	 7.857143e+00	 3.571429e-01	 1.079464e+01
0	 7.500000e+00	 3.571429e-01	 1.066734e+01
0	 7.500000e+00	 4.285714e-01	 1.065945e+01
0	 7.500000e+00	 5.000000e-01	 1.065229e+01
0	 7.500000e+00	 5.714286e-01	 1.064583e+01
0	 7.500000e+00	 6.428571e-01	 1.064010e+01
0	 7.500000e+00	 7.142857e-01	 1.063508e+01
0	 7.571429e+00	 3.571429e-01	 1.069034e+01
0	 7.571429e+00	 4.285714e-01	 1.068269e+01
0	 7.571429e+00	 5.000000e-01	 1.067573e+01
0	 7.571429e+00	 5.714286e-01	 1.066945e+01
0	 7.571429e+00	 6.428571e-01	 1.066385e+01
0	 7.571429e+00	 7.142857e-01	 1.065895e+01
0	 7.642857e+00	 3.571429e-01	 1.071457e+01
0	 7.642857e+00	 4.285714e-01	 1.070713e+01
0	 7.642857e+00	 5.000000e-01	 1.070034e+01
0	 7.642857e+00	 5.714286e-01	 1.069421e+01
0	 7.642857e+00	 6.428571e-01	 1.068874e+01
0	 7.642857e+00	 7.142857e-01	 1.068391e+01
0	 7.714286e+00	 3.571429e-01	 1.074003e+01
0	 7.714286e+00	 4.285714e-01	 1.073277e+01
0	 7.714286e+00	 5.000000e-01	 1.072614e+01
0	 7.714286e+00	 5.714286e-01	 1.072013e+01
0	 7.714286e+00	 6.428571e-01	 1.071474e+01
0	 7.714286e+00	 7.142857e-01	 1.070998e+01
0	 7.785714e+00	 3.571429e-01	 1.076672e+01
0	 7.785714e+00	 4.285714e-01	 1.075962e+01
0	 7.785714e+00	 5.000000e-01	 1.075312e+01
0	 7.785714e+00	 5.714286e-01	 1.074720e+01
0	 7.785714e+00	 6.428571e-01	 1.074188e+01
0	 7.785714e+00	 7.142857e-01	 1.073715e+01
0	 7.857143e+00	 3.571429e-01	 1.079464e+01
0	 7.857143e+00	 4.285714e-01	 1.078767e+01
0	 7.857143e+00	 5.000000e-01	 1.078127e+01
0	 7.857143e+00	 5.714286e-01	 1.077543e+01
0	 7.857143e+00	 6.428571e-01	 1.077015e+01
0	 7.857143e+00	 7.142857e-01	 1.076542e+01
0	 7.500000e+00	 7.142857e-01	 1.063508e+01
0	 7.500000e+00	 7.857143e-01	 1.062372e+01
0	 7.500000e+00	 8.571429e-01	 1.061296e+01
0	 7.500000e+00	 9.285714e-01	 1.060278e+01
0	 7.500000e+00	 1.000000e+00	 1.059321e+01
0	 7.500000e+00	 1.071429e+00	 1.058422e+01
0	 7.571429e+00	 7.142857e-01	 1.065895e+01
0	 7.571429e+00	 7.857143e-01	 1.064789e+01
0	 7.571429e+00	 8.571429e-01	 1.063740e+01
0	 7.571429e+00	 9.285714e-01	 1.062748e+01
0	 7.571429e+00	 1.000000e+00	 1.061814e+01
0	 7.571429e+00	 1.071429e+00	 1.060936e+01
0	 7.642857e+00	 7.142857e-01	 1.068391e+01
0	 7.642857e+00	 7.857143e-01	 1.067312e+01
0	 7.642857e+00	 8.571429e-01	 1.066287e+01
0	 7.642857e+00	 9.285714e-01	 1.065317e+01
0	 7.642857e+00	 1.000000e+00	 1.064402e+01
0	 7.642857e+00	 1.071429e+00	 1.063540e+01
0	 7.714286e+00	 7.142857e-01	 1.070998e+01
0	 7.714286e+00	 7.857143e-01	 1.069941e+01
0	 7.714286e+00	 8.571429e-01	 1.068937e+01
0	 7.714286e+00	 9.285714e-01	 1.067985e+01
0	 7.714286e+00	 1.000000e+00	 1.067084e+01
0	 7.714286e+00	 1.071429e+00	 1.066236e+01
0	 7.785714e+00	 7.142857e-01	 1.073715e+01
0	 7.785714e+00	 7.857143e-01	 1.072677e+01
0	 7.785714e+00	 8.571429e-01	 1.071689e+01
0	 7.785714e+00	 9.285714e-01	 1.070751e+01
0	 7.785714e+00	 1.000000e+00	 1.069862e+01
0	 7.785714e+00	 1.071429e+00	 1.069022e+01
0	 7.857143e+00	 7.142857e-01	 1.076542e+01
0	 7.857143e+00	 7.857143e-01	 1.075519e+01
0	 7.857143e+00	 8.571429e-01	 1.074544e+01
0	 7.857143e+00	 9.285714e-01	 1.073615e+01
0	 7.857143e+00	 1.000000e+00	 1.072734e+01
0	 7.857143e+00	 1.071429e+00	 1.071900e+01
0	 7.500000e+00	 1.071429e+00	 1.058422e+01
0	 7.500000e+00	 1.142857e+00	 1.057025e+01
0	 7.500000e+00	 1.214286e+00	 1.055672e+01
0	 7.500000e+00	 1.285714e+00	 1.054361e+01
0	 7.500000e+00	 1.357143e+00	 1.053094e+01
0	 7.500000e+00	 1.428571e+00	 1.051870e+01
0	 7.571429e+00	 1.071429e+00	 1.060936e+01
0	 7.571429e+00	 1.142857e+00	 1.059572e+01
0	 7.571429e+00	 1.214286e+00	 1.058249e+01
0	 7.571429e+00	 1.285714e+00	 1.056968e+01
0	 7.571429e+00	 1.357143e+00	 1.055728e+01
0	 7.571429e+00	 1.428571e+00	 1.054530e+01
0	 7.642857e+00	 1.071429e+00	 1.063540e+01
0	 7.642857e+00	 1.142857e+00	 1.062204e+01
0	 7.642857e+00	 1.214286e+00	 1.060908e+01
0	 7.642857e+00	 1.285714e+00	 1.059651e+01
0	 7.642857e+00	 1.357143e+00	 1.058435e+01
0	 7.642857e+00	 1.428571e+00	 1.057259e+01
0	 7.714286e+00	 1.071429e+00	 1.066236e+01
0	 7.714286e+00	 1.142857e+00	 1.064923e+01
0	 7.714286e+00	 1.214286e+00	 1.063648e+01
0	 7.714286e+00	 1.285714e+00	 1.062412e+01
0	 7.714286e+00	 1.357143e+00	 1.061214e+01
0	 7.714286e+00	 1.428571e+00	 1.060054e+01
0	 7.785714e+00	 1.071429e+00	 1.069022e+01
0	 7.785714e+00	 1.142857e+00	 1.067728e+01
0	 7.785714e+00	 1.214286e+00	 1.066470e+01
0	 7.785714e+00	 1.285714e+00	 1.065249e+01
0	 7.785714e+00	 1.357143e+00	 1.064065e+01
0	 7.785714e+00	 1.428571e+00	 1.062917e+01
0	 7.857143e+00	 1.071429e+00	 1.071900e+01
0	 7.857143e+00	 1.142857e+00	 1.070619e+01
0	 7.857143e+00	 1.214286e+00	 1.069373e+01
0	 7.857143e+00	 1.285714e+00	 1.068163e+01
0	 7.857143e+00	 1.357143e+00	 1.066987e+01
0	 7.857143e+00	 1.428571e+00	 1.065848e+01
0	 7.500000e+00	 1.428571e+00	 1.051870e+01
0	 7.500000e+00	 1.500000e+00	 1.050311e+01
0	 7.500000e+00	 1.571429e+00	 1.048777e+01
0	 7.500000e+00	 1.642857e+00	 1.047268e+01
0	 7.500000e+00	 1.714286e+00	 1.045784e+01
0	 7.500000e+00	 1.785714e+00	 1.044325e+01
0	 7.571429e+00	 1.428571e+00	 1.054530e+01
0	 7.571429e+00	 1.500000e+00	 1.053002e+01
0	 7.571429e+00	 1.571429e+00	 1.051497e+01
0	 7.571429e+00	 1.642857e+00	 1.050017e+01
0	 7.571429e+00	 1.714286e+00	 1.048561e+01
0	 7.571429e+00	 1.785714e+00	 1.047129e+01
0	 7.642857e+00	 1.428571e+00	 1.057259e+01
0	 7.642857e+00	 1.500000e+00	 1.055755e+01
0	 7.642857e+00	 1.571429e+00	 1.054275e+01
0	 7.642857e+00	 1.642857e+00	 1.052818e+01
0	 7.642857e+00	 1.714286e+00	 1.051385e+01
0	 7.642857e+00	 1.785714e+00	 1.049976e+01
0	 7.714286e+00	 1.428571e+00	 1.060054e+01
0	 7.714286e+00	 1.500000e+00	 1.058570e+01
0	 7.714286e+00	 1.571429e+00	 1.057109e+01
0	 7.714286e+00	 1.642857e+00	 1.055671e+01
0	 7.714286e+00	 1.714286e+00	 1.054256e+01
0	 7.714286e+00	 1.785714e+00	 1.052865e+01
0	 7.785714e+00	 1.428571e+00	 1.062917e+01
0	 7.785714e+00	 1.500000e+00	 1.061448e+01
0	 7.785714e+00	 1.571429e+00	 1.060001e+01
0	 7.785714e+00	 1.642857e+00	 1.058577e+01
0	 7.785714e+00	 1.714286e+00	 1.057175e+01
0	 7.785714e+00	 1.785714e+00	 1.055795e+01
0	 7.857143e+00	 1.428571e+00	 1.065848e+01
0	 7.857143e+00	 1.500000e+00	 1.064388e+01
0	 7.857143e+00	 1.571429e+00	 1.062951e+01
0	 7.857143e+00	 1.642857e+00	 1.061535e+01
0	 7.857143e+00	 1.714286e+00	 1.060140e+01
0	 7.857143e+00	 1.785714e+00	 1.058768e+01
0	 7.500000e+00	 1.785714e+00	 1.044325e+01
0	 7.500000e+00	 1.857143e+00	 1.042705e+01
0	 7.500000e+00	 1.928571e+00	 1.041091e+01
0	 7.500000e+00	 2.000000e+00	 1.039484e+01
0	 7.500000e+00	 2.071429e+00	 1.037884e+01
0	 7.500000e+00	 2.142857e+00	 1.036290e+01
0	 7.571429e+00	 1.785714e+00	 1.047129e+01
0	 7.571429e+00	 1.857143e+00	 1.045532e+01
0	 7.571429e+00	 1.928571e+00	 1.043941e+01
0	 7.571429e+00	 2.000000e+00	 1.042358e+01
0	 7.571429e+00	 2.071429e+00	 1.040781e+01
0	 7.571429e+00	 2.142857e+00	 1.039211e+01
0	 7.642857e+00	 1.785714e+00	 1.049976e+01
0	 7.642857e+00	 1.857143e+00	 1.048396e+01
0	 7.642857e+00	 1.928571e+00	 1.046824e+01
0	 7.642857e+00	 2.000000e+00	 1.045259e+01
0	 7.642857e+00	 2.071429e+00	 1.043701e+01
0	 7.642857e+00	 2.142857e+00	 1.042150e+01
0	 7.714286e+00	 1.785714e+00	 1.052865e+01
0	 7.714286e+00	 1.857143e+00	 1.051298e+01
0	 7.714286e+00	 1.928571e+00	 1.049739e+01
0	 7.714286e+00	 2.000000e+00	 1.048187e+01
0	 7.714286e+00	 2.071429e+00	 1.046643e+01
0	 7.714286e+00	 2.142857e+00	 1.045107e+01
0	 7.785714e+00	 1.785714e+00	 1.055795e+01
0	 7.785714e+00	 1.857143e+00	 1.054237e+01
0	 7.785714e+00	 1.928571e+00	 1.052686e+01
0	 7.785714e+00	 2.000000e+00	 1.051144e+01
0	 7.785714e+00	 2.071429e+00	 1.049608e+01
0	 7.785714e+00	 2.142857e+00	 1.048081e+01
0	 7.857143e+00	 1.785714e+00	 1.058768e+01
0	 7.857143e+00	 1.857143e+00	 1.057213e+01
0	 7.857143e+00	 1.928571e+00	 1.055666e+01
0	 7.857143e+00	 2.000000e+00	 1.054127e+01
0	 7.857143e+00	 2.071429e+00	 1.052596e+01
0	 7.857143e+00	 2.142857e+00	 1.051073e+01
0	 7.500000e+00	 2.142857e+00	 1.036290e+01
0	 7.500000e+00	 2.214286e+00	 1.034699e+01
0	 7.500000e+00	 2.285714e+00	 1.033098e+01
0	 7.500000e+00	 2.357143e+00	 1.031488e+01
0	 7.500000e+00	 2.428571e+00	 1.029868e+01
0	 7.500000e+00	 2.500000e+00	 1.028238e+01
0	 7.571429e+00	 2.142857e+00	 1.039211e+01
0	 7.571429e+00	 2.214286e+00	 1.037633e+01
0	 7.571429e+00	 2.285714e+00	 1.036045e+01
0	 7.571429e+00	 2.357143e+00	 1.034449e+01
0	 7.571429e+00	 2.428571e+00	 1.032844e+01
0	 7.571429e+00	 2.500000e+00	 1.031230e+01
0	 7.642857e+00	 2.142857e+00	 1.042150e+01
0	 7.642857e+00	 2.214286e+00	 1.040579e+01
0	 7.642857e+00	 2.285714e+00	 1.039001e+01
0	 7.642857e+00	 2.357143e+00	 1.037415e+01
0	 7.642857e+00	 2.428571e+00	 1.035821e+01
0	 7.642857e+00	 2.500000e+00	 1.034220e+01
0	 7.714286e+00	 2.142857e+00	 1.045107e+01
0	 7.714286e+00	 2.214286e+00	 1.043540e+01
0	 7.714286e+00	 2.285714e+00	 1.041966e+01
0	 7.714286e+00	 2.357143e+00	 1.040386e+01
0	 7.714286e+00	 2.428571e+00	 1.038799e+01
0	 7.714286e+00	 2.500000e+00	 1.037205e+01
0	 7.785714e+00	 2.142857e+00	 1.048081e+01
0	 7.785714e+00	 2.214286e+00	 1.046514e+01
0	 7.785714e+00	 2.285714e+00	 1.044940e+01
0	 7.785714e+00	 2.357143e+00	 1.043361e+01
0	 7.785714e+00	 2.428571e+00	 1.041777e+01
0	 7.785714e+00	 2.500000e+00	 1.040187e+01
0	 7.857143e+00	 2.142857e+00	 1.051073e+01
0	 7.857143e+00	 2.214286e+00	 1.049501e+01
0	 7.857143e+00	 2.285714e+00	 1.047924e+01
0	 7.857143e+00	 2.357143e+00	 1.046342e+01
0	 7.857143e+00	 2.428571e+00	 1.044756e+01
0	 7.857143e+00	 2.500000e+00	 1.043164e+01
0	 7.500000e+00	 2.500000e+00	 1.028238e+01
0	 7.500000e+00	 2.571429e+00	 1.026751e+01
0	 7.500000e+00	 2.642857e+00	 1.025241e+01
0	 7.500000e+00	 2.714286e+00	 1.023707e+01
0	 7.500000e+00	 2.785714e+00	 1.022151e+01
0	 7.500000e+00	 2.857143e+00	 1.020571e+01
0	 7.571429e+00	 2.500000e+00	 1.031230e+01
0	 7.571429e+00	 2.571429e+00	 1.029744e+01
0	 7.571429e+00	 2.642857e+00	 1.028235e+01
0	 7.571429e+00	 2.714286e+00	 1.026705e+01
0	 7.571429e+00	 2.785714e+00	 1.025153e+01
0	 7.571429e+00	 2.857143e+00	 1.023579e+01
0	 7.642857e+00	 2.500000e+00	 1.034220e+01
0	 7.642857e+00	 2.571429e+00	 1.032729e+01
0	 7.642857e+00	 2.642857e+00	 1.031219e+01
0	 7.642857e+00	 2.714286e+00	 1.029688e+01
0	 7.642857e+00	 2.785714e+00	 1.028137e+01
0	 7.642857e+00	 2.857143e+00	 1.026566e+01
0	 7.714286e+00	 2.500000e+00	 1.037205e+01
0	 7.714286e+00	 2.571429e+00	 1.035707e+01
0	 7.714286e+00	 2.642857e+00	 1.034191e+01
0	 7.714286e+00	 2.714286e+00	 1.032657e+01
0	 7.714286e+00	 2.785714e+00	 1.031104e+01
0	 7.714286e+00	 2.857143e+00	 1.029532e+01
0	 7.785714e+00	 2.500000e+00	 1.040187e+01
0	 7.785714e+00	 2.571429e+00	 1.038678e+01
0	 7.785714e+00	 2.642857e+00	 1.037153e+01
0	 7.785714e+00	 2.714286e+00	 1.035611e+01
0	 7.785714e+00	 2.785714e+00	 1.034053e+01
0	 7.785714e+00	 2.857143e+00	 1.032477e+01
0	 7.857143e+00	 2.500000e+00	 1.043164e+01
0	 7.857143e+00	 2.571429e+00	 1.041642e+01
0	 7.857143e+00	 2.642857e+00	 1.040105e+01
0	 7.857143e+00	 2.714286e+00	 1.038552e+01
0	 7.857143e+00	 2.785714e+00	 1.036984e+01
0	 7.857143e+00	 2.857143e+00	 1.035400e+01
0	 7.500000e+00	 2.857143e+00	 1.020571e+01
0	 7.500000e+00	 2.928571e+00	 1.019243e+01
0	 7.500000e+00	 3.000000e+00	 1.017882e+01
0	 7.500000e+00	 3.071429e+00	 1.016488e+01
0	 7.500000e+00	 3.142857e+00	 1.015060e+01
0	 7.500000e+00	 3.214286e+00	 1.013600e+01
0	 7.571429e+00	 2.857143e+00	 1.023579e+01
0	 7.571429e+00	 2.928571e+00	 1.022238e+01
0	 7.571429e+00	 3.000000e+00	 1.020866e+01
0	 7.571429e+00	 3.071429e+00	 1.019463e+01
0	 7.571429e+00	 3.142857e+00	 1.018028e+01
0	 7.571429e+00	 3.214286e+00	 1.016563e+01
0	 7.642857e+00	 2.857143e+00	 1.026566e+01
0	 7.642857e+00	 2.928571e+00	 1.025210e+01
0	 7.642857e+00	 3.000000e+00	 1.023824e+01
0	 7.642857e+00	 3.071429e+00	 1.022409e+01
0	 7.642857e+00	 3.142857e+00	 1.020965e+01
0	 7.642857e+00	 3.214286e+00	 1.019492e+01
0	 7.714286e+00	 2.857143e+00	 1.029532e+01
0	 7.714286e+00	 2.928571e+00	 1.028158e+01
0	 7.714286e+00	 3.000000e+00	 1.026756e+01
0	 7.714286e+00	 3.071429e+00	 1.025326e+01
0	 7.714286e+00	 3.142857e+00	 1.023870e+01
0	 7.714286e+00	 3.214286e+00	 1.022387e+01
0	 7.785714e+00	 2.857143e+00	 1.032477e+01
0	 7.785714e+00	 2.928571e+00	 1.031082e+01
0	 7.785714e+00	 3.000000e+00	 1.029661e+01
0	 7.785714e+00	 3.071429e+00	 1.028215e+01
0	 7.785714e+00	 3.142857e+00	 1.026744e+01
0	 7.785714e+00	 3.214286e+00	 1.025247e+01
0	 7.857143e+00	 2.857143e+00	 1.035400e+01
0	 7.857143e+00	 2.928571e+00	 1.033982e+01
0	 7.857143e+00	 3.000000e+00	 1.032540e+01
0	 7.857143e+00	 3.071429e+00	 1.031075e+01
0	 7.857143e+00	 3.142857e+00	 1.029586e+01
0	 7.857143e+00	 3.214286e+00	 1.028074e+01
0	 7.500000e+00	 3.214286e+00	 1.013600e+01
0	 7.500000e+00	 3.285714e+00	 1.012464e+01
0	 7.500000e+00	 3.357143e+00	 1.011289e+01
0	 7.500000e+00	 3.428571e+00	 1.010076e+01
0	 7.500000e+00	 3.500000e+00	 1.008823e+01
0	 7.500000e+00	 3.571429e+00	 1.007532e+01
0	 7.571429e+00	 3.214286e+00	 1.016563e+01
0	 7.571429e+00	 3.285714e+00	 1.015402e+01
0	 7.571429e+00	 3.357143e+00	 1.014205e+01
0	 7.571429e+00	 3.428571e+00	 1.012970e+01
0	 7.571429e+00	 3.500000e+00	 1.011699e+01
0	 7.571429e+00	 3.571429e+00	 1.010391e+01
0	 7.642857e+00	 3.214286e+00	 1.019492e+01
0	 7.642857e+00	 3.285714e+00	 1.018304e+01
0	 7.642857e+00	 3.357143e+00	 1.017082e+01
0	 7.642857e+00	 3.428571e+00	 1.015825e+01
0	 7.642857e+00	 3.500000e+00	 1.014534e+01
0	 7.642857e+00	 3.571429e+00	 1.013207e+01
0	 7.714286e+00	 3.214286e+00	 1.022387e+01
0	 7.714286e+00	 3.285714e+00	 1.021171e+01
0	 7.714286e+00	 3.357143e+00	 1.019923e+01
0	 7.714286e+00	 3.428571e+00	 1.018642e+01
0	 7.714286e+00	 3.500000e+00	 1.017328e+01
0	 7.714286e+00	 3.571429e+00	 1.015981e+01
0	 7.785714e+00	 3.214286e+00	 1.025247e+01
0	 7.785714e+00	 3.285714e+00	 1.024002e+01
0	 7.785714e+00	 3.357143e+00	 1.022726e+01
0	 7.785714e+00	 3.428571e+00	 1.021419e+01
0	 7.785714e+00	 3.500000e+00	 1.020081e+01
0	 7.785714e+00	 3.571429e+00	 1.018713e+01
0	 7.857143e+00	 3.214286e+00	 1.028074e+01
0	 7.857143e+00	 3.285714e+00	 1.026797e+01
0	 7.857143e+00	 3.357143e+00	 1.025491e+01
0	 7.857143e+00	 3.428571e+00	 1.024157e+01
0	 7.857143e+00	 3.500000e+00	 1.022794e+01
0	 7.857143e+00	 3.571429e+00	 1.021403e+01
0	 7.500000e+00	 3.571429e+00	 1.007532e+01
0	 7.500000e+00	 3.642857e+00	 1.006603e+01
0	 7.500000e+00	 3.714286e+00	 1.005633e+01
0	 7.500000e+00	 3.785714e+00	 1.004621e+01
0	 7.500000e+00	 3.857143e+00	 1.003568e+01
0	 7.500000e+00	 3.928571e+00	 1.002474e+01
0	 7.571429e+00	 3.571429e+00	 1.010391e+01
0	 7.571429e+00	 3.642857e+00	 1.009427e+01
0	 7.571429e+00	 3.714286e+00	 1.008423e+01
0	 7.571429e+00	 3.785714e+00	 1.007381e+01
0	 7.571429e+00	 3.857143e+00	 1.006299e+01
0	 7.571429e+00	 3.928571e+00	 1.005178e+01
0	 7.642857e+00	 3.571429e+00	 1.013207e+01
0	 7.642857e+00	 3.642857e+00	 1.012207e+01
0	 7.642857e+00	 3.714286e+00	 1.011170e+01
0	 7.642857e+00	 3.785714e+00	 1.010096e+01
0	 7.642857e+00	 3.857143e+00	 1.008984e+01
0	 7.642857e+00	 3.928571e+00	 1.007835e+01
0	 7.714286e+00	 3.571429e+00	 1.015981e+01
0	 7.714286e+00	 3.642857e+00	 1.014945e+01
0	 7.714286e+00	 3.714286e+00	 1.013873e+01
0	 7.714286e+00	 3.785714e+00	 1.012766e+01
0	 7.714286e+00	 3.857143e+00	 1.011623e+01
0	 7.714286e+00	 3.928571e+00	 1.010446e+01
0	 7.785714e+00	 3.571429e+00	 1.018713e+01
0	 7.785714e+00	 3.642857e+00	 1.017639e+01
0	 7.785714e+00	 3.714286e+00	 1.016532e+01
0	 7.785714e+00	 3.785714e+00	 1.015391e+01
0	 7.785714e+00	 3.857143e+00	 1.014217e+01
0	 7.785714e+00	 3.928571e+00	 1.013010e+01
0	 7.857143e+00	 3.571429e+00	 1.021403e+01
0	 7.857143e+00	 3.642857e+00	 1.020290e+01
0	 7.857143e+00	 3.714286e+00	 1.019146e+01
0	 7.857143e+00	 3.785714e+00	 1.017971e+01
0	 7.857143e+00	 3.857143e+00	 1.016765e+01
0	 7.857143e+00	 3.928571e+00	 1.015527e+01
0	 7.500000e+00	 3.928571e+00	 1.002474e+01
0	 7.500000e+00	 4.000000e+00	 1.001751e+01
0	 7.500000e+00	 4.071429e+00	 1.000988e+01
0	 7.500000e+00	 4.142857e+00	 1.000184e+01
0	 7.500000e+00	 4.214286e+00	 9.993388e+00
0	 7.500000e+00	 4.285714e+00	 9.984530e+00
0	 7.571429e+00	 3.928571e+00	 1.005178e+01
0	 7.571429e+00	 4.000000e+00	 1.004413e+01
0	 7.571429e+00	 4.071429e+00	 1.003608e+01
0	 7.571429e+00	 4.142857e+00	 1.002765e+01
0	 7.571429e+00	 4.214286e+00	 1.001883e+01
0	 7.571429e+00	 4.285714e+00	 1.000962e+01
0	 7.642857e+00	 3.928571e+00	 1.007835e+01
0	 7.642857e+00	 4.000000e+00	 1.007027e+01
0	 7.642857e+00	 4.071429e+00	 1.006181e+01
0	 7.642857e+00	 4.142857e+00	 1.005299e+01
0	 7.642857e+00	 4.214286e+00	 1.004379e+01
0	 7.642857e+00	 4.285714e+00	 1.003422e+01
0	 7.714286e+00	 3.928571e+00	 1.010446e+01
0	 7.714286e+00	 4.000000e+00	 1.009594e+01
0	 7.714286e+00	 4.071429e+00	 1.008708e+01
0	 7.714286e+00	 4.142857e+00	 1.007785e+01
0	 7.714286e+00	 4.214286e+00	 1.006828e+01
0	 7.714286e+00	 4.285714e+00	 1.005835e+01
0	 7.785714e+00	 3.928571e+00	 1.013010e+01
0	 7.785714e+00	 4.000000e+00	 1.012115e+01
0	 7.785714e+00	 4.071429e+00	 1.011186e+01
0	 7.785714e+00	 4.142857e+00	 1.010225e+01
0	 7.785714e+00	 4.214286e+00	 1.009229e+01
0	 7.785714e+00	 4.285714e+00	 1.008200e+01
0	 7.857143e+00	 3.928571e+00	 1.015527e+01
0	 7.857143e+00	 4.000000e+00	 1.014588e+01
0	 7.857143e+00	 4.071429e+00	 1.013618e+01
0	 7.857143e+00	 4.142857e+00	 1.012616e+01
0	 7.857143e+00	 4.214286e+00	 1.011583e+01
0	 7.857143e+00	 4.285714e+00	 1.010518e+01
0	 7.500000e+00	 4.285714e+00	 9.984530e+00
0	 7.500000e+00	 4.357143e+00	 9.979245e+00
0	 7.500000e+00	 4.428571e+00	 9.973579e+00
0	 7.500000e+00	 4.500000e+00	 9.967532e+00
0	 7.500000e+00	 4.571429e+00	 9.961104e+00
0	 7.500000e+00	 4.642857e+00	 9.954295e+00
0	 7.571429e+00	 4.285714e+00	 1.000962e+01
0	 7.571429e+00	 4.357143e+00	 1.000385e+01
0	 7.571429e+00	 4.428571e+00	 9.997724e+00
0	 7.571429e+00	 4.500000e+00	 9.991230e+00
0	 7.571429e+00	 4.571429e+00	 9.984370e+00
0	 7.571429e+00	 4.642857e+00	 9.977145e+00
0	 7.642857e+00	 4.285714e+00	 1.003422e+01
0	 7.642857e+00	 4.357143e+00	 1.002798e+01
0	 7.642857e+00	 4.428571e+00	 1.002140e+01
0	 7.642857e+00	 4.500000e+00	 1.001446e+01
0	 7.642857e+00	 4.571429e+00	 1.000717e+01
0	 7.642857e+00	 4.642857e+00	 9.999529e+00
0	 7.714286e+00	 4.285714e+00	 1.005835e+01
0	 7.714286e+00	 4.357143e+00	 1.005164e+01
0	 7.714286e+00	 4.428571e+00	 1.004459e+01
0	 7.714286e+00	 4.500000e+00	 1.003721e+01
0	 7.714286e+00	 4.571429e+00	 1.002950e+01
0	 7.714286e+00	 4.642857e+00	 1.002145e+01
0	 7.785714e+00	 4.285714e+00	 1.008200e+01
0	 7.785714e+00	 4.357143e+00	 1.007482e+01
0	 7.785714e+00	 4.428571e+00	 1.006732e+01
0	 7.785714e+00	 4.500000e+00	 1.005950e+01
0	 7.785714e+00	 4.571429e+00	 1.005136e+01
0	 7.785714e+00	 4.642857e+00	 1.004290e+01
0	 7.857143e+00	 4.285714e+00	 1.010518e+01
0	 7.857143e+00	 4.357143e+00	 1.009752e+01
0	 7.857143e+00	 4.428571e+00	 1.008957e+01
0	 7.857143e+00	 4.500000e+00	 1.008131e+01
0	 7.857143e+00	 4.571429e+00	 1.007275e+01
0	 7.857143e+00	 4.642857e+00	 1.006388e+01
0	 7.500000e+00	 4.642857e+00	 9.954295e+00
0	 7.500000e+00	 4.714286e+00	 9.950757e+00
0	 7.500000e+00	 4.785714e+00	 9.946879e+00
0	 7.500000e+00	 4.857143e+00	 9.942661e+00
0	 7.500000e+00	 4.928571e+00	 9.938104e+00
0	 7.500000e+00	 5.000000e+00	 9.933206e+00
0	 7.571429e+00	 4.642857e+00	 9.977145e+00
0	 7.571429e+00	 4.714286e+00	 9.973102e+00
0	 7.571429e+00	 4.785714e+00	 9.968732e+00
0	 7.571429e+00	 4.857143e+00	 9.964034e+00
0	 7.571429e+00	 4.928571e+00	 9.959010e+00
0	 7.571429e+00	 5.000000e+00	 9.953658e+00
0	 7.642857e+00	 4.642857e+00	 9.999529e+00
0	 7.642857e+00	 4.714286e+00	 9.994986e+00
0	 7.642857e+00	 4.785714e+00	 9.990129e+00
0	 7.642857e+00	 4.857143e+00	 9.984958e+00
0	 7.642857e+00	 4.928571e+00	 9.979471e+00
0	 7.642857e+00	 5.000000e+00	 9.973671e+00
0	 7.714286e+00	 4.642857e+00	 1.002145e+01
0	 7.714286e+00	 4.714286e+00	 1.001641e+01
0	 7.714286e+00	 4.785714e+00	 1.001107e+01
0	 7.714286e+00	 4.857143e+00	 1.000543e+01
0	 7.714286e+00	 4.928571e+00	 9.999489e+00
0	 7.714286e+00	 5.000000e+00	 9.993245e+00
0	 7.785714e+00	 4.642857e+00	 1.004290e+01
0	 7.785714e+00	 4.714286e+00	 1.003737e+01
0	 7.785714e+00	 4.785714e+00	 1.003156e+01
0	 7.785714e+00	 4.857143e+00	 1.002545e+01
0	 7.785714e+00	 4.928571e+00	 1.001906e+01
0	 7.785714e+00	 5.000000e+00	 1.001238e+01
0	 7.857143e+00	 4.642857e+00	 1.006388e+01
0	 7.857143e+00	 4.714286e+00	 1.005787e+01
0	 7.857143e+00	 4.785714e+00	 1.005159e+01
0	 7.857143e+00	 4.857143e+00	 1.004503e+01
0	 7.857143e+00	 4.928571e+00	 1.003819e+01
0	 7.857143e+00	 5.000000e+00	 1.003108e+01
0	 7.500000e+00	 5.000000e+00	 9.933206e+00
0	 7.500000e+00	 5.071429e+00	 9.931180e+00
0	 7.500000e+00	 5.142857e+00	 9.928864e+00
0	 7.500000e+00	 5.214286e+00	 9.926257e+00
0	 7.500000e+00	 5.285714e+00	 9.923359e+00
0	 7.500000e+00	 5.357143e+00	 9.920170e+00
0	 7.571429e+00	 5.000000e+00	 9.953658e+00
0	 7.571429e+00	 5.071429e+00	 9.951122e+00
0	 7.571429e+00	 5.142857e+00	 9.948305e+00
0	 7.571429e+00	 5.214286e+00	 9.945207e+00
0	 7.571429e+00	 5.285714e+00	 9.941828e+00
0	 7.571429e+00	 5.357143e+00	 9.938168e+00
0	 7.642857e+00	 5.000000e+00	 9.973671e+00
0	 7.642857e+00	 5.071429e+00	 9.970632e+00
0	 7.642857e+00	 5.142857e+00	 9.967322e+00
0	 7.642857e+00	 5.214286e+00	 9.963740e+00
0	 7.642857e+00	 5.285714e+00	 9.959887e+00
0	 7.642857e+00	 5.357143e+00	 9.955763e+00
0	 7.714286e+00	 5.000000e+00	 9.993245e+00
0	 7.714286e+00	 5.071429e+00	 9.989710e+00
0	 7.714286e+00	 5.142857e+00	 9.985915e+00
0	 7.714286e+00	 5.214286e+00	 9.981857e+00
0	 7.714286e+00	 5.285714e+00	 9.977538e+00
0	 7.714286e+00	 5.357143e+00	 9.972958e+00
0	 7.785714e+00	 5.000000e+00	 1.001238e+01
0	 7.785714e+00	 5.071429e+00	 1.000836e+01
0	 7.785714e+00	 5.142857e+00	 1.000408e+01
0	 7.785714e+00	 5.214286e+00	 9.999557e+00
0	 7.785714e+00	 5.285714e+00	 9.994780e+00
0	 7.785714e+00	 5.357143e+00	 9.989750e+00
0	 7.857143e+00	 5.000000e+00	 1.003108e+01
0	 7.857143e+00	 5.071429e+00	 1.002657e+01
0	 7.857143e+00	 5.142857e+00	 1.002183e+01
0	 7.857143e+00	 5.214286e+00	 1.001684e+01
0	 7.857143e+00	 5.285714e+00	 1.001161e+01
0	 7.857143e+00	 5.357143e+00	 1.000614e+01
0	 7.500000e+00	 5.357143e+00	 9.920170e+00
0	 7.500000e+00	 5.428571e+00	 9.919409e+00
0	 7.500000e+00	 5.500000e+00	 9.918408e+00
0	 7.500000e+00	 5.571429e+00	 9.917169e+00
0	 7.500000e+00	 5.642857e+00	 9.915691e+00
0	 7.500000e+00	 5.714286e+00	 9.913975e+00
0	 7.571429e+00	 5.357143e+00	 9.938168e+00
0	 7.571429e+00	 5.428571e+00	 9.936907e+00
0	 7.571429e+00	 5.500000e+00	 9.935416e+00
0	 7.571429e+00	 5.571429e+00	 9.933692e+00
0	 7.571429e+00	 5.642857e+00	 9.931737e+00
0	 7.571429e+00	 5.714286e+00	 9.929551e+00
0	 7.642857e+00	 5.357143e+00	 9.955763e+00
0	 7.642857e+00	 5.428571e+00	 9.954013e+00
0	 7.642857e+00	 5.500000e+00	 9.952038e+00
0	 7.642857e+00	 5.571429e+00	 9.949839e+00
0	 7.642857e+00	 5.642857e+00	 9.947415e+00
0	 7.642857e+00	 5.714286e+00	 9.944767e+00
0	 7.714286e+00	 5.357143e+00	 9.972958e+00
0	 7.714286e+00	 5.428571e+00	 9.970726e+00
0	 7.714286e+00	 5.500000e+00	 9.968276e+00
0	 7.714286e+00	 5.571429e+00	 9.965610e+00
0	 7.714286e+00	 5.642857e+00	 9.962725e+00
0	 7.714286e+00	 5.714286e+00	 9.959624e+00
0	 7.785714e+00	 5.357143e+00	 9.989750e+00
0	 7.785714e+00	 5.428571e+00	 9.987045e+00
0	 7.785714e+00	 5.500000e+00	 9.984130e+00
0	 7.785714e+00	 5.571429e+00	 9.981004e+00
0	 7.785714e+00	 5.642857e+00	 9.977668e+00
0	 7.785714e+00	 5.714286e+00	 9.974121e+00
0	 7.857143e+00	 5.357143e+00	 1.000614e+01
0	 7.857143e+00	 5.428571e+00	 1.000297e+01
0	 7.857143e+00	 5.500000e+00	 9.999598e+00
0	 7.857143e+00	 5.571429e+00	 9.996022e+00
0	 7.857143e+00	 5.642857e+00	 9.992242e+00
0	 7.857143e+00	 5.714286e+00	 9.988259e+00
0	 7.500000e+00	 5.714286e+00	 9.913975e+00
0	 7.500000e+00	 5.785714e+00	 9.914231e+00
0	 7.500000e+00	 5.857143e+00	 9.914301e+00
0	 7.500000e+00	 5.928571e+00	 9.914184e+00
0	 7.500000e+00	 6.000000e+00	 9.913881e+00
0	 7.500000e+00	 6.071429e+00	 9.913390e+00
0	 7.571429e+00	 5.714286e+00	 9.929551e+00
0	 7.571429e+00	 5.785714e+00	 9.929334e+00
0	 7.571429e+00	 5.857143e+00	 9.928935e+00
0	 7.571429e+00	 5.928571e+00	 9.928354e+00
0	 7.571429e+00	 6.000000e+00	 9.927591e+00
0	 7.571429e+00	 6.071429e+00	 9.926645e+00
0	 7.642857e+00	 5.714286e+00	 9.944767e+00
0	 7.642857e+00	 5.785714e+00	 9.944086e+00
0	 7.642857e+00	 5.857143e+00	 9.943227e+00
0	 7.642857e+00	 5.928571e+00	 9.942190e+00
0	 7.642857e+00	 6.000000e+00	 9.940976e+00
0	 7.642857e+00	 6.071429e+00	 9.939585e+00
0	 7.714286e+00	 5.714286e+00	 9.959624e+00
0	 7.714286e+00	 5.785714e+00	 9.958487e+00
0	 7.714286e+00	 5.857143e+00	 9.957176e+00
0	 7.714286e+00	 5.928571e+00	 9.955693e+00
0	 7.714286e+00	 6.000000e+00	 9.954038e+00
0	 7.714286e+00	 6.071429e+00	 9.952209e+00
0	 7.785714e+00	 5.714286e+00	 9.974121e+00
0	 7.785714e+00	 5.785714e+00	 9.972537e+00
0	 7.785714e+00	 5.857143e+00	 9.970784e+00
0	 7.785714e+00	 5.928571e+00	 9.968863e+00
0	 7.785714e+00	 6.000000e+00	 9.966774e+00
0	 7.785714e+00	 6.071429e+00	 9.964517e+00
0	 7.857143e+00	 5.714286e+00	 9.988259e+00
0	 7.857143e+00	 5.785714e+00	 9.986236e+00
0	 7.857143e+00	 5.857143e+00	 9.984050e+00
0	 7.857143e+00	 5.928571e+00	 9.981700e+00
0	 7.857143e+00	 6.000000e+00	 9.979186e+00
0	 7.857143e+00	 6.071429e+00	 9.976509e+00
0	 7.500000e+00	 6.071429e+00	 9.913390e+00
0	 7.500000e+00	 6.142857e+00	 9.914435e+00
0	 7.500000e+00	 6.214286e+00	 9.915342e+00
0	 7.500000e+00	 6.285714e+00	 9.916111e+00
0	 7.500000e+00	 6.357143e+00	 9.916743e+00
0	 7.500000e+00	 6.428571e+00	 9.917237e+00
0	 7.571429e+00	 6.071429e+00	 9.926645e+00
0	 7.571429e+00	 6.142857e+00	 9.927251e+00
0	 7.571429e+00	 6.214286e+00	 9.927721e+00
0	 7.571429e+00	 6.285714e+00	 9.928056e+00
0	 7.571429e+00	 6.357143e+00	 9.928256e+00
0	 7.571429e+00	 6.428571e+00	 9.928320e+00
0	 7.642857e+00	 6.071429e+00	 9.939585e+00
0	 7.642857e+00	 6.142857e+00	 9.939759e+00
0	 7.642857e+00	 6.214286e+00	 9.939801e+00
0	 7.642857e+00	 6.285714e+00	 9.939711e+00
0	 7.642857e+00	 6.357143e+00	 9.939488e+00
0	 7.642857e+00	 6.428571e+00	 9.939132e+00
0	 7.714286e+00	 6.071429e+00	 9.952209e+00
0	 7.714286e+00	 6.142857e+00	 9.951961e+00
0	 7.714286e+00	 6.214286e+00	 9.951584e+00
0	 7.714286e+00	 6.285714e+00	 9.951076e+00
0	 7.714286e+00	 6.357143e+00	 9.950439e+00
0	 7.714286e+00	 6.428571e+00	 9.949672e+00
0	 7.785714e+00	 6.071429e+00	 9.964517e+00
0	 7.785714e+00	 6.142857e+00	 9.963856e+00
0	 7.785714e+00	 6.214286e+00	 9.963068e+00
0	 7.785714e+00	 6.285714e+00	 9.962152e+00
0	 7.785714e+00	 6.357143e+00	 9.961109e+00
0	 7.785714e+00	 6.428571e+00	 9.959939e+00
0	 7.857143e+00	 6.071429e+00	 9.976509e+00
0	 7.857143e+00	 6.142857e+00	 9.975444e+00
0	 7.857143e+00	 6.214286e+00	 9.974254e+00
0	 7.857143e+00	 6.285714e+00	 9.972939e+00
0	 7.857143e+00	 6.357143e+00	 9.971499e+00
0	 7.857143e+00	 6.428571e+00	 9.969934e+00
0	 7.500000e+00	 6.428571e+00	 9.917237e+00
0	 7.500000e+00	 6.500000e+00	 9.918859e+00
0	 7.500000e+00	 6.571429e+00	 9.920388e+00
0	 7.500000e+00	 6.642857e+00	 9.921825e+00
0	 7.500000e+00	 6.714286e+00	 9.923170e+00
0	 7.500000e+00	 6.785714e+00	 9.924422e+00
0	 7.571429e+00	 6.428571e+00	 9.928320e+00
0	 7.571429e+00	 6.500000e+00	 9.929542e+00
0	 7.571429e+00	 6.571429e+00	 9.930672e+00
0	 7.571429e+00	 6.642857e+00	 9.931711e+00
0	 7.571429e+00	 6.714286e+00	 9.932657e+00
0	 7.571429e+00	 6.785714e+00	 9.933513e+00
0	 7.642857e+00	 6.428571e+00	 9.939132e+00
0	 7.642857e+00	 6.500000e+00	 9.939962e+00
0	 7.642857e+00	 6.571429e+00	 9.940701e+00
0	 7.642857e+00	 6.642857e+00	 9.941349e+00
0	 7.642857e+00	 6.714286e+00	 9.941907e+00
0	 7.642857e+00	 6.785714e+00	 9.942374e+00
0	 7.714286e+00	 6.428571e+00	 9.949672e+00
0	 7.714286e+00	 6.500000e+00	 9.950118e+00
0	 7.714286e+00	 6.571429e+00	 9.950475e+00
0	 7.714286e+00	 6.642857e+00	 9.950741e+00
0	 7.714286e+00	 6.714286e+00	 9.950918e+00
0	 7.714286e+00	 6.785714e+00	 9.951005e+00
0	 7.785714e+00	 6.428571e+00	 9.959939e+00
0	 7.785714e+00	 6.500000e+00	 9.960011e+00
0	 7.785714e+00	 6.571429e+00	 9.959993e+00
0	 7.785714e+00	 6.642857e+00	 9.959887e+00
0	 7.785714e+00	 6.714286e+00	 9.959692e+00
0	 7.785714e+00	 6.785714e+00	 9.959407e+00
0	 7.857143e+00	 6.428571e+00	 9.969934e+00
0	 7.857143e+00	 6.500000e+00	 9.969640e+00
0	 7.857143e+00	 6.571429e+00	 9.969257e+00
0	 7.857143e+00	 6.642857e+00	 9.968786e+00
0	 7.857143e+00	 6.714286e+00	 9.968227e+00
0	 7.857143e+00	 6.785714e+00	 9.967580e+00
0	 7.500000e+00	 6.785714e+00	 9.924422e+00
0	 7.500000e+00	 6.857143e+00	 9.926431e+00
0	 7.500000e+00	 6.928571e+00	 9.928388e+00
0	 7.500000e+00	 7.000000e+00	 9.930294e+00
0	 7.500000e+00	 7.071429e+00	 9.932148e+00
0	 7.500000e+00	 7.142857e+00	 9.933951e+00
0	 7.571429e+00	 6.785714e+00	 9.933513e+00
0	 7.571429e+00	 6.857143e+00	 9.935162e+00
0	 7.571429e+00	 6.928571e+00	 9.936760e+00
0	 7.571429e+00	 7.000000e+00	 9.938306e+00
0	 7.571429e+00	 7.071429e+00	 9.939800e+00
0	 7.571429e+00	 7.142857e+00	 9.941242e+00
0	 7.642857e+00	 6.785714e+00	 9.942374e+00
0	 7.642857e+00	 6.857143e+00	 9.943673e+00
0	 7.642857e+00	 6.928571e+00	 9.944919e+00
0	 7.642857e+00	 7.000000e+00	 9.946113e+00
0	 7.642857e+00	 7.071429e+00	 9.947255e+00
0	 7.642857e+00	 7.142857e+00	 9.948344e+00
0	 7.714286e+00	 6.785714e+00	 9.951005e+00
0	 7.714286e+00	 6.857143e+00	 9.951962e+00
0	 7.714286e+00	 6.928571e+00	 9.952865e+00
0	 7.714286e+00	 7.000000e+00	 9.953716e+00
0	 7.714286e+00	 7.071429e+00	 9.954513e+00
0	 7.714286e+00	 7.142857e+00	 9.955258e+00
0	 7.785714e+00	 6.785714e+00	 9.959407e+00
0	 7.785714e+00	 6.857143e+00	 9.960030e+00
0	 7.785714e+00	 6.928571e+00	 9.960598e+00
0	 7.785714e+00	 7.000000e+00	 9.961114e+00
0	 7.785714e+00	 7.071429e+00	 9.961575e+00
0	 7.785714e+00	 7.142857e+00	 9.961983e+00
0	 7.857143e+00	 6.785714e+00	 9.967580e+00
0	 7.857143e+00	 6.857143e+00	 9.967876e+00
0	 7.857143e+00	 6.928571e+00	 9.968119e+00
0	 7.857143e+00	 7.000000e+00	 9.968307e+00
0	 7.857143e+00	 7.071429e+00	 9.968441e+00
0	 7.857143e+00	 7.142857e+00	 9.968521e+00
0	 7.500000e+00	 7.142857e+00	 9.933951e+00
0	 7.500000e+00	 7.214286e+00	 9.936174e+00
0	 7.500000e+00	 7.285714e+00	 9.938383e+00
0	 7.500000e+00	 7.357143e+00	 9.940577e+00
0	 7.500000e+00	 7.428571e+00	 9.942757e+00
0	 7.500000e+00	 7.500000e+00	 9.944923e+00
0	 7.571429e+00	 7.142857e+00	 9.941242e+00
0	 7.571429e+00	 7.214286e+00	 9.943147e+00
0	 7.571429e+00	 7.285714e+00	 9.945037e+00
0	 7.571429e+00	 7.357143e+00	 9.946910e+00
0	 7.571429e+00	 7.428571e+00	 9.948768e+00
0	 7.571429e+00	 7.500000e+00	 9.950609e+00
0	 7.642857e+00	 7.142857e+00	 9.948344e+00
0	 7.642857e+00	 7.214286e+00	 9.949940e+00
0	 7.642857e+00	 7.285714e+00	 9.951518e+00
0	 7.642857e+00	 7.357143e+00	 9.953079e+00
0	 7.642857e+00	 7.428571e+00	 9.954622e+00
0	 7.642857e+00	 7.500000e+00	 9.956148e+00
0	 7.714286e+00	 7.142857e+00	 9.955258e+00
0	 7.714286e+00	 7.214286e+00	 9.956553e+00
0	 7.714286e+00	 7.285714e+00	 9.957828e+00
0	 7.714286e+00	 7.357143e+00	 9.959084e+00
0	 7.714286e+00	 7.428571e+00	 9.960321e+00
0	 7.714286e+00	 7.500000e+00	 9.961538e+00
0	 7.785714e+00	 7.142857e+00	 9.961983e+00
0	 7.785714e+00	 7.214286e+00	 9.962985e+00
0	 7.785714e+00	 7.285714e+00	 9.963966e+00
0	 7.785714e+00	 7.357143e+00	 9.964925e+00
0	 7.785714e+00	 7.428571e+00	 9.965863e+00
0	 7.785714e+00	 7.500000e+00	 9.966780e+00
0	 7.857143e+00	 7.142857e+00	 9.968521e+00
0	 7.857143e+00	 7.214286e+00	 9.969238e+00
0	 7.857143e+00	 7.285714e+00	 9.969931e+00
0	 7.857143e+00	 7.357143e+00	 9.970602e+00
0	 7.857143e+00	 7.428571e+00	 9.971250e+00
0	 7.857143e+00	 7.500000e+00	 9.971874e+00
0	 7.500000e+00	 7.500000e+00	 9.944923e+00
0	 7.500000e+00	 7.571429e+00	 9.947202e+00
0	 7.500000e+00	 7.642857e+00	 9.949501e+00
0	 7.500000e+00	 7.714286e+00	 9.951820e+00
0	 7.500000e+00	 7.785714e+00	 9.954158e+00
0	 7.500000e+00	 7.857143e+00	 9.956515e+00
0	 7.571429e+00	 7.500000e+00	 9.950609e+00
0	 7.571429e+00	 7.571429e+00	 9.952612e+00
0	 7.571429e+00	 7.642857e+00	 9.954632e+00
0	 7.571429e+00	 7.714286e+00	 9.956668e+00
0	 7.571429e+00	 7.785714e+00	 9.958722e+00
0	 7.571429e+00	 7.857143e+00	 9.960792e+00
0	 7.642857e+00	 7.500000e+00	 9.956148e+00
0	 7.642857e+00	 7.571429e+00	 9.957882e+00
0	 7.642857e+00	 7.642857e+00	 9.959630e+00
0	 7.642857e+00	 7.714286e+00	 9.961392e+00
0	 7.642857e+00	 7.785714e+00	 9.963168e+00
0	 7.642857e+00	 7.857143e+00	 9.964958e+00
0	 7.714286e+00	 7.500000e+00	 9.961538e+00
0	 7.714286e+00	 7.571429e+00	 9.963011e+00
0	 7.714286e+00	 7.642857e+00	 9.964496e+00
0	 7.714286e+00	 7.714286e+00	 9.965991e+00
0	 7.714286e+00	 7.785714e+00	 9.967498e+00
0	 7.714286e+00	 7.857143e+00	 9.969016e+00
0	 7.785714e+00	 7.500000e+00	 9.966780e+00
0	 7.785714e+00	 7.571429e+00	 9.968000e+00
0	 7.785714e+00	 7.642857e+00	 9.969229e+00
0	 7.785714e+00	 7.714286e+00	 9.970465e+00
0	 7.785714e+00	 7.785714e+00	 9.971711e+00
0	 7.785714e+00	 7.857143e+00	 9.972964e+00
0	 7.857143e+00	 7.500000e+00	 9.971874e+00
0	 7.857143e+00	 7.571429e+00	 9.972849e+00
0	 7.857143e+00	 7.642857e+00	 9.973829e+00
0	 7.857143e+00	 7.714286e+00	 9.974815e+00
0	 7.857143e+00	 7.785714e+00	 9.975806e+00
0	 7.857143e+00	 7.857143e+00	 9.976803e+00
0	 7.500000e+00	 7.857143e+00	 9.956515e+00
0	 7.500000e+00	 7.928571e+00	 9.958706e+00
0	 7.500000e+00	 8.000000e+00	 9.960947e+00
0	 7.500000e+00	 8.071429e+00	 9.963239e+00
0	 7.500000e+00	 8.142857e+00	 9.965581e+00
0	 7.500000e+00	 8.214286e+00	 9.967973e+00
0	 7.571429e+00	 7.857143e+00	 9.960792e+00
0	 7.571429e+00	 7.928571e+00	 9.962745e+00
0	 7.571429e+00	 8.000000e+00	 9.964745e+00
0	 7.571429e+00	 8.071429e+00	 9.966792e+00
0	 7.571429e+00	 8.142857e+00	 9.968885e+00
0	 7.571429e+00	 8.214286e+00	 9.971025e+00
0	 7.642857e+00	 7.857143e+00	 9.964958e+00
0	 7.642857e+00	 7.928571e+00	 9.966682e+00
0	 7.642857e+00	 8.000000e+00	 9.968448e+00
0	 7.642857e+00	 8.071429e+00	 9.970258e+00
0	 7.642857e+00	 8.142857e+00	 9.972110e+00
0	 7.642857e+00	 8.214286e+00	 9.974005e+00
0	 7.714286e+00	 7.857143e+00	 9.969016e+00
0	 7.714286e+00	 7.928571e+00	 9.970517e+00
0	 7.714286e+00	 8.000000e+00	 9.972058e+00
0	 7.714286e+00	 8.071429e+00	 9.973637e+00
0	 7.714286e+00	 8.142857e+00	 9.975256e+00
0	 7.714286e+00	 8.214286e+00	 9.976914e+00
0	 7.785714e+00	 7.857143e+00	 9.972964e+00
0	 7.785714e+00	 7.928571e+00	 9.974251e+00
0	 7.785714e+00	 8.000000e+00	 9.975573e+00
0	 7.785714e+00	 8.071429e+00	 9.976930e+00
0	 7.785714e+00	 8.142857e+00	 9.978323e+00
0	 7.785714e+00	 8.214286e+00	 9.979751e+00
0	 7.857143e+00	 7.857143e+00	 9.976803e+00
0	 7.857143e+00	 7.928571e+00	 9.977883e+00
0	 7.857143e+00	 8.000000e+00	 9.978994e+00
0	 7.857143e+00	 8.071429e+00	 9.980136e+00
0	 7.857143e+00	 8.142857e+00	 9.981310e+00
0	 7.857143e+00	 8.214286e+00	 9.982516e+00
0	 7.500000e+00	 8.214286e+00	 9.967973e+00
0	 7.500000e+00	 8.285714e+00	 9.969939e+00
0	 7.500000e+00	 8.357143e+00	 9.971984e+00
0	 7.500000e+00	 8.428571e+00	 9.974108e+00
0	 7.500000e+00	 8.500000e+00	 9.976310e+00
0	 7.500000e+00	 8.571429e+00	 9.978592e+00
0	 7.571429e+00	 8.214286e+00	 9.971025e+00
0	 7.571429e+00	 8.285714e+00	 9.972792e+00
0	 7.571429e+00	 8.357143e+00	 9.974633e+00
0	 7.571429e+00	 8.428571e+00	 9.976548e+00
0	 7.571429e+00	 8.500000e+00	 9.978537e+00
0	 7.571429e+00	 8.571429e+00	 9.980600e+00
0	 7.642857e+00	 8.214286e+00	 9.974005e+00
0	 7.642857e+00	 8.285714e+00	 9.975580e+00
0	 7.642857e+00	 8.357143e+00	 9.977225e+00
0	 7.642857e+00	 8.428571e+00	 9.978938e+00
0	 7.642857e+00	 8.500000e+00	 9.980720e+00
0	 7.642857e+00	 8.571429e+00	 9.982572e+00
0	 7.714286e+00	 8.214286e+00	 9.976914e+00
0	 7.714286e+00	 8.285714e+00	 9.978304e+00
0	 7.714286e+00	 8.357143e+00	 9.979759e+00
0	 7.714286e+00	 8.428571e+00	 9.981278e+00
0	 7.714286e+00	 8.500000e+00	 9.982861e+00
0	 7.714286e+00	 8.571429e+00	 9.984509e+00
0	 7.785714e+00	 8.214286e+00	 9.979751e+00
0	 7.785714e+00	 8.285714e+00	 9.980964e+00
0	 7.785714e+00	 8.357143e+00	 9.982236e+00
0	 7.785714e+00	 8.428571e+00	 9.983568e+00
0	 7.785714e+00	 8.500000e+00	 9.984959e+00
0	 7.785714e+00	 8.571429e+00	 9.986410e+00
0	 7.857143e+00	 8.214286e+00	 9.982516e+00
0	 7.857143e+00	 8.285714e+00	 9.983559e+00
0	 7.857143e+00	 8.357143e+00	 9.984656e+00
0	 7.857143e+00	 8.428571e+00	 9.985808e+00
0	 7.857143e+00	 8.500000e+00	 9.987014e+00
0	 7.857143e+00	 8.571429e+00	 9.988275e+00
0	 7.500000e+00	 8.571429e+00	 9.978592e+00
0	 7.500000e+00	 8.642857e+00	 9.980207e+00
0	 7.500000e+00	 8.714286e+00	 9.981927e+00
0	 7.500000e+00	 8.785714e+00	 9.983752e+00
0	 7.500000e+00	 8.857143e+00	 9.985681e+00
0	 7.500000e+00	 8.928571e+00	 9.987715e+00
0	 7.571429e+00	 8.571429e+00	 9.980600e+00
0	 7.571429e+00	 8.642857e+00	 9.982054e+00
0	 7.571429e+00	 8.714286e+00	 9.983608e+00
0	 7.571429e+00	 8.785714e+00	 9.985259e+00
0	 7.571429e+00	 8.857143e+00	 9.987009e+00
0	 7.571429e+00	 8.928571e+00	 9.988858e+00
0	 7.642857e+00	 8.571429e+00	 9.982572e+00
0	 7.642857e+00	 8.642857e+00	 9.983873e+00
0	 7.642857e+00	 8.714286e+00	 9.985266e+00
0	 7.642857e+00	 8.785714e+00	 9.986751e+00
0	 7.642857e+00	 8.857143e+00	 9.988329e+00
0	 7.642857e+00	 8.928571e+00	 9.989999e+00
0	 7.714286e+00	 8.571429e+00	 9.984509e+00
0	 7.714286e+00	 8.642857e+00	 9.985662e+00
0	 7.714286e+00	 8.714286e+00	 9.986902e+00
0	 7.714286e+00	 8.785714e+00	 9.988227e+00
0	 7.714286e+00	 8.857143e+00	 9.989639e+00
0	 7.714286e+00	 8.928571e+00	 9.991137e+00
0	 7.785714e+00	 8.571429e+00	 9.986410e+00
0	 7.785714e+00	 8.642857e+00	 9.987423e+00
0	 7.785714e+00	 8.714286e+00	 9.988515e+00
0	 7.785714e+00	 8.785714e+00	 9.989688e+00
0	 7.785714e+00	 8.857143e+00	 9.990940e+00
0	 7.785714e+00	 8.928571e+00	 9.992273e+00
0	 7.857143e+00	 8.571429e+00	 9.988275e+00
0	 7.857143e+00	 8.642857e+00	 9.989154e+00
0	 7.857143e+00	 8.714286e+00	 9.990107e+00
0	 7.857143e+00	 8.785714e+00	 9.991133e+00
0	 7.857143e+00	 8.857143e+00	 9.992233e+00
0	 7.857143e+00	 8.928571e+00	 9.993406e+00
0	 7.500000e+00	 8.928571e+00	 9.987715e+00
0	 7.500000e+00	 9.000000e+00	 9.988868e+00
0	 7.500000e+00	 9.071429e+00	 9.990147e+00
0	 7.500000e+00	 9.142857e+00	 9.991553e+00
0	 7.500000e+00	 9.214286e+00	 9.993087e+00
0	 7.500000e+00	 9.285714e+00	 9.994747e+00
0	 7.571429e+00	 8.928571e+00	 9.988858e+00
0	 7.571429e+00	 9.000000e+00	 9.989892e+00
0	 7.571429e+00	 9.071429e+00	 9.991044e+00
0	 7.571429e+00	 9.142857e+00	 9.992316e+00
0	 7.571429e+00	 9.214286e+00	 9.993706e+00
0	 7.571429e+00	 9.285714e+00	 9.995216e+00
0	 7.642857e+00	 8.928571e+00	 9.989999e+00
0	 7.642857e+00	 9.000000e+00	 9.990919e+00
0	 7.642857e+00	 9.071429e+00	 9.991950e+00
0	 7.642857e+00	 9.142857e+00	 9.993092e+00
0	 7.642857e+00	 9.214286e+00	 9.994345e+00
0	 7.642857e+00	 9.285714e+00	 9.995709e+00
0	 7.714286e+00	 8.928571e+00	 9.991137e+00
0	 7.714286e+00	 9.000000e+00	 9.991949e+00
0	 7.714286e+00	 9.071429e+00	 9.992865e+00
0	 7.714286e+00	 9.142857e+00	 9.993883e+00
0	 7.714286e+00	 9.214286e+00	 9.995004e+00
0	 7.714286e+00	 9.285714e+00	 9.996228e+00
0	 7.785714e+00	 8.928571e+00	 9.992273e+00
0	 7.785714e+00	 9.000000e+00	 9.992983e+00
0	 7.785714e+00	 9.071429e+00	 9.993788e+00
0	 7.785714e+00	 9.142857e+00	 9.994688e+00
0	 7.785714e+00	 9.214286e+00	 9.995683e+00
0	 7.785714e+00	 9.285714e+00	 9.996773e+00
0	 7.857143e+00	 8.928571e+00	 9.993406e+00
0	 7.857143e+00	 9.000000e+00	 9.994020e+00
0	 7.857143e+00	 9.071429e+00	 9.994720e+00
0	 7.857143e+00	 9.142857e+00	 9.995507e+00
0	 7.857143e+00	 9.214286e+00	 9.996382e+00
0	 7.857143e+00	 9.285714e+00	 9.997343e+00
0	 7.500000e+00	 9.285714e+00	 9.994747e+00
0	 7.500000e+00	 9.357143e+00	 9.995348e+00
0	 7.500000e+00	 9.428571e+00	 9.996092e+00
0	 7.500000e+00	 9.500000e+00	 9.996980e+00
0	 7.500000e+00	 9.571429e+00	 9.998012e+00
0	 7.500000e+00	 9.642857e+00	 9.999187e+00
0	 7.571429e+00	 9.285714e+00	 9.995216e+00
0	 7.571429e+00	 9.357143e+00	 9.995746e+00
0	 7.571429e+00	 9.428571e+00	 9.996409e+00
0	 7.571429e+00	 9.500000e+00	 9.997205e+00
0	 7.571429e+00	 9.571429e+00	 9.998134e+00
0	 7.571429e+00	 9.642857e+00	 9.999196e+00
0	 7.642857e+00	 9.285714e+00	 9.995709e+00
0	 7.642857e+00	 9.357143e+00	 9.996172e+00
0	 7.642857e+00	 9.428571e+00	 9.996757e+00
0	 7.642857e+00	 9.500000e+00	 9.997465e+00
0	 7.642857e+00	 9.571429e+00	 9.998295e+00
0	 7.642857e+00	 9.642857e+00	 9.999248e+00
0	 7.714286e+00	 9.285714e+00	 9.996228e+00
0	 7.714286e+00	 9.357143e+00	 9.996628e+00
0	 7.714286e+00	 9.428571e+00	 9.997139e+00
0	 7.714286e+00	 9.500000e+00	 9.997762e+00
0	 7.714286e+00	 9.571429e+00	 9.998496e+00
0	 7.714286e+00	 9.642857e+00	 9.999343e+00
0	 7.785714e+00	 9.285714e+00	 9.996773e+00
0	 7.785714e+00	 9.357143e+00	 9.997112e+00
0	 7.785714e+00	 9.428571e+00	 9.997553e+00
0	 7.785714e+00	 9.500000e+00	 9.998095e+00
0	 7.785714e+00	 9.571429e+00	 9.998737e+00
0	 7.785714e+00	 9.642857e+00	 9.999481e+00
0	 7.857143e+00	 9.285714e+00	 9.997343e+00
0	 7.857143e+00	 9.357143e+00	 9.997626e+00
0	 7.857143e+00	 9.428571e+00	 9.997999e+00
0	 7.857143e+00	 9.500000e+00	 9.998463e+00
0	 7.857143e+00	 9.571429e+00	 9.999018e+00
0	 7.857143e+00	 9.642857e+00	 9.999662e+00
0	 7.500000e+00	 9.642857e+00	 9.999187e+00
0	 7.500000e+00	 9.714286e+00	 9.999186e+00
0	 7.500000e+00	 9.785714e+00	 9.999337e+00
0	 7.500000e+00	 9.857143e+00	 9.999640e+00
0	 7.500000e+00	 9.928571e+00	 1.000010e+01
0	 7.500000e+00	 1.000000e+01	 1.000070e+01
0	 7.571429e+00	 9.642857e+00	 9.999196e+00
0	 7.571429e+00	 9.714286e+00	 9.999190e+00
0	 7.571429e+00	 9.785714e+00	 9.999321e+00
0	 7.571429e+00	 9.857143e+00	 9.999589e+00
0	 7.571429e+00	 9.928571e+00	 9.999995e+00
0	 7.571429e+00	 1.000000e+01	 1.000054e+01
0	 7.642857e+00	 9.642857e+00	 9.999248e+00
0	 7.642857e+00	 9.714286e+00	 9.999237e+00
0	 7.642857e+00	 9.785714e+00	 9.999349e+00
0	 7.642857e+00	 9.857143e+00	 9.999583e+00
0	 7.642857e+00	 9.928571e+00	 9.999940e+00
0	 7.642857e+00	 1.000000e+01	 1.000042e+01
0	 7.714286e+00	 9.642857e+00	 9.999343e+00
0	 7.714286e+00	 9.714286e+00	 9.999328e+00
0	 7.714286e+00	 9.785714e+00	 9.999421e+00
0	 7.714286e+00	 9.857143e+00	 9.999622e+00
0	 7.714286e+00	 9.928571e+00	 9.999929e+00
0	 7.714286e+00	 1.000000e+01	 1.000034e+01
0	 7.785714e+00	 9.642857e+00	 9.999481e+00
0	 7.785714e+00	 9.714286e+00	 9.999463e+00
0	 7.785714e+00	 9.785714e+00	 9.999537e+00
0	 7.785714e+00	 9.857143e+00	 9.999705e+00
0	 7.785714e+00	 9.928571e+00	 9.999964e+00
0	 7.785714e+00	 1.000000e+01	 1.000032e+01
0	 7.857143e+00	 9.642857e+00	 9.999662e+00
0	 7.857143e+00	 9.714286e+00	 9.999641e+00
0	 7.857143e+00	 9.785714e+00	 9.999698e+00
0	 7.857143e+00	 9.857143e+00	 9.999832e+00
0	 7.857143e+00	 9.928571e+00	 1.000004e+01
0	 7.857143e+00	 1.000000e+01	 1.000033e+01
0	 7.857143e+00	 0.000000e+00	 1.080461e+01
0	 7.857143e+00	 7.142857e-02	 1.080141e+01
0	 7.857143e+00	 1.428571e-01	 1.079880e+01
0	 7.857143e+00	 2.142857e-01	 1.079681e+01
0	 7.857143e+00	 2.857143e-01	 1.079542e+01
0	 7.857143e+00	 3.571429e-01	 1.079464e+01
0	 7.928571e+00	 0.000000e+00	 1.083083e+01
0	 7.928571e+00	 7.142857e-02	 1.082771e+01
0	 7.928571e+00	 1.428571e-01	 1.082518e+01
0	 7.928571e+00	 2.142857e-01	 1.082322e+01
0	 7.928571e+00	 2.857143e-01	 1.082184e+01
0	 7.928571e+00	 3.571429e-01	 1.082104e+01
0	 8.000000e+00	 0.000000e+00	 1.085847e+01
0	 8.000000e+00	 7.142857e-02	 1.085544e+01
0	 8.000000e+00	 1.428571e-01	 1.085295e+01
0	 8.000000e+00	 2.142857e-01	 1.085102e+01
0	 8.000000e+00	 2.857143e-01	 1.084965e+01
0	 8.000000e+00	 3.571429e-01	 1.084882e+01
0	 8.071429e+00	 0.000000e+00	 1.088753e+01
0	 8.071429e+00	 7.142857e-02	 1.088457e+01
0	 8.071429e+00	 1.428571e-01	 1.088214e+01
0	 8.071429e+00	 2.142857e-01	 1.088023e+01
0	 8.071429e+00	 2.857143e-01	 1.087884e+01
0	 8.071429e+00	 3.571429e-01	 1.087798e+01
0	 8.142857e+00	 0.000000e+00	 1.091801e+01
0	 8.142857e+00	 7.142857e-02	 1.091512e+01
0	 8.142857e+00	 1.428571e-01	 1.091273e+01
0	 8.142857e+00	 2.142857e-01	 1.091083e+01
0	 8.142857e+00	 2.857143e-01	 1.090943e+01
0	 8.142857e+00	 3.571429e-01	 1.090853e+01
0	 8.214286e+00	 0.000000e+00	 1.094992e+01
0	 8.214286e+00	 7.142857e-02	 1.094708e+01
0	 8.214286e+00	 1.428571e-01	 1.094472e+01
0	 8.214286e+00	 2.142857e-01	 1.094283e+01
0	 8.214286e+00	 2.857143e-01	 1.094141e+01
0	 8.214286e+00	 3.571429e-01	 1.094045e+01
0	 7.857143e+00	 3.571429e-01	 1.079464e+01
0	 7.857143e+00	 4.285714e-01	 1.078767e+01
0	 7.857143e+00	 5.000000e-01	 1.078127e+01
0	 7.857143e+00	 5.714286e-01	 1.077543e+01
0	 7.857143e+00	 6.428571e-01	 1.077015e+01
0	 7.857143e+00	 7.142857e-01	 1.076542e+01
0	 7.928571e+00	 3.571429e-01	 1.082104e+01
0	 7.928571e+00	 4.285714e-01	 1.081423e+01
0	 7.928571e+00	 5.000000e-01	 1.080795e+01
0	 7.928571e+00	 5.714286e-01	 1.080221e+01
0	 7.928571e+00	 6.428571e-01	 1.079701e+01
0	 7.928571e+00	 7.142857e-01	 1.079234e+01
0	 8.000000e+00	 3.571429e-01	 1.084882e+01
0	 8.000000e+00	 4.285714e-01	 1.084214e+01
0	 8.000000e+00	 5.000000e-01	 1.083597e+01
0	 8.000000e+00	 5.714286e-01	 1.083031e+01
0	 8.000000e+00	 6.428571e-01	 1.082516e+01
0	 8.000000e+00	 7.142857e-01	 1.082052e+01
0	 8.071429e+00	 3.571429e-01	 1.087798e+01
0	 8.071429e+00	 4.285714e-01	 1.087141e+01
0	 8.071429e+00	 5.000000e-01	 1.086532e+01
0	 8.071429e+00	 5.714286e-01	 1.085971e+01
0	 8.071429e+00	 6.428571e-01	 1.085459e+01
0	 8.071429e+00	 7.142857e-01	 1.084996e+01
0	 8.142857e+00	 3.571429e-01	 1.090853e+01
0	 8.142857e+00	 4.285714e-01	 1.090203e+01
0	 8.142857e+00	 5.000000e-01	 1.089600e+01
0	 8.142857e+00	 5.714286e-01	 1.089043e+01
0	 8.142857e+00	 6.428571e-01	 1.088532e+01
0	 8.142857e+00	 7.142857e-01	 1.088067e+01
0	 8.214286e+00	 3.571429e-01	 1.094045e+01
0	 8.214286e+00	 4.285714e-01	 1.093402e+01
0	 8.214286e+00	 5.000000e-01	 1.092802e+01
0	 8.214286e+00	 5.714286e-01	 1.092246e+01
0	 8.214286e+00	 6.428571e-01	 1.091734e+01
0	 8.214286e+00	 7.142857e-01	 1.091265e+01
0	 7.857143e+00	 7.142857e-01	 1.076542e+01
0	 7.857143e+00	 7.857143e-01	 1.075519e+01
0	 7.857143e+00	 8.571429e-01	 1.074544e+01
0	 7.857143e+00	 9.285714e-01	 1.073615e+01
0	 7.857143e+00	 1.000000e+00	 1.072734e+01
0	 7.857143e+00	 1.071429e+00	 1.071900e+01
0	 7.928571e+00	 7.142857e-01	 1.079234e+01
0	 7.928571e+00	 7.857143e-01	 1.078230e+01
0	 7.928571e+00	 8.571429e-01	 1.077271e+01
0	 7.928571e+00	 9.285714e-01	 1.076357e+01
0	 7.928571e+00	 1.000000e+00	 1.075489e+01
0	 7.928571e+00	 1.071429e+00	 1.074666e+01
0	 8.000000e+00	 7.142857e-01	 1.082052e+01
0	 8.000000e+00	 7.857143e-01	 1.081063e+01
0	 8.000000e+00	 8.571429e-01	 1.080117e+01
0	 8.000000e+00	 9.285714e-01	 1.079215e+01
0	 8.000000e+00	 1.000000e+00	 1.078356e+01
0	 8.000000e+00	 1.071429e+00	 1.077540e+01
0	 8.071429e+00	 7.142857e-01	 1.084996e+01
0	 8.071429e+00	 7.857143e-01	 1.084019e+01
0	 8.071429e+00	 8.571429e-01	 1.083083e+01
0	 8.071429e+00	 9.285714e-01	 1.082189e+01
0	 8.071429e+00	 1.000000e+00	 1.081335e+01
0	 8.071429e+00	 1.071429e+00	 1.080523e+01
0	 8.142857e+00	 7.142857e-01	 1.088067e+01
0	 8.142857e+00	 7.857143e-01	 1.087098e+01
0	 8.142857e+00	 8.571429e-01	 1.086169e+01
0	 8.142857e+00	 9.285714e-01	 1.085278e+01
0	 8.142857e+00	 1.000000e+00	 1.084427e+01
0	 8.142857e+00	 1.071429e+00	 1.083615e+01
0	 8.214286e+00	 7.142857e-01	 1.091265e+01
0	 8.214286e+00	 7.857143e-01	 1.090300e+01
0	 8.214286e+00	 8.571429e-01	 1.089373e+01
0	 8.214286e+00	 9.285714e-01	 1.088483e+01
0	 8.214286e+00	 1.000000e+00	 1.087631e+01
0	 8.214286e+00	 1.071429e+00	 1.086816e+01
0	 7.857143e+00	 1.071429e+00	 1.071900e+01
0	 7.857143e+00	 1.142857e+00	 1.070619e+01
0	 7.857143e+00	 1.214286e+00	 1.069373e+01
0	 7.857143e+00	 1.285714e+00	 1.068163e+01
0	 7.857143e+00	 1.357143e+00	 1.066987e+01
0	 7.857143e+00	 1.428571e+00	 1.065848e+01
0	 7.928571e+00	 1.071429e+00	 1.074666e+01
0	 7.928571e+00	 1.142857e+00	 1.073404e+01
0	 7.928571e+00	 1.214286e+00	 1.072176e+01
0	 7.928571e+00	 1.285714e+00	 1.070982e+01
0	 7.928571e+00	 1.357143e+00	 1.069823e+01
0	 7.928571e+00	 1.428571e+00	 1.068697e+01
0	 8.000000e+00	 1.071429e+00	 1.077540e+01
0	 8.000000e+00	 1.142857e+00	 1.076293e+01
0	 8.000000e+00	 1.214286e+00	 1.075079e+01
0	 8.000000e+00	 1.285714e+00	 1.073897e+01
0	 8.000000e+00	 1.357143e+00	 1.072748e+01
0	 8.000000e+00	 1.428571e+00	 1.071632e+01
0	 8.071429e+00	 1.071429e+00	 1.080523e+01
0	 8.071429e+00	 1.142857e+00	 1.079287e+01
0	 8.071429e+00	 1.214286e+00	 1.078081e+01
0	 8.071429e+00	 1.285714e+00	 1.076907e+01
0	 8.071429e+00	 1.357143e+00	 1.075765e+01
0	 8.071429e+00	 1.428571e+00	 1.074653e+01
0	 8.142857e+00	 1.071429e+00	 1.083615e+01
0	 8.142857e+00	 1.142857e+00	 1.082384e+01
0	 8.142857e+00	 1.214286e+00	 1.081183e+01
0	 8.142857e+00	 1.285714e+00	 1.080013e+01
0	 8.142857e+00	 1.357143e+00	 1.078872e+01
0	 8.142857e+00	 1.428571e+00	 1.077761e+01
0	 8.214286e+00	 1.071429e+00	 1.086816e+01
0	 8.214286e+00	 1.142857e+00	 1.085586e+01
0	 8.214286e+00	 1.214286e+00	 1.084385e+01
0	 8.214286e+00	 1.285714e+00	 1.083213e+01
0	 8.214286e+00	 1.357143e+00	 1.082069e+01
0	 8.214286e+00	 1.428571e+00	 1.080955e+01
0	 7.857143e+00	 1.428571e+00	 1.065848e+01
0	 7.857143e+00	 1.500000e+00	 1.064388e+01
0	 7.857143e+00	 1.571429e+00	 1.062951e+01
0	 7.857143e+00	 1.642857e+00	 1.061535e+01
0	 7.857143e+00	 1.714286e+00	 1.060140e+01
0	 7.857143e+00	 1.785714e+00	 1.058768e+01
0	 7.928571e+00	 1.428571e+00	 1.068697e+01
0	 7.928571e+00	 1.500000e+00	 1.067253e+01
0	 7.928571e+00	 1.571429e+00	 1.065831e+01
0	 7.928571e+00	 1.642857e+00	 1.064431e+01
0	 7.928571e+00	 1.714286e+00	 1.063051e+01
0	 7.928571e+00	 1.785714e+00	 1.061692e+01
0	 8.000000e+00	 1.428571e+00	 1.071632e+01
0	 8.000000e+00	 1.500000e+00	 1.070200e+01
0	 8.000000e+00	 1.571429e+00	 1.068789e+01
0	 8.000000e+00	 1.642857e+00	 1.067398e+01
0	 8.000000e+00	 1.714286e+00	 1.066028e+01
0	 8.000000e+00	 1.785714e+00	 1.064678e+01
0	 8.071429e+00	 1.428571e+00	 1.074653e+01
0	 8.071429e+00	 1.500000e+00	 1.073228e+01
0	 8.071429e+00	 1.571429e+00	 1.071822e+01
0	 8.071429e+00	 1.642857e+00	 1.070436e+01
0	 8.071429e+00	 1.714286e+00	 1.069071e+01
0	 8.071429e+00	 1.785714e+00	 1.067725e+01
0	 8.142857e+00	 1.428571e+00	 1.077761e+01
0	 8.142857e+00	 1.500000e+00	 1.076337e+01
0	 8.142857e+00	 1.571429e+00	 1.074932e+01
0	 8.142857e+00	 1.642857e+00	 1.073546e+01
0	 8.142857e+00	 1.714286e+00	 1.072180e+01
0	 8.142857e+00	 1.785714e+00	 1.070833e+01
0	 8.214286e+00	 1.428571e+00	 1.080955e+01
0	 8.214286e+00	 1.500000e+00	 1.079527e+01
0	 8.214286e+00	 1.571429e+00	 1.078118e+01
0	 8.214286e+00	 1.642857e+00	 1.076727e+01
0	 8.214286e+00	 1.714286e+00	 1.075356e+01
0	 8.214286e+00	 1.785714e+00	 1.074003e+01
0	 7.857143e+00	 1.785714e+00	 1.058768e+01
0	 7.857143e+00	 1.857143e+00	 1.057213e+01
0	 7.857143e+00	 1.928571e+00	 1.055666e+01
0	 7.857143e+00	 2.000000e+00	 1.054127e+01
0	 7.857143e+00	 2.071429e+00	 1.052596e+01
0	 7.857143e+00	 2.142857e+00	 1.051073e+01
0	 7.928571e+00	 1.785714e+00	 1.061692e+01
0	 7.928571e+00	 1.857143e+00	 1.060147e+01
0	 7.928571e+00	 1.928571e+00	 1.058610e+01
0	 7.928571e+00	 2.000000e+00	 1.057082e+01
0	 7.928571e+00	 2.071429e+00	 1.055561e+01
0	 7.928571e+00	 2.142857e+00	 1.054049e+01
0	 8.000000e+00	 1.785714e+00	 1.064678e+01
0	 8.000000e+00	 1.857143e+00	 1.063138e+01
0	 8.000000e+00	 1.928571e+00	 1.061606e+01
0	 8.000000e+00	 2.000000e+00	 1.060083e+01
0	 8.000000e+00	 2.071429e+00	 1.058567e+01
0	 8.000000e+00	 2.142857e+00	 1.057060e+01
0	 8.071429e+00	 1.785714e+00	 1.067725e+01
0	 8.071429e+00	 1.857143e+00	 1.066185e+01
0	 8.071429e+00	 1.928571e+00	 1.064653e+01
0	 8.071429e+00	 2.000000e+00	 1.063130e+01
0	 8.071429e+00	 2.071429e+00	 1.061615e+01
0	 8.071429e+00	 2.142857e+00	 1.060108e+01
0	 8.142857e+00	 1.785714e+00	 1.070833e+01
0	 8.142857e+00	 1.857143e+00	 1.069288e+01
0	 8.142857e+00	 1.928571e+00	 1.067752e+01
0	 8.142857e+00	 2.000000e+00	 1.066223e+01
0	 8.142857e+00	 2.071429e+00	 1.064704e+01
0	 8.142857e+00	 2.142857e+00	 1.063193e+01
0	 8.214286e+00	 1.785714e+00	 1.074003e+01
0	 8.214286e+00	 1.857143e+00	 1.072448e+01
0	 8.214286e+00	 1.928571e+00	 1.070901e+01
0	 8.214286e+00	 2.000000e+00	 1.069364e+01
0	 8.214286e+00	 2.071429e+00	 1.067834e+01
0	 8.214286e+00	 2.142857e+00	 1.066314e+01
0	 7.857143e+00	 2.142857e+00	 1.051073e+01
0	 7.857143e+00	 2.214286e+00	 1.049501e+01
0	 7.857143e+00	 2.285714e+00	 1.047924e+01
0	 7.857143e+00	 2.357143e+00	 1.046342e+01
0	 7.857143e+00	 2.428571e+00	 1.044756e+01
0	 7.857143e+00	 2.500000e+00	 1.043164e+01
0	 7.928571e+00	 2.142857e+00	 1.054049e+01
0	 7.928571e+00	 2.214286e+00	 1.052477e+01
0	 7.928571e+00	 2.285714e+00	 1.050902e+01
0	 7.928571e+00	 2.357143e+00	 1.049324e+01
0	 7.928571e+00	 2.428571e+00	 1.047741e+01
0	 7.928571e+00	 2.500000e+00	 1.046154e+01
0	 8.000000e+00	 2.142857e+00	 1.057060e+01
0	 8.000000e+00	 2.214286e+00	 1.055486e+01
0	 8.000000e+00	 2.285714e+00	 1.053908e+01
0	 8.000000e+00	 2.357143e+00	 1.052327e+01
0	 8.000000e+00	 2.428571e+00	 1.050744e+01
0	 8.000000e+00	 2.500000e+00	 1.049156e+01
0	 8.071429e+00	 2.142857e+00	 1.060108e+01
0	 8.071429e+00	 2.214286e+00	 1.058526e+01
0	 8.071429e+00	 2.285714e+00	 1.056941e+01
0	 8.071429e+00	 2.357143e+00	 1.055354e+01
0	 8.071429e+00	 2.428571e+00	 1.053764e+01
0	 8.071429e+00	 2.500000e+00	 1.052172e+01
0	 8.142857e+00	 2.142857e+00	 1.063193e+01
0	 8.142857e+00	 2.214286e+00	 1.061598e+01
0	 8.142857e+00	 2.285714e+00	 1.060001e+01
0	 8.142857e+00	 2.357143e+00	 1.058402e+01
0	 8.142857e+00	 2.428571e+00	 1.056802e+01
0	 8.142857e+00	 2.500000e+00	 1.055200e+01
0	 8.214286e+00	 2.142857e+00	 1.066314e+01
0	 8.214286e+00	 2.214286e+00	 1.064701e+01
0	 8.214286e+00	 2.285714e+00	 1.063088e+01
0	 8.214286e+00	 2.357143e+00	 1.061473e+01
0	 8.214286e+00	 2.428571e+00	 1.059858e+01
0	 8.214286e+00	 2.500000e+00	 1.058241e+01
0	 7.857143e+00	 2.500000e+00	 1.043164e+01
0	 7.857143e+00	 2.571429e+00	 1.041642e+01
0	 7.857143e+00	 2.642857e+00	 1.040105e+01
0	 7.857143e+00	 2.714286e+00	 1.038552e+01
0	 7.857143e+00	 2.785714e+00	 1.036984e+01
0	 7.857143e+00	 2.857143e+00	 1.035400e+01
0	 7.928571e+00	 2.500000e+00	 1.046154e+01
0	 7.928571e+00	 2.571429e+00	 1.044623e+01
0	 7.928571e+00	 2.642857e+00	 1.043078e+01
0	 7.928571e+00	 2.714286e+00	 1.041519e+01
0	 7.928571e+00	 2.785714e+00	 1.039946e+01
0	 7.928571e+00	 2.857143e+00	 1.038359e+01
0	 8.000000e+00	 2.500000e+00	 1.049156e+01
0	 8.000000e+00	 2.571429e+00	 1.047613e+01
0	 8.000000e+00	 2.642857e+00	 1.046056e+01
0	 8.000000e+00	 2.714286e+00	 1.044487e+01
0	 8.000000e+00	 2.785714e+00	 1.042905e+01
0	 8.000000e+00	 2.857143e+00	 1.041310e+01
0	 8.071429e+00	 2.500000e+00	 1.052172e+01
0	 8.071429e+00	 2.571429e+00	 1.050611e+01
0	 8.071429e+00	 2.642857e+00	 1.049039e+01
0	 8.071429e+00	 2.714286e+00	 1.047456e+01
0	 8.071429e+00	 2.785714e+00	 1.045860e+01
0	 8.071429e+00	 2.857143e+00	 1.044253e+01
0	 8.142857e+00	 2.500000e+00	 1.055200e+01
0	 8.142857e+00	 2.571429e+00	 1.053619e+01
0	 8.142857e+00	 2.642857e+00	 1.052027e+01
0	 8.142857e+00	 2.714286e+00	 1.050425e+01
0	 8.142857e+00	 2.785714e+00	 1.048812e+01
0	 8.142857e+00	 2.857143e+00	 1.047189e+01
0	 8.214286e+00	 2.500000e+00	 1.058241e+01
0	 8.214286e+00	 2.571429e+00	 1.056635e+01
0	 8.214286e+00	 2.642857e+00	 1.055019e+01
0	 8.214286e+00	 2.714286e+00	 1.053395e+01
0	 8.214286e+00	 2.785714e+00	 1.051760e+01
0	 8.214286e+00	 2.857143e+00	 1.050117e+01
0	 7.857143e+00	 2.857143e+00	 1.035400e+01
0	 7.857143e+00	 2.928571e+00	 1.033982e+01
0	 7.857143e+00	 3.000000e+00	 1.032540e+01
0	 7.857143e+00	 3.071429e+00	 1.031075e+01
0	 7.857143e+00	 3.142857e+00	 1.029586e+01
0	 7.857143e+00	 3.214286e+00	 1.028074e+01
0	 7.928571e+00	 2.857143e+00	 1.038359e+01
0	 7.928571e+00	 2.928571e+00	 1.036921e+01
0	 7.928571e+00	 3.000000e+00	 1.035462e+01
0	 7.928571e+00	 3.071429e+00	 1.033981e+01
0	 7.928571e+00	 3.142857e+00	 1.032478e+01
0	 7.928571e+00	 3.214286e+00	 1.030953e+01
0	 8.000000e+00	 2.857143e+00	 1.041310e+01
0	 8.000000e+00	 2.928571e+00	 1.039850e+01
0	 8.000000e+00	 3.000000e+00	 1.038370e+01
0	 8.000000e+00	 3.071429e+00	 1.036870e+01
0	 8.000000e+00	 3.142857e+00	 1.035349e+01
0	 8.000000e+00	 3.214286e+00	 1.033808e+01
0	 8.071429e+00	 2.857143e+00	 1.044253e+01
0	 8.071429e+00	 2.928571e+00	 1.042768e+01
0	 8.071429e+00	 3.000000e+00	 1.041263e+01
0	 8.071429e+00	 3.071429e+00	 1.039740e+01
0	 8.071429e+00	 3.142857e+00	 1.038199e+01
0	 8.071429e+00	 3.214286e+00	 1.036638e+01
0	 8.142857e+00	 2.857143e+00	 1.047189e+01
0	 8.142857e+00	 2.928571e+00	 1.045674e+01
0	 8.142857e+00	 3.000000e+00	 1.044143e+01
0	 8.142857e+00	 3.071429e+00	 1.042594e+01
0	 8.142857e+00	 3.142857e+00	 1.041027e+01
0	 8.142857e+00	 3.214286e+00	 1.039444e+01
0	 8.214286e+00	 2.857143e+00	 1.050117e+01
0	 8.214286e+00	 2.928571e+00	 1.048570e+01
0	 8.214286e+00	 3.000000e+00	 1.047008e+01
0	 8.214286e+00	 3.071429e+00	 1.045429e+01
0	 8.214286e+00	 3.142857e+00	 1.043835e+01
0	 8.214286e+00	 3.214286e+00	 1.042225e+01
0	 7.857143e+00	 3.214286e+00	 1.028074e+01
0	 7.857143e+00	 3.285714e+00	 1.026797e+01
0	 7.857143e+00	 3.357143e+00	 1.025491e+01
0	 7.857143e+00	 3.428571e+00	 1.024157e+01
0	 7.857143e+00	 3.500000e+00	 1.022794e+01
0	 7.857143e+00	 3.571429e+00	 1.021403e+01
0	 7.928571e+00	 3.214286e+00	 1.030953e+01
0	 7.928571e+00	 3.285714e+00	 1.029648e+01
0	 7.928571e+00	 3.357143e+00	 1.028315e+01
0	 7.928571e+00	 3.428571e+00	 1.026956e+01
0	 7.928571e+00	 3.500000e+00	 1.025569e+01
0	 7.928571e+00	 3.571429e+00	 1.024156e+01
0	 8.000000e+00	 3.214286e+00	 1.033808e+01
0	 8.000000e+00	 3.285714e+00	 1.032471e+01
0	 8.000000e+00	 3.357143e+00	 1.031109e+01
0	 8.000000e+00	 3.428571e+00	 1.029722e+01
0	 8.000000e+00	 3.500000e+00	 1.028310e+01
0	 8.000000e+00	 3.571429e+00	 1.026872e+01
0	 8.071429e+00	 3.214286e+00	 1.036638e+01
0	 8.071429e+00	 3.285714e+00	 1.035268e+01
0	 8.071429e+00	 3.357143e+00	 1.033874e+01
0	 8.071429e+00	 3.428571e+00	 1.032456e+01
0	 8.071429e+00	 3.500000e+00	 1.031015e+01
0	 8.071429e+00	 3.571429e+00	 1.029550e+01
0	 8.142857e+00	 3.214286e+00	 1.039444e+01
0	 8.142857e+00	 3.285714e+00	 1.038037e+01
0	 8.142857e+00	 3.357143e+00	 1.036609e+01
0	 8.142857e+00	 3.428571e+00	 1.035159e+01
0	 8.142857e+00	 3.500000e+00	 1.033686e+01
0	 8.142857e+00	 3.571429e+00	 1.032191e+01
0	 8.214286e+00	 3.214286e+00	 1.042225e+01
0	 8.214286e+00	 3.285714e+00	 1.040780e+01
0	 8.214286e+00	 3.357143e+00	 1.039315e+01
0	 8.214286e+00	 3.428571e+00	 1.037829e+01
0	 8.214286e+00	 3.500000e+00	 1.036322e+01
0	 8.214286e+00	 3.571429e+00	 1.034795e+01
0	 7.857143e+00	 3.571429e+00	 1.021403e+01
0	 7.857143e+00	 3.642857e+00	 1.020290e+01
0	 7.857143e+00	 3.714286e+00	 1.019146e+01
0	 7.857143e+00	 3.785714e+00	 1.017971e+01
0	 7.857143e+00	 3.857143e+00	 1.016765e+01
0	 7.857143e+00	 3.928571e+00	 1.015527e+01
0	 7.928571e+00	 3.571429e+00	 1.024156e+01
0	 7.928571e+00	 3.642857e+00	 1.023007e+01
0	 7.928571e+00	 3.714286e+00	 1.021828e+01
0	 7.928571e+00	 3.785714e+00	 1.020619e+01
0	 7.928571e+00	 3.857143e+00	 1.019381e+01
0	 7.928571e+00	 3.928571e+00	 1.018113e+01
0	 8.000000e+00	 3.571429e+00	 1.026872e+01
0	 8.000000e+00	 3.642857e+00	 1.025684e+01
0	 8.000000e+00	 3.714286e+00	 1.024469e+01
0	 8.000000e+00	 3.785714e+00	 1.023225e+01
0	 8.000000e+00	 3.857143e+00	 1.021953e+01
0	 8.000000e+00	 3.928571e+00	 1.020654e+01
0	 8.071429e+00	 3.571429e+00	 1.029550e+01
0	 8.071429e+00	 3.642857e+00	 1.028322e+01
0	 8.071429e+00	 3.714286e+00	 1.027068e+01
0	 8.071429e+00	 3.785714e+00	 1.025788e+01
0	 8.071429e+00	 3.857143e+00	 1.024481e+01
0	 8.071429e+00	 3.928571e+00	 1.023148e+01
0	 8.142857e+00	 3.571429e+00	 1.032191e+01
0	 8.142857e+00	 3.642857e+00	 1.030922e+01
0	 8.142857e+00	 3.714286e+00	 1.029627e+01
0	 8.142857e+00	 3.785714e+00	 1.028308e+01
0	 8.142857e+00	 3.857143e+00	 1.026964e+01
0	 8.142857e+00	 3.928571e+00	 1.025595e+01
0	 8.214286e+00	 3.571429e+00	 1.034795e+01
0	 8.214286e+00	 3.642857e+00	 1.033482e+01
0	 8.214286e+00	 3.714286e+00	 1.032145e+01
0	 8.214286e+00	 3.785714e+00	 1.030785e+01
0	 8.214286e+00	 3.857143e+00	 1.029402e+01
0	 8.214286e+00	 3.928571e+00	 1.027996e+01
0	 7.857143e+00	 3.928571e+00	 1.015527e+01
0	 7.857143e+00	 4.000000e+00	 1.014588e+01
0	 7.857143e+00	 4.071429e+00	 1.013618e+01
0	 7.857143e+00	 4.142857e+00	 1.012616e+01
0	 7.857143e+00	 4.214286e+00	 1.011583e+01
0	 7.857143e+00	 4.285714e+00	 1.010518e+01
0	 7.928571e+00	 3.928571e+00	 1.018113e+01
0	 7.928571e+00	 4.000000e+00	 1.017132e+01
0	 7.928571e+00	 4.071429e+00	 1.016121e+01
0	 7.928571e+00	 4.142857e+00	 1.015079e+01
0	 7.928571e+00	 4.214286e+00	 1.014007e+01
0	 7.928571e+00	 4.285714e+00	 1.012905e+01
0	 8.000000e+00	 3.928571e+00	 1.020654e+01
0	 8.000000e+00	 4.000000e+00	 1.019628e+01
0	 8.000000e+00	 4.071429e+00	 1.018575e+01
0	 8.000000e+00	 4.142857e+00	 1.017492e+01
0	 8.000000e+00	 4.214286e+00	 1.016381e+01
0	 8.000000e+00	 4.285714e+00	 1.015241e+01
0	 8.071429e+00	 3.928571e+00	 1.023148e+01
0	 8.071429e+00	 4.000000e+00	 1.022077e+01
0	 8.071429e+00	 4.071429e+00	 1.020980e+01
0	 8.071429e+00	 4.142857e+00	 1.019855e+01
0	 8.071429e+00	 4.214286e+00	 1.018704e+01
0	 8.071429e+00	 4.285714e+00	 1.017525e+01
0	 8.142857e+00	 3.928571e+00	 1.025595e+01
0	 8.142857e+00	 4.000000e+00	 1.024479e+01
0	 8.142857e+00	 4.071429e+00	 1.023337e+01
0	 8.142857e+00	 4.142857e+00	 1.022169e+01
0	 8.142857e+00	 4.214286e+00	 1.020976e+01
0	 8.142857e+00	 4.285714e+00	 1.019757e+01
0	 8.214286e+00	 3.928571e+00	 1.027996e+01
0	 8.214286e+00	 4.000000e+00	 1.026833e+01
0	 8.214286e+00	 4.071429e+00	 1.025645e+01
0	 8.214286e+00	 4.142857e+00	 1.024433e+01
0	 8.214286e+00	 4.214286e+00	 1.023197e+01
0	 8.214286e+00	 4.285714e+00	 1.021937e+01
0	 7.857143e+00	 4.285714e+00	 1.010518e+01
0	 7.857143e+00	 4.357143e+00	 1.009752e+01
0	 7.857143e+00	 4.428571e+00	 1.008957e+01
0	 7.857143e+00	 4.500000e+00	 1.008131e+01
0	 7.857143e+00	 4.571429e+00	 1.007275e+01
0	 7.857143e+00	 4.642857e+00	 1.006388e+01
0	 7.928571e+00	 4.285714e+00	 1.012905e+01
0	 7.928571e+00	 4.357143e+00	 1.012093e+01
0	 7.928571e+00	 4.428571e+00	 1.011252e+01
0	 7.928571e+00	 4.500000e+00	 1.010382e+01
0	 7.928571e+00	 4.571429e+00	 1.009483e+01
0	 7.928571e+00	 4.642857e+00	 1.008555e+01
0	 8.000000e+00	 4.285714e+00	 1.015241e+01
0	 8.000000e+00	 4.357143e+00	 1.014381e+01
0	 8.000000e+00	 4.428571e+00	 1.013494e+01
0	 8.000000e+00	 4.500000e+00	 1.012579e+01
0	 8.000000e+00	 4.571429e+00	 1.011637e+01
0	 8.000000e+00	 4.642857e+00	 1.010667e+01
0	 8.071429e+00	 4.285714e+00	 1.017525e+01
0	 8.071429e+00	 4.357143e+00	 1.016617e+01
0	 8.071429e+00	 4.428571e+00	 1.015683e+01
0	 8.071429e+00	 4.500000e+00	 1.014723e+01
0	 8.071429e+00	 4.571429e+00	 1.013737e+01
0	 8.071429e+00	 4.642857e+00	 1.012724e+01
0	 8.142857e+00	 4.285714e+00	 1.019757e+01
0	 8.142857e+00	 4.357143e+00	 1.018801e+01
0	 8.142857e+00	 4.428571e+00	 1.017820e+01
0	 8.142857e+00	 4.500000e+00	 1.016814e+01
0	 8.142857e+00	 4.571429e+00	 1.015783e+01
0	 8.142857e+00	 4.642857e+00	 1.014727e+01
0	 8.214286e+00	 4.285714e+00	 1.021937e+01
0	 8.214286e+00	 4.357143e+00	 1.020932e+01
0	 8.214286e+00	 4.428571e+00	 1.019903e+01
0	 8.214286e+00	 4.500000e+00	 1.018851e+01
0	 8.214286e+00	 4.571429e+00	 1.017775e+01
0	 8.214286e+00	 4.642857e+00	 1.016675e+01
0	 7.857143e+00	 4.642857e+00	 1.006388e+01
0	 7.857143e+00	 4.714286e+00	 1.005787e+01
0	 7.857143e+00	 4.785714e+00	 1.005159e+01
0	 7.857143e+00	 4.857143e+00	 1.004503e+01
0	 7.857143e+00	 4.928571e+00	 1.003819e+01
0	 7.857143e+00	 5.000000e+00	 1.003108e+01
0	 7.928571e+00	 4.642857e+00	 1.008555e+01
0	 7.928571e+00	 4.714286e+00	 1.007905e+01
0	 7.928571e+00	 4.785714e+00	 1.007229e+01
0	 7.928571e+00	 4.857143e+00	 1.006526e+01
0	 7.928571e+00	 4.928571e+00	 1.005796e+01
0	 7.928571e+00	 5.000000e+00	 1.005040e+01
0	 8.000000e+00	 4.642857e+00	 1.010667e+01
0	 8.000000e+00	 4.714286e+00	 1.009968e+01
0	 8.000000e+00	 4.785714e+00	 1.009243e+01
0	 8.000000e+00	 4.857143e+00	 1.008494e+01
0	 8.000000e+00	 4.928571e+00	 1.007719e+01
0	 8.000000e+00	 5.000000e+00	 1.006918e+01
0	 8.071429e+00	 4.642857e+00	 1.012724e+01
0	 8.071429e+00	 4.714286e+00	 1.011976e+01
0	 8.071429e+00	 4.785714e+00	 1.011204e+01
0	 8.071429e+00	 4.857143e+00	 1.010407e+01
0	 8.071429e+00	 4.928571e+00	 1.009586e+01
0	 8.071429e+00	 5.000000e+00	 1.008741e+01
0	 8.142857e+00	 4.642857e+00	 1.014727e+01
0	 8.142857e+00	 4.714286e+00	 1.013930e+01
0	 8.142857e+00	 4.785714e+00	 1.013109e+01
0	 8.142857e+00	 4.857143e+00	 1.012266e+01
0	 8.142857e+00	 4.928571e+00	 1.011399e+01
0	 8.142857e+00	 5.000000e+00	 1.010510e+01
0	 8.214286e+00	 4.642857e+00	 1.016675e+01
0	 8.214286e+00	 4.714286e+00	 1.015829e+01
0	 8.214286e+00	 4.785714e+00	 1.014961e+01
0	 8.214286e+00	 4.857143e+00	 1.014070e+01
0	 8.214286e+00	 4.928571e+00	 1.013158e+01
0	 8.214286e+00	 5.000000e+00	 1.012223e+01
0	 7.857143e+00	 5.000000e+00	 1.003108e+01
0	 7.857143e+00	 5.071429e+00	 1.002657e+01
0	 7.857143e+00	 5.142857e+00	 1.002183e+01
0	 7.857143e+00	 5.214286e+00	 1.001684e+01
0	 7.857143e+00	 5.285714e+00	 1.001161e+01
0	 7.857143e+00	 5.357143e+00	 1.000614e+01
0	 7.928571e+00	 5.000000e+00	 1.005040e+01
0	 7.928571e+00	 5.071429e+00	 1.004541e+01
0	 7.928571e+00	 5.142857e+00	 1.004018e+01
0	 7.928571e+00	 5.214286e+00	 1.003472e+01
0	 7.928571e+00	 5.285714e+00	 1.002902e+01
0	 7.928571e+00	 5.357143e+00	 1.002310e+01
0	 8.000000e+00	 5.000000e+00	 1.006918e+01
0	 8.000000e+00	 5.071429e+00	 1.006370e+01
0	 8.000000e+00	 5.142857e+00	 1.005799e+01
0	 8.000000e+00	 5.214286e+00	 1.005206e+01
0	 8.000000e+00	 5.285714e+00	 1.004590e+01
0	 8.000000e+00	 5.357143e+00	 1.003952e+01
0	 8.071429e+00	 5.000000e+00	 1.008741e+01
0	 8.071429e+00	 5.071429e+00	 1.008144e+01
0	 8.071429e+00	 5.142857e+00	 1.007526e+01
0	 8.071429e+00	 5.214286e+00	 1.006886e+01
0	 8.071429e+00	 5.285714e+00	 1.006224e+01
0	 8.071429e+00	 5.357143e+00	 1.005541e+01
0	 8.142857e+00	 5.000000e+00	 1.010510e+01
0	 8.142857e+00	 5.071429e+00	 1.009864e+01
0	 8.142857e+00	 5.142857e+00	 1.009198e+01
0	 8.142857e+00	 5.214286e+00	 1.008512e+01
0	 8.142857e+00	 5.285714e+00	 1.007805e+01
0	 8.142857e+00	 5.357143e+00	 1.007077e+01
0	 8.214286e+00	 5.000000e+00	 1.012223e+01
0	 8.214286e+00	 5.071429e+00	 1.011530e+01
0	 8.214286e+00	 5.142857e+00	 1.010817e+01
0	 8.214286e+00	 5.214286e+00	 1.010084e+01
0	 8.214286e+00	 5.285714e+00	 1.009332e+01
0	 8.214286e+00	 5.357143e+00	 1.008559e+01
0	 7.857143e+00	 5.357143e+00	 1.000614e+01
0	 7.857143e+00	 5.428571e+00	 1.000297e+01
0	 7.857143e+00	 5.500000e+00	 9.999598e+00
0	 7.857143e+00	 5.571429e+00	 9.996022e+00
0	 7.857143e+00	 5.642857e+00	 9.992242e+00
0	 7.857143e+00	 5.714286e+00	 9.988259e+00
0	 7.928571e+00	 5.357143e+00	 1.002310e+01
0	 7.928571e+00	 5.428571e+00	 1.001945e+01
0	 7.928571e+00	 5.500000e+00	 1.001560e+01
0	 7.928571e+00	 5.571429e+00	 1.001156e+01
0	 7.928571e+00	 5.642857e+00	 1.000732e+01
0	 7.928571e+00	 5.714286e+00	 1.000289e+01
0	 8.000000e+00	 5.357143e+00	 1.003952e+01
0	 8.000000e+00	 5.428571e+00	 1.003540e+01
0	 8.000000e+00	 5.500000e+00	 1.003109e+01
0	 8.000000e+00	 5.571429e+00	 1.002658e+01
0	 8.000000e+00	 5.642857e+00	 1.002189e+01
0	 8.000000e+00	 5.714286e+00	 1.001701e+01
0	 8.071429e+00	 5.357143e+00	 1.005541e+01
0	 8.071429e+00	 5.428571e+00	 1.005082e+01
0	 8.071429e+00	 5.500000e+00	 1.004605e+01
0	 8.071429e+00	 5.571429e+00	 1.004109e+01
0	 8.071429e+00	 5.642857e+00	 1.003595e+01
0	 8.071429e+00	 5.714286e+00	 1.003063e+01
0	 8.142857e+00	 5.357143e+00	 1.007077e+01
0	 8.142857e+00	 5.428571e+00	 1.006572e+01
0	 8.142857e+00	 5.500000e+00	 1.006049e+01
0	 8.142857e+00	 5.571429e+00	 1.005509e+01
0	 8.142857e+00	 5.642857e+00	 1.004951e+01
0	 8.142857e+00	 5.714286e+00	 1.004375e+01
0	 8.214286e+00	 5.357143e+00	 1.008559e+01
0	 8.214286e+00	 5.428571e+00	 1.008009e+01
0	 8.214286e+00	 5.500000e+00	 1.007441e+01
0	 8.214286e+00	 5.571429e+00	 1.006857e+01
0	 8.214286e+00	 5.642857e+00	 1.006255e+01
0	 8.214286e+00	 5.714286e+00	 1.005637e+01
0	 7.857143e+00	 5.714286e+00	 9.988259e+00
0	 7.857143e+00	 5.785714e+00	 9.986236e+00
0	 7.857143e+00	 5.857143e+00	 9.984050e+00
0	 7.857143e+00	 5.928571e+00	 9.981700e+00
0	 7.857143e+00	 6.000000e+00	 9.979186e+00
0	 7.857143e+00	 6.071429e+00	 9.976509e+00
0	 7.928571e+00	 5.714286e+00	 1.000289e+01
0	 7.928571e+00	 5.785714e+00	 1.000041e+01
0	 7.928571e+00	 5.857143e+00	 9.997774e+00
0	 7.928571e+00	 5.928571e+00	 9.994979e+00
0	 7.928571e+00	 6.000000e+00	 9.992025e+00
0	 7.928571e+00	 6.071429e+00	 9.988913e+00
0	 8.000000e+00	 5.714286e+00	 1.001701e+01
0	 8.000000e+00	 5.785714e+00	 1.001409e+01
0	 8.000000e+00	 5.857143e+00	 1.001101e+01
0	 8.000000e+00	 5.928571e+00	 1.000778e+01
0	 8.000000e+00	 6.000000e+00	 1.000439e+01
0	 8.000000e+00	 6.071429e+00	 1.000085e+01
0	 8.071429e+00	 5.714286e+00	 1.003063e+01
0	 8.071429e+00	 5.785714e+00	 1.002727e+01
0	 8.071429e+00	 5.857143e+00	 1.002376e+01
0	 8.071429e+00	 5.928571e+00	 1.002010e+01
0	 8.071429e+00	 6.000000e+00	 1.001629e+01
0	 8.071429e+00	 6.071429e+00	 1.001233e+01
0	 8.142857e+00	 5.714286e+00	 1.004375e+01
0	 8.142857e+00	 5.785714e+00	 1.003996e+01
0	 8.142857e+00	 5.857143e+00	 1.003603e+01
0	 8.142857e+00	 5.928571e+00	 1.003194e+01
0	 8.142857e+00	 6.000000e+00	 1.002772e+01
0	 8.142857e+00	 6.071429e+00	 1.002334e+01
0	 8.214286e+00	 5.714286e+00	 1.005637e+01
0	 8.214286e+00	 5.785714e+00	 1.005215e+01
0	 8.214286e+00	 5.857143e+00	 1.004780e+01
0	 8.214286e+00	 5.928571e+00	 1.004331e+01
0	 8.214286e+00	 6.000000e+00	 1.003867e+01
0	 8.214286e+00	 6.071429e+00	 1.003390e+01
0	 7.857143e+00	 6.071429e+00	 9.976509e+00
0	 7.857143e+00	 6.142857e+00	 9.975444e+00
0	 7.857143e+00	 6.214286e+00	 9.974254e+00
0	 7.857143e+00	 6.285714e+00	 9.972939e+00
0	 7.857143e+00	 6.357143e+00	 9.971499e+00
0	 7.857143e+00	 6.428571e+00	 9.969934e+00
0	 7.928571e+00	 6.071429e+00	 9.988913e+00
0	 7.928571e+00	 6.142857e+00	 9.987427e+00
0	 7.928571e+00	 6.214286e+00	 9.985820e+00
0	 7.928571e+00	 6.285714e+00	 9.984090e+00
0	 7.928571e+00	 6.357143e+00	 9.982238e+00
0	 7.928571e+00	 6.428571e+00	 9.980263e+00
0	 8.000000e+00	 6.071429e+00	 1.000085e+01
0	 8.000000e+00	 6.142857e+00	 9.998957e+00
0	 8.000000e+00	 6.214286e+00	 9.996941e+00
0	 8.000000e+00	 6.285714e+00	 9.994805e+00
0	 8.000000e+00	 6.357143e+00	 9.992550e+00
0	 8.000000e+00	 6.428571e+00	 9.990175e+00
0	 8.071429e+00	 6.071429e+00	 1.001233e+01
0	 8.071429e+00	 6.142857e+00	 1.001003e+01
0	 8.071429e+00	 6.214286e+00	 1.000762e+01
0	 8.071429e+00	 6.285714e+00	 1.000509e+01
0	 8.071429e+00	 6.357143e+00	 1.000244e+01
0	 8.071429e+00	 6.428571e+00	 9.999671e+00
0	 8.142857e+00	 6.071429e+00	 1.002334e+01
0	 8.142857e+00	 6.142857e+00	 1.002065e+01
0	 8.142857e+00	 6.214286e+00	 1.001785e+01
0	 8.142857e+00	 6.285714e+00	 1.001493e+01
0	 8.142857e+00	 6.357143e+00	 1.001190e+01
0	 8.142857e+00	 6.428571e+00	 1.000875e+01
0	 8.214286e+00	 6.071429e+00	 1.003390e+01
0	 8.214286e+00	 6.142857e+00	 1.003082e+01
0	 8.214286e+00	 6.214286e+00	 1.002764e+01
0	 8.214286e+00	 6.285714e+00	 1.002434e+01
0	 8.214286e+00	 6.357143e+00	 1.002093e+01
0	 8.214286e+00	 6.428571e+00	 1.001741e+01
0	 7.857143e+00	 6.428571e+00	 9.969934e+00
0	 7.857143e+00	 6.500000e+00	 9.969640e+00
0	 7.857143e+00	 6.571429e+00	 9.969257e+00
0	 7.857143e+00	 6.642857e+00	 9.968786e+00
0	 7.857143e+00	 6.714286e+00	 9.968227e+00
0	 7.857143e+00	 6.785714e+00	 9.967580e+00
0	 7.928571e+00	 6.428571e+00	 9.980263e+00
0	 7.928571e+00	 6.500000e+00	 9.979587e+00
0	 7.928571e+00	 6.571429e+00	 9.978824e+00
0	 7.928571e+00	 6.642857e+00	 9.977973e+00
0	 7.928571e+00	 6.714286e+00	 9.977036e+00
0	 7.928571e+00	 6.785714e+00	 9.976011e+00
0	 8.000000e+00	 6.428571e+00	 9.990175e+00
0	 8.000000e+00	 6.500000e+00	 9.989128e+00
0	 8.000000e+00	 6.571429e+00	 9.987994e+00
0	 8.000000e+00	 6.642857e+00	 9.986775e+00
0	 8.000000e+00	 6.714286e+00	 9.985468e+00
0	 8.000000e+00	 6.785714e+00	 9.984076e+00
0	 8.071429e+00	 6.428571e+00	 9.999671e+00
0	 8.071429e+00	 6.500000e+00	 9.998262e+00
0	 8.071429e+00	 6.571429e+00	 9.996769e+00
0	 8.071429e+00	 6.642857e+00	 9.995190e+00
0	 8.071429e+00	 6.714286e+00	 9.993525e+00
0	 8.071429e+00	 6.785714e+00	 9.991776e+00
0	 8.142857e+00	 6.428571e+00	 1.000875e+01
0	 8.142857e+00	 6.500000e+00	 1.000699e+01
0	 8.142857e+00	 6.571429e+00	 1.000515e+01
0	 8.142857e+00	 6.642857e+00	 1.000322e+01
0	 8.142857e+00	 6.714286e+00	 1.000121e+01
0	 8.142857e+00	 6.785714e+00	 9.999110e+00
0	 8.214286e+00	 6.428571e+00	 1.001741e+01
0	 8.214286e+00	 6.500000e+00	 1.001531e+01
0	 8.214286e+00	 6.571429e+00	 1.001313e+01
0	 8.214286e+00	 6.642857e+00	 1.001086e+01
0	 8.214286e+00	 6.714286e+00	 1.000851e+01
0	 8.214286e+00	 6.785714e+00	 1.000608e+01
0	 7.857143e+00	 6.785714e+00	 9.967580e+00
0	 7.857143e+00	 6.857143e+00	 9.967876e+00
0	 7.857143e+00	 6.928571e+00	 9.968119e+00
0	 7.857143e+00	 7.000000e+00	 9.968307e+00
0	 7.857143e+00	 7.071429e+00	 9.968441e+00
0	 7.857143e+00	 7.142857e+00	 9.968521e+00
0	 7.928571e+00	 6.785714e+00	 9.976011e+00
0	 7.928571e+00	 6.857143e+00	 9.975967e+00
0	 7.928571e+00	 6.928571e+00	 9.975868e+00
0	 7.928571e+00	 7.000000e+00	 9.975715e+00
0	 7.928571e+00	 7.071429e+00	 9.975507e+00
0	 7.928571e+00	 7.142857e+00	 9.975245e+00
0	 8.000000e+00	 6.785714e+00	 9.984076e+00
0	 8.000000e+00	 6.857143e+00	 9.983702e+00
0	 8.000000e+00	 6.928571e+00	 9.983274e+00
0	 8.000000e+00	 7.000000e+00	 9.982790e+00
0	 8.000000e+00	 7.071429e+00	 9.982251e+00
0	 8.000000e+00	 7.142857e+00	 9.981658e+00
0	 8.071429e+00	 6.785714e+00	 9.991776e+00
0	 8.071429e+00	 6.857143e+00	 9.991083e+00
0	 8.071429e+00	 6.928571e+00	 9.990335e+00
0	 8.071429e+00	 7.000000e+00	 9.989532e+00
0	 8.071429e+00	 7.071429e+00	 9.988673e+00
0	 8.071429e+00	 7.142857e+00	 9.987759e+00
0	 8.142857e+00	 6.785714e+00	 9.999110e+00
0	 8.142857e+00	 6.857143e+00	 9.998109e+00
0	 8.142857e+00	 6.928571e+00	 9.997053e+00
0	 8.142857e+00	 7.000000e+00	 9.995940e+00
0	 8.142857e+00	 7.071429e+00	 9.994772e+00
0	 8.142857e+00	 7.142857e+00	 9.993548e+00
0	 8.214286e+00	 6.785714e+00	 1.000608e+01
0	 8.214286e+00	 6.857143e+00	 1.000478e+01
0	 8.214286e+00	 6.928571e+00	 1.000343e+01
0	 8.214286e+00	 7.000000e+00	 1.000202e+01
0	 8.214286e+00	 7.071429e+00	 1.000055e+01
0	 8.214286e+00	 7.142857e+00	 9.999025e+00
0	 7.857143e+00	 7.142857e+00	 9.968521e+00
0	 7.857143e+00	 7.214286e+00	 9.969238e+00
0	 7.857143e+00	 7.285714e+00	 9.969931e+00
0	 7.857143e+00	 7.357143e+00	 9.970602e+00
0	 7.857143e+00	 7.428571e+00	 9.971250e+00
0	 7.857143e+00	 7.500000e+00	 9.971874e+00
0	 7.928571e+00	 7.142857e+00	 9.975245e+00
0	 7.928571e+00	 7.214286e+00	 9.975663e+00
0	 7.928571e+00	 7.285714e+00	 9.976056e+00
0	 7.928571e+00	 7.357143e+00	 9.976424e+00
0	 7.928571e+00	 7.428571e+00	 9.976768e+00
0	 7.928571e+00	 7.500000e+00	 9.977087e+00
0	 8.000000e+00	 7.142857e+00	 9.981658e+00
0	 8.000000e+00	 7.214286e+00	 9.981787e+00
0	 8.000000e+00	 7.285714e+00	 9.981891e+00
0	 8.000000e+00	 7.357143e+00	 9.981968e+00
0	 8.000000e+00	 7.428571e+00	 9.982019e+00
0	 8.000000e+00	 7.500000e+00	 9.982044e+00
0	 8.071429e+00	 7.142857e+00	 9.987759e+00
0	 8.071429e+00	 7.214286e+00	 9.987611e+00
0	 8.071429e+00	 7.285714e+00	 9.987436e+00
0	 8.071429e+00	 7.357143e+00	 9.987233e+00
0	 8.071429e+00	 7.428571e+00	 9.987003e+00
0	 8.071429e+00	 7.500000e+00	 9.986744e+00
0	 8.142857e+00	 7.142857e+00	 9.993548e+00
0	 8.142857e+00	 7.214286e+00	 9.993134e+00
0	 8.142857e+00	 7.285714e+00	 9.992692e+00
0	 8.142857e+00	 7.357143e+00	 9.992220e+00
0	 8.142857e+00	 7.428571e+00	 9.991719e+00
0	 8.142857e+00	 7.500000e+00	 9.991188e+00
0	 8.214286e+00	 7.142857e+00	 9.999025e+00
0	 8.214286e+00	 7.214286e+00	 9.998357e+00
0	 8.214286e+00	 7.285714e+00	 9.997658e+00
0	 8.214286e+00	 7.357143e+00	 9.996928e+00
0	 8.214286e+00	 7.428571e+00	 9.996167e+00
0	 8.214286e+00	 7.500000e+00	 9.995376e+00
0	 7.857143e+00	 7.500000e+00	 9.971874e+00
0	 7.857143e+00	 7.571429e+00	 9.972849e+00
0	 7.857143e+00	 7.642857e+00	 9.973829e+00
0	 7.857143e+00	 7.714286e+00	 9.974815e+00
0	 7.857143e+00	 7.785714e+00	 9.975806e+00
0	 7.857143e+00	 7.857143e+00	 9.976803e+00
0	 7.928571e+00	 7.500000e+00	 9.977087e+00
0	 7.928571e+00	 7.571429e+00	 9.977803e+00
0	 7.928571e+00	 7.642857e+00	 9.978522e+00
0	 7.928571e+00	 7.714286e+00	 9.979244e+00
0	 7.928571e+00	 7.785714e+00	 9.979969e+00
0	 7.928571e+00	 7.857143e+00	 9.980697e+00
0	 8.000000e+00	 7.500000e+00	 9.982044e+00
0	 8.000000e+00	 7.571429e+00	 9.982513e+00
0	 8.000000e+00	 7.642857e+00	 9.982981e+00
0	 8.000000e+00	 7.714286e+00	 9.983451e+00
0	 8.000000e+00	 7.785714e+00	 9.983920e+00
0	 8.000000e+00	 7.857143e+00	 9.984390e+00
0	 8.071429e+00	 7.500000e+00	 9.986744e+00
0	 8.071429e+00	 7.571429e+00	 9.986976e+00
0	 8.071429e+00	 7.642857e+00	 9.987206e+00
0	 8.071429e+00	 7.714286e+00	 9.987434e+00
0	 8.071429e+00	 7.785714e+00	 9.987659e+00
0	 8.071429e+00	 7.857143e+00	 9.987883e+00
0	 8.142857e+00	 7.500000e+00	 9.991188e+00
0	 8.142857e+00	 7.571429e+00	 9.991195e+00
0	 8.142857e+00	 7.642857e+00	 9.991197e+00
0	 8.142857e+00	 7.714286e+00	 9.991194e+00
0	 8.142857e+00	 7.785714e+00	 9.991187e+00
0	 8.142857e+00	 7.857143e+00	 9.991174e+00
0	 8.214286e+00	 7.500000e+00	 9.995376e+00
0	 8.214286e+00	 7.571429e+00	 9.995169e+00
0	 8.214286e+00	 7.642857e+00	 9.994954e+00
0	 8.214286e+00	 7.714286e+00	 9.994732e+00
0	 8.214286e+00	 7.785714e+00	 9.994502e+00
0	 8.214286e+00	 7.857143e+00	 9.994265e+00
0	 7.857143e+00	 7.857143e+00	 9.976803e+00
0	 7.857143e+00	 7.928571e+00	 9.977883e+00
0	 7.857143e+00	 8.000000e+00	 9.978994e+00
0	 7.857143e+00	 8.071429e+00	 9.980136e+00
0	 7.857143e+00	 8.142857e+00	 9.981310e+00
0	 7.857143e+00	 8.214286e+00	 9.982516e+00
0	 7.928571e+00	 7.857143e+00	 9.980697e+00
0	 7.928571e+00	 7.928571e+00	 9.981557e+00
0	 7.928571e+00	 8.000000e+00	 9.982445e+00
0	 7.928571e+00	 8.071429e+00	 9.983361e+00
0	 7.928571e+00	 8.142857e+00	 9.984305e+00
0	 7.928571e+00	 8.214286e+00	 9.985277e+00
0	 8.000000e+00	 7.857143e+00	 9.984390e+00
0	 8.000000e+00	 7.928571e+00	 9.985042e+00
0	 8.000000e+00	 8.000000e+00	 9.985718e+00
0	 8.000000e+00	 8.071429e+00	 9.986418e+00
0	 8.000000e+00	 8.142857e+00	 9.987143e+00
0	 8.000000e+00	 8.214286e+00	 9.987892e+00
0	 8.071429e+00	 7.857143e+00	 9.987883e+00
0	 8.071429e+00	 7.928571e+00	 9.988337e+00
0	 8.071429e+00	 8.000000e+00	 9.988811e+00
0	 8.071429e+00	 8.071429e+00	 9.989307e+00
0	 8.071429e+00	 8.142857e+00	 9.989823e+00
0	 8.071429e+00	 8.214286e+00	 9.990361e+00
0	 8.142857e+00	 7.857143e+00	 9.991174e+00
0	 8.142857e+00	 7.928571e+00	 9.991442e+00
0	 8.142857e+00	 8.000000e+00	 9.991726e+00
0	 8.142857e+00	 8.071429e+00	 9.992028e+00
0	 8.142857e+00	 8.142857e+00	 9.992347e+00
0	 8.142857e+00	 8.214286e+00	 9.992683e+00
0	 8.214286e+00	 7.857143e+00	 9.994265e+00
0	 8.214286e+00	 7.928571e+00	 9.994357e+00
0	 8.214286e+00	 8.000000e+00	 9.994462e+00
0	 8.214286e+00	 8.071429e+00	 9.994580e+00
0	 8.214286e+00	 8.142857e+00	 9.994713e+00
0	 8.214286e+00	 8.214286e+00	 9.994859e+00
0	 7.857143e+00	 8.214286e+00	 9.982516e+00
0	 7.857143e+00	 8.285714e+00	 9.983559e+00
0	 7.857143e+00	 8.357143e+00	 9.984656e+00
0	 7.857143e+00	 8.428571e+00	 9.985808e+00
0	 7.857143e+00	 8.500000e+00	 9.987014e+00
0	 7.857143e+00	 8.571429e+00	 9.988275e+00
0	 7.928571e+00	 8.214286e+00	 9.985277e+00
0	 7.928571e+00	 8.285714e+00	 9.986138e+00
0	 7.928571e+00	 8.357143e+00	 9.987050e+00
0	 7.928571e+00	 8.428571e+00	 9.988011e+00
0	 7.928571e+00	 8.500000e+00	 9.989022e+00
0	 7.928571e+00	 8.571429e+00	 9.990083e+00
0	 8.000000e+00	 8.214286e+00	 9.987892e+00
0	 8.000000e+00	 8.285714e+00	 9.988582e+00
0	 8.000000e+00	 8.357143e+00	 9.989318e+00
0	 8.000000e+00	 8.428571e+00	 9.990098e+00
0	 8.000000e+00	 8.500000e+00	 9.990925e+00
0	 8.000000e+00	 8.571429e+00	 9.991796e+00
0	 8.071429e+00	 8.214286e+00	 9.990361e+00
0	 8.071429e+00	 8.285714e+00	 9.990890e+00
0	 8.071429e+00	 8.357143e+00	 9.991460e+00
0	 8.071429e+00	 8.428571e+00	 9.992071e+00
0	 8.071429e+00	 8.500000e+00	 9.992723e+00
0	 8.071429e+00	 8.571429e+00	 9.993416e+00
0	 8.142857e+00	 8.214286e+00	 9.992683e+00
0	 8.142857e+00	 8.285714e+00	 9.993062e+00
0	 8.142857e+00	 8.357143e+00	 9.993477e+00
0	 8.142857e+00	 8.428571e+00	 9.993929e+00
0	 8.142857e+00	 8.500000e+00	 9.994417e+00
0	 8.142857e+00	 8.571429e+00	 9.994941e+00
0	 8.214286e+00	 8.214286e+00	 9.994859e+00
0	 8.214286e+00	 8.285714e+00	 9.995098e+00
0	 8.214286e+00	 8.357143e+00	 9.995369e+00
0	 8.214286e+00	 8.428571e+00	 9.995671e+00
0	 8.214286e+00	 8.500000e+00	 9.996006e+00
0	 8.214286e+00	 8.571429e+00	 9.996372e+00
0	 7.857143e+00	 8.571429e+00	 9.988275e+00
0	 7.857143e+00	 8.642857e+00	 9.989154e+00
0	 7.857143e+00	 8.714286e+00	 9.990107e+00
0	 7.857143e+00	 8.785714e+00	 9.991133e+00
0	 7.857143e+00	 8.857143e+00	 9.992233e+00
0	 7.857143e+00	 8.928571e+00	 9.993406e+00
0	 7.928571e+00	 8.571429e+00	 9.990083e+00
0	 7.928571e+00	 8.642857e+00	 9.990818e+00
0	 7.928571e+00	 8.714286e+00	 9.991621e+00
0	 7.928571e+00	 8.785714e+00	 9.992491e+00
0	 7.928571e+00	 8.857143e+00	 9.993430e+00
0	 7.928571e+00	 8.928571e+00	 9.994437e+00
0	 8.000000e+00	 8.571429e+00	 9.991796e+00
0	 8.000000e+00	 8.642857e+00	 9.992397e+00
0	 8.000000e+00	 8.714286e+00	 9.993059e+00
0	 8.000000e+00	 8.785714e+00	 9.993784e+00
0	 8.000000e+00	 8.857143e+00	 9.994572e+00
0	 8.000000e+00	 8.928571e+00	 9.995422e+00
0	 8.071429e+00	 8.571429e+00	 9.993416e+00
0	 8.071429e+00	 8.642857e+00	 9.993891e+00
0	 8.071429e+00	 8.714286e+00	 9.994423e+00
0	 8.071429e+00	 8.785714e+00	 9.995012e+00
0	 8.071429e+00	 8.857143e+00	 9.995657e+00
0	 8.071429e+00	 8.928571e+00	 9.996359e+00
0	 8.142857e+00	 8.571429e+00	 9.994941e+00
0	 8.142857e+00	 8.642857e+00	 9.995301e+00
0	 8.142857e+00	 8.714286e+00	 9.995711e+00
0	 8.142857e+00	 8.785714e+00	 9.996173e+00
0	 8.142857e+00	 8.857143e+00	 9.996686e+00
0	 8.142857e+00	 8.928571e+00	 9.997250e+00
0	 8.214286e+00	 8.571429e+00	 9.996372e+00
0	 8.214286e+00	 8.642857e+00	 9.996626e+00
0	 8.214286e+00	 8.714286e+00	 9.996924e+00
0	 8.214286e+00	 8.785714e+00	 9.997269e+00
0	 8.214286e+00	 8.857143e+00	 9.997659e+00
0	 8.214286e+00	 8.928571e+00	 9.998095e+00
0	 7.857143e+00	 8.928571e+00	 9.993406e+00
0	 7.857143e+00	 9.000000e+00	 9.994020e+00
0	 7.857143e+00	 9.071429e+00	 9.994720e+00
0	 7.857143e+00	 9.142857e+00	 9.995507e+00
0	 7.857143e+00	 9.214286e+00	 9.996382e+00
0	 7.857143e+00	 9.285714e+00	 9.997343e+00
0	 7.928571e+00	 8.928571e+00	 9.994437e+00
0	 7.928571e+00	 9.000000e+00	 9.994946e+00
0	 7.928571e+00	 9.071429e+00	 9.995535e+00
0	 7.928571e+00	 9.142857e+00	 9.996204e+00
0	 7.928571e+00	 9.214286e+00	 9.996952e+00
0	 7.928571e+00	 9.285714e+00	 9.997781e+00
0	 8.000000e+00	 8.928571e+00	 9.995422e+00
0	 8.000000e+00	 9.000000e+00	 9.995833e+00
0	 8.000000e+00	 9.071429e+00	 9.996318e+00
0	 8.000000e+00	 9.142857e+00	 9.996876e+00
0	 8.000000e+00	 9.214286e+00	 9.997507e+00
0	 8.000000e+00	 9.285714e+00	 9.998211e+00
0	 8.071429e+00	 8.928571e+00	 9.996359e+00
0	 8.071429e+00	 9.000000e+00	 9.996682e+00
0	 8.071429e+00	 9.071429e+00	 9.997071e+00
0	 8.071429e+00	 9.142857e+00	 9.997526e+00
0	 8.071429e+00	 9.214286e+00	 9.998046e+00
0	 8.071429e+00	 9.285714e+00	 9.998633e+00
0	 8.142857e+00	 8.928571e+00	 9.997250e+00
0	 8.142857e+00	 9.000000e+00	 9.997492e+00
0	 8.142857e+00	 9.071429e+00	 9.997792e+00
0	 8.142857e+00	 9.142857e+00	 9.998152e+00
0	 8.142857e+00	 9.214286e+00	 9.998570e+00
0	 8.142857e+00	 9.285714e+00	 9.999048e+00
0	 8.214286e+00	 8.928571e+00	 9.998095e+00
0	 8.214286e+00	 9.000000e+00	 9.998262e+00
0	 8.214286e+00	 9.071429e+00	 9.998482e+00
0	 8.214286e+00	 9.142857e+00	 9.998754e+00
0	 8.214286e+00	 9.214286e+00	 9.999079e+00
0	 8.214286e+00	 9.285714e+00	 9.999455e+00
0	 7.857143e+00	 9.285714e+00	 9.997343e+00
0	 7.857143e+00	 9.357143e+00	 9.997626e+00
0	 7.857143e+00	 9.428571e+00	 9.997999e+00
0	 7.857143e+00	 9.500000e+00	 9.998463e+00
0	 7.857143e+00	 9.571429e+00	 9.999018e+00
0	 7.857143e+00	 9.642857e+00	 9.999662e+00
0	 7.928571e+00	 9.285714e+00	 9.997781e+00
0	 7.928571e+00	 9.357143e+00	 9.998003e+00
0	 7.928571e+00	 9.428571e+00	 9.998307e+00
0	 7.928571e+00	 9.500000e+00	 9.998692e+00
0	 7.928571e+00	 9.571429e+00	 9.999159e+00
0	 7.928571e+00	 9.642857e+00	 9.999707e+00
0	 8.000000e+00	 9.285714e+00	 9.998211e+00
0	 8.000000e+00	 9.357143e+00	 9.998377e+00
0	 8.000000e+00	 9.428571e+00	 9.998616e+00
0	 8.000000e+00	 9.500000e+00	 9.998927e+00
0	 8.000000e+00	 9.571429e+00	 9.999311e+00
0	 8.000000e+00	 9.642857e+00	 9.999769e+00
0	 8.071429e+00	 9.285714e+00	 9.998633e+00
0	 8.071429e+00	 9.357143e+00	 9.998748e+00
0	 8.071429e+00	 9.428571e+00	 9.998926e+00
0	 8.071429e+00	 9.500000e+00	 9.999169e+00
0	 8.071429e+00	 9.571429e+00	 9.999475e+00
0	 8.071429e+00	 9.642857e+00	 9.999846e+00
0	 8.142857e+00	 9.285714e+00	 9.999048e+00
0	 8.142857e+00	 9.357143e+00	 9.999116e+00
0	 8.142857e+00	 9.428571e+00	 9.999239e+00
0	 8.142857e+00	 9.500000e+00	 9.999417e+00
0	 8.142857e+00	 9.571429e+00	 9.999650e+00
0	 8.142857e+00	 9.642857e+00	 9.999939e+00
0	 8.214286e+00	 9.285714e+00	 9.999455e+00
0	 8.214286e+00	 9.357143e+00	 9.999481e+00
0	 8.214286e+00	 9.428571e+00	 9.999553e+00
0	 8.214286e+00	 9.500000e+00	 9.999672e+00
0	 8.214286e+00	 9.571429e+00	 9.999837e+00
0	 8.214286e+00	 9.642857e+00	 1.000005e+01
0	 7.857143e+00	 9.642857e+00	 9.999662e+00
0	 7.857143e+00	 9.714286e+00	 9.999641e+00
0	 7.857143e+00	 9.785714e+00	 9.999698e+00
0	 7.857143e+00	 9.857143e+00	 9.999832e+00
0	 7.857143e+00	 9.928571e+00	 1.000004e+01
0	 7.857143e+00	 1.000000e+01	 1.000033e+01
0	 7.928571e+00	 9.642857e+00	 9.999707e+00
0	 7.928571e+00	 9.714286e+00	 9.999684e+00
0	 7.928571e+00	 9.785714e+00	 9.999727e+00
0	 7.928571e+00	 9.857143e+00	 9.999835e+00
0	 7.928571e+00	 9.928571e+00	 1.000001e+01
0	 7.928571e+00	 1.000000e+01	 1.000025e+01
0	 8.000000e+00	 9.642857e+00	 9.999769e+00
0	 8.000000e+00	 9.714286e+00	 9.999743e+00
0	 8.000000e+00	 9.785714e+00	 9.999770e+00
0	 8.000000e+00	 9.857143e+00	 9.999852e+00
0	 8.000000e+00	 9.928571e+00	 9.999987e+00
0	 8.000000e+00	 1.000000e+01	 1.000018e+01
0	 8.071429e+00	 9.642857e+00	 9.999846e+00
0	 8.071429e+00	 9.714286e+00	 9.999817e+00
0	 8.071429e+00	 9.785714e+00	 9.999829e+00
0	 8.071429e+00	 9.857143e+00	 9.999883e+00
0	 8.071429e+00	 9.928571e+00	 9.999979e+00
0	 8.071429e+00	 1.000000e+01	 1.000012e+01
0	 8.142857e+00	 9.642857e+00	 9.999939e+00
0	 8.142857e+00	 9.714286e+00	 9.999906e+00
0	 8.142857e+00	 9.785714e+00	 9.999902e+00
0	 8.142857e+00	 9.857143e+00	 9.999928e+00
0	 8.142857e+00	 9.928571e+00	 9.999984e+00
0	 8.142857e+00	 1.000000e+01	 1.000007e+01
0	 8.214286e+00	 9.642857e+00	 1.000005e+01
0	 8.214286e+00	 9.714286e+00	 1.000001e+01
0	 8.214286e+00	 9.785714e+00	 9.999991e+00
0	 8.214286e+00	 9.857143e+00	 9.999988e+00
0	 8.214286e+00	 9.928571e+00	 1.000000e+01
0	 8.214286e+00	 1.000000e+01	 1.000004e+01
0	 8.214286e+00	 0.000000e+00	 1.094992e+01
0	 8.214286e+00	 7.142857e-02	 1.094708e+01
0	 8.214286e+00	 1.428571e-01	 1.094472e+01
0	 8.214286e+00	 2.142857e-01	 1.094283e+01
0	 8.214286e+00	 2.857143e-01	 1.094141e+01
0	 8.214286e+00	 3.571429e-01	 1.094045e+01
0	 8.285714e+00	 0.000000e+00	 1.098035e+01
0	 8.285714e+00	 7.142857e-02	 1.097757e+01
0	 8.285714e+00	 1.428571e-01	 1.097524e+01
0	 8.285714e+00	 2.142857e-01	 1.097336e+01
0	 8.285714e+00	 2.857143e-01	 1.097193e+01
0	 8.285714e+00	 3.571429e-01	 1.097095e+01
0	 8.357143e+00	 0.000000e+00	 1.101242e+01
0	 8.357143e+00	 7.142857e-02	 1.100969e+01
0	 8.357143e+00	 1.428571e-01	 1.100738e+01
0	 8.357143e+00	 2.142857e-01	 1.100551e+01
0	 8.357143e+00	 2.857143e-01	 1.100406e+01
0	 8.357143e+00	 3.571429e-01	 1.100305e+01
0	 8.428571e+00	 0.000000e+00	 1.104613e+01
0	 8.428571e+00	 7.142857e-02	 1.104343e+01
0	 8.428571e+00	 1.428571e-01	 1.104115e+01
0	 8.428571e+00	 2.142857e-01	 1.103927e+01
0	 8.428571e+00	 2.857143e-01	 1.103781e+01
0	 8.428571e+00	 3.571429e-01	 1.103675e+01
0	 8.500000e+00	 0.000000e+00	 1.108148e+01
0	 8.500000e+00	 7.142857e-02	 1.107882e+01
0	 8.500000e+00	 1.428571e-01	 1.107654e+01
0	 8.500000e+00	 2.142857e-01	 1.107465e+01
0	 8.500000e+00	 2.857143e-01	 1.107316e+01
0	 8.500000e+00	 3.571429e-01	 1.107205e+01
0	 8.571429e+00	 0.000000e+00	 1.111847e+01
0	 8.571429e+00	 7.142857e-02	 1.111583e+01
0	 8.571429e+00	 1.428571e-01	 1.111356e+01
0	 8.571429e+00	 2.142857e-01	 1.111165e+01
0	 8.571429e+00	 2.857143e-01	 1.111012e+01
0	 8.571429e+00	 3.571429e-01	 1.110895e+01
0	 8.214286e+00	 3.571429e-01	 1.094045e+01
0	 8.214286e+00	 4.285714e-01	 1.093402e+01
0	 8.214286e+00	 5.000000e-01	 1.092802e+01
0	 8.214286e+00	 5.714286e-01	 1.092246e+01
0	 8.214286e+00	 6.428571e-01	 1.091734e+01
0	 8.214286e+00	 7.142857e-01	 1.091265e+01
0	 8.285714e+00	 3.571429e-01	 1.097095e+01
0	 8.285714e+00	 4.285714e-01	 1.096459e+01
0	 8.285714e+00	 5.000000e-01	 1.095865e+01
0	 8.285714e+00	 5.714286e-01	 1.095312e+01
0	 8.285714e+00	 6.428571e-01	 1.094801e+01
0	 8.285714e+00	 7.142857e-01	 1.094333e+01
0	 8.357143e+00	 3.571429e-01	 1.100305e+01
0	 8.357143e+00	 4.285714e-01	 1.099674e+01
0	 8.357143e+00	 5.000000e-01	 1.099083e+01
0	 8.357143e+00	 5.714286e-01	 1.098531e+01
0	 8.357143e+00	 6.428571e-01	 1.098020e+01
0	 8.357143e+00	 7.142857e-01	 1.097549e+01
0	 8.428571e+00	 3.571429e-01	 1.103675e+01
0	 8.428571e+00	 4.285714e-01	 1.103046e+01
0	 8.428571e+00	 5.000000e-01	 1.102456e+01
0	 8.428571e+00	 5.714286e-01	 1.101904e+01
0	 8.428571e+00	 6.428571e-01	 1.101389e+01
0	 8.428571e+00	 7.142857e-01	 1.100913e+01
0	 8.500000e+00	 3.571429e-01	 1.107205e+01
0	 8.500000e+00	 4.285714e-01	 1.106577e+01
0	 8.500000e+00	 5.000000e-01	 1.105985e+01
0	 8.500000e+00	 5.714286e-01	 1.105429e+01
0	 8.500000e+00	 6.428571e-01	 1.104910e+01
0	 8.500000e+00	 7.142857e-01	 1.104427e+01
0	 8.571429e+00	 3.571429e-01	 1.110895e+01
0	 8.571429e+00	 4.285714e-01	 1.110265e+01
0	 8.571429e+00	 5.000000e-01	 1.109669e+01
0	 8.571429e+00	 5.714286e-01	 1.109108e+01
0	 8.571429e+00	 6.428571e-01	 1.108581e+01
0	 8.571429e+00	 7.142857e-01	 1.108088e+01
0	 8.214286e+00	 7.142857e-01	 1.091265e+01
0	 8.214286e+00	 7.857143e-01	 1.090300e+01
0	 8.214286e+00	 8.571429e-01	 1.089373e+01
0	 8.214286e+00	 9.285714e-01	 1.088483e+01
0	 8.214286e+00	 1.000000e+00	 1.087631e+01
0	 8.214286e+00	 1.071429e+00	 1.086816e+01
0	 8.285714e+00	 7.142857e-01	 1.094333e+01
0	 8.285714e+00	 7.857143e-01	 1.093376e+01
0	 8.285714e+00	 8.571429e-01	 1.092454e+01
0	 8.285714e+00	 9.285714e-01	 1.091569e+01
0	 8.285714e+00	 1.000000e+00	 1.090720e+01
0	 8.285714e+00	 1.071429e+00	 1.089906e+01
0	 8.357143e+00	 7.142857e-01	 1.097549e+01
0	 8.357143e+00	 7.857143e-01	 1.096596e+01
0	 8.357143e+00	 8.571429e-01	 1.095677e+01
0	 8.357143e+00	 9.285714e-01	 1.094793e+01
0	 8.357143e+00	 1.000000e+00	 1.093943e+01
0	 8.357143e+00	 1.071429e+00	 1.093127e+01
0	 8.428571e+00	 7.142857e-01	 1.100913e+01
0	 8.428571e+00	 7.857143e-01	 1.099961e+01
0	 8.428571e+00	 8.571429e-01	 1.099041e+01
0	 8.428571e+00	 9.285714e-01	 1.098154e+01
0	 8.428571e+00	 1.000000e+00	 1.097300e+01
0	 8.428571e+00	 1.071429e+00	 1.096479e+01
0	 8.500000e+00	 7.142857e-01	 1.104427e+01
0	 8.500000e+00	 7.857143e-01	 1.103471e+01
0	 8.500000e+00	 8.571429e-01	 1.102546e+01
0	 8.500000e+00	 9.285714e-01	 1.101653e+01
0	 8.500000e+00	 1.000000e+00	 1.100791e+01
0	 8.500000e+00	 1.071429e+00	 1.099961e+01
0	 8.571429e+00	 7.142857e-01	 1.108088e+01
0	 8.571429e+00	 7.857143e-01	 1.107126e+01
0	 8.571429e+00	 8.571429e-01	 1.106193e+01
0	 8.571429e+00	 9.285714e-01	 1.105290e+01
0	 8.571429e+00	 1.000000e+00	 1.104416e+01
0	 8.571429e+00	 1.071429e+00	 1.103573e+01
0	 8.214286e+00	 1.071429e+00	 1.086816e+01
0	 8.214286e+00	 1.142857e+00	 1.085586e+01
0	 8.214286e+00	 1.214286e+00	 1.084385e+01
0	 8.214286e+00	 1.285714e+00	 1.083213e+01
0	 8.214286e+00	 1.357143e+00	 1.082069e+01
0	 8.214286e+00	 1.428571e+00	 1.080955e+01
0	 8.285714e+00	 1.071429e+00	 1.089906e+01
0	 8.285714e+00	 1.142857e+00	 1.088682e+01
0	 8.285714e+00	 1.214286e+00	 1.087486e+01
0	 8.285714e+00	 1.285714e+00	 1.086317e+01
0	 8.285714e+00	 1.357143e+00	 1.085177e+01
0	 8.285714e+00	 1.428571e+00	 1.084064e+01
0	 8.357143e+00	 1.071429e+00	 1.093127e+01
0	 8.357143e+00	 1.142857e+00	 1.091904e+01
0	 8.357143e+00	 1.214286e+00	 1.090708e+01
0	 8.357143e+00	 1.285714e+00	 1.089539e+01
0	 8.357143e+00	 1.357143e+00	 1.088396e+01
0	 8.357143e+00	 1.428571e+00	 1.087280e+01
0	 8.428571e+00	 1.071429e+00	 1.096479e+01
0	 8.428571e+00	 1.142857e+00	 1.095252e+01
0	 8.428571e+00	 1.214286e+00	 1.094052e+01
0	 8.428571e+00	 1.285714e+00	 1.092877e+01
0	 8.428571e+00	 1.357143e+00	 1.091728e+01
0	 8.428571e+00	 1.428571e+00	 1.090604e+01
0	 8.500000e+00	 1.071429e+00	 1.099961e+01
0	 8.500000e+00	 1.142857e+00	 1.098726e+01
0	 8.500000e+00	 1.214286e+00	 1.097516e+01
0	 8.500000e+00	 1.285714e+00	 1.096332e+01
0	 8.500000e+00	 1.357143e+00	 1.095171e+01
0	 8.500000e+00	 1.428571e+00	 1.094036e+01
0	 8.571429e+00	 1.071429e+00	 1.103573e+01
0	 8.571429e+00	 1.142857e+00	 1.102326e+01
0	 8.571429e+00	 1.214286e+00	 1.101103e+01
0	 8.571429e+00	 1.285714e+00	 1.099903e+01
0	 8.571429e+00	 1.357143e+00	 1.098727e+01
0	 8.571429e+00	 1.428571e+00	 1.097575e+01
0	 8.214286e+00	 1.428571e+00	 1.080955e+01
0	 8.214286e+00	 1.500000e+00	 1.079527e+01
0	 8.214286e+00	 1.571429e+00	 1.078118e+01
0	 8.214286e+00	 1.642857e+00	 1.076727e+01
0	 8.214286e+00	 1.714286e+00	 1.075356e+01
0	 8.214286e+00	 1.785714e+00	 1.074003e+01
0	 8.285714e+00	 1.428571e+00	 1.084064e+01
0	 8.285714e+00	 1.500000e+00	 1.082637e+01
0	 8.285714e+00	 1.571429e+00	 1.081229e+01
0	 8.285714e+00	 1.642857e+00	 1.079840e+01
0	 8.285714e+00	 1.714286e+00	 1.078468e+01
0	 8.285714e+00	 1.785714e+00	 1.077116e+01
0	 8.357143e+00	 1.428571e+00	 1.087280e+01
0	 8.357143e+00	 1.500000e+00	 1.085850e+01
0	 8.357143e+00	 1.571429e+00	 1.084438e+01
0	 8.357143e+00	 1.642857e+00	 1.083044e+01
0	 8.357143e+00	 1.714286e+00	 1.081668e+01
0	 8.357143e+00	 1.785714e+00	 1.080310e+01
0	 8.428571e+00	 1.428571e+00	 1.090604e+01
0	 8.428571e+00	 1.500000e+00	 1.089166e+01
0	 8.428571e+00	 1.571429e+00	 1.087744e+01
0	 8.428571e+00	 1.642857e+00	 1.086341e+01
0	 8.428571e+00	 1.714286e+00	 1.084954e+01
0	 8.428571e+00	 1.785714e+00	 1.083585e+01
0	 8.500000e+00	 1.428571e+00	 1.094036e+01
0	 8.500000e+00	 1.500000e+00	 1.092583e+01
0	 8.500000e+00	 1.571429e+00	 1.091148e+01
0	 8.500000e+00	 1.642857e+00	 1.089729e+01
0	 8.500000e+00	 1.714286e+00	 1.088327e+01
0	 8.500000e+00	 1.785714e+00	 1.086942e+01
0	 8.571429e+00	 1.428571e+00	 1.097575e+01
0	 8.571429e+00	 1.500000e+00	 1.096103e+01
0	 8.571429e+00	 1.571429e+00	 1.094648e+01
0	 8.571429e+00	 1.642857e+00	 1.093209e+01
0	 8.571429e+00	 1.714286e+00	 1.091787e+01
0	 8.571429e+00	 1.785714e+00	 1.090381e+01
0	 8.214286e+00	 1.785714e+00	 1.074003e+01
0	 8.214286e+00	 1.857143e+00	 1.072448e+01
0	 8.214286e+00	 1.928571e+00	 1.070901e+01
0	 8.214286e+00	 2.000000e+00	 1.069364e+01
0	 8.214286e+00	 2.071429e+00	 1.067834e+01
0	 8.214286e+00	 2.142857e+00	 1.066314e+01
0	 8.285714e+00	 1.785714e+00	 1.077116e+01
0	 8.285714e+00	 1.857143e+00	 1.075556e+01
0	 8.285714e+00	 1.928571e+00	 1.074005e+01
0	 8.285714e+00	 2.000000e+00	 1.072463e+01
0	 8.285714e+00	 2.071429e+00	 1.070930e+01
0	 8.285714e+00	 2.142857e+00	 1.069405e+01
0	 8.357143e+00	 1.785714e+00	 1.080310e+01
0	 8.357143e+00	 1.857143e+00	 1.078740e+01
0	 8.357143e+00	 1.928571e+00	 1.077180e+01
0	 8.357143e+00	 2.000000e+00	 1.075628e+01
0	 8.357143e+00	 2.071429e+00	 1.074085e+01
0	 8.357143e+00	 2.142857e+00	 1.072551e+01
0	 8.428571e+00	 1.785714e+00	 1.083585e+01
0	 8.428571e+00	 1.857143e+00	 1.082001e+01
0	 8.428571e+00	 1.928571e+00	 1.080425e+01
0	 8.428571e+00	 2.000000e+00	 1.078858e+01
0	 8.428571e+00	 2.071429e+00	 1.077300e+01
0	 8.428571e+00	 2.142857e+00	 1.075751e+01
0	 8.500000e+00	 1.785714e+00	 1.086942e+01
0	 8.500000e+00	 1.857143e+00	 1.085337e+01
0	 8.500000e+00	 1.928571e+00	 1.083741e+01
0	 8.500000e+00	 2.000000e+00	 1.082154e+01
0	 8.500000e+00	 2.071429e+00	 1.080575e+01
0	 8.500000e+00	 2.142857e+00	 1.079005e+01
0	 8.571429e+00	 1.785714e+00	 1.090381e+01
0	 8.571429e+00	 1.857143e+00	 1.088750e+01
0	 8.571429e+00	 1.928571e+00	 1.087128e+01
0	 8.571429e+00	 2.000000e+00	 1.085514e+01
0	 8.571429e+00	 2.071429e+00	 1.083910e+01
0	 8.571429e+00	 2.142857e+00	 1.082314e+01
0	 8.214286e+00	 2.142857e+00	 1.066314e+01
0	 8.214286e+00	 2.214286e+00	 1.064701e+01
0	 8.214286e+00	 2.285714e+00	 1.063088e+01
0	 8.214286e+00	 2.357143e+00	 1.061473e+01
0	 8.214286e+00	 2.428571e+00	 1.059858e+01
0	 8.214286e+00	 2.500000e+00	 1.058241e+01
0	 8.285714e+00	 2.142857e+00	 1.069405e+01
0	 8.285714e+00	 2.214286e+00	 1.067781e+01
0	 8.285714e+00	 2.285714e+00	 1.066156e+01
0	 8.285714e+00	 2.357143e+00	 1.064531e+01
0	 8.285714e+00	 2.428571e+00	 1.062905e+01
0	 8.285714e+00	 2.500000e+00	 1.061279e+01
0	 8.357143e+00	 2.142857e+00	 1.072551e+01
0	 8.357143e+00	 2.214286e+00	 1.070909e+01
0	 8.357143e+00	 2.285714e+00	 1.069268e+01
0	 8.357143e+00	 2.357143e+00	 1.067627e+01
0	 8.357143e+00	 2.428571e+00	 1.065986e+01
0	 8.357143e+00	 2.500000e+00	 1.064345e+01
0	 8.428571e+00	 2.142857e+00	 1.075751e+01
0	 8.428571e+00	 2.214286e+00	 1.074087e+01
0	 8.428571e+00	 2.285714e+00	 1.072424e+01
0	 8.428571e+00	 2.357143e+00	 1.070761e+01
0	 8.428571e+00	 2.428571e+00	 1.069099e+01
0	 8.428571e+00	 2.500000e+00	 1.067438e+01
0	 8.500000e+00	 2.142857e+00	 1.079005e+01
0	 8.500000e+00	 2.214286e+00	 1.077314e+01
0	 8.500000e+00	 2.285714e+00	 1.075624e+01
0	 8.500000e+00	 2.357143e+00	 1.073935e+01
0	 8.500000e+00	 2.428571e+00	 1.072247e+01
0	 8.500000e+00	 2.500000e+00	 1.070560e+01
0	 8.571429e+00	 2.142857e+00	 1.082314e+01
0	 8.571429e+00	 2.214286e+00	 1.080590e+01
0	 8.571429e+00	 2.285714e+00	 1.078867e+01
0	 8.571429e+00	 2.357143e+00	 1.077146e+01
0	 8.571429e+00	 2.428571e+00	 1.075427e+01
0	 8.571429e+00	 2.500000e+00	 1.073709e+01
0	 8.214286e+00	 2.500000e+00	 1.058241e+01
0	 8.214286e+00	 2.571429e+00	 1.056635e+01
0	 8.214286e+00	 2.642857e+00	 1.055019e+01
0	 8.214286e+00	 2.714286e+00	 1.053395e+01
0	 8.214286e+00	 2.785714e+00	 1.051760e+01
0	 8.214286e+00	 2.857143e+00	 1.050117e+01
0	 8.285714e+00	 2.500000e+00	 1.061279e+01
0	 8.285714e+00	 2.571429e+00	 1.059653e+01
0	 8.285714e+00	 2.642857e+00	 1.058018e+01
0	 8.285714e+00	 2.714286e+00	 1.056375e+01
0	 8.285714e+00	 2.785714e+00	 1.054723e+01
0	 8.285714e+00	 2.857143e+00	 1.053063e+01
0	 8.357143e+00	 2.500000e+00	 1.064345e+01
0	 8.357143e+00	 2.571429e+00	 1.062693e+01
0	 8.357143e+00	 2.642857e+00	 1.061035e+01
0	 8.357143e+00	 2.714286e+00	 1.059369e+01
0	 8.357143e+00	 2.785714e+00	 1.057695e+01
0	 8.357143e+00	 2.857143e+00	 1.056014e+01
0	 8.428571e+00	 2.500000e+00	 1.067438e+01
0	 8.428571e+00	 2.571429e+00	 1.065757e+01
0	 8.428571e+00	 2.642857e+00	 1.064070e+01
0	 8.428571e+00	 2.714286e+00	 1.062376e+01
0	 8.428571e+00	 2.785714e+00	 1.060675e+01
0	 8.428571e+00	 2.857143e+00	 1.058968e+01
0	 8.500000e+00	 2.500000e+00	 1.070560e+01
0	 8.500000e+00	 2.571429e+00	 1.068844e+01
0	 8.500000e+00	 2.642857e+00	 1.067123e+01
0	 8.500000e+00	 2.714286e+00	 1.065396e+01
0	 8.500000e+00	 2.785714e+00	 1.063664e+01
0	 8.500000e+00	 2.857143e+00	 1.061925e+01
0	 8.571429e+00	 2.500000e+00	 1.073709e+01
0	 8.571429e+00	 2.571429e+00	 1.071954e+01
0	 8.571429e+00	 2.642857e+00	 1.070194e+01
0	 8.571429e+00	 2.714286e+00	 1.068430e+01
0	 8.571429e+00	 2.785714e+00	 1.066661e+01
0	 8.571429e+00	 2.857143e+00	 1.064886e+01
0	 8.214286e+00	 2.857143e+00	 1.050117e+01
0	 8.214286e+00	 2.928571e+00	 1.048570e+01
0	 8.214286e+00	 3.000000e+00	 1.047008e+01
0	 8.214286e+00	 3.071429e+00	 1.045429e+01
0	 8.214286e+00	 3.142857e+00	 1.043835e+01
0	 8.214286e+00	 3.214286e+00	 1.042225e+01
0	 8.285714e+00	 2.857143e+00	 1.053063e+01
0	 8.285714e+00	 2.928571e+00	 1.051489e+01
0	 8.285714e+00	 3.000000e+00	 1.049899e+01
0	 8.285714e+00	 3.071429e+00	 1.048295e+01
0	 8.285714e+00	 3.142857e+00	 1.046677e+01
0	 8.285714e+00	 3.214286e+00	 1.045043e+01
0	 8.357143e+00	 2.857143e+00	 1.056014e+01
0	 8.357143e+00	 2.928571e+00	 1.054407e+01
0	 8.357143e+00	 3.000000e+00	 1.052786e+01
0	 8.357143e+00	 3.071429e+00	 1.051152e+01
0	 8.357143e+00	 3.142857e+00	 1.049505e+01
0	 8.357143e+00	 3.214286e+00	 1.047843e+01
0	 8.428571e+00	 2.857143e+00	 1.058968e+01
0	 8.428571e+00	 2.928571e+00	 1.057324e+01
0	 8.428571e+00	 3.000000e+00	 1.055668e+01
0	 8.428571e+00	 3.071429e+00	 1.054000e+01
0	 8.428571e+00	 3.142857e+00	 1.052319e+01
0	 8.428571e+00	 3.214286e+00	 1.050626e+01
0	 8.500000e+00	 2.857143e+00	 1.061925e+01
0	 8.500000e+00	 2.928571e+00	 1.060241e+01
0	 8.500000e+00	 3.000000e+00	 1.058545e+01
0	 8.500000e+00	 3.071429e+00	 1.056838e+01
0	 8.500000e+00	 3.142857e+00	 1.055120e+01
0	 8.500000e+00	 3.214286e+00	 1.053391e+01
0	 8.571429e+00	 2.857143e+00	 1.064886e+01
0	 8.571429e+00	 2.928571e+00	 1.063157e+01
0	 8.571429e+00	 3.000000e+00	 1.061417e+01
0	 8.571429e+00	 3.071429e+00	 1.059668e+01
0	 8.571429e+00	 3.142857e+00	 1.057908e+01
0	 8.571429e+00	 3.214286e+00	 1.056138e+01
0	 8.214286e+00	 3.214286e+00	 1.042225e+01
0	 8.214286e+00	 3.285714e+00	 1.040780e+01
0	 8.214286e+00	 3.357143e+00	 1.039315e+01
0	 8.214286e+00	 3.428571e+00	 1.037829e+01
0	 8.214286e+00	 3.500000e+00	 1.036322e+01
0	 8.214286e+00	 3.571429e+00	 1.034795e+01
0	 8.285714e+00	 3.214286e+00	 1.045043e+01
0	 8.285714e+00	 3.285714e+00	 1.043563e+01
0	 8.285714e+00	 3.357143e+00	 1.042063e+01
0	 8.285714e+00	 3.428571e+00	 1.040544e+01
0	 8.285714e+00	 3.500000e+00	 1.039006e+01
0	 8.285714e+00	 3.571429e+00	 1.037449e+01
0	 8.357143e+00	 3.214286e+00	 1.047843e+01
0	 8.357143e+00	 3.285714e+00	 1.046324e+01
0	 8.357143e+00	 3.357143e+00	 1.044787e+01
0	 8.357143e+00	 3.428571e+00	 1.043232e+01
0	 8.357143e+00	 3.500000e+00	 1.041659e+01
0	 8.357143e+00	 3.571429e+00	 1.040068e+01
0	 8.428571e+00	 3.214286e+00	 1.050626e+01
0	 8.428571e+00	 3.285714e+00	 1.049064e+01
0	 8.428571e+00	 3.357143e+00	 1.047486e+01
0	 8.428571e+00	 3.428571e+00	 1.045891e+01
0	 8.428571e+00	 3.500000e+00	 1.044279e+01
0	 8.428571e+00	 3.571429e+00	 1.042651e+01
0	 8.500000e+00	 3.214286e+00	 1.053391e+01
0	 8.500000e+00	 3.285714e+00	 1.051783e+01
0	 8.500000e+00	 3.357143e+00	 1.050160e+01
0	 8.500000e+00	 3.428571e+00	 1.048522e+01
0	 8.500000e+00	 3.500000e+00	 1.046868e+01
0	 8.500000e+00	 3.571429e+00	 1.045199e+01
0	 8.571429e+00	 3.214286e+00	 1.056138e+01
0	 8.571429e+00	 3.285714e+00	 1.054481e+01
0	 8.571429e+00	 3.357143e+00	 1.052809e+01
0	 8.571429e+00	 3.428571e+00	 1.051124e+01
0	 8.571429e+00	 3.500000e+00	 1.049425e+01
0	 8.571429e+00	 3.571429e+00	 1.047712e+01
0	 8.214286e+00	 3.571429e+00	 1.034795e+01
0	 8.214286e+00	 3.642857e+00	 1.033482e+01
0	 8.214286e+00	 3.714286e+00	 1.032145e+01
0	 8.214286e+00	 3.785714e+00	 1.030785e+01
0	 8.214286e+00	 3.857143e+00	 1.029402e+01
0	 8.214286e+00	 3.928571e+00	 1.027996e+01
0	 8.285714e+00	 3.571429e+00	 1.037449e+01
0	 8.285714e+00	 3.642857e+00	 1.036094e+01
0	 8.285714e+00	 3.714286e+00	 1.034717e+01
0	 8.285714e+00	 3.785714e+00	 1.033319e+01
0	 8.285714e+00	 3.857143e+00	 1.031898e+01
0	 8.285714e+00	 3.928571e+00	 1.030456e+01
0	 8.357143e+00	 3.571429e+00	 1.040068e+01
0	 8.357143e+00	 3.642857e+00	 1.038669e+01
0	 8.357143e+00	 3.714286e+00	 1.037249e+01
0	 8.357143e+00	 3.785714e+00	 1.035809e+01
0	 8.357143e+00	 3.857143e+00	 1.034348e+01
0	 8.357143e+00	 3.928571e+00	 1.032867e+01
0	 8.428571e+00	 3.571429e+00	 1.042651e+01
0	 8.428571e+00	 3.642857e+00	 1.041205e+01
0	 8.428571e+00	 3.714286e+00	 1.039740e+01
0	 8.428571e+00	 3.785714e+00	 1.038255e+01
0	 8.428571e+00	 3.857143e+00	 1.036752e+01
0	 8.428571e+00	 3.928571e+00	 1.035229e+01
0	 8.500000e+00	 3.571429e+00	 1.045199e+01
0	 8.500000e+00	 3.642857e+00	 1.043703e+01
0	 8.500000e+00	 3.714286e+00	 1.042190e+01
0	 8.500000e+00	 3.785714e+00	 1.040658e+01
0	 8.500000e+00	 3.857143e+00	 1.039109e+01
0	 8.500000e+00	 3.928571e+00	 1.037541e+01
0	 8.571429e+00	 3.571429e+00	 1.047712e+01
0	 8.571429e+00	 3.642857e+00	 1.046164e+01
0	 8.571429e+00	 3.714286e+00	 1.044599e+01
0	 8.571429e+00	 3.785714e+00	 1.043018e+01
0	 8.571429e+00	 3.857143e+00	 1.041420e+01
0	 8.571429e+00	 3.928571e+00	 1.039805e+01
0	 8.214286e+00	 3.928571e+00	 1.027996e+01
0	 8.214286e+00	 4.000000e+00	 1.026833e+01
0	 8.214286e+00	 4.071429e+00	 1.025645e+01
0	 8.214286e+00	 4.142857e+00	 1.024433e+01
0	 8.214286e+00	 4.214286e+00	 1.023197e+01
0	 8.214286e+00	 4.285714e+00	 1.021937e+01
0	 8.285714e+00	 3.928571e+00	 1.030456e+01
0	 8.285714e+00	 4.000000e+00	 1.029247e+01
0	 8.285714e+00	 4.071429e+00	 1.028014e+01
0	 8.285714e+00	 4.142857e+00	 1.026759e+01
0	 8.285714e+00	 4.214286e+00	 1.025481e+01
0	 8.285714e+00	 4.285714e+00	 1.024180e+01
0	 8.357143e+00	 3.928571e+00	 1.032867e+01
0	 8.357143e+00	 4.000000e+00	 1.031610e+01
0	 8.357143e+00	 4.071429e+00	 1.030331e+01
0	 8.357143e+00	 4.142857e+00	 1.029030e+01
0	 8.357143e+00	 4.214286e+00	 1.027708e+01
0	 8.357143e+00	 4.285714e+00	 1.026365e+01
0	 8.428571e+00	 3.928571e+00	 1.035229e+01
0	 8.428571e+00	 4.000000e+00	 1.033922e+01
0	 8.428571e+00	 4.071429e+00	 1.032594e+01
0	 8.428571e+00	 4.142857e+00	 1.031247e+01
0	 8.428571e+00	 4.214286e+00	 1.029879e+01
0	 8.428571e+00	 4.285714e+00	 1.028490e+01
0	 8.500000e+00	 3.928571e+00	 1.037541e+01
0	 8.500000e+00	 4.000000e+00	 1.036183e+01
0	 8.500000e+00	 4.071429e+00	 1.034805e+01
0	 8.500000e+00	 4.142857e+00	 1.033408e+01
0	 8.500000e+00	 4.214286e+00	 1.031992e+01
0	 8.500000e+00	 4.285714e+00	 1.030557e+01
0	 8.571429e+00	 3.928571e+00	 1.039805e+01
0	 8.571429e+00	 4.000000e+00	 1.038393e+01
0	 8.571429e+00	 4.071429e+00	 1.036963e+01
0	 8.571429e+00	 4.142857e+00	 1.035515e+01
0	 8.571429e+00	 4.214286e+00	 1.034049e+01
0	 8.571429e+00	 4.285714e+00	 1.032565e+01
0	 8.214286e+00	 4.285714e+00	 1.021937e+01
0	 8.214286e+00	 4.357143e+00	 1.020932e+01
0	 8.214286e+00	 4.428571e+00	 1.019903e+01
0	 8.214286e+00	 4.500000e+00	 1.018851e+01
0	 8.214286e+00	 4.571429e+00	 1.017775e+01
0	 8.214286e+00	 4.642857e+00	 1.016675e+01
0	 8.285714e+00	 4.285714e+00	 1.024180e+01
0	 8.285714e+00	 4.357143e+00	 1.023127e+01
0	 8.285714e+00	 4.428571e+00	 1.022051e+01
0	 8.285714e+00	 4.500000e+00	 1.020952e+01
0	 8.285714e+00	 4.571429e+00	 1.019831e+01
0	 8.285714e+00	 4.642857e+00	 1.018687e+01
0	 8.357143e+00	 4.285714e+00	 1.026365e+01
0	 8.357143e+00	 4.357143e+00	 1.025261e+01
0	 8.357143e+00	 4.428571e+00	 1.024137e+01
0	 8.357143e+00	 4.500000e+00	 1.022991e+01
0	 8.357143e+00	 4.571429e+00	 1.021823e+01
0	 8.357143e+00	 4.642857e+00	 1.020635e+01
0	 8.428571e+00	 4.285714e+00	 1.028490e+01
0	 8.428571e+00	 4.357143e+00	 1.027336e+01
0	 8.428571e+00	 4.428571e+00	 1.026162e+01
0	 8.428571e+00	 4.500000e+00	 1.024967e+01
0	 8.428571e+00	 4.571429e+00	 1.023752e+01
0	 8.428571e+00	 4.642857e+00	 1.022517e+01
0	 8.500000e+00	 4.285714e+00	 1.030557e+01
0	 8.500000e+00	 4.357143e+00	 1.029351e+01
0	 8.500000e+00	 4.428571e+00	 1.028125e+01
0	 8.500000e+00	 4.500000e+00	 1.026881e+01
0	 8.500000e+00	 4.571429e+00	 1.025617e+01
0	 8.500000e+00	 4.642857e+00	 1.024334e+01
0	 8.571429e+00	 4.285714e+00	 1.032565e+01
0	 8.571429e+00	 4.357143e+00	 1.031306e+01
0	 8.571429e+00	 4.428571e+00	 1.030028e+01
0	 8.571429e+00	 4.500000e+00	 1.028732e+01
0	 8.571429e+00	 4.571429e+00	 1.027419e+01
0	 8.571429e+00	 4.642857e+00	 1.026087e+01
0	 8.214286e+00	 4.642857e+00	 1.016675e+01
0	 8.214286e+00	 4.714286e+00	 1.015829e+01
0	 8.214286e+00	 4.785714e+00	 1.014961e+01
0	 8.214286e+00	 4.857143e+00	 1.014070e+01
0	 8.214286e+00	 4.928571e+00	 1.013158e+01
0	 8.214286e+00	 5.000000e+00	 1.012223e+01
0	 8.285714e+00	 4.642857e+00	 1.018687e+01
0	 8.285714e+00	 4.714286e+00	 1.017792e+01
0	 8.285714e+00	 4.785714e+00	 1.016875e+01
0	 8.285714e+00	 4.857143e+00	 1.015937e+01
0	 8.285714e+00	 4.928571e+00	 1.014979e+01
0	 8.285714e+00	 5.000000e+00	 1.013999e+01
0	 8.357143e+00	 4.642857e+00	 1.020635e+01
0	 8.357143e+00	 4.714286e+00	 1.019689e+01
0	 8.357143e+00	 4.785714e+00	 1.018724e+01
0	 8.357143e+00	 4.857143e+00	 1.017738e+01
0	 8.357143e+00	 4.928571e+00	 1.016732e+01
0	 8.357143e+00	 5.000000e+00	 1.015706e+01
0	 8.428571e+00	 4.642857e+00	 1.022517e+01
0	 8.428571e+00	 4.714286e+00	 1.021521e+01
0	 8.428571e+00	 4.785714e+00	 1.020506e+01
0	 8.428571e+00	 4.857143e+00	 1.019472e+01
0	 8.428571e+00	 4.928571e+00	 1.018419e+01
0	 8.428571e+00	 5.000000e+00	 1.017346e+01
0	 8.500000e+00	 4.642857e+00	 1.024334e+01
0	 8.500000e+00	 4.714286e+00	 1.023288e+01
0	 8.500000e+00	 4.785714e+00	 1.022223e+01
0	 8.500000e+00	 4.857143e+00	 1.021139e+01
0	 8.500000e+00	 4.928571e+00	 1.020038e+01
0	 8.500000e+00	 5.000000e+00	 1.018918e+01
0	 8.571429e+00	 4.642857e+00	 1.026087e+01
0	 8.571429e+00	 4.714286e+00	 1.024989e+01
0	 8.571429e+00	 4.785714e+00	 1.023873e+01
0	 8.571429e+00	 4.857143e+00	 1.022740e+01
0	 8.571429e+00	 4.928571e+00	 1.021589e+01
0	 8.571429e+00	 5.000000e+00	 1.020422e+01
0	 8.214286e+00	 5.000000e+00	 1.012223e+01
0	 8.214286e+00	 5.071429e+00	 1.011530e+01
0	 8.214286e+00	 5.142857e+00	 1.010817e+01
0	 8.214286e+00	 5.214286e+00	 1.010084e+01
0	 8.214286e+00	 5.285714e+00	 1.009332e+01
0	 8.214286e+00	 5.357143e+00	 1.008559e+01
0	 8.285714e+00	 5.000000e+00	 1.013999e+01
0	 8.285714e+00	 5.071429e+00	 1.013257e+01
0	 8.285714e+00	 5.142857e+00	 1.012496e+01
0	 8.285714e+00	 5.214286e+00	 1.011717e+01
0	 8.285714e+00	 5.285714e+00	 1.010918e+01
0	 8.285714e+00	 5.357143e+00	 1.010100e+01
0	 8.357143e+00	 5.000000e+00	 1.015706e+01
0	 8.357143e+00	 5.071429e+00	 1.014916e+01
0	 8.357143e+00	 5.142857e+00	 1.014108e+01
0	 8.357143e+00	 5.214286e+00	 1.013281e+01
0	 8.357143e+00	 5.285714e+00	 1.012436e+01
0	 8.357143e+00	 5.357143e+00	 1.011573e+01
0	 8.428571e+00	 5.000000e+00	 1.017346e+01
0	 8.428571e+00	 5.071429e+00	 1.016507e+01
0	 8.428571e+00	 5.142857e+00	 1.015651e+01
0	 8.428571e+00	 5.214286e+00	 1.014777e+01
0	 8.428571e+00	 5.285714e+00	 1.013886e+01
0	 8.428571e+00	 5.357143e+00	 1.012977e+01
0	 8.500000e+00	 5.000000e+00	 1.018918e+01
0	 8.500000e+00	 5.071429e+00	 1.018030e+01
0	 8.500000e+00	 5.142857e+00	 1.017126e+01
0	 8.500000e+00	 5.214286e+00	 1.016206e+01
0	 8.500000e+00	 5.285714e+00	 1.015268e+01
0	 8.500000e+00	 5.357143e+00	 1.014313e+01
0	 8.571429e+00	 5.000000e+00	 1.020422e+01
0	 8.571429e+00	 5.071429e+00	 1.019486e+01
0	 8.571429e+00	 5.142857e+00	 1.018534e+01
0	 8.571429e+00	 5.214286e+00	 1.017566e+01
0	 8.571429e+00	 5.285714e+00	 1.016582e+01
0	 8.571429e+00	 5.357143e+00	 1.015581e+01
0	 8.214286e+00	 5.357143e+00	 1.008559e+01
0	 8.214286e+00	 5.428571e+00	 1.008009e+01
0	 8.214286e+00	 5.500000e+00	 1.007441e+01
0	 8.214286e+00	 5.571429e+00	 1.006857e+01
0	 8.214286e+00	 5.642857e+00	 1.006255e+01
0	 8.214286e+00	 5.714286e+00	 1.005637e+01
0	 8.285714e+00	 5.357143e+00	 1.010100e+01
0	 8.285714e+00	 5.428571e+00	 1.009503e+01
0	 8.285714e+00	 5.500000e+00	 1.008890e+01
0	 8.285714e+00	 5.571429e+00	 1.008260e+01
0	 8.285714e+00	 5.642857e+00	 1.007614e+01
0	 8.285714e+00	 5.714286e+00	 1.006951e+01
0	 8.357143e+00	 5.357143e+00	 1.011573e+01
0	 8.357143e+00	 5.428571e+00	 1.010930e+01
0	 8.357143e+00	 5.500000e+00	 1.010271e+01
0	 8.357143e+00	 5.571429e+00	 1.009597e+01
0	 8.357143e+00	 5.642857e+00	 1.008906e+01
0	 8.357143e+00	 5.714286e+00	 1.008199e+01
0	 8.428571e+00	 5.357143e+00	 1.012977e+01
0	 8.428571e+00	 5.428571e+00	 1.012289e+01
0	 8.428571e+00	 5.500000e+00	 1.011585e+01
0	 8.428571e+00	 5.571429e+00	 1.010866e+01
0	 8.428571e+00	 5.642857e+00	 1.010131e+01
0	 8.428571e+00	 5.714286e+00	 1.009381e+01
0	 8.500000e+00	 5.357143e+00	 1.014313e+01
0	 8.500000e+00	 5.428571e+00	 1.013580e+01
0	 8.500000e+00	 5.500000e+00	 1.012832e+01
0	 8.500000e+00	 5.571429e+00	 1.012068e+01
0	 8.500000e+00	 5.642857e+00	 1.011290e+01
0	 8.500000e+00	 5.714286e+00	 1.010497e+01
0	 8.571429e+00	 5.357143e+00	 1.015581e+01
0	 8.571429e+00	 5.428571e+00	 1.014803e+01
0	 8.571429e+00	 5.500000e+00	 1.014011e+01
0	 8.571429e+00	 5.571429e+00	 1.013204e+01
0	 8.571429e+00	 5.642857e+00	 1.012383e+01
0	 8.571429e+00	 5.714286e+00	 1.011547e+01
0	 8.214286e+00	 5.714286e+00	 1.005637e+01
0	 8.214286e+00	 5.785714e+00	 1.005215e+01
0	 8.214286e+00	 5.857143e+00	 1.004780e+01
0	 8.214286e+00	 5.928571e+00	 1.004331e+01
0	 8.214286e+00	 6.000000e+00	 1.003867e+01
0	 8.214286e+00	 6.071429e+00	 1.003390e+01
0	 8.285714e+00	 5.714286e+00	 1.006951e+01
0	 8.285714e+00	 5.785714e+00	 1.006487e+01
0	 8.285714e+00	 5.857143e+00	 1.006009e+01
0	 8.285714e+00	 5.928571e+00	 1.005517e+01
0	 8.285714e+00	 6.000000e+00	 1.005011e+01
0	 8.285714e+00	 6.071429e+00	 1.004491e+01
0	 8.357143e+00	 5.714286e+00	 1.008199e+01
0	 8.357143e+00	 5.785714e+00	 1.007692e+01
0	 8.357143e+00	 5.857143e+00	 1.007172e+01
0	 8.357143e+00	 5.928571e+00	 1.006638e+01
0	 8.357143e+00	 6.000000e+00	 1.006091e+01
0	 8.357143e+00	 6.071429e+00	 1.005531e+01
0	 8.428571e+00	 5.714286e+00	 1.009381e+01
0	 8.428571e+00	 5.785714e+00	 1.008833e+01
0	 8.428571e+00	 5.857143e+00	 1.008271e+01
0	 8.428571e+00	 5.928571e+00	 1.007696e+01
0	 8.428571e+00	 6.000000e+00	 1.007108e+01
0	 8.428571e+00	 6.071429e+00	 1.006508e+01
0	 8.500000e+00	 5.714286e+00	 1.010497e+01
0	 8.500000e+00	 5.785714e+00	 1.009908e+01
0	 8.500000e+00	 5.857143e+00	 1.009305e+01
0	 8.500000e+00	 5.928571e+00	 1.008690e+01
0	 8.500000e+00	 6.000000e+00	 1.008063e+01
0	 8.500000e+00	 6.071429e+00	 1.007422e+01
0	 8.571429e+00	 5.714286e+00	 1.011547e+01
0	 8.571429e+00	 5.785714e+00	 1.010917e+01
0	 8.571429e+00	 5.857143e+00	 1.010275e+01
0	 8.571429e+00	 5.928571e+00	 1.009621e+01
0	 8.571429e+00	 6.000000e+00	 1.008954e+01
0	 8.571429e+00	 6.071429e+00	 1.008274e+01
0	 8.214286e+00	 6.071429e+00	 1.003390e+01
0	 8.214286e+00	 6.142857e+00	 1.003082e+01
0	 8.214286e+00	 6.214286e+00	 1.002764e+01
0	 8.214286e+00	 6.285714e+00	 1.002434e+01
0	 8.214286e+00	 6.357143e+00	 1.002093e+01
0	 8.214286e+00	 6.428571e+00	 1.001741e+01
0	 8.285714e+00	 6.071429e+00	 1.004491e+01
0	 8.285714e+00	 6.142857e+00	 1.004144e+01
0	 8.285714e+00	 6.214286e+00	 1.003787e+01
0	 8.285714e+00	 6.285714e+00	 1.003418e+01
0	 8.285714e+00	 6.357143e+00	 1.003038e+01
0	 8.285714e+00	 6.428571e+00	 1.002647e+01
0	 8.357143e+00	 6.071429e+00	 1.005531e+01
0	 8.357143e+00	 6.142857e+00	 1.005145e+01
0	 8.357143e+00	 6.214286e+00	 1.004749e+01
0	 8.357143e+00	 6.285714e+00	 1.004342e+01
0	 8.357143e+00	 6.357143e+00	 1.003925e+01
0	 8.357143e+00	 6.428571e+00	 1.003496e+01
0	 8.428571e+00	 6.071429e+00	 1.006508e+01
0	 8.428571e+00	 6.142857e+00	 1.006085e+01
0	 8.428571e+00	 6.214286e+00	 1.005652e+01
0	 8.428571e+00	 6.285714e+00	 1.005208e+01
0	 8.428571e+00	 6.357143e+00	 1.004753e+01
0	 8.428571e+00	 6.428571e+00	 1.004288e+01
0	 8.500000e+00	 6.071429e+00	 1.007422e+01
0	 8.500000e+00	 6.142857e+00	 1.006963e+01
0	 8.500000e+00	 6.214286e+00	 1.006494e+01
0	 8.500000e+00	 6.285714e+00	 1.006014e+01
0	 8.500000e+00	 6.357143e+00	 1.005523e+01
0	 8.500000e+00	 6.428571e+00	 1.005023e+01
0	 8.571429e+00	 6.071429e+00	 1.008274e+01
0	 8.571429e+00	 6.142857e+00	 1.007780e+01
0	 8.571429e+00	 6.214286e+00	 1.007275e+01
0	 8.571429e+00	 6.285714e+00	 1.006760e+01
0	 8.571429e+00	 6.357143e+00	 1.006235e+01
0	 8.571429e+00	 6.428571e+00	 1.005700e+01
0	 8.214286e+00	 6.428571e+00	 1.001741e+01
0	 8.214286e+00	 6.500000e+00	 1.001531e+01
0	 8.214286e+00	 6.571429e+00	 1.001313e+01
0	 8.214286e+00	 6.642857e+00	 1.001086e+01
0	 8.214286e+00	 6.714286e+00	 1.000851e+01
0	 8.214286e+00	 6.785714e+00	 1.000608e+01
0	 8.285714e+00	 6.428571e+00	 1.002647e+01
0	 8.285714e+00	 6.500000e+00	 1.002402e+01
0	 8.285714e+00	 6.571429e+00	 1.002148e+01
0	 8.285714e+00	 6.642857e+00	 1.001886e+01
0	 8.285714e+00	 6.714286e+00	 1.001616e+01
0	 8.285714e+00	 6.785714e+00	 1.001338e+01
0	 8.357143e+00	 6.428571e+00	 1.003496e+01
0	 8.357143e+00	 6.500000e+00	 1.003217e+01
0	 8.357143e+00	 6.571429e+00	 1.002929e+01
0	 8.357143e+00	 6.642857e+00	 1.002633e+01
0	 8.357143e+00	 6.714286e+00	 1.002329e+01
0	 8.357143e+00	 6.785714e+00	 1.002017e+01
0	 8.428571e+00	 6.428571e+00	 1.004288e+01
0	 8.428571e+00	 6.500000e+00	 1.003976e+01
0	 8.428571e+00	 6.571429e+00	 1.003655e+01
0	 8.428571e+00	 6.642857e+00	 1.003326e+01
0	 8.428571e+00	 6.714286e+00	 1.002989e+01
0	 8.428571e+00	 6.785714e+00	 1.002644e+01
0	 8.500000e+00	 6.428571e+00	 1.005023e+01
0	 8.500000e+00	 6.500000e+00	 1.004678e+01
0	 8.500000e+00	 6.571429e+00	 1.004326e+01
0	 8.500000e+00	 6.642857e+00	 1.003966e+01
0	 8.500000e+00	 6.714286e+00	 1.003598e+01
0	 8.500000e+00	 6.785714e+00	 1.003221e+01
0	 8.571429e+00	 6.428571e+00	 1.005700e+01
0	 8.571429e+00	 6.500000e+00	 1.005325e+01
0	 8.571429e+00	 6.571429e+00	 1.004943e+01
0	 8.571429e+00	 6.642857e+00	 1.004552e+01
0	 8.571429e+00	 6.714286e+00	 1.004154e+01
0	 8.571429e+00	 6.785714e+00	 1.003747e+01
0	 8.214286e+00	 6.785714e+00	 1.000608e+01
0	 8.214286e+00	 6.857143e+00	 1.000478e+01
0	 8.214286e+00	 6.928571e+00	 1.000343e+01
0	 8.214286e+00	 7.000000e+00	 1.000202e+01
0	 8.214286e+00	 7.071429e+00	 1.000055e+01
0	 8.214286e+00	 7.142857e+00	 9.999025e+00
0	 8.285714e+00	 6.785714e+00	 1.001338e+01
0	 8.285714e+00	 6.857143e+00	 1.001177e+01
0	 8.285714e+00	 6.928571e+00	 1.001010e+01
0	 8.285714e+00	 7.000000e+00	 1.000838e+01
0	 8.285714e+00	 7.071429e+00	 1.000660e+01
0	 8.285714e+00	 7.142857e+00	 1.000476e+01
0	 8.357143e+00	 6.785714e+00	 1.002017e+01
0	 8.357143e+00	 6.857143e+00	 1.001826e+01
0	 8.357143e+00	 6.928571e+00	 1.001630e+01
0	 8.357143e+00	 7.000000e+00	 1.001427e+01
0	 8.357143e+00	 7.071429e+00	 1.001220e+01
0	 8.357143e+00	 7.142857e+00	 1.001006e+01
0	 8.428571e+00	 6.785714e+00	 1.002644e+01
0	 8.428571e+00	 6.857143e+00	 1.002425e+01
0	 8.428571e+00	 6.928571e+00	 1.002201e+01
0	 8.428571e+00	 7.000000e+00	 1.001970e+01
0	 8.428571e+00	 7.071429e+00	 1.001734e+01
0	 8.428571e+00	 7.142857e+00	 1.001492e+01
0	 8.500000e+00	 6.785714e+00	 1.003221e+01
0	 8.500000e+00	 6.857143e+00	 1.002975e+01
0	 8.500000e+00	 6.928571e+00	 1.002723e+01
0	 8.500000e+00	 7.000000e+00	 1.002466e+01
0	 8.500000e+00	 7.071429e+00	 1.002202e+01
0	 8.500000e+00	 7.142857e+00	 1.001933e+01
0	 8.571429e+00	 6.785714e+00	 1.003747e+01
0	 8.571429e+00	 6.857143e+00	 1.003475e+01
0	 8.571429e+00	 6.928571e+00	 1.003198e+01
0	 8.571429e+00	 7.000000e+00	 1.002915e+01
0	 8.571429e+00	 7.071429e+00	 1.002625e+01
0	 8.571429e+00	 7.142857e+00	 1.002330e+01
0	 8.214286e+00	 7.142857e+00	 9.999025e+00
0	 8.214286e+00	 7.214286e+00	 9.998357e+00
0	 8.214286e+00	 7.285714e+00	 9.997658e+00
0	 8.214286e+00	 7.357143e+00	 9.996928e+00
0	 8.214286e+00	 7.428571e+00	 9.996167e+00
0	 8.214286e+00	 7.500000e+00	 9.995376e+00
0	 8.285714e+00	 7.142857e+00	 1.000476e+01
0	 8.285714e+00	 7.214286e+00	 1.000383e+01
0	 8.285714e+00	 7.285714e+00	 1.000286e+01
0	 8.285714e+00	 7.357143e+00	 1.000186e+01
0	 8.285714e+00	 7.428571e+00	 1.000082e+01
0	 8.285714e+00	 7.500000e+00	 9.999756e+00
0	 8.357143e+00	 7.142857e+00	 1.001006e+01
0	 8.357143e+00	 7.214286e+00	 1.000887e+01
0	 8.357143e+00	 7.285714e+00	 1.000764e+01
0	 8.357143e+00	 7.357143e+00	 1.000639e+01
0	 8.357143e+00	 7.428571e+00	 1.000509e+01
0	 8.357143e+00	 7.500000e+00	 1.000377e+01
0	 8.428571e+00	 7.142857e+00	 1.001492e+01
0	 8.428571e+00	 7.214286e+00	 1.001348e+01
0	 8.428571e+00	 7.285714e+00	 1.001202e+01
0	 8.428571e+00	 7.357143e+00	 1.001052e+01
0	 8.428571e+00	 7.428571e+00	 1.000898e+01
0	 8.428571e+00	 7.500000e+00	 1.000741e+01
0	 8.500000e+00	 7.142857e+00	 1.001933e+01
0	 8.500000e+00	 7.214286e+00	 1.001767e+01
0	 8.500000e+00	 7.285714e+00	 1.001598e+01
0	 8.500000e+00	 7.357143e+00	 1.001425e+01
0	 8.500000e+00	 7.428571e+00	 1.001249e+01
0	 8.500000e+00	 7.500000e+00	 1.001068e+01
0	 8.571429e+00	 7.142857e+00	 1.002330e+01
0	 8.571429e+00	 7.214286e+00	 1.002144e+01
0	 8.571429e+00	 7.285714e+00	 1.001953e+01
0	 8.571429e+00	 7.357143e+00	 1.001759e+01
0	 8.571429e+00	 7.428571e+00	 1.001561e+01
0	 8.571429e+00	 7.500000e+00	 1.001359e+01
0	 8.214286e+00	 7.500000e+00	 9.995376e+00
0	 8.214286e+00	 7.571429e+00	 9.995169e+00
0	 8.214286e+00	 7.642857e+00	 9.994954e+00
0	 8.214286e+00	 7.714286e+00	 9.994732e+00
0	 8.214286e+00	 7.785714e+00	 9.994502e+00
0	 8.214286e+00	 7.857143e+00	 9.994265e+00
0	 8.285714e+00	 7.500000e+00	 9.999756e+00
0	 8.285714e+00	 7.571429e+00	 9.999321e+00
0	 8.285714e+00	 7.642857e+00	 9.998876e+00
0	 8.285714e+00	 7.714286e+00	 9.998421e+00
0	 8.285714e+00	 7.785714e+00	 9.997957e+00
0	 8.285714e+00	 7.857143e+00	 9.997483e+00
0	 8.357143e+00	 7.500000e+00	 1.000377e+01
0	 8.357143e+00	 7.571429e+00	 1.000312e+01
0	 8.357143e+00	 7.642857e+00	 1.000246e+01
0	 8.357143e+00	 7.714286e+00	 1.000179e+01
0	 8.357143e+00	 7.785714e+00	 1.000110e+01
0	 8.357143e+00	 7.857143e+00	 1.000041e+01
0	 8.428571e+00	 7.500000e+00	 1.000741e+01
0	 8.428571e+00	 7.571429e+00	 1.000656e+01
0	 8.428571e+00	 7.642857e+00	 1.000570e+01
0	 8.428571e+00	 7.714286e+00	 1.000483e+01
0	 8.428571e+00	 7.785714e+00	 1.000394e+01
0	 8.428571e+00	 7.857143e+00	 1.000303e+01
0	 8.500000e+00	 7.500000e+00	 1.001068e+01
0	 8.500000e+00	 7.571429e+00	 1.000965e+01
0	 8.500000e+00	 7.642857e+00	 1.000861e+01
0	 8.500000e+00	 7.714286e+00	 1.000754e+01
0	 8.500000e+00	 7.785714e+00	 1.000646e+01
0	 8.500000e+00	 7.857143e+00	 1.000537e+01
0	 8.571429e+00	 7.500000e+00	 1.001359e+01
0	 8.571429e+00	 7.571429e+00	 1.001239e+01
0	 8.571429e+00	 7.642857e+00	 1.001117e+01
0	 8.571429e+00	 7.714286e+00	 1.000994e+01
0	 8.571429e+00	 7.785714e+00	 1.000868e+01
0	 8.571429e+00	 7.857143e+00	 1.000740e+01
0	 8.214286e+00	 7.857143e+00	 9.994265e+00
0	 8.214286e+00	 7.928571e+00	 9.994357e+00
0	 8.214286e+00	 8.000000e+00	 9.994462e+00
0	 8.214286e+00	 8.071429e+00	 9.994580e+00
0	 8.214286e+00	 8.142857e+00	 9.994713e+00
0	 8.214286e+00	 8.214286e+00	 9.994859e+00
0	 8.285714e+00	 7.857143e+00	 9.997483e+00
0	 8.285714e+00	 7.928571e+00	 9.997385e+00
0	 8.285714e+00	 8.000000e+00	 9.997298e+00
0	 8.285714e+00	 8.071429e+00	 9.997222e+00
0	 8.285714e+00	 8.142857e+00	 9.997156e+00
0	 8.285714e+00	 8.214286e+00	 9.997100e+00
0	 8.357143e+00	 7.857143e+00	 1.000041e+01
0	 8.357143e+00	 7.928571e+00	 1.000013e+01
0	 8.357143e+00	 8.000000e+00	 9.999869e+00
0	 8.357143e+00	 8.071429e+00	 9.999612e+00
0	 8.357143e+00	 8.142857e+00	 9.999362e+00
0	 8.357143e+00	 8.214286e+00	 9.999119e+00
0	 8.428571e+00	 7.857143e+00	 1.000303e+01
0	 8.428571e+00	 7.928571e+00	 1.000260e+01
0	 8.428571e+00	 8.000000e+00	 1.000217e+01
0	 8.428571e+00	 8.071429e+00	 1.000175e+01
0	 8.428571e+00	 8.142857e+00	 1.000133e+01
0	 8.428571e+00	 8.214286e+00	 1.000092e+01
0	 8.500000e+00	 7.857143e+00	 1.000537e+01
0	 8.500000e+00	 7.928571e+00	 1.000479e+01
0	 8.500000e+00	 8.000000e+00	 1.000421e+01
0	 8.500000e+00	 8.071429e+00	 1.000364e+01
0	 8.500000e+00	 8.142857e+00	 1.000306e+01
0	 8.500000e+00	 8.214286e+00	 1.000249e+01
0	 8.571429e+00	 7.857143e+00	 1.000740e+01
0	 8.571429e+00	 7.928571e+00	 1.000670e+01
0	 8.571429e+00	 8.000000e+00	 1.000599e+01
0	 8.571429e+00	 8.071429e+00	 1.000527e+01
0	 8.571429e+00	 8.142857e+00	 1.000456e+01
0	 8.571429e+00	 8.214286e+00	 1.000384e+01
0	 8.214286e+00	 8.214286e+00	 9.994859e+00
0	 8.214286e+00	 8.285714e+00	 9.995098e+00
0	 8.214286e+00	 8.357143e+00	 9.995369e+00
0	 8.214286e+00	 8.428571e+00	 9.995671e+00
0	 8.214286e+00	 8.500000e+00	 9.996006e+00
0	 8.214286e+00	 8.571429e+00	 9.996372e+00
0	 8.285714e+00	 8.214286e+00	 9.997100e+00
0	 8.285714e+00	 8.285714e+00	 9.997187e+00
0	 8.285714e+00	 8.357143e+00	 9.997302e+00
0	 8.285714e+00	 8.428571e+00	 9.997445e+00
0	 8.285714e+00	 8.500000e+00	 9.997615e+00
0	 8.285714e+00	 8.571429e+00	 9.997813e+00
0	 8.357143e+00	 8.214286e+00	 9.999119e+00
0	 8.357143e+00	 8.285714e+00	 9.999068e+00
0	 8.357143e+00	 8.357143e+00	 9.999041e+00
0	 8.357143e+00	 8.428571e+00	 9.999037e+00
0	 8.357143e+00	 8.500000e+00	 9.999057e+00
0	 8.357143e+00	 8.571429e+00	 9.999101e+00
0	 8.428571e+00	 8.214286e+00	 1.000092e+01
0	 8.428571e+00	 8.285714e+00	 1.000074e+01
0	 8.428571e+00	 8.357143e+00	 1.000058e+01
0	 8.428571e+00	 8.428571e+00	 1.000045e+01
0	 8.428571e+00	 8.500000e+00	 1.000033e+01
0	 8.428571e+00	 8.571429e+00	 1.000024e+01
0	 8.500000e+00	 8.214286e+00	 1.000249e+01
0	 8.500000e+00	 8.285714e+00	 1.000220e+01
0	 8.500000e+00	 8.357143e+00	 1.000193e+01
0	 8.500000e+00	 8.428571e+00	 1.000168e+01
0	 8.500000e+00	 8.500000e+00	 1.000144e+01
0	 8.500000e+00	 8.571429e+00	 1.000122e+01
0	 8.571429e+00	 8.214286e+00	 1.000384e+01
0	 8.571429e+00	 8.285714e+00	 1.000346e+01
0	 8.571429e+00	 8.357143e+00	 1.000309e+01
0	 8.571429e+00	 8.428571e+00	 1.000273e+01
0	 8.571429e+00	 8.500000e+00	 1.000238e+01
0	 8.571429e+00	 8.571429e+00	 1.000205e+01
0	 8.214286e+00	 8.571429e+00	 9.996372e+00
0	 8.214286e+00	 8.642857e+00	 9.996626e+00
0	 8.214286e+00	 8.714286e+00	 9.996924e+00
0	 8.214286e+00	 8.785714e+00	 9.997269e+00
0	 8.214286e+00	 8.857143e+00	 9.997659e+00
0	 8.214286e+00	 8.928571e+00	 9.998095e+00
0	 8.285714e+00	 8.571429e+00	 9.997813e+00
0	 8.285714e+00	 8.642857e+00	 9.997950e+00
0	 8.285714e+00	 8.714286e+00	 9.998128e+00
0	 8.285714e+00	 8.785714e+00	 9.998346e+00
0	 8.285714e+00	 8.857143e+00	 9.998605e+00
0	 8.285714e+00	 8.928571e+00	 9.998905e+00
0	 8.357143e+00	 8.571429e+00	 9.999101e+00
0	 8.357143e+00	 8.642857e+00	 9.999134e+00
0	 8.357143e+00	 8.714286e+00	 9.999203e+00
0	 8.357143e+00	 8.785714e+00	 9.999307e+00
0	 8.357143e+00	 8.857143e+00	 9.999448e+00
0	 8.357143e+00	 8.928571e+00	 9.999625e+00
0	 8.428571e+00	 8.571429e+00	 1.000024e+01
0	 8.428571e+00	 8.642857e+00	 1.000018e+01
0	 8.428571e+00	 8.714286e+00	 1.000015e+01
0	 8.428571e+00	 8.785714e+00	 1.000015e+01
0	 8.428571e+00	 8.857143e+00	 1.000019e+01
0	 8.428571e+00	 8.928571e+00	 1.000025e+01
0	 8.500000e+00	 8.571429e+00	 1.000122e+01
0	 8.500000e+00	 8.642857e+00	 1.000108e+01
0	 8.500000e+00	 8.714286e+00	 1.000097e+01
0	 8.500000e+00	 8.785714e+00	 1.000088e+01
0	 8.500000e+00	 8.857143e+00	 1.000082e+01
0	 8.500000e+00	 8.928571e+00	 1.000079e+01
0	 8.571429e+00	 8.571429e+00	 1.000205e+01
0	 8.571429e+00	 8.642857e+00	 1.000184e+01
0	 8.571429e+00	 8.714286e+00	 1.000166e+01
0	 8.571429e+00	 8.785714e+00	 1.000150e+01
0	 8.571429e+00	 8.857143e+00	 1.000136e+01
0	 8.571429e+00	 8.928571e+00	 1.000124e+01
0	 8.214286e+00	 8.928571e+00	 9.998095e+00
0	 8.214286e+00	 9.000000e+00	 9.998262e+00
0	 8.214286e+00	 9.071429e+00	 9.998482e+00
0	 8.214286e+00	 9.142857e+00	 9.998754e+00
0	 8.214286e+00	 9.214286e+00	 9.999079e+00
0	 8.214286e+00	 9.285714e+00	 9.999455e+00
0	 8.285714e+00	 8.928571e+00	 9.998905e+00
0	 8.285714e+00	 9.000000e+00	 9.998991e+00
0	 8.285714e+00	 9.071429e+00	 9.999124e+00
0	 8.285714e+00	 9.142857e+00	 9.999304e+00
0	 8.285714e+00	 9.214286e+00	 9.999530e+00
0	 8.285714e+00	 9.285714e+00	 9.999803e+00
0	 8.357143e+00	 8.928571e+00	 9.999625e+00
0	 8.357143e+00	 9.000000e+00	 9.999640e+00
0	 8.357143e+00	 9.071429e+00	 9.999696e+00
0	 8.357143e+00	 9.142857e+00	 9.999793e+00
0	 8.357143e+00	 9.214286e+00	 9.999932e+00
0	 8.357143e+00	 9.285714e+00	 1.000011e+01
0	 8.428571e+00	 8.928571e+00	 1.000025e+01
0	 8.428571e+00	 9.000000e+00	 1.000021e+01
0	 8.428571e+00	 9.071429e+00	 1.000020e+01
0	 8.428571e+00	 9.142857e+00	 1.000022e+01
0	 8.428571e+00	 9.214286e+00	 1.000028e+01
0	 8.428571e+00	 9.285714e+00	 1.000038e+01
0	 8.500000e+00	 8.928571e+00	 1.000079e+01
0	 8.500000e+00	 9.000000e+00	 1.000070e+01
0	 8.500000e+00	 9.071429e+00	 1.000063e+01
0	 8.500000e+00	 9.142857e+00	 1.000059e+01
0	 8.500000e+00	 9.214286e+00	 1.000059e+01
0	 8.500000e+00	 9.285714e+00	 1.000061e+01
0	 8.571429e+00	 8.928571e+00	 1.000124e+01
0	 8.571429e+00	 9.000000e+00	 1.000110e+01
0	 8.571429e+00	 9.071429e+00	 1.000099e+01
0	 8.571429e+00	 9.142857e+00	 1.000090e+01
0	 8.571429e+00	 9.214286e+00	 1.000084e+01
0	 8.571429e+00	 9.285714e+00	 1.000081e+01
0	 8.214286e+00	 9.285714e+00	 9.999455e+00
0	 8.214286e+00	 9.357143e+00	 9.999481e+00
0	 8.214286e+00	 9.428571e+00	 9.999553e+00
0	 8.214286e+00	 9.500000e+00	 9.999672e+00
0	 8.214286e+00	 9.571429e+00	 9.999837e+00
0	 8.214286e+00	 9.642857e+00	 1.000005e+01
0	 8.285714e+00	 9.285714e+00	 9.999803e+00
0	 8.285714e+00	 9.357143e+00	 9.999784e+00
0	 8.285714e+00	 9.428571e+00	 9.999804e+00
0	 8.285714e+00	 9.500000e+00	 9.999865e+00
0	 8.285714e+00	 9.571429e+00	 9.999967e+00
0	 8.285714e+00	 9.642857e+00	 1.000011e+01
0	 8.357143e+00	 9.285714e+00	 1.000011e+01
0	 8.357143e+00	 9.357143e+00	 1.000005e+01
0	 8.357143e+00	 9.428571e+00	 1.000003e+01
0	 8.357143e+00	 9.500000e+00	 1.000004e+01
0	 8.357143e+00	 9.571429e+00	 1.000008e+01
0	 8.357143e+00	 9.642857e+00	 1.000016e+01
0	 8.428571e+00	 9.285714e+00	 1.000038e+01
0	 8.428571e+00	 9.357143e+00	 1.000029e+01
0	 8.428571e+00	 9.428571e+00	 1.000023e+01
0	 8.428571e+00	 9.500000e+00	 1.000019e+01
0	 8.428571e+00	 9.571429e+00	 1.000019e+01
0	 8.428571e+00	 9.642857e+00	 1.000021e+01
0	 8.500000e+00	 9.285714e+00	 1.000061e+01
0	 8.500000e+00	 9.357143e+00	 1.000050e+01
0	 8.500000e+00	 9.428571e+00	 1.000040e+01
0	 8.500000e+00	 9.500000e+00	 1.000033e+01
0	 8.500000e+00	 9.571429e+00	 1.000028e+01
0	 8.500000e+00	 9.642857e+00	 1.000025e+01
0	 8.571429e+00	 9.285714e+00	 1.000081e+01
0	 8.571429e+00	 9.357143e+00	 1.000067e+01
0	 8.571429e+00	 9.428571e+00	 1.000055e+01
0	 8.571429e+00	 9.500000e+00	 1.000044e+01
0	 8.571429e+00	 9.571429e+00	 1.000035e+01
0	 8.571429e+00	 9.642857e+00	 1.000028e+01
0	 8.214286e+00	 9.642857e+00	 1.000005e+01
0	 8.214286e+00	 9.714286e+00	 1.000001e+01
0	 8.214286e+00	 9.785714e+00	 9.999991e+00
0	 8.214286e+00	 9.857143e+00	 9.999988e+00
0	 8.214286e+00	 9.928571e+00	 1.000000e+01
0	 8.214286e+00	 1.000000e+01	 1.000004e+01
0	 8.285714e+00	 9.642857e+00	 1.000011e+01
0	 8.285714e+00	 9.714286e+00	 1.000007e+01
0	 8.285714e+00	 9.785714e+00	 1.000004e+01
0	 8.285714e+00	 9.857143e+00	 1.000002e+01
0	 8.285714e+00	 9.928571e+00	 1.000002e+01
0	 8.285714e+00	 1.000000e+01	 1.000002e+01
0	 8.357143e+00	 9.642857e+00	 1.000016e+01
0	 8.357143e+00	 9.714286e+00	 1.000012e+01
0	 8.357143e+00	 9.785714e+00	 1.000009e+01
0	 8.357143e+00	 9.857143e+00	 1.000005e+01
0	 8.357143e+00	 9.928571e+00	 1.000002e+01
0	 8.357143e+00	 1.000000e+01	 9.999993e+00
0	 8.428571e+00	 9.642857e+00	 1.000021e+01
0	 8.428571e+00	 9.714286e+00	 1.000017e+01
0	 8.428571e+00	 9.785714e+00	 1.000012e+01
0	 8.428571e+00	 9.857143e+00	 1.000007e+01
0	 8.428571e+00	 9.928571e+00	 1.000002e+01
0	 8.428571e+00	 1.000000e+01	 9.999957e+00
0	 8.500000e+00	 9.642857e+00	 1.000025e+01
0	 8.500000e+00	 9.714286e+00	 1.000021e+01
0	 8.500000e+00	 9.785714e+00	 1.000015e+01
0	 8.500000e+00	 9.857143e+00	 1.000008e+01
0	 8.500000e+00	 9.928571e+00	 1.000000e+01
0	 8.500000e+00	 1.000000e+01	 9.999910e+00
0	 8.571429e+00	 9.642857e+00	 1.000028e+01
0	 8.571429e+00	 9.714286e+00	 1.000024e+01
0	 8.571429e+00	 9.785714e+00	 1.000017e+01
0	 8.571429e+00	 9.857143e+00	 1.000008e+01
0	 8.571429e+00	 9.928571e+00	 9.999978e+00
0	 8.571429e+00	 1.000000e+01	 9.999853e+00
0	 8.571429e+00	 0.000000e+00	 1.111847e+01
0	 8.571429e+00	 7.142857e-02	 1.111583e+01
0	 8.571429e+00	 1.428571e-01	 1.111356e+01
0	 8.571429e+00	 2.142857e-01	 1.111165e+01
0	 8.571429e+00	 2.857143e-01	 1.111012e+01
0	 8.571429e+00	 3.571429e-01	 1.110895e+01
0	 8.642857e+00	 0.000000e+00	 1.115400e+01
0	 8.642857e+00	 7.142857e-02	 1.115138e+01
0	 8.642857e+00	 1.428571e-01	 1.114911e+01
0	 8.642857e+00	 2.142857e-01	 1.114719e+01
0	 8.642857e+00	 2.857143e-01	 1.114563e+01
0	 8.642857e+00	 3.571429e-01	 1.114443e+01
0	 8.714286e+00	 0.000000e+00	 1.119148e+01
0	 8.714286e+00	 7.142857e-02	 1.118886e+01
0	 8.714286e+00	 1.428571e-01	 1.118659e+01
0	 8.714286e+00	 2.142857e-01	 1.118465e+01
0	 8.714286e+00	 2.857143e-01	 1.118306e+01
0	 8.714286e+00	 3.571429e-01	 1.118181e+01
0	 8.785714e+00	 0.000000e+00	 1.123090e+01
0	 8.785714e+00	 7.142857e-02	 1.122829e+01
0	 8.785714e+00	 1.428571e-01	 1.122600e+01
0	 8.785714e+00	 2.142857e-01	 1.122404e+01
0	 8.785714e+00	 2.857143e-01	 1.122240e+01
0	 8.785714e+00	 3.571429e-01	 1.122109e+01
0	 8.857143e+00	 0.000000e+00	 1.127227e+01
0	 8.857143e+00	 7.142857e-02	 1.126965e+01
0	 8.857143e+00	 1.428571e-01	 1.126734e+01
0	 8.857143e+00	 2.142857e-01	 1.126534e+01
0	 8.857143e+00	 2.857143e-01	 1.126366e+01
0	 8.857143e+00	 3.571429e-01	 1.126228e+01
0	 8.928571e+00	 0.000000e+00	 1.131559e+01
0	 8.928571e+00	 7.142857e-02	 1.131295e+01
0	 8.928571e+00	 1.428571e-01	 1.131061e+01
0	 8.928571e+00	 2.142857e-01	 1.130857e+01
0	 8.928571e+00	 2.857143e-01	 1.130682e+01
0	 8.928571e+00	 3.571429e-01	 1.130538e+01
0	 8.571429e+00	 3.571429e-01	 1.110895e+01
0	 8.571429e+00	 4.285714e-01	 1.110265e+01
0	 8.571429e+00	 5.000000e-01	 1.109669e+01
0	 8.571429e+00	 5.714286e-01	 1.109108e+01
0	 8.571429e+00	 6.428571e-01	 1.108581e+01
0	 8.571429e+00	 7.142857e-01	 1.108088e+01
0	 8.642857e+00	 3.571429e-01	 1.114443e+01
0	 8.642857e+00	 4.285714e-01	 1.113812e+01
0	 8.642857e+00	 5.000000e-01	 1.113214e+01
0	 8.642857e+00	 5.714286e-01	 1.112649e+01
0	 8.642857e+00	 6.428571e-01	 1.112118e+01
0	 8.642857e+00	 7.142857e-01	 1.111619e+01
0	 8.714286e+00	 3.571429e-01	 1.118181e+01
0	 8.714286e+00	 4.285714e-01	 1.117546e+01
0	 8.714286e+00	 5.000000e-01	 1.116944e+01
0	 8.714286e+00	 5.714286e-01	 1.116373e+01
0	 8.714286e+00	 6.428571e-01	 1.115835e+01
0	 8.714286e+00	 7.142857e-01	 1.115328e+01
0	 8.785714e+00	 3.571429e-01	 1.122109e+01
0	 8.785714e+00	 4.285714e-01	 1.121469e+01
0	 8.785714e+00	 5.000000e-01	 1.120860e+01
0	 8.785714e+00	 5.714286e-01	 1.120281e+01
0	 8.785714e+00	 6.428571e-01	 1.119732e+01
0	 8.785714e+00	 7.142857e-01	 1.119215e+01
0	 8.857143e+00	 3.571429e-01	 1.126228e+01
0	 8.857143e+00	 4.285714e-01	 1.125580e+01
0	 8.857143e+00	 5.000000e-01	 1.124961e+01
0	 8.857143e+00	 5.714286e-01	 1.124371e+01
0	 8.857143e+00	 6.428571e-01	 1.123810e+01
0	 8.857143e+00	 7.142857e-01	 1.123279e+01
0	 8.928571e+00	 3.571429e-01	 1.130538e+01
0	 8.928571e+00	 4.285714e-01	 1.129878e+01
0	 8.928571e+00	 5.000000e-01	 1.129247e+01
0	 8.928571e+00	 5.714286e-01	 1.128644e+01
0	 8.928571e+00	 6.428571e-01	 1.128069e+01
0	 8.928571e+00	 7.142857e-01	 1.127522e+01
0	 8.571429e+00	 7.142857e-01	 1.108088e+01
0	 8.571429e+00	 7.857143e-01	 1.107126e+01
0	 8.571429e+00	 8.571429e-01	 1.106193e+01
0	 8.571429e+00	 9.285714e-01	 1.105290e+01
0	 8.571429e+00	 1.000000e+00	 1.104416e+01
0	 8.571429e+00	 1.071429e+00	 1.103573e+01
0	 8.642857e+00	 7.142857e-01	 1.111619e+01
0	 8.642857e+00	 7.857143e-01	 1.110652e+01
0	 8.642857e+00	 8.571429e-01	 1.109714e+01
0	 8.642857e+00	 9.285714e-01	 1.108804e+01
0	 8.642857e+00	 1.000000e+00	 1.107924e+01
0	 8.642857e+00	 1.071429e+00	 1.107072e+01
0	 8.714286e+00	 7.142857e-01	 1.115328e+01
0	 8.714286e+00	 7.857143e-01	 1.114352e+01
0	 8.714286e+00	 8.571429e-01	 1.113405e+01
0	 8.714286e+00	 9.285714e-01	 1.112485e+01
0	 8.714286e+00	 1.000000e+00	 1.111593e+01
0	 8.714286e+00	 1.071429e+00	 1.110729e+01
0	 8.785714e+00	 7.142857e-01	 1.119215e+01
0	 8.785714e+00	 7.857143e-01	 1.118227e+01
0	 8.785714e+00	 8.571429e-01	 1.117266e+01
0	 8.785714e+00	 9.285714e-01	 1.116332e+01
0	 8.785714e+00	 1.000000e+00	 1.115425e+01
0	 8.785714e+00	 1.071429e+00	 1.114544e+01
0	 8.857143e+00	 7.142857e-01	 1.123279e+01
0	 8.857143e+00	 7.857143e-01	 1.122275e+01
0	 8.857143e+00	 8.571429e-01	 1.121297e+01
0	 8.857143e+00	 9.285714e-01	 1.120345e+01
0	 8.857143e+00	 1.000000e+00	 1.119419e+01
0	 8.857143e+00	 1.071429e+00	 1.118518e+01
0	 8.928571e+00	 7.142857e-01	 1.127522e+01
0	 8.928571e+00	 7.857143e-01	 1.126498e+01
0	 8.928571e+00	 8.571429e-01	 1.125499e+01
0	 8.928571e+00	 9.285714e-01	 1.124524e+01
0	 8.928571e+00	 1.000000e+00	 1.123575e+01
0	 8.928571e+00	 1.071429e+00	 1.122650e+01
0	 8.571429e+00	 1.071429e+00	 1.103573e+01
0	 8.571429e+00	 1.142857e+00	 1.102326e+01
0	 8.571429e+00	 1.214286e+00	 1.101103e+01
0	 8.571429e+00	 1.285714e+00	 1.099903e+01
0	 8.571429e+00	 1.357143e+00	 1.098727e+01
0	 8.571429e+00	 1.428571e+00	 1.097575e+01
0	 8.642857e+00	 1.071429e+00	 1.107072e+01
0	 8.642857e+00	 1.142857e+00	 1.105816e+01
0	 8.642857e+00	 1.214286e+00	 1.104583e+01
0	 8.642857e+00	 1.285714e+00	 1.103373e+01
0	 8.642857e+00	 1.357143e+00	 1.102186e+01
0	 8.642857e+00	 1.428571e+00	 1.101022e+01
0	 8.714286e+00	 1.071429e+00	 1.110729e+01
0	 8.714286e+00	 1.142857e+00	 1.109459e+01
0	 8.714286e+00	 1.214286e+00	 1.108211e+01
0	 8.714286e+00	 1.285714e+00	 1.106986e+01
0	 8.714286e+00	 1.357143e+00	 1.105783e+01
0	 8.714286e+00	 1.428571e+00	 1.104603e+01
0	 8.785714e+00	 1.071429e+00	 1.114544e+01
0	 8.785714e+00	 1.142857e+00	 1.113255e+01
0	 8.785714e+00	 1.214286e+00	 1.111988e+01
0	 8.785714e+00	 1.285714e+00	 1.110742e+01
0	 8.785714e+00	 1.357143e+00	 1.109518e+01
0	 8.785714e+00	 1.428571e+00	 1.108316e+01
0	 8.857143e+00	 1.071429e+00	 1.118518e+01
0	 8.857143e+00	 1.142857e+00	 1.117205e+01
0	 8.857143e+00	 1.214286e+00	 1.115913e+01
0	 8.857143e+00	 1.285714e+00	 1.114642e+01
0	 8.857143e+00	 1.357143e+00	 1.113391e+01
0	 8.857143e+00	 1.428571e+00	 1.112162e+01
0	 8.928571e+00	 1.071429e+00	 1.122650e+01
0	 8.928571e+00	 1.142857e+00	 1.121308e+01
0	 8.928571e+00	 1.214286e+00	 1.119986e+01
0	 8.928571e+00	 1.285714e+00	 1.118684e+01
0	 8.928571e+00	 1.357143e+00	 1.117403e+01
0	 8.928571e+00	 1.428571e+00	 1.116142e+01
0	 8.571429e+00	 1.428571e+00	 1.097575e+01
0	 8.571429e+00	 1.500000e+00	 1.096103e+01
0	 8.571429e+00	 1.571429e+00	 1.094648e+01
0	 8.571429e+00	 1.642857e+00	 1.093209e+01
0	 8.571429e+00	 1.714286e+00	 1.091787e+01
0	 8.571429e+00	 1.785714e+00	 1.090381e+01
0	 8.642857e+00	 1.428571e+00	 1.101022e+01
0	 8.642857e+00	 1.500000e+00	 1.099536e+01
0	 8.642857e+00	 1.571429e+00	 1.098066e+01
0	 8.642857e+00	 1.642857e+00	 1.096612e+01
0	 8.642857e+00	 1.714286e+00	 1.095174e+01
0	 8.642857e+00	 1.785714e+00	 1.093753e+01
0	 8.714286e+00	 1.428571e+00	 1.104603e+01
0	 8.714286e+00	 1.500000e+00	 1.103096e+01
0	 8.714286e+00	 1.571429e+00	 1.101605e+01
0	 8.714286e+00	 1.642857e+00	 1.100130e+01
0	 8.714286e+00	 1.714286e+00	 1.098672e+01
0	 8.714286e+00	 1.785714e+00	 1.097229e+01
0	 8.785714e+00	 1.428571e+00	 1.108316e+01
0	 8.785714e+00	 1.500000e+00	 1.106783e+01
0	 8.785714e+00	 1.571429e+00	 1.105266e+01
0	 8.785714e+00	 1.642857e+00	 1.103764e+01
0	 8.785714e+00	 1.714286e+00	 1.102278e+01
0	 8.785714e+00	 1.785714e+00	 1.100808e+01
0	 8.857143e+00	 1.428571e+00	 1.112162e+01
0	 8.857143e+00	 1.500000e+00	 1.110597e+01
0	 8.857143e+00	 1.571429e+00	 1.109048e+01
0	 8.857143e+00	 1.642857e+00	 1.107513e+01
0	 8.857143e+00	 1.714286e+00	 1.105994e+01
0	 8.857143e+00	 1.785714e+00	 1.104491e+01
0	 8.928571e+00	 1.428571e+00	 1.116142e+01
0	 8.928571e+00	 1.500000e+00	 1.114539e+01
0	 8.928571e+00	 1.571429e+00	 1.112951e+01
0	 8.928571e+00	 1.642857e+00	 1.111378e+01
0	 8.928571e+00	 1.714286e+00	 1.109820e+01
0	 8.928571e+00	 1.785714e+00	 1.108278e+01
0	 8.571429e+00	 1.785714e+00	 1.090381e+01
0	 8.571429e+00	 1.857143e+00	 1.088750e+01
0	 8.571429e+00	 1.928571e+00	 1.087128e+01
0	 8.571429e+00	 2.000000e+00	 1.085514e+01
0	 8.571429e+00	 2.071429e+00	 1.083910e+01
0	 8.571429e+00	 2.142857e+00	 1.082314e+01
0	 8.642857e+00	 1.785714e+00	 1.093753e+01
0	 8.642857e+00	 1.857143e+00	 1.092101e+01
0	 8.642857e+00	 1.928571e+00	 1.090458e+01
0	 8.642857e+00	 2.000000e+00	 1.088824e+01
0	 8.642857e+00	 2.071429e+00	 1.087198e+01
0	 8.642857e+00	 2.142857e+00	 1.085582e+01
0	 8.714286e+00	 1.785714e+00	 1.097229e+01
0	 8.714286e+00	 1.857143e+00	 1.095549e+01
0	 8.714286e+00	 1.928571e+00	 1.093879e+01
0	 8.714286e+00	 2.000000e+00	 1.092218e+01
0	 8.714286e+00	 2.071429e+00	 1.090566e+01
0	 8.714286e+00	 2.142857e+00	 1.088923e+01
0	 8.785714e+00	 1.785714e+00	 1.100808e+01
0	 8.785714e+00	 1.857143e+00	 1.099095e+01
0	 8.785714e+00	 1.928571e+00	 1.097392e+01
0	 8.785714e+00	 2.000000e+00	 1.095697e+01
0	 8.785714e+00	 2.071429e+00	 1.094012e+01
0	 8.785714e+00	 2.142857e+00	 1.092336e+01
0	 8.857143e+00	 1.785714e+00	 1.104491e+01
0	 8.857143e+00	 1.857143e+00	 1.102738e+01
0	 8.857143e+00	 1.928571e+00	 1.100995e+01
0	 8.857143e+00	 2.000000e+00	 1.099262e+01
0	 8.857143e+00	 2.071429e+00	 1.097537e+01
0	 8.857143e+00	 2.142857e+00	 1.095822e+01
0	 8.928571e+00	 1.785714e+00	 1.108278e+01
0	 8.928571e+00	 1.857143e+00	 1.106479e+01
0	 8.928571e+00	 1.928571e+00	 1.104690e+01
0	 8.928571e+00	 2.000000e+00	 1.102911e+01
0	 8.928571e+00	 2.071429e+00	 1.101141e+01
0	 8.928571e+00	 2.142857e+00	 1.099380e+01
0	 8.571429e+00	 2.142857e+00	 1.082314e+01
0	 8.571429e+00	 2.214286e+00	 1.080590e+01
0	 8.571429e+00	 2.285714e+00	 1.078867e+01
0	 8.571429e+00	 2.357143e+00	 1.077146e+01
0	 8.571429e+00	 2.428571e+00	 1.075427e+01
0	 8.571429e+00	 2.500000e+00	 1.073709e+01
0	 8.642857e+00	 2.142857e+00	 1.085582e+01
0	 8.642857e+00	 2.214286e+00	 1.083830e+01
0	 8.642857e+00	 2.285714e+00	 1.082080e+01
0	 8.642857e+00	 2.357143e+00	 1.080332e+01
0	 8.642857e+00	 2.428571e+00	 1.078586e+01
0	 8.642857e+00	 2.500000e+00	 1.076842e+01
0	 8.714286e+00	 2.142857e+00	 1.088923e+01
0	 8.714286e+00	 2.214286e+00	 1.087137e+01
0	 8.714286e+00	 2.285714e+00	 1.085353e+01
0	 8.714286e+00	 2.357143e+00	 1.083572e+01
0	 8.714286e+00	 2.428571e+00	 1.081793e+01
0	 8.714286e+00	 2.500000e+00	 1.080017e+01
0	 8.785714e+00	 2.142857e+00	 1.092336e+01
0	 8.785714e+00	 2.214286e+00	 1.090509e+01
0	 8.785714e+00	 2.285714e+00	 1.088686e+01
0	 8.785714e+00	 2.357143e+00	 1.086865e+01
0	 8.785714e+00	 2.428571e+00	 1.085047e+01
0	 8.785714e+00	 2.500000e+00	 1.083233e+01
0	 8.857143e+00	 2.142857e+00	 1.095822e+01
0	 8.857143e+00	 2.214286e+00	 1.093949e+01
0	 8.857143e+00	 2.285714e+00	 1.092079e+01
0	 8.857143e+00	 2.357143e+00	 1.090213e+01
0	 8.857143e+00	 2.428571e+00	 1.088350e+01
0	 8.857143e+00	 2.500000e+00	 1.086490e+01
0	 8.928571e+00	 2.142857e+00	 1.099380e+01
0	 8.928571e+00	 2.214286e+00	 1.097454e+01
0	 8.928571e+00	 2.285714e+00	 1.095532e+01
0	 8.928571e+00	 2.357143e+00	 1.093614e+01
0	 8.928571e+00	 2.428571e+00	 1.091700e+01
0	 8.928571e+00	 2.500000e+00	 1.089789e+01
0	 8.571429e+00	 2.500000e+00	 1.073709e+01
0	 8.571429e+00	 2.571429e+00	 1.071954e+01
0	 8.571429e+00	 2.642857e+00	 1.070194e+01
0	 8.571429e+00	 2.714286e+00	 1.068430e+01
0	 8.571429e+00	 2.785714e+00	 1.066661e+01
0	 8.571429e+00	 2.857143e+00	 1.064886e+01
0	 8.642857e+00	 2.500000e+00	 1.076842e+01
0	 8.642857e+00	 2.571429e+00	 1.075053e+01
0	 8.642857e+00	 2.642857e+00	 1.073259e+01
0	 8.642857e+00	 2.714286e+00	 1.071461e+01
0	 8.642857e+00	 2.785714e+00	 1.069659e+01
0	 8.642857e+00	 2.857143e+00	 1.067854e+01
0	 8.714286e+00	 2.500000e+00	 1.080017e+01
0	 8.714286e+00	 2.571429e+00	 1.078187e+01
0	 8.714286e+00	 2.642857e+00	 1.076353e+01
0	 8.714286e+00	 2.714286e+00	 1.074516e+01
0	 8.714286e+00	 2.785714e+00	 1.072676e+01
0	 8.714286e+00	 2.857143e+00	 1.070833e+01
0	 8.785714e+00	 2.500000e+00	 1.083233e+01
0	 8.785714e+00	 2.571429e+00	 1.081356e+01
0	 8.785714e+00	 2.642857e+00	 1.079477e+01
0	 8.785714e+00	 2.714286e+00	 1.077595e+01
0	 8.785714e+00	 2.785714e+00	 1.075711e+01
0	 8.785714e+00	 2.857143e+00	 1.073824e+01
0	 8.857143e+00	 2.500000e+00	 1.086490e+01
0	 8.857143e+00	 2.571429e+00	 1.084561e+01
0	 8.857143e+00	 2.642857e+00	 1.082631e+01
0	 8.857143e+00	 2.714286e+00	 1.080698e+01
0	 8.857143e+00	 2.785714e+00	 1.078763e+01
0	 8.857143e+00	 2.857143e+00	 1.076826e+01
0	 8.928571e+00	 2.500000e+00	 1.089789e+01
0	 8.928571e+00	 2.571429e+00	 1.087802e+01
0	 8.928571e+00	 2.642857e+00	 1.085814e+01
0	 8.928571e+00	 2.714286e+00	 1.083824e+01
0	 8.928571e+00	 2.785714e+00	 1.081833e+01
0	 8.928571e+00	 2.857143e+00	 1.079841e+01
0	 8.571429e+00	 2.857143e+00	 1.064886e+01
0	 8.571429e+00	 2.928571e+00	 1.063157e+01
0	 8.571429e+00	 3.000000e+00	 1.061417e+01
0	 8.571429e+00	 3.071429e+00	 1.059668e+01
0	 8.571429e+00	 3.142857e+00	 1.057908e+01
0	 8.571429e+00	 3.214286e+00	 1.056138e+01
0	 8.642857e+00	 2.857143e+00	 1.067854e+01
0	 8.642857e+00	 2.928571e+00	 1.066083e+01
0	 8.642857e+00	 3.000000e+00	 1.064304e+01
0	 8.642857e+00	 3.071429e+00	 1.062515e+01
0	 8.642857e+00	 3.142857e+00	 1.060717e+01
0	 8.642857e+00	 3.214286e+00	 1.058910e+01
0	 8.714286e+00	 2.857143e+00	 1.070833e+01
0	 8.714286e+00	 2.928571e+00	 1.069016e+01
0	 8.714286e+00	 3.000000e+00	 1.067192e+01
0	 8.714286e+00	 3.071429e+00	 1.065359e+01
0	 8.714286e+00	 3.142857e+00	 1.063517e+01
0	 8.714286e+00	 3.214286e+00	 1.061668e+01
0	 8.785714e+00	 2.857143e+00	 1.073824e+01
0	 8.785714e+00	 2.928571e+00	 1.071956e+01
0	 8.785714e+00	 3.000000e+00	 1.070081e+01
0	 8.785714e+00	 3.071429e+00	 1.068198e+01
0	 8.785714e+00	 3.142857e+00	 1.066308e+01
0	 8.785714e+00	 3.214286e+00	 1.064411e+01
0	 8.857143e+00	 2.857143e+00	 1.076826e+01
0	 8.857143e+00	 2.928571e+00	 1.074902e+01
0	 8.857143e+00	 3.000000e+00	 1.072971e+01
0	 8.857143e+00	 3.071429e+00	 1.071034e+01
0	 8.857143e+00	 3.142857e+00	 1.069090e+01
0	 8.857143e+00	 3.214286e+00	 1.067139e+01
0	 8.928571e+00	 2.857143e+00	 1.079841e+01
0	 8.928571e+00	 2.928571e+00	 1.077855e+01
0	 8.928571e+00	 3.000000e+00	 1.075863e+01
0	 8.928571e+00	 3.071429e+00	 1.073865e+01
0	 8.928571e+00	 3.142857e+00	 1.071862e+01
0	 8.928571e+00	 3.214286e+00	 1.069852e+01
0	 8.571429e+00	 3.214286e+00	 1.056138e+01
0	 8.571429e+00	 3.285714e+00	 1.054481e+01
0	 8.571429e+00	 3.357143e+00	 1.052809e+01
0	 8.571429e+00	 3.428571e+00	 1.051124e+01
0	 8.571429e+00	 3.500000e+00	 1.049425e+01
0	 8.571429e+00	 3.571429e+00	 1.047712e+01
0	 8.642857e+00	 3.214286e+00	 1.058910e+01
0	 8.642857e+00	 3.285714e+00	 1.057207e+01
0	 8.642857e+00	 3.357143e+00	 1.055491e+01
0	 8.642857e+00	 3.428571e+00	 1.053762e+01
0	 8.642857e+00	 3.500000e+00	 1.052020e+01
0	 8.642857e+00	 3.571429e+00	 1.050265e+01
0	 8.714286e+00	 3.214286e+00	 1.061668e+01
0	 8.714286e+00	 3.285714e+00	 1.059914e+01
0	 8.714286e+00	 3.357143e+00	 1.058149e+01
0	 8.714286e+00	 3.428571e+00	 1.056371e+01
0	 8.714286e+00	 3.500000e+00	 1.054582e+01
0	 8.714286e+00	 3.571429e+00	 1.052780e+01
0	 8.785714e+00	 3.214286e+00	 1.064411e+01
0	 8.785714e+00	 3.285714e+00	 1.062602e+01
0	 8.785714e+00	 3.357143e+00	 1.060783e+01
0	 8.785714e+00	 3.428571e+00	 1.058953e+01
0	 8.785714e+00	 3.500000e+00	 1.057111e+01
0	 8.785714e+00	 3.571429e+00	 1.055258e+01
0	 8.857143e+00	 3.214286e+00	 1.067139e+01
0	 8.857143e+00	 3.285714e+00	 1.065271e+01
0	 8.857143e+00	 3.357143e+00	 1.063393e+01
0	 8.857143e+00	 3.428571e+00	 1.061505e+01
0	 8.857143e+00	 3.500000e+00	 1.059607e+01
0	 8.857143e+00	 3.571429e+00	 1.057699e+01
0	 8.928571e+00	 3.214286e+00	 1.069852e+01
0	 8.928571e+00	 3.285714e+00	 1.067921e+01
0	 8.928571e+00	 3.357143e+00	 1.065980e+01
0	 8.928571e+00	 3.428571e+00	 1.064030e+01
0	 8.928571e+00	 3.500000e+00	 1.062070e+01
0	 8.928571e+00	 3.571429e+00	 1.060102e+01
0	 8.571429e+00	 3.571429e+00	 1.047712e+01
0	 8.571429e+00	 3.642857e+00	 1.046164e+01
0	 8.571429e+00	 3.714286e+00	 1.044599e+01
0	 8.571429e+00	 3.785714e+00	 1.043018e+01
0	 8.571429e+00	 3.857143e+00	 1.041420e+01
0	 8.571429e+00	 3.928571e+00	 1.039805e+01
0	 8.642857e+00	 3.571429e+00	 1.050265e+01
0	 8.642857e+00	 3.642857e+00	 1.048667e+01
0	 8.642857e+00	 3.714286e+00	 1.047054e+01
0	 8.642857e+00	 3.785714e+00	 1.045425e+01
0	 8.642857e+00	 3.857143e+00	 1.043781e+01
0	 8.642857e+00	 3.928571e+00	 1.042121e+01
0	 8.714286e+00	 3.571429e+00	 1.052780e+01
0	 8.714286e+00	 3.642857e+00	 1.051129e+01
0	 8.714286e+00	 3.714286e+00	 1.049464e+01
0	 8.714286e+00	 3.785714e+00	 1.047784e+01
0	 8.714286e+00	 3.857143e+00	 1.046090e+01
0	 8.714286e+00	 3.928571e+00	 1.044380e+01
0	 8.785714e+00	 3.571429e+00	 1.055258e+01
0	 8.785714e+00	 3.642857e+00	 1.053551e+01
0	 8.785714e+00	 3.714286e+00	 1.051829e+01
0	 8.785714e+00	 3.785714e+00	 1.050095e+01
0	 8.785714e+00	 3.857143e+00	 1.048346e+01
0	 8.785714e+00	 3.928571e+00	 1.046584e+01
0	 8.857143e+00	 3.571429e+00	 1.057699e+01
0	 8.857143e+00	 3.642857e+00	 1.055931e+01
0	 8.857143e+00	 3.714286e+00	 1.054150e+01
0	 8.857143e+00	 3.785714e+00	 1.052356e+01
0	 8.857143e+00	 3.857143e+00	 1.050550e+01
0	 8.857143e+00	 3.928571e+00	 1.048732e+01
0	 8.928571e+00	 3.571429e+00	 1.060102e+01
0	 8.928571e+00	 3.642857e+00	 1.058269e+01
0	 8.928571e+00	 3.714286e+00	 1.056425e+01
0	 8.928571e+00	 3.785714e+00	 1.054570e+01
0	 8.928571e+00	 3.857143e+00	 1.052702e+01
0	 8.928571e+00	 3.928571e+00	 1.050823e+01
0	 8.571429e+00	 3.928571e+00	 1.039805e+01
0	 8.571429e+00	 4.000000e+00	 1.038393e+01
0	 8.571429e+00	 4.071429e+00	 1.036963e+01
0	 8.571429e+00	 4.142857e+00	 1.035515e+01
0	 8.571429e+00	 4.214286e+00	 1.034049e+01
0	 8.571429e+00	 4.285714e+00	 1.032565e+01
0	 8.642857e+00	 3.928571e+00	 1.042121e+01
0	 8.642857e+00	 4.000000e+00	 1.040657e+01
0	 8.642857e+00	 4.071429e+00	 1.039176e+01
0	 8.642857e+00	 4.142857e+00	 1.037679e+01
0	 8.642857e+00	 4.214286e+00	 1.036164e+01
0	 8.642857e+00	 4.285714e+00	 1.034632e+01
0	 8.714286e+00	 3.928571e+00	 1.044380e+01
0	 8.714286e+00	 4.000000e+00	 1.042862e+01
0	 8.714286e+00	 4.071429e+00	 1.041328e+01
0	 8.714286e+00	 4.142857e+00	 1.039778e+01
0	 8.714286e+00	 4.214286e+00	 1.038212e+01
0	 8.714286e+00	 4.285714e+00	 1.036629e+01
0	 8.785714e+00	 3.928571e+00	 1.046584e+01
0	 8.785714e+00	 4.000000e+00	 1.045009e+01
0	 8.785714e+00	 4.071429e+00	 1.043418e+01
0	 8.785714e+00	 4.142857e+00	 1.041813e+01
0	 8.785714e+00	 4.214286e+00	 1.040192e+01
0	 8.785714e+00	 4.285714e+00	 1.038557e+01
0	 8.857143e+00	 3.928571e+00	 1.048732e+01
0	 8.857143e+00	 4.000000e+00	 1.047097e+01
0	 8.857143e+00	 4.071429e+00	 1.045447e+01
0	 8.857143e+00	 4.142857e+00	 1.043784e+01
0	 8.857143e+00	 4.214286e+00	 1.042106e+01
0	 8.857143e+00	 4.285714e+00	 1.040414e+01
0	 8.928571e+00	 3.928571e+00	 1.050823e+01
0	 8.928571e+00	 4.000000e+00	 1.049126e+01
0	 8.928571e+00	 4.071429e+00	 1.047415e+01
0	 8.928571e+00	 4.142857e+00	 1.045690e+01
0	 8.928571e+00	 4.214286e+00	 1.043953e+01
0	 8.928571e+00	 4.285714e+00	 1.042202e+01
0	 8.571429e+00	 4.285714e+00	 1.032565e+01
0	 8.571429e+00	 4.357143e+00	 1.031306e+01
0	 8.571429e+00	 4.428571e+00	 1.030028e+01
0	 8.571429e+00	 4.500000e+00	 1.028732e+01
0	 8.571429e+00	 4.571429e+00	 1.027419e+01
0	 8.571429e+00	 4.642857e+00	 1.026087e+01
0	 8.642857e+00	 4.285714e+00	 1.034632e+01
0	 8.642857e+00	 4.357143e+00	 1.033321e+01
0	 8.642857e+00	 4.428571e+00	 1.031992e+01
0	 8.642857e+00	 4.500000e+00	 1.030646e+01
0	 8.642857e+00	 4.571429e+00	 1.029283e+01
0	 8.642857e+00	 4.642857e+00	 1.027902e+01
0	 8.714286e+00	 4.285714e+00	 1.036629e+01
0	 8.714286e+00	 4.357143e+00	 1.035264e+01
0	 8.714286e+00	 4.428571e+00	 1.033882e+01
0	 8.714286e+00	 4.500000e+00	 1.032484e+01
0	 8.714286e+00	 4.571429e+00	 1.031069e+01
0	 8.714286e+00	 4.642857e+00	 1.029638e+01
0	 8.785714e+00	 4.285714e+00	 1.038557e+01
0	 8.785714e+00	 4.357143e+00	 1.037135e+01
0	 8.785714e+00	 4.428571e+00	 1.035699e+01
0	 8.785714e+00	 4.500000e+00	 1.034246e+01
0	 8.785714e+00	 4.571429e+00	 1.032778e+01
0	 8.785714e+00	 4.642857e+00	 1.031295e+01
0	 8.857143e+00	 4.285714e+00	 1.040414e+01
0	 8.857143e+00	 4.357143e+00	 1.038935e+01
0	 8.857143e+00	 4.428571e+00	 1.037442e+01
0	 8.857143e+00	 4.500000e+00	 1.035933e+01
0	 8.857143e+00	 4.571429e+00	 1.034410e+01
0	 8.857143e+00	 4.642857e+00	 1.032872e+01
0	 8.928571e+00	 4.285714e+00	 1.042202e+01
0	 8.928571e+00	 4.357143e+00	 1.040663e+01
0	 8.928571e+00	 4.428571e+00	 1.039111e+01
0	 8.928571e+00	 4.500000e+00	 1.037544e+01
0	 8.928571e+00	 4.571429e+00	 1.035964e+01
0	 8.928571e+00	 4.642857e+00	 1.034370e+01
0	 8.571429e+00	 4.642857e+00	 1.026087e+01
0	 8.571429e+00	 4.714286e+00	 1.024989e+01
0	 8.571429e+00	 4.785714e+00	 1.023873e+01
0	 8.571429e+00	 4.857143e+00	 1.022740e+01
0	 8.571429e+00	 4.928571e+00	 1.021589e+01
0	 8.571429e+00	 5.000000e+00	 1.020422e+01
0	 8.642857e+00	 4.642857e+00	 1.027902e+01
0	 8.642857e+00	 4.714286e+00	 1.026753e+01
0	 8.642857e+00	 4.785714e+00	 1.025587e+01
0	 8.642857e+00	 4.857143e+00	 1.024404e+01
0	 8.642857e+00	 4.928571e+00	 1.023205e+01
0	 8.642857e+00	 5.000000e+00	 1.021989e+01
0	 8.714286e+00	 4.642857e+00	 1.029638e+01
0	 8.714286e+00	 4.714286e+00	 1.028437e+01
0	 8.714286e+00	 4.785714e+00	 1.027220e+01
0	 8.714286e+00	 4.857143e+00	 1.025986e+01
0	 8.714286e+00	 4.928571e+00	 1.024737e+01
0	 8.714286e+00	 5.000000e+00	 1.023472e+01
0	 8.785714e+00	 4.642857e+00	 1.031295e+01
0	 8.785714e+00	 4.714286e+00	 1.030040e+01
0	 8.785714e+00	 4.785714e+00	 1.028771e+01
0	 8.785714e+00	 4.857143e+00	 1.027486e+01
0	 8.785714e+00	 4.928571e+00	 1.026185e+01
0	 8.785714e+00	 5.000000e+00	 1.024870e+01
0	 8.857143e+00	 4.642857e+00	 1.032872e+01
0	 8.857143e+00	 4.714286e+00	 1.031563e+01
0	 8.857143e+00	 4.785714e+00	 1.030240e+01
0	 8.857143e+00	 4.857143e+00	 1.028903e+01
0	 8.857143e+00	 4.928571e+00	 1.027550e+01
0	 8.857143e+00	 5.000000e+00	 1.026183e+01
0	 8.928571e+00	 4.642857e+00	 1.034370e+01
0	 8.928571e+00	 4.714286e+00	 1.033006e+01
0	 8.928571e+00	 4.785714e+00	 1.031628e+01
0	 8.928571e+00	 4.857143e+00	 1.030237e+01
0	 8.928571e+00	 4.928571e+00	 1.028831e+01
0	 8.928571e+00	 5.000000e+00	 1.027412e+01
0	 8.571429e+00	 5.000000e+00	 1.020422e+01
0	 8.571429e+00	 5.071429e+00	 1.019486e+01
0	 8.571429e+00	 5.142857e+00	 1.018534e+01
0	 8.571429e+00	 5.214286e+00	 1.017566e+01
0	 8.571429e+00	 5.285714e+00	 1.016582e+01
0	 8.571429e+00	 5.357143e+00	 1.015581e+01
0	 8.642857e+00	 5.000000e+00	 1.021989e+01
0	 8.642857e+00	 5.071429e+00	 1.021005e+01
0	 8.642857e+00	 5.142857e+00	 1.020005e+01
0	 8.642857e+00	 5.214286e+00	 1.018989e+01
0	 8.642857e+00	 5.285714e+00	 1.017958e+01
0	 8.642857e+00	 5.357143e+00	 1.016912e+01
0	 8.714286e+00	 5.000000e+00	 1.023472e+01
0	 8.714286e+00	 5.071429e+00	 1.022439e+01
0	 8.714286e+00	 5.142857e+00	 1.021390e+01
0	 8.714286e+00	 5.214286e+00	 1.020327e+01
0	 8.714286e+00	 5.285714e+00	 1.019249e+01
0	 8.714286e+00	 5.357143e+00	 1.018155e+01
0	 8.785714e+00	 5.000000e+00	 1.024870e+01
0	 8.785714e+00	 5.071429e+00	 1.023787e+01
0	 8.785714e+00	 5.142857e+00	 1.022690e+01
0	 8.785714e+00	 5.214286e+00	 1.021579e+01
0	 8.785714e+00	 5.285714e+00	 1.020453e+01
0	 8.785714e+00	 5.357143e+00	 1.019313e+01
0	 8.857143e+00	 5.000000e+00	 1.026183e+01
0	 8.857143e+00	 5.071429e+00	 1.025051e+01
0	 8.857143e+00	 5.142857e+00	 1.023905e+01
0	 8.857143e+00	 5.214286e+00	 1.022745e+01
0	 8.857143e+00	 5.285714e+00	 1.021571e+01
0	 8.857143e+00	 5.357143e+00	 1.020383e+01
0	 8.928571e+00	 5.000000e+00	 1.027412e+01
0	 8.928571e+00	 5.071429e+00	 1.026230e+01
0	 8.928571e+00	 5.142857e+00	 1.025034e+01
0	 8.928571e+00	 5.214286e+00	 1.023826e+01
0	 8.928571e+00	 5.285714e+00	 1.022603e+01
0	 8.928571e+00	 5.357143e+00	 1.021368e+01
0	 8.571429e+00	 5.357143e+00	 1.015581e+01
0	 8.571429e+00	 5.428571e+00	 1.014803e+01
0	 8.571429e+00	 5.500000e+00	 1.014011e+01
0	 8.571429e+00	 5.571429e+00	 1.013204e+01
0	 8.571429e+00	 5.642857e+00	 1.012383e+01
0	 8.571429e+00	 5.714286e+00	 1.011547e+01
0	 8.642857e+00	 5.357143e+00	 1.016912e+01
0	 8.642857e+00	 5.428571e+00	 1.016088e+01
0	 8.642857e+00	 5.500000e+00	 1.015251e+01
0	 8.642857e+00	 5.571429e+00	 1.014400e+01
0	 8.642857e+00	 5.642857e+00	 1.013535e+01
0	 8.642857e+00	 5.714286e+00	 1.012655e+01
0	 8.714286e+00	 5.357143e+00	 1.018155e+01
0	 8.714286e+00	 5.428571e+00	 1.017287e+01
0	 8.714286e+00	 5.500000e+00	 1.016405e+01
0	 8.714286e+00	 5.571429e+00	 1.015510e+01
0	 8.714286e+00	 5.642857e+00	 1.014601e+01
0	 8.714286e+00	 5.714286e+00	 1.013679e+01
0	 8.785714e+00	 5.357143e+00	 1.019313e+01
0	 8.785714e+00	 5.428571e+00	 1.018400e+01
0	 8.785714e+00	 5.500000e+00	 1.017474e+01
0	 8.785714e+00	 5.571429e+00	 1.016535e+01
0	 8.785714e+00	 5.642857e+00	 1.015583e+01
0	 8.785714e+00	 5.714286e+00	 1.014617e+01
0	 8.857143e+00	 5.357143e+00	 1.020383e+01
0	 8.857143e+00	 5.428571e+00	 1.019426e+01
0	 8.857143e+00	 5.500000e+00	 1.018457e+01
0	 8.857143e+00	 5.571429e+00	 1.017474e+01
0	 8.857143e+00	 5.642857e+00	 1.016479e+01
0	 8.857143e+00	 5.714286e+00	 1.015471e+01
0	 8.928571e+00	 5.357143e+00	 1.021368e+01
0	 8.928571e+00	 5.428571e+00	 1.020367e+01
0	 8.928571e+00	 5.500000e+00	 1.019354e+01
0	 8.928571e+00	 5.571429e+00	 1.018328e+01
0	 8.928571e+00	 5.642857e+00	 1.017290e+01
0	 8.928571e+00	 5.714286e+00	 1.016239e+01
0	 8.571429e+00	 5.714286e+00	 1.011547e+01
0	 8.571429e+00	 5.785714e+00	 1.010917e+01
0	 8.571429e+00	 5.857143e+00	 1.010275e+01
0	 8.571429e+00	 5.928571e+00	 1.009621e+01
0	 8.571429e+00	 6.000000e+00	 1.008954e+01
0	 8.571429e+00	 6.071429e+00	 1.008274e+01
0	 8.642857e+00	 5.714286e+00	 1.012655e+01
0	 8.642857e+00	 5.785714e+00	 1.011985e+01
0	 8.642857e+00	 5.857143e+00	 1.011302e+01
0	 8.642857e+00	 5.928571e+00	 1.010607e+01
0	 8.642857e+00	 6.000000e+00	 1.009899e+01
0	 8.642857e+00	 6.071429e+00	 1.009180e+01
0	 8.714286e+00	 5.714286e+00	 1.013679e+01
0	 8.714286e+00	 5.785714e+00	 1.012968e+01
0	 8.714286e+00	 5.857143e+00	 1.012245e+01
0	 8.714286e+00	 5.928571e+00	 1.011510e+01
0	 8.714286e+00	 6.000000e+00	 1.010764e+01
0	 8.714286e+00	 6.071429e+00	 1.010005e+01
0	 8.785714e+00	 5.714286e+00	 1.014617e+01
0	 8.785714e+00	 5.785714e+00	 1.013867e+01
0	 8.785714e+00	 5.857143e+00	 1.013105e+01
0	 8.785714e+00	 5.928571e+00	 1.012331e+01
0	 8.785714e+00	 6.000000e+00	 1.011546e+01
0	 8.785714e+00	 6.071429e+00	 1.010749e+01
0	 8.857143e+00	 5.714286e+00	 1.015471e+01
0	 8.857143e+00	 5.785714e+00	 1.014682e+01
0	 8.857143e+00	 5.857143e+00	 1.013882e+01
0	 8.857143e+00	 5.928571e+00	 1.013070e+01
0	 8.857143e+00	 6.000000e+00	 1.012247e+01
0	 8.857143e+00	 6.071429e+00	 1.011413e+01
0	 8.928571e+00	 5.714286e+00	 1.016239e+01
0	 8.928571e+00	 5.785714e+00	 1.015413e+01
0	 8.928571e+00	 5.857143e+00	 1.014575e+01
0	 8.928571e+00	 5.928571e+00	 1.013726e+01
0	 8.928571e+00	 6.000000e+00	 1.012866e+01
0	 8.928571e+00	 6.071429e+00	 1.011995e+01
0	 8.571429e+00	 6.071429e+00	 1.008274e+01
0	 8.571429e+00	 6.142857e+00	 1.007780e+01
0	 8.571429e+00	 6.214286e+00	 1.007275e+01
0	 8.571429e+00	 6.285714e+00	 1.006760e+01
0	 8.571429e+00	 6.357143e+00	 1.006235e+01
0	 8.571429e+00	 6.428571e+00	 1.005700e+01
0	 8.642857e+00	 6.071429e+00	 1.009180e+01
0	 8.642857e+00	 6.142857e+00	 1.008649e+01
0	 8.642857e+00	 6.214286e+00	 1.008108e+01
0	 8.642857e+00	 6.285714e+00	 1.007557e+01
0	 8.642857e+00	 6.357143e+00	 1.006996e+01
0	 8.642857e+00	 6.428571e+00	 1.006425e+01
0	 8.714286e+00	 6.071429e+00	 1.010005e+01
0	 8.714286e+00	 6.142857e+00	 1.009439e+01
0	 8.714286e+00	 6.214286e+00	 1.008863e+01
0	 8.714286e+00	 6.285714e+00	 1.008277e+01
0	 8.714286e+00	 6.357143e+00	 1.007681e+01
0	 8.714286e+00	 6.428571e+00	 1.007075e+01
0	 8.785714e+00	 6.071429e+00	 1.010749e+01
0	 8.785714e+00	 6.142857e+00	 1.010149e+01
0	 8.785714e+00	 6.214286e+00	 1.009539e+01
0	 8.785714e+00	 6.285714e+00	 1.008920e+01
0	 8.785714e+00	 6.357143e+00	 1.008290e+01
0	 8.785714e+00	 6.428571e+00	 1.007651e+01
0	 8.857143e+00	 6.071429e+00	 1.011413e+01
0	 8.857143e+00	 6.142857e+00	 1.010780e+01
0	 8.857143e+00	 6.214286e+00	 1.010137e+01
0	 8.857143e+00	 6.285714e+00	 1.009485e+01
0	 8.857143e+00	 6.357143e+00	 1.008823e+01
0	 8.857143e+00	 6.428571e+00	 1.008152e+01
0	 8.928571e+00	 6.071429e+00	 1.011995e+01
0	 8.928571e+00	 6.142857e+00	 1.011331e+01
0	 8.928571e+00	 6.214286e+00	 1.010657e+01
0	 8.928571e+00	 6.285714e+00	 1.009974e+01
0	 8.928571e+00	 6.357143e+00	 1.009281e+01
0	 8.928571e+00	 6.428571e+00	 1.008578e+01
0	 8.571429e+00	 6.428571e+00	 1.005700e+01
0	 8.571429e+00	 6.500000e+00	 1.005325e+01
0	 8.571429e+00	 6.571429e+00	 1.004943e+01
0	 8.571429e+00	 6.642857e+00	 1.004552e+01
0	 8.571429e+00	 6.714286e+00	 1.004154e+01
0	 8.571429e+00	 6.785714e+00	 1.003747e+01
0	 8.642857e+00	 6.428571e+00	 1.006425e+01
0	 8.642857e+00	 6.500000e+00	 1.006019e+01
0	 8.642857e+00	 6.571429e+00	 1.005604e+01
0	 8.642857e+00	 6.642857e+00	 1.005182e+01
0	 8.642857e+00	 6.714286e+00	 1.004752e+01
0	 8.642857e+00	 6.785714e+00	 1.004314e+01
0	 8.714286e+00	 6.428571e+00	 1.007075e+01
0	 8.714286e+00	 6.500000e+00	 1.006639e+01
0	 8.714286e+00	 6.571429e+00	 1.006194e+01
0	 8.714286e+00	 6.642857e+00	 1.005742e+01
0	 8.714286e+00	 6.714286e+00	 1.005282e+01
0	 8.714286e+00	 6.785714e+00	 1.004813e+01
0	 8.785714e+00	 6.428571e+00	 1.007651e+01
0	 8.785714e+00	 6.500000e+00	 1.007186e+01
0	 8.785714e+00	 6.571429e+00	 1.006713e+01
0	 8.785714e+00	 6.642857e+00	 1.006232e+01
0	 8.785714e+00	 6.714286e+00	 1.005743e+01
0	 8.785714e+00	 6.785714e+00	 1.005246e+01
0	 8.857143e+00	 6.428571e+00	 1.008152e+01
0	 8.857143e+00	 6.500000e+00	 1.007660e+01
0	 8.857143e+00	 6.571429e+00	 1.007160e+01
0	 8.857143e+00	 6.642857e+00	 1.006652e+01
0	 8.857143e+00	 6.714286e+00	 1.006136e+01
0	 8.857143e+00	 6.785714e+00	 1.005612e+01
0	 8.928571e+00	 6.428571e+00	 1.008578e+01
0	 8.928571e+00	 6.500000e+00	 1.008061e+01
0	 8.928571e+00	 6.571429e+00	 1.007536e+01
0	 8.928571e+00	 6.642857e+00	 1.007002e+01
0	 8.928571e+00	 6.714286e+00	 1.006461e+01
0	 8.928571e+00	 6.785714e+00	 1.005912e+01
0	 8.571429e+00	 6.785714e+00	 1.003747e+01
0	 8.571429e+00	 6.857143e+00	 1.003475e+01
0	 8.571429e+00	 6.928571e+00	 1.003198e+01
0	 8.571429e+00	 7.000000e+00	 1.002915e+01
0	 8.571429e+00	 7.071429e+00	 1.002625e+01
0	 8.571429e+00	 7.142857e+00	 1.002330e+01
0	 8.642857e+00	 6.785714e+00	 1.004314e+01
0	 8.642857e+00	 6.857143e+00	 1.004015e+01
0	 8.642857e+00	 6.928571e+00	 1.003711e+01
0	 8.642857e+00	 7.000000e+00	 1.003400e+01
0	 8.642857e+00	 7.071429e+00	 1.003084e+01
0	 8.642857e+00	 7.142857e+00	 1.002761e+01
0	 8.714286e+00	 6.785714e+00	 1.004813e+01
0	 8.714286e+00	 6.857143e+00	 1.004490e+01
0	 8.714286e+00	 6.928571e+00	 1.004160e+01
0	 8.714286e+00	 7.000000e+00	 1.003824e+01
0	 8.714286e+00	 7.071429e+00	 1.003482e+01
0	 8.714286e+00	 7.142857e+00	 1.003134e+01
0	 8.785714e+00	 6.785714e+00	 1.005246e+01
0	 8.785714e+00	 6.857143e+00	 1.004899e+01
0	 8.785714e+00	 6.928571e+00	 1.004546e+01
0	 8.785714e+00	 7.000000e+00	 1.004187e+01
0	 8.785714e+00	 7.071429e+00	 1.003821e+01
0	 8.785714e+00	 7.142857e+00	 1.003449e+01
0	 8.857143e+00	 6.785714e+00	 1.005612e+01
0	 8.857143e+00	 6.857143e+00	 1.005244e+01
0	 8.857143e+00	 6.928571e+00	 1.004869e+01
0	 8.857143e+00	 7.000000e+00	 1.004487e+01
0	 8.857143e+00	 7.071429e+00	 1.004100e+01
0	 8.857143e+00	 7.142857e+00	 1.003706e+01
0	 8.928571e+00	 6.785714e+00	 1.005912e+01
0	 8.928571e+00	 6.857143e+00	 1.005523e+01
0	 8.928571e+00	 6.928571e+00	 1.005128e+01
0	 8.928571e+00	 7.000000e+00	 1.004727e+01
0	 8.928571e+00	 7.071429e+00	 1.004319e+01
0	 8.928571e+00	 7.142857e+00	 1.003905e+01
0	 8.571429e+00	 7.142857e+00	 1.002330e+01
0	 8.571429e+00	 7.214286e+00	 1.002144e+01
0	 8.571429e+00	 7.285714e+00	 1.001953e+01
0	 8.571429e+00	 7.357143e+00	 1.001759e+01
0	 8.571429e+00	 7.428571e+00	 1.001561e+01
0	 8.571429e+00	 7.500000e+00	 1.001359e+01
0	 8.642857e+00	 7.142857e+00	 1.002761e+01
0	 8.642857e+00	 7.214286e+00	 1.002552e+01
0	 8.642857e+00	 7.285714e+00	 1.002339e+01
0	 8.642857e+00	 7.357143e+00	 1.002122e+01
0	 8.642857e+00	 7.428571e+00	 1.001901e+01
0	 8.642857e+00	 7.500000e+00	 1.001676e+01
0	 8.714286e+00	 7.142857e+00	 1.003134e+01
0	 8.714286e+00	 7.214286e+00	 1.002905e+01
0	 8.714286e+00	 7.285714e+00	 1.002671e+01
0	 8.714286e+00	 7.357143e+00	 1.002433e+01
0	 8.714286e+00	 7.428571e+00	 1.002191e+01
0	 8.714286e+00	 7.500000e+00	 1.001944e+01
0	 8.785714e+00	 7.142857e+00	 1.003449e+01
0	 8.785714e+00	 7.214286e+00	 1.003201e+01
0	 8.785714e+00	 7.285714e+00	 1.002948e+01
0	 8.785714e+00	 7.357143e+00	 1.002691e+01
0	 8.785714e+00	 7.428571e+00	 1.002430e+01
0	 8.785714e+00	 7.500000e+00	 1.002164e+01
0	 8.857143e+00	 7.142857e+00	 1.003706e+01
0	 8.857143e+00	 7.214286e+00	 1.003441e+01
0	 8.857143e+00	 7.285714e+00	 1.003171e+01
0	 8.857143e+00	 7.357143e+00	 1.002897e+01
0	 8.857143e+00	 7.428571e+00	 1.002619e+01
0	 8.857143e+00	 7.500000e+00	 1.002335e+01
0	 8.928571e+00	 7.142857e+00	 1.003905e+01
0	 8.928571e+00	 7.214286e+00	 1.003625e+01
0	 8.928571e+00	 7.285714e+00	 1.003340e+01
0	 8.928571e+00	 7.357143e+00	 1.003051e+01
0	 8.928571e+00	 7.428571e+00	 1.002757e+01
0	 8.928571e+00	 7.500000e+00	 1.002458e+01
0	 8.571429e+00	 7.500000e+00	 1.001359e+01
0	 8.571429e+00	 7.571429e+00	 1.001239e+01
0	 8.571429e+00	 7.642857e+00	 1.001117e+01
0	 8.571429e+00	 7.714286e+00	 1.000994e+01
0	 8.571429e+00	 7.785714e+00	 1.000868e+01
0	 8.571429e+00	 7.857143e+00	 1.000740e+01
0	 8.642857e+00	 7.500000e+00	 1.001676e+01
0	 8.642857e+00	 7.571429e+00	 1.001538e+01
0	 8.642857e+00	 7.642857e+00	 1.001398e+01
0	 8.642857e+00	 7.714286e+00	 1.001255e+01
0	 8.642857e+00	 7.785714e+00	 1.001111e+01
0	 8.642857e+00	 7.857143e+00	 1.000964e+01
0	 8.714286e+00	 7.500000e+00	 1.001944e+01
0	 8.714286e+00	 7.571429e+00	 1.001790e+01
0	 8.714286e+00	 7.642857e+00	 1.001633e+01
0	 8.714286e+00	 7.714286e+00	 1.001474e+01
0	 8.714286e+00	 7.785714e+00	 1.001312e+01
0	 8.714286e+00	 7.857143e+00	 1.001148e+01
0	 8.785714e+00	 7.500000e+00	 1.002164e+01
0	 8.785714e+00	 7.571429e+00	 1.001995e+01
0	 8.785714e+00	 7.642857e+00	 1.001824e+01
0	 8.785714e+00	 7.714286e+00	 1.001650e+01
0	 8.785714e+00	 7.785714e+00	 1.001473e+01
0	 8.785714e+00	 7.857143e+00	 1.001294e+01
0	 8.857143e+00	 7.500000e+00	 1.002335e+01
0	 8.857143e+00	 7.571429e+00	 1.002154e+01
0	 8.857143e+00	 7.642857e+00	 1.001970e+01
0	 8.857143e+00	 7.714286e+00	 1.001783e+01
0	 8.857143e+00	 7.785714e+00	 1.001593e+01
0	 8.857143e+00	 7.857143e+00	 1.001400e+01
0	 8.928571e+00	 7.500000e+00	 1.002458e+01
0	 8.928571e+00	 7.571429e+00	 1.002266e+01
0	 8.928571e+00	 7.642857e+00	 1.002071e+01
0	 8.928571e+00	 7.714286e+00	 1.001873e+01
0	 8.928571e+00	 7.785714e+00	 1.001672e+01
0	 8.928571e+00	 7.857143e+00	 1.001467e+01
0	 8.571429e+00	 7.857143e+00	 1.000740e+01
0	 8.571429e+00	 7.928571e+00	 1.000670e+01
0	 8.571429e+00	 8.000000e+00	 1.000599e+01
0	 8.571429e+00	 8.071429e+00	 1.000527e+01
0	 8.571429e+00	 8.142857e+00	 1.000456e+01
0	 8.571429e+00	 8.214286e+00	 1.000384e+01
0	 8.642857e+00	 7.857143e+00	 1.000964e+01
0	 8.642857e+00	 7.928571e+00	 1.000879e+01
0	 8.642857e+00	 8.000000e+00	 1.000793e+01
0	 8.642857e+00	 8.071429e+00	 1.000707e+01
0	 8.642857e+00	 8.142857e+00	 1.000620e+01
0	 8.642857e+00	 8.214286e+00	 1.000533e+01
0	 8.714286e+00	 7.857143e+00	 1.001148e+01
0	 8.714286e+00	 7.928571e+00	 1.001051e+01
0	 8.714286e+00	 8.000000e+00	 1.000952e+01
0	 8.714286e+00	 8.071429e+00	 1.000853e+01
0	 8.714286e+00	 8.142857e+00	 1.000752e+01
0	 8.714286e+00	 8.214286e+00	 1.000651e+01
0	 8.785714e+00	 7.857143e+00	 1.001294e+01
0	 8.785714e+00	 7.928571e+00	 1.001185e+01
0	 8.785714e+00	 8.000000e+00	 1.001076e+01
0	 8.785714e+00	 8.071429e+00	 1.000965e+01
0	 8.785714e+00	 8.142857e+00	 1.000853e+01
0	 8.785714e+00	 8.214286e+00	 1.000740e+01
0	 8.857143e+00	 7.857143e+00	 1.001400e+01
0	 8.857143e+00	 7.928571e+00	 1.001283e+01
0	 8.857143e+00	 8.000000e+00	 1.001164e+01
0	 8.857143e+00	 8.071429e+00	 1.001044e+01
0	 8.857143e+00	 8.142857e+00	 1.000923e+01
0	 8.857143e+00	 8.214286e+00	 1.000800e+01
0	 8.928571e+00	 7.857143e+00	 1.001467e+01
0	 8.928571e+00	 7.928571e+00	 1.001343e+01
0	 8.928571e+00	 8.000000e+00	 1.001217e+01
0	 8.928571e+00	 8.071429e+00	 1.001090e+01
0	 8.928571e+00	 8.142857e+00	 1.000960e+01
0	 8.928571e+00	 8.214286e+00	 1.000829e+01
0	 8.571429e+00	 8.214286e+00	 1.000384e+01
0	 8.571429e+00	 8.285714e+00	 1.000346e+01
0	 8.571429e+00	 8.357143e+00	 1.000309e+01
0	 8.571429e+00	 8.428571e+00	 1.000273e+01
0	 8.571429e+00	 8.500000e+00	 1.000238e+01
0	 8.571429e+00	 8.571429e+00	 1.000205e+01
0	 8.642857e+00	 8.214286e+00	 1.000533e+01
0	 8.642857e+00	 8.285714e+00	 1.000483e+01
0	 8.642857e+00	 8.357143e+00	 1.000435e+01
0	 8.642857e+00	 8.428571e+00	 1.000387e+01
0	 8.642857e+00	 8.500000e+00	 1.000341e+01
0	 8.642857e+00	 8.571429e+00	 1.000295e+01
0	 8.714286e+00	 8.214286e+00	 1.000651e+01
0	 8.714286e+00	 8.285714e+00	 1.000593e+01
0	 8.714286e+00	 8.357143e+00	 1.000535e+01
0	 8.714286e+00	 8.428571e+00	 1.000478e+01
0	 8.714286e+00	 8.500000e+00	 1.000421e+01
0	 8.714286e+00	 8.571429e+00	 1.000364e+01
0	 8.785714e+00	 8.214286e+00	 1.000740e+01
0	 8.785714e+00	 8.285714e+00	 1.000675e+01
0	 8.785714e+00	 8.357143e+00	 1.000609e+01
0	 8.785714e+00	 8.428571e+00	 1.000543e+01
0	 8.785714e+00	 8.500000e+00	 1.000478e+01
0	 8.785714e+00	 8.571429e+00	 1.000412e+01
0	 8.857143e+00	 8.214286e+00	 1.000800e+01
0	 8.857143e+00	 8.285714e+00	 1.000728e+01
0	 8.857143e+00	 8.357143e+00	 1.000656e+01
0	 8.857143e+00	 8.428571e+00	 1.000584e+01
0	 8.857143e+00	 8.500000e+00	 1.000512e+01
0	 8.857143e+00	 8.571429e+00	 1.000440e+01
0	 8.928571e+00	 8.214286e+00	 1.000829e+01
0	 8.928571e+00	 8.285714e+00	 1.000754e+01
0	 8.928571e+00	 8.357143e+00	 1.000678e+01
0	 8.928571e+00	 8.428571e+00	 1.000601e+01
0	 8.928571e+00	 8.500000e+00	 1.000524e+01
0	 8.928571e+00	 8.571429e+00	 1.000446e+01
0	 8.571429e+00	 8.571429e+00	 1.000205e+01
0	 8.571429e+00	 8.642857e+00	 1.000184e+01
0	 8.571429e+00	 8.714286e+00	 1.000166e+01
0	 8.571429e+00	 8.785714e+00	 1.000150e+01
0	 8.571429e+00	 8.857143e+00	 1.000136e+01
0	 8.571429e+00	 8.928571e+00	 1.000124e+01
0	 8.642857e+00	 8.571429e+00	 1.000295e+01
0	 8.642857e+00	 8.642857e+00	 1.000267e+01
0	 8.642857e+00	 8.714286e+00	 1.000240e+01
0	 8.642857e+00	 8.785714e+00	 1.000215e+01
0	 8.642857e+00	 8.857143e+00	 1.000193e+01
0	 8.642857e+00	 8.928571e+00	 1.000171e+01
0	 8.714286e+00	 8.571429e+00	 1.000364e+01
0	 8.714286e+00	 8.642857e+00	 1.000330e+01
0	 8.714286e+00	 8.714286e+00	 1.000296e+01
0	 8.714286e+00	 8.785714e+00	 1.000265e+01
0	 8.714286e+00	 8.857143e+00	 1.000235e+01
0	 8.714286e+00	 8.928571e+00	 1.000206e+01
0	 8.785714e+00	 8.571429e+00	 1.000412e+01
0	 8.785714e+00	 8.642857e+00	 1.000373e+01
0	 8.785714e+00	 8.714286e+00	 1.000335e+01
0	 8.785714e+00	 8.785714e+00	 1.000298e+01
0	 8.785714e+00	 8.857143e+00	 1.000262e+01
0	 8.785714e+00	 8.928571e+00	 1.000227e+01
0	 8.857143e+00	 8.571429e+00	 1.000440e+01
0	 8.857143e+00	 8.642857e+00	 1.000397e+01
0	 8.857143e+00	 8.714286e+00	 1.000356e+01
0	 8.857143e+00	 8.785714e+00	 1.000315e+01
0	 8.857143e+00	 8.857143e+00	 1.000274e+01
0	 8.857143e+00	 8.928571e+00	 1.000235e+01
0	 8.928571e+00	 8.571429e+00	 1.000446e+01
0	 8.928571e+00	 8.642857e+00	 1.000402e+01
0	 8.928571e+00	 8.714286e+00	 1.000359e+01
0	 8.928571e+00	 8.785714e+00	 1.000315e+01
0	 8.928571e+00	 8.857143e+00	 1.000272e+01
0	 8.928571e+00	 8.928571e+00	 1.000229e+01
0	 8.571429e+00	 8.928571e+00	 1.000124e+01
0	 8.571429e+00	 9.000000e+00	 1.000110e+01
0	 8.571429e+00	 9.071429e+00	 1.000099e+01
0	 8.571429e+00	 9.142857e+00	 1.000090e+01
0	 8.571429e+00	 9.214286e+00	 1.000084e+01
0	 8.571429e+00	 9.285714e+00	 1.000081e+01
0	 8.642857e+00	 8.928571e+00	 1.000171e+01
0	 8.642857e+00	 9.000000e+00	 1.000153e+01
0	 8.642857e+00	 9.071429e+00	 1.000136e+01
0	 8.642857e+00	 9.142857e+00	 1.000122e+01
0	 8.642857e+00	 9.214286e+00	 1.000110e+01
0	 8.642857e+00	 9.285714e+00	 1.000100e+01
0	 8.714286e+00	 8.928571e+00	 1.000206e+01
0	 8.714286e+00	 9.000000e+00	 1.000183e+01
0	 8.714286e+00	 9.071429e+00	 1.000163e+01
0	 8.714286e+00	 9.142857e+00	 1.000144e+01
0	 8.714286e+00	 9.214286e+00	 1.000127e+01
0	 8.714286e+00	 9.285714e+00	 1.000112e+01
0	 8.785714e+00	 8.928571e+00	 1.000227e+01
0	 8.785714e+00	 9.000000e+00	 1.000202e+01
0	 8.785714e+00	 9.071429e+00	 1.000179e+01
0	 8.785714e+00	 9.142857e+00	 1.000157e+01
0	 8.785714e+00	 9.214286e+00	 1.000137e+01
0	 8.785714e+00	 9.285714e+00	 1.000118e+01
0	 8.857143e+00	 8.928571e+00	 1.000235e+01
0	 8.857143e+00	 9.000000e+00	 1.000209e+01
0	 8.857143e+00	 9.071429e+00	 1.000185e+01
0	 8.857143e+00	 9.142857e+00	 1.000161e+01
0	 8.857143e+00	 9.214286e+00	 1.000138e+01
0	 8.857143e+00	 9.285714e+00	 1.000117e+01
0	 8.928571e+00	 8.928571e+00	 1.000229e+01
0	 8.928571e+00	 9.000000e+00	 1.000204e+01
0	 8.928571e+00	 9.071429e+00	 1.000180e+01
0	 8.928571e+00	 9.142857e+00	 1.000156e+01
0	 8.928571e+00	 9.214286e+00	 1.000132e+01
0	 8.928571e+00	 9.285714e+00	 1.000109e+01
0	 8.571429e+00	 9.285714e+00	 1.000081e+01
0	 8.571429e+00	 9.357143e+00	 1.000067e+01
0	 8.571429e+00	 9.428571e+00	 1.000055e+01
0	 8.571429e+00	 9.500000e+00	 1.000044e+01
0	 8.571429e+00	 9.571429e+00	 1.000035e+01
0	 8.571429e+00	 9.642857e+00	 1.000028e+01
0	 8.642857e+00	 9.285714e+00	 1.000100e+01
0	 8.642857e+00	 9.357143e+00	 1.000084e+01
0	 8.642857e+00	 9.428571e+00	 1.000069e+01
0	 8.642857e+00	 9.500000e+00	 1.000056e+01
0	 8.642857e+00	 9.571429e+00	 1.000043e+01
0	 8.642857e+00	 9.642857e+00	 1.000033e+01
0	 8.714286e+00	 9.285714e+00	 1.000112e+01
0	 8.714286e+00	 9.357143e+00	 1.000095e+01
0	 8.714286e+00	 9.428571e+00	 1.000078e+01
0	 8.714286e+00	 9.500000e+00	 1.000063e+01
0	 8.714286e+00	 9.571429e+00	 1.000048e+01
0	 8.714286e+00	 9.642857e+00	 1.000035e+01
0	 8.785714e+00	 9.285714e+00	 1.000118e+01
0	 8.785714e+00	 9.357143e+00	 1.000100e+01
0	 8.785714e+00	 9.428571e+00	 1.000083e+01
0	 8.785714e+00	 9.500000e+00	 1.000066e+01
0	 8.785714e+00	 9.571429e+00	 1.000050e+01
0	 8.785714e+00	 9.642857e+00	 1.000035e+01
0	 8.857143e+00	 9.285714e+00	 1.000117e+01
0	 8.857143e+00	 9.357143e+00	 1.000099e+01
0	 8.857143e+00	 9.428571e+00	 1.000082e+01
0	 8.857143e+00	 9.500000e+00	 1.000066e+01
0	 8.857143e+00	 9.571429e+00	 1.000049e+01
0	 8.857143e+00	 9.642857e+00	 1.000033e+01
0	 8.928571e+00	 9.285714e+00	 1.000109e+01
0	 8.928571e+00	 9.357143e+00	 1.000093e+01
0	 8.928571e+00	 9.428571e+00	 1.000077e+01
0	 8.928571e+00	 9.500000e+00	 1.000061e+01
0	 8.928571e+00	 9.571429e+00	 1.000045e+01
0	 8.928571e+00	 9.642857e+00	 1.000029e+01
0	 8.571429e+00	 9.642857e+00	 1.000028e+01
0	 8.571429e+00	 9.714286e+00	 1.000024e+01
0	 8.571429e+00	 9.785714e+00	 1.000017e+01
0	 8.571429e+00	 9.857143e+00	 1.000008e+01
0	 8.571429e+00	 9.928571e+00	 9.999978e+00
0	 8.571429e+00	 1.000000e+01	 9.999853e+00
0	 8.642857e+00	 9.642857e+00	 1.000033e+01
0	 8.642857e+00	 9.714286e+00	 1.000028e+01
0	 8.642857e+00	 9.785714e+00	 1.000022e+01
0	 8.642857e+00	 9.857143e+00	 1.000013e+01
0	 8.642857e+00	 9.928571e+00	 1.000002e+01
0	 8.642857e+00	 1.000000e+01	 9.999888e+00
0	 8.714286e+00	 9.642857e+00	 1.000035e+01
0	 8.714286e+00	 9.714286e+00	 1.000031e+01
0	 8.714286e+00	 9.785714e+00	 1.000024e+01
0	 8.714286e+00	 9.857143e+00	 1.000015e+01
0	 8.714286e+00	 9.928571e+00	 1.000004e+01
0	 8.714286e+00	 1.000000e+01	 9.999904e+00
0	 8.785714e+00	 9.642857e+00	 1.000035e+01
0	 8.785714e+00	 9.714286e+00	 1.000031e+01
0	 8.785714e+00	 9.785714e+00	 1.000024e+01
0	 8.785714e+00	 9.857143e+00	 1.000015e+01
0	 8.785714e+00	 9.928571e+00	 1.000004e+01
0	 8.785714e+00	 1.000000e+01	 9.999898e+00
0	 8.857143e+00	 9.642857e+00	 1.000033e+01
0	 8.857143e+00	 9.714286e+00	 1.000029e+01
0	 8.857143e+00	 9.785714e+00	 1.000023e+01
0	 8.857143e+00	 9.857143e+00	 1.000014e+01
0	 8.857143e+00	 9.928571e+00	 1.000002e+01
0	 8.857143e+00	 1.000000e+01	 9.999871e+00
0	 8.928571e+00	 9.642857e+00	 1.000029e+01
0	 8.928571e+00	 9.714286e+00	 1.000026e+01
0	 8.928571e+00	 9.785714e+00	 1.000019e+01
0	 8.928571e+00	 9.857143e+00	 1.000010e+01
0	 8.928571e+00	 9.928571e+00	 9.999974e+00
0	 8.928571e+00	 1.000000e+01	 9.999824e+00
0	 8.928571e+00	 0.000000e+00	 1.131559e+01
0	 8.928571e+00	 7.142857e-02	 1.131295e+01
0	 8.928571e+00	 1.428571e-01	 1.131061e+01
0	 8.928571e+00	 2.142857e-01	 1.130857e+01
0	 8.928571e+00	 2.857143e-01	 1.130682e+01
0	 8.928571e+00	 3.571429e-01	 1.130538e+01
0	 9.000000e+00	 0.000000e+00	 1.135736e+01
0	 9.000000e+00	 7.142857e-02	 1.135470e+01
0	 9.000000e+00	 1.428571e-01	 1.135232e+01
0	 9.000000e+00	 2.142857e-01	 1.135024e+01
0	 9.000000e+00	 2.857143e-01	 1.134845e+01
0	 9.000000e+00	 3.571429e-01	 1.134695e+01
0	 9.071429e+00	 0.000000e+00	 1.140149e+01
0	 9.071429e+00	 7.142857e-02	 1.139879e+01
0	 9.071429e+00	 1.428571e-01	 1.139638e+01
0	 9.071429e+00	 2.142857e-01	 1.139425e+01
0	 9.071429e+00	 2.857143e-01	 1.139241e+01
0	 9.071429e+00	 3.571429e-01	 1.139085e+01
0	 9.142857e+00	 0.000000e+00	 1.144799e+01
0	 9.142857e+00	 7.142857e-02	 1.144525e+01
0	 9.142857e+00	 1.428571e-01	 1.144279e+01
0	 9.142857e+00	 2.142857e-01	 1.144060e+01
0	 9.142857e+00	 2.857143e-01	 1.143869e+01
0	 9.142857e+00	 3.571429e-01	 1.143706e+01
0	 9.214286e+00	 0.000000e+00	 1.149685e+01
0	 9.214286e+00	 7.142857e-02	 1.149406e+01
0	 9.214286e+00	 1.428571e-01	 1.149154e+01
0	 9.214286e+00	 2.142857e-01	 1.148929e+01
0	 9.214286e+00	 2.857143e-01	 1.148731e+01
0	 9.214286e+00	 3.571429e-01	 1.148559e+01
0	 9.285714e+00	 0.000000e+00	 1.154808e+01
0	 9.285714e+00	 7.142857e-02	 1.154523e+01
0	 9.285714e+00	 1.428571e-01	 1.154264e+01
0	 9.285714e+00	 2.142857e-01	 1.154031e+01
0	 9.285714e+00	 2.857143e-01	 1.153825e+01
0	 9.285714e+00	 3.571429e-01	 1.153644e+01
0	 8.928571e+00	 3.571429e-01	 1.130538e+01
0	 8.928571e+00	 4.285714e-01	 1.129878e+01
0	 8.928571e+00	 5.000000e-01	 1.129247e+01
0	 8.928571e+00	 5.714286e-01	 1.128644e+01
0	 8.928571e+00	 6.428571e-01	 1.128069e+01
0	 8.928571e+00	 7.142857e-01	 1.127522e+01
0	 9.000000e+00	 3.571429e-01	 1.134695e+01
0	 9.000000e+00	 4.285714e-01	 1.134026e+01
0	 9.000000e+00	 5.000000e-01	 1.133384e+01
0	 9.000000e+00	 5.714286e-01	 1.132770e+01
0	 9.000000e+00	 6.428571e-01	 1.132183e+01
0	 9.000000e+00	 7.142857e-01	 1.131623e+01
0	 9.071429e+00	 3.571429e-01	 1.139085e+01
0	 9.071429e+00	 4.285714e-01	 1.138403e+01
0	 9.071429e+00	 5.000000e-01	 1.137747e+01
0	 9.071429e+00	 5.714286e-01	 1.137119e+01
0	 9.071429e+00	 6.428571e-01	 1.136517e+01
0	 9.071429e+00	 7.142857e-01	 1.135942e+01
0	 9.142857e+00	 3.571429e-01	 1.143706e+01
0	 9.142857e+00	 4.285714e-01	 1.143008e+01
0	 9.142857e+00	 5.000000e-01	 1.142336e+01
0	 9.142857e+00	 5.714286e-01	 1.141690e+01
0	 9.142857e+00	 6.428571e-01	 1.141071e+01
0	 9.142857e+00	 7.142857e-01	 1.140477e+01
0	 9.214286e+00	 3.571429e-01	 1.148559e+01
0	 9.214286e+00	 4.285714e-01	 1.147842e+01
0	 9.214286e+00	 5.000000e-01	 1.147151e+01
0	 9.214286e+00	 5.714286e-01	 1.146485e+01
0	 9.214286e+00	 6.428571e-01	 1.145845e+01
0	 9.214286e+00	 7.142857e-01	 1.145230e+01
0	 9.285714e+00	 3.571429e-01	 1.153644e+01
0	 9.285714e+00	 4.285714e-01	 1.152906e+01
0	 9.285714e+00	 5.000000e-01	 1.152192e+01
0	 9.285714e+00	 5.714286e-01	 1.151503e+01
0	 9.285714e+00	 6.428571e-01	 1.150839e+01
0	 9.285714e+00	 7.142857e-01	 1.150200e+01
0	 8.928571e+00	 7.142857e-01	 1.127522e+01
0	 8.928571e+00	 7.857143e-01	 1.126498e+01
0	 8.928571e+00	 8.571429e-01	 1.125499e+01
0	 8.928571e+00	 9.285714e-01	 1.124524e+01
0	 8.928571e+00	 1.000000e+00	 1.123575e+01
0	 8.928571e+00	 1.071429e+00	 1.122650e+01
0	 9.000000e+00	 7.142857e-01	 1.131623e+01
0	 9.000000e+00	 7.857143e-01	 1.130581e+01
0	 9.000000e+00	 8.571429e-01	 1.129564e+01
0	 9.000000e+00	 9.285714e-01	 1.128571e+01
0	 9.000000e+00	 1.000000e+00	 1.127602e+01
0	 9.000000e+00	 1.071429e+00	 1.126657e+01
0	 9.071429e+00	 7.142857e-01	 1.135942e+01
0	 9.071429e+00	 7.857143e-01	 1.134878e+01
0	 9.071429e+00	 8.571429e-01	 1.133837e+01
0	 9.071429e+00	 9.285714e-01	 1.132821e+01
0	 9.071429e+00	 1.000000e+00	 1.131828e+01
0	 9.071429e+00	 1.071429e+00	 1.130859e+01
0	 9.142857e+00	 7.142857e-01	 1.140477e+01
0	 9.142857e+00	 7.857143e-01	 1.139386e+01
0	 9.142857e+00	 8.571429e-01	 1.138318e+01
0	 9.142857e+00	 9.285714e-01	 1.137274e+01
0	 9.142857e+00	 1.000000e+00	 1.136252e+01
0	 9.142857e+00	 1.071429e+00	 1.135254e+01
0	 9.214286e+00	 7.142857e-01	 1.145230e+01
0	 9.214286e+00	 7.857143e-01	 1.144107e+01
0	 9.214286e+00	 8.571429e-01	 1.143007e+01
0	 9.214286e+00	 9.285714e-01	 1.141930e+01
0	 9.214286e+00	 1.000000e+00	 1.140875e+01
0	 9.214286e+00	 1.071429e+00	 1.139844e+01
0	 9.285714e+00	 7.142857e-01	 1.150200e+01
0	 9.285714e+00	 7.857143e-01	 1.149041e+01
0	 9.285714e+00	 8.571429e-01	 1.147904e+01
0	 9.285714e+00	 9.285714e-01	 1.146789e+01
0	 9.285714e+00	 1.000000e+00	 1.145697e+01
0	 9.285714e+00	 1.071429e+00	 1.144627e+01
0	 8.928571e+00	 1.071429e+00	 1.122650e+01
0	 8.928571e+00	 1.142857e+00	 1.121308e+01
0	 8.928571e+00	 1.214286e+00	 1.119986e+01
0	 8.928571e+00	 1.285714e+00	 1.118684e+01
0	 8.928571e+00	 1.357143e+00	 1.117403e+01
0	 8.928571e+00	 1.428571e+00	 1.116142e+01
0	 9.000000e+00	 1.071429e+00	 1.126657e+01
0	 9.000000e+00	 1.142857e+00	 1.125289e+01
0	 9.000000e+00	 1.214286e+00	 1.123941e+01
0	 9.000000e+00	 1.285714e+00	 1.122613e+01
0	 9.000000e+00	 1.357143e+00	 1.121306e+01
0	 9.000000e+00	 1.428571e+00	 1.120018e+01
0	 9.071429e+00	 1.071429e+00	 1.130859e+01
0	 9.071429e+00	 1.142857e+00	 1.129459e+01
0	 9.071429e+00	 1.214286e+00	 1.128079e+01
0	 9.071429e+00	 1.285714e+00	 1.126719e+01
0	 9.071429e+00	 1.357143e+00	 1.125378e+01
0	 9.071429e+00	 1.428571e+00	 1.124058e+01
0	 9.142857e+00	 1.071429e+00	 1.135254e+01
0	 9.142857e+00	 1.142857e+00	 1.133817e+01
0	 9.142857e+00	 1.214286e+00	 1.132399e+01
0	 9.142857e+00	 1.285714e+00	 1.131000e+01
0	 9.142857e+00	 1.357143e+00	 1.129621e+01
0	 9.142857e+00	 1.428571e+00	 1.128262e+01
0	 9.214286e+00	 1.071429e+00	 1.139844e+01
0	 9.214286e+00	 1.142857e+00	 1.138363e+01
0	 9.214286e+00	 1.214286e+00	 1.136901e+01
0	 9.214286e+00	 1.285714e+00	 1.135458e+01
0	 9.214286e+00	 1.357143e+00	 1.134034e+01
0	 9.214286e+00	 1.428571e+00	 1.132629e+01
0	 9.285714e+00	 1.071429e+00	 1.144627e+01
0	 9.285714e+00	 1.142857e+00	 1.143096e+01
0	 9.285714e+00	 1.214286e+00	 1.141584e+01
0	 9.285714e+00	 1.285714e+00	 1.140091e+01
0	 9.285714e+00	 1.357143e+00	 1.138617e+01
0	 9.285714e+00	 1.428571e+00	 1.137161e+01
0	 8.928571e+00	 1.428571e+00	 1.116142e+01
0	 8.928571e+00	 1.500000e+00	 1.114539e+01
0	 8.928571e+00	 1.571429e+00	 1.112951e+01
0	 8.928571e+00	 1.642857e+00	 1.111378e+01
0	 8.928571e+00	 1.714286e+00	 1.109820e+01
0	 8.928571e+00	 1.785714e+00	 1.108278e+01
0	 9.000000e+00	 1.428571e+00	 1.120018e+01
0	 9.000000e+00	 1.500000e+00	 1.118381e+01
0	 9.000000e+00	 1.571429e+00	 1.116760e+01
0	 9.000000e+00	 1.642857e+00	 1.115154e+01
0	 9.000000e+00	 1.714286e+00	 1.113562e+01
0	 9.000000e+00	 1.785714e+00	 1.111986e+01
0	 9.071429e+00	 1.428571e+00	 1.124058e+01
0	 9.071429e+00	 1.500000e+00	 1.122381e+01
0	 9.071429e+00	 1.571429e+00	 1.120719e+01
0	 9.071429e+00	 1.642857e+00	 1.119072e+01
0	 9.071429e+00	 1.714286e+00	 1.117440e+01
0	 9.071429e+00	 1.785714e+00	 1.115823e+01
0	 9.142857e+00	 1.428571e+00	 1.128262e+01
0	 9.142857e+00	 1.500000e+00	 1.126537e+01
0	 9.142857e+00	 1.571429e+00	 1.124828e+01
0	 9.142857e+00	 1.642857e+00	 1.123133e+01
0	 9.142857e+00	 1.714286e+00	 1.121454e+01
0	 9.142857e+00	 1.785714e+00	 1.119789e+01
0	 9.214286e+00	 1.428571e+00	 1.132629e+01
0	 9.214286e+00	 1.500000e+00	 1.130851e+01
0	 9.214286e+00	 1.571429e+00	 1.129087e+01
0	 9.214286e+00	 1.642857e+00	 1.127338e+01
0	 9.214286e+00	 1.714286e+00	 1.125604e+01
0	 9.214286e+00	 1.785714e+00	 1.123884e+01
0	 9.285714e+00	 1.428571e+00	 1.137161e+01
0	 9.285714e+00	 1.500000e+00	 1.135321e+01
0	 9.285714e+00	 1.571429e+00	 1.133496e+01
0	 9.285714e+00	 1.642857e+00	 1.131685e+01
0	 9.285714e+00	 1.714286e+00	 1.129889e+01
0	 9.285714e+00	 1.785714e+00	 1.128108e+01
0	 8.928571e+00	 1.785714e+00	 1.108278e+01
0	 8.928571e+00	 1.857143e+00	 1.106479e+01
0	 8.928571e+00	 1.928571e+00	 1.104690e+01
0	 8.928571e+00	 2.000000e+00	 1.102911e+01
0	 8.928571e+00	 2.071429e+00	 1.101141e+01
0	 8.928571e+00	 2.142857e+00	 1.099380e+01
0	 9.000000e+00	 1.785714e+00	 1.111986e+01
0	 9.000000e+00	 1.857143e+00	 1.110147e+01
0	 9.000000e+00	 1.928571e+00	 1.108317e+01
0	 9.000000e+00	 2.000000e+00	 1.106497e+01
0	 9.000000e+00	 2.071429e+00	 1.104686e+01
0	 9.000000e+00	 2.142857e+00	 1.102885e+01
0	 9.071429e+00	 1.785714e+00	 1.115823e+01
0	 9.071429e+00	 1.857143e+00	 1.113935e+01
0	 9.071429e+00	 1.928571e+00	 1.112058e+01
0	 9.071429e+00	 2.000000e+00	 1.110189e+01
0	 9.071429e+00	 2.071429e+00	 1.108331e+01
0	 9.071429e+00	 2.142857e+00	 1.106482e+01
0	 9.142857e+00	 1.785714e+00	 1.119789e+01
0	 9.142857e+00	 1.857143e+00	 1.117846e+01
0	 9.142857e+00	 1.928571e+00	 1.115912e+01
0	 9.142857e+00	 2.000000e+00	 1.113988e+01
0	 9.142857e+00	 2.071429e+00	 1.112075e+01
0	 9.142857e+00	 2.142857e+00	 1.110171e+01
0	 9.214286e+00	 1.785714e+00	 1.123884e+01
0	 9.214286e+00	 1.857143e+00	 1.121877e+01
0	 9.214286e+00	 1.928571e+00	 1.119881e+01
0	 9.214286e+00	 2.000000e+00	 1.117894e+01
0	 9.214286e+00	 2.071429e+00	 1.115917e+01
0	 9.214286e+00	 2.142857e+00	 1.113951e+01
0	 9.285714e+00	 1.785714e+00	 1.128108e+01
0	 9.285714e+00	 1.857143e+00	 1.126031e+01
0	 9.285714e+00	 1.928571e+00	 1.123963e+01
0	 9.285714e+00	 2.000000e+00	 1.121906e+01
0	 9.285714e+00	 2.071429e+00	 1.119859e+01
0	 9.285714e+00	 2.142857e+00	 1.117822e+01
0	 8.928571e+00	 2.142857e+00	 1.099380e+01
0	 8.928571e+00	 2.214286e+00	 1.097454e+01
0	 8.928571e+00	 2.285714e+00	 1.095532e+01
0	 8.928571e+00	 2.357143e+00	 1.093614e+01
0	 8.928571e+00	 2.428571e+00	 1.091700e+01
0	 8.928571e+00	 2.500000e+00	 1.089789e+01
0	 9.000000e+00	 2.142857e+00	 1.102885e+01
0	 9.000000e+00	 2.214286e+00	 1.100912e+01
0	 9.000000e+00	 2.285714e+00	 1.098943e+01
0	 9.000000e+00	 2.357143e+00	 1.096978e+01
0	 9.000000e+00	 2.428571e+00	 1.095017e+01
0	 9.000000e+00	 2.500000e+00	 1.093061e+01
0	 9.071429e+00	 2.142857e+00	 1.106482e+01
0	 9.071429e+00	 2.214286e+00	 1.104454e+01
0	 9.071429e+00	 2.285714e+00	 1.102430e+01
0	 9.071429e+00	 2.357143e+00	 1.100411e+01
0	 9.071429e+00	 2.428571e+00	 1.098396e+01
0	 9.071429e+00	 2.500000e+00	 1.096386e+01
0	 9.142857e+00	 2.142857e+00	 1.110171e+01
0	 9.142857e+00	 2.214286e+00	 1.108080e+01
0	 9.142857e+00	 2.285714e+00	 1.105994e+01
0	 9.142857e+00	 2.357143e+00	 1.103912e+01
0	 9.142857e+00	 2.428571e+00	 1.101836e+01
0	 9.142857e+00	 2.500000e+00	 1.099764e+01
0	 9.214286e+00	 2.142857e+00	 1.113951e+01
0	 9.214286e+00	 2.214286e+00	 1.111789e+01
0	 9.214286e+00	 2.285714e+00	 1.109633e+01
0	 9.214286e+00	 2.357143e+00	 1.107483e+01
0	 9.214286e+00	 2.428571e+00	 1.105337e+01
0	 9.214286e+00	 2.500000e+00	 1.103196e+01
0	 9.285714e+00	 2.142857e+00	 1.117822e+01
0	 9.285714e+00	 2.214286e+00	 1.115583e+01
0	 9.285714e+00	 2.285714e+00	 1.113349e+01
0	 9.285714e+00	 2.357143e+00	 1.111121e+01
0	 9.285714e+00	 2.428571e+00	 1.108899e+01
0	 9.285714e+00	 2.500000e+00	 1.106682e+01
0	 8.928571e+00	 2.500000e+00	 1.089789e+01
0	 8.928571e+00	 2.571429e+00	 1.087802e+01
0	 8.928571e+00	 2.642857e+00	 1.085814e+01
0	 8.928571e+00	 2.714286e+00	 1.083824e+01
0	 8.928571e+00	 2.785714e+00	 1.081833e+01
0	 8.928571e+00	 2.857143e+00	 1.079841e+01
0	 9.000000e+00	 2.500000e+00	 1.093061e+01
0	 9.000000e+00	 2.571429e+00	 1.091021e+01
0	 9.000000e+00	 2.642857e+00	 1.088980e+01
0	 9.000000e+00	 2.714286e+00	 1.086938e+01
0	 9.000000e+00	 2.785714e+00	 1.084896e+01
0	 9.000000e+00	 2.857143e+00	 1.082853e+01
0	 9.071429e+00	 2.500000e+00	 1.096386e+01
0	 9.071429e+00	 2.571429e+00	 1.094286e+01
0	 9.071429e+00	 2.642857e+00	 1.092185e+01
0	 9.071429e+00	 2.714286e+00	 1.090084e+01
0	 9.071429e+00	 2.785714e+00	 1.087983e+01
0	 9.071429e+00	 2.857143e+00	 1.085881e+01
0	 9.142857e+00	 2.500000e+00	 1.099764e+01
0	 9.142857e+00	 2.571429e+00	 1.097597e+01
0	 9.142857e+00	 2.642857e+00	 1.095429e+01
0	 9.142857e+00	 2.714286e+00	 1.093261e+01
0	 9.142857e+00	 2.785714e+00	 1.091094e+01
0	 9.142857e+00	 2.857143e+00	 1.088927e+01
0	 9.214286e+00	 2.500000e+00	 1.103196e+01
0	 9.214286e+00	 2.571429e+00	 1.100954e+01
0	 9.214286e+00	 2.642857e+00	 1.098712e+01
0	 9.214286e+00	 2.714286e+00	 1.096470e+01
0	 9.214286e+00	 2.785714e+00	 1.094230e+01
0	 9.214286e+00	 2.857143e+00	 1.091990e+01
0	 9.285714e+00	 2.500000e+00	 1.106682e+01
0	 9.285714e+00	 2.571429e+00	 1.104357e+01
0	 9.285714e+00	 2.642857e+00	 1.102033e+01
0	 9.285714e+00	 2.714286e+00	 1.099711e+01
0	 9.285714e+00	 2.785714e+00	 1.097389e+01
0	 9.285714e+00	 2.857143e+00	 1.095069e+01
0	 8.928571e+00	 2.857143e+00	 1.079841e+01
0	 8.928571e+00	 2.928571e+00	 1.077855e+01
0	 8.928571e+00	 3.000000e+00	 1.075863e+01
0	 8.928571e+00	 3.071429e+00	 1.073865e+01
0	 8.928571e+00	 3.142857e+00	 1.071862e+01
0	 8.928571e+00	 3.214286e+00	 1.069852e+01
0	 9.000000e+00	 2.857143e+00	 1.082853e+01
0	 9.000000e+00	 2.928571e+00	 1.080809e+01
0	 9.000000e+00	 3.000000e+00	 1.078761e+01
0	 9.000000e+00	 3.071429e+00	 1.076707e+01
0	 9.000000e+00	 3.142857e+00	 1.074648e+01
0	 9.000000e+00	 3.214286e+00	 1.072584e+01
0	 9.071429e+00	 2.857143e+00	 1.085881e+01
0	 9.071429e+00	 2.928571e+00	 1.083774e+01
0	 9.071429e+00	 3.000000e+00	 1.081662e+01
0	 9.071429e+00	 3.071429e+00	 1.079546e+01
0	 9.071429e+00	 3.142857e+00	 1.077425e+01
0	 9.071429e+00	 3.214286e+00	 1.075299e+01
0	 9.142857e+00	 2.857143e+00	 1.088927e+01
0	 9.142857e+00	 2.928571e+00	 1.086749e+01
0	 9.142857e+00	 3.000000e+00	 1.084567e+01
0	 9.142857e+00	 3.071429e+00	 1.082382e+01
0	 9.142857e+00	 3.142857e+00	 1.080192e+01
0	 9.142857e+00	 3.214286e+00	 1.077998e+01
0	 9.214286e+00	 2.857143e+00	 1.091990e+01
0	 9.214286e+00	 2.928571e+00	 1.089735e+01
0	 9.214286e+00	 3.000000e+00	 1.087476e+01
0	 9.214286e+00	 3.071429e+00	 1.085214e+01
0	 9.214286e+00	 3.142857e+00	 1.082949e+01
0	 9.214286e+00	 3.214286e+00	 1.080681e+01
0	 9.285714e+00	 2.857143e+00	 1.095069e+01
0	 9.285714e+00	 2.928571e+00	 1.092730e+01
0	 9.285714e+00	 3.000000e+00	 1.090389e+01
0	 9.285714e+00	 3.071429e+00	 1.088044e+01
0	 9.285714e+00	 3.142857e+00	 1.085697e+01
0	 9.285714e+00	 3.214286e+00	 1.083347e+01
0	 8.928571e+00	 3.214286e+00	 1.069852e+01
0	 8.928571e+00	 3.285714e+00	 1.067921e+01
0	 8.928571e+00	 3.357143e+00	 1.065980e+01
0	 8.928571e+00	 3.428571e+00	 1.064030e+01
0	 8.928571e+00	 3.500000e+00	 1.062070e+01
0	 8.928571e+00	 3.571429e+00	 1.060102e+01
0	 9.000000e+00	 3.214286e+00	 1.072584e+01
0	 9.000000e+00	 3.285714e+00	 1.070592e+01
0	 9.000000e+00	 3.357143e+00	 1.068592e+01
0	 9.000000e+00	 3.428571e+00	 1.066584e+01
0	 9.000000e+00	 3.500000e+00	 1.064566e+01
0	 9.000000e+00	 3.571429e+00	 1.062541e+01
0	 9.071429e+00	 3.214286e+00	 1.075299e+01
0	 9.071429e+00	 3.285714e+00	 1.073242e+01
0	 9.071429e+00	 3.357143e+00	 1.071177e+01
0	 9.071429e+00	 3.428571e+00	 1.069104e+01
0	 9.071429e+00	 3.500000e+00	 1.067023e+01
0	 9.071429e+00	 3.571429e+00	 1.064934e+01
0	 9.142857e+00	 3.214286e+00	 1.077998e+01
0	 9.142857e+00	 3.285714e+00	 1.075870e+01
0	 9.142857e+00	 3.357143e+00	 1.073734e+01
0	 9.142857e+00	 3.428571e+00	 1.071591e+01
0	 9.142857e+00	 3.500000e+00	 1.069441e+01
0	 9.142857e+00	 3.571429e+00	 1.067283e+01
0	 9.214286e+00	 3.214286e+00	 1.080681e+01
0	 9.214286e+00	 3.285714e+00	 1.078475e+01
0	 9.214286e+00	 3.357143e+00	 1.076263e+01
0	 9.214286e+00	 3.428571e+00	 1.074044e+01
0	 9.214286e+00	 3.500000e+00	 1.071818e+01
0	 9.214286e+00	 3.571429e+00	 1.069586e+01
0	 9.285714e+00	 3.214286e+00	 1.083347e+01
0	 9.285714e+00	 3.285714e+00	 1.081058e+01
0	 9.285714e+00	 3.357143e+00	 1.078764e+01
0	 9.285714e+00	 3.428571e+00	 1.076463e+01
0	 9.285714e+00	 3.500000e+00	 1.074157e+01
0	 9.285714e+00	 3.571429e+00	 1.071844e+01
0	 8.928571e+00	 3.571429e+00	 1.060102e+01
0	 8.928571e+00	 3.642857e+00	 1.058269e+01
0	 8.928571e+00	 3.714286e+00	 1.056425e+01
0	 8.928571e+00	 3.785714e+00	 1.054570e+01
0	 8.928571e+00	 3.857143e+00	 1.052702e+01
0	 8.928571e+00	 3.928571e+00	 1.050823e+01
0	 9.000000e+00	 3.571429e+00	 1.062541e+01
0	 9.000000e+00	 3.642857e+00	 1.060648e+01
0	 9.000000e+00	 3.714286e+00	 1.058744e+01
0	 9.000000e+00	 3.785714e+00	 1.056829e+01
0	 9.000000e+00	 3.857143e+00	 1.054902e+01
0	 9.000000e+00	 3.928571e+00	 1.052965e+01
0	 9.071429e+00	 3.571429e+00	 1.064934e+01
0	 9.071429e+00	 3.642857e+00	 1.062976e+01
0	 9.071429e+00	 3.714286e+00	 1.061007e+01
0	 9.071429e+00	 3.785714e+00	 1.059028e+01
0	 9.071429e+00	 3.857143e+00	 1.057038e+01
0	 9.071429e+00	 3.928571e+00	 1.055038e+01
0	 9.142857e+00	 3.571429e+00	 1.067283e+01
0	 9.142857e+00	 3.642857e+00	 1.065254e+01
0	 9.142857e+00	 3.714286e+00	 1.063216e+01
0	 9.142857e+00	 3.785714e+00	 1.061168e+01
0	 9.142857e+00	 3.857143e+00	 1.059109e+01
0	 9.142857e+00	 3.928571e+00	 1.057041e+01
0	 9.214286e+00	 3.571429e+00	 1.069586e+01
0	 9.214286e+00	 3.642857e+00	 1.067483e+01
0	 9.214286e+00	 3.714286e+00	 1.065370e+01
0	 9.214286e+00	 3.785714e+00	 1.063248e+01
0	 9.214286e+00	 3.857143e+00	 1.061117e+01
0	 9.214286e+00	 3.928571e+00	 1.058976e+01
0	 9.285714e+00	 3.571429e+00	 1.071844e+01
0	 9.285714e+00	 3.642857e+00	 1.069661e+01
0	 9.285714e+00	 3.714286e+00	 1.067469e+01
0	 9.285714e+00	 3.785714e+00	 1.065268e+01
0	 9.285714e+00	 3.857143e+00	 1.063059e+01
0	 9.285714e+00	 3.928571e+00	 1.060842e+01
0	 8.928571e+00	 3.928571e+00	 1.050823e+01
0	 8.928571e+00	 4.000000e+00	 1.049126e+01
0	 8.928571e+00	 4.071429e+00	 1.047415e+01
0	 8.928571e+00	 4.142857e+00	 1.045690e+01
0	 8.928571e+00	 4.214286e+00	 1.043953e+01
0	 8.928571e+00	 4.285714e+00	 1.042202e+01
0	 9.000000e+00	 3.928571e+00	 1.052965e+01
0	 9.000000e+00	 4.000000e+00	 1.051207e+01
0	 9.000000e+00	 4.071429e+00	 1.049437e+01
0	 9.000000e+00	 4.142857e+00	 1.047654e+01
0	 9.000000e+00	 4.214286e+00	 1.045858e+01
0	 9.000000e+00	 4.285714e+00	 1.044049e+01
0	 9.071429e+00	 3.928571e+00	 1.055038e+01
0	 9.071429e+00	 4.000000e+00	 1.053217e+01
0	 9.071429e+00	 4.071429e+00	 1.051383e+01
0	 9.071429e+00	 4.142857e+00	 1.049537e+01
0	 9.071429e+00	 4.214286e+00	 1.047680e+01
0	 9.071429e+00	 4.285714e+00	 1.045810e+01
0	 9.142857e+00	 3.928571e+00	 1.057041e+01
0	 9.142857e+00	 4.000000e+00	 1.055153e+01
0	 9.142857e+00	 4.071429e+00	 1.053253e+01
0	 9.142857e+00	 4.142857e+00	 1.051341e+01
0	 9.142857e+00	 4.214286e+00	 1.049418e+01
0	 9.142857e+00	 4.285714e+00	 1.047483e+01
0	 9.214286e+00	 3.928571e+00	 1.058976e+01
0	 9.214286e+00	 4.000000e+00	 1.057017e+01
0	 9.214286e+00	 4.071429e+00	 1.055046e+01
0	 9.214286e+00	 4.142857e+00	 1.053065e+01
0	 9.214286e+00	 4.214286e+00	 1.051073e+01
0	 9.214286e+00	 4.285714e+00	 1.049069e+01
0	 9.285714e+00	 3.928571e+00	 1.060842e+01
0	 9.285714e+00	 4.000000e+00	 1.058808e+01
0	 9.285714e+00	 4.071429e+00	 1.056764e+01
0	 9.285714e+00	 4.142857e+00	 1.054709e+01
0	 9.285714e+00	 4.214286e+00	 1.052644e+01
0	 9.285714e+00	 4.285714e+00	 1.050568e+01
0	 8.928571e+00	 4.285714e+00	 1.042202e+01
0	 8.928571e+00	 4.357143e+00	 1.040663e+01
0	 8.928571e+00	 4.428571e+00	 1.039111e+01
0	 8.928571e+00	 4.500000e+00	 1.037544e+01
0	 8.928571e+00	 4.571429e+00	 1.035964e+01
0	 8.928571e+00	 4.642857e+00	 1.034370e+01
0	 9.000000e+00	 4.285714e+00	 1.044049e+01
0	 9.000000e+00	 4.357143e+00	 1.042453e+01
0	 9.000000e+00	 4.428571e+00	 1.040844e+01
0	 9.000000e+00	 4.500000e+00	 1.039221e+01
0	 9.000000e+00	 4.571429e+00	 1.037584e+01
0	 9.000000e+00	 4.642857e+00	 1.035934e+01
0	 9.071429e+00	 4.285714e+00	 1.045810e+01
0	 9.071429e+00	 4.357143e+00	 1.044154e+01
0	 9.071429e+00	 4.428571e+00	 1.042484e+01
0	 9.071429e+00	 4.500000e+00	 1.040802e+01
0	 9.071429e+00	 4.571429e+00	 1.039107e+01
0	 9.071429e+00	 4.642857e+00	 1.037399e+01
0	 9.142857e+00	 4.285714e+00	 1.047483e+01
0	 9.142857e+00	 4.357143e+00	 1.045764e+01
0	 9.142857e+00	 4.428571e+00	 1.044033e+01
0	 9.142857e+00	 4.500000e+00	 1.042289e+01
0	 9.142857e+00	 4.571429e+00	 1.040532e+01
0	 9.142857e+00	 4.642857e+00	 1.038763e+01
0	 9.214286e+00	 4.285714e+00	 1.049069e+01
0	 9.214286e+00	 4.357143e+00	 1.047285e+01
0	 9.214286e+00	 4.428571e+00	 1.045489e+01
0	 9.214286e+00	 4.500000e+00	 1.043681e+01
0	 9.214286e+00	 4.571429e+00	 1.041861e+01
0	 9.214286e+00	 4.642857e+00	 1.040028e+01
0	 9.285714e+00	 4.285714e+00	 1.050568e+01
0	 9.285714e+00	 4.357143e+00	 1.048716e+01
0	 9.285714e+00	 4.428571e+00	 1.046853e+01
0	 9.285714e+00	 4.500000e+00	 1.044978e+01
0	 9.285714e+00	 4.571429e+00	 1.043092e+01
0	 9.285714e+00	 4.642857e+00	 1.041193e+01
0	 8.928571e+00	 4.642857e+00	 1.034370e+01
0	 8.928571e+00	 4.714286e+00	 1.033006e+01
0	 8.928571e+00	 4.785714e+00	 1.031628e+01
0	 8.928571e+00	 4.857143e+00	 1.030237e+01
0	 8.928571e+00	 4.928571e+00	 1.028831e+01
0	 8.928571e+00	 5.000000e+00	 1.027412e+01
0	 9.000000e+00	 4.642857e+00	 1.035934e+01
0	 9.000000e+00	 4.714286e+00	 1.034516e+01
0	 9.000000e+00	 4.785714e+00	 1.033085e+01
0	 9.000000e+00	 4.857143e+00	 1.031640e+01
0	 9.000000e+00	 4.928571e+00	 1.030182e+01
0	 9.000000e+00	 5.000000e+00	 1.028710e+01
0	 9.071429e+00	 4.642857e+00	 1.037399e+01
0	 9.071429e+00	 4.714286e+00	 1.035926e+01
0	 9.071429e+00	 4.785714e+00	 1.034439e+01
0	 9.071429e+00	 4.857143e+00	 1.032940e+01
0	 9.071429e+00	 4.928571e+00	 1.031427e+01
0	 9.071429e+00	 5.000000e+00	 1.029901e+01
0	 9.142857e+00	 4.642857e+00	 1.038763e+01
0	 9.142857e+00	 4.714286e+00	 1.037233e+01
0	 9.142857e+00	 4.785714e+00	 1.035691e+01
0	 9.142857e+00	 4.857143e+00	 1.034135e+01
0	 9.142857e+00	 4.928571e+00	 1.032566e+01
0	 9.142857e+00	 5.000000e+00	 1.030985e+01
0	 9.214286e+00	 4.642857e+00	 1.040028e+01
0	 9.214286e+00	 4.714286e+00	 1.038440e+01
0	 9.214286e+00	 4.785714e+00	 1.036839e+01
0	 9.214286e+00	 4.857143e+00	 1.035226e+01
0	 9.214286e+00	 4.928571e+00	 1.033600e+01
0	 9.214286e+00	 5.000000e+00	 1.031962e+01
0	 9.285714e+00	 4.642857e+00	 1.041193e+01
0	 9.285714e+00	 4.714286e+00	 1.039545e+01
0	 9.285714e+00	 4.785714e+00	 1.037885e+01
0	 9.285714e+00	 4.857143e+00	 1.036213e+01
0	 9.285714e+00	 4.928571e+00	 1.034528e+01
0	 9.285714e+00	 5.000000e+00	 1.032831e+01
0	 8.928571e+00	 5.000000e+00	 1.027412e+01
0	 8.928571e+00	 5.071429e+00	 1.026230e+01
0	 8.928571e+00	 5.142857e+00	 1.025034e+01
0	 8.928571e+00	 5.214286e+00	 1.023826e+01
0	 8.928571e+00	 5.285714e+00	 1.022603e+01
0	 8.928571e+00	 5.357143e+00	 1.021368e+01
0	 9.000000e+00	 5.000000e+00	 1.028710e+01
0	 9.000000e+00	 5.071429e+00	 1.027479e+01
0	 9.000000e+00	 5.142857e+00	 1.026234e+01
0	 9.000000e+00	 5.214286e+00	 1.024977e+01
0	 9.000000e+00	 5.285714e+00	 1.023706e+01
0	 9.000000e+00	 5.357143e+00	 1.022422e+01
0	 9.071429e+00	 5.000000e+00	 1.029901e+01
0	 9.071429e+00	 5.071429e+00	 1.028620e+01
0	 9.071429e+00	 5.142857e+00	 1.027326e+01
0	 9.071429e+00	 5.214286e+00	 1.026019e+01
0	 9.071429e+00	 5.285714e+00	 1.024699e+01
0	 9.071429e+00	 5.357143e+00	 1.023366e+01
0	 9.142857e+00	 5.000000e+00	 1.030985e+01
0	 9.142857e+00	 5.071429e+00	 1.029653e+01
0	 9.142857e+00	 5.142857e+00	 1.028309e+01
0	 9.142857e+00	 5.214286e+00	 1.026953e+01
0	 9.142857e+00	 5.285714e+00	 1.025583e+01
0	 9.142857e+00	 5.357143e+00	 1.024201e+01
0	 9.214286e+00	 5.000000e+00	 1.031962e+01
0	 9.214286e+00	 5.071429e+00	 1.030579e+01
0	 9.214286e+00	 5.142857e+00	 1.029185e+01
0	 9.214286e+00	 5.214286e+00	 1.027778e+01
0	 9.214286e+00	 5.285714e+00	 1.026359e+01
0	 9.214286e+00	 5.357143e+00	 1.024927e+01
0	 9.285714e+00	 5.000000e+00	 1.032831e+01
0	 9.285714e+00	 5.071429e+00	 1.031398e+01
0	 9.285714e+00	 5.142857e+00	 1.029952e+01
0	 9.285714e+00	 5.214286e+00	 1.028494e+01
0	 9.285714e+00	 5.285714e+00	 1.027025e+01
0	 9.285714e+00	 5.357143e+00	 1.025543e+01
0	 8.928571e+00	 5.357143e+00	 1.021368e+01
0	 8.928571e+00	 5.428571e+00	 1.020367e+01
0	 8.928571e+00	 5.500000e+00	 1.019354e+01
0	 8.928571e+00	 5.571429e+00	 1.018328e+01
0	 8.928571e+00	 5.642857e+00	 1.017290e+01
0	 8.928571e+00	 5.714286e+00	 1.016239e+01
0	 9.000000e+00	 5.357143e+00	 1.022422e+01
0	 9.000000e+00	 5.428571e+00	 1.021377e+01
0	 9.000000e+00	 5.500000e+00	 1.020320e+01
0	 9.000000e+00	 5.571429e+00	 1.019251e+01
0	 9.000000e+00	 5.642857e+00	 1.018169e+01
0	 9.000000e+00	 5.714286e+00	 1.017075e+01
0	 9.071429e+00	 5.357143e+00	 1.023366e+01
0	 9.071429e+00	 5.428571e+00	 1.022278e+01
0	 9.071429e+00	 5.500000e+00	 1.021177e+01
0	 9.071429e+00	 5.571429e+00	 1.020065e+01
0	 9.071429e+00	 5.642857e+00	 1.018940e+01
0	 9.071429e+00	 5.714286e+00	 1.017803e+01
0	 9.142857e+00	 5.357143e+00	 1.024201e+01
0	 9.142857e+00	 5.428571e+00	 1.023070e+01
0	 9.142857e+00	 5.500000e+00	 1.021926e+01
0	 9.142857e+00	 5.571429e+00	 1.020770e+01
0	 9.142857e+00	 5.642857e+00	 1.019603e+01
0	 9.142857e+00	 5.714286e+00	 1.018423e+01
0	 9.214286e+00	 5.357143e+00	 1.024927e+01
0	 9.214286e+00	 5.428571e+00	 1.023752e+01
0	 9.214286e+00	 5.500000e+00	 1.022566e+01
0	 9.214286e+00	 5.571429e+00	 1.021368e+01
0	 9.214286e+00	 5.642857e+00	 1.020158e+01
0	 9.214286e+00	 5.714286e+00	 1.018936e+01
0	 9.285714e+00	 5.357143e+00	 1.025543e+01
0	 9.285714e+00	 5.428571e+00	 1.024325e+01
0	 9.285714e+00	 5.500000e+00	 1.023097e+01
0	 9.285714e+00	 5.571429e+00	 1.021856e+01
0	 9.285714e+00	 5.642857e+00	 1.020604e+01
0	 9.285714e+00	 5.714286e+00	 1.019340e+01
0	 8.928571e+00	 5.714286e+00	 1.016239e+01
0	 8.928571e+00	 5.785714e+00	 1.015413e+01
0	 8.928571e+00	 5.857143e+00	 1.014575e+01
0	 8.928571e+00	 5.928571e+00	 1.013726e+01
0	 8.928571e+00	 6.000000e+00	 1.012866e+01
0	 8.928571e+00	 6.071429e+00	 1.011995e+01
0	 9.000000e+00	 5.714286e+00	 1.017075e+01
0	 9.000000e+00	 5.785714e+00	 1.016210e+01
0	 9.000000e+00	 5.857143e+00	 1.015334e+01
0	 9.000000e+00	 5.928571e+00	 1.014448e+01
0	 9.000000e+00	 6.000000e+00	 1.013550e+01
0	 9.000000e+00	 6.071429e+00	 1.012641e+01
0	 9.071429e+00	 5.714286e+00	 1.017803e+01
0	 9.071429e+00	 5.785714e+00	 1.016901e+01
0	 9.071429e+00	 5.857143e+00	 1.015988e+01
0	 9.071429e+00	 5.928571e+00	 1.015064e+01
0	 9.071429e+00	 6.000000e+00	 1.014129e+01
0	 9.071429e+00	 6.071429e+00	 1.013183e+01
0	 9.142857e+00	 5.714286e+00	 1.018423e+01
0	 9.142857e+00	 5.785714e+00	 1.017485e+01
0	 9.142857e+00	 5.857143e+00	 1.016536e+01
0	 9.142857e+00	 5.928571e+00	 1.015576e+01
0	 9.142857e+00	 6.000000e+00	 1.014606e+01
0	 9.142857e+00	 6.071429e+00	 1.013624e+01
0	 9.214286e+00	 5.714286e+00	 1.018936e+01
0	 9.214286e+00	 5.785714e+00	 1.017963e+01
0	 9.214286e+00	 5.857143e+00	 1.016979e+01
0	 9.214286e+00	 5.928571e+00	 1.015984e+01
0	 9.214286e+00	 6.000000e+00	 1.014978e+01
0	 9.214286e+00	 6.071429e+00	 1.013961e+01
0	 9.285714e+00	 5.714286e+00	 1.019340e+01
0	 9.285714e+00	 5.785714e+00	 1.018333e+01
0	 9.285714e+00	 5.857143e+00	 1.017315e+01
0	 9.285714e+00	 5.928571e+00	 1.016286e+01
0	 9.285714e+00	 6.000000e+00	 1.015247e+01
0	 9.285714e+00	 6.071429e+00	 1.014196e+01
0	 8.928571e+00	 6.071429e+00	 1.011995e+01
0	 8.928571e+00	 6.142857e+00	 1.011331e+01
0	 8.928571e+00	 6.214286e+00	 1.010657e+01
0	 8.928571e+00	 6.285714e+00	 1.009974e+01
0	 8.928571e+00	 6.357143e+00	 1.009281e+01
0	 8.928571e+00	 6.428571e+00	 1.008578e+01
0	 9.000000e+00	 6.071429e+00	 1.012641e+01
0	 9.000000e+00	 6.142857e+00	 1.011944e+01
0	 9.000000e+00	 6.214286e+00	 1.011238e+01
0	 9.000000e+00	 6.285714e+00	 1.010522e+01
0	 9.000000e+00	 6.357143e+00	 1.009797e+01
0	 9.000000e+00	 6.428571e+00	 1.009062e+01
0	 9.071429e+00	 6.071429e+00	 1.013183e+01
0	 9.071429e+00	 6.142857e+00	 1.012456e+01
0	 9.071429e+00	 6.214286e+00	 1.011719e+01
0	 9.071429e+00	 6.285714e+00	 1.010973e+01
0	 9.071429e+00	 6.357143e+00	 1.010217e+01
0	 9.071429e+00	 6.428571e+00	 1.009451e+01
0	 9.142857e+00	 6.071429e+00	 1.013624e+01
0	 9.142857e+00	 6.142857e+00	 1.012867e+01
0	 9.142857e+00	 6.214286e+00	 1.012101e+01
0	 9.142857e+00	 6.285714e+00	 1.011326e+01
0	 9.142857e+00	 6.357143e+00	 1.010540e+01
0	 9.142857e+00	 6.428571e+00	 1.009745e+01
0	 9.214286e+00	 6.071429e+00	 1.013961e+01
0	 9.214286e+00	 6.142857e+00	 1.013177e+01
0	 9.214286e+00	 6.214286e+00	 1.012384e+01
0	 9.214286e+00	 6.285714e+00	 1.011581e+01
0	 9.214286e+00	 6.357143e+00	 1.010767e+01
0	 9.214286e+00	 6.428571e+00	 1.009945e+01
0	 9.285714e+00	 6.071429e+00	 1.014196e+01
0	 9.285714e+00	 6.142857e+00	 1.013387e+01
0	 9.285714e+00	 6.214286e+00	 1.012567e+01
0	 9.285714e+00	 6.285714e+00	 1.011738e+01
0	 9.285714e+00	 6.357143e+00	 1.010899e+01
0	 9.285714e+00	 6.428571e+00	 1.010050e+01
0	 8.928571e+00	 6.428571e+00	 1.008578e+01
0	 8.928571e+00	 6.500000e+00	 1.008061e+01
0	 8.928571e+00	 6.571429e+00	 1.007536e+01
0	 8.928571e+00	 6.642857e+00	 1.007002e+01
0	 8.928571e+00	 6.714286e+00	 1.006461e+01
0	 8.928571e+00	 6.785714e+00	 1.005912e+01
0	 9.000000e+00	 6.428571e+00	 1.009062e+01
0	 9.000000e+00	 6.500000e+00	 1.008518e+01
0	 9.000000e+00	 6.571429e+00	 1.007966e+01
0	 9.000000e+00	 6.642857e+00	 1.007406e+01
0	 9.000000e+00	 6.714286e+00	 1.006837e+01
0	 9.000000e+00	 6.785714e+00	 1.006261e+01
0	 9.071429e+00	 6.428571e+00	 1.009451e+01
0	 9.071429e+00	 6.500000e+00	 1.008882e+01
0	 9.071429e+00	 6.571429e+00	 1.008305e+01
0	 9.071429e+00	 6.642857e+00	 1.007720e+01
0	 9.071429e+00	 6.714286e+00	 1.007127e+01
0	 9.071429e+00	 6.785714e+00	 1.006526e+01
0	 9.142857e+00	 6.428571e+00	 1.009745e+01
0	 9.142857e+00	 6.500000e+00	 1.009154e+01
0	 9.142857e+00	 6.571429e+00	 1.008554e+01
0	 9.142857e+00	 6.642857e+00	 1.007947e+01
0	 9.142857e+00	 6.714286e+00	 1.007331e+01
0	 9.142857e+00	 6.785714e+00	 1.006706e+01
0	 9.214286e+00	 6.428571e+00	 1.009945e+01
0	 9.214286e+00	 6.500000e+00	 1.009333e+01
0	 9.214286e+00	 6.571429e+00	 1.008713e+01
0	 9.214286e+00	 6.642857e+00	 1.008084e+01
0	 9.214286e+00	 6.714286e+00	 1.007447e+01
0	 9.214286e+00	 6.785714e+00	 1.006802e+01
0	 9.285714e+00	 6.428571e+00	 1.010050e+01
0	 9.285714e+00	 6.500000e+00	 1.009419e+01
0	 9.285714e+00	 6.571429e+00	 1.008781e+01
0	 9.285714e+00	 6.642857e+00	 1.008133e+01
0	 9.285714e+00	 6.714286e+00	 1.007478e+01
0	 9.285714e+00	 6.785714e+00	 1.006813e+01
0	 8.928571e+00	 6.785714e+00	 1.005912e+01
0	 8.928571e+00	 6.857143e+00	 1.005523e+01
0	 8.928571e+00	 6.928571e+00	 1.005128e+01
0	 8.928571e+00	 7.000000e+00	 1.004727e+01
0	 8.928571e+00	 7.071429e+00	 1.004319e+01
0	 8.928571e+00	 7.142857e+00	 1.003905e+01
0	 9.000000e+00	 6.785714e+00	 1.006261e+01
0	 9.000000e+00	 6.857143e+00	 1.005851e+01
0	 9.000000e+00	 6.928571e+00	 1.005435e+01
0	 9.000000e+00	 7.000000e+00	 1.005012e+01
0	 9.000000e+00	 7.071429e+00	 1.004582e+01
0	 9.000000e+00	 7.142857e+00	 1.004146e+01
0	 9.071429e+00	 6.785714e+00	 1.006526e+01
0	 9.071429e+00	 6.857143e+00	 1.006097e+01
0	 9.071429e+00	 6.928571e+00	 1.005661e+01
0	 9.071429e+00	 7.000000e+00	 1.005219e+01
0	 9.071429e+00	 7.071429e+00	 1.004770e+01
0	 9.071429e+00	 7.142857e+00	 1.004315e+01
0	 9.142857e+00	 6.785714e+00	 1.006706e+01
0	 9.142857e+00	 6.857143e+00	 1.006261e+01
0	 9.142857e+00	 6.928571e+00	 1.005808e+01
0	 9.142857e+00	 7.000000e+00	 1.005349e+01
0	 9.142857e+00	 7.071429e+00	 1.004883e+01
0	 9.142857e+00	 7.142857e+00	 1.004410e+01
0	 9.214286e+00	 6.785714e+00	 1.006802e+01
0	 9.214286e+00	 6.857143e+00	 1.006342e+01
0	 9.214286e+00	 6.928571e+00	 1.005875e+01
0	 9.214286e+00	 7.000000e+00	 1.005401e+01
0	 9.214286e+00	 7.071429e+00	 1.004920e+01
0	 9.214286e+00	 7.142857e+00	 1.004432e+01
0	 9.285714e+00	 6.785714e+00	 1.006813e+01
0	 9.285714e+00	 6.857143e+00	 1.006341e+01
0	 9.285714e+00	 6.928571e+00	 1.005862e+01
0	 9.285714e+00	 7.000000e+00	 1.005375e+01
0	 9.285714e+00	 7.071429e+00	 1.004882e+01
0	 9.285714e+00	 7.142857e+00	 1.004381e+01
0	 8.928571e+00	 7.142857e+00	 1.003905e+01
0	 8.928571e+00	 7.214286e+00	 1.003625e+01
0	 8.928571e+00	 7.285714e+00	 1.003340e+01
0	 8.928571e+00	 7.357143e+00	 1.003051e+01
0	 8.928571e+00	 7.428571e+00	 1.002757e+01
0	 8.928571e+00	 7.500000e+00	 1.002458e+01
0	 9.000000e+00	 7.142857e+00	 1.004146e+01
0	 9.000000e+00	 7.214286e+00	 1.003850e+01
0	 9.000000e+00	 7.285714e+00	 1.003549e+01
0	 9.000000e+00	 7.357143e+00	 1.003242e+01
0	 9.000000e+00	 7.428571e+00	 1.002931e+01
0	 9.000000e+00	 7.500000e+00	 1.002615e+01
0	 9.071429e+00	 7.142857e+00	 1.004315e+01
0	 9.071429e+00	 7.214286e+00	 1.004004e+01
0	 9.071429e+00	 7.285714e+00	 1.003689e+01
0	 9.071429e+00	 7.357143e+00	 1.003368e+01
0	 9.071429e+00	 7.428571e+00	 1.003042e+01
0	 9.071429e+00	 7.500000e+00	 1.002711e+01
0	 9.142857e+00	 7.142857e+00	 1.004410e+01
0	 9.142857e+00	 7.214286e+00	 1.004088e+01
0	 9.142857e+00	 7.285714e+00	 1.003760e+01
0	 9.142857e+00	 7.357143e+00	 1.003428e+01
0	 9.142857e+00	 7.428571e+00	 1.003090e+01
0	 9.142857e+00	 7.500000e+00	 1.002747e+01
0	 9.214286e+00	 7.142857e+00	 1.004432e+01
0	 9.214286e+00	 7.214286e+00	 1.004101e+01
0	 9.214286e+00	 7.285714e+00	 1.003764e+01
0	 9.214286e+00	 7.357143e+00	 1.003422e+01
0	 9.214286e+00	 7.428571e+00	 1.003074e+01
0	 9.214286e+00	 7.500000e+00	 1.002721e+01
0	 9.285714e+00	 7.142857e+00	 1.004381e+01
0	 9.285714e+00	 7.214286e+00	 1.004043e+01
0	 9.285714e+00	 7.285714e+00	 1.003699e+01
0	 9.285714e+00	 7.357143e+00	 1.003350e+01
0	 9.285714e+00	 7.428571e+00	 1.002995e+01
0	 9.285714e+00	 7.500000e+00	 1.002635e+01
0	 8.928571e+00	 7.500000e+00	 1.002458e+01
0	 8.928571e+00	 7.571429e+00	 1.002266e+01
0	 8.928571e+00	 7.642857e+00	 1.002071e+01
0	 8.928571e+00	 7.714286e+00	 1.001873e+01
0	 8.928571e+00	 7.785714e+00	 1.001672e+01
0	 8.928571e+00	 7.857143e+00	 1.001467e+01
0	 9.000000e+00	 7.500000e+00	 1.002615e+01
0	 9.000000e+00	 7.571429e+00	 1.002411e+01
0	 9.000000e+00	 7.642857e+00	 1.002204e+01
0	 9.000000e+00	 7.714286e+00	 1.001993e+01
0	 9.000000e+00	 7.785714e+00	 1.001779e+01
0	 9.000000e+00	 7.857143e+00	 1.001561e+01
0	 9.071429e+00	 7.500000e+00	 1.002711e+01
0	 9.071429e+00	 7.571429e+00	 1.002498e+01
0	 9.071429e+00	 7.642857e+00	 1.002280e+01
0	 9.071429e+00	 7.714286e+00	 1.002059e+01
0	 9.071429e+00	 7.785714e+00	 1.001835e+01
0	 9.071429e+00	 7.857143e+00	 1.001607e+01
0	 9.142857e+00	 7.500000e+00	 1.002747e+01
0	 9.142857e+00	 7.571429e+00	 1.002526e+01
0	 9.142857e+00	 7.642857e+00	 1.002301e+01
0	 9.142857e+00	 7.714286e+00	 1.002072e+01
0	 9.142857e+00	 7.785714e+00	 1.001840e+01
0	 9.142857e+00	 7.857143e+00	 1.001604e+01
0	 9.214286e+00	 7.500000e+00	 1.002721e+01
0	 9.214286e+00	 7.571429e+00	 1.002495e+01
0	 9.214286e+00	 7.642857e+00	 1.002266e+01
0	 9.214286e+00	 7.714286e+00	 1.002032e+01
0	 9.214286e+00	 7.785714e+00	 1.001794e+01
0	 9.214286e+00	 7.857143e+00	 1.001552e+01
0	 9.285714e+00	 7.500000e+00	 1.002635e+01
0	 9.285714e+00	 7.571429e+00	 1.002407e+01
0	 9.285714e+00	 7.642857e+00	 1.002174e+01
0	 9.285714e+00	 7.714286e+00	 1.001937e+01
0	 9.285714e+00	 7.785714e+00	 1.001696e+01
0	 9.285714e+00	 7.857143e+00	 1.001451e+01
0	 8.928571e+00	 7.857143e+00	 1.001467e+01
0	 8.928571e+00	 7.928571e+00	 1.001343e+01
0	 8.928571e+00	 8.000000e+00	 1.001217e+01
0	 8.928571e+00	 8.071429e+00	 1.001090e+01
0	 8.928571e+00	 8.142857e+00	 1.000960e+01
0	 8.928571e+00	 8.214286e+00	 1.000829e+01
0	 9.000000e+00	 7.857143e+00	 1.001561e+01
0	 9.000000e+00	 7.928571e+00	 1.001429e+01
0	 9.000000e+00	 8.000000e+00	 1.001294e+01
0	 9.000000e+00	 8.071429e+00	 1.001157e+01
0	 9.000000e+00	 8.142857e+00	 1.001019e+01
0	 9.000000e+00	 8.214286e+00	 1.000878e+01
0	 9.071429e+00	 7.857143e+00	 1.001607e+01
0	 9.071429e+00	 7.928571e+00	 1.001468e+01
0	 9.071429e+00	 8.000000e+00	 1.001327e+01
0	 9.071429e+00	 8.071429e+00	 1.001184e+01
0	 9.071429e+00	 8.142857e+00	 1.001038e+01
0	 9.071429e+00	 8.214286e+00	 1.000891e+01
0	 9.142857e+00	 7.857143e+00	 1.001604e+01
0	 9.142857e+00	 7.928571e+00	 1.001461e+01
0	 9.142857e+00	 8.000000e+00	 1.001316e+01
0	 9.142857e+00	 8.071429e+00	 1.001169e+01
0	 9.142857e+00	 8.142857e+00	 1.001019e+01
0	 9.142857e+00	 8.214286e+00	 1.000866e+01
0	 9.214286e+00	 7.857143e+00	 1.001552e+01
0	 9.214286e+00	 7.928571e+00	 1.001408e+01
0	 9.214286e+00	 8.000000e+00	 1.001261e+01
0	 9.214286e+00	 8.071429e+00	 1.001112e+01
0	 9.214286e+00	 8.142857e+00	 1.000960e+01
0	 9.214286e+00	 8.214286e+00	 1.000805e+01
0	 9.285714e+00	 7.857143e+00	 1.001451e+01
0	 9.285714e+00	 7.928571e+00	 1.001308e+01
0	 9.285714e+00	 8.000000e+00	 1.001163e+01
0	 9.285714e+00	 8.071429e+00	 1.001014e+01
0	 9.285714e+00	 8.142857e+00	 1.000862e+01
0	 9.285714e+00	 8.214286e+00	 1.000708e+01
0	 8.928571e+00	 8.214286e+00	 1.000829e+01
0	 8.928571e+00	 8.285714e+00	 1.000754e+01
0	 8.928571e+00	 8.357143e+00	 1.000678e+01
0	 8.928571e+00	 8.428571e+00	 1.000601e+01
0	 8.928571e+00	 8.500000e+00	 1.000524e+01
0	 8.928571e+00	 8.571429e+00	 1.000446e+01
0	 9.000000e+00	 8.214286e+00	 1.000878e+01
0	 9.000000e+00	 8.285714e+00	 1.000797e+01
0	 9.000000e+00	 8.357143e+00	 1.000716e+01
0	 9.000000e+00	 8.428571e+00	 1.000633e+01
0	 9.000000e+00	 8.500000e+00	 1.000550e+01
0	 9.000000e+00	 8.571429e+00	 1.000465e+01
0	 9.071429e+00	 8.214286e+00	 1.000891e+01
0	 9.071429e+00	 8.285714e+00	 1.000806e+01
0	 9.071429e+00	 8.357143e+00	 1.000721e+01
0	 9.071429e+00	 8.428571e+00	 1.000635e+01
0	 9.071429e+00	 8.500000e+00	 1.000547e+01
0	 9.071429e+00	 8.571429e+00	 1.000459e+01
0	 9.142857e+00	 8.214286e+00	 1.000866e+01
0	 9.142857e+00	 8.285714e+00	 1.000781e+01
0	 9.142857e+00	 8.357143e+00	 1.000694e+01
0	 9.142857e+00	 8.428571e+00	 1.000607e+01
0	 9.142857e+00	 8.500000e+00	 1.000517e+01
0	 9.142857e+00	 8.571429e+00	 1.000427e+01
0	 9.214286e+00	 8.214286e+00	 1.000805e+01
0	 9.214286e+00	 8.285714e+00	 1.000721e+01
0	 9.214286e+00	 8.357143e+00	 1.000636e+01
0	 9.214286e+00	 8.428571e+00	 1.000548e+01
0	 9.214286e+00	 8.500000e+00	 1.000460e+01
0	 9.214286e+00	 8.571429e+00	 1.000369e+01
0	 9.285714e+00	 8.214286e+00	 1.000708e+01
0	 9.285714e+00	 8.285714e+00	 1.000627e+01
0	 9.285714e+00	 8.357143e+00	 1.000544e+01
0	 9.285714e+00	 8.428571e+00	 1.000460e+01
0	 9.285714e+00	 8.500000e+00	 1.000374e+01
0	 9.285714e+00	 8.571429e+00	 1.000286e+01
0	 8.928571e+00	 8.571429e+00	 1.000446e+01
0	 8.928571e+00	 8.642857e+00	 1.000402e+01
0	 8.928571e+00	 8.714286e+00	 1.000359e+01
0	 8.928571e+00	 8.785714e+00	 1.000315e+01
0	 8.928571e+00	 8.857143e+00	 1.000272e+01
0	 8.928571e+00	 8.928571e+00	 1.000229e+01
0	 9.000000e+00	 8.571429e+00	 1.000465e+01
0	 9.000000e+00	 8.642857e+00	 1.000419e+01
0	 9.000000e+00	 8.714286e+00	 1.000372e+01
0	 9.000000e+00	 8.785714e+00	 1.000325e+01
0	 9.000000e+00	 8.857143e+00	 1.000278e+01
0	 9.000000e+00	 8.928571e+00	 1.000232e+01
0	 9.071429e+00	 8.571429e+00	 1.000459e+01
0	 9.071429e+00	 8.642857e+00	 1.000411e+01
0	 9.071429e+00	 8.714286e+00	 1.000363e+01
0	 9.071429e+00	 8.785714e+00	 1.000315e+01
0	 9.071429e+00	 8.857143e+00	 1.000266e+01
0	 9.071429e+00	 8.928571e+00	 1.000218e+01
0	 9.142857e+00	 8.571429e+00	 1.000427e+01
0	 9.142857e+00	 8.642857e+00	 1.000380e+01
0	 9.142857e+00	 8.714286e+00	 1.000333e+01
0	 9.142857e+00	 8.785714e+00	 1.000285e+01
0	 9.142857e+00	 8.857143e+00	 1.000237e+01
0	 9.142857e+00	 8.928571e+00	 1.000188e+01
0	 9.214286e+00	 8.571429e+00	 1.000369e+01
0	 9.214286e+00	 8.642857e+00	 1.000325e+01
0	 9.214286e+00	 8.714286e+00	 1.000281e+01
0	 9.214286e+00	 8.785714e+00	 1.000235e+01
0	 9.214286e+00	 8.857143e+00	 1.000189e+01
0	 9.214286e+00	 8.928571e+00	 1.000142e+01
0	 9.285714e+00	 8.571429e+00	 1.000286e+01
0	 9.285714e+00	 8.642857e+00	 1.000247e+01
0	 9.285714e+00	 8.714286e+00	 1.000207e+01
0	 9.285714e+00	 8.785714e+00	 1.000166e+01
0	 9.285714e+00	 8.857143e+00	 1.000123e+01
0	 9.285714e+00	 8.928571e+00	 1.000080e+01
0	 8.928571e+00	 8.928571e+00	 1.000229e+01
0	 8.928571e+00	 9.000000e+00	 1.000204e+01
0	 8.928571e+00	 9.071429e+00	 1.000180e+01
0	 8.928571e+00	 9.142857e+00	 1.000156e+01
0	 8.928571e+00	 9.214286e+00	 1.000132e+01
0	 8.928571e+00	 9.285714e+00	 1.000109e+01
0	 9.000000e+00	 8.928571e+00	 1.000232e+01
0	 9.000000e+00	 9.000000e+00	 1.000206e+01
0	 9.000000e+00	 9.071429e+00	 1.000180e+01
0	 9.000000e+00	 9.142857e+00	 1.000155e+01
0	 9.000000e+00	 9.214286e+00	 1.000130e+01
0	 9.000000e+00	 9.285714e+00	 1.000105e+01
0	 9.071429e+00	 8.928571e+00	 1.000218e+01
0	 9.071429e+00	 9.000000e+00	 1.000193e+01
0	 9.071429e+00	 9.071429e+00	 1.000167e+01
0	 9.071429e+00	 9.142857e+00	 1.000142e+01
0	 9.071429e+00	 9.214286e+00	 1.000117e+01
0	 9.071429e+00	 9.285714e+00	 1.000093e+01
0	 9.142857e+00	 8.928571e+00	 1.000188e+01
0	 9.142857e+00	 9.000000e+00	 1.000165e+01
0	 9.142857e+00	 9.071429e+00	 1.000142e+01
0	 9.142857e+00	 9.142857e+00	 1.000118e+01
0	 9.142857e+00	 9.214286e+00	 1.000095e+01
0	 9.142857e+00	 9.285714e+00	 1.000071e+01
0	 9.214286e+00	 8.928571e+00	 1.000142e+01
0	 9.214286e+00	 9.000000e+00	 1.000123e+01
0	 9.214286e+00	 9.071429e+00	 1.000103e+01
0	 9.214286e+00	 9.142857e+00	 1.000083e+01
0	 9.214286e+00	 9.214286e+00	 1.000062e+01
0	 9.214286e+00	 9.285714e+00	 1.000041e+01
0	 9.285714e+00	 8.928571e+00	 1.000080e+01
0	 9.285714e+00	 9.000000e+00	 1.000066e+01
0	 9.285714e+00	 9.071429e+00	 1.000051e+01
0	 9.285714e+00	 9.142857e+00	 1.000036e+01
0	 9.285714e+00	 9.214286e+00	 1.000019e+01
0	 9.285714e+00	 9.285714e+00	 1.000002e+01
0	 8.928571e+00	 9.285714e+00	 1.000109e+01
0	 8.928571e+00	 9.357143e+00	 1.000093e+01
0	 8.928571e+00	 9.428571e+00	 1.000077e+01
0	 8.928571e+00	 9.500000e+00	 1.000061e+01
0	 8.928571e+00	 9.571429e+00	 1.000045e+01
0	 8.928571e+00	 9.642857e+00	 1.000029e+01
0	 9.000000e+00	 9.285714e+00	 1.000105e+01
0	 9.000000e+00	 9.357143e+00	 1.000090e+01
0	 9.000000e+00	 9.428571e+00	 1.000074e+01
0	 9.000000e+00	 9.500000e+00	 1.000059e+01
0	 9.000000e+00	 9.571429e+00	 1.000043e+01
0	 9.000000e+00	 9.642857e+00	 1.000028e+01
0	 9.071429e+00	 9.285714e+00	 1.000093e+01
0	 9.071429e+00	 9.357143e+00	 1.000079e+01
0	 9.071429e+00	 9.428571e+00	 1.000065e+01
0	 9.071429e+00	 9.500000e+00	 1.000052e+01
0	 9.071429e+00	 9.571429e+00	 1.000038e+01
0	 9.071429e+00	 9.642857e+00	 1.000024e+01
0	 9.142857e+00	 9.285714e+00	 1.000071e+01
0	 9.142857e+00	 9.357143e+00	 1.000061e+01
0	 9.142857e+00	 9.428571e+00	 1.000050e+01
0	 9.142857e+00	 9.500000e+00	 1.000039e+01
0	 9.142857e+00	 9.571429e+00	 1.000028e+01
0	 9.142857e+00	 9.642857e+00	 1.000017e+01
0	 9.214286e+00	 9.285714e+00	 1.000041e+01
0	 9.214286e+00	 9.357143e+00	 1.000035e+01
0	 9.214286e+00	 9.428571e+00	 1.000029e+01
0	 9.214286e+00	 9.500000e+00	 1.000022e+01
0	 9.214286e+00	 9.571429e+00	 1.000015e+01
0	 9.214286e+00	 9.642857e+00	 1.000008e+01
0	 9.285714e+00	 9.285714e+00	 1.000002e+01
0	 9.285714e+00	 9.357143e+00	 1.000002e+01
0	 9.285714e+00	 9.428571e+00	 1.000001e+01
0	 9.285714e+00	 9.500000e+00	 9.999993e+00
0	 9.285714e+00	 9.571429e+00	 9.999977e+00
0	 9.285714e+00	 9.642857e+00	 9.999958e+00
0	 8.928571e+00	 9.642857e+00	 1.000029e+01
0	 8.928571e+00	 9.714286e+00	 1.000026e+01
0	 8.928571e+00	 9.785714e+00	 1.000019e+01
0	 8.928571e+00	 9.857143e+00	 1.000010e+01
0	 8.928571e+00	 9.928571e+00	 9.999974e+00
0	 8.928571e+00	 1.000000e+01	 9.999824e+00
0	 9.000000e+00	 9.642857e+00	 1.000028e+01
0	 9.000000e+00	 9.714286e+00	 1.000024e+01
0	 9.000000e+00	 9.785714e+00	 1.000019e+01
0	 9.000000e+00	 9.857143e+00	 1.000011e+01
0	 9.000000e+00	 9.928571e+00	 1.000001e+01
0	 9.000000e+00	 1.000000e+01	 9.999886e+00
0	 9.071429e+00	 9.642857e+00	 1.000024e+01
0	 9.071429e+00	 9.714286e+00	 1.000021e+01
0	 9.071429e+00	 9.785714e+00	 1.000016e+01
0	 9.071429e+00	 9.857143e+00	 1.000010e+01
0	 9.071429e+00	 9.928571e+00	 1.000003e+01
0	 9.071429e+00	 1.000000e+01	 9.999938e+00
0	 9.142857e+00	 9.642857e+00	 1.000017e+01
0	 9.142857e+00	 9.714286e+00	 1.000015e+01
0	 9.142857e+00	 9.785714e+00	 1.000012e+01
0	 9.142857e+00	 9.857143e+00	 1.000008e+01
0	 9.142857e+00	 9.928571e+00	 1.000003e+01
0	 9.142857e+00	 1.000000e+01	 9.999981e+00
0	 9.214286e+00	 9.642857e+00	 1.000008e+01
0	 9.214286e+00	 9.714286e+00	 1.000007e+01
0	 9.214286e+00	 9.785714e+00	 1.000005e+01
0	 9.214286e+00	 9.857143e+00	 1.000004e+01
0	 9.214286e+00	 9.928571e+00	 1.000003e+01
0	 9.214286e+00	 1.000000e+01	 1.000001e+01
0	 9.285714e+00	 9.642857e+00	 9.999958e+00
0	 9.285714e+00	 9.714286e+00	 9.999960e+00
0	 9.285714e+00	 9.785714e+00	 9.999969e+00
0	 9.285714e+00	 9.857143e+00	 9.999985e+00
0	 9.285714e+00	 9.928571e+00	 1.000001e+01
0	 9.285714e+00	 1.000000e+01	 1.000004e+01
0	 9.285714e+00	 0.000000e+00	 1.154808e+01
0	 9.285714e+00	 7.142857e-02	 1.154523e+01
0	 9.285714e+00	 1.428571e-01	 1.154264e+01
0	 9.285714e+00	 2.142857e-01	 1.154031e+01
0	 9.285714e+00	 2.857143e-01	 1.153825e+01
0	 9.285714e+00	 3.571429e-01	 1.153644e+01
0	 9.357143e+00	 0.000000e+00	 1.159758e+01
0	 9.357143e+00	 7.142857e-02	 1.159466e+01
0	 9.357143e+00	 1.428571e-01	 1.159200e+01
0	 9.357143e+00	 2.142857e-01	 1.158961e+01
0	 9.357143e+00	 2.857143e-01	 1.158747e+01
0	 9.357143e+00	 3.571429e-01	 1.158560e+01
0	 9.428571e+00	 0.000000e+00	 1.165002e+01
0	 9.428571e+00	 7.142857e-02	 1.164702e+01
0	 9.428571e+00	 1.428571e-01	 1.164427e+01
0	 9.428571e+00	 2.142857e-01	 1.164179e+01
0	 9.428571e+00	 2.857143e-01	 1.163958e+01
0	 9.428571e+00	 3.571429e-01	 1.163762e+01
0	 9.500000e+00	 0.000000e+00	 1.170539e+01
0	 9.500000e+00	 7.142857e-02	 1.170229e+01
0	 9.500000e+00	 1.428571e-01	 1.169945e+01
0	 9.500000e+00	 2.142857e-01	 1.169688e+01
0	 9.500000e+00	 2.857143e-01	 1.169456e+01
0	 9.500000e+00	 3.571429e-01	 1.169251e+01
0	 9.571429e+00	 0.000000e+00	 1.176371e+01
0	 9.571429e+00	 7.142857e-02	 1.176050e+01
0	 9.571429e+00	 1.428571e-01	 1.175755e+01
0	 9.571429e+00	 2.142857e-01	 1.175486e+01
0	 9.571429e+00	 2.857143e-01	 1.175243e+01
0	 9.571429e+00	 3.571429e-01	 1.175027e+01
0	 9.642857e+00	 0.000000e+00	 1.182496e+01
0	 9.642857e+00	 7.142857e-02	 1.182162e+01
0	 9.642857e+00	 1.428571e-01	 1.181855e+01
0	 9.642857e+00	 2.142857e-01	 1.181573e+01
0	 9.642857e+00	 2.857143e-01	 1.181318e+01
0	 9.642857e+00	 3.571429e-01	 1.181089e+01
0	 9.285714e+00	 3.571429e-01	 1.153644e+01
0	 9.285714e+00	 4.285714e-01	 1.152906e+01
0	 9.285714e+00	 5.000000e-01	 1.152192e+01
0	 9.285714e+00	 5.714286e-01	 1.151503e+01
0	 9.285714e+00	 6.428571e-01	 1.150839e+01
0	 9.285714e+00	 7.142857e-01	 1.150200e+01
0	 9.357143e+00	 3.571429e-01	 1.158560e+01
0	 9.357143e+00	 4.285714e-01	 1.157800e+01
0	 9.357143e+00	 5.000000e-01	 1.157066e+01
0	 9.357143e+00	 5.714286e-01	 1.156356e+01
0	 9.357143e+00	 6.428571e-01	 1.155671e+01
0	 9.357143e+00	 7.142857e-01	 1.155011e+01
0	 9.428571e+00	 3.571429e-01	 1.163762e+01
0	 9.428571e+00	 4.285714e-01	 1.162978e+01
0	 9.428571e+00	 5.000000e-01	 1.162219e+01
0	 9.428571e+00	 5.714286e-01	 1.161485e+01
0	 9.428571e+00	 6.428571e-01	 1.160776e+01
0	 9.428571e+00	 7.142857e-01	 1.160092e+01
0	 9.500000e+00	 3.571429e-01	 1.169251e+01
0	 9.500000e+00	 4.285714e-01	 1.168439e+01
0	 9.500000e+00	 5.000000e-01	 1.167652e+01
0	 9.500000e+00	 5.714286e-01	 1.166890e+01
0	 9.500000e+00	 6.428571e-01	 1.166153e+01
0	 9.500000e+00	 7.142857e-01	 1.165441e+01
0	 9.571429e+00	 3.571429e-01	 1.175027e+01
0	 9.571429e+00	 4.285714e-01	 1.174183e+01
0	 9.571429e+00	 5.000000e-01	 1.173365e+01
0	 9.571429e+00	 5.714286e-01	 1.172572e+01
0	 9.571429e+00	 6.428571e-01	 1.171803e+01
0	 9.571429e+00	 7.142857e-01	 1.171060e+01
0	 9.642857e+00	 3.571429e-01	 1.181089e+01
0	 9.642857e+00	 4.285714e-01	 1.180211e+01
0	 9.642857e+00	 5.000000e-01	 1.179358e+01
0	 9.642857e+00	 5.714286e-01	 1.178530e+01
0	 9.642857e+00	 6.428571e-01	 1.177726e+01
0	 9.642857e+00	 7.142857e-01	 1.176948e+01
0	 9.285714e+00	 7.142857e-01	 1.150200e+01
0	 9.285714e+00	 7.857143e-01	 1.149041e+01
0	 9.285714e+00	 8.571429e-01	 1.147904e+01
0	 9.285714e+00	 9.285714e-01	 1.146789e+01
0	 9.285714e+00	 1.000000e+00	 1.145697e+01
0	 9.285714e+00	 1.071429e+00	 1.144627e+01
0	 9.357143e+00	 7.142857e-01	 1.155011e+01
0	 9.357143e+00	 7.857143e-01	 1.153818e+01
0	 9.357143e+00	 8.571429e-01	 1.152647e+01
0	 9.357143e+00	 9.285714e-01	 1.151499e+01
0	 9.357143e+00	 1.000000e+00	 1.150373e+01
0	 9.357143e+00	 1.071429e+00	 1.149270e+01
0	 9.428571e+00	 7.142857e-01	 1.160092e+01
0	 9.428571e+00	 7.857143e-01	 1.158859e+01
0	 9.428571e+00	 8.571429e-01	 1.157648e+01
0	 9.428571e+00	 9.285714e-01	 1.156460e+01
0	 9.428571e+00	 1.000000e+00	 1.155295e+01
0	 9.428571e+00	 1.071429e+00	 1.154152e+01
0	 9.500000e+00	 7.142857e-01	 1.165441e+01
0	 9.500000e+00	 7.857143e-01	 1.164163e+01
0	 9.500000e+00	 8.571429e-01	 1.162907e+01
0	 9.500000e+00	 9.285714e-01	 1.161673e+01
0	 9.500000e+00	 1.000000e+00	 1.160462e+01
0	 9.500000e+00	 1.071429e+00	 1.159274e+01
0	 9.571429e+00	 7.142857e-01	 1.171060e+01
0	 9.571429e+00	 7.857143e-01	 1.169730e+01
0	 9.571429e+00	 8.571429e-01	 1.168422e+01
0	 9.571429e+00	 9.285714e-01	 1.167138e+01
0	 9.571429e+00	 1.000000e+00	 1.165875e+01
0	 9.571429e+00	 1.071429e+00	 1.164636e+01
0	 9.642857e+00	 7.142857e-01	 1.176948e+01
0	 9.642857e+00	 7.857143e-01	 1.175560e+01
0	 9.642857e+00	 8.571429e-01	 1.174195e+01
0	 9.642857e+00	 9.285714e-01	 1.172853e+01
0	 9.642857e+00	 1.000000e+00	 1.171534e+01
0	 9.642857e+00	 1.071429e+00	 1.170238e+01
0	 9.285714e+00	 1.071429e+00	 1.144627e+01
0	 9.285714e+00	 1.142857e+00	 1.143096e+01
0	 9.285714e+00	 1.214286e+00	 1.141584e+01
0	 9.285714e+00	 1.285714e+00	 1.140091e+01
0	 9.285714e+00	 1.357143e+00	 1.138617e+01
0	 9.285714e+00	 1.428571e+00	 1.137161e+01
0	 9.357143e+00	 1.071429e+00	 1.149270e+01
0	 9.357143e+00	 1.142857e+00	 1.147693e+01
0	 9.357143e+00	 1.214286e+00	 1.146135e+01
0	 9.357143e+00	 1.285714e+00	 1.144595e+01
0	 9.357143e+00	 1.357143e+00	 1.143075e+01
0	 9.357143e+00	 1.428571e+00	 1.141574e+01
0	 9.428571e+00	 1.071429e+00	 1.154152e+01
0	 9.428571e+00	 1.142857e+00	 1.152521e+01
0	 9.428571e+00	 1.214286e+00	 1.150910e+01
0	 9.428571e+00	 1.285714e+00	 1.149317e+01
0	 9.428571e+00	 1.357143e+00	 1.147744e+01
0	 9.428571e+00	 1.428571e+00	 1.146190e+01
0	 9.500000e+00	 1.071429e+00	 1.159274e+01
0	 9.500000e+00	 1.142857e+00	 1.157582e+01
0	 9.500000e+00	 1.214286e+00	 1.155910e+01
0	 9.500000e+00	 1.285714e+00	 1.154257e+01
0	 9.500000e+00	 1.357143e+00	 1.152623e+01
0	 9.500000e+00	 1.428571e+00	 1.151008e+01
0	 9.571429e+00	 1.071429e+00	 1.164636e+01
0	 9.571429e+00	 1.142857e+00	 1.162876e+01
0	 9.571429e+00	 1.214286e+00	 1.161135e+01
0	 9.571429e+00	 1.285714e+00	 1.159413e+01
0	 9.571429e+00	 1.357143e+00	 1.157711e+01
0	 9.571429e+00	 1.428571e+00	 1.156028e+01
0	 9.642857e+00	 1.071429e+00	 1.170238e+01
0	 9.642857e+00	 1.142857e+00	 1.168401e+01
0	 9.642857e+00	 1.214286e+00	 1.166584e+01
0	 9.642857e+00	 1.285714e+00	 1.164787e+01
0	 9.642857e+00	 1.357143e+00	 1.163009e+01
0	 9.642857e+00	 1.428571e+00	 1.161251e+01
0	 9.285714e+00	 1.428571e+00	 1.137161e+01
0	 9.285714e+00	 1.500000e+00	 1.135321e+01
0	 9.285714e+00	 1.571429e+00	 1.133496e+01
0	 9.285714e+00	 1.642857e+00	 1.131685e+01
0	 9.285714e+00	 1.714286e+00	 1.129889e+01
0	 9.285714e+00	 1.785714e+00	 1.128108e+01
0	 9.357143e+00	 1.428571e+00	 1.141574e+01
0	 9.357143e+00	 1.500000e+00	 1.139678e+01
0	 9.357143e+00	 1.571429e+00	 1.137796e+01
0	 9.357143e+00	 1.642857e+00	 1.135929e+01
0	 9.357143e+00	 1.714286e+00	 1.134077e+01
0	 9.357143e+00	 1.785714e+00	 1.132240e+01
0	 9.428571e+00	 1.428571e+00	 1.146190e+01
0	 9.428571e+00	 1.500000e+00	 1.144228e+01
0	 9.428571e+00	 1.571429e+00	 1.142281e+01
0	 9.428571e+00	 1.642857e+00	 1.140349e+01
0	 9.428571e+00	 1.714286e+00	 1.138432e+01
0	 9.428571e+00	 1.785714e+00	 1.136530e+01
0	 9.500000e+00	 1.428571e+00	 1.151008e+01
0	 9.500000e+00	 1.500000e+00	 1.148971e+01
0	 9.500000e+00	 1.571429e+00	 1.146950e+01
0	 9.500000e+00	 1.642857e+00	 1.144945e+01
0	 9.500000e+00	 1.714286e+00	 1.142954e+01
0	 9.500000e+00	 1.785714e+00	 1.140979e+01
0	 9.571429e+00	 1.428571e+00	 1.156028e+01
0	 9.571429e+00	 1.500000e+00	 1.153909e+01
0	 9.571429e+00	 1.571429e+00	 1.151805e+01
0	 9.571429e+00	 1.642857e+00	 1.149717e+01
0	 9.571429e+00	 1.714286e+00	 1.147644e+01
0	 9.571429e+00	 1.785714e+00	 1.145586e+01
0	 9.642857e+00	 1.428571e+00	 1.161251e+01
0	 9.642857e+00	 1.500000e+00	 1.159040e+01
0	 9.642857e+00	 1.571429e+00	 1.156844e+01
0	 9.642857e+00	 1.642857e+00	 1.154665e+01
0	 9.642857e+00	 1.714286e+00	 1.152500e+01
0	 9.642857e+00	 1.785714e+00	 1.150352e+01
0	 9.285714e+00	 1.785714e+00	 1.128108e+01
0	 9.285714e+00	 1.857143e+00	 1.126031e+01
0	 9.285714e+00	 1.928571e+00	 1.123963e+01
0	 9.285714e+00	 2.000000e+00	 1.121906e+01
0	 9.285714e+00	 2.071429e+00	 1.119859e+01
0	 9.285714e+00	 2.142857e+00	 1.117822e+01
0	 9.357143e+00	 1.785714e+00	 1.132240e+01
0	 9.357143e+00	 1.857143e+00	 1.130097e+01
0	 9.357143e+00	 1.928571e+00	 1.127964e+01
0	 9.357143e+00	 2.000000e+00	 1.125842e+01
0	 9.357143e+00	 2.071429e+00	 1.123730e+01
0	 9.357143e+00	 2.142857e+00	 1.121629e+01
0	 9.428571e+00	 1.785714e+00	 1.136530e+01
0	 9.428571e+00	 1.857143e+00	 1.134312e+01
0	 9.428571e+00	 1.928571e+00	 1.132105e+01
0	 9.428571e+00	 2.000000e+00	 1.129908e+01
0	 9.428571e+00	 2.071429e+00	 1.127722e+01
0	 9.428571e+00	 2.142857e+00	 1.125547e+01
0	 9.500000e+00	 1.785714e+00	 1.140979e+01
0	 9.500000e+00	 1.857143e+00	 1.138677e+01
0	 9.500000e+00	 1.928571e+00	 1.136385e+01
0	 9.500000e+00	 2.000000e+00	 1.134105e+01
0	 9.500000e+00	 2.071429e+00	 1.131835e+01
0	 9.500000e+00	 2.142857e+00	 1.129577e+01
0	 9.571429e+00	 1.785714e+00	 1.145586e+01
0	 9.571429e+00	 1.857143e+00	 1.143190e+01
0	 9.571429e+00	 1.928571e+00	 1.140805e+01
0	 9.571429e+00	 2.000000e+00	 1.138432e+01
0	 9.571429e+00	 2.071429e+00	 1.136069e+01
0	 9.571429e+00	 2.142857e+00	 1.133718e+01
0	 9.642857e+00	 1.785714e+00	 1.150352e+01
0	 9.642857e+00	 1.857143e+00	 1.147853e+01
0	 9.642857e+00	 1.928571e+00	 1.145365e+01
0	 9.642857e+00	 2.000000e+00	 1.142889e+01
0	 9.642857e+00	 2.071429e+00	 1.140424e+01
0	 9.642857e+00	 2.142857e+00	 1.137970e+01
0	 9.285714e+00	 2.142857e+00	 1.117822e+01
0	 9.285714e+00	 2.214286e+00	 1.115583e+01
0	 9.285714e+00	 2.285714e+00	 1.113349e+01
0	 9.285714e+00	 2.357143e+00	 1.111121e+01
0	 9.285714e+00	 2.428571e+00	 1.108899e+01
0	 9.285714e+00	 2.500000e+00	 1.106682e+01
0	 9.357143e+00	 2.142857e+00	 1.121629e+01
0	 9.357143e+00	 2.214286e+00	 1.119318e+01
0	 9.357143e+00	 2.285714e+00	 1.117012e+01
0	 9.357143e+00	 2.357143e+00	 1.114713e+01
0	 9.357143e+00	 2.428571e+00	 1.112419e+01
0	 9.357143e+00	 2.500000e+00	 1.110131e+01
0	 9.428571e+00	 2.142857e+00	 1.125547e+01
0	 9.428571e+00	 2.214286e+00	 1.123154e+01
0	 9.428571e+00	 2.285714e+00	 1.120768e+01
0	 9.428571e+00	 2.357143e+00	 1.118387e+01
0	 9.428571e+00	 2.428571e+00	 1.116012e+01
0	 9.428571e+00	 2.500000e+00	 1.113644e+01
0	 9.500000e+00	 2.142857e+00	 1.129577e+01
0	 9.500000e+00	 2.214286e+00	 1.127093e+01
0	 9.500000e+00	 2.285714e+00	 1.124615e+01
0	 9.500000e+00	 2.357143e+00	 1.122144e+01
0	 9.500000e+00	 2.428571e+00	 1.119679e+01
0	 9.500000e+00	 2.500000e+00	 1.117221e+01
0	 9.571429e+00	 2.142857e+00	 1.133718e+01
0	 9.571429e+00	 2.214286e+00	 1.131133e+01
0	 9.571429e+00	 2.285714e+00	 1.128555e+01
0	 9.571429e+00	 2.357143e+00	 1.125983e+01
0	 9.571429e+00	 2.428571e+00	 1.123419e+01
0	 9.571429e+00	 2.500000e+00	 1.120861e+01
0	 9.642857e+00	 2.142857e+00	 1.137970e+01
0	 9.642857e+00	 2.214286e+00	 1.135275e+01
0	 9.642857e+00	 2.285714e+00	 1.132587e+01
0	 9.642857e+00	 2.357143e+00	 1.129906e+01
0	 9.642857e+00	 2.428571e+00	 1.127232e+01
0	 9.642857e+00	 2.500000e+00	 1.124564e+01
0	 9.285714e+00	 2.500000e+00	 1.106682e+01
0	 9.285714e+00	 2.571429e+00	 1.104357e+01
0	 9.285714e+00	 2.642857e+00	 1.102033e+01
0	 9.285714e+00	 2.714286e+00	 1.099711e+01
0	 9.285714e+00	 2.785714e+00	 1.097389e+01
0	 9.285714e+00	 2.857143e+00	 1.095069e+01
0	 9.357143e+00	 2.500000e+00	 1.110131e+01
0	 9.357143e+00	 2.571429e+00	 1.107730e+01
0	 9.357143e+00	 2.642857e+00	 1.105330e+01
0	 9.357143e+00	 2.714286e+00	 1.102932e+01
0	 9.357143e+00	 2.785714e+00	 1.100535e+01
0	 9.357143e+00	 2.857143e+00	 1.098139e+01
0	 9.428571e+00	 2.500000e+00	 1.113644e+01
0	 9.428571e+00	 2.571429e+00	 1.111157e+01
0	 9.428571e+00	 2.642857e+00	 1.108672e+01
0	 9.428571e+00	 2.714286e+00	 1.106189e+01
0	 9.428571e+00	 2.785714e+00	 1.103707e+01
0	 9.428571e+00	 2.857143e+00	 1.101227e+01
0	 9.500000e+00	 2.500000e+00	 1.117221e+01
0	 9.500000e+00	 2.571429e+00	 1.114639e+01
0	 9.500000e+00	 2.642857e+00	 1.112059e+01
0	 9.500000e+00	 2.714286e+00	 1.109482e+01
0	 9.500000e+00	 2.785714e+00	 1.106906e+01
0	 9.500000e+00	 2.857143e+00	 1.104333e+01
0	 9.571429e+00	 2.500000e+00	 1.120861e+01
0	 9.571429e+00	 2.571429e+00	 1.118175e+01
0	 9.571429e+00	 2.642857e+00	 1.115492e+01
0	 9.571429e+00	 2.714286e+00	 1.112811e+01
0	 9.571429e+00	 2.785714e+00	 1.110132e+01
0	 9.571429e+00	 2.857143e+00	 1.107456e+01
0	 9.642857e+00	 2.500000e+00	 1.124564e+01
0	 9.642857e+00	 2.571429e+00	 1.121766e+01
0	 9.642857e+00	 2.642857e+00	 1.118969e+01
0	 9.642857e+00	 2.714286e+00	 1.116176e+01
0	 9.642857e+00	 2.785714e+00	 1.113385e+01
0	 9.642857e+00	 2.857143e+00	 1.110597e+01
0	 9.285714e+00	 2.857143e+00	 1.095069e+01
0	 9.285714e+00	 2.928571e+00	 1.092730e+01
0	 9.285714e+00	 3.000000e+00	 1.090389e+01
0	 9.285714e+00	 3.071429e+00	 1.088044e+01
0	 9.285714e+00	 3.142857e+00	 1.085697e+01
0	 9.285714e+00	 3.214286e+00	 1.083347e+01
0	 9.357143e+00	 2.857143e+00	 1.098139e+01
0	 9.357143e+00	 2.928571e+00	 1.095722e+01
0	 9.357143e+00	 3.000000e+00	 1.093302e+01
0	 9.357143e+00	 3.071429e+00	 1.090880e+01
0	 9.357143e+00	 3.142857e+00	 1.088456e+01
0	 9.357143e+00	 3.214286e+00	 1.086028e+01
0	 9.428571e+00	 2.857143e+00	 1.101227e+01
0	 9.428571e+00	 2.928571e+00	 1.098723e+01
0	 9.428571e+00	 3.000000e+00	 1.096217e+01
0	 9.428571e+00	 3.071429e+00	 1.093709e+01
0	 9.428571e+00	 3.142857e+00	 1.091198e+01
0	 9.428571e+00	 3.214286e+00	 1.088686e+01
0	 9.500000e+00	 2.857143e+00	 1.104333e+01
0	 9.500000e+00	 2.928571e+00	 1.101734e+01
0	 9.500000e+00	 3.000000e+00	 1.099133e+01
0	 9.500000e+00	 3.071429e+00	 1.096530e+01
0	 9.500000e+00	 3.142857e+00	 1.093925e+01
0	 9.500000e+00	 3.214286e+00	 1.091319e+01
0	 9.571429e+00	 2.857143e+00	 1.107456e+01
0	 9.571429e+00	 2.928571e+00	 1.104754e+01
0	 9.571429e+00	 3.000000e+00	 1.102049e+01
0	 9.571429e+00	 3.071429e+00	 1.099343e+01
0	 9.571429e+00	 3.142857e+00	 1.096636e+01
0	 9.571429e+00	 3.214286e+00	 1.093927e+01
0	 9.642857e+00	 2.857143e+00	 1.110597e+01
0	 9.642857e+00	 2.928571e+00	 1.107783e+01
0	 9.642857e+00	 3.000000e+00	 1.104967e+01
0	 9.642857e+00	 3.071429e+00	 1.102150e+01
0	 9.642857e+00	 3.142857e+00	 1.099331e+01
0	 9.642857e+00	 3.214286e+00	 1.096512e+01
0	 9.285714e+00	 3.214286e+00	 1.083347e+01
0	 9.285714e+00	 3.285714e+00	 1.081058e+01
0	 9.285714e+00	 3.357143e+00	 1.078764e+01
0	 9.285714e+00	 3.428571e+00	 1.076463e+01
0	 9.285714e+00	 3.500000e+00	 1.074157e+01
0	 9.285714e+00	 3.571429e+00	 1.071844e+01
0	 9.357143e+00	 3.214286e+00	 1.086028e+01
0	 9.357143e+00	 3.285714e+00	 1.083662e+01
0	 9.357143e+00	 3.357143e+00	 1.081290e+01
0	 9.357143e+00	 3.428571e+00	 1.078912e+01
0	 9.357143e+00	 3.500000e+00	 1.076528e+01
0	 9.357143e+00	 3.571429e+00	 1.074138e+01
0	 9.428571e+00	 3.214286e+00	 1.088686e+01
0	 9.428571e+00	 3.285714e+00	 1.086234e+01
0	 9.428571e+00	 3.357143e+00	 1.083777e+01
0	 9.428571e+00	 3.428571e+00	 1.081314e+01
0	 9.428571e+00	 3.500000e+00	 1.078845e+01
0	 9.428571e+00	 3.571429e+00	 1.076372e+01
0	 9.500000e+00	 3.214286e+00	 1.091319e+01
0	 9.500000e+00	 3.285714e+00	 1.088774e+01
0	 9.500000e+00	 3.357143e+00	 1.086225e+01
0	 9.500000e+00	 3.428571e+00	 1.083670e+01
0	 9.500000e+00	 3.500000e+00	 1.081110e+01
0	 9.500000e+00	 3.571429e+00	 1.078545e+01
0	 9.571429e+00	 3.214286e+00	 1.093927e+01
0	 9.571429e+00	 3.285714e+00	 1.091283e+01
0	 9.571429e+00	 3.357143e+00	 1.088634e+01
0	 9.571429e+00	 3.428571e+00	 1.085980e+01
0	 9.571429e+00	 3.500000e+00	 1.083321e+01
0	 9.571429e+00	 3.571429e+00	 1.080657e+01
0	 9.642857e+00	 3.214286e+00	 1.096512e+01
0	 9.642857e+00	 3.285714e+00	 1.093760e+01
0	 9.642857e+00	 3.357143e+00	 1.091005e+01
0	 9.642857e+00	 3.428571e+00	 1.088244e+01
0	 9.642857e+00	 3.500000e+00	 1.085479e+01
0	 9.642857e+00	 3.571429e+00	 1.082709e+01
0	 9.285714e+00	 3.571429e+00	 1.071844e+01
0	 9.285714e+00	 3.642857e+00	 1.069661e+01
0	 9.285714e+00	 3.714286e+00	 1.067469e+01
0	 9.285714e+00	 3.785714e+00	 1.065268e+01
0	 9.285714e+00	 3.857143e+00	 1.063059e+01
0	 9.285714e+00	 3.928571e+00	 1.060842e+01
0	 9.357143e+00	 3.571429e+00	 1.074138e+01
0	 9.357143e+00	 3.642857e+00	 1.071879e+01
0	 9.357143e+00	 3.714286e+00	 1.069612e+01
0	 9.357143e+00	 3.785714e+00	 1.067337e+01
0	 9.357143e+00	 3.857143e+00	 1.065053e+01
0	 9.357143e+00	 3.928571e+00	 1.062761e+01
0	 9.428571e+00	 3.571429e+00	 1.076372e+01
0	 9.428571e+00	 3.642857e+00	 1.074032e+01
0	 9.428571e+00	 3.714286e+00	 1.071683e+01
0	 9.428571e+00	 3.785714e+00	 1.069327e+01
0	 9.428571e+00	 3.857143e+00	 1.066962e+01
0	 9.428571e+00	 3.928571e+00	 1.064589e+01
0	 9.500000e+00	 3.571429e+00	 1.078545e+01
0	 9.500000e+00	 3.642857e+00	 1.076117e+01
0	 9.500000e+00	 3.714286e+00	 1.073682e+01
0	 9.500000e+00	 3.785714e+00	 1.071239e+01
0	 9.500000e+00	 3.857143e+00	 1.068787e+01
0	 9.500000e+00	 3.928571e+00	 1.066328e+01
0	 9.571429e+00	 3.571429e+00	 1.080657e+01
0	 9.571429e+00	 3.642857e+00	 1.078136e+01
0	 9.571429e+00	 3.714286e+00	 1.075608e+01
0	 9.571429e+00	 3.785714e+00	 1.073072e+01
0	 9.571429e+00	 3.857143e+00	 1.070528e+01
0	 9.571429e+00	 3.928571e+00	 1.067976e+01
0	 9.642857e+00	 3.571429e+00	 1.082709e+01
0	 9.642857e+00	 3.642857e+00	 1.080089e+01
0	 9.642857e+00	 3.714286e+00	 1.077461e+01
0	 9.642857e+00	 3.785714e+00	 1.074826e+01
0	 9.642857e+00	 3.857143e+00	 1.072184e+01
0	 9.642857e+00	 3.928571e+00	 1.069533e+01
0	 9.285714e+00	 3.928571e+00	 1.060842e+01
0	 9.285714e+00	 4.000000e+00	 1.058808e+01
0	 9.285714e+00	 4.071429e+00	 1.056764e+01
0	 9.285714e+00	 4.142857e+00	 1.054709e+01
0	 9.285714e+00	 4.214286e+00	 1.052644e+01
0	 9.285714e+00	 4.285714e+00	 1.050568e+01
0	 9.357143e+00	 3.928571e+00	 1.062761e+01
0	 9.357143e+00	 4.000000e+00	 1.060656e+01
0	 9.357143e+00	 4.071429e+00	 1.058541e+01
0	 9.357143e+00	 4.142857e+00	 1.056415e+01
0	 9.357143e+00	 4.214286e+00	 1.054279e+01
0	 9.357143e+00	 4.285714e+00	 1.052133e+01
0	 9.428571e+00	 3.928571e+00	 1.064589e+01
0	 9.428571e+00	 4.000000e+00	 1.062409e+01
0	 9.428571e+00	 4.071429e+00	 1.060218e+01
0	 9.428571e+00	 4.142857e+00	 1.058018e+01
0	 9.428571e+00	 4.214286e+00	 1.055807e+01
0	 9.428571e+00	 4.285714e+00	 1.053585e+01
0	 9.500000e+00	 3.928571e+00	 1.066328e+01
0	 9.500000e+00	 4.000000e+00	 1.064067e+01
0	 9.500000e+00	 4.071429e+00	 1.061797e+01
0	 9.500000e+00	 4.142857e+00	 1.059516e+01
0	 9.500000e+00	 4.214286e+00	 1.057225e+01
0	 9.500000e+00	 4.285714e+00	 1.054925e+01
0	 9.571429e+00	 3.928571e+00	 1.067976e+01
0	 9.571429e+00	 4.000000e+00	 1.065631e+01
0	 9.571429e+00	 4.071429e+00	 1.063276e+01
0	 9.571429e+00	 4.142857e+00	 1.060911e+01
0	 9.571429e+00	 4.214286e+00	 1.058536e+01
0	 9.571429e+00	 4.285714e+00	 1.056151e+01
0	 9.642857e+00	 3.928571e+00	 1.069533e+01
0	 9.642857e+00	 4.000000e+00	 1.067099e+01
0	 9.642857e+00	 4.071429e+00	 1.064655e+01
0	 9.642857e+00	 4.142857e+00	 1.062201e+01
0	 9.642857e+00	 4.214286e+00	 1.059738e+01
0	 9.642857e+00	 4.285714e+00	 1.057265e+01
0	 9.285714e+00	 4.285714e+00	 1.050568e+01
0	 9.285714e+00	 4.357143e+00	 1.048716e+01
0	 9.285714e+00	 4.428571e+00	 1.046853e+01
0	 9.285714e+00	 4.500000e+00	 1.044978e+01
0	 9.285714e+00	 4.571429e+00	 1.043092e+01
0	 9.285714e+00	 4.642857e+00	 1.041193e+01
0	 9.357143e+00	 4.285714e+00	 1.052133e+01
0	 9.357143e+00	 4.357143e+00	 1.050216e+01
0	 9.357143e+00	 4.428571e+00	 1.048288e+01
0	 9.357143e+00	 4.500000e+00	 1.046348e+01
0	 9.357143e+00	 4.571429e+00	 1.044397e+01
0	 9.357143e+00	 4.642857e+00	 1.042433e+01
0	 9.428571e+00	 4.285714e+00	 1.053585e+01
0	 9.428571e+00	 4.357143e+00	 1.051600e+01
0	 9.428571e+00	 4.428571e+00	 1.049604e+01
0	 9.428571e+00	 4.500000e+00	 1.047596e+01
0	 9.428571e+00	 4.571429e+00	 1.045576e+01
0	 9.428571e+00	 4.642857e+00	 1.043545e+01
0	 9.500000e+00	 4.285714e+00	 1.054925e+01
0	 9.500000e+00	 4.357143e+00	 1.052868e+01
0	 9.500000e+00	 4.428571e+00	 1.050801e+01
0	 9.500000e+00	 4.500000e+00	 1.048721e+01
0	 9.500000e+00	 4.571429e+00	 1.046631e+01
0	 9.500000e+00	 4.642857e+00	 1.044529e+01
0	 9.571429e+00	 4.285714e+00	 1.056151e+01
0	 9.571429e+00	 4.357143e+00	 1.054020e+01
0	 9.571429e+00	 4.428571e+00	 1.051878e+01
0	 9.571429e+00	 4.500000e+00	 1.049725e+01
0	 9.571429e+00	 4.571429e+00	 1.047560e+01
0	 9.571429e+00	 4.642857e+00	 1.045384e+01
0	 9.642857e+00	 4.285714e+00	 1.057265e+01
0	 9.642857e+00	 4.357143e+00	 1.055056e+01
0	 9.642857e+00	 4.428571e+00	 1.052837e+01
0	 9.642857e+00	 4.500000e+00	 1.050606e+01
0	 9.642857e+00	 4.571429e+00	 1.048364e+01
0	 9.642857e+00	 4.642857e+00	 1.046110e+01
0	 9.285714e+00	 4.642857e+00	 1.041193e+01
0	 9.285714e+00	 4.714286e+00	 1.039545e+01
0	 9.285714e+00	 4.785714e+00	 1.037885e+01
0	 9.285714e+00	 4.857143e+00	 1.036213e+01
0	 9.285714e+00	 4.928571e+00	 1.034528e+01
0	 9.285714e+00	 5.000000e+00	 1.032831e+01
0	 9.357143e+00	 4.642857e+00	 1.042433e+01
0	 9.357143e+00	 4.714286e+00	 1.040727e+01
0	 9.357143e+00	 4.785714e+00	 1.039009e+01
0	 9.357143e+00	 4.857143e+00	 1.037278e+01
0	 9.357143e+00	 4.928571e+00	 1.035536e+01
0	 9.357143e+00	 5.000000e+00	 1.033781e+01
0	 9.428571e+00	 4.642857e+00	 1.043545e+01
0	 9.428571e+00	 4.714286e+00	 1.041779e+01
0	 9.428571e+00	 4.785714e+00	 1.040001e+01
0	 9.428571e+00	 4.857143e+00	 1.038210e+01
0	 9.428571e+00	 4.928571e+00	 1.036408e+01
0	 9.428571e+00	 5.000000e+00	 1.034593e+01
0	 9.500000e+00	 4.642857e+00	 1.044529e+01
0	 9.500000e+00	 4.714286e+00	 1.042701e+01
0	 9.500000e+00	 4.785714e+00	 1.040861e+01
0	 9.500000e+00	 4.857143e+00	 1.039009e+01
0	 9.500000e+00	 4.928571e+00	 1.037145e+01
0	 9.500000e+00	 5.000000e+00	 1.035269e+01
0	 9.571429e+00	 4.642857e+00	 1.045384e+01
0	 9.571429e+00	 4.714286e+00	 1.043493e+01
0	 9.571429e+00	 4.785714e+00	 1.041590e+01
0	 9.571429e+00	 4.857143e+00	 1.039675e+01
0	 9.571429e+00	 4.928571e+00	 1.037747e+01
0	 9.571429e+00	 5.000000e+00	 1.035807e+01
0	 9.642857e+00	 4.642857e+00	 1.046110e+01
0	 9.642857e+00	 4.714286e+00	 1.044155e+01
0	 9.642857e+00	 4.785714e+00	 1.042187e+01
0	 9.642857e+00	 4.857143e+00	 1.040206e+01
0	 9.642857e+00	 4.928571e+00	 1.038214e+01
0	 9.642857e+00	 5.000000e+00	 1.036209e+01
0	 9.285714e+00	 5.000000e+00	 1.032831e+01
0	 9.285714e+00	 5.071429e+00	 1.031398e+01
0	 9.285714e+00	 5.142857e+00	 1.029952e+01
0	 9.285714e+00	 5.214286e+00	 1.028494e+01
0	 9.285714e+00	 5.285714e+00	 1.027025e+01
0	 9.285714e+00	 5.357143e+00	 1.025543e+01
0	 9.357143e+00	 5.000000e+00	 1.033781e+01
0	 9.357143e+00	 5.071429e+00	 1.032297e+01
0	 9.357143e+00	 5.142857e+00	 1.030801e+01
0	 9.357143e+00	 5.214286e+00	 1.029292e+01
0	 9.357143e+00	 5.285714e+00	 1.027772e+01
0	 9.357143e+00	 5.357143e+00	 1.026239e+01
0	 9.428571e+00	 5.000000e+00	 1.034593e+01
0	 9.428571e+00	 5.071429e+00	 1.033058e+01
0	 9.428571e+00	 5.142857e+00	 1.031511e+01
0	 9.428571e+00	 5.214286e+00	 1.029952e+01
0	 9.428571e+00	 5.285714e+00	 1.028380e+01
0	 9.428571e+00	 5.357143e+00	 1.026797e+01
0	 9.500000e+00	 5.000000e+00	 1.035269e+01
0	 9.500000e+00	 5.071429e+00	 1.033683e+01
0	 9.500000e+00	 5.142857e+00	 1.032084e+01
0	 9.500000e+00	 5.214286e+00	 1.030473e+01
0	 9.500000e+00	 5.285714e+00	 1.028850e+01
0	 9.500000e+00	 5.357143e+00	 1.027215e+01
0	 9.571429e+00	 5.000000e+00	 1.035807e+01
0	 9.571429e+00	 5.071429e+00	 1.034170e+01
0	 9.571429e+00	 5.142857e+00	 1.032519e+01
0	 9.571429e+00	 5.214286e+00	 1.030856e+01
0	 9.571429e+00	 5.285714e+00	 1.029181e+01
0	 9.571429e+00	 5.357143e+00	 1.027494e+01
0	 9.642857e+00	 5.000000e+00	 1.036209e+01
0	 9.642857e+00	 5.071429e+00	 1.034519e+01
0	 9.642857e+00	 5.142857e+00	 1.032816e+01
0	 9.642857e+00	 5.214286e+00	 1.031101e+01
0	 9.642857e+00	 5.285714e+00	 1.029373e+01
0	 9.642857e+00	 5.357143e+00	 1.027633e+01
0	 9.285714e+00	 5.357143e+00	 1.025543e+01
0	 9.285714e+00	 5.428571e+00	 1.024325e+01
0	 9.285714e+00	 5.500000e+00	 1.023097e+01
0	 9.285714e+00	 5.571429e+00	 1.021856e+01
0	 9.285714e+00	 5.642857e+00	 1.020604e+01
0	 9.285714e+00	 5.714286e+00	 1.019340e+01
0	 9.357143e+00	 5.357143e+00	 1.026239e+01
0	 9.357143e+00	 5.428571e+00	 1.024980e+01
0	 9.357143e+00	 5.500000e+00	 1.023708e+01
0	 9.357143e+00	 5.571429e+00	 1.022425e+01
0	 9.357143e+00	 5.642857e+00	 1.021130e+01
0	 9.357143e+00	 5.714286e+00	 1.019824e+01
0	 9.428571e+00	 5.357143e+00	 1.026797e+01
0	 9.428571e+00	 5.428571e+00	 1.025495e+01
0	 9.428571e+00	 5.500000e+00	 1.024182e+01
0	 9.428571e+00	 5.571429e+00	 1.022857e+01
0	 9.428571e+00	 5.642857e+00	 1.021520e+01
0	 9.428571e+00	 5.714286e+00	 1.020171e+01
0	 9.500000e+00	 5.357143e+00	 1.027215e+01
0	 9.500000e+00	 5.428571e+00	 1.025872e+01
0	 9.500000e+00	 5.500000e+00	 1.024518e+01
0	 9.500000e+00	 5.571429e+00	 1.023151e+01
0	 9.500000e+00	 5.642857e+00	 1.021772e+01
0	 9.500000e+00	 5.714286e+00	 1.020382e+01
0	 9.571429e+00	 5.357143e+00	 1.027494e+01
0	 9.571429e+00	 5.428571e+00	 1.026110e+01
0	 9.571429e+00	 5.500000e+00	 1.024715e+01
0	 9.571429e+00	 5.571429e+00	 1.023308e+01
0	 9.571429e+00	 5.642857e+00	 1.021888e+01
0	 9.571429e+00	 5.714286e+00	 1.020456e+01
0	 9.642857e+00	 5.357143e+00	 1.027633e+01
0	 9.642857e+00	 5.428571e+00	 1.026210e+01
0	 9.642857e+00	 5.500000e+00	 1.024775e+01
0	 9.642857e+00	 5.571429e+00	 1.023327e+01
0	 9.642857e+00	 5.642857e+00	 1.021867e+01
0	 9.642857e+00	 5.714286e+00	 1.020395e+01
0	 9.285714e+00	 5.714286e+00	 1.019340e+01
0	 9.285714e+00	 5.785714e+00	 1.018333e+01
0	 9.285714e+00	 5.857143e+00	 1.017315e+01
0	 9.285714e+00	 5.928571e+00	 1.016286e+01
0	 9.285714e+00	 6.000000e+00	 1.015247e+01
0	 9.285714e+00	 6.071429e+00	 1.014196e+01
0	 9.357143e+00	 5.714286e+00	 1.019824e+01
0	 9.357143e+00	 5.785714e+00	 1.018782e+01
0	 9.357143e+00	 5.857143e+00	 1.017730e+01
0	 9.357143e+00	 5.928571e+00	 1.016666e+01
0	 9.357143e+00	 6.000000e+00	 1.015592e+01
0	 9.357143e+00	 6.071429e+00	 1.014506e+01
0	 9.428571e+00	 5.714286e+00	 1.020171e+01
0	 9.428571e+00	 5.785714e+00	 1.019096e+01
0	 9.428571e+00	 5.857143e+00	 1.018011e+01
0	 9.428571e+00	 5.928571e+00	 1.016914e+01
0	 9.428571e+00	 6.000000e+00	 1.015806e+01
0	 9.428571e+00	 6.071429e+00	 1.014687e+01
0	 9.500000e+00	 5.714286e+00	 1.020382e+01
0	 9.500000e+00	 5.785714e+00	 1.019276e+01
0	 9.500000e+00	 5.857143e+00	 1.018159e+01
0	 9.500000e+00	 5.928571e+00	 1.017030e+01
0	 9.500000e+00	 6.000000e+00	 1.015890e+01
0	 9.500000e+00	 6.071429e+00	 1.014739e+01
0	 9.571429e+00	 5.714286e+00	 1.020456e+01
0	 9.571429e+00	 5.785714e+00	 1.019321e+01
0	 9.571429e+00	 5.857143e+00	 1.018173e+01
0	 9.571429e+00	 5.928571e+00	 1.017014e+01
0	 9.571429e+00	 6.000000e+00	 1.015844e+01
0	 9.571429e+00	 6.071429e+00	 1.014662e+01
0	 9.642857e+00	 5.714286e+00	 1.020395e+01
0	 9.642857e+00	 5.785714e+00	 1.019231e+01
0	 9.642857e+00	 5.857143e+00	 1.018054e+01
0	 9.642857e+00	 5.928571e+00	 1.016867e+01
0	 9.642857e+00	 6.000000e+00	 1.015667e+01
0	 9.642857e+00	 6.071429e+00	 1.014456e+01
0	 9.285714e+00	 6.071429e+00	 1.014196e+01
0	 9.285714e+00	 6.142857e+00	 1.013387e+01
0	 9.285714e+00	 6.214286e+00	 1.012567e+01
0	 9.285714e+00	 6.285714e+00	 1.011738e+01
0	 9.285714e+00	 6.357143e+00	 1.010899e+01
0	 9.285714e+00	 6.428571e+00	 1.010050e+01
0	 9.357143e+00	 6.071429e+00	 1.014506e+01
0	 9.357143e+00	 6.142857e+00	 1.013669e+01
0	 9.357143e+00	 6.214286e+00	 1.012823e+01
0	 9.357143e+00	 6.285714e+00	 1.011966e+01
0	 9.357143e+00	 6.357143e+00	 1.011100e+01
0	 9.357143e+00	 6.428571e+00	 1.010223e+01
0	 9.428571e+00	 6.071429e+00	 1.014687e+01
0	 9.428571e+00	 6.142857e+00	 1.013825e+01
0	 9.428571e+00	 6.214286e+00	 1.012954e+01
0	 9.428571e+00	 6.285714e+00	 1.012072e+01
0	 9.428571e+00	 6.357143e+00	 1.011181e+01
0	 9.428571e+00	 6.428571e+00	 1.010279e+01
0	 9.500000e+00	 6.071429e+00	 1.014739e+01
0	 9.500000e+00	 6.142857e+00	 1.013855e+01
0	 9.500000e+00	 6.214286e+00	 1.012961e+01
0	 9.500000e+00	 6.285714e+00	 1.012056e+01
0	 9.500000e+00	 6.357143e+00	 1.011141e+01
0	 9.500000e+00	 6.428571e+00	 1.010216e+01
0	 9.571429e+00	 6.071429e+00	 1.014662e+01
0	 9.571429e+00	 6.142857e+00	 1.013758e+01
0	 9.571429e+00	 6.214286e+00	 1.012843e+01
0	 9.571429e+00	 6.285714e+00	 1.011918e+01
0	 9.571429e+00	 6.357143e+00	 1.010982e+01
0	 9.571429e+00	 6.428571e+00	 1.010036e+01
0	 9.642857e+00	 6.071429e+00	 1.014456e+01
0	 9.642857e+00	 6.142857e+00	 1.013534e+01
0	 9.642857e+00	 6.214286e+00	 1.012601e+01
0	 9.642857e+00	 6.285714e+00	 1.011657e+01
0	 9.642857e+00	 6.357143e+00	 1.010703e+01
0	 9.642857e+00	 6.428571e+00	 1.009738e+01
0	 9.285714e+00	 6.428571e+00	 1.010050e+01
0	 9.285714e+00	 6.500000e+00	 1.009419e+01
0	 9.285714e+00	 6.571429e+00	 1.008781e+01
0	 9.285714e+00	 6.642857e+00	 1.008133e+01
0	 9.285714e+00	 6.714286e+00	 1.007478e+01
0	 9.285714e+00	 6.785714e+00	 1.006813e+01
0	 9.357143e+00	 6.428571e+00	 1.010223e+01
0	 9.357143e+00	 6.500000e+00	 1.009573e+01
0	 9.357143e+00	 6.571429e+00	 1.008914e+01
0	 9.357143e+00	 6.642857e+00	 1.008246e+01
0	 9.357143e+00	 6.714286e+00	 1.007570e+01
0	 9.357143e+00	 6.785714e+00	 1.006885e+01
0	 9.428571e+00	 6.428571e+00	 1.010279e+01
0	 9.428571e+00	 6.500000e+00	 1.009611e+01
0	 9.428571e+00	 6.571429e+00	 1.008935e+01
0	 9.428571e+00	 6.642857e+00	 1.008249e+01
0	 9.428571e+00	 6.714286e+00	 1.007555e+01
0	 9.428571e+00	 6.785714e+00	 1.006852e+01
0	 9.500000e+00	 6.428571e+00	 1.010216e+01
0	 9.500000e+00	 6.500000e+00	 1.009534e+01
0	 9.500000e+00	 6.571429e+00	 1.008843e+01
0	 9.500000e+00	 6.642857e+00	 1.008143e+01
0	 9.500000e+00	 6.714286e+00	 1.007433e+01
0	 9.500000e+00	 6.785714e+00	 1.006715e+01
0	 9.571429e+00	 6.428571e+00	 1.010036e+01
0	 9.571429e+00	 6.500000e+00	 1.009342e+01
0	 9.571429e+00	 6.571429e+00	 1.008639e+01
0	 9.571429e+00	 6.642857e+00	 1.007926e+01
0	 9.571429e+00	 6.714286e+00	 1.007204e+01
0	 9.571429e+00	 6.785714e+00	 1.006473e+01
0	 9.642857e+00	 6.428571e+00	 1.009738e+01
0	 9.642857e+00	 6.500000e+00	 1.009035e+01
0	 9.642857e+00	 6.571429e+00	 1.008322e+01
0	 9.642857e+00	 6.642857e+00	 1.007600e+01
0	 9.642857e+00	 6.714286e+00	 1.006868e+01
0	 9.642857e+00	 6.785714e+00	 1.006127e+01
0	 9.285714e+00	 6.785714e+00	 1.006813e+01
0	 9.285714e+00	 6.857143e+00	 1.006341e+01
0	 9.285714e+00	 6.928571e+00	 1.005862e+01
0	 9.285714e+00	 7.000000e+00	 1.005375e+01
0	 9.285714e+00	 7.071429e+00	 1.004882e+01
0	 9.285714e+00	 7.142857e+00	 1.004381e+01
0	 9.357143e+00	 6.785714e+00	 1.006885e+01
0	 9.357143e+00	 6.857143e+00	 1.006399e+01
0	 9.357143e+00	 6.928571e+00	 1.005905e+01
0	 9.357143e+00	 7.000000e+00	 1.005405e+01
0	 9.357143e+00	 7.071429e+00	 1.004897e+01
0	 9.357143e+00	 7.142857e+00	 1.004382e+01
0	 9.428571e+00	 6.785714e+00	 1.006852e+01
0	 9.428571e+00	 6.857143e+00	 1.006355e+01
0	 9.428571e+00	 6.928571e+00	 1.005851e+01
0	 9.428571e+00	 7.000000e+00	 1.005339e+01
0	 9.428571e+00	 7.071429e+00	 1.004820e+01
0	 9.428571e+00	 7.142857e+00	 1.004293e+01
0	 9.500000e+00	 6.785714e+00	 1.006715e+01
0	 9.500000e+00	 6.857143e+00	 1.006210e+01
0	 9.500000e+00	 6.928571e+00	 1.005698e+01
0	 9.500000e+00	 7.000000e+00	 1.005178e+01
0	 9.500000e+00	 7.071429e+00	 1.004650e+01
0	 9.500000e+00	 7.142857e+00	 1.004115e+01
0	 9.571429e+00	 6.785714e+00	 1.006473e+01
0	 9.571429e+00	 6.857143e+00	 1.005964e+01
0	 9.571429e+00	 6.928571e+00	 1.005447e+01
0	 9.571429e+00	 7.000000e+00	 1.004921e+01
0	 9.571429e+00	 7.071429e+00	 1.004388e+01
0	 9.571429e+00	 7.142857e+00	 1.003847e+01
0	 9.642857e+00	 6.785714e+00	 1.006127e+01
0	 9.642857e+00	 6.857143e+00	 1.005616e+01
0	 9.642857e+00	 6.928571e+00	 1.005097e+01
0	 9.642857e+00	 7.000000e+00	 1.004569e+01
0	 9.642857e+00	 7.071429e+00	 1.004034e+01
0	 9.642857e+00	 7.142857e+00	 1.003490e+01
0	 9.285714e+00	 7.142857e+00	 1.004381e+01
0	 9.285714e+00	 7.214286e+00	 1.004043e+01
0	 9.285714e+00	 7.285714e+00	 1.003699e+01
0	 9.285714e+00	 7.357143e+00	 1.003350e+01
0	 9.285714e+00	 7.428571e+00	 1.002995e+01
0	 9.285714e+00	 7.500000e+00	 1.002635e+01
0	 9.357143e+00	 7.142857e+00	 1.004382e+01
0	 9.357143e+00	 7.214286e+00	 1.004035e+01
0	 9.357143e+00	 7.285714e+00	 1.003683e+01
0	 9.357143e+00	 7.357143e+00	 1.003325e+01
0	 9.357143e+00	 7.428571e+00	 1.002961e+01
0	 9.357143e+00	 7.500000e+00	 1.002591e+01
0	 9.428571e+00	 7.142857e+00	 1.004293e+01
0	 9.428571e+00	 7.214286e+00	 1.003941e+01
0	 9.428571e+00	 7.285714e+00	 1.003583e+01
0	 9.428571e+00	 7.357143e+00	 1.003219e+01
0	 9.428571e+00	 7.428571e+00	 1.002849e+01
0	 9.428571e+00	 7.500000e+00	 1.002473e+01
0	 9.500000e+00	 7.142857e+00	 1.004115e+01
0	 9.500000e+00	 7.214286e+00	 1.003761e+01
0	 9.500000e+00	 7.285714e+00	 1.003400e+01
0	 9.500000e+00	 7.357143e+00	 1.003034e+01
0	 9.500000e+00	 7.428571e+00	 1.002661e+01
0	 9.500000e+00	 7.500000e+00	 1.002282e+01
0	 9.571429e+00	 7.142857e+00	 1.003847e+01
0	 9.571429e+00	 7.214286e+00	 1.003494e+01
0	 9.571429e+00	 7.285714e+00	 1.003135e+01
0	 9.571429e+00	 7.357143e+00	 1.002769e+01
0	 9.571429e+00	 7.428571e+00	 1.002396e+01
0	 9.571429e+00	 7.500000e+00	 1.002017e+01
0	 9.642857e+00	 7.142857e+00	 1.003490e+01
0	 9.642857e+00	 7.214286e+00	 1.003141e+01
0	 9.642857e+00	 7.285714e+00	 1.002786e+01
0	 9.642857e+00	 7.357143e+00	 1.002423e+01
0	 9.642857e+00	 7.428571e+00	 1.002054e+01
0	 9.642857e+00	 7.500000e+00	 1.001679e+01
0	 9.285714e+00	 7.500000e+00	 1.002635e+01
0	 9.285714e+00	 7.571429e+00	 1.002407e+01
0	 9.285714e+00	 7.642857e+00	 1.002174e+01
0	 9.285714e+00	 7.714286e+00	 1.001937e+01
0	 9.285714e+00	 7.785714e+00	 1.001696e+01
0	 9.285714e+00	 7.857143e+00	 1.001451e+01
0	 9.357143e+00	 7.500000e+00	 1.002591e+01
0	 9.357143e+00	 7.571429e+00	 1.002358e+01
0	 9.357143e+00	 7.642857e+00	 1.002121e+01
0	 9.357143e+00	 7.714286e+00	 1.001880e+01
0	 9.357143e+00	 7.785714e+00	 1.001634e+01
0	 9.357143e+00	 7.857143e+00	 1.001384e+01
0	 9.428571e+00	 7.500000e+00	 1.002473e+01
0	 9.428571e+00	 7.571429e+00	 1.002240e+01
0	 9.428571e+00	 7.642857e+00	 1.002002e+01
0	 9.428571e+00	 7.714286e+00	 1.001759e+01
0	 9.428571e+00	 7.785714e+00	 1.001511e+01
0	 9.428571e+00	 7.857143e+00	 1.001259e+01
0	 9.500000e+00	 7.500000e+00	 1.002282e+01
0	 9.500000e+00	 7.571429e+00	 1.002051e+01
0	 9.500000e+00	 7.642857e+00	 1.001814e+01
0	 9.500000e+00	 7.714286e+00	 1.001573e+01
0	 9.500000e+00	 7.785714e+00	 1.001328e+01
0	 9.500000e+00	 7.857143e+00	 1.001077e+01
0	 9.571429e+00	 7.500000e+00	 1.002017e+01
0	 9.571429e+00	 7.571429e+00	 1.001791e+01
0	 9.571429e+00	 7.642857e+00	 1.001560e+01
0	 9.571429e+00	 7.714286e+00	 1.001324e+01
0	 9.571429e+00	 7.785714e+00	 1.001083e+01
0	 9.571429e+00	 7.857143e+00	 1.000836e+01
0	 9.642857e+00	 7.500000e+00	 1.001679e+01
0	 9.642857e+00	 7.571429e+00	 1.001461e+01
0	 9.642857e+00	 7.642857e+00	 1.001238e+01
0	 9.642857e+00	 7.714286e+00	 1.001010e+01
0	 9.642857e+00	 7.785714e+00	 1.000777e+01
0	 9.642857e+00	 7.857143e+00	 1.000538e+01
0	 9.285714e+00	 7.857143e+00	 1.001451e+01
0	 9.285714e+00	 7.928571e+00	 1.001308e+01
0	 9.285714e+00	 8.000000e+00	 1.001163e+01
0	 9.285714e+00	 8.071429e+00	 1.001014e+01
0	 9.285714e+00	 8.142857e+00	 1.000862e+01
0	 9.285714e+00	 8.214286e+00	 1.000708e+01
0	 9.357143e+00	 7.857143e+00	 1.001384e+01
0	 9.357143e+00	 7.928571e+00	 1.001241e+01
0	 9.357143e+00	 8.000000e+00	 1.001094e+01
0	 9.357143e+00	 8.071429e+00	 1.000944e+01
0	 9.357143e+00	 8.142857e+00	 1.000791e+01
0	 9.357143e+00	 8.214286e+00	 1.000634e+01
0	 9.428571e+00	 7.857143e+00	 1.001259e+01
0	 9.428571e+00	 7.928571e+00	 1.001118e+01
0	 9.428571e+00	 8.000000e+00	 1.000973e+01
0	 9.428571e+00	 8.071429e+00	 1.000825e+01
0	 9.428571e+00	 8.142857e+00	 1.000674e+01
0	 9.428571e+00	 8.214286e+00	 1.000519e+01
0	 9.500000e+00	 7.857143e+00	 1.001077e+01
0	 9.500000e+00	 7.928571e+00	 1.000941e+01
0	 9.500000e+00	 8.000000e+00	 1.000801e+01
0	 9.500000e+00	 8.071429e+00	 1.000658e+01
0	 9.500000e+00	 8.142857e+00	 1.000511e+01
0	 9.500000e+00	 8.214286e+00	 1.000361e+01
0	 9.571429e+00	 7.857143e+00	 1.000836e+01
0	 9.571429e+00	 7.928571e+00	 1.000709e+01
0	 9.571429e+00	 8.000000e+00	 1.000577e+01
0	 9.571429e+00	 8.071429e+00	 1.000442e+01
0	 9.571429e+00	 8.142857e+00	 1.000303e+01
0	 9.571429e+00	 8.214286e+00	 1.000160e+01
0	 9.642857e+00	 7.857143e+00	 1.000538e+01
0	 9.642857e+00	 7.928571e+00	 1.000422e+01
0	 9.642857e+00	 8.000000e+00	 1.000301e+01
0	 9.642857e+00	 8.071429e+00	 1.000177e+01
0	 9.642857e+00	 8.142857e+00	 1.000049e+01
0	 9.642857e+00	 8.214286e+00	 9.999166e+00
0	 9.285714e+00	 8.214286e+00	 1.000708e+01
0	 9.285714e+00	 8.285714e+00	 1.000627e+01
0	 9.285714e+00	 8.357143e+00	 1.000544e+01
0	 9.285714e+00	 8.428571e+00	 1.000460e+01
0	 9.285714e+00	 8.500000e+00	 1.000374e+01
0	 9.285714e+00	 8.571429e+00	 1.000286e+01
0	 9.357143e+00	 8.214286e+00	 1.000634e+01
0	 9.357143e+00	 8.285714e+00	 1.000555e+01
0	 9.357143e+00	 8.357143e+00	 1.000474e+01
0	 9.357143e+00	 8.428571e+00	 1.000391e+01
0	 9.357143e+00	 8.500000e+00	 1.000307e+01
0	 9.357143e+00	 8.571429e+00	 1.000220e+01
0	 9.428571e+00	 8.214286e+00	 1.000519e+01
0	 9.428571e+00	 8.285714e+00	 1.000444e+01
0	 9.428571e+00	 8.357143e+00	 1.000368e+01
0	 9.428571e+00	 8.428571e+00	 1.000289e+01
0	 9.428571e+00	 8.500000e+00	 1.000208e+01
0	 9.428571e+00	 8.571429e+00	 1.000124e+01
0	 9.500000e+00	 8.214286e+00	 1.000361e+01
0	 9.500000e+00	 8.285714e+00	 1.000293e+01
0	 9.500000e+00	 8.357143e+00	 1.000224e+01
0	 9.500000e+00	 8.428571e+00	 1.000152e+01
0	 9.500000e+00	 8.500000e+00	 1.000078e+01
0	 9.500000e+00	 8.571429e+00	 1.000001e+01
0	 9.571429e+00	 8.214286e+00	 1.000160e+01
0	 9.571429e+00	 8.285714e+00	 1.000103e+01
0	 9.571429e+00	 8.357143e+00	 1.000043e+01
0	 9.571429e+00	 8.428571e+00	 9.999807e+00
0	 9.571429e+00	 8.500000e+00	 9.999160e+00
0	 9.571429e+00	 8.571429e+00	 9.998487e+00
0	 9.642857e+00	 8.214286e+00	 9.999166e+00
0	 9.642857e+00	 8.285714e+00	 9.998722e+00
0	 9.642857e+00	 8.357143e+00	 9.998251e+00
0	 9.642857e+00	 8.428571e+00	 9.997754e+00
0	 9.642857e+00	 8.500000e+00	 9.997231e+00
0	 9.642857e+00	 8.571429e+00	 9.996680e+00
0	 9.285714e+00	 8.571429e+00	 1.000286e+01
0	 9.285714e+00	 8.642857e+00	 1.000247e+01
0	 9.285714e+00	 8.714286e+00	 1.000207e+01
0	 9.285714e+00	 8.785714e+00	 1.000166e+01
0	 9.285714e+00	 8.857143e+00	 1.000123e+01
0	 9.285714e+00	 8.928571e+00	 1.000080e+01
0	 9.357143e+00	 8.571429e+00	 1.000220e+01
0	 9.357143e+00	 8.642857e+00	 1.000184e+01
0	 9.357143e+00	 8.714286e+00	 1.000147e+01
0	 9.357143e+00	 8.785714e+00	 1.000109e+01
0	 9.357143e+00	 8.857143e+00	 1.000069e+01
0	 9.357143e+00	 8.928571e+00	 1.000029e+01
0	 9.428571e+00	 8.571429e+00	 1.000124e+01
0	 9.428571e+00	 8.642857e+00	 1.000094e+01
0	 9.428571e+00	 8.714286e+00	 1.000063e+01
0	 9.428571e+00	 8.785714e+00	 1.000030e+01
0	 9.428571e+00	 8.857143e+00	 9.999964e+00
0	 9.428571e+00	 8.928571e+00	 9.999613e+00
0	 9.500000e+00	 8.571429e+00	 1.000001e+01
0	 9.500000e+00	 8.642857e+00	 9.999789e+00
0	 9.500000e+00	 8.714286e+00	 9.999555e+00
0	 9.500000e+00	 8.785714e+00	 9.999309e+00
0	 9.500000e+00	 8.857143e+00	 9.999048e+00
0	 9.500000e+00	 8.928571e+00	 9.998775e+00
0	 9.571429e+00	 8.571429e+00	 9.998487e+00
0	 9.571429e+00	 8.642857e+00	 9.998374e+00
0	 9.571429e+00	 8.714286e+00	 9.998245e+00
0	 9.571429e+00	 8.785714e+00	 9.998102e+00
0	 9.571429e+00	 8.857143e+00	 9.997945e+00
0	 9.571429e+00	 8.928571e+00	 9.997774e+00
0	 9.642857e+00	 8.571429e+00	 9.996680e+00
0	 9.642857e+00	 8.642857e+00	 9.996697e+00
0	 9.642857e+00	 8.714286e+00	 9.996699e+00
0	 9.642857e+00	 8.785714e+00	 9.996684e+00
0	 9.642857e+00	 8.857143e+00	 9.996655e+00
0	 9.642857e+00	 8.928571e+00	 9.996610e+00
0	 9.285714e+00	 8.928571e+00	 1.000080e+01
0	 9.285714e+00	 9.000000e+00	 1.000066e+01
0	 9.285714e+00	 9.071429e+00	 1.000051e+01
0	 9.285714e+00	 9.142857e+00	 1.000036e+01
0	 9.285714e+00	 9.214286e+00	 1.000019e+01
0	 9.285714e+00	 9.285714e+00	 1.000002e+01
0	 9.357143e+00	 8.928571e+00	 1.000029e+01
0	 9.357143e+00	 9.000000e+00	 1.000019e+01
0	 9.357143e+00	 9.071429e+00	 1.000008e+01
0	 9.357143e+00	 9.142857e+00	 9.999959e+00
0	 9.357143e+00	 9.214286e+00	 9.999835e+00
0	 9.357143e+00	 9.285714e+00	 9.999703e+00
0	 9.428571e+00	 8.928571e+00	 9.999613e+00
0	 9.428571e+00	 9.000000e+00	 9.999568e+00
0	 9.428571e+00	 9.071429e+00	 9.999515e+00
0	 9.428571e+00	 9.142857e+00	 9.999455e+00
0	 9.428571e+00	 9.214286e+00	 9.999387e+00
0	 9.428571e+00	 9.285714e+00	 9.999312e+00
0	 9.500000e+00	 8.928571e+00	 9.998775e+00
0	 9.500000e+00	 9.000000e+00	 9.998805e+00
0	 9.500000e+00	 9.071429e+00	 9.998828e+00
0	 9.500000e+00	 9.142857e+00	 9.998844e+00
0	 9.500000e+00	 9.214286e+00	 9.998852e+00
0	 9.500000e+00	 9.285714e+00	 9.998852e+00
0	 9.571429e+00	 8.928571e+00	 9.997774e+00
0	 9.571429e+00	 9.000000e+00	 9.997899e+00
0	 9.571429e+00	 9.071429e+00	 9.998016e+00
0	 9.571429e+00	 9.142857e+00	 9.998126e+00
0	 9.571429e+00	 9.214286e+00	 9.998228e+00
0	 9.571429e+00	 9.285714e+00	 9.998323e+00
0	 9.642857e+00	 8.928571e+00	 9.996610e+00
0	 9.642857e+00	 9.000000e+00	 9.996848e+00
0	 9.642857e+00	 9.071429e+00	 9.997079e+00
0	 9.642857e+00	 9.142857e+00	 9.997302e+00
0	 9.642857e+00	 9.214286e+00	 9.997517e+00
0	 9.642857e+00	 9.285714e+00	 9.997724e+00
0	 9.285714e+00	 9.285714e+00	 1.000002e+01
0	 9.285714e+00	 9.357143e+00	 1.000002e+01
0	 9.285714e+00	 9.428571e+00	 1.000001e+01
0	 9.285714e+00	 9.500000e+00	 9.999993e+00
0	 9.285714e+00	 9.571429e+00	 9.999977e+00
0	 9.285714e+00	 9.642857e+00	 9.999958e+00
0	 9.357143e+00	 9.285714e+00	 9.999703e+00
0	 9.357143e+00	 9.357143e+00	 9.999742e+00
0	 9.357143e+00	 9.428571e+00	 9.999777e+00
0	 9.357143e+00	 9.500000e+00	 9.999809e+00
0	 9.357143e+00	 9.571429e+00	 9.999838e+00
0	 9.357143e+00	 9.642857e+00	 9.999863e+00
0	 9.428571e+00	 9.285714e+00	 9.999312e+00
0	 9.428571e+00	 9.357143e+00	 9.999406e+00
0	 9.428571e+00	 9.428571e+00	 9.999496e+00
0	 9.428571e+00	 9.500000e+00	 9.999582e+00
0	 9.428571e+00	 9.571429e+00	 9.999664e+00
0	 9.428571e+00	 9.642857e+00	 9.999742e+00
0	 9.500000e+00	 9.285714e+00	 9.998852e+00
0	 9.500000e+00	 9.357143e+00	 9.999010e+00
0	 9.500000e+00	 9.428571e+00	 9.999163e+00
0	 9.500000e+00	 9.500000e+00	 9.999311e+00
0	 9.500000e+00	 9.571429e+00	 9.999455e+00
0	 9.500000e+00	 9.642857e+00	 9.999595e+00
0	 9.571429e+00	 9.285714e+00	 9.998323e+00
0	 9.571429e+00	 9.357143e+00	 9.998553e+00
0	 9.571429e+00	 9.428571e+00	 9.998778e+00
0	 9.571429e+00	 9.500000e+00	 9.998998e+00
0	 9.571429e+00	 9.571429e+00	 9.999213e+00
0	 9.571429e+00	 9.642857e+00	 9.999423e+00
0	 9.642857e+00	 9.285714e+00	 9.997724e+00
0	 9.642857e+00	 9.357143e+00	 9.998036e+00
0	 9.642857e+00	 9.428571e+00	 9.998341e+00
0	 9.642857e+00	 9.500000e+00	 9.998641e+00
0	 9.642857e+00	 9.571429e+00	 9.998936e+00
0	 9.642857e+00	 9.642857e+00	 9.999224e+00
0	 9.285714e+00	 9.642857e+00	 9.999958e+00
0	 9.285714e+00	 9.714286e+00	 9.999960e+00
0	 9.285714e+00	 9.785714e+00	 9.999969e+00
0	 9.285714e+00	 9.857143e+00	 9.999985e+00
0	 9.285714e+00	 9.928571e+00	 1.000001e+01
0	 9.285714e+00	 1.000000e+01	 1.000004e+01
0	 9.357143e+00	 9.642857e+00	 9.999863e+00
0	 9.357143e+00	 9.714286e+00	 9.999870e+00
0	 9.357143e+00	 9.785714e+00	 9.999892e+00
0	 9.357143e+00	 9.857143e+00	 9.999930e+00
0	 9.357143e+00	 9.928571e+00	 9.999984e+00
0	 9.357143e+00	 1.000000e+01	 1.000005e+01
0	 9.428571e+00	 9.642857e+00	 9.999742e+00
0	 9.428571e+00	 9.714286e+00	 9.999763e+00
0	 9.428571e+00	 9.785714e+00	 9.999809e+00
0	 9.428571e+00	 9.857143e+00	 9.999879e+00
0	 9.428571e+00	 9.928571e+00	 9.999973e+00
0	 9.428571e+00	 1.000000e+01	 1.000009e+01
0	 9.500000e+00	 9.642857e+00	 9.999595e+00
0	 9.500000e+00	 9.714286e+00	 9.999641e+00
0	 9.500000e+00	 9.785714e+00	 9.999719e+00
0	 9.500000e+00	 9.857143e+00	 9.999830e+00
0	 9.500000e+00	 9.928571e+00	 9.999974e+00
0	 9.500000e+00	 1.000000e+01	 1.000015e+01
0	 9.571429e+00	 9.642857e+00	 9.999423e+00
0	 9.571429e+00	 9.714286e+00	 9.999502e+00
0	 9.571429e+00	 9.785714e+00	 9.999622e+00
0	 9.571429e+00	 9.857143e+00	 9.999785e+00
0	 9.571429e+00	 9.928571e+00	 9.999989e+00
0	 9.571429e+00	 1.000000e+01	 1.000023e+01
0	 9.642857e+00	 9.642857e+00	 9.999224e+00
0	 9.642857e+00	 9.714286e+00	 9.999347e+00
0	 9.642857e+00	 9.785714e+00	 9.999520e+00
0	 9.642857e+00	 9.857143e+00	 9.999743e+00
0	 9.642857e+00	 9.928571e+00	 1.000002e+01
0	 9.642857e+00	 1.000000e+01	 1.000034e+01
0	 9.642857e+00	 0.000000e+00	 1.182496e+01
0	 9.642857e+00	 7.142857e-02	 1.182162e+01
0	 9.642857e+00	 1.428571e-01	 1.181855e+01
0	 9.642857e+00	 2.142857e-01	 1.181573e+01
0	 9.642857e+00	 2.857143e-01	 1.181318e+01
0	 9.642857e+00	 3.571429e-01	 1.181089e+01
0	 9.714286e+00	 0.000000e+00	 1.188402e+01
0	 9.714286e+00	 7.142857e-02	 1.188057e+01
0	 9.714286e+00	 1.428571e-01	 1.187739e+01
0	 9.714286e+00	 2.142857e-01	 1.187446e+01
0	 9.714286e+00	 2.857143e-01	 1.187181e+01
0	 9.714286e+00	 3.571429e-01	 1.186942e+01
0	 9.785714e+00	 0.000000e+00	 1.194678e+01
0	 9.785714e+00	 7.142857e-02	 1.194320e+01
0	 9.785714e+00	 1.428571e-01	 1.193989e+01
0	 9.785714e+00	 2.142857e-01	 1.193685e+01
0	 9.785714e+00	 2.857143e-01	 1.193408e+01
0	 9.785714e+00	 3.571429e-01	 1.193157e+01
0	 9.857143e+00	 0.000000e+00	 1.201324e+01
0	 9.857143e+00	 7.142857e-02	 1.200952e+01
0	 9.857143e+00	 1.428571e-01	 1.200607e+01
0	 9.857143e+00	 2.142857e-01	 1.200289e+01
0	 9.857143e+00	 2.857143e-01	 1.199998e+01
0	 9.857143e+00	 3.571429e-01	 1.199735e+01
0	 9.928571e+00	 0.000000e+00	 1.208339e+01
0	 9.928571e+00	 7.142857e-02	 1.207952e+01
0	 9.928571e+00	 1.428571e-01	 1.207591e+01
0	 9.928571e+00	 2.142857e-01	 1.207259e+01
0	 9.928571e+00	 2.857143e-01	 1.206953e+01
0	 9.928571e+00	 3.571429e-01	 1.206675e+01
0	 1.000000e+01	 0.000000e+00	 1.215724e+01
0	 1.000000e+01	 7.142857e-02	 1.215320e+01
0	 1.000000e+01	 1.428571e-01	 1.214943e+01
0	 1.000000e+01	 2.142857e-01	 1.214594e+01
0	 1.000000e+01	 2.857143e-01	 1.214272e+01
0	 1.000000e+01	 3.571429e-01	 1.213978e+01
0	 9.642857e+00	 3.571429e-01	 1.181089e+01
0	 9.642857e+00	 4.285714e-01	 1.180211e+01
0	 9.642857e+00	 5.000000e-01	 1.179358e+01
0	 9.642857e+00	 5.714286e-01	 1.178530e+01
0	 9.642857e+00	 6.428571e-01	 1.177726e+01
0	 9.642857e+00	 7.142857e-01	 1.176948e+01
0	 9.714286e+00	 3.571429e-01	 1.186942e+01
0	 9.714286e+00	 4.285714e-01	 1.186029e+01
0	 9.714286e+00	 5.000000e-01	 1.185142e+01
0	 9.714286e+00	 5.714286e-01	 1.184281e+01
0	 9.714286e+00	 6.428571e-01	 1.183447e+01
0	 9.714286e+00	 7.142857e-01	 1.182638e+01
0	 9.785714e+00	 3.571429e-01	 1.193157e+01
0	 9.785714e+00	 4.285714e-01	 1.192204e+01
0	 9.785714e+00	 5.000000e-01	 1.191279e+01
0	 9.785714e+00	 5.714286e-01	 1.190381e+01
0	 9.785714e+00	 6.428571e-01	 1.189510e+01
0	 9.785714e+00	 7.142857e-01	 1.188666e+01
0	 9.857143e+00	 3.571429e-01	 1.199735e+01
0	 9.857143e+00	 4.285714e-01	 1.198737e+01
0	 9.857143e+00	 5.000000e-01	 1.197768e+01
0	 9.857143e+00	 5.714286e-01	 1.196828e+01
0	 9.857143e+00	 6.428571e-01	 1.195916e+01
0	 9.857143e+00	 7.142857e-01	 1.195032e+01
0	 9.928571e+00	 3.571429e-01	 1.206675e+01
0	 9.928571e+00	 4.285714e-01	 1.205628e+01
0	 9.928571e+00	 5.000000e-01	 1.204611e+01
0	 9.928571e+00	 5.714286e-01	 1.203623e+01
0	 9.928571e+00	 6.428571e-01	 1.202665e+01
0	 9.928571e+00	 7.142857e-01	 1.201736e+01
0	 1.000000e+01	 3.571429e-01	 1.213978e+01
0	 1.000000e+01	 4.285714e-01	 1.212877e+01
0	 1.000000e+01	 5.000000e-01	 1.211806e+01
0	 1.000000e+01	 5.714286e-01	 1.210766e+01
0	 1.000000e+01	 6.428571e-01	 1.209756e+01
0	 1.000000e+01	 7.142857e-01	 1.208777e+01
0	 9.642857e+00	 7.142857e-01	 1.176948e+01
0	 9.642857e+00	 7.857143e-01	 1.175560e+01
0	 9.642857e+00	 8.571429e-01	 1.174195e+01
0	 9.642857e+00	 9.285714e-01	 1.172853e+01
0	 9.642857e+00	 1.000000e+00	 1.171534e+01
0	 9.642857e+00	 1.071429e+00	 1.170238e+01
0	 9.714286e+00	 7.142857e-01	 1.182638e+01
0	 9.714286e+00	 7.857143e-01	 1.181196e+01
0	 9.714286e+00	 8.571429e-01	 1.179778e+01
0	 9.714286e+00	 9.285714e-01	 1.178383e+01
0	 9.714286e+00	 1.000000e+00	 1.177012e+01
0	 9.714286e+00	 1.071429e+00	 1.175664e+01
0	 9.785714e+00	 7.142857e-01	 1.188666e+01
0	 9.785714e+00	 7.857143e-01	 1.187163e+01
0	 9.785714e+00	 8.571429e-01	 1.185683e+01
0	 9.785714e+00	 9.285714e-01	 1.184228e+01
0	 9.785714e+00	 1.000000e+00	 1.182798e+01
0	 9.785714e+00	 1.071429e+00	 1.181391e+01
0	 9.857143e+00	 7.142857e-01	 1.195032e+01
0	 9.857143e+00	 7.857143e-01	 1.193459e+01
0	 9.857143e+00	 8.571429e-01	 1.191911e+01
0	 9.857143e+00	 9.285714e-01	 1.190389e+01
0	 9.857143e+00	 1.000000e+00	 1.188891e+01
0	 9.857143e+00	 1.071429e+00	 1.187418e+01
0	 9.928571e+00	 7.142857e-01	 1.201736e+01
0	 9.928571e+00	 7.857143e-01	 1.200086e+01
0	 9.928571e+00	 8.571429e-01	 1.198462e+01
0	 9.928571e+00	 9.285714e-01	 1.196864e+01
0	 9.928571e+00	 1.000000e+00	 1.195292e+01
0	 9.928571e+00	 1.071429e+00	 1.193745e+01
0	 1.000000e+01	 7.142857e-01	 1.208777e+01
0	 1.000000e+01	 7.857143e-01	 1.207043e+01
0	 1.000000e+01	 8.571429e-01	 1.205336e+01
0	 1.000000e+01	 9.285714e-01	 1.203655e+01
0	 1.000000e+01	 1.000000e+00	 1.202001e+01
0	 1.000000e+01	 1.071429e+00	 1.200373e+01
0	 9.642857e+00	 1.071429e+00	 1.170238e+01
0	 9.642857e+00	 1.142857e+00	 1.168401e+01
0	 9.642857e+00	 1.214286e+00	 1.166584e+01
0	 9.642857e+00	 1.285714e+00	 1.164787e+01
0	 9.642857e+00	 1.357143e+00	 1.163009e+01
0	 9.642857e+00	 1.428571e+00	 1.161251e+01
0	 9.714286e+00	 1.071429e+00	 1.175664e+01
0	 9.714286e+00	 1.142857e+00	 1.173756e+01
0	 9.714286e+00	 1.214286e+00	 1.171868e+01
0	 9.714286e+00	 1.285714e+00	 1.170001e+01
0	 9.714286e+00	 1.357143e+00	 1.168153e+01
0	 9.714286e+00	 1.428571e+00	 1.166326e+01
0	 9.785714e+00	 1.071429e+00	 1.181391e+01
0	 9.785714e+00	 1.142857e+00	 1.179401e+01
0	 9.785714e+00	 1.214286e+00	 1.177433e+01
0	 9.785714e+00	 1.285714e+00	 1.175485e+01
0	 9.785714e+00	 1.357143e+00	 1.173558e+01
0	 9.785714e+00	 1.428571e+00	 1.171653e+01
0	 9.857143e+00	 1.071429e+00	 1.187418e+01
0	 9.857143e+00	 1.142857e+00	 1.185337e+01
0	 9.857143e+00	 1.214286e+00	 1.183277e+01
0	 9.857143e+00	 1.285714e+00	 1.181240e+01
0	 9.857143e+00	 1.357143e+00	 1.179224e+01
0	 9.857143e+00	 1.428571e+00	 1.177230e+01
0	 9.928571e+00	 1.071429e+00	 1.193745e+01
0	 9.928571e+00	 1.142857e+00	 1.191563e+01
0	 9.928571e+00	 1.214286e+00	 1.189403e+01
0	 9.928571e+00	 1.285714e+00	 1.187265e+01
0	 9.928571e+00	 1.357143e+00	 1.185150e+01
0	 9.928571e+00	 1.428571e+00	 1.183058e+01
0	 1.000000e+01	 1.071429e+00	 1.200373e+01
0	 1.000000e+01	 1.142857e+00	 1.198079e+01
0	 1.000000e+01	 1.214286e+00	 1.195808e+01
0	 1.000000e+01	 1.285714e+00	 1.193561e+01
0	 1.000000e+01	 1.357143e+00	 1.191337e+01
0	 1.000000e+01	 1.428571e+00	 1.189136e+01
0	 9.642857e+00	 1.428571e+00	 1.161251e+01
0	 9.642857e+00	 1.500000e+00	 1.159040e+01
0	 9.642857e+00	 1.571429e+00	 1.156844e+01
0	 9.642857e+00	 1.642857e+00	 1.154665e+01
0	 9.642857e+00	 1.714286e+00	 1.152500e+01
0	 9.642857e+00	 1.785714e+00	 1.150352e+01
0	 9.714286e+00	 1.428571e+00	 1.166326e+01
0	 9.714286e+00	 1.500000e+00	 1.164029e+01
0	 9.714286e+00	 1.571429e+00	 1.161749e+01
0	 9.714286e+00	 1.642857e+00	 1.159484e+01
0	 9.714286e+00	 1.714286e+00	 1.157236e+01
0	 9.714286e+00	 1.785714e+00	 1.155004e+01
0	 9.785714e+00	 1.428571e+00	 1.171653e+01
0	 9.785714e+00	 1.500000e+00	 1.169258e+01
0	 9.785714e+00	 1.571429e+00	 1.166881e+01
0	 9.785714e+00	 1.642857e+00	 1.164520e+01
0	 9.785714e+00	 1.714286e+00	 1.162176e+01
0	 9.785714e+00	 1.785714e+00	 1.159849e+01
0	 9.857143e+00	 1.428571e+00	 1.177230e+01
0	 9.857143e+00	 1.500000e+00	 1.174727e+01
0	 9.857143e+00	 1.571429e+00	 1.172241e+01
0	 9.857143e+00	 1.642857e+00	 1.169773e+01
0	 9.857143e+00	 1.714286e+00	 1.167322e+01
0	 9.857143e+00	 1.785714e+00	 1.164888e+01
0	 9.928571e+00	 1.428571e+00	 1.183058e+01
0	 9.928571e+00	 1.500000e+00	 1.180434e+01
0	 9.928571e+00	 1.571429e+00	 1.177829e+01
0	 9.928571e+00	 1.642857e+00	 1.175242e+01
0	 9.928571e+00	 1.714286e+00	 1.172672e+01
0	 9.928571e+00	 1.785714e+00	 1.170121e+01
0	 1.000000e+01	 1.428571e+00	 1.189136e+01
0	 1.000000e+01	 1.500000e+00	 1.186381e+01
0	 1.000000e+01	 1.571429e+00	 1.183645e+01
0	 1.000000e+01	 1.642857e+00	 1.180927e+01
0	 1.000000e+01	 1.714286e+00	 1.178228e+01
0	 1.000000e+01	 1.785714e+00	 1.175547e+01
0	 9.642857e+00	 1.785714e+00	 1.150352e+01
0	 9.642857e+00	 1.857143e+00	 1.147853e+01
0	 9.642857e+00	 1.928571e+00	 1.145365e+01
0	 9.642857e+00	 2.000000e+00	 1.142889e+01
0	 9.642857e+00	 2.071429e+00	 1.140424e+01
0	 9.642857e+00	 2.142857e+00	 1.137970e+01
0	 9.714286e+00	 1.785714e+00	 1.155004e+01
0	 9.714286e+00	 1.857143e+00	 1.152408e+01
0	 9.714286e+00	 1.928571e+00	 1.149824e+01
0	 9.714286e+00	 2.000000e+00	 1.147252e+01
0	 9.714286e+00	 2.071429e+00	 1.144692e+01
0	 9.714286e+00	 2.142857e+00	 1.142144e+01
0	 9.785714e+00	 1.785714e+00	 1.159849e+01
0	 9.785714e+00	 1.857143e+00	 1.157145e+01
0	 9.785714e+00	 1.928571e+00	 1.154453e+01
0	 9.785714e+00	 2.000000e+00	 1.151773e+01
0	 9.785714e+00	 2.071429e+00	 1.149105e+01
0	 9.785714e+00	 2.142857e+00	 1.146450e+01
0	 9.857143e+00	 1.785714e+00	 1.164888e+01
0	 9.857143e+00	 1.857143e+00	 1.162063e+01
0	 9.857143e+00	 1.928571e+00	 1.159250e+01
0	 9.857143e+00	 2.000000e+00	 1.156450e+01
0	 9.857143e+00	 2.071429e+00	 1.153663e+01
0	 9.857143e+00	 2.142857e+00	 1.150888e+01
0	 9.928571e+00	 1.785714e+00	 1.170121e+01
0	 9.928571e+00	 1.857143e+00	 1.167162e+01
0	 9.928571e+00	 1.928571e+00	 1.164217e+01
0	 9.928571e+00	 2.000000e+00	 1.161284e+01
0	 9.928571e+00	 2.071429e+00	 1.158365e+01
0	 9.928571e+00	 2.142857e+00	 1.155459e+01
0	 1.000000e+01	 1.785714e+00	 1.175547e+01
0	 1.000000e+01	 1.857143e+00	 1.172443e+01
0	 1.000000e+01	 1.928571e+00	 1.169353e+01
0	 1.000000e+01	 2.000000e+00	 1.166275e+01
0	 1.000000e+01	 2.071429e+00	 1.163212e+01
0	 1.000000e+01	 2.142857e+00	 1.160162e+01
0	 9.642857e+00	 2.142857e+00	 1.137970e+01
0	 9.642857e+00	 2.214286e+00	 1.135275e+01
0	 9.642857e+00	 2.285714e+00	 1.132587e+01
0	 9.642857e+00	 2.357143e+00	 1.129906e+01
0	 9.642857e+00	 2.428571e+00	 1.127232e+01
0	 9.642857e+00	 2.500000e+00	 1.124564e+01
0	 9.714286e+00	 2.142857e+00	 1.142144e+01
0	 9.714286e+00	 2.214286e+00	 1.139346e+01
0	 9.714286e+00	 2.285714e+00	 1.136554e+01
0	 9.714286e+00	 2.357143e+00	 1.133771e+01
0	 9.714286e+00	 2.428571e+00	 1.130994e+01
0	 9.714286e+00	 2.500000e+00	 1.128225e+01
0	 9.785714e+00	 2.142857e+00	 1.146450e+01
0	 9.785714e+00	 2.214286e+00	 1.143536e+01
0	 9.785714e+00	 2.285714e+00	 1.140630e+01
0	 9.785714e+00	 2.357143e+00	 1.137731e+01
0	 9.785714e+00	 2.428571e+00	 1.134839e+01
0	 9.785714e+00	 2.500000e+00	 1.131956e+01
0	 9.857143e+00	 2.142857e+00	 1.150888e+01
0	 9.857143e+00	 2.214286e+00	 1.147846e+01
0	 9.857143e+00	 2.285714e+00	 1.144813e+01
0	 9.857143e+00	 2.357143e+00	 1.141786e+01
0	 9.857143e+00	 2.428571e+00	 1.138768e+01
0	 9.857143e+00	 2.500000e+00	 1.135757e+01
0	 9.928571e+00	 2.142857e+00	 1.155459e+01
0	 9.928571e+00	 2.214286e+00	 1.152277e+01
0	 9.928571e+00	 2.285714e+00	 1.149103e+01
0	 9.928571e+00	 2.357143e+00	 1.145937e+01
0	 9.928571e+00	 2.428571e+00	 1.142779e+01
0	 9.928571e+00	 2.500000e+00	 1.139630e+01
0	 1.000000e+01	 2.142857e+00	 1.160162e+01
0	 1.000000e+01	 2.214286e+00	 1.156828e+01
0	 1.000000e+01	 2.285714e+00	 1.153502e+01
0	 1.000000e+01	 2.357143e+00	 1.150184e+01
0	 1.000000e+01	 2.428571e+00	 1.146874e+01
0	 1.000000e+01	 2.500000e+00	 1.143573e+01
0	 9.642857e+00	 2.500000e+00	 1.124564e+01
0	 9.642857e+00	 2.571429e+00	 1.121766e+01
0	 9.642857e+00	 2.642857e+00	 1.118969e+01
0	 9.642857e+00	 2.714286e+00	 1.116176e+01
0	 9.642857e+00	 2.785714e+00	 1.113385e+01
0	 9.642857e+00	 2.857143e+00	 1.110597e+01
0	 9.714286e+00	 2.500000e+00	 1.128225e+01
0	 9.714286e+00	 2.571429e+00	 1.125320e+01
0	 9.714286e+00	 2.642857e+00	 1.122418e+01
0	 9.714286e+00	 2.714286e+00	 1.119519e+01
0	 9.714286e+00	 2.785714e+00	 1.116622e+01
0	 9.714286e+00	 2.857143e+00	 1.113729e+01
0	 9.785714e+00	 2.500000e+00	 1.131956e+01
0	 9.785714e+00	 2.571429e+00	 1.128933e+01
0	 9.785714e+00	 2.642857e+00	 1.125914e+01
0	 9.785714e+00	 2.714286e+00	 1.122897e+01
0	 9.785714e+00	 2.785714e+00	 1.119883e+01
0	 9.785714e+00	 2.857143e+00	 1.116872e+01
0	 9.857143e+00	 2.500000e+00	 1.135757e+01
0	 9.857143e+00	 2.571429e+00	 1.132605e+01
0	 9.857143e+00	 2.642857e+00	 1.129457e+01
0	 9.857143e+00	 2.714286e+00	 1.126311e+01
0	 9.857143e+00	 2.785714e+00	 1.123168e+01
0	 9.857143e+00	 2.857143e+00	 1.120028e+01
0	 9.928571e+00	 2.500000e+00	 1.139630e+01
0	 9.928571e+00	 2.571429e+00	 1.136337e+01
0	 9.928571e+00	 2.642857e+00	 1.133047e+01
0	 9.928571e+00	 2.714286e+00	 1.129760e+01
0	 9.928571e+00	 2.785714e+00	 1.126476e+01
0	 9.928571e+00	 2.857143e+00	 1.123195e+01
0	 1.000000e+01	 2.500000e+00	 1.143573e+01
0	 1.000000e+01	 2.571429e+00	 1.140127e+01
0	 1.000000e+01	 2.642857e+00	 1.136684e+01
0	 1.000000e+01	 2.714286e+00	 1.133244e+01
0	 1.000000e+01	 2.785714e+00	 1.129808e+01
0	 1.000000e+01	 2.857143e+00	 1.126374e+01
0	 9.642857e+00	 2.857143e+00	 1.110597e+01
0	 9.642857e+00	 2.928571e+00	 1.107783e+01
0	 9.642857e+00	 3.000000e+00	 1.104967e+01
0	 9.642857e+00	 3.071429e+00	 1.102150e+01
0	 9.642857e+00	 3.142857e+00	 1.099331e+01
0	 9.642857e+00	 3.214286e+00	 1.096512e+01
0	 9.714286e+00	 2.857143e+00	 1.113729e+01
0	 9.714286e+00	 2.928571e+00	 1.110809e+01
0	 9.714286e+00	 3.000000e+00	 1.107888e+01
0	 9.714286e+00	 3.071429e+00	 1.104966e+01
0	 9.714286e+00	 3.142857e+00	 1.102042e+01
0	 9.714286e+00	 3.214286e+00	 1.099117e+01
0	 9.785714e+00	 2.857143e+00	 1.116872e+01
0	 9.785714e+00	 2.928571e+00	 1.113837e+01
0	 9.785714e+00	 3.000000e+00	 1.110801e+01
0	 9.785714e+00	 3.071429e+00	 1.107762e+01
0	 9.785714e+00	 3.142857e+00	 1.104723e+01
0	 9.785714e+00	 3.214286e+00	 1.101682e+01
0	 9.857143e+00	 2.857143e+00	 1.120028e+01
0	 9.857143e+00	 2.928571e+00	 1.116866e+01
0	 9.857143e+00	 3.000000e+00	 1.113703e+01
0	 9.857143e+00	 3.071429e+00	 1.110539e+01
0	 9.857143e+00	 3.142857e+00	 1.107373e+01
0	 9.857143e+00	 3.214286e+00	 1.104206e+01
0	 9.928571e+00	 2.857143e+00	 1.123195e+01
0	 9.928571e+00	 2.928571e+00	 1.119897e+01
0	 9.928571e+00	 3.000000e+00	 1.116597e+01
0	 9.928571e+00	 3.071429e+00	 1.113295e+01
0	 9.928571e+00	 3.142857e+00	 1.109992e+01
0	 9.928571e+00	 3.214286e+00	 1.106688e+01
0	 1.000000e+01	 2.857143e+00	 1.126374e+01
0	 1.000000e+01	 2.928571e+00	 1.122928e+01
0	 1.000000e+01	 3.000000e+00	 1.119481e+01
0	 1.000000e+01	 3.071429e+00	 1.116032e+01
0	 1.000000e+01	 3.142857e+00	 1.112581e+01
0	 1.000000e+01	 3.214286e+00	 1.109128e+01
0	 9.642857e+00	 3.214286e+00	 1.096512e+01
0	 9.642857e+00	 3.285714e+00	 1.093760e+01
0	 9.642857e+00	 3.357143e+00	 1.091005e+01
0	 9.642857e+00	 3.428571e+00	 1.088244e+01
0	 9.642857e+00	 3.500000e+00	 1.085479e+01
0	 9.642857e+00	 3.571429e+00	 1.082709e+01
0	 9.714286e+00	 3.214286e+00	 1.099117e+01
0	 9.714286e+00	 3.285714e+00	 1.096266e+01
0	 9.714286e+00	 3.357143e+00	 1.093409e+01
0	 9.714286e+00	 3.428571e+00	 1.090547e+01
0	 9.714286e+00	 3.500000e+00	 1.087680e+01
0	 9.714286e+00	 3.571429e+00	 1.084809e+01
0	 9.785714e+00	 3.214286e+00	 1.101682e+01
0	 9.785714e+00	 3.285714e+00	 1.098720e+01
0	 9.785714e+00	 3.357143e+00	 1.095753e+01
0	 9.785714e+00	 3.428571e+00	 1.092781e+01
0	 9.785714e+00	 3.500000e+00	 1.089804e+01
0	 9.785714e+00	 3.571429e+00	 1.086822e+01
0	 9.857143e+00	 3.214286e+00	 1.104206e+01
0	 9.857143e+00	 3.285714e+00	 1.101125e+01
0	 9.857143e+00	 3.357143e+00	 1.098039e+01
0	 9.857143e+00	 3.428571e+00	 1.094947e+01
0	 9.857143e+00	 3.500000e+00	 1.091850e+01
0	 9.857143e+00	 3.571429e+00	 1.088748e+01
0	 9.928571e+00	 3.214286e+00	 1.106688e+01
0	 9.928571e+00	 3.285714e+00	 1.103479e+01
0	 9.928571e+00	 3.357143e+00	 1.100264e+01
0	 9.928571e+00	 3.428571e+00	 1.097044e+01
0	 9.928571e+00	 3.500000e+00	 1.093819e+01
0	 9.928571e+00	 3.571429e+00	 1.090588e+01
0	 1.000000e+01	 3.214286e+00	 1.109128e+01
0	 1.000000e+01	 3.285714e+00	 1.105783e+01
0	 1.000000e+01	 3.357143e+00	 1.102431e+01
0	 1.000000e+01	 3.428571e+00	 1.099073e+01
0	 1.000000e+01	 3.500000e+00	 1.095710e+01
0	 1.000000e+01	 3.571429e+00	 1.092340e+01
0	 9.642857e+00	 3.571429e+00	 1.082709e+01
0	 9.642857e+00	 3.642857e+00	 1.080089e+01
0	 9.642857e+00	 3.714286e+00	 1.077461e+01
0	 9.642857e+00	 3.785714e+00	 1.074826e+01
0	 9.642857e+00	 3.857143e+00	 1.072184e+01
0	 9.642857e+00	 3.928571e+00	 1.069533e+01
0	 9.714286e+00	 3.571429e+00	 1.084809e+01
0	 9.714286e+00	 3.642857e+00	 1.082095e+01
0	 9.714286e+00	 3.714286e+00	 1.079373e+01
0	 9.714286e+00	 3.785714e+00	 1.076644e+01
0	 9.714286e+00	 3.857143e+00	 1.073906e+01
0	 9.714286e+00	 3.928571e+00	 1.071161e+01
0	 9.785714e+00	 3.571429e+00	 1.086822e+01
0	 9.785714e+00	 3.642857e+00	 1.084007e+01
0	 9.785714e+00	 3.714286e+00	 1.081184e+01
0	 9.785714e+00	 3.785714e+00	 1.078352e+01
0	 9.785714e+00	 3.857143e+00	 1.075513e+01
0	 9.785714e+00	 3.928571e+00	 1.072665e+01
0	 9.857143e+00	 3.571429e+00	 1.088748e+01
0	 9.857143e+00	 3.642857e+00	 1.085825e+01
0	 9.857143e+00	 3.714286e+00	 1.082893e+01
0	 9.857143e+00	 3.785714e+00	 1.079952e+01
0	 9.857143e+00	 3.857143e+00	 1.077003e+01
0	 9.857143e+00	 3.928571e+00	 1.074045e+01
0	 9.928571e+00	 3.571429e+00	 1.090588e+01
0	 9.928571e+00	 3.642857e+00	 1.087548e+01
0	 9.928571e+00	 3.714286e+00	 1.084500e+01
0	 9.928571e+00	 3.785714e+00	 1.081444e+01
0	 9.928571e+00	 3.857143e+00	 1.078378e+01
0	 9.928571e+00	 3.928571e+00	 1.075303e+01
0	 1.000000e+01	 3.571429e+00	 1.092340e+01
0	 1.000000e+01	 3.642857e+00	 1.089178e+01
0	 1.000000e+01	 3.714286e+00	 1.086007e+01
0	 1.000000e+01	 3.785714e+00	 1.082826e+01
0	 1.000000e+01	 3.857143e+00	 1.079636e+01
0	 1.000000e+01	 3.928571e+00	 1.076437e+01
0	 9.642857e+00	 3.928571e+00	 1.069533e+01
0	 9.642857e+00	 4.000000e+00	 1.067099e+01
0	 9.642857e+00	 4.071429e+00	 1.064655e+01
0	 9.642857e+00	 4.142857e+00	 1.062201e+01
0	 9.642857e+00	 4.214286e+00	 1.059738e+01
0	 9.642857e+00	 4.285714e+00	 1.057265e+01
0	 9.714286e+00	 3.928571e+00	 1.071161e+01
0	 9.714286e+00	 4.000000e+00	 1.068642e+01
0	 9.714286e+00	 4.071429e+00	 1.066113e+01
0	 9.714286e+00	 4.142857e+00	 1.063573e+01
0	 9.714286e+00	 4.214286e+00	 1.061024e+01
0	 9.714286e+00	 4.285714e+00	 1.058464e+01
0	 9.785714e+00	 3.928571e+00	 1.072665e+01
0	 9.785714e+00	 4.000000e+00	 1.070056e+01
0	 9.785714e+00	 4.071429e+00	 1.067436e+01
0	 9.785714e+00	 4.142857e+00	 1.064805e+01
0	 9.785714e+00	 4.214286e+00	 1.062164e+01
0	 9.785714e+00	 4.285714e+00	 1.059513e+01
0	 9.857143e+00	 3.928571e+00	 1.074045e+01
0	 9.857143e+00	 4.000000e+00	 1.071341e+01
0	 9.857143e+00	 4.071429e+00	 1.068625e+01
0	 9.857143e+00	 4.142857e+00	 1.065898e+01
0	 9.857143e+00	 4.214286e+00	 1.063160e+01
0	 9.857143e+00	 4.285714e+00	 1.060411e+01
0	 9.928571e+00	 3.928571e+00	 1.075303e+01
0	 9.928571e+00	 4.000000e+00	 1.072497e+01
0	 9.928571e+00	 4.071429e+00	 1.069680e+01
0	 9.928571e+00	 4.142857e+00	 1.066851e+01
0	 9.928571e+00	 4.214286e+00	 1.064011e+01
0	 9.928571e+00	 4.285714e+00	 1.061159e+01
0	 1.000000e+01	 3.928571e+00	 1.076437e+01
0	 1.000000e+01	 4.000000e+00	 1.073525e+01
0	 1.000000e+01	 4.071429e+00	 1.070601e+01
0	 1.000000e+01	 4.142857e+00	 1.067665e+01
0	 1.000000e+01	 4.214286e+00	 1.064717e+01
0	 1.000000e+01	 4.285714e+00	 1.061757e+01
0	 9.642857e+00	 4.285714e+00	 1.057265e+01
0	 9.642857e+00	 4.357143e+00	 1.055056e+01
0	 9.642857e+00	 4.428571e+00	 1.052837e+01
0	 9.642857e+00	 4.500000e+00	 1.050606e+01
0	 9.642857e+00	 4.571429e+00	 1.048364e+01
0	 9.642857e+00	 4.642857e+00	 1.046110e+01
0	 9.714286e+00	 4.285714e+00	 1.058464e+01
0	 9.714286e+00	 4.357143e+00	 1.056181e+01
0	 9.714286e+00	 4.428571e+00	 1.053887e+01
0	 9.714286e+00	 4.500000e+00	 1.051581e+01
0	 9.714286e+00	 4.571429e+00	 1.049263e+01
0	 9.714286e+00	 4.642857e+00	 1.046934e+01
0	 9.785714e+00	 4.285714e+00	 1.059513e+01
0	 9.785714e+00	 4.357143e+00	 1.057152e+01
0	 9.785714e+00	 4.428571e+00	 1.054780e+01
0	 9.785714e+00	 4.500000e+00	 1.052395e+01
0	 9.785714e+00	 4.571429e+00	 1.049998e+01
0	 9.785714e+00	 4.642857e+00	 1.047589e+01
0	 9.857143e+00	 4.285714e+00	 1.060411e+01
0	 9.857143e+00	 4.357143e+00	 1.057970e+01
0	 9.857143e+00	 4.428571e+00	 1.055515e+01
0	 9.857143e+00	 4.500000e+00	 1.053048e+01
0	 9.857143e+00	 4.571429e+00	 1.050569e+01
0	 9.857143e+00	 4.642857e+00	 1.048076e+01
0	 9.928571e+00	 4.285714e+00	 1.061159e+01
0	 9.928571e+00	 4.357143e+00	 1.058633e+01
0	 9.928571e+00	 4.428571e+00	 1.056093e+01
0	 9.928571e+00	 4.500000e+00	 1.053541e+01
0	 9.928571e+00	 4.571429e+00	 1.050975e+01
0	 9.928571e+00	 4.642857e+00	 1.048395e+01
0	 1.000000e+01	 4.285714e+00	 1.061757e+01
0	 1.000000e+01	 4.357143e+00	 1.059142e+01
0	 1.000000e+01	 4.428571e+00	 1.056514e+01
0	 1.000000e+01	 4.500000e+00	 1.053872e+01
0	 1.000000e+01	 4.571429e+00	 1.051216e+01
0	 1.000000e+01	 4.642857e+00	 1.048547e+01
0	 9.642857e+00	 4.642857e+00	 1.046110e+01
0	 9.642857e+00	 4.714286e+00	 1.044155e+01
0	 9.642857e+00	 4.785714e+00	 1.042187e+01
0	 9.642857e+00	 4.857143e+00	 1.040206e+01
0	 9.642857e+00	 4.928571e+00	 1.038214e+01
0	 9.642857e+00	 5.000000e+00	 1.036209e+01
0	 9.714286e+00	 4.642857e+00	 1.046934e+01
0	 9.714286e+00	 4.714286e+00	 1.044915e+01
0	 9.714286e+00	 4.785714e+00	 1.042884e+01
0	 9.714286e+00	 4.857143e+00	 1.040840e+01
0	 9.714286e+00	 4.928571e+00	 1.038783e+01
0	 9.714286e+00	 5.000000e+00	 1.036713e+01
0	 9.785714e+00	 4.642857e+00	 1.047589e+01
0	 9.785714e+00	 4.714286e+00	 1.045506e+01
0	 9.785714e+00	 4.785714e+00	 1.043409e+01
0	 9.785714e+00	 4.857143e+00	 1.041299e+01
0	 9.785714e+00	 4.928571e+00	 1.039176e+01
0	 9.785714e+00	 5.000000e+00	 1.037040e+01
0	 9.857143e+00	 4.642857e+00	 1.048076e+01
0	 9.857143e+00	 4.714286e+00	 1.045926e+01
0	 9.857143e+00	 4.785714e+00	 1.043763e+01
0	 9.857143e+00	 4.857143e+00	 1.041586e+01
0	 9.857143e+00	 4.928571e+00	 1.039395e+01
0	 9.857143e+00	 5.000000e+00	 1.037190e+01
0	 9.928571e+00	 4.642857e+00	 1.048395e+01
0	 9.928571e+00	 4.714286e+00	 1.046178e+01
0	 9.928571e+00	 4.785714e+00	 1.043945e+01
0	 9.928571e+00	 4.857143e+00	 1.041699e+01
0	 9.928571e+00	 4.928571e+00	 1.039439e+01
0	 9.928571e+00	 5.000000e+00	 1.037164e+01
0	 1.000000e+01	 4.642857e+00	 1.048547e+01
0	 1.000000e+01	 4.714286e+00	 1.046259e+01
0	 1.000000e+01	 4.785714e+00	 1.043956e+01
0	 1.000000e+01	 4.857143e+00	 1.041639e+01
0	 1.000000e+01	 4.928571e+00	 1.039307e+01
0	 1.000000e+01	 5.000000e+00	 1.036960e+01
0	 9.642857e+00	 5.000000e+00	 1.036209e+01
0	 9.642857e+00	 5.071429e+00	 1.034519e+01
0	 9.642857e+00	 5.142857e+00	 1.032816e+01
0	 9.642857e+00	 5.214286e+00	 1.031101e+01
0	 9.642857e+00	 5.285714e+00	 1.029373e+01
0	 9.642857e+00	 5.357143e+00	 1.027633e+01
0	 9.714286e+00	 5.000000e+00	 1.036713e+01
0	 9.714286e+00	 5.071429e+00	 1.034972e+01
0	 9.714286e+00	 5.142857e+00	 1.033217e+01
0	 9.714286e+00	 5.214286e+00	 1.031450e+01
0	 9.714286e+00	 5.285714e+00	 1.029669e+01
0	 9.714286e+00	 5.357143e+00	 1.027876e+01
0	 9.785714e+00	 5.000000e+00	 1.037040e+01
0	 9.785714e+00	 5.071429e+00	 1.035247e+01
0	 9.785714e+00	 5.142857e+00	 1.033441e+01
0	 9.785714e+00	 5.214286e+00	 1.031621e+01
0	 9.785714e+00	 5.285714e+00	 1.029788e+01
0	 9.785714e+00	 5.357143e+00	 1.027941e+01
0	 9.857143e+00	 5.000000e+00	 1.037190e+01
0	 9.857143e+00	 5.071429e+00	 1.035346e+01
0	 9.857143e+00	 5.142857e+00	 1.033488e+01
0	 9.857143e+00	 5.214286e+00	 1.031615e+01
0	 9.857143e+00	 5.285714e+00	 1.029729e+01
0	 9.857143e+00	 5.357143e+00	 1.027828e+01
0	 9.928571e+00	 5.000000e+00	 1.037164e+01
0	 9.928571e+00	 5.071429e+00	 1.035268e+01
0	 9.928571e+00	 5.142857e+00	 1.033357e+01
0	 9.928571e+00	 5.214286e+00	 1.031432e+01
0	 9.928571e+00	 5.285714e+00	 1.029492e+01
0	 9.928571e+00	 5.357143e+00	 1.027537e+01
0	 1.000000e+01	 5.000000e+00	 1.036960e+01
0	 1.000000e+01	 5.071429e+00	 1.035012e+01
0	 1.000000e+01	 5.142857e+00	 1.033049e+01
0	 1.000000e+01	 5.214286e+00	 1.031071e+01
0	 1.000000e+01	 5.285714e+00	 1.029077e+01
0	 1.000000e+01	 5.357143e+00	 1.027069e+01
0	 9.642857e+00	 5.357143e+00	 1.027633e+01
0	 9.642857e+00	 5.428571e+00	 1.026210e+01
0	 9.642857e+00	 5.500000e+00	 1.024775e+01
0	 9.642857e+00	 5.571429e+00	 1.023327e+01
0	 9.642857e+00	 5.642857e+00	 1.021867e+01
0	 9.642857e+00	 5.714286e+00	 1.020395e+01
0	 9.714286e+00	 5.357143e+00	 1.027876e+01
0	 9.714286e+00	 5.428571e+00	 1.026413e+01
0	 9.714286e+00	 5.500000e+00	 1.024937e+01
0	 9.714286e+00	 5.571429e+00	 1.023449e+01
0	 9.714286e+00	 5.642857e+00	 1.021948e+01
0	 9.714286e+00	 5.714286e+00	 1.020434e+01
0	 9.785714e+00	 5.357143e+00	 1.027941e+01
0	 9.785714e+00	 5.428571e+00	 1.026439e+01
0	 9.785714e+00	 5.500000e+00	 1.024924e+01
0	 9.785714e+00	 5.571429e+00	 1.023396e+01
0	 9.785714e+00	 5.642857e+00	 1.021855e+01
0	 9.785714e+00	 5.714286e+00	 1.020300e+01
0	 9.857143e+00	 5.357143e+00	 1.027828e+01
0	 9.857143e+00	 5.428571e+00	 1.026289e+01
0	 9.857143e+00	 5.500000e+00	 1.024736e+01
0	 9.857143e+00	 5.571429e+00	 1.023169e+01
0	 9.857143e+00	 5.642857e+00	 1.021589e+01
0	 9.857143e+00	 5.714286e+00	 1.019995e+01
0	 9.928571e+00	 5.357143e+00	 1.027537e+01
0	 9.928571e+00	 5.428571e+00	 1.025962e+01
0	 9.928571e+00	 5.500000e+00	 1.024372e+01
0	 9.928571e+00	 5.571429e+00	 1.022768e+01
0	 9.928571e+00	 5.642857e+00	 1.021150e+01
0	 9.928571e+00	 5.714286e+00	 1.019518e+01
0	 1.000000e+01	 5.357143e+00	 1.027069e+01
0	 1.000000e+01	 5.428571e+00	 1.025458e+01
0	 1.000000e+01	 5.500000e+00	 1.023833e+01
0	 1.000000e+01	 5.571429e+00	 1.022193e+01
0	 1.000000e+01	 5.642857e+00	 1.020538e+01
0	 1.000000e+01	 5.714286e+00	 1.018868e+01
0	 9.642857e+00	 5.714286e+00	 1.020395e+01
0	 9.642857e+00	 5.785714e+00	 1.019231e+01
0	 9.642857e+00	 5.857143e+00	 1.018054e+01
0	 9.642857e+00	 5.928571e+00	 1.016867e+01
0	 9.642857e+00	 6.000000e+00	 1.015667e+01
0	 9.642857e+00	 6.071429e+00	 1.014456e+01
0	 9.714286e+00	 5.714286e+00	 1.020434e+01
0	 9.714286e+00	 5.785714e+00	 1.019240e+01
0	 9.714286e+00	 5.857143e+00	 1.018034e+01
0	 9.714286e+00	 5.928571e+00	 1.016817e+01
0	 9.714286e+00	 6.000000e+00	 1.015587e+01
0	 9.714286e+00	 6.071429e+00	 1.014345e+01
0	 9.785714e+00	 5.714286e+00	 1.020300e+01
0	 9.785714e+00	 5.785714e+00	 1.019080e+01
0	 9.785714e+00	 5.857143e+00	 1.017847e+01
0	 9.785714e+00	 5.928571e+00	 1.016601e+01
0	 9.785714e+00	 6.000000e+00	 1.015343e+01
0	 9.785714e+00	 6.071429e+00	 1.014072e+01
0	 9.857143e+00	 5.714286e+00	 1.019995e+01
0	 9.857143e+00	 5.785714e+00	 1.018750e+01
0	 9.857143e+00	 5.857143e+00	 1.017492e+01
0	 9.857143e+00	 5.928571e+00	 1.016221e+01
0	 9.857143e+00	 6.000000e+00	 1.014937e+01
0	 9.857143e+00	 6.071429e+00	 1.013639e+01
0	 9.928571e+00	 5.714286e+00	 1.019518e+01
0	 9.928571e+00	 5.785714e+00	 1.018250e+01
0	 9.928571e+00	 5.857143e+00	 1.016969e+01
0	 9.928571e+00	 5.928571e+00	 1.015675e+01
0	 9.928571e+00	 6.000000e+00	 1.014367e+01
0	 9.928571e+00	 6.071429e+00	 1.013046e+01
0	 1.000000e+01	 5.714286e+00	 1.018868e+01
0	 1.000000e+01	 5.785714e+00	 1.017581e+01
0	 1.000000e+01	 5.857143e+00	 1.016279e+01
0	 1.000000e+01	 5.928571e+00	 1.014964e+01
0	 1.000000e+01	 6.000000e+00	 1.013635e+01
0	 1.000000e+01	 6.071429e+00	 1.012291e+01
0	 9.642857e+00	 6.071429e+00	 1.014456e+01
0	 9.642857e+00	 6.142857e+00	 1.013534e+01
0	 9.642857e+00	 6.214286e+00	 1.012601e+01
0	 9.642857e+00	 6.285714e+00	 1.011657e+01
0	 9.642857e+00	 6.357143e+00	 1.010703e+01
0	 9.642857e+00	 6.428571e+00	 1.009738e+01
0	 9.714286e+00	 6.071429e+00	 1.014345e+01
0	 9.714286e+00	 6.142857e+00	 1.013403e+01
0	 9.714286e+00	 6.214286e+00	 1.012450e+01
0	 9.714286e+00	 6.285714e+00	 1.011486e+01
0	 9.714286e+00	 6.357143e+00	 1.010511e+01
0	 9.714286e+00	 6.428571e+00	 1.009525e+01
0	 9.785714e+00	 6.071429e+00	 1.014072e+01
0	 9.785714e+00	 6.142857e+00	 1.013114e+01
0	 9.785714e+00	 6.214286e+00	 1.012145e+01
0	 9.785714e+00	 6.285714e+00	 1.011164e+01
0	 9.785714e+00	 6.357143e+00	 1.010171e+01
0	 9.785714e+00	 6.428571e+00	 1.009167e+01
0	 9.857143e+00	 6.071429e+00	 1.013639e+01
0	 9.857143e+00	 6.142857e+00	 1.012668e+01
0	 9.857143e+00	 6.214286e+00	 1.011685e+01
0	 9.857143e+00	 6.285714e+00	 1.010690e+01
0	 9.857143e+00	 6.357143e+00	 1.009683e+01
0	 9.857143e+00	 6.428571e+00	 1.008663e+01
0	 9.928571e+00	 6.071429e+00	 1.013046e+01
0	 9.928571e+00	 6.142857e+00	 1.012064e+01
0	 9.928571e+00	 6.214286e+00	 1.011070e+01
0	 9.928571e+00	 6.285714e+00	 1.010064e+01
0	 9.928571e+00	 6.357143e+00	 1.009046e+01
0	 9.928571e+00	 6.428571e+00	 1.008015e+01
0	 1.000000e+01	 6.071429e+00	 1.012291e+01
0	 1.000000e+01	 6.142857e+00	 1.011303e+01
0	 1.000000e+01	 6.214286e+00	 1.010301e+01
0	 1.000000e+01	 6.285714e+00	 1.009287e+01
0	 1.000000e+01	 6.357143e+00	 1.008260e+01
0	 1.000000e+01	 6.428571e+00	 1.007221e+01
0	 9.642857e+00	 6.428571e+00	 1.009738e+01
0	 9.642857e+00	 6.500000e+00	 1.009035e+01
0	 9.642857e+00	 6.571429e+00	 1.008322e+01
0	 9.642857e+00	 6.642857e+00	 1.007600e+01
0	 9.642857e+00	 6.714286e+00	 1.006868e+01
0	 9.642857e+00	 6.785714e+00	 1.006127e+01
0	 9.714286e+00	 6.428571e+00	 1.009525e+01
0	 9.714286e+00	 6.500000e+00	 1.008811e+01
0	 9.714286e+00	 6.571429e+00	 1.008087e+01
0	 9.714286e+00	 6.642857e+00	 1.007353e+01
0	 9.714286e+00	 6.714286e+00	 1.006610e+01
0	 9.714286e+00	 6.785714e+00	 1.005856e+01
0	 9.785714e+00	 6.428571e+00	 1.009167e+01
0	 9.785714e+00	 6.500000e+00	 1.008446e+01
0	 9.785714e+00	 6.571429e+00	 1.007714e+01
0	 9.785714e+00	 6.642857e+00	 1.006972e+01
0	 9.785714e+00	 6.714286e+00	 1.006220e+01
0	 9.785714e+00	 6.785714e+00	 1.005458e+01
0	 9.857143e+00	 6.428571e+00	 1.008663e+01
0	 9.857143e+00	 6.500000e+00	 1.007939e+01
0	 9.857143e+00	 6.571429e+00	 1.007203e+01
0	 9.857143e+00	 6.642857e+00	 1.006457e+01
0	 9.857143e+00	 6.714286e+00	 1.005700e+01
0	 9.857143e+00	 6.785714e+00	 1.004933e+01
0	 9.928571e+00	 6.428571e+00	 1.008015e+01
0	 9.928571e+00	 6.500000e+00	 1.007290e+01
0	 9.928571e+00	 6.571429e+00	 1.006554e+01
0	 9.928571e+00	 6.642857e+00	 1.005807e+01
0	 9.928571e+00	 6.714286e+00	 1.005050e+01
0	 9.928571e+00	 6.785714e+00	 1.004281e+01
0	 1.000000e+01	 6.428571e+00	 1.007221e+01
0	 1.000000e+01	 6.500000e+00	 1.006500e+01
0	 1.000000e+01	 6.571429e+00	 1.005767e+01
0	 1.000000e+01	 6.642857e+00	 1.005023e+01
0	 1.000000e+01	 6.714286e+00	 1.004268e+01
0	 1.000000e+01	 6.785714e+00	 1.003502e+01
0	 9.642857e+00	 6.785714e+00	 1.006127e+01
0	 9.642857e+00	 6.857143e+00	 1.005616e+01
0	 9.642857e+00	 6.928571e+00	 1.005097e+01
0	 9.642857e+00	 7.000000e+00	 1.004569e+01
0	 9.642857e+00	 7.071429e+00	 1.004034e+01
0	 9.642857e+00	 7.142857e+00	 1.003490e+01
0	 9.714286e+00	 6.785714e+00	 1.005856e+01
0	 9.714286e+00	 6.857143e+00	 1.005341e+01
0	 9.714286e+00	 6.928571e+00	 1.004818e+01
0	 9.714286e+00	 7.000000e+00	 1.004286e+01
0	 9.714286e+00	 7.071429e+00	 1.003746e+01
0	 9.714286e+00	 7.142857e+00	 1.003197e+01
0	 9.785714e+00	 6.785714e+00	 1.005458e+01
0	 9.785714e+00	 6.857143e+00	 1.004943e+01
0	 9.785714e+00	 6.928571e+00	 1.004420e+01
0	 9.785714e+00	 7.000000e+00	 1.003887e+01
0	 9.785714e+00	 7.071429e+00	 1.003346e+01
0	 9.785714e+00	 7.142857e+00	 1.002797e+01
0	 9.857143e+00	 6.785714e+00	 1.004933e+01
0	 9.857143e+00	 6.857143e+00	 1.004422e+01
0	 9.857143e+00	 6.928571e+00	 1.003903e+01
0	 9.857143e+00	 7.000000e+00	 1.003374e+01
0	 9.857143e+00	 7.071429e+00	 1.002836e+01
0	 9.857143e+00	 7.142857e+00	 1.002289e+01
0	 9.928571e+00	 6.785714e+00	 1.004281e+01
0	 9.928571e+00	 6.857143e+00	 1.003779e+01
0	 9.928571e+00	 6.928571e+00	 1.003267e+01
0	 9.928571e+00	 7.000000e+00	 1.002746e+01
0	 9.928571e+00	 7.071429e+00	 1.002215e+01
0	 9.928571e+00	 7.142857e+00	 1.001675e+01
0	 1.000000e+01	 6.785714e+00	 1.003502e+01
0	 1.000000e+01	 6.857143e+00	 1.003012e+01
0	 1.000000e+01	 6.928571e+00	 1.002512e+01
0	 1.000000e+01	 7.000000e+00	 1.002002e+01
0	 1.000000e+01	 7.071429e+00	 1.001483e+01
0	 1.000000e+01	 7.142857e+00	 1.000954e+01
0	 9.642857e+00	 7.142857e+00	 1.003490e+01
0	 9.642857e+00	 7.214286e+00	 1.003141e+01
0	 9.642857e+00	 7.285714e+00	 1.002786e+01
0	 9.642857e+00	 7.357143e+00	 1.002423e+01
0	 9.642857e+00	 7.428571e+00	 1.002054e+01
0	 9.642857e+00	 7.500000e+00	 1.001679e+01
0	 9.714286e+00	 7.142857e+00	 1.003197e+01
0	 9.714286e+00	 7.214286e+00	 1.002850e+01
0	 9.714286e+00	 7.285714e+00	 1.002496e+01
0	 9.714286e+00	 7.357143e+00	 1.002135e+01
0	 9.714286e+00	 7.428571e+00	 1.001767e+01
0	 9.714286e+00	 7.500000e+00	 1.001392e+01
0	 9.785714e+00	 7.142857e+00	 1.002797e+01
0	 9.785714e+00	 7.214286e+00	 1.002456e+01
0	 9.785714e+00	 7.285714e+00	 1.002107e+01
0	 9.785714e+00	 7.357143e+00	 1.001752e+01
0	 9.785714e+00	 7.428571e+00	 1.001389e+01
0	 9.785714e+00	 7.500000e+00	 1.001019e+01
0	 9.857143e+00	 7.142857e+00	 1.002289e+01
0	 9.857143e+00	 7.214286e+00	 1.001958e+01
0	 9.857143e+00	 7.285714e+00	 1.001620e+01
0	 9.857143e+00	 7.357143e+00	 1.001274e+01
0	 9.857143e+00	 7.428571e+00	 1.000921e+01
0	 9.857143e+00	 7.500000e+00	 1.000560e+01
0	 9.928571e+00	 7.142857e+00	 1.001675e+01
0	 9.928571e+00	 7.214286e+00	 1.001358e+01
0	 9.928571e+00	 7.285714e+00	 1.001034e+01
0	 9.928571e+00	 7.357143e+00	 1.000702e+01
0	 9.928571e+00	 7.428571e+00	 1.000362e+01
0	 9.928571e+00	 7.500000e+00	 1.000014e+01
0	 1.000000e+01	 7.142857e+00	 1.000954e+01
0	 1.000000e+01	 7.214286e+00	 1.000656e+01
0	 1.000000e+01	 7.285714e+00	 1.000349e+01
0	 1.000000e+01	 7.357143e+00	 1.000035e+01
0	 1.000000e+01	 7.428571e+00	 9.997126e+00
0	 1.000000e+01	 7.500000e+00	 9.993825e+00
0	 9.642857e+00	 7.500000e+00	 1.001679e+01
0	 9.642857e+00	 7.571429e+00	 1.001461e+01
0	 9.642857e+00	 7.642857e+00	 1.001238e+01
0	 9.642857e+00	 7.714286e+00	 1.001010e+01
0	 9.642857e+00	 7.785714e+00	 1.000777e+01
0	 9.642857e+00	 7.857143e+00	 1.000538e+01
0	 9.714286e+00	 7.500000e+00	 1.001392e+01
0	 9.714286e+00	 7.571429e+00	 1.001181e+01
0	 9.714286e+00	 7.642857e+00	 1.000964e+01
0	 9.714286e+00	 7.714286e+00	 1.000741e+01
0	 9.714286e+00	 7.785714e+00	 1.000513e+01
0	 9.714286e+00	 7.857143e+00	 1.000280e+01
0	 9.785714e+00	 7.500000e+00	 1.001019e+01
0	 9.785714e+00	 7.571429e+00	 1.000818e+01
0	 9.785714e+00	 7.642857e+00	 1.000611e+01
0	 9.785714e+00	 7.714286e+00	 1.000398e+01
0	 9.785714e+00	 7.785714e+00	 1.000180e+01
0	 9.785714e+00	 7.857143e+00	 9.999560e+00
0	 9.857143e+00	 7.500000e+00	 1.000560e+01
0	 9.857143e+00	 7.571429e+00	 1.000373e+01
0	 9.857143e+00	 7.642857e+00	 1.000180e+01
0	 9.857143e+00	 7.714286e+00	 9.999809e+00
0	 9.857143e+00	 7.785714e+00	 9.997764e+00
0	 9.857143e+00	 7.857143e+00	 9.995660e+00
0	 9.928571e+00	 7.500000e+00	 1.000014e+01
0	 9.928571e+00	 7.571429e+00	 9.998454e+00
0	 9.928571e+00	 7.642857e+00	 9.996705e+00
0	 9.928571e+00	 7.714286e+00	 9.994896e+00
0	 9.928571e+00	 7.785714e+00	 9.993028e+00
0	 9.928571e+00	 7.857143e+00	 9.991100e+00
0	 1.000000e+01	 7.500000e+00	 9.993825e+00
0	 1.000000e+01	 7.571429e+00	 9.992359e+00
0	 1.000000e+01	 7.642857e+00	 9.990831e+00
0	 1.000000e+01	 7.714286e+00	 9.989242e+00
0	 1.000000e+01	 7.785714e+00	 9.987592e+00
0	 1.000000e+01	 7.857143e+00	 9.985880e+00
0	 9.642857e+00	 7.857143e+00	 1.000538e+01
0	 9.642857e+00	 7.928571e+00	 1.000422e+01
0	 9.642857e+00	 8.000000e+00	 1.000301e+01
0	 9.642857e+00	 8.071429e+00	 1.000177e+01
0	 9.642857e+00	 8.142857e+00	 1.000049e+01
0	 9.642857e+00	 8.214286e+00	 9.999166e+00
0	 9.714286e+00	 7.857143e+00	 1.000280e+01
0	 9.714286e+00	 7.928571e+00	 1.000173e+01
0	 9.714286e+00	 8.000000e+00	 1.000061e+01
0	 9.714286e+00	 8.071429e+00	 9.999453e+00
0	 9.714286e+00	 8.142857e+00	 9.998257e+00
0	 9.714286e+00	 8.214286e+00	 9.997021e+00
0	 9.785714e+00	 7.857143e+00	 9.999560e+00
0	 9.785714e+00	 7.928571e+00	 9.998613e+00
0	 9.785714e+00	 8.000000e+00	 9.997624e+00
0	 9.785714e+00	 8.071429e+00	 9.996593e+00
0	 9.785714e+00	 8.142857e+00	 9.995522e+00
0	 9.785714e+00	 8.214286e+00	 9.994409e+00
0	 9.857143e+00	 7.857143e+00	 9.995660e+00
0	 9.857143e+00	 7.928571e+00	 9.994879e+00
0	 9.857143e+00	 8.000000e+00	 9.994055e+00
0	 9.857143e+00	 8.071429e+00	 9.993189e+00
0	 9.857143e+00	 8.142857e+00	 9.992280e+00
0	 9.857143e+00	 8.214286e+00	 9.991329e+00
0	 9.928571e+00	 7.857143e+00	 9.991100e+00
0	 9.928571e+00	 7.928571e+00	 9.990523e+00
0	 9.928571e+00	 8.000000e+00	 9.989903e+00
0	 9.928571e+00	 8.071429e+00	 9.989240e+00
0	 9.928571e+00	 8.142857e+00	 9.988533e+00
0	 9.928571e+00	 8.214286e+00	 9.987783e+00
0	 1.000000e+01	 7.857143e+00	 9.985880e+00
0	 1.000000e+01	 7.928571e+00	 9.985547e+00
0	 1.000000e+01	 8.000000e+00	 9.985169e+00
0	 1.000000e+01	 8.071429e+00	 9.984747e+00
0	 1.000000e+01	 8.142857e+00	 9.984280e+00
0	 1.000000e+01	 8.214286e+00	 9.983768e+00
0	 9.642857e+00	 8.214286e+00	 9.999166e+00
0	 9.642857e+00	 8.285714e+00	 9.998722e+00
0	 9.642857e+00	 8.357143e+00	 9.998251e+00
0	 9.642857e+00	 8.428571e+00	 9.997754e+00
0	 9.642857e+00	 8.500000e+00	 9.997231e+00
0	 9.642857e+00	 8.571429e+00	 9.996680e+00
0	 9.714286e+00	 8.214286e+00	 9.997021e+00
0	 9.714286e+00	 8.285714e+00	 9.996683e+00
0	 9.714286e+00	 8.357143e+00	 9.996318e+00
0	 9.714286e+00	 8.428571e+00	 9.995925e+00
0	 9.714286e+00	 8.500000e+00	 9.995506e+00
0	 9.714286e+00	 8.571429e+00	 9.995060e+00
0	 9.785714e+00	 8.214286e+00	 9.994409e+00
0	 9.785714e+00	 8.285714e+00	 9.994212e+00
0	 9.785714e+00	 8.357143e+00	 9.993988e+00
0	 9.785714e+00	 8.428571e+00	 9.993736e+00
0	 9.785714e+00	 8.500000e+00	 9.993456e+00
0	 9.785714e+00	 8.571429e+00	 9.993149e+00
0	 9.857143e+00	 8.214286e+00	 9.991329e+00
0	 9.857143e+00	 8.285714e+00	 9.991310e+00
0	 9.857143e+00	 8.357143e+00	 9.991262e+00
0	 9.857143e+00	 8.428571e+00	 9.991186e+00
0	 9.857143e+00	 8.500000e+00	 9.991082e+00
0	 9.857143e+00	 8.571429e+00	 9.990950e+00
0	 9.928571e+00	 8.214286e+00	 9.987783e+00
0	 9.928571e+00	 8.285714e+00	 9.987975e+00
0	 9.928571e+00	 8.357143e+00	 9.988140e+00
0	 9.928571e+00	 8.428571e+00	 9.988275e+00
0	 9.928571e+00	 8.500000e+00	 9.988382e+00
0	 9.928571e+00	 8.571429e+00	 9.988461e+00
0	 1.000000e+01	 8.214286e+00	 9.983768e+00
0	 1.000000e+01	 8.285714e+00	 9.984209e+00
0	 1.000000e+01	 8.357143e+00	 9.984621e+00
0	 1.000000e+01	 8.428571e+00	 9.985004e+00
0	 1.000000e+01	 8.500000e+00	 9.985358e+00
0	 1.000000e+01	 8.571429e+00	 9.985682e+00
0	 9.642857e+00	 8.571429e+00	 9.996680e+00
0	 9.642857e+00	 8.642857e+00	 9.996697e+00
0	 9.642857e+00	 8.714286e+00	 9.996699e+00
0	 9.642857e+00	 8.785714e+00	 9.996684e+00
0	 9.642857e+00	 8.857143e+00	 9.996655e+00
0	 9.642857e+00	 8.928571e+00	 9.996610e+00
0	 9.714286e+00	 8.571429e+00	 9.995060e+00
0	 9.714286e+00	 8.642857e+00	 9.995187e+00
0	 9.714286e+00	 8.714286e+00	 9.995298e+00
0	 9.714286e+00	 8.785714e+00	 9.995394e+00
0	 9.714286e+00	 8.857143e+00	 9.995475e+00
0	 9.714286e+00	 8.928571e+00	 9.995541e+00
0	 9.785714e+00	 8.571429e+00	 9.993149e+00
0	 9.785714e+00	 8.642857e+00	 9.993418e+00
0	 9.785714e+00	 8.714286e+00	 9.993672e+00
0	 9.785714e+00	 8.785714e+00	 9.993910e+00
0	 9.785714e+00	 8.857143e+00	 9.994134e+00
0	 9.785714e+00	 8.928571e+00	 9.994341e+00
0	 9.857143e+00	 8.571429e+00	 9.990950e+00
0	 9.857143e+00	 8.642857e+00	 9.991393e+00
0	 9.857143e+00	 8.714286e+00	 9.991820e+00
0	 9.857143e+00	 8.785714e+00	 9.992233e+00
0	 9.857143e+00	 8.857143e+00	 9.992630e+00
0	 9.857143e+00	 8.928571e+00	 9.993012e+00
0	 9.928571e+00	 8.571429e+00	 9.988461e+00
0	 9.928571e+00	 8.642857e+00	 9.989109e+00
0	 9.928571e+00	 8.714286e+00	 9.989743e+00
0	 9.928571e+00	 8.785714e+00	 9.990361e+00
0	 9.928571e+00	 8.857143e+00	 9.990964e+00
0	 9.928571e+00	 8.928571e+00	 9.991552e+00
0	 1.000000e+01	 8.571429e+00	 9.985682e+00
0	 1.000000e+01	 8.642857e+00	 9.986569e+00
0	 1.000000e+01	 8.714286e+00	 9.987440e+00
0	 1.000000e+01	 8.785714e+00	 9.988295e+00
0	 1.000000e+01	 8.857143e+00	 9.989136e+00
0	 1.000000e+01	 8.928571e+00	 9.989962e+00
0	 9.642857e+00	 8.928571e+00	 9.996610e+00
0	 9.642857e+00	 9.000000e+00	 9.996848e+00
0	 9.642857e+00	 9.071429e+00	 9.997079e+00
0	 9.642857e+00	 9.142857e+00	 9.997302e+00
0	 9.642857e+00	 9.214286e+00	 9.997517e+00
0	 9.642857e+00	 9.285714e+00	 9.997724e+00
0	 9.714286e+00	 8.928571e+00	 9.995541e+00
0	 9.714286e+00	 9.000000e+00	 9.995875e+00
0	 9.714286e+00	 9.071429e+00	 9.996203e+00
0	 9.714286e+00	 9.142857e+00	 9.996525e+00
0	 9.714286e+00	 9.214286e+00	 9.996840e+00
0	 9.714286e+00	 9.285714e+00	 9.997150e+00
0	 9.785714e+00	 8.928571e+00	 9.994341e+00
0	 9.785714e+00	 9.000000e+00	 9.994804e+00
0	 9.785714e+00	 9.071429e+00	 9.995262e+00
0	 9.785714e+00	 9.142857e+00	 9.995715e+00
0	 9.785714e+00	 9.214286e+00	 9.996163e+00
0	 9.785714e+00	 9.285714e+00	 9.996607e+00
0	 9.857143e+00	 8.928571e+00	 9.993012e+00
0	 9.857143e+00	 9.000000e+00	 9.993635e+00
0	 9.857143e+00	 9.071429e+00	 9.994256e+00
0	 9.857143e+00	 9.142857e+00	 9.994873e+00
0	 9.857143e+00	 9.214286e+00	 9.995486e+00
0	 9.857143e+00	 9.285714e+00	 9.996096e+00
0	 9.928571e+00	 8.928571e+00	 9.991552e+00
0	 9.928571e+00	 9.000000e+00	 9.992369e+00
0	 9.928571e+00	 9.071429e+00	 9.993184e+00
0	 9.928571e+00	 9.142857e+00	 9.993997e+00
0	 9.928571e+00	 9.214286e+00	 9.994808e+00
0	 9.928571e+00	 9.285714e+00	 9.995617e+00
0	 1.000000e+01	 8.928571e+00	 9.989962e+00
0	 1.000000e+01	 9.000000e+00	 9.991005e+00
0	 1.000000e+01	 9.071429e+00	 9.992047e+00
0	 1.000000e+01	 9.142857e+00	 9.993088e+00
0	 1.000000e+01	 9.214286e+00	 9.994129e+00
0	 1.000000e+01	 9.285714e+00	 9.995170e+00
0	 9.642857e+00	 9.285714e+00	 9.997724e+00
0	 9.642857e+00	 9.357143e+00	 9.998036e+00
0	 9.642857e+00	 9.428571e+00	 9.998341e+00
0	 9.642857e+00	 9.500000e+00	 9.998641e+00
0	 9.642857e+00	 9.571429e+00	 9.998936e+00
0	 9.642857e+00	 9.642857e+00	 9.999224e+00
0	 9.714286e+00	 9.285714e+00	 9.997150e+00
0	 9.714286e+00	 9.357143e+00	 9.997523e+00
0	 9.714286e+00	 9.428571e+00	 9.997895e+00
0	 9.714286e+00	 9.500000e+00	 9.998264e+00
0	 9.714286e+00	 9.571429e+00	 9.998632e+00
0	 9.714286e+00	 9.642857e+00	 9.998999e+00
0	 9.785714e+00	 9.285714e+00	 9.996607e+00
0	 9.785714e+00	 9.357143e+00	 9.997063e+00
0	 9.785714e+00	 9.428571e+00	 9.997521e+00
0	 9.785714e+00	 9.500000e+00	 9.997981e+00
0	 9.785714e+00	 9.571429e+00	 9.998443e+00
0	 9.785714e+00	 9.642857e+00	 9.998907e+00
0	 9.857143e+00	 9.285714e+00	 9.996096e+00
0	 9.857143e+00	 9.357143e+00	 9.996655e+00
0	 9.857143e+00	 9.428571e+00	 9.997220e+00
0	 9.857143e+00	 9.500000e+00	 9.997791e+00
0	 9.857143e+00	 9.571429e+00	 9.998367e+00
0	 9.857143e+00	 9.642857e+00	 9.998950e+00
0	 9.928571e+00	 9.285714e+00	 9.995617e+00
0	 9.928571e+00	 9.357143e+00	 9.996299e+00
0	 9.928571e+00	 9.428571e+00	 9.996992e+00
0	 9.928571e+00	 9.500000e+00	 9.997694e+00
0	 9.928571e+00	 9.571429e+00	 9.998406e+00
0	 9.928571e+00	 9.642857e+00	 9.999127e+00
0	 1.000000e+01	 9.285714e+00	 9.995170e+00
0	 1.000000e+01	 9.357143e+00	 9.995996e+00
0	 1.000000e+01	 9.428571e+00	 9.996837e+00
0	 1.000000e+01	 9.500000e+00	 9.997691e+00
0	 1.000000e+01	 9.571429e+00	 9.998558e+00
0	 1.000000e+01	 9.642857e+00	 9.999439e+00
0	 9.642857e+00	 9.642857e+00	 9.999224e+00
0	 9.642857e+00	 9.714286e+00	 9.999347e+00
0	 9.642857e+00	 9.785714e+00	 9.999520e+00
0	 9.642857e+00	 9.857143e+00	 9.999743e+00
0	 9.642857e+00	 9.928571e+00	 1.000002e+01
0	 9.642857e+00	 1.000000e+01	 1.000034e+01
0	 9.714286e+00	 9.642857e+00	 9.998999e+00
0	 9.714286e+00	 9.714286e+00	 9.999145e+00
0	 9.714286e+00	 9.785714e+00	 9.999341e+00
0	 9.714286e+00	 9.857143e+00	 9.999584e+00
0	 9.714286e+00	 9.928571e+00	 9.999877e+00
0	 9.714286e+00	 1.000000e+01	 1.000022e+01
0	 9.785714e+00	 9.642857e+00	 9.998907e+00
0	 9.785714e+00	 9.714286e+00	 9.999069e+00
0	 9.785714e+00	 9.785714e+00	 9.999278e+00
0	 9.785714e+00	 9.857143e+00	 9.999534e+00
0	 9.785714e+00	 9.928571e+00	 9.999836e+00
0	 9.785714e+00	 1.000000e+01	 1.000018e+01
0	 9.857143e+00	 9.642857e+00	 9.998950e+00
0	 9.857143e+00	 9.714286e+00	 9.999119e+00
0	 9.857143e+00	 9.785714e+00	 9.999332e+00
0	 9.857143e+00	 9.857143e+00	 9.999591e+00
0	 9.857143e+00	 9.928571e+00	 9.999893e+00
0	 9.857143e+00	 1.000000e+01	 1.000024e+01
0	 9.928571e+00	 9.642857e+00	 9.999127e+00
0	 9.928571e+00	 9.714286e+00	 9.999294e+00
0	 9.928571e+00	 9.785714e+00	 9.999503e+00
0	 9.928571e+00	 9.857143e+00	 9.999755e+00
0	 9.928571e+00	 9.928571e+00	 1.000005e+01
0	 9.928571e+00	 1.000000e+01	 1.000039e+01
0	 1.000000e+01	 9.642857e+00	 9.999439e+00
0	 1.000000e+01	 9.714286e+00	 9.999594e+00
0	 1.000000e+01	 9.785714e+00	 9.999790e+00
0	 1.000000e+01	 9.857143e+00	 1.000003e+01
0	 1.000000e+01	 9.928571e+00	 1.000030e+01
0	 1.000000e+01	 1.000000e+01	 1.000062e+01
1	 1.000000e+00	 0.000000e+00	 1.442994e+01
1	 9.998606e-01	 1.669417e-02	 2.062338e+01
1	 9.994388e-01	 3.349713e-02	 2.650494e+01
1	 9.987290e-01	 5.040273e-02	 3.187571e+01
1	 9.977257e-01	 6.740460e-02	 3.714187e+01
1	 9.964238e-01	 8.449607e-02	 4.334200e+01
1	 1.011765e+00	 0.000000e+00	 3.003083e+01
1	 1.011624e+00	 1.689057e-02	 2.014240e+01
1	 1.011197e+00	 3.389121e-02	 1.494630e+01
1	 1.010479e+00	 5.099571e-02	 1.442839e+01
1	 1.009464e+00	 6.819760e-02	 1.894047e+01
1	 1.008146e+00	 8.549014e-02	 2.921633e+01
1	 1.023529e+00	 0.000000e+00	 3.686220e+01
1	 1.023387e+00	 1.708698e-02	 1.772485e+01
1	 1.022955e+00	 3.428529e-02	 6.229951e+00
1	 1.022228e+00	 5.158868e-02	 2.472804e+00
1	 1.021202e+00	 6.899059e-02	 6.728135e+00
1	 1.019869e+00	 8.648421e-02	 1.945739e+01
1	 1.035294e+00	 0.000000e+00	 3.742528e+01
1	 1.035150e+00	 1.728338e-02	 1.401862e+01
1	 1.034713e+00	 3.467938e-02	-2.887629e-01
1	 1.033978e+00	 5.218165e-02	-5.363021e+00
1	 1.032940e+00	 6.978359e-02	-1.026037e+00
1	 1.031592e+00	 8.747828e-02	 1.294575e+01
1	 1.047059e+00	 0.000000e+00	 3.410884e+01
1	 1.046913e+00	 1.747978e-02	 9.642499e+00
1	 1.046471e+00	 3.507346e-02	-5.225514e+00
1	 1.045728e+00	 5.277463e-02	-1.038942e+01
1	 1.044678e+00	 7.057658e-02	-5.784141e+00
1	 1.043314e+00	 8.847235e-02	 8.612254e+00
1	 1.058824e+00	 0.000000e+00	 2.919553e+01
1	 1.058676e+00	 1.767618e-02	 5.187767e+00
1	 1.058229e+00	 3.546754e-02	-9.168613e+00
1	 1.057478e+00	 5.336760e-02	-1.385847e+01
1	 1.056415e+00	 7.136958e-02	-8.943291e+00
1	 1.055037e+00	 8.946642e-02	 5.435297e+00
1	 9.964238e-01	 8.449607e-02	 4.334200e+01
1	 9.948182e-01	 1.016702e-01	 4.859504e+01
1	 9.929039e-01	 1.189198e-01	 5.014532e+01
1	 9.906762e-01	 1.362375e-01	 4.814254e+01
1	 9.881307e-01	 1.536156e-01	 4.264432e+01
1	 9.852630e-01	 1.710460e-01	 3.361245e+01
1	 1.008146e+00	 8.549014e-02	 2.921633e+01
1	 1.006522e+00	 1.028663e-01	 4.012433e+01
1	 1.004585e+00	 1.203189e-01	 4.605217e+01
1	 1.002331e+00	 1.378403e-01	 4.728742e+01
1	 9.997558e-01	 1.554228e-01	 4.408834e+01
1	 9.968544e-01	 1.730583e-01	 3.668184e+01
1	 1.019869e+00	 8.648421e-02	 1.945739e+01
1	 1.018226e+00	 1.040624e-01	 3.369402e+01
1	 1.016266e+00	 1.217180e-01	 4.231302e+01
1	 1.013986e+00	 1.394431e-01	 4.569531e+01
1	 1.011381e+00	 1.572300e-01	 4.423854e+01
1	 1.008446e+00	 1.750706e-01	 3.835627e+01
1	 1.031592e+00	 8.747828e-02	 1.294575e+01
1	 1.029929e+00	 1.052586e-01	 2.880471e+01
1	 1.027948e+00	 1.231170e-01	 3.889535e+01
1	 1.025641e+00	 1.410459e-01	 4.364874e+01
1	 1.023006e+00	 1.590373e-01	 4.354232e+01
1	 1.020037e+00	 1.770829e-01	 3.909989e+01
1	 1.043314e+00	 8.847235e-02	 8.612254e+00
1	 1.041633e+00	 1.064547e-01	 2.497945e+01
1	 1.039629e+00	 1.245161e-01	 3.576813e+01
1	 1.037296e+00	 1.426487e-01	 4.141754e+01
1	 1.034631e+00	 1.608445e-01	 4.242695e+01
1	 1.031628e+00	 1.790952e-01	 3.935603e+01
1	 1.055037e+00	 8.946642e-02	 5.435297e+00
1	 1.053337e+00	 1.076508e-01	 2.176248e+01
1	 1.051310e+00	 1.259151e-01	 3.290168e+01
1	 1.048951e+00	 1.442515e-01	 3.925955e+01
1	 1.046256e+00	 1.626518e-01	 4.130072e+01
1	 1.043220e+00	 1.811076e-01	 3.954829e+01
1	 9.852630e-01	 1.710460e-01	 3.361245e+01
1	 9.820692e-01	 1.885207e-01	 2.428668e+01
1	 9.785454e-01	 2.060313e-01	 1.793296e+01
1	 9.746881e-01	 2.235690e-01	 1.442490e+01
1	 9.704941e-01	 2.411251e-01	 1.356281e+01
1	 9.659603e-01	 2.586904e-01	 1.507187e+01
1	 9.968544e-01	 1.730583e-01	 3.668184e+01
1	 9.936230e-01	 1.907386e-01	 2.860621e+01
1	 9.900577e-01	 2.084551e-01	 2.315835e+01
1	 9.861550e-01	 2.261992e-01	 2.012845e+01
1	 9.819116e-01	 2.439618e-01	 1.923888e+01
1	 9.773245e-01	 2.617339e-01	 2.014301e+01
1	 1.008446e+00	 1.750706e-01	 3.835627e+01
1	 1.005177e+00	 1.929565e-01	 3.160674e+01
1	 1.001570e+00	 2.108790e-01	 2.712295e+01
1	 9.976219e-01	 2.288294e-01	 2.464647e+01
1	 9.933292e-01	 2.467986e-01	 2.385759e+01
1	 9.886888e-01	 2.647773e-01	 2.437457e+01
1	 1.020037e+00	 1.770829e-01	 3.909989e+01
1	 1.016730e+00	 1.951744e-01	 3.369799e+01
1	 1.013082e+00	 2.133029e-01	 3.018519e+01
1	 1.009089e+00	 2.314597e-01	 2.828802e+01
1	 1.004747e+00	 2.496354e-01	 2.767923e+01
1	 1.000053e+00	 2.678207e-01	 2.797738e+01
1	 1.031628e+00	 1.790952e-01	 3.935603e+01
1	 1.028284e+00	 1.973923e-01	 3.527124e+01
1	 1.024595e+00	 2.157268e-01	 3.268737e+01
1	 1.020556e+00	 2.340899e-01	 3.134824e+01
1	 1.016164e+00	 2.524721e-01	 3.095237e+01
1	 1.011417e+00	 2.708641e-01	 3.115284e+01
1	 1.043220e+00	 1.811076e-01	 3.954829e+01
1	 1.039838e+00	 1.996102e-01	 3.670042e+01
1	 1.036107e+00	 2.181507e-01	 3.495660e+01
1	 1.032023e+00	 2.367201e-01	 3.410915e+01
1	 1.027582e+00	 2.553089e-01	 3.391456e+01
1	 1.022781e+00	 2.739075e-01	 3.409337e+01
1	 9.659603e-01	 2.586904e-01	 1.507187e+01
1	 9.610841e-01	 2.762559e-01	 1.699509e+01
1	 9.558632e-01	 2.938119e-01	 1.767698e+01
1	 9.502956e-01	 3.113490e-01	 1.727049e+01
1	 9.443796e-01	 3.288574e-01	 1.597294e+01
1	 9.381138e-01	 3.463271e-01	 1.402655e+01
1	 9.773245e-01	 2.617339e-01	 2.014301e+01
1	 9.723910e-01	 2.795059e-01	 2.127872e+01
1	 9.671087e-01	 2.972685e-01	 2.145756e+01
1	 9.614756e-01	 3.150120e-01	 2.086912e+01
1	 9.554899e-01	 3.327263e-01	 1.974069e+01
1	 9.491504e-01	 3.504016e-01	 1.833738e+01
1	 9.886888e-01	 2.647773e-01	 2.437457e+01
1	 9.836979e-01	 2.827560e-01	 2.498901e+01
1	 9.783541e-01	 3.007252e-01	 2.489724e+01
1	 9.726555e-01	 3.186749e-01	 2.430048e+01
1	 9.666003e-01	 3.365952e-01	 2.343022e+01
1	 9.601871e-01	 3.544760e-01	 2.254804e+01
1	 1.000053e+00	 2.678207e-01	 2.797738e+01
1	 9.950047e-01	 2.860061e-01	 2.828517e+01
1	 9.895996e-01	 3.041818e-01	 2.810129e+01
1	 9.838355e-01	 3.223378e-01	 2.761434e+01
1	 9.777106e-01	 3.404641e-01	 2.703499e+01
1	 9.712237e-01	 3.585504e-01	 2.659567e+01
1	 1.011417e+00	 2.708641e-01	 3.115284e+01
1	 1.006312e+00	 2.892562e-01	 3.131930e+01
1	 1.000845e+00	 3.076384e-01	 3.117027e+01
1	 9.950154e-01	 3.260007e-01	 3.085820e+01
1	 9.888210e-01	 3.443330e-01	 3.054871e+01
1	 9.822603e-01	 3.626249e-01	 3.042022e+01
1	 1.022781e+00	 2.739075e-01	 3.409337e+01
1	 1.017618e+00	 2.925062e-01	 3.423671e+01
1	 1.012090e+00	 3.110950e-01	 3.420026e+01
1	 1.006195e+00	 3.296637e-01	 3.407748e+01
1	 9.999313e-01	 3.482019e-01	 3.396541e+01
1	 9.932970e-01	 3.666993e-01	 3.396432e+01
1	 9.381138e-01	 3.463271e-01	 1.402655e+01
1	 9.314973e-01	 3.637482e-01	 1.260966e+01
1	 9.245295e-01	 3.811105e-01	 1.270230e+01
1	 9.172101e-01	 3.984038e-01	 1.426195e+01
1	 9.095393e-01	 4.156178e-01	 1.721739e+01
1	 9.015177e-01	 4.327422e-01	 2.146828e+01
1	 9.491504e-01	 3.504016e-01	 1.833738e+01
1	 9.424561e-01	 3.680276e-01	 1.757716e+01
1	 9.354063e-01	 3.855942e-01	 1.813607e+01
1	 9.280008e-01	 4.030910e-01	 1.992162e+01
1	 9.202398e-01	 4.205075e-01	 2.281034e+01
1	 9.121238e-01	 4.378332e-01	 2.664763e+01
1	 9.601871e-01	 3.544760e-01	 2.254804e+01
1	 9.534149e-01	 3.723070e-01	 2.232694e+01
1	 9.462831e-01	 3.900778e-01	 2.318932e+01
1	 9.387915e-01	 4.077781e-01	 2.502166e+01
1	 9.309403e-01	 4.253971e-01	 2.768152e+01
1	 9.227299e-01	 4.429243e-01	 3.099748e+01
1	 9.712237e-01	 3.585504e-01	 2.659567e+01
1	 9.643737e-01	 3.765864e-01	 2.675621e+01
1	 9.571599e-01	 3.945615e-01	 2.775112e+01
1	 9.495822e-01	 4.124652e-01	 2.947390e+01
1	 9.416407e-01	 4.302867e-01	 3.179533e+01
1	 9.333360e-01	 4.480154e-01	 3.456360e+01
1	 9.822603e-01	 3.626249e-01	 3.042022e+01
1	 9.753325e-01	 3.808658e-01	 3.076684e+01
1	 9.680367e-01	 3.990452e-01	 3.171556e+01
1	 9.603729e-01	 4.171523e-01	 3.319409e+01
1	 9.523412e-01	 4.351763e-01	 3.511777e+01
1	 9.439421e-01	 4.531065e-01	 3.738968e+01
1	 9.932970e-01	 3.666993e-01	 3.396432e+01
1	 9.862913e-01	 3.851452e-01	 3.426504e+01
1	 9.789136e-01	 4.035288e-01	 3.498141e+01
1	 9.711636e-01	 4.218394e-01	 3.610175e+01
1	 9.630417e-01	 4.400660e-01	 3.761634e+01
1	 9.545482e-01	 4.581976e-01	 3.951751e+01
1	 9.015177e-01	 4.327422e-01	 2.146828e+01
1	 8.931462e-01	 4.497664e-01	 2.569447e+01
1	 8.844262e-01	 4.666801e-01	 2.872761e+01
1	 8.753594e-01	 4.834728e-01	 3.069436e+01
1	 8.659480e-01	 5.001341e-01	 3.174979e+01
1	 8.561945e-01	 5.166537e-01	 3.207721e+01
1	 9.121238e-01	 4.378332e-01	 2.664763e+01
1	 9.036538e-01	 4.550577e-01	 3.030050e+01
1	 8.948312e-01	 4.721704e-01	 3.285408e+01
1	 8.856577e-01	 4.891607e-01	 3.448363e+01
1	 8.761356e-01	 5.060180e-01	 3.539897e+01
1	 8.662674e-01	 5.227319e-01	 3.584410e+01
1	 9.227299e-01	 4.429243e-01	 3.099748e+01
1	 9.141614e-01	 4.603491e-01	 3.406383e+01
1	 9.052362e-01	 4.776608e-01	 3.621329e+01
1	 8.959561e-01	 4.948486e-01	 3.763740e+01
1	 8.863232e-01	 5.119020e-01	 3.856323e+01
1	 8.763402e-01	 5.288102e-01	 3.925305e+01
1	 9.333360e-01	 4.480154e-01	 3.456360e+01
1	 9.246691e-01	 4.656405e-01	 3.710612e+01
1	 9.156413e-01	 4.831511e-01	 3.896455e+01
1	 9.062544e-01	 5.005365e-01	 4.031538e+01
1	 8.965108e-01	 5.177859e-01	 4.136670e+01
1	 8.864131e-01	 5.348885e-01	 4.235780e+01
1	 9.439421e-01	 4.531065e-01	 3.738968e+01
1	 9.351767e-01	 4.709318e-01	 3.954361e+01
1	 9.260463e-01	 4.886415e-01	 4.126002e+01
1	 9.165528e-01	 5.062244e-01	 4.267013e+01
1	 9.066984e-01	 5.236698e-01	 4.392789e+01
1	 8.964860e-01	 5.409668e-01	 4.520967e+01
1	 9.545482e-01	 4.581976e-01	 3.951751e+01
1	 9.456843e-01	 4.762232e-01	 4.148732e+01
1	 9.364513e-01	 4.941318e-01	 4.324508e+01
1	 9.268511e-01	 5.119124e-01	 4.484742e+01
1	 9.168861e-01	 5.295538e-01	 4.636007e+01
1	 9.065589e-01	 5.470451e-01	 4.785771e+01
1	 8.561945e-01	 5.166537e-01	 3.207721e+01
1	 8.461019e-01	 5.330211e-01	 3.229927e+01
1	 8.356738e-01	 5.492262e-01	 3.285792e+01
1	 8.249137e-01	 5.652587e-01	 3.366952e+01
1	 8.138260e-01	 5.811086e-01	 3.462819e+01
1	 8.024153e-01	 5.967660e-01	 3.560625e+01
1	 8.662674e-01	 5.227319e-01	 3.584410e+01
1	 8.560561e-01	 5.392919e-01	 3.627901e+01
1	 8.455052e-01	 5.556876e-01	 3.691416e+01
1	 8.346186e-01	 5.719088e-01	 3.762225e+01
1	 8.234005e-01	 5.879452e-01	 3.824643e+01
1	 8.118555e-01	 6.037868e-01	 3.860087e+01
1	 8.763402e-01	 5.288102e-01	 3.925305e+01
1	 8.660102e-01	 5.455628e-01	 3.994327e+01
1	 8.553367e-01	 5.621491e-01	 4.060827e+01
1	 8.443235e-01	 5.785589e-01	 4.111973e+01
1	 8.329749e-01	 5.947817e-01	 4.131832e+01
1	 8.212957e-01	 6.108075e-01	 4.101423e+01
1	 8.864131e-01	 5.348885e-01	 4.235780e+01
1	 8.759644e-01	 5.518336e-01	 4.328075e+01
1	 8.651681e-01	 5.686106e-01	 4.390752e+01
1	 8.540283e-01	 5.852090e-01	 4.415002e+01
1	 8.425493e-01	 6.016183e-01	 4.389337e+01
1	 8.307359e-01	 6.178283e-01	 4.299631e+01
1	 8.964860e-01	 5.409668e-01	 4.520967e+01
1	 8.859185e-01	 5.581044e-01	 4.628067e+01
1	 8.749996e-01	 5.750721e-01	 4.678066e+01
1	 8.637332e-01	 5.918591e-01	 4.670171e+01
1	 8.521237e-01	 6.084549e-01	 4.601889e+01
1	 8.401761e-01	 6.248491e-01	 4.469034e+01
1	 9.065589e-01	 5.470451e-01	 4.785771e+01
1	 8.958727e-01	 5.643753e-01	 4.893271e+01
1	 8.848310e-01	 5.815336e-01	 4.919783e+01
1	 8.734381e-01	 5.985092e-01	 4.876392e+01
1	 8.616982e-01	 6.152914e-01	 4.774008e+01
1	 8.496162e-01	 6.318699e-01	 4.623319e+01
1	 8.024153e-01	 5.967660e-01	 3.560625e+01
1	 7.906866e-01	 6.122211e-01	 3.673385e+01
1	 7.786453e-01	 6.274644e-01	 3.812720e+01
1	 7.662971e-01	 6.424864e-01	 3.960641e+01
1	 7.536483e-01	 6.572779e-01	 4.097194e+01
1	 7.407053e-01	 6.718301e-01	 4.200535e+01
1	 8.118555e-01	 6.037868e-01	 3.860087e+01
1	 7.999888e-01	 6.194237e-01	 3.882928e+01
1	 7.878058e-01	 6.348463e-01	 3.917692e+01
1	 7.753124e-01	 6.500450e-01	 3.958600e+01
1	 7.625147e-01	 6.650106e-01	 3.999469e+01
1	 7.494195e-01	 6.797340e-01	 4.033737e+01
1	 8.212957e-01	 6.108075e-01	 4.101423e+01
1	 8.092910e-01	 6.266263e-01	 4.046369e+01
1	 7.969663e-01	 6.422282e-01	 4.005504e+01
1	 7.843276e-01	 6.576037e-01	 3.977706e+01
1	 7.713812e-01	 6.727433e-01	 3.962209e+01
1	 7.581336e-01	 6.876379e-01	 3.958586e+01
1	 8.307359e-01	 6.178283e-01	 4.299631e+01
1	 8.185932e-01	 6.338289e-01	 4.187447e+01
1	 8.061269e-01	 6.496102e-01	 4.102407e+01
1	 7.933429e-01	 6.651624e-01	 4.040755e+01
1	 7.802476e-01	 6.804760e-01	 3.999045e+01
1	 7.668478e-01	 6.955418e-01	 3.974149e+01
1	 8.401761e-01	 6.248491e-01	 4.469034e+01
1	 8.278954e-01	 6.410315e-01	 4.328835e+01
1	 8.152874e-01	 6.569921e-01	 4.233474e+01
1	 8.023582e-01	 6.727210e-01	 4.169511e+01
1	 7.891141e-01	 6.882087e-01	 4.122998e+01
1	 7.755620e-01	 7.034456e-01	 4.079535e+01
1	 8.496162e-01	 6.318699e-01	 4.623319e+01
1	 8.371976e-01	 6.482341e-01	 4.492197e+01
1	 8.244479e-01	 6.643740e-01	 4.422663e+01
1	 8.113734e-01	 6.802797e-01	 4.384778e+01
1	 7.979805e-01	 6.959413e-01	 4.346510e+01
1	 7.842762e-01	 7.113495e-01	 4.273892e+01
1	 7.407053e-01	 6.718301e-01	 4.200535e+01
1	 7.274750e-01	 6.861342e-01	 4.285017e+01
1	 7.139646e-01	 7.001818e-01	 4.369624e+01
1	 7.001818e-01	 7.139646e-01	 4.437595e+01
1	 6.861342e-01	 7.274750e-01	 4.471560e+01
1	 6.718301e-01	 7.407053e-01	 4.453608e+01
1	 7.494195e-01	 6.797340e-01	 4.033737e+01
1	 7.360335e-01	 6.942064e-01	 4.085722e+01
1	 7.223642e-01	 7.084192e-01	 4.164051e+01
1	 7.084192e-01	 7.223642e-01	 4.236898e+01
1	 6.942064e-01	 7.360335e-01	 4.270651e+01
1	 6.797340e-01	 7.494195e-01	 4.230077e+01
1	 7.581336e-01	 6.876379e-01	 3.958586e+01
1	 7.445921e-01	 7.022785e-01	 3.987209e+01
1	 7.307638e-01	 7.166566e-01	 4.044991e+01
1	 7.166566e-01	 7.307638e-01	 4.094793e+01
1	 7.022785e-01	 7.445921e-01	 4.097264e+01
1	 6.876379e-01	 7.581336e-01	 4.011047e+01
1	 7.668478e-01	 6.955418e-01	 3.974149e+01
1	 7.531506e-01	 7.103507e-01	 3.974483e+01
1	 7.391634e-01	 7.248941e-01	 3.989376e+01
1	 7.248941e-01	 7.391634e-01	 3.985787e+01
1	 7.103507e-01	 7.531506e-01	 3.928769e+01
1	 6.955418e-01	 7.668478e-01	 3.781664e+01
1	 7.755620e-01	 7.034456e-01	 4.079535e+01
1	 7.617091e-01	 7.184229e-01	 4.033219e+01
1	 7.475630e-01	 7.331315e-01	 3.975175e+01
1	 7.331315e-01	 7.475630e-01	 3.885533e+01
1	 7.184229e-01	 7.617091e-01	 3.743554e+01
1	 7.034456e-01	 7.755620e-01	 3.527739e+01
1	 7.842762e-01	 7.113495e-01	 4.273892e+01
1	 7.702676e-01	 7.264950e-01	 4.149734e+01
1	 7.559626e-01	 7.413689e-01	 3.981336e+01
1	 7.413689e-01	 7.559626e-01	 3.770769e+01
1	 7.264950e-01	 7.702676e-01	 3.520969e+01
1	 7.113495e-01	 7.842762e-01	 3.235715e+01
1	 6.718301e-01	 7.407053e-01	 4.453608e+01
1	 6.572779e-01	 7.536483e-01	 4.337012e+01
1	 6.424864e-01	 7.662971e-01	 4.118945e+01
1	 6.274644e-01	 7.786453e-01	 3.851233e+01
1	 6.122211e-01	 7.906866e-01	 3.591097e+01
1	 5.967660e-01	 8.024153e-01	 3.400796e+01
1	 6.797340e-01	 7.494195e-01	 4.230077e+01
1	 6.650106e-01	 7.625147e-01	 4.081369e+01
1	 6.500450e-01	 7.753124e-01	 3.851682e+01
1	 6.348463e-01	 7.878058e-01	 3.600242e+01
1	 6.194237e-01	 7.999888e-01	 3.391471e+01
1	 6.037868e-01	 8.118555e-01	 3.294578e+01
1	 6.876379e-01	 7.581336e-01	 4.011047e+01
1	 6.727433e-01	 7.713812e-01	 3.824831e+01
1	 6.576037e-01	 7.843276e-01	 3.592391e+01
1	 6.422282e-01	 7.969663e-01	 3.372318e+01
1	 6.266263e-01	 8.092910e-01	 3.227805e+01
1	 6.108075e-01	 8.212957e-01	 3.226249e+01
1	 6.955418e-01	 7.668478e-01	 3.781664e+01
1	 6.804760e-01	 7.802476e-01	 3.560869e+01
1	 6.651624e-01	 7.933429e-01	 3.339515e+01
1	 6.496102e-01	 8.061269e-01	 3.167801e+01
1	 6.338289e-01	 8.185932e-01	 3.099557e+01
1	 6.178283e-01	 8.307359e-01	 3.191901e+01
1	 7.034456e-01	 7.755620e-01	 3.527739e+01
1	 6.882087e-01	 7.891141e-01	 3.283252e+01
1	 6.727210e-01	 8.023582e-01	 3.091569e+01
1	 6.569921e-01	 8.152874e-01	 2.987017e+01
1	 6.410315e-01	 8.278954e-01	 3.006210e+01
1	 6.248491e-01	 8.401761e-01	 3.187806e+01
1	 7.113495e-01	 7.842762e-01	 3.235715e+01
1	 6.959413e-01	 7.979805e-01	 2.986021e+01
1	 6.802797e-01	 8.113734e-01	 2.847131e+01
1	 6.643740e-01	 8.244479e-01	 2.830278e+01
1	 6.482341e-01	 8.371976e-01	 2.947269e+01
1	 6.318699e-01	 8.496162e-01	 3.210399e+01
1	 5.967660e-01	 8.024153e-01	 3.400796e+01
1	 5.811086e-01	 8.138260e-01	 3.280240e+01
1	 5.652587e-01	 8.249137e-01	 3.187080e+01
1	 5.492262e-01	 8.356738e-01	 3.122417e+01
1	 5.330211e-01	 8.461019e-01	 3.085622e+01
1	 5.166537e-01	 8.561945e-01	 3.074401e+01
1	 6.037868e-01	 8.118555e-01	 3.294578e+01
1	 5.879452e-01	 8.234005e-01	 3.287768e+01
1	 5.719088e-01	 8.346186e-01	 3.295810e+01
1	 5.556876e-01	 8.455052e-01	 3.309815e+01
1	 5.392919e-01	 8.560561e-01	 3.319260e+01
1	 5.227319e-01	 8.662674e-01	 3.312099e+01
1	 6.108075e-01	 8.212957e-01	 3.226249e+01
1	 5.947817e-01	 8.329749e-01	 3.319861e+01
1	 5.785589e-01	 8.443235e-01	 3.406808e+01
1	 5.621491e-01	 8.553367e-01	 3.475283e+01
1	 5.455628e-01	 8.660102e-01	 3.512181e+01
1	 5.288102e-01	 8.763402e-01	 3.503218e+01
1	 6.178283e-01	 8.307359e-01	 3.191901e+01
1	 6.016183e-01	 8.425493e-01	 3.369421e+01
1	 5.852090e-01	 8.540283e-01	 3.512251e+01
1	 5.686106e-01	 8.651681e-01	 3.612488e+01
1	 5.518336e-01	 8.759644e-01	 3.661506e+01
1	 5.348885e-01	 8.864131e-01	 3.650047e+01
1	 6.248491e-01	 8.401761e-01	 3.187806e+01
1	 6.084549e-01	 8.521237e-01	 3.429671e+01
1	 5.918591e-01	 8.637332e-01	 3.604666e+01
1	 5.750721e-01	 8.749996e-01	 3.715379e+01
1	 5.581044e-01	 8.859185e-01	 3.764488e+01
1	 5.409668e-01	 8.964860e-01	 3.754769e+01
1	 6.318699e-01	 8.496162e-01	 3.210399e+01
1	 6.152914e-01	 8.616982e-01	 3.494135e+01
1	 5.985092e-01	 8.734381e-01	 3.676913e+01
1	 5.815336e-01	 8.848310e-01	 3.778177e+01
1	 5.643753e-01	 8.958727e-01	 3.818499e+01
1	 5.470451e-01	 9.065589e-01	 3.819474e+01
1	 5.166537e-01	 8.561945e-01	 3.074401e+01
1	 5.001341e-01	 8.659480e-01	 3.095199e+01
1	 4.834728e-01	 8.753594e-01	 3.140651e+01
1	 4.666801e-01	 8.844262e-01	 3.187304e+01
1	 4.497664e-01	 8.931462e-01	 3.212829e+01
1	 4.327422e-01	 9.015177e-01	 3.196141e+01
1	 5.227319e-01	 8.662674e-01	 3.312099e+01
1	 5.060180e-01	 8.761356e-01	 3.298421e+01
1	 4.891607e-01	 8.856577e-01	 3.291610e+01
1	 4.721704e-01	 8.948312e-01	 3.284092e+01
1	 4.550577e-01	 9.036538e-01	 3.269127e+01
1	 4.378332e-01	 9.121238e-01	 3.240841e+01
1	 5.288102e-01	 8.763402e-01	 3.503218e+01
1	 5.119020e-01	 8.863232e-01	 3.465842e+01
1	 4.948486e-01	 8.959561e-01	 3.427879e+01
1	 4.776608e-01	 9.052362e-01	 3.390129e+01
1	 4.603491e-01	 9.141614e-01	 3.353808e+01
1	 4.429243e-01	 9.227299e-01	 3.320546e+01
1	 5.348885e-01	 8.864131e-01	 3.650047e+01
1	 5.177859e-01	 8.965108e-01	 3.604700e+01
1	 5.005365e-01	 9.062544e-01	 3.559851e+01
1	 4.831511e-01	 9.156413e-01	 3.517427e+01
1	 4.656405e-01	 9.246691e-01	 3.479235e+01
1	 4.480154e-01	 9.333360e-01	 3.446971e+01
1	 5.409668e-01	 8.964860e-01	 3.754769e+01
1	 5.236698e-01	 9.066984e-01	 3.721906e+01
1	 5.062244e-01	 9.165528e-01	 3.697449e+01
1	 4.886415e-01	 9.260463e-01	 3.677457e+01
1	 4.709318e-01	 9.351767e-01	 3.657218e+01
1	 4.531065e-01	 9.439421e-01	 3.631306e+01
1	 5.470451e-01	 9.065589e-01	 3.819474e+01
1	 5.295538e-01	 9.168861e-01	 3.824067e+01
1	 5.119124e-01	 9.268511e-01	 3.850156e+01
1	 4.941318e-01	 9.364513e-01	 3.881179e+01
1	 4.762232e-01	 9.456843e-01	 3.899037e+01
1	 4.581976e-01	 9.545482e-01	 3.884241e+01
1	 4.327422e-01	 9.015177e-01	 3.196141e+01
1	 4.156178e-01	 9.095393e-01	 3.154622e+01
1	 3.984038e-01	 9.172101e-01	 3.129579e+01
1	 3.811105e-01	 9.245295e-01	 3.133743e+01
1	 3.637482e-01	 9.314973e-01	 3.175810e+01
1	 3.463271e-01	 9.381138e-01	 3.260499e+01
1	 4.378332e-01	 9.121238e-01	 3.240841e+01
1	 4.205075e-01	 9.202398e-01	 3.208744e+01
1	 4.030910e-01	 9.280008e-01	 3.188078e+01
1	 3.855942e-01	 9.354063e-01	 3.179944e+01
1	 3.680276e-01	 9.424561e-01	 3.182467e+01
1	 3.504016e-01	 9.491504e-01	 3.190891e+01
1	 4.429243e-01	 9.227299e-01	 3.320546e+01
1	 4.253971e-01	 9.309403e-01	 3.291502e+01
1	 4.077781e-01	 9.387915e-01	 3.264690e+01
1	 3.900778e-01	 9.462831e-01	 3.235760e+01
1	 3.723070e-01	 9.534149e-01	 3.198344e+01
1	 3.544760e-01	 9.601871e-01	 3.144146e+01
1	 4.480154e-01	 9.333360e-01	 3.446971e+01
1	 4.302867e-01	 9.416407e-01	 3.413609e+01
1	 4.124652e-01	 9.495822e-01	 3.369100e+01
1	 3.945615e-01	 9.571599e-01	 3.309612e+01
1	 3.765864e-01	 9.643737e-01	 3.230147e+01
1	 3.585504e-01	 9.712237e-01	 3.124611e+01
1	 4.531065e-01	 9.439421e-01	 3.631306e+01
1	 4.351763e-01	 9.523412e-01	 3.585298e+01
1	 4.171523e-01	 9.603729e-01	 3.510560e+01
1	 3.990452e-01	 9.680367e-01	 3.409541e+01
1	 3.808658e-01	 9.753325e-01	 3.284285e+01
1	 3.626249e-01	 9.822603e-01	 3.136439e+01
1	 4.581976e-01	 9.545482e-01	 3.884241e+01
1	 4.400660e-01	 9.630417e-01	 3.816345e+01
1	 4.218394e-01	 9.711636e-01	 3.697907e+01
1	 4.035288e-01	 9.789136e-01	 3.543231e+01
1	 3.851452e-01	 9.862913e-01	 3.366879e+01
1	 3.666993e-01	 9.932970e-01	 3.183595e+01
1	 3.463271e-01	 9.381138e-01	 3.260499e+01
1	 3.288574e-01	 9.443796e-01	 3.396890e+01
1	 3.113490e-01	 9.502956e-01	 3.553227e+01
1	 2.938119e-01	 9.558632e-01	 3.672165e+01
1	 2.762559e-01	 9.610841e-01	 3.699325e+01
1	 2.586904e-01	 9.659603e-01	 3.583458e+01
1	 3.504016e-01	 9.491504e-01	 3.190891e+01
1	 3.327263e-01	 9.554899e-01	 3.228391e+01
1	 3.150120e-01	 9.614756e-01	 3.291737e+01
1	 2.972685e-01	 9.671087e-01	 3.335643e+01
1	 2.795059e-01	 9.723910e-01	 3.316531e+01
1	 2.617339e-01	 9.773245e-01	 3.192681e+01
1	 3.544760e-01	 9.601871e-01	 3.144146e+01
1	 3.365952e-01	 9.666003e-01	 3.106696e+01
1	 3.186749e-01	 9.726555e-01	 3.100761e+01
1	 3.007252e-01	 9.783541e-01	 3.088959e+01
1	 2.827560e-01	 9.836979e-01	 3.034613e+01
1	 2.647773e-01	 9.886888e-01	 2.901905e+01
1	 3.585504e-01	 9.712237e-01	 3.124611e+01
1	 3.404641e-01	 9.777106e-01	 3.034133e+01
1	 3.223378e-01	 9.838355e-01	 2.982172e+01
1	 3.041818e-01	 9.895996e-01	 2.935224e+01
1	 2.860061e-01	 9.950047e-01	 2.859744e+01
1	 2.678207e-01	 1.000053e+00	 2.722307e+01
1	 3.626249e-01	 9.822603e-01	 3.136439e+01
1	 3.443330e-01	 9.888210e-01	 3.012925e+01
1	 3.260007e-01	 9.950154e-01	 2.937757e+01
1	 3.076384e-01	 1.000845e+00	 2.877409e+01
1	 2.892562e-01	 1.006312e+00	 2.797818e+01
1	 2.708641e-01	 1.011417e+00	 2.664565e+01
1	 3.666993e-01	 9.932970e-01	 3.183595e+01
1	 3.482019e-01	 9.999313e-01	 3.045198e+01
1	 3.296637e-01	 1.006195e+00	 2.969223e+01
1	 3.110950e-01	 1.012090e+00	 2.918352e+01
1	 2.925062e-01	 1.017618e+00	 2.854470e+01
1	 2.739075e-01	 1.022781e+00	 2.738880e+01
1	 2.586904e-01	 9.659603e-01	 3.583458e+01
1	 2.411251e-01	 9.704941e-01	 3.337145e+01
1	 2.235690e-01	 9.746881e-01	 3.044128e+01
1	 2.060313e-01	 9.785454e-01	 2.758647e+01
1	 1.885207e-01	 9.820692e-01	 2.529952e+01
1	 1.710460e-01	 9.852630e-01	 2.402232e+01
1	 2.617339e-01	 9.773245e-01	 3.192681e+01
1	 2.439618e-01	 9.819116e-01	 2.962802e+01
1	 2.261992e-01	 9.861550e-01	 2.689895e+01
1	 2.084551e-01	 9.900577e-01	 2.427605e+01
1	 1.907386e-01	 9.936230e-01	 2.226047e+01
1	 1.730583e-01	 9.968544e-01	 2.131675e+01
1	 2.647773e-01	 9.886888e-01	 2.901905e+01
1	 2.467986e-01	 9.933292e-01	 2.682857e+01
1	 2.288294e-01	 9.976219e-01	 2.427504e+01
1	 2.108790e-01	 1.001570e+00	 2.186132e+01
1	 1.929565e-01	 1.005177e+00	 2.006707e+01
1	 1.750706e-01	 1.008446e+00	 1.934699e+01
1	 2.678207e-01	 1.000053e+00	 2.722307e+01
1	 2.496354e-01	 1.004747e+00	 2.512930e+01
1	 2.314597e-01	 1.009089e+00	 2.273925e+01
1	 2.133029e-01	 1.013082e+00	 2.049581e+01
1	 1.951744e-01	 1.016730e+00	 1.882815e+01
1	 1.770829e-01	 1.020037e+00	 1.814982e+01
1	 2.708641e-01	 1.011417e+00	 2.664565e+01
1	 2.524721e-01	 1.016164e+00	 2.467934e+01
1	 2.340899e-01	 1.020556e+00	 2.245367e+01
1	 2.157268e-01	 1.024595e+00	 2.032618e+01
1	 1.973923e-01	 1.028284e+00	 1.864764e+01
1	 1.790952e-01	 1.031628e+00	 1.776039e+01
1	 2.739075e-01	 1.022781e+00	 2.738880e+01
1	 2.553089e-01	 1.027582e+00	 2.562124e+01
1	 2.367201e-01	 1.032023e+00	 2.357321e+01
1	 2.181507e-01	 1.036107e+00	 2.149253e+01
1	 1.996102e-01	 1.039838e+00	 1.962485e+01
1	 1.811076e-01	 1.043220e+00	 1.821228e+01
1	 1.710460e-01	 9.852630e-01	 2.402232e+01
1	 1.536156e-01	 9.881307e-01	 2.396579e+01
1	 1.362375e-01	 9.906762e-01	 2.440513e+01
1	 1.189198e-01	 9.929039e-01	 2.434537e+01
1	 1.016702e-01	 9.948182e-01	 2.280074e+01
1	 8.449607e-02	 9.964238e-01	 1.879786e+01
1	 1.730583e-01	 9.968544e-01	 2.131675e+01
1	 1.554228e-01	 9.997558e-01	 2.175530e+01
1	 1.378403e-01	 1.002331e+00	 2.277139e+01
1	 1.203189e-01	 1.004585e+00	 2.314675e+01
1	 1.028663e-01	 1.006522e+00	 2.169008e+01
1	 8.549014e-02	 1.008146e+00	 1.724061e+01
1	 1.750706e-01	 1.008446e+00	 1.934699e+01
1	 1.572300e-01	 1.011381e+00	 2.009061e+01
1	 1.394431e-01	 1.013986e+00	 2.149339e+01
1	 1.217180e-01	 1.016266e+00	 2.222609e+01
1	 1.040624e-01	 1.018226e+00	 2.099840e+01
1	 8.648421e-02	 1.019869e+00	 1.656261e+01
1	 1.770829e-01	 1.020037e+00	 1.814982e+01
1	 1.590373e-01	 1.023006e+00	 1.891064e+01
1	 1.410459e-01	 1.025641e+00	 2.038430e+01
1	 1.231170e-01	 1.027948e+00	 2.123912e+01
1	 1.052586e-01	 1.029929e+00	 2.018868e+01
1	 8.747828e-02	 1.031592e+00	 1.599527e+01
1	 1.790952e-01	 1.031628e+00	 1.776039e+01
1	 1.608445e-01	 1.034631e+00	 1.815703e+01
1	 1.426487e-01	 1.037296e+00	 1.926565e+01
1	 1.245161e-01	 1.039629e+00	 1.985705e+01
1	 1.064547e-01	 1.041633e+00	 1.874806e+01
1	 8.847235e-02	 1.043314e+00	 1.480458e+01
1	 1.811076e-01	 1.043220e+00	 1.821228e+01
1	 1.626518e-01	 1.046256e+00	 1.777403e+01
1	 1.442515e-01	 1.048951e+00	 1.796693e+01
1	 1.259151e-01	 1.051310e+00	 1.776569e+01
1	 1.076508e-01	 1.053337e+00	 1.618644e+01
1	 8.946642e-02	 1.055037e+00	 1.228913e+01
1	 8.449607e-02	 9.964238e-01	 1.879786e+01
1	 6.740460e-02	 9.977257e-01	 9.421839e+00
1	 5.040273e-02	 9.987290e-01	-4.650521e+00
1	 3.349713e-02	 9.994388e-01	-1.880498e+01
1	 1.669417e-02	 9.998606e-01	-2.820055e+01
1	 0.000000e+00	 1.000000e+00	-2.780067e+01
1	 8.549014e-02	 1.008146e+00	 1.724061e+01
1	 6.819760e-02	 1.009464e+00	 8.054652e+00
1	 5.099571e-02	 1.010479e+00	-4.656942e+00
1	 3.389121e-02	 1.011197e+00	-1.749512e+01
1	 1.689057e-02	 1.011624e+00	-2.693979e+01
1	 0.000000e+00	 1.011765e+00	-2.936989e+01
1	 8.648421e-02	 1.019869e+00	 1.656261e+01
1	 6.899059e-02	 1.021202e+00	 7.741147e+00
1	 5.158868e-02	 1.022228e+00	-4.208112e+00
1	 3.428529e-02	 1.022955e+00	-1.680895e+01
1	 1.708698e-02	 1.023387e+00	-2.754561e+01
1	 0.000000e+00	 1.023529e+00	-3.387444e+01
1	 8.747828e-02	 1.031592e+00	 1.599527e+01
1	 6.978359e-02	 1.032940e+00	 7.636567e+00
1	 5.218165e-02	 1.033978e+00	-3.880769e+00
1	 3.467938e-02	 1.034713e+00	-1.672278e+01
1	 1.728338e-02	 1.035150e+00	-2.907386e+01
1	 0.000000e+00	 1.035294e+00	-3.914240e+01
1	 8.847235e-02	 1.043314e+00	 1.480458e+01
1	 7.057658e-02	 1.044678e+00	 6.934120e+00
1	 5.277463e-02	 1.045728e+00	-4.225731e+00
1	 3.507346e-02	 1.046471e+00	-1.721399e+01
1	 1.747978e-02	 1.046913e+00	-3.062279e+01
1	 0.000000e+00	 1.047059e+00	-4.309950e+01
1	 8.946642e-02	 1.055037e+00	 1.228913e+01
1	 7.136958e-02	 1.056415e+00	 4.862872e+00
1	 5.336760e-02	 1.057478e+00	-5.769334e+00
1	 3.546754e-02	 1.058229e+00	-1.826097e+01
1	 1.767618e-02	 1.058676e+00	-3.133076e+01
1	 0.000000e+00	 1.058824e+00	-4.376364e+01
1	 1.058824e+00	 0.000000e+00	 2.919553e+01
1	 1.058676e+00	 1.767618e-02	 5.187767e+00
1	 1.058229e+00	 3.546754e-02	-9.168613e+00
1	 1.057478e+00	 5.336760e-02	-1.385847e+01
1	 1.056415e+00	 7.136958e-02	-8.943291e+00
1	 1.055037e+00	 8.946642e-02	 5.435297e+00
1	 1.070588e+00	 0.000000e+00	 2.401790e+01
1	 1.070439e+00	 1.787258e-02	 1.031627e+00
1	 1.069987e+00	 3.586163e-02	-1.242874e+01
1	 1.069227e+00	 5.396057e-02	-1.644853e+01
1	 1.068153e+00	 7.216257e-02	-1.119748e+01
1	 1.066760e+00	 9.046050e-02	 3.066835e+00
1	 1.082353e+00	 0.000000e+00	 1.868020e+01
1	 1.082202e+00	 1.806899e-02	-2.760417e+00
1	 1.081746e+00	 3.625571e-02	-1.499786e+01
1	 1.080977e+00	 5.455355e-02	-1.817835e+01
1	 1.079891e+00	 7.295557e-02	-1.253270e+01
1	 1.078482e+00	 9.145457e-02	 1.620670e+00
1	 1.094118e+00	 0.000000e+00	 1.353478e+01
1	 1.093965e+00	 1.826539e-02	-6.087695e+00
1	 1.093504e+00	 3.664980e-02	-1.696365e+01
1	 1.092727e+00	 5.514652e-02	-1.926184e+01
1	 1.091629e+00	 7.374856e-02	-1.322821e+01
1	 1.090205e+00	 9.244864e-02	 8.115197e-01
1	 1.105882e+00	 0.000000e+00	 8.918972e+00
1	 1.105728e+00	 1.846179e-02	-8.853822e+00
1	 1.105262e+00	 3.704388e-02	-1.841006e+01
1	 1.104477e+00	 5.573949e-02	-1.990377e+01
1	 1.103367e+00	 7.454156e-02	-1.355137e+01
1	 1.101928e+00	 9.344271e-02	 3.662405e-01
1	 1.117647e+00	 0.000000e+00	 5.155920e+00
1	 1.117491e+00	 1.865819e-02	-1.096647e+01
1	 1.117020e+00	 3.743796e-02	-1.941752e+01
1	 1.116227e+00	 5.633247e-02	-2.030029e+01
1	 1.115105e+00	 7.533455e-02	-1.375830e+01
1	 1.113650e+00	 9.443678e-02	 2.318945e-02
1	 1.055037e+00	 8.946642e-02	 5.435297e+00
1	 1.053337e+00	 1.076508e-01	 2.176248e+01
1	 1.051310e+00	 1.259151e-01	 3.290168e+01
1	 1.048951e+00	 1.442515e-01	 3.925955e+01
1	 1.046256e+00	 1.626518e-01	 4.130072e+01
1	 1.043220e+00	 1.811076e-01	 3.954829e+01
1	 1.066760e+00	 9.046050e-02	 3.066835e+00
1	 1.065041e+00	 1.088469e-01	 1.923672e+01
1	 1.062991e+00	 1.273142e-01	 3.063385e+01
1	 1.060606e+00	 1.458543e-01	 3.761299e+01
1	 1.057881e+00	 1.644590e-01	 4.057741e+01
1	 1.054811e+00	 1.831199e-01	 3.997912e+01
1	 1.078482e+00	 9.145457e-02	 1.620670e+00
1	 1.076744e+00	 1.100430e-01	 1.759946e+01
1	 1.074672e+00	 1.287132e-01	 2.916200e+01
1	 1.072261e+00	 1.474571e-01	 3.661272e+01
1	 1.069506e+00	 1.662663e-01	 4.029535e+01
1	 1.066402e+00	 1.851322e-01	 4.059317e+01
1	 1.090205e+00	 9.244864e-02	 8.115197e-01
1	 1.088448e+00	 1.112392e-01	 1.659036e+01
1	 1.086354e+00	 1.301123e-01	 2.825452e+01
1	 1.083916e+00	 1.490599e-01	 3.605954e+01
1	 1.081131e+00	 1.680735e-01	 4.029155e+01
1	 1.077994e+00	 1.871445e-01	 4.126731e+01
1	 1.101928e+00	 9.344271e-02	 3.662405e-01
1	 1.100152e+00	 1.124353e-01	 1.596020e+01
1	 1.098035e+00	 1.315114e-01	 2.768963e+01
1	 1.095571e+00	 1.506627e-01	 3.576274e+01
1	 1.092756e+00	 1.698807e-01	 4.040991e+01
1	 1.089585e+00	 1.891568e-01	 4.188366e+01
1	 1.113650e+00	 9.443678e-02	 2.318945e-02
1	 1.111856e+00	 1.136314e-01	 1.547020e+01
1	 1.109716e+00	 1.329104e-01	 2.725488e+01
1	 1.107226e+00	 1.522655e-01	 3.553963e+01
1	 1.104381e+00	 1.716880e-01	 4.050093e+01
1	 1.101176e+00	 1.911691e-01	 4.232930e+01
1	 1.043220e+00	 1.811076e-01	 3.954829e+01
1	 1.039838e+00	 1.996102e-01	 3.670042e+01
1	 1.036107e+00	 2.181507e-01	 3.495660e+01
1	 1.032023e+00	 2.367201e-01	 3.410915e+01
1	 1.027582e+00	 2.553089e-01	 3.391456e+01
1	 1.022781e+00	 2.739075e-01	 3.409337e+01
1	 1.054811e+00	 1.831199e-01	 3.997912e+01
1	 1.051392e+00	 2.018281e-01	 3.817820e+01
1	 1.047619e+00	 2.205746e-01	 3.712354e+01
1	 1.043490e+00	 2.393503e-01	 3.666732e+01
1	 1.039000e+00	 2.581457e-01	 3.663532e+01
1	 1.034146e+00	 2.769509e-01	 3.682683e+01
1	 1.066402e+00	 1.851322e-01	 4.059317e+01
1	 1.062946e+00	 2.040460e-01	 3.959741e+01
1	 1.059132e+00	 2.229985e-01	 3.906938e+01
1	 1.054957e+00	 2.419805e-01	 3.891367e+01
1	 1.050417e+00	 2.609824e-01	 3.901679e+01
1	 1.045510e+00	 2.799944e-01	 3.924718e+01
1	 1.077994e+00	 1.871445e-01	 4.126731e+01
1	 1.074499e+00	 2.062638e-01	 4.087249e+01
1	 1.070644e+00	 2.254224e-01	 4.073802e+01
1	 1.066423e+00	 2.446108e-01	 4.081356e+01
1	 1.061835e+00	 2.638192e-01	 4.103815e+01
1	 1.056874e+00	 2.830378e-01	 4.134011e+01
1	 1.089585e+00	 1.891568e-01	 4.188366e+01
1	 1.086053e+00	 2.084817e-01	 4.192155e+01
1	 1.082156e+00	 2.278463e-01	 4.207570e+01
1	 1.077890e+00	 2.472410e-01	 4.233383e+01
1	 1.073252e+00	 2.666560e-01	 4.267949e+01
1	 1.068238e+00	 2.860812e-01	 4.309191e+01
1	 1.101176e+00	 1.911691e-01	 4.232930e+01
1	 1.097607e+00	 2.106996e-01	 4.266614e+01
1	 1.093668e+00	 2.302702e-01	 4.303094e+01
1	 1.089357e+00	 2.498712e-01	 4.344272e+01
1	 1.084670e+00	 2.694927e-01	 4.392173e+01
1	 1.079603e+00	 2.891246e-01	 4.448946e+01
1	 1.022781e+00	 2.739075e-01	 3.409337e+01
1	 1.017618e+00	 2.925062e-01	 3.423671e+01
1	 1.012090e+00	 3.110950e-01	 3.420026e+01
1	 1.006195e+00	 3.296637e-01	 3.407748e+01
1	 9.999313e-01	 3.482019e-01	 3.396541e+01
1	 9.932970e-01	 3.666993e-01	 3.396432e+01
1	 1.034146e+00	 2.769509e-01	 3.682683e+01
1	 1.028925e+00	 2.957563e-01	 3.699415e+01
1	 1.023336e+00	 3.145516e-01	 3.705873e+01
1	 1.017375e+00	 3.333266e-01	 3.704969e+01
1	 1.011042e+00	 3.520708e-01	 3.699064e+01
1	 1.004334e+00	 3.707737e-01	 3.689939e+01
1	 1.045510e+00	 2.799944e-01	 3.924718e+01
1	 1.040232e+00	 2.990064e-01	 3.945121e+01
1	 1.034581e+00	 3.180082e-01	 3.956259e+01
1	 1.028555e+00	 3.369895e-01	 3.955761e+01
1	 1.022152e+00	 3.559398e-01	 3.939962e+01
1	 1.015370e+00	 3.748482e-01	 3.903879e+01
1	 1.056874e+00	 2.830378e-01	 4.134011e+01
1	 1.051539e+00	 3.022564e-01	 4.160276e+01
1	 1.045827e+00	 3.214648e-01	 4.172827e+01
1	 1.039735e+00	 3.406525e-01	 4.165133e+01
1	 1.033262e+00	 3.598087e-01	 4.128785e+01
1	 1.026407e+00	 3.789226e-01	 4.053484e+01
1	 1.068238e+00	 2.860812e-01	 4.309191e+01
1	 1.062846e+00	 3.055065e-01	 4.344389e+01
1	 1.057072e+00	 3.249214e-01	 4.357152e+01
1	 1.050915e+00	 3.443154e-01	 4.337882e+01
1	 1.044373e+00	 3.636776e-01	 4.274680e+01
1	 1.037444e+00	 3.829971e-01	 4.153337e+01
1	 1.079603e+00	 2.891246e-01	 4.448946e+01
1	 1.074153e+00	 3.087566e-01	 4.496989e+01
1	 1.068318e+00	 3.283780e-01	 4.510742e+01
1	 1.062095e+00	 3.479783e-01	 4.478604e+01
1	 1.055483e+00	 3.675465e-01	 4.386406e+01
1	 1.048480e+00	 3.870715e-01	 4.217409e+01
1	 9.932970e-01	 3.666993e-01	 3.396432e+01
1	 9.862913e-01	 3.851452e-01	 3.426504e+01
1	 9.789136e-01	 4.035288e-01	 3.498141e+01
1	 9.711636e-01	 4.218394e-01	 3.610175e+01
1	 9.630417e-01	 4.400660e-01	 3.761634e+01
1	 9.545482e-01	 4.581976e-01	 3.951751e+01
1	 1.004334e+00	 3.707737e-01	 3.689939e+01
1	 9.972501e-01	 3.894246e-01	 3.694760e+01
1	 9.897904e-01	 4.080125e-01	 3.732413e+01
1	 9.819543e-01	 4.265265e-01	 3.807988e+01
1	 9.737421e-01	 4.449556e-01	 3.928153e+01
1	 9.651543e-01	 4.632887e-01	 4.101164e+01
1	 1.015370e+00	 3.748482e-01	 3.903879e+01
1	 1.008209e+00	 3.937040e-01	 3.870717e+01
1	 1.000667e+00	 4.124961e-01	 3.872562e+01
1	 9.927451e-01	 4.312136e-01	 3.918606e+01
1	 9.844426e-01	 4.498452e-01	 4.020520e+01
1	 9.757604e-01	 4.683797e-01	 4.192460e+01
1	 1.026407e+00	 3.789226e-01	 4.053484e+01
1	 1.019168e+00	 3.979833e-01	 3.974037e+01
1	 1.011544e+00	 4.169798e-01	 3.939093e+01
1	 1.003536e+00	 4.359007e-01	 3.959850e+01
1	 9.951430e-01	 4.547348e-01	 4.050414e+01
1	 9.863665e-01	 4.734708e-01	 4.227794e+01
1	 1.037444e+00	 3.829971e-01	 4.153337e+01
1	 1.030126e+00	 4.022627e-01	 4.023543e+01
1	 1.022421e+00	 4.214634e-01	 3.951635e+01
1	 1.014326e+00	 4.405878e-01	 3.948781e+01
1	 1.005844e+00	 4.596244e-01	 4.029015e+01
1	 9.969726e-01	 4.785619e-01	 4.209233e+01
1	 1.048480e+00	 3.870715e-01	 4.217409e+01
1	 1.041085e+00	 4.065421e-01	 4.037265e+01
1	 1.033298e+00	 4.259471e-01	 3.928992e+01
1	 1.025117e+00	 4.452749e-01	 3.901741e+01
1	 1.016544e+00	 4.645141e-01	 3.967032e+01
1	 1.007579e+00	 4.836530e-01	 4.138754e+01
1	 9.545482e-01	 4.581976e-01	 3.951751e+01
1	 9.456843e-01	 4.762232e-01	 4.148732e+01
1	 9.364513e-01	 4.941318e-01	 4.324508e+01
1	 9.268511e-01	 5.119124e-01	 4.484742e+01
1	 9.168861e-01	 5.295538e-01	 4.636007e+01
1	 9.065589e-01	 5.470451e-01	 4.785771e+01
1	 9.651543e-01	 4.632887e-01	 4.101164e+01
1	 9.561919e-01	 4.815146e-01	 4.299785e+01
1	 9.468563e-01	 4.996222e-01	 4.489579e+01
1	 9.371495e-01	 5.176003e-01	 4.668902e+01
1	 9.270737e-01	 5.354377e-01	 4.835716e+01
1	 9.166317e-01	 5.531233e-01	 4.987607e+01
1	 9.757604e-01	 4.683797e-01	 4.192460e+01
1	 9.666995e-01	 4.868060e-01	 4.401718e+01
1	 9.572613e-01	 5.051125e-01	 4.601551e+01
1	 9.474478e-01	 5.232882e-01	 4.786096e+01
1	 9.372613e-01	 5.413216e-01	 4.948403e+01
1	 9.267046e-01	 5.592016e-01	 5.080463e+01
1	 9.863665e-01	 4.734708e-01	 4.227794e+01
1	 9.772071e-01	 4.920973e-01	 4.447705e+01
1	 9.676663e-01	 5.106029e-01	 4.648954e+01
1	 9.577462e-01	 5.289761e-01	 4.824454e+01
1	 9.474489e-01	 5.472056e-01	 4.965931e+01
1	 9.367775e-01	 5.652799e-01	 5.063952e+01
1	 9.969726e-01	 4.785619e-01	 4.209233e+01
1	 9.877147e-01	 4.973887e-01	 4.431212e+01
1	 9.780713e-01	 5.160932e-01	 4.620805e+01
1	 9.680445e-01	 5.346640e-01	 4.772611e+01
1	 9.576366e-01	 5.530895e-01	 4.880512e+01
1	 9.468504e-01	 5.713582e-01	 4.937698e+01
1	 1.007579e+00	 4.836530e-01	 4.138754e+01
1	 9.982223e-01	 5.026801e-01	 4.345977e+01
1	 9.884764e-01	 5.215836e-01	 4.506586e+01
1	 9.783428e-01	 5.403519e-01	 4.619681e+01
1	 9.678242e-01	 5.589734e-01	 4.684683e+01
1	 9.569232e-01	 5.774365e-01	 4.701346e+01
1	 9.065589e-01	 5.470451e-01	 4.785771e+01
1	 8.958727e-01	 5.643753e-01	 4.893271e+01
1	 8.848310e-01	 5.815336e-01	 4.919783e+01
1	 8.734381e-01	 5.985092e-01	 4.876392e+01
1	 8.616982e-01	 6.152914e-01	 4.774008e+01
1	 8.496162e-01	 6.318699e-01	 4.623319e+01
1	 9.166317e-01	 5.531233e-01	 4.987607e+01
1	 9.058268e-01	 5.706461e-01	 5.077344e+01
1	 8.946625e-01	 5.879951e-01	 5.073881e+01
1	 8.831429e-01	 6.051593e-01	 4.999848e+01
1	 8.712726e-01	 6.221280e-01	 4.879191e+01
1	 8.590564e-01	 6.388906e-01	 4.737079e+01
1	 9.267046e-01	 5.592016e-01	 5.080463e+01
1	 9.157809e-01	 5.769170e-01	 5.139537e+01
1	 9.044939e-01	 5.944565e-01	 5.107462e+01
1	 8.928478e-01	 6.118094e-01	 5.014062e+01
1	 8.808470e-01	 6.289646e-01	 4.891379e+01
1	 8.684966e-01	 6.459114e-01	 4.773542e+01
1	 9.367775e-01	 5.652799e-01	 5.063952e+01
1	 9.257351e-01	 5.831878e-01	 5.087004e+01
1	 9.143254e-01	 6.009180e-01	 5.030976e+01
1	 9.025527e-01	 6.184595e-01	 4.928673e+01
1	 8.904214e-01	 6.358012e-01	 4.815441e+01
1	 8.779368e-01	 6.529322e-01	 4.729015e+01
1	 9.468504e-01	 5.713582e-01	 4.937698e+01
1	 9.356892e-01	 5.894586e-01	 4.926594e+01
1	 9.241569e-01	 6.073795e-01	 4.854428e+01
1	 9.122575e-01	 6.251096e-01	 4.752909e+01
1	 8.999959e-01	 6.426377e-01	 4.656036e+01
1	 8.873770e-01	 6.599530e-01	 4.599957e+01
1	 9.569232e-01	 5.774365e-01	 4.701346e+01
1	 9.456434e-01	 5.957295e-01	 4.664867e+01
1	 9.339883e-01	 6.138410e-01	 4.587403e+01
1	 9.219624e-01	 6.317597e-01	 4.495608e+01
1	 9.095703e-01	 6.494743e-01	 4.417631e+01
1	 8.968171e-01	 6.669737e-01	 4.382981e+01
1	 8.496162e-01	 6.318699e-01	 4.623319e+01
1	 8.371976e-01	 6.482341e-01	 4.492197e+01
1	 8.244479e-01	 6.643740e-01	 4.422663e+01
1	 8.113734e-01	 6.802797e-01	 4.384778e+01
1	 7.979805e-01	 6.959413e-01	 4.346510e+01
1	 7.842762e-01	 7.113495e-01	 4.273892e+01
1	 8.590564e-01	 6.388906e-01	 4.737079e+01
1	 8.464998e-01	 6.554367e-01	 4.640192e+01
1	 8.336085e-01	 6.717560e-01	 4.608846e+01
1	 8.203887e-01	 6.878383e-01	 4.596593e+01
1	 8.068470e-01	 7.036740e-01	 4.553281e+01
1	 7.929904e-01	 7.192534e-01	 4.425309e+01
1	 8.684966e-01	 6.459114e-01	 4.773542e+01
1	 8.558020e-01	 6.626393e-01	 4.713548e+01
1	 8.427690e-01	 6.791379e-01	 4.705453e+01
1	 8.294039e-01	 6.953970e-01	 4.692809e+01
1	 8.157134e-01	 7.114067e-01	 4.614529e+01
1	 8.017045e-01	 7.271573e-01	 4.405200e+01
1	 8.779368e-01	 6.529322e-01	 4.729015e+01
1	 8.651042e-01	 6.698419e-01	 4.700695e+01
1	 8.519295e-01	 6.865198e-01	 4.697969e+01
1	 8.384192e-01	 7.029557e-01	 4.660679e+01
1	 8.245799e-01	 7.191394e-01	 4.523765e+01
1	 8.104187e-01	 7.350612e-01	 4.217595e+01
1	 8.873770e-01	 6.599530e-01	 4.599957e+01
1	 8.744064e-01	 6.770445e-01	 4.590558e+01
1	 8.610901e-01	 6.939018e-01	 4.572493e+01
1	 8.474345e-01	 7.105143e-01	 4.487998e+01
1	 8.334463e-01	 7.268721e-01	 4.274780e+01
1	 8.191329e-01	 7.429651e-01	 3.866352e+01
1	 8.968171e-01	 6.669737e-01	 4.382981e+01
1	 8.837086e-01	 6.842471e-01	 4.372525e+01
1	 8.702506e-01	 7.012837e-01	 4.315713e+01
1	 8.564497e-01	 7.180730e-01	 4.163073e+01
1	 8.423128e-01	 7.346048e-01	 3.861625e+01
1	 8.278471e-01	 7.508689e-01	 3.355166e+01
1	 7.842762e-01	 7.113495e-01	 4.273892e+01
1	 7.702676e-01	 7.264950e-01	 4.149734e+01
1	 7.559626e-01	 7.413689e-01	 3.981336e+01
1	 7.413689e-01	 7.559626e-01	 3.770769e+01
1	 7.264950e-01	 7.702676e-01	 3.520969e+01
1	 7.113495e-01	 7.842762e-01	 3.235715e+01
1	 7.929904e-01	 7.192534e-01	 4.425309e+01
1	 7.788262e-01	 7.345672e-01	 4.196662e+01
1	 7.643621e-01	 7.496064e-01	 3.903600e+01
1	 7.496064e-01	 7.643621e-01	 3.570530e+01
1	 7.345672e-01	 7.788262e-01	 3.224451e+01
1	 7.192534e-01	 7.929904e-01	 2.894796e+01
1	 8.017045e-01	 7.271573e-01	 4.405200e+01
1	 7.873847e-01	 7.426394e-01	 4.065023e+01
1	 7.727617e-01	 7.578438e-01	 3.664020e+01
1	 7.578438e-01	 7.727617e-01	 3.241331e+01
1	 7.426394e-01	 7.873847e-01	 2.839717e+01
1	 7.271573e-01	 8.017045e-01	 2.505312e+01
1	 8.104187e-01	 7.350612e-01	 4.217595e+01
1	 7.959432e-01	 7.507115e-01	 3.768704e+01
1	 7.811613e-01	 7.660812e-01	 3.281098e+01
1	 7.660812e-01	 7.811613e-01	 2.801293e+01
1	 7.507115e-01	 7.959432e-01	 2.379781e+01
1	 7.350612e-01	 8.104187e-01	 2.070730e+01
1	 8.191329e-01	 7.429651e-01	 3.866352e+01
1	 8.045018e-01	 7.587837e-01	 3.321001e+01
1	 7.895609e-01	 7.743186e-01	 2.772544e+01
1	 7.743186e-01	 7.895609e-01	 2.267765e+01
1	 7.587837e-01	 8.045018e-01	 1.857106e+01
1	 7.429651e-01	 8.191329e-01	 1.594373e+01
1	 8.278471e-01	 7.508689e-01	 3.355166e+01
1	 8.130603e-01	 7.668559e-01	 2.734651e+01
1	 7.979605e-01	 7.825561e-01	 2.155327e+01
1	 7.825561e-01	 7.979605e-01	 1.657366e+01
1	 7.668559e-01	 8.130603e-01	 1.283631e+01
1	 7.508689e-01	 8.278471e-01	 1.079419e+01
1	 7.113495e-01	 7.842762e-01	 3.235715e+01
1	 6.959413e-01	 7.979805e-01	 2.986021e+01
1	 6.802797e-01	 8.113734e-01	 2.847131e+01
1	 6.643740e-01	 8.244479e-01	 2.830278e+01
1	 6.482341e-01	 8.371976e-01	 2.947269e+01
1	 6.318699e-01	 8.496162e-01	 3.210399e+01
1	 7.192534e-01	 7.929904e-01	 2.894796e+01
1	 7.036740e-01	 8.068470e-01	 2.665891e+01
1	 6.878383e-01	 8.203887e-01	 2.594054e+01
1	 6.717560e-01	 8.336085e-01	 2.667623e+01
1	 6.554367e-01	 8.464998e-01	 2.873913e+01
1	 6.388906e-01	 8.590564e-01	 3.199273e+01
1	 7.271573e-01	 8.017045e-01	 2.505312e+01
1	 7.114067e-01	 8.157134e-01	 2.319396e+01
1	 6.953970e-01	 8.294039e-01	 2.313825e+01
1	 6.791379e-01	 8.427690e-01	 2.461335e+01
1	 6.626393e-01	 8.558020e-01	 2.732611e+01
1	 6.459114e-01	 8.684966e-01	 3.096447e+01
1	 7.350612e-01	 8.104187e-01	 2.070730e+01
1	 7.191394e-01	 8.245799e-01	 1.940697e+01
1	 7.029557e-01	 8.384192e-01	 1.995874e+01
1	 6.865198e-01	 8.519295e-01	 2.200445e+01
1	 6.698419e-01	 8.651042e-01	 2.516070e+01
1	 6.529322e-01	 8.779368e-01	 2.902103e+01
1	 7.429651e-01	 8.191329e-01	 1.594373e+01
1	 7.268721e-01	 8.334463e-01	 1.524202e+01
1	 7.105143e-01	 8.474345e-01	 1.630082e+01
1	 6.939018e-01	 8.610901e-01	 1.874451e+01
1	 6.770445e-01	 8.744064e-01	 2.217304e+01
1	 6.599530e-01	 8.873770e-01	 2.616417e+01
1	 7.508689e-01	 8.278471e-01	 1.079419e+01
1	 7.346048e-01	 8.423128e-01	 1.064558e+01
1	 7.180730e-01	 8.564497e-01	 1.206755e+01
1	 7.012837e-01	 8.702506e-01	 1.473292e+01
1	 6.842471e-01	 8.837086e-01	 1.829622e+01
1	 6.669737e-01	 8.968171e-01	 2.239556e+01
1	 6.318699e-01	 8.496162e-01	 3.210399e+01
1	 6.152914e-01	 8.616982e-01	 3.494135e+01
1	 5.985092e-01	 8.734381e-01	 3.676913e+01
1	 5.815336e-01	 8.848310e-01	 3.778177e+01
1	 5.643753e-01	 8.958727e-01	 3.818499e+01
1	 5.470451e-01	 9.065589e-01	 3.819474e+01
1	 6.388906e-01	 8.590564e-01	 3.199273e+01
1	 6.221280e-01	 8.712726e-01	 3.505341e+01
1	 6.051593e-01	 8.831429e-01	 3.686027e+01
1	 5.879951e-01	 8.946625e-01	 3.777056e+01
1	 5.706461e-01	 9.058268e-01	 3.816194e+01
1	 5.531233e-01	 9.166317e-01	 3.843034e+01
1	 6.459114e-01	 8.684966e-01	 3.096447e+01
1	 6.289646e-01	 8.808470e-01	 3.415080e+01
1	 6.118094e-01	 8.928478e-01	 3.600944e+01
1	 5.944565e-01	 9.044939e-01	 3.698831e+01
1	 5.769170e-01	 9.157809e-01	 3.756030e+01
1	 5.592016e-01	 9.267046e-01	 3.822046e+01
1	 6.529322e-01	 8.779368e-01	 2.902103e+01
1	 6.358012e-01	 8.904214e-01	 3.230744e+01
1	 6.184595e-01	 9.025527e-01	 3.432256e+01
1	 6.009180e-01	 9.143254e-01	 3.553536e+01
1	 5.831878e-01	 9.257351e-01	 3.643975e+01
1	 5.652799e-01	 9.367775e-01	 3.755163e+01
1	 6.599530e-01	 8.873770e-01	 2.616417e+01
1	 6.426377e-01	 8.999959e-01	 2.959408e+01
1	 6.251096e-01	 9.122575e-01	 3.190108e+01
1	 6.073795e-01	 9.241569e-01	 3.350782e+01
1	 5.894586e-01	 9.356892e-01	 3.485743e+01
1	 5.713582e-01	 9.468504e-01	 3.641093e+01
1	 6.669737e-01	 8.968171e-01	 2.239556e+01
1	 6.494743e-01	 9.095703e-01	 2.607851e+01
1	 6.317597e-01	 9.219624e-01	 2.884216e+01
1	 6.138410e-01	 9.339883e-01	 3.099771e+01
1	 5.957295e-01	 9.456434e-01	 3.286808e+01
1	 5.774365e-01	 9.569232e-01	 3.478601e+01
1	 5.470451e-01	 9.065589e-01	 3.819474e+01
1	 5.295538e-01	 9.168861e-01	 3.824067e+01
1	 5.119124e-01	 9.268511e-01	 3.850156e+01
1	 4.941318e-01	 9.364513e-01	 3.881179e+01
1	 4.762232e-01	 9.456843e-01	 3.899037e+01
1	 4.581976e-01	 9.545482e-01	 3.884241e+01
1	 5.531233e-01	 9.166317e-01	 3.843034e+01
1	 5.354377e-01	 9.270737e-01	 3.900055e+01
1	 5.176003e-01	 9.371495e-01	 3.984805e+01
1	 4.996222e-01	 9.468563e-01	 4.068983e+01
1	 4.815146e-01	 9.561919e-01	 4.122139e+01
1	 4.632887e-01	 9.651543e-01	 4.111902e+01
1	 5.592016e-01	 9.267046e-01	 3.822046e+01
1	 5.413216e-01	 9.372613e-01	 3.928913e+01
1	 5.232882e-01	 9.474478e-01	 4.054687e+01
1	 5.051125e-01	 9.572613e-01	 4.167496e+01
1	 4.868060e-01	 9.666995e-01	 4.233128e+01
1	 4.683797e-01	 9.757604e-01	 4.215282e+01
1	 5.652799e-01	 9.367775e-01	 3.755163e+01
1	 5.472056e-01	 9.474489e-01	 3.902553e+01
1	 5.289761e-01	 9.577462e-01	 4.049012e+01
1	 5.106029e-01	 9.676663e-01	 4.166993e+01
1	 4.920973e-01	 9.772071e-01	 4.226824e+01
1	 4.734708e-01	 9.863665e-01	 4.196931e+01
1	 5.713582e-01	 9.468504e-01	 3.641093e+01
1	 5.530895e-01	 9.576366e-01	 3.813230e+01
1	 5.346640e-01	 9.680445e-01	 3.957451e+01
1	 5.160932e-01	 9.780713e-01	 4.058164e+01
1	 4.973887e-01	 9.877147e-01	 4.098267e+01
1	 4.785619e-01	 9.969726e-01	 4.059292e+01
1	 5.774365e-01	 9.569232e-01	 3.478601e+01
1	 5.589734e-01	 9.678242e-01	 3.653525e+01
1	 5.403519e-01	 9.783428e-01	 3.770108e+01
1	 5.215836e-01	 9.884764e-01	 3.832090e+01
1	 5.026801e-01	 9.982223e-01	 3.842705e+01
1	 4.836530e-01	 1.007579e+00	 3.804703e+01
1	 4.581976e-01	 9.545482e-01	 3.884241e+01
1	 4.400660e-01	 9.630417e-01	 3.816345e+01
1	 4.218394e-01	 9.711636e-01	 3.697907e+01
1	 4.035288e-01	 9.789136e-01	 3.543231e+01
1	 3.851452e-01	 9.862913e-01	 3.366879e+01
1	 3.666993e-01	 9.932970e-01	 3.183595e+01
1	 4.632887e-01	 9.651543e-01	 4.111902e+01
1	 4.449556e-01	 9.737421e-01	 4.018597e+01
1	 4.265265e-01	 9.819543e-01	 3.860727e+01
1	 4.080125e-01	 9.897904e-01	 3.662519e+01
1	 3.894246e-01	 9.972501e-01	 3.448925e+01
1	 3.707737e-01	 1.004334e+00	 3.245469e+01
1	 4.683797e-01	 9.757604e-01	 4.215282e+01
1	 4.498452e-01	 9.844426e-01	 4.104398e+01
1	 4.312136e-01	 9.927451e-01	 3.932252e+01
1	 4.124961e-01	 1.000667e+00	 3.723899e+01
1	 3.937040e-01	 1.008209e+00	 3.505279e+01
1	 3.748482e-01	 1.015370e+00	 3.303056e+01
1	 4.734708e-01	 9.863665e-01	 4.196931e+01
1	 4.547348e-01	 9.951430e-01	 4.083612e+01
1	 4.359007e-01	 1.003536e+00	 3.926043e+01
1	 4.169798e-01	 1.011544e+00	 3.741316e+01
1	 3.979833e-01	 1.019168e+00	 3.547275e+01
1	 3.789226e-01	 1.026407e+00	 3.362399e+01
1	 4.785619e-01	 9.969726e-01	 4.059292e+01
1	 4.596244e-01	 1.005844e+00	 3.965685e+01
1	 4.405878e-01	 1.014326e+00	 3.855083e+01
1	 4.214634e-01	 1.022421e+00	 3.728122e+01
1	 4.022627e-01	 1.030126e+00	 3.585765e+01
1	 3.829971e-01	 1.037444e+00	 3.429285e+01
1	 4.836530e-01	 1.007579e+00	 3.804703e+01
1	 4.645141e-01	 1.016544e+00	 3.759665e+01
1	 4.452749e-01	 1.025117e+00	 3.731809e+01
1	 4.259471e-01	 1.033298e+00	 3.697106e+01
1	 4.065421e-01	 1.041085e+00	 3.631143e+01
1	 3.870715e-01	 1.048480e+00	 3.509259e+01
1	 3.666993e-01	 9.932970e-01	 3.183595e+01
1	 3.482019e-01	 9.999313e-01	 3.045198e+01
1	 3.296637e-01	 1.006195e+00	 2.969223e+01
1	 3.110950e-01	 1.012090e+00	 2.918352e+01
1	 2.925062e-01	 1.017618e+00	 2.854470e+01
1	 2.739075e-01	 1.022781e+00	 2.738880e+01
1	 3.707737e-01	 1.004334e+00	 3.245469e+01
1	 3.520708e-01	 1.011042e+00	 3.103663e+01
1	 3.333266e-01	 1.017375e+00	 3.031793e+01
1	 3.145516e-01	 1.023336e+00	 2.990099e+01
1	 2.957563e-01	 1.028925e+00	 2.937955e+01
1	 2.769509e-01	 1.034146e+00	 2.834095e+01
1	 3.748482e-01	 1.015370e+00	 3.303056e+01
1	 3.559398e-01	 1.022152e+00	 3.160104e+01
1	 3.369895e-01	 1.028555e+00	 3.077751e+01
1	 3.180082e-01	 1.034581e+00	 3.020051e+01
1	 2.990064e-01	 1.040232e+00	 2.950250e+01
1	 2.799944e-01	 1.045510e+00	 2.830998e+01
1	 3.789226e-01	 1.026407e+00	 3.362399e+01
1	 3.598087e-01	 1.033262e+00	 3.215161e+01
1	 3.406525e-01	 1.039735e+00	 3.104429e+01
1	 3.214648e-01	 1.045827e+00	 3.004113e+01
1	 3.022564e-01	 1.051539e+00	 2.887509e+01
1	 2.830378e-01	 1.056874e+00	 2.727444e+01
1	 3.829971e-01	 1.037444e+00	 3.429285e+01
1	 3.636776e-01	 1.044373e+00	 3.269449e+01
1	 3.443154e-01	 1.050915e+00	 3.109273e+01
1	 3.249214e-01	 1.057072e+00	 2.938370e+01
1	 3.055065e-01	 1.062846e+00	 2.746049e+01
1	 2.860812e-01	 1.068238e+00	 2.521378e+01
1	 3.870715e-01	 1.048480e+00	 3.509259e+01
1	 3.675465e-01	 1.055483e+00	 3.323553e+01
1	 3.479783e-01	 1.062095e+00	 3.089837e+01
1	 3.283780e-01	 1.068318e+00	 2.819068e+01
1	 3.087566e-01	 1.074153e+00	 2.522343e+01
1	 2.891246e-01	 1.079603e+00	 2.210832e+01
1	 2.739075e-01	 1.022781e+00	 2.738880e+01
1	 2.553089e-01	 1.027582e+00	 2.562124e+01
1	 2.367201e-01	 1.032023e+00	 2.357321e+01
1	 2.181507e-01	 1.036107e+00	 2.149253e+01
1	 1.996102e-01	 1.039838e+00	 1.962485e+01
1	 1.811076e-01	 1.043220e+00	 1.821228e+01
1	 2.769509e-01	 1.034146e+00	 2.834095e+01
1	 2.581457e-01	 1.039000e+00	 2.671536e+01
1	 2.393503e-01	 1.043490e+00	 2.479520e+01
1	 2.205746e-01	 1.047619e+00	 2.270900e+01
1	 2.018281e-01	 1.051392e+00	 2.058607e+01
1	 1.831199e-01	 1.054811e+00	 1.855562e+01
1	 2.799944e-01	 1.045510e+00	 2.830998e+01
1	 2.609824e-01	 1.050417e+00	 2.662968e+01
1	 2.419805e-01	 1.054957e+00	 2.472694e+01
1	 2.229985e-01	 1.059132e+00	 2.261543e+01
1	 2.040460e-01	 1.062946e+00	 2.031175e+01
1	 1.851322e-01	 1.066402e+00	 1.783500e+01
1	 2.830378e-01	 1.056874e+00	 2.727444e+01
1	 2.638192e-01	 1.061835e+00	 2.536347e+01
1	 2.446108e-01	 1.066423e+00	 2.338265e+01
1	 2.254224e-01	 1.070644e+00	 2.123509e+01
1	 2.062638e-01	 1.074499e+00	 1.882820e+01
1	 1.871445e-01	 1.077994e+00	 1.607375e+01
1	 2.860812e-01	 1.068238e+00	 2.521378e+01
1	 2.666560e-01	 1.073252e+00	 2.291603e+01
1	 2.472410e-01	 1.077890e+00	 2.077591e+01
1	 2.278463e-01	 1.082156e+00	 1.859023e+01
1	 2.084817e-01	 1.086053e+00	 1.616064e+01
1	 1.891568e-01	 1.089585e+00	 1.329422e+01
1	 2.891246e-01	 1.079603e+00	 2.210832e+01
1	 2.694927e-01	 1.084670e+00	 1.928666e+01
1	 2.498712e-01	 1.089357e+00	 1.691974e+01
1	 2.302702e-01	 1.093668e+00	 1.470218e+01
1	 2.106996e-01	 1.097607e+00	 1.233320e+01
1	 1.911691e-01	 1.101176e+00	 9.517804e+00
1	 1.811076e-01	 1.043220e+00	 1.821228e+01
1	 1.626518e-01	 1.046256e+00	 1.777403e+01
1	 1.442515e-01	 1.048951e+00	 1.796693e+01
1	 1.259151e-01	 1.051310e+00	 1.776569e+01
1	 1.076508e-01	 1.053337e+00	 1.618644e+01
1	 8.946642e-02	 1.055037e+00	 1.228913e+01
1	 1.831199e-01	 1.054811e+00	 1.855562e+01
1	 1.644590e-01	 1.057881e+00	 1.714971e+01
1	 1.458543e-01	 1.060606e+00	 1.627064e+01
1	 1.273142e-01	 1.062991e+00	 1.512723e+01
1	 1.088469e-01	 1.065041e+00	 1.296285e+01
1	 9.046050e-02	 1.066760e+00	 9.056904e+00
1	 1.851322e-01	 1.066402e+00	 1.783500e+01
1	 1.662663e-01	 1.069506e+00	 1.571835e+01
1	 1.474571e-01	 1.072261e+00	 1.407086e+01
1	 1.287132e-01	 1.074672e+00	 1.229764e+01
1	 1.100430e-01	 1.076744e+00	 9.831949e+00
1	 9.145457e-02	 1.078482e+00	 6.135970e+00
1	 1.871445e-01	 1.077994e+00	 1.607375e+01
1	 1.680735e-01	 1.081131e+00	 1.349485e+01
1	 1.490599e-01	 1.083916e+00	 1.137012e+01
1	 1.301123e-01	 1.086354e+00	 9.264311e+00
1	 1.112392e-01	 1.088448e+00	 6.764416e+00
1	 9.244864e-02	 1.090205e+00	 3.479944e+00
1	 1.891568e-01	 1.089585e+00	 1.329422e+01
1	 1.698807e-01	 1.092756e+00	 1.049349e+01
1	 1.506627e-01	 1.095571e+00	 8.170820e+00
1	 1.315114e-01	 1.098035e+00	 6.015151e+00
1	 1.124353e-01	 1.100152e+00	 3.732194e+00
1	 9.344271e-02	 1.101928e+00	 1.044417e+00
1	 1.911691e-01	 1.101176e+00	 9.517804e+00
1	 1.716880e-01	 1.104381e+00	 6.727927e+00
1	 1.522655e-01	 1.107226e+00	 4.475279e+00
1	 1.329104e-01	 1.109716e+00	 2.538587e+00
1	 1.136314e-01	 1.111856e+00	 7.084009e-01
1	 9.443678e-02	 1.113650e+00	-1.213145e+00
1	 8.946642e-02	 1.055037e+00	 1.228913e+01
1	 7.136958e-02	 1.056415e+00	 4.862872e+00
1	 5.336760e-02	 1.057478e+00	-5.769334e+00
1	 3.546754e-02	 1.058229e+00	-1.826097e+01
1	 1.767618e-02	 1.058676e+00	-3.133076e+01
1	 0.000000e+00	 1.058824e+00	-4.376364e+01
1	 9.046050e-02	 1.066760e+00	 9.056904e+00
1	 7.216257e-02	 1.068153e+00	 2.102860e+00
1	 5.396057e-02	 1.069227e+00	-7.822913e+00
1	 3.586163e-02	 1.069987e+00	-1.938672e+01
1	 1.787258e-02	 1.070439e+00	-3.131964e+01
1	 0.000000e+00	 1.070588e+00	-4.241848e+01
1	 9.145457e-02	 1.078482e+00	 6.135970e+00
1	 7.295557e-02	 1.079891e+00	-2.085040e-01
1	 5.455355e-02	 1.080977e+00	-9.396591e+00
1	 3.625571e-02	 1.081746e+00	-2.015470e+01
1	 1.806899e-02	 1.082202e+00	-3.127071e+01
1	 0.000000e+00	 1.082353e+00	-4.159485e+01
1	 9.244864e-02	 1.090205e+00	 3.479944e+00
1	 7.374856e-02	 1.091629e+00	-2.128478e+00
1	 5.514652e-02	 1.092727e+00	-1.054550e+01
1	 3.664980e-02	 1.093504e+00	-2.060343e+01
1	 1.826539e-02	 1.093965e+00	-3.118995e+01
1	 0.000000e+00	 1.094118e+00	-4.124891e+01
1	 9.344271e-02	 1.101928e+00	 1.044417e+00
1	 7.454156e-02	 1.103367e+00	-3.711886e+00
1	 5.573949e-02	 1.104477e+00	-1.132243e+01
1	 3.704388e-02	 1.105262e+00	-2.076977e+01
1	 1.846179e-02	 1.105728e+00	-3.108310e+01
1	 0.000000e+00	 1.105882e+00	-4.133871e+01
1	 9.443678e-02	 1.113650e+00	-1.213145e+00
1	 7.533455e-02	 1.115105e+00	-5.011243e+00
1	 5.633247e-02	 1.116227e+00	-1.177794e+01
1	 3.743796e-02	 1.117020e+00	-2.068905e+01
1	 1.865819e-02	 1.117491e+00	-3.095562e+01
1	 0.000000e+00	 1.117647e+00	-4.182405e+01
1	 1.117647e+00	 0.000000e+00	 5.155920e+00
1	 1.117491e+00	 1.865819e-02	-1.096647e+01
1	 1.117020e+00	 3.743796e-02	-1.941752e+01
1	 1.116227e+00	 5.633247e-02	-2.030029e+01
1	 1.115105e+00	 7.533455e-02	-1.375830e+01
1	 1.113650e+00	 9.443678e-02	 2.318945e-02
1	 1.129412e+00	 0.000000e+00	 2.727357e+00
1	 1.129254e+00	 1.885459e-02	-1.232676e+01
1	 1.128778e+00	 3.783205e-02	-2.011198e+01
1	 1.127976e+00	 5.692544e-02	-2.067077e+01
1	 1.126843e+00	 7.612755e-02	-1.406466e+01
1	 1.125373e+00	 9.543085e-02	-3.749768e-01
1	 1.141176e+00	 0.000000e+00	 1.575298e+00
1	 1.141017e+00	 1.905100e-02	-1.305702e+01
1	 1.140536e+00	 3.822613e-02	-2.060818e+01
1	 1.139726e+00	 5.751841e-02	-2.107612e+01
1	 1.138581e+00	 7.692054e-02	-1.446464e+01
1	 1.137095e+00	 9.642492e-02	-7.837931e-01
1	 1.152941e+00	 0.000000e+00	 1.218301e+00
1	 1.152781e+00	 1.924740e-02	-1.339221e+01
1	 1.152294e+00	 3.862022e-02	-2.096529e+01
1	 1.151476e+00	 5.811139e-02	-2.147011e+01
1	 1.150319e+00	 7.771354e-02	-1.487653e+01
1	 1.148818e+00	 9.741900e-02	-1.155437e+00
1	 1.164706e+00	 0.000000e+00	 1.194379e+00
1	 1.164544e+00	 1.944380e-02	-1.355781e+01
1	 1.164052e+00	 3.901430e-02	-2.124010e+01
1	 1.163226e+00	 5.870436e-02	-2.180839e+01
1	 1.162057e+00	 7.850653e-02	-1.522196e+01
1	 1.160541e+00	 9.841307e-02	-1.444019e+00
1	 1.176471e+00	 0.000000e+00	 1.060021e+00
1	 1.176307e+00	 1.964020e-02	-1.377029e+01
1	 1.175810e+00	 3.940838e-02	-2.148712e+01
1	 1.174975e+00	 5.929733e-02	-2.204837e+01
1	 1.173795e+00	 7.929953e-02	-1.542569e+01
1	 1.172263e+00	 9.940714e-02	-1.605483e+00
1	 1.113650e+00	 9.443678e-02	 2.318945e-02
1	 1.111856e+00	 1.136314e-01	 1.547020e+01
1	 1.109716e+00	 1.329104e-01	 2.725488e+01
1	 1.107226e+00	 1.522655e-01	 3.553963e+01
1	 1.104381e+00	 1.716880e-01	 4.050093e+01
1	 1.101176e+00	 1.911691e-01	 4.232930e+01
1	 1.125373e+00	 9.543085e-02	-3.749768e-01
1	 1.123559e+00	 1.148275e-01	 1.502334e+01
1	 1.121397e+00	 1.343095e-01	 2.689741e+01
1	 1.118881e+00	 1.538683e-01	 3.536951e+01
1	 1.116006e+00	 1.734952e-01	 4.056949e+01
1	 1.112768e+00	 1.931814e-01	 4.263458e+01
1	 1.137095e+00	 9.642492e-02	-7.837931e-01
1	 1.135263e+00	 1.160237e-01	 1.466978e+01
1	 1.133079e+00	 1.357085e-01	 2.666881e+01
1	 1.130536e+00	 1.554711e-01	 3.530522e+01
1	 1.127631e+00	 1.753025e-01	 4.067454e+01
1	 1.124359e+00	 1.951937e-01	 4.287579e+01
1	 1.148818e+00	 9.741900e-02	-1.155437e+00
1	 1.146967e+00	 1.172198e-01	 1.439940e+01
1	 1.144760e+00	 1.371076e-01	 2.652157e+01
1	 1.142191e+00	 1.570739e-01	 3.528211e+01
1	 1.139257e+00	 1.771097e-01	 4.075435e+01
1	 1.135950e+00	 1.972060e-01	 4.301376e+01
1	 1.160541e+00	 9.841307e-02	-1.444019e+00
1	 1.158671e+00	 1.184159e-01	 1.420249e+01
1	 1.156441e+00	 1.385066e-01	 2.641010e+01
1	 1.153846e+00	 1.586766e-01	 3.523821e+01
1	 1.150882e+00	 1.789169e-01	 4.074970e+01
1	 1.147542e+00	 1.992183e-01	 4.301092e+01
1	 1.172263e+00	 9.940714e-02	-1.605483e+00
1	 1.170374e+00	 1.196120e-01	 1.406976e+01
1	 1.168122e+00	 1.399057e-01	 2.629063e+01
1	 1.165501e+00	 1.602794e-01	 3.511397e+01
1	 1.162507e+00	 1.807242e-01	 4.060374e+01
1	 1.159133e+00	 2.012306e-01	 4.283116e+01
1	 1.101176e+00	 1.911691e-01	 4.232930e+01
1	 1.097607e+00	 2.106996e-01	 4.266614e+01
1	 1.093668e+00	 2.302702e-01	 4.303094e+01
1	 1.089357e+00	 2.498712e-01	 4.344272e+01
1	 1.084670e+00	 2.694927e-01	 4.392173e+01
1	 1.079603e+00	 2.891246e-01	 4.448946e+01
1	 1.112768e+00	 1.931814e-01	 4.263458e+01
1	 1.109161e+00	 2.129175e-01	 4.316095e+01
1	 1.105181e+00	 2.326941e-01	 4.367563e+01
1	 1.100824e+00	 2.525014e-01	 4.422154e+01
1	 1.096087e+00	 2.723295e-01	 4.484702e+01
1	 1.090967e+00	 2.921680e-01	 4.560580e+01
1	 1.124359e+00	 1.951937e-01	 4.287579e+01
1	 1.120714e+00	 2.151354e-01	 4.350219e+01
1	 1.116693e+00	 2.351180e-01	 4.411474e+01
1	 1.112291e+00	 2.551317e-01	 4.477247e+01
1	 1.107505e+00	 2.751662e-01	 4.554224e+01
1	 1.102331e+00	 2.952114e-01	 4.649868e+01
1	 1.135950e+00	 1.972060e-01	 4.301376e+01
1	 1.132268e+00	 2.173533e-01	 4.367652e+01
1	 1.128205e+00	 2.375419e-01	 4.434812e+01
1	 1.123758e+00	 2.577619e-01	 4.509605e+01
1	 1.118923e+00	 2.780030e-01	 4.599633e+01
1	 1.113695e+00	 2.982549e-01	 4.713349e+01
1	 1.147542e+00	 1.992183e-01	 4.301092e+01
1	 1.143822e+00	 2.195712e-01	 4.367116e+01
1	 1.139718e+00	 2.399658e-01	 4.437563e+01
1	 1.135225e+00	 2.603921e-01	 4.519278e+01
1	 1.130340e+00	 2.808398e-01	 4.619871e+01
1	 1.125060e+00	 3.012983e-01	 4.747704e+01
1	 1.159133e+00	 2.012306e-01	 4.283116e+01
1	 1.155376e+00	 2.217891e-01	 4.347384e+01
1	 1.151230e+00	 2.423897e-01	 4.419710e+01
1	 1.146692e+00	 2.630223e-01	 4.506314e+01
1	 1.141758e+00	 2.836765e-01	 4.613920e+01
1	 1.136424e+00	 3.043417e-01	 4.749746e+01
1	 1.079603e+00	 2.891246e-01	 4.448946e+01
1	 1.074153e+00	 3.087566e-01	 4.496989e+01
1	 1.068318e+00	 3.283780e-01	 4.510742e+01
1	 1.062095e+00	 3.479783e-01	 4.478604e+01
1	 1.055483e+00	 3.675465e-01	 4.386406e+01
1	 1.048480e+00	 3.870715e-01	 4.217409e+01
1	 1.090967e+00	 2.921680e-01	 4.560580e+01
1	 1.085460e+00	 3.120066e-01	 4.624233e+01
1	 1.079563e+00	 3.318347e-01	 4.639119e+01
1	 1.073275e+00	 3.516413e-01	 4.592532e+01
1	 1.066593e+00	 3.714154e-01	 4.469087e+01
1	 1.059517e+00	 3.911459e-01	 4.250715e+01
1	 1.102331e+00	 2.952114e-01	 4.649868e+01
1	 1.096767e+00	 3.152567e-01	 4.728533e+01
1	 1.090809e+00	 3.352913e-01	 4.741815e+01
1	 1.084455e+00	 3.553042e-01	 4.676643e+01
1	 1.077704e+00	 3.752843e-01	 4.517299e+01
1	 1.070553e+00	 3.952204e-01	 4.245418e+01
1	 1.113695e+00	 2.982549e-01	 4.713349e+01
1	 1.108073e+00	 3.185068e-01	 4.804002e+01
1	 1.102054e+00	 3.387479e-01	 4.811541e+01
1	 1.095635e+00	 3.589671e-01	 4.723248e+01
1	 1.088814e+00	 3.791532e-01	 4.523932e+01
1	 1.081590e+00	 3.992948e-01	 4.195937e+01
1	 1.125060e+00	 3.012983e-01	 4.747704e+01
1	 1.119380e+00	 3.217568e-01	 4.844992e+01
1	 1.113300e+00	 3.422045e-01	 4.841302e+01
1	 1.106815e+00	 3.626300e-01	 4.724966e+01
1	 1.099924e+00	 3.830221e-01	 4.482161e+01
1	 1.092627e+00	 4.033692e-01	 4.096919e+01
1	 1.136424e+00	 3.043417e-01	 4.749746e+01
1	 1.130687e+00	 3.250069e-01	 4.846079e+01
1	 1.124545e+00	 3.456611e-01	 4.824382e+01
1	 1.117995e+00	 3.662930e-01	 4.674713e+01
1	 1.111035e+00	 3.868910e-01	 4.385436e+01
1	 1.103663e+00	 4.074437e-01	 3.943227e+01
1	 1.048480e+00	 3.870715e-01	 4.217409e+01
1	 1.041085e+00	 4.065421e-01	 4.037265e+01
1	 1.033298e+00	 4.259471e-01	 3.928992e+01
1	 1.025117e+00	 4.452749e-01	 3.901741e+01
1	 1.016544e+00	 4.645141e-01	 3.967032e+01
1	 1.007579e+00	 4.836530e-01	 4.138754e+01
1	 1.059517e+00	 3.911459e-01	 4.250715e+01
1	 1.052044e+00	 4.108215e-01	 4.018363e+01
1	 1.044174e+00	 4.304307e-01	 3.869766e+01
1	 1.035908e+00	 4.499620e-01	 3.811311e+01
1	 1.027244e+00	 4.694037e-01	 3.851096e+01
1	 1.018185e+00	 4.887441e-01	 3.998922e+01
1	 1.070553e+00	 3.952204e-01	 4.245418e+01
1	 1.063003e+00	 4.151009e-01	 3.956172e+01
1	 1.055051e+00	 4.349144e-01	 3.760442e+01
1	 1.046699e+00	 4.546491e-01	 3.662309e+01
1	 1.037945e+00	 4.742933e-01	 3.667017e+01
1	 1.028791e+00	 4.938352e-01	 3.780961e+01
1	 1.081590e+00	 3.992948e-01	 4.195937e+01
1	 1.073962e+00	 4.193803e-01	 3.847519e+01
1	 1.065928e+00	 4.393980e-01	 3.601059e+01
1	 1.057489e+00	 4.593362e-01	 3.458787e+01
1	 1.048645e+00	 4.791829e-01	 3.423653e+01
1	 1.039397e+00	 4.989262e-01	 3.499320e+01
1	 1.092627e+00	 4.033692e-01	 4.096919e+01
1	 1.084920e+00	 4.236597e-01	 3.689358e+01
1	 1.076805e+00	 4.438817e-01	 3.391656e+01
1	 1.068280e+00	 4.640233e-01	 3.204636e+01
1	 1.059346e+00	 4.840725e-01	 3.129509e+01
1	 1.050003e+00	 5.040173e-01	 3.167866e+01
1	 1.103663e+00	 4.074437e-01	 3.943227e+01
1	 1.095879e+00	 4.279391e-01	 3.478765e+01
1	 1.087682e+00	 4.483653e-01	 3.132268e+01
1	 1.079071e+00	 4.687104e-01	 2.903588e+01
1	 1.070046e+00	 4.889622e-01	 2.792745e+01
1	 1.060609e+00	 5.091084e-01	 2.799910e+01
1	 1.007579e+00	 4.836530e-01	 4.138754e+01
1	 9.982223e-01	 5.026801e-01	 4.345977e+01
1	 9.884764e-01	 5.215836e-01	 4.506586e+01
1	 9.783428e-01	 5.403519e-01	 4.619681e+01
1	 9.678242e-01	 5.589734e-01	 4.684683e+01
1	 9.569232e-01	 5.774365e-01	 4.701346e+01
1	 1.018185e+00	 4.887441e-01	 3.998922e+01
1	 1.008730e+00	 5.079714e-01	 4.176353e+01
1	 9.988814e-01	 5.270740e-01	 4.299641e+01
1	 9.886412e-01	 5.460399e-01	 4.372948e+01
1	 9.780118e-01	 5.648574e-01	 4.401860e+01
1	 9.669961e-01	 5.835147e-01	 4.393401e+01
1	 1.028791e+00	 4.938352e-01	 3.780961e+01
1	 1.019237e+00	 5.132628e-01	 3.923808e+01
1	 1.009286e+00	 5.325643e-01	 4.014400e+01
1	 9.989395e-01	 5.517278e-01	 4.060340e+01
1	 9.881994e-01	 5.707413e-01	 4.071364e+01
1	 9.770690e-01	 5.895930e-01	 4.059339e+01
1	 1.039397e+00	 4.989262e-01	 3.499320e+01
1	 1.029745e+00	 5.185542e-01	 3.607359e+01
1	 1.019691e+00	 5.380547e-01	 3.671646e+01
1	 1.009238e+00	 5.574157e-01	 3.701658e+01
1	 9.983871e-01	 5.766252e-01	 3.709313e+01
1	 9.871419e-01	 5.956713e-01	 3.708959e+01
1	 1.050003e+00	 5.040173e-01	 3.167866e+01
1	 1.040253e+00	 5.238455e-01	 3.245250e+01
1	 1.030096e+00	 5.435450e-01	 3.291322e+01
1	 1.019536e+00	 5.631036e-01	 3.315903e+01
1	 1.008575e+00	 5.825091e-01	 3.331174e+01
1	 9.972147e-01	 6.017496e-01	 3.351664e+01
1	 1.060609e+00	 5.091084e-01	 2.799910e+01
1	 1.050760e+00	 5.291369e-01	 2.854999e+01
1	 1.040501e+00	 5.490354e-01	 2.892575e+01
1	 1.029835e+00	 5.687915e-01	 2.921315e+01
1	 1.018762e+00	 5.883931e-01	 2.951796e+01
1	 1.007288e+00	 6.078278e-01	 2.996481e+01
1	 9.569232e-01	 5.774365e-01	 4.701346e+01
1	 9.456434e-01	 5.957295e-01	 4.664867e+01
1	 9.339883e-01	 6.138410e-01	 4.587403e+01
1	 9.219624e-01	 6.317597e-01	 4.495608e+01
1	 9.095703e-01	 6.494743e-01	 4.417631e+01
1	 8.968171e-01	 6.669737e-01	 4.382981e+01
1	 9.669961e-01	 5.835147e-01	 4.393401e+01
1	 9.555975e-01	 6.020003e-01	 4.349054e+01
1	 9.438198e-01	 6.203025e-01	 4.278028e+01
1	 9.316673e-01	 6.384098e-01	 4.200511e+01
1	 9.191447e-01	 6.563109e-01	 4.137275e+01
1	 9.062573e-01	 6.739945e-01	 4.109576e+01
1	 9.770690e-01	 5.895930e-01	 4.059339e+01
1	 9.655516e-01	 6.082711e-01	 4.024449e+01
1	 9.536512e-01	 6.267640e-01	 3.967695e+01
1	 9.413721e-01	 6.450599e-01	 3.903812e+01
1	 9.287191e-01	 6.631474e-01	 3.847545e+01
1	 9.156975e-01	 6.810153e-01	 3.813580e+01
1	 9.871419e-01	 5.956713e-01	 3.708959e+01
1	 9.755058e-01	 6.145420e-01	 3.694400e+01
1	 9.634827e-01	 6.332255e-01	 3.655606e+01
1	 9.510770e-01	 6.517100e-01	 3.602838e+01
1	 9.382935e-01	 6.699840e-01	 3.546128e+01
1	 9.251377e-01	 6.880361e-01	 3.495223e+01
1	 9.972147e-01	 6.017496e-01	 3.351664e+01
1	 9.854599e-01	 6.208128e-01	 3.362118e+01
1	 9.733141e-01	 6.396869e-01	 3.340992e+01
1	 9.607819e-01	 6.583601e-01	 3.295026e+01
1	 9.478680e-01	 6.768206e-01	 3.230806e+01
1	 9.345779e-01	 6.950568e-01	 3.154727e+01
1	 1.007288e+00	 6.078278e-01	 2.996481e+01
1	 9.954141e-01	 6.270836e-01	 3.030686e+01
1	 9.831456e-01	 6.461484e-01	 3.023118e+01
1	 9.704867e-01	 6.650102e-01	 2.977915e+01
1	 9.574424e-01	 6.836572e-01	 2.899448e+01
1	 9.440180e-01	 7.020776e-01	 2.792305e+01
1	 8.968171e-01	 6.669737e-01	 4.382981e+01
1	 8.837086e-01	 6.842471e-01	 4.372525e+01
1	 8.702506e-01	 7.012837e-01	 4.315713e+01
1	 8.564497e-01	 7.180730e-01	 4.163073e+01
1	 8.423128e-01	 7.346048e-01	 3.861625e+01
1	 8.278471e-01	 7.508689e-01	 3.355166e+01
1	 9.062573e-01	 6.739945e-01	 4.109576e+01
1	 8.930108e-01	 6.914497e-01	 4.079246e+01
1	 8.794111e-01	 7.086656e-01	 3.969253e+01
1	 8.654650e-01	 7.256317e-01	 3.741005e+01
1	 8.511792e-01	 7.423374e-01	 3.353605e+01
1	 8.365612e-01	 7.587728e-01	 2.764094e+01
1	 9.156975e-01	 6.810153e-01	 3.813580e+01
1	 9.023130e-01	 6.986523e-01	 3.752293e+01
1	 8.885717e-01	 7.160476e-01	 3.586186e+01
1	 8.744802e-01	 7.331903e-01	 3.286938e+01
1	 8.600457e-01	 7.500701e-01	 2.824902e+01
1	 8.452754e-01	 7.666767e-01	 2.169286e+01
1	 9.251377e-01	 6.880361e-01	 3.495223e+01
1	 9.116152e-01	 7.058549e-01	 3.394682e+01
1	 8.977322e-01	 7.234295e-01	 3.170652e+01
1	 8.834955e-01	 7.407490e-01	 2.804501e+01
1	 8.689121e-01	 7.578028e-01	 2.277015e+01
1	 8.539896e-01	 7.745806e-01	 1.568531e+01
1	 9.345779e-01	 6.950568e-01	 3.154727e+01
1	 9.209173e-01	 7.130575e-01	 3.009305e+01
1	 9.068927e-01	 7.308114e-01	 2.726626e+01
1	 8.925108e-01	 7.483077e-01	 2.297177e+01
1	 8.777786e-01	 7.655355e-01	 1.711386e+01
1	 8.627038e-01	 7.824845e-01	 9.597042e+00
1	 9.440180e-01	 7.020776e-01	 2.792305e+01
1	 9.302195e-01	 7.202601e-01	 2.598941e+01
1	 9.160533e-01	 7.381934e-01	 2.257922e+01
1	 9.015260e-01	 7.558663e-01	 1.768308e+01
1	 8.866450e-01	 7.732682e-01	 1.129398e+01
1	 8.714180e-01	 7.903884e-01	 3.407683e+00
1	 8.278471e-01	 7.508689e-01	 3.355166e+01
1	 8.130603e-01	 7.668559e-01	 2.734651e+01
1	 7.979605e-01	 7.825561e-01	 2.155327e+01
1	 7.825561e-01	 7.979605e-01	 1.657366e+01
1	 7.668559e-01	 8.130603e-01	 1.283631e+01
1	 7.508689e-01	 8.278471e-01	 1.079419e+01
1	 8.365612e-01	 7.587728e-01	 2.764094e+01
1	 8.216188e-01	 7.749280e-01	 2.090641e+01
1	 8.063601e-01	 7.907935e-01	 1.500732e+01
1	 7.907935e-01	 8.063601e-01	 1.025248e+01
1	 7.749280e-01	 8.216188e-01	 6.966088e+00
1	 7.587728e-01	 8.365612e-01	 5.485723e+00
1	 8.452754e-01	 7.666767e-01	 2.169286e+01
1	 8.301773e-01	 7.830002e-01	 1.457798e+01
1	 8.147596e-01	 7.990309e-01	 8.640645e+00
1	 7.990309e-01	 8.147596e-01	 4.110181e+00
1	 7.830002e-01	 8.301773e-01	 1.222504e+00
1	 7.666767e-01	 8.452754e-01	 2.185965e-01
1	 8.539896e-01	 7.745806e-01	 1.568531e+01
1	 8.387359e-01	 7.910724e-01	 8.303926e+00
1	 8.231592e-01	 8.072684e-01	 2.380132e+00
1	 8.072684e-01	 8.231592e-01	-1.923245e+00
1	 7.910724e-01	 8.387359e-01	-4.442910e+00
1	 7.745806e-01	 8.539896e-01	-5.016242e+00
1	 8.627038e-01	 7.824845e-01	 9.597042e+00
1	 8.472944e-01	 7.991445e-01	 2.029284e+00
1	 8.315588e-01	 8.155058e-01	-3.844368e+00
1	 8.155058e-01	 8.315588e-01	-7.914975e+00
1	 7.991445e-01	 8.472944e-01	-1.007667e+01
1	 7.824845e-01	 8.627038e-01	-1.022748e+01
1	 8.714180e-01	 7.903884e-01	 3.407683e+00
1	 8.558529e-01	 8.072167e-01	-4.298724e+00
1	 8.399584e-01	 8.237432e-01	-1.010020e+01
1	 8.237432e-01	 8.399584e-01	-1.392950e+01
1	 8.072167e-01	 8.558529e-01	-1.572343e+01
1	 7.903884e-01	 8.714180e-01	-1.542345e+01
1	 7.508689e-01	 8.278471e-01	 1.079419e+01
1	 7.346048e-01	 8.423128e-01	 1.064558e+01
1	 7.180730e-01	 8.564497e-01	 1.206755e+01
1	 7.012837e-01	 8.702506e-01	 1.473292e+01
1	 6.842471e-01	 8.837086e-01	 1.829622e+01
1	 6.669737e-01	 8.968171e-01	 2.239556e+01
1	 7.587728e-01	 8.365612e-01	 5.485723e+00
1	 7.423374e-01	 8.511792e-01	 5.800499e+00
1	 7.256317e-01	 8.654650e-01	 7.500829e+00
1	 7.086656e-01	 8.794111e-01	 1.032574e+01
1	 6.914497e-01	 8.930108e-01	 1.400304e+01
1	 6.739945e-01	 9.062573e-01	 1.825088e+01
1	 7.666767e-01	 8.452754e-01	 2.185965e-01
1	 7.500701e-01	 8.600457e-01	 9.427405e-01
1	 7.331903e-01	 8.744802e-01	 2.932081e+00
1	 7.160476e-01	 8.885717e-01	 5.963532e+00
1	 6.986523e-01	 9.023130e-01	 9.806699e+00
1	 6.810153e-01	 9.156975e-01	 1.422514e+01
1	 7.745806e-01	 8.539896e-01	-5.016242e+00
1	 7.578028e-01	 8.689121e-01	-3.900749e+00
1	 7.407490e-01	 8.834955e-01	-1.599535e+00
1	 7.234295e-01	 8.977322e-01	 1.674800e+00
1	 7.058549e-01	 9.116152e-01	 5.703080e+00
1	 6.880361e-01	 9.251377e-01	 1.026075e+01
1	 7.824845e-01	 8.627038e-01	-1.022748e+01
1	 7.655355e-01	 8.777786e-01	-8.704111e+00
1	 7.483077e-01	 8.925108e-01	-6.056444e+00
1	 7.308114e-01	 9.068927e-01	-2.513123e+00
1	 7.130575e-01	 9.209173e-01	 1.688251e+00
1	 6.950568e-01	 9.345779e-01	 6.302458e+00
1	 7.903884e-01	 8.714180e-01	-1.542345e+01
1	 7.732682e-01	 8.866450e-01	-1.344252e+01
1	 7.558663e-01	 9.015260e-01	-1.040257e+01
1	 7.381934e-01	 9.160533e-01	-6.573995e+00
1	 7.202601e-01	 9.302195e-01	-2.241566e+00
1	 7.020776e-01	 9.440180e-01	 2.297229e+00
1	 6.669737e-01	 8.968171e-01	 2.239556e+01
1	 6.494743e-01	 9.095703e-01	 2.607851e+01
1	 6.317597e-01	 9.219624e-01	 2.884216e+01
1	 6.138410e-01	 9.339883e-01	 3.099771e+01
1	 5.957295e-01	 9.456434e-01	 3.286808e+01
1	 5.774365e-01	 9.569232e-01	 3.478601e+01
1	 6.739945e-01	 9.062573e-01	 1.825088e+01
1	 6.563109e-01	 9.191447e-01	 2.224199e+01
1	 6.384098e-01	 9.316673e-01	 2.547266e+01
1	 6.203025e-01	 9.438198e-01	 2.814292e+01
1	 6.020003e-01	 9.555975e-01	 3.045581e+01
1	 5.835147e-01	 9.669961e-01	 3.261628e+01
1	 6.810153e-01	 9.156975e-01	 1.422514e+01
1	 6.631474e-01	 9.287191e-01	 1.845148e+01
1	 6.450599e-01	 9.413721e-01	 2.197994e+01
1	 6.267640e-01	 9.536512e-01	 2.496220e+01
1	 6.082711e-01	 9.655516e-01	 2.754869e+01
1	 5.895930e-01	 9.770690e-01	 2.988776e+01
1	 6.880361e-01	 9.251377e-01	 1.026075e+01
1	 6.699840e-01	 9.382935e-01	 1.460443e+01
1	 6.517100e-01	 9.510770e-01	 1.825238e+01
1	 6.332255e-01	 9.634827e-01	 2.136876e+01
1	 6.145420e-01	 9.755058e-01	 2.411654e+01
1	 5.956713e-01	 9.871419e-01	 2.665662e+01
1	 6.950568e-01	 9.345779e-01	 6.302458e+00
1	 6.768206e-01	 9.478680e-01	 1.060243e+01
1	 6.583601e-01	 9.607819e-01	 1.418284e+01
1	 6.396869e-01	 9.733141e-01	 1.727928e+01
1	 6.208128e-01	 9.854599e-01	 2.013043e+01
1	 6.017496e-01	 9.972147e-01	 2.297672e+01
1	 7.020776e-01	 9.440180e-01	 2.297229e+00
1	 6.836572e-01	 9.574424e-01	 6.351015e+00
1	 6.650102e-01	 9.704867e-01	 9.668499e+00
1	 6.461484e-01	 9.831456e-01	 1.261380e+01
1	 6.270836e-01	 9.954141e-01	 1.556258e+01
1	 6.078278e-01	 1.007288e+00	 1.889980e+01
1	 5.774365e-01	 9.569232e-01	 3.478601e+01
1	 5.589734e-01	 9.678242e-01	 3.653525e+01
1	 5.403519e-01	 9.783428e-01	 3.770108e+01
1	 5.215836e-01	 9.884764e-01	 3.832090e+01
1	 5.026801e-01	 9.982223e-01	 3.842705e+01
1	 4.836530e-01	 1.007579e+00	 3.804703e+01
1	 5.835147e-01	 9.669961e-01	 3.261628e+01
1	 5.648574e-01	 9.780118e-01	 3.430715e+01
1	 5.460399e-01	 9.886412e-01	 3.521057e+01
1	 5.270740e-01	 9.988814e-01	 3.553509e+01
1	 5.079714e-01	 1.008730e+00	 3.549358e+01
1	 4.887441e-01	 1.018185e+00	 3.530224e+01
1	 5.895930e-01	 9.770690e-01	 2.988776e+01
1	 5.707413e-01	 9.881994e-01	 3.165853e+01
1	 5.517278e-01	 9.989395e-01	 3.261479e+01
1	 5.325643e-01	 1.009286e+00	 3.302227e+01
1	 5.132628e-01	 1.019237e+00	 3.315521e+01
1	 4.938352e-01	 1.028791e+00	 3.329488e+01
1	 5.956713e-01	 9.871419e-01	 2.665662e+01
1	 5.766252e-01	 9.983871e-01	 2.872008e+01
1	 5.574157e-01	 1.009238e+00	 3.006961e+01
1	 5.380547e-01	 1.019691e+00	 3.091778e+01
1	 5.185542e-01	 1.029745e+00	 3.148476e+01
1	 4.989262e-01	 1.039397e+00	 3.199710e+01
1	 6.017496e-01	 9.972147e-01	 2.297672e+01
1	 5.825091e-01	 1.008575e+00	 2.561723e+01
1	 5.631036e-01	 1.019536e+00	 2.772462e+01
1	 5.435450e-01	 1.030096e+00	 2.935150e+01
1	 5.238455e-01	 1.040253e+00	 3.055212e+01
1	 5.040173e-01	 1.050003e+00	 3.138215e+01
1	 6.078278e-01	 1.007288e+00	 1.889980e+01
1	 5.883931e-01	 1.018762e+00	 2.247035e+01
1	 5.687915e-01	 1.029835e+00	 2.572341e+01
1	 5.490354e-01	 1.040501e+00	 2.844812e+01
1	 5.291369e-01	 1.050760e+00	 3.042436e+01
1	 5.091084e-01	 1.060609e+00	 3.142436e+01
1	 4.836530e-01	 1.007579e+00	 3.804703e+01
1	 4.645141e-01	 1.016544e+00	 3.759665e+01
1	 4.452749e-01	 1.025117e+00	 3.731809e+01
1	 4.259471e-01	 1.033298e+00	 3.697106e+01
1	 4.065421e-01	 1.041085e+00	 3.631143e+01
1	 3.870715e-01	 1.048480e+00	 3.509259e+01
1	 4.887441e-01	 1.018185e+00	 3.530224e+01
1	 4.694037e-01	 1.027244e+00	 3.544895e+01
1	 4.499620e-01	 1.035908e+00	 3.597774e+01
1	 4.304307e-01	 1.044174e+00	 3.643148e+01
1	 4.108215e-01	 1.052044e+00	 3.634279e+01
1	 3.911459e-01	 1.059517e+00	 3.523693e+01
1	 4.938352e-01	 1.028791e+00	 3.329488e+01
1	 4.742933e-01	 1.037945e+00	 3.386622e+01
1	 4.546491e-01	 1.046699e+00	 3.475317e+01
1	 4.349144e-01	 1.055051e+00	 3.541862e+01
1	 4.151009e-01	 1.063003e+00	 3.531318e+01
1	 3.952204e-01	 1.070553e+00	 3.387846e+01
1	 4.989262e-01	 1.039397e+00	 3.199710e+01
1	 4.791829e-01	 1.048645e+00	 3.272836e+01
1	 4.593362e-01	 1.057489e+00	 3.348167e+01
1	 4.393980e-01	 1.065928e+00	 3.377247e+01
1	 4.193803e-01	 1.073962e+00	 3.310599e+01
1	 3.992948e-01	 1.081590e+00	 3.098034e+01
1	 5.040173e-01	 1.050003e+00	 3.138215e+01
1	 4.840725e-01	 1.059346e+00	 3.192014e+01
1	 4.640233e-01	 1.068280e+00	 3.200714e+01
1	 4.438817e-01	 1.076805e+00	 3.133944e+01
1	 4.236597e-01	 1.084920e+00	 2.960936e+01
1	 4.033692e-01	 1.092627e+00	 2.650717e+01
1	 5.091084e-01	 1.060609e+00	 3.142436e+01
1	 4.889622e-01	 1.070046e+00	 3.133093e+01
1	 4.687104e-01	 1.079071e+00	 3.017971e+01
1	 4.483653e-01	 1.087682e+00	 2.797212e+01
1	 4.279391e-01	 1.095879e+00	 2.471589e+01
1	 4.074437e-01	 1.103663e+00	 2.042501e+01
1	 3.870715e-01	 1.048480e+00	 3.509259e+01
1	 3.675465e-01	 1.055483e+00	 3.323553e+01
1	 3.479783e-01	 1.062095e+00	 3.089837e+01
1	 3.283780e-01	 1.068318e+00	 2.819068e+01
1	 3.087566e-01	 1.074153e+00	 2.522343e+01
1	 2.891246e-01	 1.079603e+00	 2.210832e+01
1	 3.911459e-01	 1.059517e+00	 3.523693e+01
1	 3.714154e-01	 1.066593e+00	 3.293785e+01
1	 3.516413e-01	 1.073275e+00	 2.978657e+01
1	 3.318347e-01	 1.079563e+00	 2.608517e+01
1	 3.120066e-01	 1.085460e+00	 2.214116e+01
1	 2.921680e-01	 1.090967e+00	 1.826557e+01
1	 3.952204e-01	 1.070553e+00	 3.387846e+01
1	 3.752843e-01	 1.077704e+00	 3.099023e+01
1	 3.553042e-01	 1.084455e+00	 2.716136e+01
1	 3.352913e-01	 1.090809e+00	 2.279149e+01
1	 3.152567e-01	 1.096767e+00	 1.828757e+01
1	 2.952114e-01	 1.102331e+00	 1.406142e+01
1	 3.992948e-01	 1.081590e+00	 3.098034e+01
1	 3.791532e-01	 1.088814e+00	 2.743556e+01
1	 3.589671e-01	 1.095635e+00	 2.311424e+01
1	 3.387479e-01	 1.102054e+00	 1.842160e+01
1	 3.185068e-01	 1.108073e+00	 1.377010e+01
1	 2.982549e-01	 1.113695e+00	 9.576856e+00
1	 4.033692e-01	 1.092627e+00	 2.650717e+01
1	 3.830221e-01	 1.099924e+00	 2.231500e+01
1	 3.626300e-01	 1.106815e+00	 1.773297e+01
1	 3.422045e-01	 1.113300e+00	 1.308294e+01
1	 3.217568e-01	 1.119380e+00	 8.691823e+00
1	 3.012983e-01	 1.125060e+00	 4.889587e+00
1	 4.074437e-01	 1.103663e+00	 2.042501e+01
1	 3.868910e-01	 1.111035e+00	 1.566807e+01
1	 3.662930e-01	 1.117995e+00	 1.110183e+01
1	 3.456611e-01	 1.124545e+00	 6.878629e+00
1	 3.250069e-01	 1.130687e+00	 3.151702e+00
1	 3.043417e-01	 1.136424e+00	 7.421542e-02
1	 2.891246e-01	 1.079603e+00	 2.210832e+01
1	 2.694927e-01	 1.084670e+00	 1.928666e+01
1	 2.498712e-01	 1.089357e+00	 1.691974e+01
1	 2.302702e-01	 1.093668e+00	 1.470218e+01
1	 2.106996e-01	 1.097607e+00	 1.233320e+01
1	 1.911691e-01	 1.101176e+00	 9.517804e+00
1	 2.921680e-01	 1.090967e+00	 1.826557e+01
1	 2.723295e-01	 1.096087e+00	 1.501989e+01
1	 2.525014e-01	 1.100824e+00	 1.249730e+01
1	 2.326941e-01	 1.105181e+00	 1.030998e+01
1	 2.129175e-01	 1.109161e+00	 8.074104e+00
1	 1.931814e-01	 1.112768e+00	 5.411507e+00
1	 2.952114e-01	 1.102331e+00	 1.406142e+01
1	 2.751662e-01	 1.107505e+00	 1.069385e+01
1	 2.551317e-01	 1.112291e+00	 8.198422e+00
1	 2.351180e-01	 1.116693e+00	 6.139599e+00
1	 2.151354e-01	 1.120714e+00	 4.085217e+00
1	 1.951937e-01	 1.124359e+00	 1.608460e+00
1	 2.982549e-01	 1.113695e+00	 9.576856e+00
1	 2.780030e-01	 1.118923e+00	 6.356771e+00
1	 2.577619e-01	 1.123758e+00	 4.045046e+00
1	 2.375419e-01	 1.128205e+00	 2.192049e+00
1	 2.173533e-01	 1.132268e+00	 3.508872e-01
1	 1.972060e-01	 1.135950e+00	-1.920489e+00
1	 3.012983e-01	 1.125060e+00	 4.889587e+00
1	 2.808398e-01	 1.130340e+00	 2.054934e+00
1	 2.603921e-01	 1.135225e+00	 5.823087e-02
1	 2.399658e-01	 1.139718e+00	-1.531694e+00
1	 2.195712e-01	 1.143822e+00	-3.143907e+00
1	 1.992183e-01	 1.147542e+00	-5.203314e+00
1	 3.043417e-01	 1.136424e+00	 7.421542e-02
1	 2.836765e-01	 1.141758e+00	-2.167231e+00
1	 2.630223e-01	 1.146692e+00	-3.741811e+00
1	 2.423897e-01	 1.151230e+00	-5.030694e+00
1	 2.217891e-01	 1.155376e+00	-6.413585e+00
1	 2.012306e-01	 1.159133e+00	-8.266872e+00
1	 1.911691e-01	 1.101176e+00	 9.517804e+00
1	 1.716880e-01	 1.104381e+00	 6.727927e+00
1	 1.522655e-01	 1.107226e+00	 4.475279e+00
1	 1.329104e-01	 1.109716e+00	 2.538587e+00
1	 1.136314e-01	 1.111856e+00	 7.084009e-01
1	 9.443678e-02	 1.113650e+00	-1.213145e+00
1	 1.931814e-01	 1.112768e+00	 5.411507e+00
1	 1.734952e-01	 1.116006e+00	 2.769033e+00
1	 1.538683e-01	 1.118881e+00	 7.322845e-01
1	 1.343095e-01	 1.121397e+00	-8.575279e-01
1	 1.148275e-01	 1.123559e+00	-2.151451e+00
1	 9.543085e-02	 1.125373e+00	-3.293156e+00
1	 1.951937e-01	 1.124359e+00	 1.608460e+00
1	 1.753025e-01	 1.127631e+00	-8.476595e-01
1	 1.554711e-01	 1.130536e+00	-2.639554e+00
1	 1.357085e-01	 1.133079e+00	-3.884077e+00
1	 1.160237e-01	 1.135263e+00	-4.693160e+00
1	 9.642492e-02	 1.137095e+00	-5.174271e+00
1	 1.972060e-01	 1.135950e+00	-1.920489e+00
1	 1.771097e-01	 1.139257e+00	-4.160684e+00
1	 1.570739e-01	 1.142191e+00	-5.681951e+00
1	 1.371076e-01	 1.144760e+00	-6.579165e+00
1	 1.172198e-01	 1.146967e+00	-6.943871e+00
1	 9.741900e-02	 1.148818e+00	-6.864785e+00
1	 1.992183e-01	 1.147542e+00	-5.203314e+00
1	 1.789169e-01	 1.150882e+00	-7.207018e+00
1	 1.586766e-01	 1.153846e+00	-8.434936e+00
1	 1.385066e-01	 1.156441e+00	-8.979359e+00
1	 1.184159e-01	 1.158671e+00	-8.929631e+00
1	 9.841307e-02	 1.160541e+00	-8.372658e+00
1	 2.012306e-01	 1.159133e+00	-8.266872e+00
1	 1.807242e-01	 1.162507e+00	-1.002216e+01
1	 1.602794e-01	 1.165501e+00	-1.093694e+01
1	 1.399057e-01	 1.168122e+00	-1.111976e+01
1	 1.196120e-01	 1.170374e+00	-1.067544e+01
1	 9.940714e-02	 1.172263e+00	-9.705529e+00
1	 9.443678e-02	 1.113650e+00	-1.213145e+00
1	 7.533455e-02	 1.115105e+00	-5.011243e+00
1	 5.633247e-02	 1.116227e+00	-1.177794e+01
1	 3.743796e-02	 1.117020e+00	-2.068905e+01
1	 1.865819e-02	 1.117491e+00	-3.095562e+01
1	 0.000000e+00	 1.117647e+00	-4.182405e+01
1	 9.543085e-02	 1.125373e+00	-3.293156e+00
1	 7.612755e-02	 1.126843e+00	-6.168492e+00
1	 5.692544e-02	 1.127976e+00	-1.213278e+01
1	 3.783205e-02	 1.128778e+00	-2.054672e+01
1	 1.885459e-02	 1.129254e+00	-3.079514e+01
1	 0.000000e+00	 1.129412e+00	-4.228685e+01
1	 9.642492e-02	 1.137095e+00	-5.174271e+00
1	 7.692054e-02	 1.138581e+00	-7.286122e+00
1	 5.751841e-02	 1.139726e+00	-1.256813e+01
1	 3.822613e-02	 1.140536e+00	-2.050813e+01
1	 1.905100e-02	 1.141017e+00	-3.061023e+01
1	 0.000000e+00	 1.141176e+00	-4.239444e+01
1	 9.741900e-02	 1.148818e+00	-6.864785e+00
1	 7.771354e-02	 1.150319e+00	-8.356063e+00
1	 5.811139e-02	 1.151476e+00	-1.307392e+01
1	 3.862022e-02	 1.152294e+00	-2.057725e+01
1	 1.924740e-02	 1.152781e+00	-3.043654e+01
1	 0.000000e+00	 1.152941e+00	-4.223332e+01
1	 9.841307e-02	 1.160541e+00	-8.372658e+00
1	 7.850653e-02	 1.162057e+00	-9.370573e+00
1	 5.870436e-02	 1.163226e+00	-1.364047e+01
1	 3.901430e-02	 1.164052e+00	-2.075787e+01
1	 1.944380e-02	 1.164544e+00	-3.030825e+01
1	 0.000000e+00	 1.164706e+00	-4.188648e+01
1	 9.940714e-02	 1.172263e+00	-9.705529e+00
1	 7.929953e-02	 1.173795e+00	-1.032222e+01
1	 5.929733e-02	 1.174975e+00	-1.425850e+01
1	 3.940838e-02	 1.175810e+00	-2.105364e+01
1	 1.964020e-02	 1.176307e+00	-3.025819e+01
1	 0.000000e+00	 1.176471e+00	-4.143361e+01
1	 1.176471e+00	 0.000000e+00	 1.060021e+00
1	 1.176307e+00	 1.964020e-02	-1.377029e+01
1	 1.175810e+00	 3.940838e-02	-2.148712e+01
1	 1.174975e+00	 5.929733e-02	-2.204837e+01
1	 1.173795e+00	 7.929953e-02	-1.542569e+01
1	 1.172263e+00	 9.940714e-02	-1.605483e+00
1	 1.188235e+00	 0.000000e+00	 5.021838e-01
1	 1.188070e+00	 1.983660e-02	-1.411220e+01
1	 1.187568e+00	 3.980247e-02	-2.164836e+01
1	 1.186725e+00	 5.989031e-02	-2.207366e+01
1	 1.185533e+00	 8.009253e-02	-1.538141e+01
1	 1.183986e+00	 1.004012e-01	-1.592286e+00
1	 1.200000e+00	 0.000000e+00	-3.909591e-01
1	 1.199833e+00	 2.003301e-02	-1.449232e+01
1	 1.199327e+00	 4.019655e-02	-2.165356e+01
1	 1.198475e+00	 6.048328e-02	-2.185141e+01
1	 1.197271e+00	 8.088552e-02	-1.509663e+01
1	 1.195709e+00	 1.013953e-01	-1.435797e+00
1	 1.211765e+00	 0.000000e+00	-1.452783e+00
1	 1.211596e+00	 2.022941e-02	-1.486140e+01
1	 1.211085e+00	 4.059063e-02	-2.153628e+01
1	 1.210225e+00	 6.107625e-02	-2.146320e+01
1	 1.209009e+00	 8.167852e-02	-1.466618e+01
1	 1.207431e+00	 1.023894e-01	-1.209451e+00
1	 1.223529e+00	 0.000000e+00	-2.523070e+00
1	 1.223359e+00	 2.042581e-02	-1.517212e+01
1	 1.222843e+00	 4.098472e-02	-2.132875e+01
1	 1.221974e+00	 6.166923e-02	-2.098745e+01
1	 1.220747e+00	 8.247151e-02	-1.418129e+01
1	 1.219154e+00	 1.033834e-01	-9.838580e-01
1	 1.235294e+00	 0.000000e+00	-3.447710e+00
1	 1.235122e+00	 2.062221e-02	-1.537893e+01
1	 1.234601e+00	 4.137880e-02	-2.106198e+01
1	 1.233724e+00	 6.226220e-02	-2.049961e+01
1	 1.232485e+00	 8.326451e-02	-1.372968e+01
1	 1.230876e+00	 1.043775e-01	-8.269397e-01
1	 1.172263e+00	 9.940714e-02	-1.605483e+00
1	 1.170374e+00	 1.196120e-01	 1.406976e+01
1	 1.168122e+00	 1.399057e-01	 2.629063e+01
1	 1.165501e+00	 1.602794e-01	 3.511397e+01
1	 1.162507e+00	 1.807242e-01	 4.060374e+01
1	 1.159133e+00	 2.012306e-01	 4.283116e+01
1	 1.183986e+00	 1.004012e-01	-1.592286e+00
1	 1.182078e+00	 1.208081e-01	 1.399110e+01
1	 1.179803e+00	 1.413048e-01	 2.612762e+01
1	 1.177156e+00	 1.618822e-01	 3.487572e+01
1	 1.174132e+00	 1.825314e-01	 4.030522e+01
1	 1.170724e+00	 2.032429e-01	 4.249756e+01
1	 1.195709e+00	 1.013953e-01	-1.435797e+00
1	 1.193782e+00	 1.220043e-01	 1.393515e+01
1	 1.191485e+00	 1.427038e-01	 2.590267e+01
1	 1.188811e+00	 1.634850e-01	 3.452631e+01
1	 1.185757e+00	 1.843387e-01	 3.987991e+01
1	 1.182316e+00	 2.052552e-01	 4.205205e+01
1	 1.207431e+00	 1.023894e-01	-1.209451e+00
1	 1.205486e+00	 1.232004e-01	 1.386213e+01
1	 1.203166e+00	 1.441029e-01	 2.559955e+01
1	 1.200466e+00	 1.650878e-01	 3.406286e+01
1	 1.197382e+00	 1.861459e-01	 3.932818e+01
1	 1.193907e+00	 2.072675e-01	 4.148813e+01
1	 1.219154e+00	 1.033834e-01	-9.838580e-01
1	 1.217189e+00	 1.243965e-01	 1.373381e+01
1	 1.214847e+00	 1.455019e-01	 2.520263e+01
1	 1.212121e+00	 1.666906e-01	 3.348262e+01
1	 1.209007e+00	 1.879532e-01	 3.865037e+01
1	 1.205498e+00	 2.092798e-01	 4.079956e+01
1	 1.230876e+00	 1.043775e-01	-8.269397e-01
1	 1.228893e+00	 1.255926e-01	 1.351340e+01
1	 1.226528e+00	 1.469010e-01	 2.469689e+01
1	 1.223776e+00	 1.682934e-01	 3.278292e+01
1	 1.220632e+00	 1.897604e-01	 3.784684e+01
1	 1.217090e+00	 2.112921e-01	 3.998035e+01
1	 1.159133e+00	 2.012306e-01	 4.283116e+01
1	 1.155376e+00	 2.217891e-01	 4.347384e+01
1	 1.151230e+00	 2.423897e-01	 4.419710e+01
1	 1.146692e+00	 2.630223e-01	 4.506314e+01
1	 1.141758e+00	 2.836765e-01	 4.613920e+01
1	 1.136424e+00	 3.043417e-01	 4.749746e+01
1	 1.170724e+00	 2.032429e-01	 4.249756e+01
1	 1.166929e+00	 2.240070e-01	 4.313501e+01
1	 1.162742e+00	 2.448136e-01	 4.387361e+01
1	 1.158159e+00	 2.656526e-01	 4.476599e+01
1	 1.153175e+00	 2.865133e-01	 4.586686e+01
1	 1.147788e+00	 3.073851e-01	 4.723275e+01
1	 1.182316e+00	 2.052552e-01	 4.205205e+01
1	 1.178483e+00	 2.262249e-01	 4.270223e+01
1	 1.174254e+00	 2.472375e-01	 4.345261e+01
1	 1.169626e+00	 2.682828e-01	 4.434691e+01
1	 1.164593e+00	 2.893501e-01	 4.542857e+01
1	 1.159152e+00	 3.104285e-01	 4.674053e+01
1	 1.193907e+00	 2.072675e-01	 4.148813e+01
1	 1.190037e+00	 2.284428e-01	 4.215970e+01
1	 1.185767e+00	 2.496614e-01	 4.291417e+01
1	 1.181093e+00	 2.709130e-01	 4.378697e+01
1	 1.176010e+00	 2.921868e-01	 4.481160e+01
1	 1.170517e+00	 3.134720e-01	 4.601938e+01
1	 1.205498e+00	 2.092798e-01	 4.079956e+01
1	 1.201591e+00	 2.306606e-01	 4.149223e+01
1	 1.197279e+00	 2.520853e-01	 4.223912e+01
1	 1.192560e+00	 2.735432e-01	 4.306801e+01
1	 1.187428e+00	 2.950236e-01	 4.400372e+01
1	 1.181881e+00	 3.165154e-01	 4.506790e+01
1	 1.217090e+00	 2.112921e-01	 3.998035e+01
1	 1.213144e+00	 2.328785e-01	 4.068521e+01
1	 1.208791e+00	 2.545092e-01	 4.140902e+01
1	 1.204026e+00	 2.761734e-01	 4.217252e+01
1	 1.198846e+00	 2.978604e-01	 4.299314e+01
1	 1.193245e+00	 3.195588e-01	 4.388479e+01
1	 1.136424e+00	 3.043417e-01	 4.749746e+01
1	 1.130687e+00	 3.250069e-01	 4.846079e+01
1	 1.124545e+00	 3.456611e-01	 4.824382e+01
1	 1.117995e+00	 3.662930e-01	 4.674713e+01
1	 1.111035e+00	 3.868910e-01	 4.385436e+01
1	 1.103663e+00	 4.074437e-01	 3.943227e+01
1	 1.147788e+00	 3.073851e-01	 4.723275e+01
1	 1.141994e+00	 3.282570e-01	 4.811108e+01
1	 1.135790e+00	 3.491177e-01	 4.766337e+01
1	 1.129175e+00	 3.699559e-01	 4.580939e+01
1	 1.122145e+00	 3.907600e-01	 4.245675e+01
1	 1.114700e+00	 4.115181e-01	 3.750098e+01
1	 1.159152e+00	 3.104285e-01	 4.674053e+01
1	 1.153301e+00	 3.315071e-01	 4.748052e+01
1	 1.147036e+00	 3.525743e-01	 4.677964e+01
1	 1.140355e+00	 3.736188e-01	 4.457402e+01
1	 1.133256e+00	 3.946289e-01	 4.079143e+01
1	 1.125737e+00	 4.155926e-01	 3.535151e+01
1	 1.170517e+00	 3.134720e-01	 4.601938e+01
1	 1.164608e+00	 3.347571e-01	 4.657825e+01
1	 1.158281e+00	 3.560309e-01	 4.560574e+01
1	 1.151535e+00	 3.772818e-01	 4.305155e+01
1	 1.144366e+00	 3.984978e-01	 3.885998e+01
1	 1.136773e+00	 4.196670e-01	 3.297013e+01
1	 1.181881e+00	 3.165154e-01	 4.506790e+01
1	 1.175915e+00	 3.380072e-01	 4.541301e+01
1	 1.169527e+00	 3.594875e-01	 4.415424e+01
1	 1.162715e+00	 3.809447e-01	 4.125213e+01
1	 1.155476e+00	 4.023667e-01	 3.666391e+01
1	 1.147810e+00	 4.237414e-01	 3.034364e+01
1	 1.193245e+00	 3.195588e-01	 4.388479e+01
1	 1.187222e+00	 3.412573e-01	 4.399326e+01
1	 1.180772e+00	 3.629442e-01	 4.243725e+01
1	 1.173895e+00	 3.846076e-01	 3.918552e+01
1	 1.166587e+00	 4.062356e-01	 3.420467e+01
1	 1.158846e+00	 4.278159e-01	 2.745934e+01
1	 1.103663e+00	 4.074437e-01	 3.943227e+01
1	 1.095879e+00	 4.279391e-01	 3.478765e+01
1	 1.087682e+00	 4.483653e-01	 3.132268e+01
1	 1.079071e+00	 4.687104e-01	 2.903588e+01
1	 1.070046e+00	 4.889622e-01	 2.792745e+01
1	 1.060609e+00	 5.091084e-01	 2.799910e+01
1	 1.114700e+00	 4.115181e-01	 3.750098e+01
1	 1.106838e+00	 4.322185e-01	 3.233493e+01
1	 1.098559e+00	 4.528490e-01	 2.842166e+01
1	 1.089861e+00	 4.733975e-01	 2.575321e+01
1	 1.080747e+00	 4.938518e-01	 2.432179e+01
1	 1.071215e+00	 5.141995e-01	 2.411968e+01
1	 1.125737e+00	 4.155926e-01	 3.535151e+01
1	 1.117797e+00	 4.364979e-01	 2.971100e+01
1	 1.109435e+00	 4.573326e-01	 2.537629e+01
1	 1.100652e+00	 4.780846e-01	 2.233487e+01
1	 1.091447e+00	 4.987414e-01	 2.057344e+01
1	 1.081821e+00	 5.192906e-01	 2.007785e+01
1	 1.136773e+00	 4.196670e-01	 3.297013e+01
1	 1.128756e+00	 4.407773e-01	 2.688556e+01
1	 1.120312e+00	 4.618163e-01	 2.214335e+01
1	 1.111443e+00	 4.827717e-01	 1.872832e+01
1	 1.102148e+00	 5.036310e-01	 1.662407e+01
1	 1.092427e+00	 5.243817e-01	 1.581298e+01
1	 1.147810e+00	 4.237414e-01	 3.034364e+01
1	 1.139714e+00	 4.450566e-01	 2.382944e+01
1	 1.131189e+00	 4.663000e-01	 1.868127e+01
1	 1.122234e+00	 4.874588e-01	 1.488305e+01
1	 1.112848e+00	 5.085207e-01	 1.241762e+01
1	 1.103033e+00	 5.294728e-01	 1.126675e+01
1	 1.158846e+00	 4.278159e-01	 2.745934e+01
1	 1.150673e+00	 4.493360e-01	 2.051460e+01
1	 1.142066e+00	 4.707836e-01	 1.495005e+01
1	 1.133024e+00	 4.921459e-01	 1.075045e+01
1	 1.123549e+00	 5.134103e-01	 7.900152e+00
1	 1.113640e+00	 5.345638e-01	 6.383069e+00
1	 1.060609e+00	 5.091084e-01	 2.799910e+01
1	 1.050760e+00	 5.291369e-01	 2.854999e+01
1	 1.040501e+00	 5.490354e-01	 2.892575e+01
1	 1.029835e+00	 5.687915e-01	 2.921315e+01
1	 1.018762e+00	 5.883931e-01	 2.951796e+01
1	 1.007288e+00	 6.078278e-01	 2.996481e+01
1	 1.071215e+00	 5.141995e-01	 2.411968e+01
1	 1.061268e+00	 5.344283e-01	 2.448065e+01
1	 1.050906e+00	 5.545257e-01	 2.478466e+01
1	 1.040133e+00	 5.744794e-01	 2.510321e+01
1	 1.028950e+00	 5.942770e-01	 2.552105e+01
1	 1.017360e+00	 6.139061e-01	 2.613601e+01
1	 1.081821e+00	 5.192906e-01	 2.007785e+01
1	 1.071775e+00	 5.397196e-01	 2.020690e+01
1	 1.061311e+00	 5.600161e-01	 2.036685e+01
1	 1.050431e+00	 5.801673e-01	 2.062082e+01
1	 1.039138e+00	 6.001609e-01	 2.104080e+01
1	 1.027433e+00	 6.199844e-01	 2.170743e+01
1	 1.092427e+00	 5.243817e-01	 1.581298e+01
1	 1.082283e+00	 5.450110e-01	 1.567209e+01
1	 1.071716e+00	 5.655064e-01	 1.562880e+01
1	 1.060730e+00	 5.858553e-01	 1.574459e+01
1	 1.049325e+00	 6.060449e-01	 1.608674e+01
1	 1.037506e+00	 6.260627e-01	 1.672814e+01
1	 1.103033e+00	 5.294728e-01	 1.126675e+01
1	 1.092791e+00	 5.503024e-01	 1.082172e+01
1	 1.082121e+00	 5.709968e-01	 1.052865e+01
1	 1.071028e+00	 5.915432e-01	 1.045391e+01
1	 1.059513e+00	 6.119288e-01	 1.066802e+01
1	 1.047579e+00	 6.321410e-01	 1.124532e+01
1	 1.113640e+00	 5.345638e-01	 6.383069e+00
1	 1.103298e+00	 5.555938e-01	 5.603406e+00
1	 1.092526e+00	 5.764871e-01	 5.026144e+00
1	 1.081326e+00	 5.972311e-01	 4.729008e+00
1	 1.069700e+00	 6.178127e-01	 4.793464e+00
1	 1.057652e+00	 6.382192e-01	 5.304337e+00
1	 1.007288e+00	 6.078278e-01	 2.996481e+01
1	 9.954141e-01	 6.270836e-01	 3.030686e+01
1	 9.831456e-01	 6.461484e-01	 3.023118e+01
1	 9.704867e-01	 6.650102e-01	 2.977915e+01
1	 9.574424e-01	 6.836572e-01	 2.899448e+01
1	 9.440180e-01	 7.020776e-01	 2.792305e+01
1	 1.017360e+00	 6.139061e-01	 2.613601e+01
1	 1.005368e+00	 6.333545e-01	 2.663379e+01
1	 9.929771e-01	 6.526099e-01	 2.663561e+01
1	 9.801916e-01	 6.716603e-01	 2.615707e+01
1	 9.670168e-01	 6.904937e-01	 2.522038e+01
1	 9.534582e-01	 7.090984e-01	 2.385432e+01
1	 1.027433e+00	 6.199844e-01	 2.170743e+01
1	 1.015322e+00	 6.396253e-01	 2.227323e+01
1	 1.002809e+00	 6.590714e-01	 2.231635e+01
1	 9.898965e-01	 6.783104e-01	 2.181840e+01
1	 9.765912e-01	 6.973303e-01	 2.076945e+01
1	 9.628984e-01	 7.161192e-01	 1.916825e+01
1	 1.037506e+00	 6.260627e-01	 1.672814e+01
1	 1.025276e+00	 6.458962e-01	 1.731025e+01
1	 1.012640e+00	 6.655329e-01	 1.737917e+01
1	 9.996013e-01	 6.849605e-01	 1.687447e+01
1	 9.861657e-01	 7.041669e-01	 1.574378e+01
1	 9.723386e-01	 7.231400e-01	 1.394320e+01
1	 1.047579e+00	 6.321410e-01	 1.124532e+01
1	 1.035231e+00	 6.521670e-01	 1.182667e+01
1	 1.022471e+00	 6.719944e-01	 1.192574e+01
1	 1.009306e+00	 6.916106e-01	 1.143231e+01
1	 9.957401e-01	 7.110034e-01	 1.024153e+01
1	 9.817788e-01	 7.301607e-01	 8.254519e+00
1	 1.057652e+00	 6.382192e-01	 5.304337e+00
1	 1.045185e+00	 6.584378e-01	 5.901163e+00
1	 1.032303e+00	 6.784558e-01	 6.053871e+00
1	 1.019011e+00	 6.982607e-01	 5.594905e+00
1	 1.005315e+00	 7.178400e-01	 4.357112e+00
1	 9.912189e-01	 7.371815e-01	 2.174682e+00
1	 9.440180e-01	 7.020776e-01	 2.792305e+01
1	 9.302195e-01	 7.202601e-01	 2.598941e+01
1	 9.160533e-01	 7.381934e-01	 2.257922e+01
1	 9.015260e-01	 7.558663e-01	 1.768308e+01
1	 8.866450e-01	 7.732682e-01	 1.129398e+01
1	 8.714180e-01	 7.903884e-01	 3.407683e+00
1	 9.534582e-01	 7.090984e-01	 2.385432e+01
1	 9.395217e-01	 7.274627e-01	 2.147694e+01
1	 9.252138e-01	 7.455753e-01	 1.753142e+01
1	 9.105413e-01	 7.634250e-01	 1.209297e+01
1	 8.955115e-01	 7.810008e-01	 5.241785e+00
1	 8.801321e-01	 7.982922e-01	-2.936997e+00
1	 9.628984e-01	 7.161192e-01	 1.916825e+01
1	 9.488239e-01	 7.346653e-01	 1.641434e+01
1	 9.343743e-01	 7.529572e-01	 1.200760e+01
1	 9.195565e-01	 7.709836e-01	 6.110902e+00
1	 9.043779e-01	 7.887335e-01	-1.103855e+00
1	 8.888463e-01	 8.061961e-01	-9.456362e+00
1	 9.723386e-01	 7.231400e-01	 1.394320e+01
1	 9.581261e-01	 7.418679e-01	 1.085351e+01
1	 9.435349e-01	 7.603392e-01	 6.041856e+00
1	 9.285718e-01	 7.785423e-01	-2.382278e-01
1	 9.132444e-01	 7.964662e-01	-7.718844e+00
1	 8.975605e-01	 8.141000e-01	-1.611883e+01
1	 9.817788e-01	 7.301607e-01	 8.254519e+00
1	 9.674283e-01	 7.490705e-01	 4.844346e+00
1	 9.526954e-01	 7.677211e-01	-3.330139e-01
1	 9.375871e-01	 7.861010e-01	-6.930499e+00
1	 9.221108e-01	 8.041989e-01	-1.458001e+01
1	 9.062747e-01	 8.220039e-01	-2.289405e+01
1	 9.912189e-01	 7.371815e-01	 2.174682e+00
1	 9.767305e-01	 7.562731e-01	-1.565161e+00
1	 9.618559e-01	 7.751030e-01	-7.085470e+00
1	 9.466023e-01	 7.936596e-01	-1.394290e+01
1	 9.309773e-01	 8.119316e-01	-2.166508e+01
1	 9.149889e-01	 8.299078e-01	-2.975281e+01
1	 8.714180e-01	 7.903884e-01	 3.407683e+00
1	 8.558529e-01	 8.072167e-01	-4.298724e+00
1	 8.399584e-01	 8.237432e-01	-1.010020e+01
1	 8.237432e-01	 8.399584e-01	-1.392950e+01
1	 8.072167e-01	 8.558529e-01	-1.572343e+01
1	 7.903884e-01	 8.714180e-01	-1.542345e+01
1	 8.801321e-01	 7.982922e-01	-2.936997e+00
1	 8.644115e-01	 8.152889e-01	-1.070546e+01
1	 8.483580e-01	 8.319807e-01	-1.636750e+01
1	 8.319807e-01	 8.483580e-01	-1.990049e+01
1	 8.152889e-01	 8.644115e-01	-2.128652e+01
1	 7.982922e-01	 8.801321e-01	-2.051269e+01
1	 8.888463e-01	 8.061961e-01	-9.456362e+00
1	 8.729700e-01	 8.233610e-01	-1.715680e+01
1	 8.567576e-01	 8.402181e-01	-2.256217e+01
1	 8.402181e-01	 8.567576e-01	-2.571188e+01
1	 8.233610e-01	 8.729700e-01	-2.665258e+01
1	 8.061961e-01	 8.888463e-01	-2.543807e+01
1	 8.975605e-01	 8.141000e-01	-1.611883e+01
1	 8.815285e-01	 8.314332e-01	-2.361584e+01
1	 8.651572e-01	 8.484555e-01	-2.865408e+01
1	 8.484555e-01	 8.651572e-01	-3.135197e+01
1	 8.314332e-01	 8.815285e-01	-3.183945e+01
1	 8.141000e-01	 8.975605e-01	-3.025743e+01
1	 9.062747e-01	 8.220039e-01	-2.289405e+01
1	 8.900870e-01	 8.395054e-01	-3.004707e+01
1	 8.735567e-01	 8.566930e-01	-3.461425e+01
1	 8.566930e-01	 8.735567e-01	-3.680948e+01
1	 8.395054e-01	 8.900870e-01	-3.686422e+01
1	 8.220039e-01	 9.062747e-01	-3.502642e+01
1	 9.149889e-01	 8.299078e-01	-2.975281e+01
1	 8.986456e-01	 8.475775e-01	-3.641636e+01
1	 8.819563e-01	 8.649304e-01	-4.041483e+01
1	 8.649304e-01	 8.819563e-01	-4.207359e+01
1	 8.475775e-01	 8.986456e-01	-4.174339e+01
1	 8.299078e-01	 9.149889e-01	-3.979854e+01
1	 7.903884e-01	 8.714180e-01	-1.542345e+01
1	 7.732682e-01	 8.866450e-01	-1.344252e+01
1	 7.558663e-01	 9.015260e-01	-1.040257e+01
1	 7.381934e-01	 9.160533e-01	-6.573995e+00
1	 7.202601e-01	 9.302195e-01	-2.241566e+00
1	 7.020776e-01	 9.440180e-01	 2.297229e+00
1	 7.982922e-01	 8.801321e-01	-2.051269e+01
1	 7.810008e-01	 8.955115e-01	-1.808931e+01
1	 7.634250e-01	 9.105413e-01	-1.472114e+01
1	 7.455753e-01	 9.252138e-01	-1.070658e+01
1	 7.274627e-01	 9.395217e-01	-6.363344e+00
1	 7.090984e-01	 9.534582e-01	-2.026628e+00
1	 8.061961e-01	 8.888463e-01	-2.543807e+01
1	 7.887335e-01	 9.043779e-01	-2.269481e+01
1	 7.709836e-01	 9.195565e-01	-1.918210e+01
1	 7.529572e-01	 9.343743e-01	-1.517461e+01
1	 7.346653e-01	 9.488239e-01	-1.096757e+01
1	 7.161192e-01	 9.628984e-01	-6.874890e+00
1	 8.141000e-01	 8.975605e-01	-3.025743e+01
1	 7.964662e-01	 9.132444e-01	-2.734781e+01
1	 7.785423e-01	 9.285718e-01	-2.387771e+01
1	 7.603392e-01	 9.435349e-01	-2.004801e+01
1	 7.418679e-01	 9.581261e-01	-1.607749e+01
1	 7.231400e-01	 9.723386e-01	-1.220152e+01
1	 8.220039e-01	 9.062747e-01	-3.502642e+01
1	 8.041989e-01	 9.221108e-01	-3.213366e+01
1	 7.861010e-01	 9.375871e-01	-2.889673e+01
1	 7.677211e-01	 9.526954e-01	-2.539398e+01
1	 7.490705e-01	 9.674283e-01	-2.171545e+01
1	 7.301607e-01	 9.817788e-01	-1.796225e+01
1	 8.299078e-01	 9.149889e-01	-3.979854e+01
1	 8.119316e-01	 9.309773e-01	-3.713449e+01
1	 7.936596e-01	 9.466023e-01	-3.432450e+01
1	 7.751030e-01	 9.618559e-01	-3.127718e+01
1	 7.562731e-01	 9.767305e-01	-2.790295e+01
1	 7.371815e-01	 9.912189e-01	-2.411450e+01
1	 7.020776e-01	 9.440180e-01	 2.297229e+00
1	 6.836572e-01	 9.574424e-01	 6.351015e+00
1	 6.650102e-01	 9.704867e-01	 9.668499e+00
1	 6.461484e-01	 9.831456e-01	 1.261380e+01
1	 6.270836e-01	 9.954141e-01	 1.556258e+01
1	 6.078278e-01	 1.007288e+00	 1.889980e+01
1	 7.090984e-01	 9.534582e-01	-2.026628e+00
1	 6.904937e-01	 9.670168e-01	 1.711203e+00
1	 6.716603e-01	 9.801916e-01	 4.791971e+00
1	 6.526099e-01	 9.929771e-01	 7.686096e+00
1	 6.333545e-01	 1.005368e+00	 1.088328e+01
1	 6.139061e-01	 1.017360e+00	 1.488947e+01
1	 7.161192e-01	 9.628984e-01	-6.874890e+00
1	 6.973303e-01	 9.765912e-01	-3.324017e+00
1	 6.783104e-01	 9.898965e-01	-2.175578e-01
1	 6.590714e-01	 1.002809e+00	 2.922894e+00
1	 6.396253e-01	 1.015322e+00	 6.597248e+00
1	 6.199844e-01	 1.027433e+00	 1.132376e+01
1	 7.231400e-01	 9.723386e-01	-1.220152e+01
1	 7.041669e-01	 9.861657e-01	-8.651434e+00
1	 6.849605e-01	 9.996013e-01	-5.243484e+00
1	 6.655329e-01	 1.012640e+00	-1.586642e+00
1	 6.458962e-01	 1.025276e+00	 2.728438e+00
1	 6.260627e-01	 1.037506e+00	 8.126777e+00
1	 7.301607e-01	 9.817788e-01	-1.796225e+01
1	 7.110034e-01	 9.957401e-01	-1.417181e+01
1	 6.916106e-01	 1.009306e+00	-1.017369e+01
1	 6.719944e-01	 1.022471e+00	-5.756775e+00
1	 6.521670e-01	 1.035231e+00	-7.001198e-01
1	 6.321410e-01	 1.047579e+00	 5.225552e+00
1	 7.371815e-01	 9.912189e-01	-2.411450e+01
1	 7.178400e-01	 1.005315e+00	-1.978968e+01
1	 6.982607e-01	 1.019011e+00	-1.490033e+01
1	 6.784558e-01	 1.032303e+00	-9.505034e+00
1	 6.584378e-01	 1.045185e+00	-3.666272e+00
1	 6.382192e-01	 1.057652e+00	 2.549885e+00
1	 6.078278e-01	 1.007288e+00	 1.889980e+01
1	 5.883931e-01	 1.018762e+00	 2.247035e+01
1	 5.687915e-01	 1.029835e+00	 2.572341e+01
1	 5.490354e-01	 1.040501e+00	 2.844812e+01
1	 5.291369e-01	 1.050760e+00	 3.042436e+01
1	 5.091084e-01	 1.060609e+00	 3.142436e+01
1	 6.139061e-01	 1.017360e+00	 1.488947e+01
1	 5.942770e-01	 1.028950e+00	 1.949439e+01
1	 5.744794e-01	 1.040133e+00	 2.385273e+01
1	 5.545257e-01	 1.050906e+00	 2.751181e+01
1	 5.344283e-01	 1.061268e+00	 2.999952e+01
1	 5.141995e-01	 1.071215e+00	 3.082759e+01
1	 6.199844e-01	 1.027433e+00	 1.132376e+01
1	 6.001609e-01	 1.039138e+00	 1.671500e+01
1	 5.801673e-01	 1.050431e+00	 2.167474e+01
1	 5.600161e-01	 1.061311e+00	 2.565005e+01
1	 5.397196e-01	 1.071775e+00	 2.806477e+01
1	 5.192906e-01	 1.081821e+00	 2.832335e+01
1	 6.260627e-01	 1.037506e+00	 8.126777e+00
1	 6.060449e-01	 1.049325e+00	 1.396996e+01
1	 5.858553e-01	 1.060730e+00	 1.899756e+01
1	 5.655064e-01	 1.071716e+00	 2.269378e+01
1	 5.450110e-01	 1.082283e+00	 2.452186e+01
1	 5.243817e-01	 1.092427e+00	 2.392773e+01
1	 6.321410e-01	 1.047579e+00	 5.225552e+00
1	 6.119288e-01	 1.059513e+00	 1.110328e+01
1	 5.915432e-01	 1.071028e+00	 1.563672e+01
1	 5.709968e-01	 1.082121e+00	 1.848044e+01
1	 5.503024e-01	 1.092791e+00	 1.927633e+01
1	 5.294728e-01	 1.103033e+00	 1.765623e+01
1	 6.382192e-01	 1.057652e+00	 2.549885e+00
1	 6.178127e-01	 1.069700e+00	 7.964888e+00
1	 5.972311e-01	 1.081326e+00	 1.141477e+01
1	 5.764871e-01	 1.092526e+00	 1.285366e+01
1	 5.555938e-01	 1.103298e+00	 1.223733e+01
1	 5.345638e-01	 1.113640e+00	 9.523740e+00
1	 5.091084e-01	 1.060609e+00	 3.142436e+01
1	 4.889622e-01	 1.070046e+00	 3.133093e+01
1	 4.687104e-01	 1.079071e+00	 3.017971e+01
1	 4.483653e-01	 1.087682e+00	 2.797212e+01
1	 4.279391e-01	 1.095879e+00	 2.471589e+01
1	 4.074437e-01	 1.103663e+00	 2.042501e+01
1	 5.141995e-01	 1.071215e+00	 3.082759e+01
1	 4.938518e-01	 1.080747e+00	 2.980239e+01
1	 4.733975e-01	 1.089861e+00	 2.725431e+01
1	 4.528490e-01	 1.098559e+00	 2.348427e+01
1	 4.322185e-01	 1.106838e+00	 1.880935e+01
1	 4.115181e-01	 1.114700e+00	 1.356093e+01
1	 5.192906e-01	 1.081821e+00	 2.832335e+01
1	 4.987414e-01	 1.091447e+00	 2.633319e+01
1	 4.780846e-01	 1.100652e+00	 2.270840e+01
1	 4.573326e-01	 1.109435e+00	 1.791924e+01
1	 4.364979e-01	 1.117797e+00	 1.245728e+01
1	 4.155926e-01	 1.125737e+00	 6.832355e+00
1	 5.243817e-01	 1.092427e+00	 2.392773e+01
1	 5.036310e-01	 1.102148e+00	 2.104777e+01
1	 4.827717e-01	 1.111443e+00	 1.672491e+01
1	 4.618163e-01	 1.120312e+00	 1.147261e+01
1	 4.407773e-01	 1.128756e+00	 5.826067e+00
1	 4.196670e-01	 1.136773e+00	 3.389305e-01
1	 5.294728e-01	 1.103033e+00	 1.765623e+01
1	 5.085207e-01	 1.112848e+00	 1.406580e+01
1	 4.874588e-01	 1.122234e+00	 9.479747e+00
1	 4.663000e-01	 1.131189e+00	 4.332414e+00
1	 4.450566e-01	 1.139714e+00	-9.242585e-01
1	 4.237414e-01	 1.147810e+00	-5.823546e+00
1	 5.345638e-01	 1.113640e+00	 9.523740e+00
1	 5.134103e-01	 1.123549e+00	 5.502376e+00
1	 4.921459e-01	 1.133024e+00	 1.142099e+00
1	 4.707836e-01	 1.142066e+00	-3.320465e+00
1	 4.493360e-01	 1.150673e+00	-7.639784e+00
1	 4.278159e-01	 1.158846e+00	-1.156292e+01
1	 4.074437e-01	 1.103663e+00	 2.042501e+01
1	 3.868910e-01	 1.111035e+00	 1.566807e+01
1	 3.662930e-01	 1.117995e+00	 1.110183e+01
1	 3.456611e-01	 1.124545e+00	 6.878629e+00
1	 3.250069e-01	 1.130687e+00	 3.151702e+00
1	 3.043417e-01	 1.136424e+00	 7.421542e-02
1	 4.115181e-01	 1.114700e+00	 1.356093e+01
1	 3.907600e-01	 1.122145e+00	 8.514424e+00
1	 3.699559e-01	 1.129175e+00	 4.202549e+00
1	 3.491177e-01	 1.135790e+00	 5.994912e-01
1	 3.282570e-01	 1.141994e+00	-2.323866e+00
1	 3.073851e-01	 1.147788e+00	-4.599823e+00
1	 4.155926e-01	 1.125737e+00	 6.832355e+00
1	 3.946289e-01	 1.133256e+00	 1.867242e+00
1	 3.736188e-01	 1.140355e+00	-2.052033e+00
1	 3.525743e-01	 1.147036e+00	-5.063658e+00
1	 3.315071e-01	 1.153301e+00	-7.311538e+00
1	 3.104285e-01	 1.159152e+00	-8.944475e+00
1	 4.196670e-01	 1.136773e+00	 3.389305e-01
1	 3.984978e-01	 1.144366e+00	-4.245764e+00
1	 3.772818e-01	 1.151535e+00	-7.682888e+00
1	 3.560309e-01	 1.158281e+00	-1.015930e+01
1	 3.347571e-01	 1.164608e+00	-1.186819e+01
1	 3.134720e-01	 1.170517e+00	-1.300800e+01
1	 4.237414e-01	 1.147810e+00	-5.823546e+00
1	 4.023667e-01	 1.155476e+00	-9.797942e+00
1	 3.809447e-01	 1.162715e+00	-1.271018e+01
1	 3.594875e-01	 1.169527e+00	-1.473405e+01
1	 3.380072e-01	 1.175915e+00	-1.604852e+01
1	 3.165154e-01	 1.181881e+00	-1.683680e+01
1	 4.278159e-01	 1.158846e+00	-1.156292e+01
1	 4.062356e-01	 1.166587e+00	-1.476365e+01
1	 3.846076e-01	 1.173895e+00	-1.715331e+01
1	 3.629442e-01	 1.180772e+00	-1.883274e+01
1	 3.412573e-01	 1.187222e+00	-1.990514e+01
1	 3.195588e-01	 1.193245e+00	-2.047552e+01
1	 3.043417e-01	 1.136424e+00	 7.421542e-02
1	 2.836765e-01	 1.141758e+00	-2.167231e+00
1	 2.630223e-01	 1.146692e+00	-3.741811e+00
1	 2.423897e-01	 1.151230e+00	-5.030694e+00
1	 2.217891e-01	 1.155376e+00	-6.413585e+00
1	 2.012306e-01	 1.159133e+00	-8.266872e+00
1	 3.073851e-01	 1.147788e+00	-4.599823e+00
1	 2.865133e-01	 1.153175e+00	-6.217541e+00
1	 2.656526e-01	 1.158159e+00	-7.358899e+00
1	 2.448136e-01	 1.162742e+00	-8.347995e+00
1	 2.240070e-01	 1.166929e+00	-9.508129e+00
1	 2.032429e-01	 1.170724e+00	-1.116019e+01
1	 3.104285e-01	 1.159152e+00	-8.944475e+00
1	 2.893501e-01	 1.164593e+00	-1.005567e+01
1	 2.682828e-01	 1.169626e+00	-1.082537e+01
1	 2.472375e-01	 1.174254e+00	-1.153698e+01
1	 2.262249e-01	 1.178483e+00	-1.247386e+01
1	 2.052552e-01	 1.182316e+00	-1.391782e+01
1	 3.134720e-01	 1.170517e+00	-1.300800e+01
1	 2.921868e-01	 1.176010e+00	-1.371531e+01
1	 2.709130e-01	 1.181093e+00	-1.416371e+01
1	 2.496614e-01	 1.185767e+00	-1.461183e+01
1	 2.284428e-01	 1.190037e+00	-1.531901e+01
1	 2.072675e-01	 1.193907e+00	-1.654396e+01
1	 3.165154e-01	 1.181881e+00	-1.683680e+01
1	 2.950236e-01	 1.187428e+00	-1.722884e+01
1	 2.735432e-01	 1.192560e+00	-1.739556e+01
1	 2.520853e-01	 1.197279e+00	-1.758617e+01
1	 2.306606e-01	 1.201591e+00	-1.805152e+01
1	 2.092798e-01	 1.205498e+00	-1.904266e+01
1	 3.195588e-01	 1.193245e+00	-2.047552e+01
1	 2.978604e-01	 1.198846e+00	-2.062744e+01
1	 2.761734e-01	 1.204026e+00	-2.054171e+01
1	 2.545092e-01	 1.208791e+00	-2.047312e+01
1	 2.328785e-01	 1.213144e+00	-2.067902e+01
1	 2.112921e-01	 1.217090e+00	-2.141780e+01
1	 2.012306e-01	 1.159133e+00	-8.266872e+00
1	 1.807242e-01	 1.162507e+00	-1.002216e+01
1	 1.602794e-01	 1.165501e+00	-1.093694e+01
1	 1.399057e-01	 1.168122e+00	-1.111976e+01
1	 1.196120e-01	 1.170374e+00	-1.067544e+01
1	 9.940714e-02	 1.172263e+00	-9.705529e+00
1	 2.032429e-01	 1.170724e+00	-1.116019e+01
1	 1.825314e-01	 1.174132e+00	-1.266327e+01
1	 1.618822e-01	 1.177156e+00	-1.325525e+01
1	 1.413048e-01	 1.179803e+00	-1.306855e+01
1	 1.208081e-01	 1.182078e+00	-1.223070e+01
1	 1.004012e-01	 1.183986e+00	-1.086474e+01
1	 2.052552e-01	 1.182316e+00	-1.391782e+01
1	 1.843387e-01	 1.185757e+00	-1.516616e+01
1	 1.634850e-01	 1.188811e+00	-1.543460e+01
1	 1.427038e-01	 1.191485e+00	-1.487619e+01
1	 1.220043e-01	 1.193782e+00	-1.363838e+01
1	 1.013953e-01	 1.195709e+00	-1.186336e+01
1	 2.072675e-01	 1.193907e+00	-1.654396e+01
1	 1.861459e-01	 1.197382e+00	-1.753318e+01
1	 1.650878e-01	 1.200466e+00	-1.747833e+01
1	 1.441029e-01	 1.203166e+00	-1.654998e+01
1	 1.232004e-01	 1.205486e+00	-1.491274e+01
1	 1.023894e-01	 1.207431e+00	-1.272566e+01
1	 2.092798e-01	 1.205498e+00	-1.904266e+01
1	 1.879532e-01	 1.209007e+00	-1.976658e+01
1	 1.666906e-01	 1.212121e+00	-1.938968e+01
1	 1.455019e-01	 1.214847e+00	-1.809692e+01
1	 1.243965e-01	 1.217189e+00	-1.606748e+01
1	 1.033834e-01	 1.219154e+00	-1.347497e+01
1	 2.112921e-01	 1.217090e+00	-2.141780e+01
1	 1.897604e-01	 1.220632e+00	-2.186853e+01
1	 1.682934e-01	 1.223776e+00	-2.117172e+01
1	 1.469010e-01	 1.226528e+00	-1.952376e+01
1	 1.255926e-01	 1.228893e+00	-1.711576e+01
1	 1.043775e-01	 1.230876e+00	-1.413374e+01
1	 9.940714e-02	 1.172263e+00	-9.705529e+00
1	 7.929953e-02	 1.173795e+00	-1.032222e+01
1	 5.929733e-02	 1.174975e+00	-1.425850e+01
1	 3.940838e-02	 1.175810e+00	-2.105364e+01
1	 1.964020e-02	 1.176307e+00	-3.025819e+01
1	 0.000000e+00	 1.176471e+00	-4.143361e+01
1	 1.004012e-01	 1.183986e+00	-1.086474e+01
1	 8.009253e-02	 1.185533e+00	-1.114018e+01
1	 5.989031e-02	 1.186725e+00	-1.479386e+01
1	 3.980247e-02	 1.187568e+00	-2.130708e+01
1	 1.983660e-02	 1.188070e+00	-3.017477e+01
1	 0.000000e+00	 1.188235e+00	-4.090522e+01
1	 1.013953e-01	 1.195709e+00	-1.186336e+01
1	 8.088552e-02	 1.197271e+00	-1.178067e+01
1	 6.048328e-02	 1.198475e+00	-1.514124e+01
1	 4.019655e-02	 1.199327e+00	-2.137684e+01
1	 2.003301e-02	 1.199833e+00	-2.993408e+01
1	 0.000000e+00	 1.200000e+00	-4.027434e+01
1	 1.023894e-01	 1.207431e+00	-1.272566e+01
1	 8.167852e-02	 1.209009e+00	-1.227602e+01
1	 6.107625e-02	 1.210225e+00	-1.533393e+01
1	 4.059063e-02	 1.211085e+00	-2.128978e+01
1	 2.022941e-02	 1.211596e+00	-2.954902e+01
1	 0.000000e+00	 1.211765e+00	-3.953227e+01
1	 1.033834e-01	 1.219154e+00	-1.347497e+01
1	 8.247151e-02	 1.220747e+00	-1.265735e+01
1	 6.166923e-02	 1.221974e+00	-1.540392e+01
1	 4.098472e-02	 1.222843e+00	-2.107172e+01
1	 2.042581e-02	 1.223359e+00	-2.903202e+01
1	 0.000000e+00	 1.223529e+00	-3.867063e+01
1	 1.043775e-01	 1.230876e+00	-1.413374e+01
1	 8.326451e-02	 1.232485e+00	-1.295458e+01
1	 6.226220e-02	 1.233724e+00	-1.538200e+01
1	 4.137880e-02	 1.234601e+00	-2.074751e+01
1	 2.062221e-02	 1.235122e+00	-2.839503e+01
1	 0.000000e+00	 1.235294e+00	-3.768137e+01
1	 1.235294e+00	 0.000000e+00	-3.447710e+00
1	 1.235122e+00	 2.062221e-02	-1.537893e+01
1	 1.234601e+00	 4.137880e-02	-2.106198e+01
1	 1.233724e+00	 6.226220e-02	-2.049961e+01
1	 1.232485e+00	 8.326451e-02	-1.372968e+01
1	 1.230876e+00	 1.043775e-01	-8.269397e-01
1	 1.247059e+00	 0.000000e+00	-4.128129e+00
1	 1.246885e+00	 2.081861e-02	-1.547459e+01
1	 1.246359e+00	 4.177289e-02	-2.078734e+01
1	 1.245474e+00	 6.285517e-02	-2.007659e+01
1	 1.244223e+00	 8.405750e-02	-1.338324e+01
1	 1.242599e+00	 1.053716e-01	-7.804224e-01
1	 1.258824e+00	 0.000000e+00	-4.627412e+00
1	 1.258648e+00	 2.101502e-02	-1.550769e+01
1	 1.258117e+00	 4.216697e-02	-2.053700e+01
1	 1.257224e+00	 6.344815e-02	-1.973202e+01
1	 1.255961e+00	 8.485050e-02	-1.313748e+01
1	 1.254322e+00	 1.063656e-01	-8.275487e-01
1	 1.270588e+00	 0.000000e+00	-5.035758e+00
1	 1.270411e+00	 2.121142e-02	-1.551661e+01
1	 1.269875e+00	 4.256105e-02	-2.031224e+01
1	 1.268973e+00	 6.404112e-02	-1.944488e+01
1	 1.267699e+00	 8.564349e-02	-1.296392e+01
1	 1.266044e+00	 1.073597e-01	-9.471769e-01
1	 1.282353e+00	 0.000000e+00	-5.440056e+00
1	 1.282174e+00	 2.140782e-02	-1.553834e+01
1	 1.281633e+00	 4.295514e-02	-2.011431e+01
1	 1.280723e+00	 6.463409e-02	-1.919493e+01
1	 1.279437e+00	 8.643649e-02	-1.283509e+01
1	 1.277767e+00	 1.083538e-01	-1.118941e+00
1	 1.294118e+00	 0.000000e+00	-5.924035e+00
1	 1.293937e+00	 2.160422e-02	-1.560851e+01
1	 1.293391e+00	 4.334922e-02	-1.994441e+01
1	 1.292473e+00	 6.522707e-02	-1.896266e+01
1	 1.291174e+00	 8.722948e-02	-1.272455e+01
1	 1.289490e+00	 1.093479e-01	-1.323215e+00
1	 1.230876e+00	 1.043775e-01	-8.269397e-01
1	 1.228893e+00	 1.255926e-01	 1.351340e+01
1	 1.226528e+00	 1.469010e-01	 2.469689e+01
1	 1.223776e+00	 1.682934e-01	 3.278292e+01
1	 1.220632e+00	 1.897604e-01	 3.784684e+01
1	 1.217090e+00	 2.112921e-01	 3.998035e+01
1	 1.242599e+00	 1.053716e-01	-7.804224e-01
1	 1.240597e+00	 1.267887e-01	 1.319270e+01
1	 1.238210e+00	 1.483000e-01	 2.409452e+01
1	 1.235431e+00	 1.698962e-01	 3.198408e+01
1	 1.232257e+00	 1.915676e-01	 3.693537e+01
1	 1.228681e+00	 2.133044e-01	 3.903771e+01
1	 1.254322e+00	 1.063656e-01	-8.275487e-01
1	 1.252301e+00	 1.279849e-01	 1.279290e+01
1	 1.249891e+00	 1.496991e-01	 2.341649e+01
1	 1.247087e+00	 1.714990e-01	 3.110301e+01
1	 1.243882e+00	 1.933749e-01	 3.592666e+01
1	 1.240272e+00	 2.153168e-01	 3.797642e+01
1	 1.266044e+00	 1.073597e-01	-9.471769e-01
1	 1.264004e+00	 1.291810e-01	 1.232212e+01
1	 1.261572e+00	 1.510982e-01	 2.266142e+01
1	 1.258742e+00	 1.731018e-01	 3.013229e+01
1	 1.255507e+00	 1.951821e-01	 3.481067e+01
1	 1.251864e+00	 2.173291e-01	 3.678724e+01
1	 1.277767e+00	 1.083538e-01	-1.118941e+00
1	 1.275708e+00	 1.303771e-01	 1.178819e+01
1	 1.273253e+00	 1.524972e-01	 2.182795e+01
1	 1.270397e+00	 1.747046e-01	 2.906475e+01
1	 1.267132e+00	 1.969894e-01	 3.357775e+01
1	 1.263455e+00	 2.193414e-01	 3.546129e+01
1	 1.289490e+00	 1.093479e-01	-1.323215e+00
1	 1.287412e+00	 1.315732e-01	 1.119866e+01
1	 1.284934e+00	 1.538963e-01	 2.091482e+01
1	 1.282052e+00	 1.763074e-01	 2.789350e+01
1	 1.278757e+00	 1.987966e-01	 3.221858e+01
1	 1.275046e+00	 2.213537e-01	 3.398998e+01
1	 1.217090e+00	 2.112921e-01	 3.998035e+01
1	 1.213144e+00	 2.328785e-01	 4.068521e+01
1	 1.208791e+00	 2.545092e-01	 4.140902e+01
1	 1.204026e+00	 2.761734e-01	 4.217252e+01
1	 1.198846e+00	 2.978604e-01	 4.299314e+01
1	 1.193245e+00	 3.195588e-01	 4.388479e+01
1	 1.228681e+00	 2.133044e-01	 3.903771e+01
1	 1.224698e+00	 2.350964e-01	 3.973537e+01
1	 1.220304e+00	 2.569331e-01	 4.041614e+01
1	 1.215493e+00	 2.788037e-01	 4.109405e+01
1	 1.210263e+00	 3.006971e-01	 4.177981e+01
1	 1.204609e+00	 3.226022e-01	 4.248058e+01
1	 1.240272e+00	 2.153168e-01	 3.797642e+01
1	 1.236252e+00	 2.373143e-01	 3.864429e+01
1	 1.231816e+00	 2.593570e-01	 3.926186e+01
1	 1.226960e+00	 2.814339e-01	 3.983652e+01
1	 1.221681e+00	 3.035339e-01	 4.037228e+01
1	 1.215974e+00	 3.256456e-01	 4.086961e+01
1	 1.251864e+00	 2.173291e-01	 3.678724e+01
1	 1.247806e+00	 2.395322e-01	 3.740526e+01
1	 1.243328e+00	 2.617809e-01	 3.794210e+01
1	 1.238427e+00	 2.840641e-01	 3.839852e+01
1	 1.233098e+00	 3.063707e-01	 3.877192e+01
1	 1.227338e+00	 3.286890e-01	 3.905617e+01
1	 1.263455e+00	 2.193414e-01	 3.546129e+01
1	 1.259359e+00	 2.417501e-01	 3.601181e+01
1	 1.254841e+00	 2.642048e-01	 3.645289e+01
1	 1.249894e+00	 2.866943e-01	 3.677871e+01
1	 1.244516e+00	 3.092074e-01	 3.698010e+01
1	 1.238702e+00	 3.317325e-01	 3.704441e+01
1	 1.275046e+00	 2.213537e-01	 3.398998e+01
1	 1.270913e+00	 2.439680e-01	 3.445772e+01
1	 1.266353e+00	 2.666287e-01	 3.479043e+01
1	 1.261361e+00	 2.893246e-01	 3.497579e+01
1	 1.255933e+00	 3.120442e-01	 3.499811e+01
1	 1.250066e+00	 3.347759e-01	 3.483829e+01
1	 1.193245e+00	 3.195588e-01	 4.388479e+01
1	 1.187222e+00	 3.412573e-01	 4.399326e+01
1	 1.180772e+00	 3.629442e-01	 4.243725e+01
1	 1.173895e+00	 3.846076e-01	 3.918552e+01
1	 1.166587e+00	 4.062356e-01	 3.420467e+01
1	 1.158846e+00	 4.278159e-01	 2.745934e+01
1	 1.204609e+00	 3.226022e-01	 4.248058e+01
1	 1.198528e+00	 3.445073e-01	 4.233914e+01
1	 1.192018e+00	 3.664008e-01	 4.047999e+01
1	 1.185075e+00	 3.882705e-01	 3.687896e+01
1	 1.177697e+00	 4.101045e-01	 3.151058e+01
1	 1.169883e+00	 4.318903e-01	 2.434822e+01
1	 1.215974e+00	 3.256456e-01	 4.086961e+01
1	 1.209835e+00	 3.477574e-01	 4.047065e+01
1	 1.203263e+00	 3.698574e-01	 3.830816e+01
1	 1.196254e+00	 3.919335e-01	 3.436541e+01
1	 1.188807e+00	 4.139734e-01	 2.862540e+01
1	 1.180920e+00	 4.359647e-01	 2.107095e+01
1	 1.227338e+00	 3.286890e-01	 3.905617e+01
1	 1.221142e+00	 3.510075e-01	 3.839553e+01
1	 1.214509e+00	 3.733140e-01	 3.593389e+01
1	 1.207434e+00	 3.955964e-01	 3.166240e+01
1	 1.199918e+00	 4.178423e-01	 2.557303e+01
1	 1.191956e+00	 4.400392e-01	 1.765879e+01
1	 1.238702e+00	 3.317325e-01	 3.704441e+01
1	 1.232449e+00	 3.542575e-01	 3.612121e+01
1	 1.225754e+00	 3.767706e-01	 3.336889e+01
1	 1.218614e+00	 3.992593e-01	 2.878681e+01
1	 1.211028e+00	 4.217112e-01	 2.237651e+01
1	 1.202993e+00	 4.441136e-01	 1.414184e+01
1	 1.250066e+00	 3.347759e-01	 3.483829e+01
1	 1.243756e+00	 3.575076e-01	 3.365485e+01
1	 1.236999e+00	 3.802272e-01	 3.062440e+01
1	 1.229794e+00	 4.029223e-01	 2.575492e+01
1	 1.222138e+00	 4.255801e-01	 1.905803e+01
1	 1.214030e+00	 4.481880e-01	 1.054913e+01
1	 1.158846e+00	 4.278159e-01	 2.745934e+01
1	 1.150673e+00	 4.493360e-01	 2.051460e+01
1	 1.142066e+00	 4.707836e-01	 1.495005e+01
1	 1.133024e+00	 4.921459e-01	 1.075045e+01
1	 1.123549e+00	 5.134103e-01	 7.900152e+00
1	 1.113640e+00	 5.345638e-01	 6.383069e+00
1	 1.169883e+00	 4.318903e-01	 2.434822e+01
1	 1.161632e+00	 4.536154e-01	 1.698209e+01
1	 1.152943e+00	 4.752673e-01	 1.101139e+01
1	 1.143815e+00	 4.968330e-01	 6.422398e+00
1	 1.134249e+00	 5.182999e-01	 3.201549e+00
1	 1.124246e+00	 5.396549e-01	 1.335373e+00
1	 1.180920e+00	 4.359647e-01	 2.107095e+01
1	 1.172591e+00	 4.578948e-01	 1.331640e+01
1	 1.163819e+00	 4.797509e-01	 6.979084e+00
1	 1.154606e+00	 5.015201e-01	 2.046391e+00
1	 1.144950e+00	 5.231895e-01	-1.494270e+00
1	 1.134852e+00	 5.447460e-01	-3.655507e+00
1	 1.191956e+00	 4.400392e-01	 1.765879e+01
1	 1.183550e+00	 4.621742e-01	 9.554469e+00
1	 1.174696e+00	 4.842346e-01	 2.891390e+00
1	 1.165396e+00	 5.062072e-01	-2.342360e+00
1	 1.155650e+00	 5.280791e-01	-6.159464e+00
1	 1.145458e+00	 5.498371e-01	-8.573415e+00
1	 1.202993e+00	 4.441136e-01	 1.414184e+01
1	 1.194508e+00	 4.664536e-01	 5.731861e+00
1	 1.185573e+00	 4.887182e-01	-1.214854e+00
1	 1.176187e+00	 5.108943e-01	-6.709934e+00
1	 1.166350e+00	 5.329688e-01	-1.076721e+01
1	 1.156064e+00	 5.549282e-01	-1.340279e+01
1	 1.214030e+00	 4.481880e-01	 1.054913e+01
1	 1.205467e+00	 4.707330e-01	 1.882856e+00
1	 1.196450e+00	 4.932019e-01	-5.304146e+00
1	 1.186978e+00	 5.155815e-01	-1.102364e+01
1	 1.177051e+00	 5.378584e-01	-1.529167e+01
1	 1.166670e+00	 5.600193e-01	-1.812863e+01
1	 1.113640e+00	 5.345638e-01	 6.383069e+00
1	 1.103298e+00	 5.555938e-01	 5.603406e+00
1	 1.092526e+00	 5.764871e-01	 5.026144e+00
1	 1.081326e+00	 5.972311e-01	 4.729008e+00
1	 1.069700e+00	 6.178127e-01	 4.793464e+00
1	 1.057652e+00	 6.382192e-01	 5.304337e+00
1	 1.124246e+00	 5.396549e-01	 1.335373e+00
1	 1.113806e+00	 5.608851e-01	 2.387637e-01
1	 1.102932e+00	 5.819775e-01	-6.079558e-01
1	 1.091625e+00	 6.029190e-01	-1.116806e+00
1	 1.079888e+00	 6.236967e-01	-1.195819e+00
1	 1.067725e+00	 6.442975e-01	-7.494667e-01
1	 1.134852e+00	 5.447460e-01	-3.655507e+00
1	 1.124314e+00	 5.661765e-01	-5.014958e+00
1	 1.113337e+00	 5.874678e-01	-6.084231e+00
1	 1.101923e+00	 6.086069e-01	-6.773477e+00
1	 1.090076e+00	 6.295806e-01	-6.988606e+00
1	 1.077798e+00	 6.503758e-01	-6.631714e+00
1	 1.145458e+00	 5.498371e-01	-8.573415e+00
1	 1.134821e+00	 5.714679e-01	-1.015530e+01
1	 1.123742e+00	 5.929582e-01	-1.141350e+01
1	 1.112221e+00	 6.142948e-01	-1.226447e+01
1	 1.100263e+00	 6.354645e-01	-1.262017e+01
1	 1.087871e+00	 6.564541e-01	-1.238843e+01
1	 1.156064e+00	 5.549282e-01	-1.340279e+01
1	 1.145329e+00	 5.767592e-01	-1.517989e+01
1	 1.134147e+00	 5.984486e-01	-1.660618e+01
1	 1.122520e+00	 6.199827e-01	-1.761241e+01
1	 1.110451e+00	 6.413485e-01	-1.812450e+01
1	 1.097944e+00	 6.625324e-01	-1.806396e+01
1	 1.166670e+00	 5.600193e-01	-1.812863e+01
1	 1.155836e+00	 5.820506e-01	-2.008645e+01
1	 1.144552e+00	 6.039389e-01	-2.167233e+01
1	 1.132818e+00	 6.256707e-01	-2.283905e+01
1	 1.120639e+00	 6.472324e-01	-2.353434e+01
1	 1.108016e+00	 6.686106e-01	-2.370103e+01
1	 1.057652e+00	 6.382192e-01	 5.304337e+00
1	 1.045185e+00	 6.584378e-01	 5.901163e+00
1	 1.032303e+00	 6.784558e-01	 6.053871e+00
1	 1.019011e+00	 6.982607e-01	 5.594905e+00
1	 1.005315e+00	 7.178400e-01	 4.357112e+00
1	 9.912189e-01	 7.371815e-01	 2.174682e+00
1	 1.067725e+00	 6.442975e-01	-7.494667e-01
1	 1.055139e+00	 6.647087e-01	-1.534177e-01
1	 1.042134e+00	 6.849173e-01	 1.119037e-02
1	 1.028716e+00	 7.049108e-01	-4.700525e-01
1	 1.014889e+00	 7.246766e-01	-1.816162e+00
1	 1.000659e+00	 7.442023e-01	-4.249591e+00
1	 1.077798e+00	 6.503758e-01	-6.631714e+00
1	 1.065093e+00	 6.709795e-01	-6.109383e+00
1	 1.051966e+00	 6.913788e-01	-6.046493e+00
1	 1.038421e+00	 7.115609e-01	-6.676417e+00
1	 1.024463e+00	 7.315132e-01	-8.240112e+00
1	 1.010099e+00	 7.512231e-01	-1.098486e+01
1	 1.087871e+00	 6.564541e-01	-1.238843e+01
1	 1.075047e+00	 6.772503e-01	-1.201659e+01
1	 1.061797e+00	 6.978403e-01	-1.216068e+01
1	 1.048126e+00	 7.182110e-01	-1.304589e+01
1	 1.034038e+00	 7.383497e-01	-1.490597e+01
1	 1.019539e+00	 7.582438e-01	-1.798203e+01
1	 1.097944e+00	 6.625324e-01	-1.806396e+01
1	 1.085001e+00	 6.835212e-01	-1.792306e+01
1	 1.071629e+00	 7.043018e-01	-1.837135e+01
1	 1.057831e+00	 7.248611e-01	-1.959938e+01
1	 1.043612e+00	 7.451863e-01	-2.180531e+01
1	 1.028980e+00	 7.652646e-01	-2.519383e+01
1	 1.108016e+00	 6.686106e-01	-2.370103e+01
1	 1.094955e+00	 6.897920e-01	-2.387508e+01
1	 1.081460e+00	 7.107633e-01	-2.471704e+01
1	 1.067535e+00	 7.315112e-01	-2.635704e+01
1	 1.053187e+00	 7.520229e-01	-2.892997e+01
1	 1.038420e+00	 7.722854e-01	-3.257468e+01
1	 9.912189e-01	 7.371815e-01	 2.174682e+00
1	 9.767305e-01	 7.562731e-01	-1.565161e+00
1	 9.618559e-01	 7.751030e-01	-7.085470e+00
1	 9.466023e-01	 7.936596e-01	-1.394290e+01
1	 9.309773e-01	 8.119316e-01	-2.166508e+01
1	 9.149889e-01	 8.299078e-01	-2.975281e+01
1	 1.000659e+00	 7.442023e-01	-4.249591e+00
1	 9.860327e-01	 7.634757e-01	-8.324706e+00
1	 9.710165e-01	 7.824850e-01	-1.411922e+01
1	 9.556176e-01	 8.012183e-01	-2.111408e+01
1	 9.398437e-01	 8.196642e-01	-2.875433e+01
1	 9.237030e-01	 8.378117e-01	-3.645176e+01
1	 1.010099e+00	 7.512231e-01	-1.098486e+01
1	 9.953349e-01	 7.706783e-01	-1.535821e+01
1	 9.801770e-01	 7.898669e-01	-2.129313e+01
1	 9.646328e-01	 8.087770e-01	-2.823785e+01
1	 9.487102e-01	 8.273969e-01	-3.560135e+01
1	 9.324172e-01	 8.457156e-01	-4.275611e+01
1	 1.019539e+00	 7.582438e-01	-1.798203e+01
1	 1.004637e+00	 7.778809e-01	-2.258278e+01
1	 9.893375e-01	 7.972488e-01	-2.851198e+01
1	 9.736481e-01	 8.163356e-01	-3.522706e+01
1	 9.575766e-01	 8.351296e-01	-4.214611e+01
1	 9.411314e-01	 8.536194e-01	-4.865076e+01
1	 1.028980e+00	 7.652646e-01	-2.519383e+01
1	 1.013939e+00	 7.850835e-01	-2.991852e+01
1	 9.984981e-01	 8.046308e-01	-3.568408e+01
1	 9.826634e-01	 8.238943e-01	-4.199774e+01
1	 9.664431e-01	 8.428623e-01	-4.833080e+01
1	 9.498456e-01	 8.615233e-01	-5.412113e+01
1	 1.038420e+00	 7.722854e-01	-3.257468e+01
1	 1.023241e+00	 7.922861e-01	-3.728848e+01
1	 1.007659e+00	 8.120127e-01	-4.272104e+01
1	 9.916786e-01	 8.314530e-01	-4.846901e+01
1	 9.753095e-01	 8.505950e-01	-5.409971e+01
1	 9.585598e-01	 8.694272e-01	-5.915320e+01
1	 9.149889e-01	 8.299078e-01	-2.975281e+01
1	 8.986456e-01	 8.475775e-01	-3.641636e+01
1	 8.819563e-01	 8.649304e-01	-4.041483e+01
1	 8.649304e-01	 8.819563e-01	-4.207359e+01
1	 8.475775e-01	 8.986456e-01	-4.174339e+01
1	 8.299078e-01	 9.149889e-01	-3.979854e+01
1	 9.237030e-01	 8.378117e-01	-3.645176e+01
1	 9.072041e-01	 8.556497e-01	-4.251585e+01
1	 8.903559e-01	 8.731678e-01	-4.592731e+01
1	 8.731678e-01	 8.903559e-01	-4.710710e+01
1	 8.556497e-01	 9.072041e-01	-4.650852e+01
1	 8.378117e-01	 9.237030e-01	-4.461473e+01
1	 9.324172e-01	 8.457156e-01	-4.275611e+01
1	 9.157626e-01	 8.637219e-01	-4.817813e+01
1	 8.987555e-01	 8.814053e-01	-5.107307e+01
1	 8.814053e-01	 8.987555e-01	-5.191091e+01
1	 8.637219e-01	 9.157626e-01	-5.119752e+01
1	 8.457156e-01	 9.324172e-01	-4.947185e+01
1	 9.411314e-01	 8.536194e-01	-4.865076e+01
1	 9.243212e-01	 8.717940e-01	-5.342992e+01
1	 9.071551e-01	 8.896427e-01	-5.589852e+01
1	 8.896427e-01	 9.071551e-01	-5.653033e+01
1	 8.717940e-01	 9.243212e-01	-5.583518e+01
1	 8.536194e-01	 9.411314e-01	-5.435615e+01
1	 9.498456e-01	 8.615233e-01	-5.412113e+01
1	 9.328797e-01	 8.798662e-01	-5.829697e+01
1	 9.155547e-01	 8.978801e-01	-6.044841e+01
1	 8.978801e-01	 9.155547e-01	-6.100901e+01
1	 8.798662e-01	 9.328797e-01	-6.044536e+01
1	 8.615233e-01	 9.498456e-01	-5.925439e+01
1	 9.585598e-01	 8.694272e-01	-5.915320e+01
1	 9.414382e-01	 8.879384e-01	-6.280407e+01
1	 9.239542e-01	 9.061176e-01	-6.476581e+01
1	 9.061176e-01	 9.239542e-01	-6.538902e+01
1	 8.879384e-01	 9.414382e-01	-6.505106e+01
1	 8.694272e-01	 9.585598e-01	-6.415383e+01
1	 8.299078e-01	 9.149889e-01	-3.979854e+01
1	 8.119316e-01	 9.309773e-01	-3.713449e+01
1	 7.936596e-01	 9.466023e-01	-3.432450e+01
1	 7.751030e-01	 9.618559e-01	-3.127718e+01
1	 7.562731e-01	 9.767305e-01	-2.790295e+01
1	 7.371815e-01	 9.912189e-01	-2.411450e+01
1	 8.378117e-01	 9.237030e-01	-4.461473e+01
1	 8.196642e-01	 9.398437e-01	-4.230665e+01
1	 8.012183e-01	 9.556176e-01	-3.996512e+01
1	 7.824850e-01	 9.710165e-01	-3.733724e+01
1	 7.634757e-01	 9.860327e-01	-3.416215e+01
1	 7.442023e-01	 1.000659e+00	-3.017257e+01
1	 8.457156e-01	 9.324172e-01	-4.947185e+01
1	 8.273969e-01	 9.487102e-01	-4.752113e+01
1	 8.087770e-01	 9.646328e-01	-4.553055e+01
1	 7.898669e-01	 9.801770e-01	-4.314731e+01
1	 7.706783e-01	 9.953349e-01	-4.000466e+01
1	 7.512231e-01	 1.010099e+00	-3.572408e+01
1	 8.536194e-01	 9.411314e-01	-5.435615e+01
1	 8.351296e-01	 9.575766e-01	-5.273094e+01
1	 8.163356e-01	 9.736481e-01	-5.096699e+01
1	 7.972488e-01	 9.893375e-01	-4.867150e+01
1	 7.778809e-01	 1.004637e+00	-4.543539e+01
1	 7.582438e-01	 1.019539e+00	-4.083576e+01
1	 8.615233e-01	 9.498456e-01	-5.925439e+01
1	 8.428623e-01	 9.664431e-01	-5.789083e+01
1	 8.238943e-01	 9.826634e-01	-5.622264e+01
1	 8.046308e-01	 9.984981e-01	-5.387525e+01
1	 7.850835e-01	 1.013939e+00	-5.045907e+01
1	 7.652646e-01	 1.028980e+00	-4.557186e+01
1	 8.694272e-01	 9.585598e-01	-6.415383e+01
1	 8.505950e-01	 9.753095e-01	-6.295718e+01
1	 8.314530e-01	 9.916786e-01	-6.124759e+01
1	 8.120127e-01	 1.007659e+00	-5.872526e+01
1	 7.922861e-01	 1.023241e+00	-5.508024e+01
1	 7.722854e-01	 1.038420e+00	-4.999432e+01
1	 7.371815e-01	 9.912189e-01	-2.411450e+01
1	 7.178400e-01	 1.005315e+00	-1.978968e+01
1	 6.982607e-01	 1.019011e+00	-1.490033e+01
1	 6.784558e-01	 1.032303e+00	-9.505034e+00
1	 6.584378e-01	 1.045185e+00	-3.666272e+00
1	 6.382192e-01	 1.057652e+00	 2.549885e+00
1	 7.442023e-01	 1.000659e+00	-3.017257e+01
1	 7.246766e-01	 1.014889e+00	-2.518086e+01
1	 7.049108e-01	 1.028716e+00	-1.938694e+01
1	 6.849173e-01	 1.042134e+00	-1.311525e+01
1	 6.647087e-01	 1.055139e+00	-6.707765e+00
1	 6.442975e-01	 1.067725e+00	-5.219802e-01
1	 7.512231e-01	 1.010099e+00	-3.572408e+01
1	 7.315132e-01	 1.024463e+00	-3.016379e+01
1	 7.115609e-01	 1.038421e+00	-2.375595e+01
1	 6.913788e-01	 1.051966e+00	-1.699681e+01
1	 6.709795e-01	 1.065093e+00	-1.040875e+01
1	 6.503758e-01	 1.077798e+00	-4.537108e+00
1	 7.582438e-01	 1.019539e+00	-4.083576e+01
1	 7.383497e-01	 1.034038e+00	-3.485639e+01
1	 7.182110e-01	 1.048126e+00	-2.813718e+01
1	 6.978403e-01	 1.061797e+00	-2.125489e+01
1	 6.772503e-01	 1.075047e+00	-1.481598e+01
1	 6.564541e-01	 1.087871e+00	-9.452870e+00
1	 7.652646e-01	 1.028980e+00	-4.557186e+01
1	 7.451863e-01	 1.043612e+00	-3.937223e+01
1	 7.248611e-01	 1.057831e+00	-3.265570e+01
1	 7.043018e-01	 1.071629e+00	-2.599083e+01
1	 6.835212e-01	 1.085001e+00	-1.997450e+01
1	 6.625324e-01	 1.097944e+00	-1.522820e+01
1	 7.722854e-01	 1.038420e+00	-4.999432e+01
1	 7.520229e-01	 1.053187e+00	-4.382074e+01
1	 7.315112e-01	 1.067535e+00	-3.743203e+01
1	 7.107633e-01	 1.081460e+00	-3.130227e+01
1	 6.897920e-01	 1.094955e+00	-2.592768e+01
1	 6.686106e-01	 1.108016e+00	-2.182352e+01
1	 6.382192e-01	 1.057652e+00	 2.549885e+00
1	 6.178127e-01	 1.069700e+00	 7.964888e+00
1	 5.972311e-01	 1.081326e+00	 1.141477e+01
1	 5.764871e-01	 1.092526e+00	 1.285366e+01
1	 5.555938e-01	 1.103298e+00	 1.223733e+01
1	 5.345638e-01	 1.113640e+00	 9.523740e+00
1	 6.442975e-01	 1.067725e+00	-5.219802e-01
1	 6.236967e-01	 1.079888e+00	 4.117421e+00
1	 6.029190e-01	 1.091625e+00	 6.298078e+00
1	 5.819775e-01	 1.102932e+00	 6.283611e+00
1	 5.608851e-01	 1.113806e+00	 4.353884e+00
1	 5.396549e-01	 1.124246e+00	 8.034835e-01
1	 6.503758e-01	 1.077798e+00	-4.537108e+00
1	 6.295806e-01	 1.090076e+00	-6.945242e-01
1	 6.086069e-01	 1.101923e+00	 4.783504e-01
1	 5.874678e-01	 1.113337e+00	-5.501363e-01
1	 5.661765e-01	 1.124314e+00	-3.285955e+00
1	 5.447460e-01	 1.134852e+00	-7.212309e+00
1	 6.564541e-01	 1.087871e+00	-9.452870e+00
1	 6.354645e-01	 1.100263e+00	-6.347280e+00
1	 6.142948e-01	 1.112221e+00	-5.883406e+00
1	 5.929582e-01	 1.123742e+00	-7.489886e+00
1	 5.714679e-01	 1.134821e+00	-1.056531e+01
1	 5.498371e-01	 1.145458e+00	-1.448186e+01
1	 6.625324e-01	 1.097944e+00	-1.522820e+01
1	 6.413485e-01	 1.110451e+00	-1.272172e+01
1	 6.199827e-01	 1.122520e+00	-1.263209e+01
1	 5.984486e-01	 1.134147e+00	-1.438373e+01
1	 5.767592e-01	 1.145329e+00	-1.737161e+01
1	 5.549282e-01	 1.156064e+00	-2.096495e+01
1	 6.686106e-01	 1.108016e+00	-2.182352e+01
1	 6.472324e-01	 1.120639e+00	-1.970304e+01
1	 6.256707e-01	 1.132818e+00	-1.961825e+01
1	 6.039389e-01	 1.144552e+00	-2.108528e+01
1	 5.820506e-01	 1.155836e+00	-2.359633e+01
1	 5.600193e-01	 1.166670e+00	-2.662278e+01
1	 5.345638e-01	 1.113640e+00	 9.523740e+00
1	 5.134103e-01	 1.123549e+00	 5.502376e+00
1	 4.921459e-01	 1.133024e+00	 1.142099e+00
1	 4.707836e-01	 1.142066e+00	-3.320465e+00
1	 4.493360e-01	 1.150673e+00	-7.639784e+00
1	 4.278159e-01	 1.158846e+00	-1.156292e+01
1	 5.396549e-01	 1.124246e+00	 8.034835e-01
1	 5.182999e-01	 1.134249e+00	-3.324570e+00
1	 4.968330e-01	 1.143815e+00	-7.178173e+00
1	 4.752673e-01	 1.152943e+00	-1.073932e+01
1	 4.536154e-01	 1.161632e+00	-1.399047e+01
1	 4.318903e-01	 1.169883e+00	-1.691451e+01
1	 5.447460e-01	 1.134852e+00	-7.212309e+00
1	 5.231895e-01	 1.144950e+00	-1.119472e+01
1	 5.015201e-01	 1.154606e+00	-1.453492e+01
1	 4.797509e-01	 1.163819e+00	-1.736064e+01
1	 4.578948e-01	 1.172591e+00	-1.980626e+01
1	 4.359647e-01	 1.180920e+00	-2.201179e+01
1	 5.498371e-01	 1.145458e+00	-1.448186e+01
1	 5.280791e-01	 1.155650e+00	-1.814171e+01
1	 5.062072e-01	 1.165396e+00	-2.100707e+01
1	 4.842346e-01	 1.174696e+00	-2.328072e+01
1	 4.621742e-01	 1.183550e+00	-2.517512e+01
1	 4.400392e-01	 1.191956e+00	-2.691092e+01
1	 5.549282e-01	 1.156064e+00	-2.096495e+01
1	 5.329688e-01	 1.166350e+00	-2.419794e+01
1	 5.108943e-01	 1.176187e+00	-2.667068e+01
1	 4.887182e-01	 1.185573e+00	-2.859234e+01
1	 4.664536e-01	 1.194508e+00	-3.018177e+01
1	 4.441136e-01	 1.202993e+00	-3.166597e+01
1	 5.600193e-01	 1.166670e+00	-2.662278e+01
1	 5.378584e-01	 1.177051e+00	-2.939462e+01
1	 5.155815e-01	 1.186978e+00	-3.159902e+01
1	 4.932019e-01	 1.196450e+00	-3.338490e+01
1	 4.707330e-01	 1.205467e+00	-3.490788e+01
1	 4.481880e-01	 1.214030e+00	-3.632907e+01
1	 4.278159e-01	 1.158846e+00	-1.156292e+01
1	 4.062356e-01	 1.166587e+00	-1.476365e+01
1	 3.846076e-01	 1.173895e+00	-1.715331e+01
1	 3.629442e-01	 1.180772e+00	-1.883274e+01
1	 3.412573e-01	 1.187222e+00	-1.990514e+01
1	 3.195588e-01	 1.193245e+00	-2.047552e+01
1	 4.318903e-01	 1.169883e+00	-1.691451e+01
1	 4.101045e-01	 1.177697e+00	-1.939157e+01
1	 3.882705e-01	 1.185075e+00	-2.132315e+01
1	 3.664008e-01	 1.192018e+00	-2.272398e+01
1	 3.445073e-01	 1.198528e+00	-2.360800e+01
1	 3.226022e-01	 1.204609e+00	-2.398843e+01
1	 4.359647e-01	 1.180920e+00	-2.201179e+01
1	 4.139734e-01	 1.188807e+00	-2.396075e+01
1	 3.919335e-01	 1.196254e+00	-2.551585e+01
1	 3.698574e-01	 1.203263e+00	-2.663733e+01
1	 3.477574e-01	 1.209835e+00	-2.728268e+01
1	 3.256456e-01	 1.215974e+00	-2.740707e+01
1	 4.400392e-01	 1.191956e+00	-2.691092e+01
1	 4.178423e-01	 1.199918e+00	-2.849125e+01
1	 3.955964e-01	 1.207434e+00	-2.972823e+01
1	 3.733140e-01	 1.214509e+00	-3.055824e+01
1	 3.510075e-01	 1.221142e+00	-3.091412e+01
1	 3.286890e-01	 1.227338e+00	-3.072578e+01
1	 4.441136e-01	 1.202993e+00	-3.166597e+01
1	 4.217112e-01	 1.211028e+00	-3.300244e+01
1	 3.992593e-01	 1.218614e+00	-3.395723e+01
1	 3.767706e-01	 1.225754e+00	-3.447266e+01
1	 3.542575e-01	 1.232449e+00	-3.448782e+01
1	 3.317325e-01	 1.238702e+00	-3.393916e+01
1	 4.481880e-01	 1.214030e+00	-3.632907e+01
1	 4.255801e-01	 1.222138e+00	-3.751294e+01
1	 4.029223e-01	 1.229794e+00	-3.819992e+01
1	 3.802272e-01	 1.236999e+00	-3.836710e+01
1	 3.575076e-01	 1.243756e+00	-3.798981e+01
1	 3.347759e-01	 1.250066e+00	-3.704197e+01
1	 3.195588e-01	 1.193245e+00	-2.047552e+01
1	 2.978604e-01	 1.198846e+00	-2.062744e+01
1	 2.761734e-01	 1.204026e+00	-2.054171e+01
1	 2.545092e-01	 1.208791e+00	-2.047312e+01
1	 2.328785e-01	 1.213144e+00	-2.067902e+01
1	 2.112921e-01	 1.217090e+00	-2.141780e+01
1	 3.226022e-01	 1.204609e+00	-2.398843e+01
1	 3.006971e-01	 1.210263e+00	-2.390796e+01
1	 2.788037e-01	 1.215493e+00	-2.357272e+01
1	 2.569331e-01	 1.220304e+00	-2.324414e+01
1	 2.350964e-01	 1.224698e+00	-2.318701e+01
1	 2.133044e-01	 1.228681e+00	-2.366795e+01
1	 3.256456e-01	 1.215974e+00	-2.740707e+01
1	 3.035339e-01	 1.221681e+00	-2.705140e+01
1	 2.814339e-01	 1.226960e+00	-2.645535e+01
1	 2.593570e-01	 1.231816e+00	-2.587468e+01
1	 2.373143e-01	 1.236252e+00	-2.556912e+01
1	 2.153168e-01	 1.240272e+00	-2.580076e+01
1	 3.286890e-01	 1.227338e+00	-3.072578e+01
1	 3.063707e-01	 1.233098e+00	-3.006403e+01
1	 2.840641e-01	 1.238427e+00	-2.920369e+01
1	 2.617809e-01	 1.243328e+00	-2.838298e+01
1	 2.395322e-01	 1.247806e+00	-2.784437e+01
1	 2.173291e-01	 1.251864e+00	-2.783309e+01
1	 3.317325e-01	 1.238702e+00	-3.393916e+01
1	 3.092074e-01	 1.244516e+00	-3.295188e+01
1	 2.866943e-01	 1.249894e+00	-3.183134e+01
1	 2.642048e-01	 1.254841e+00	-3.078660e+01
1	 2.417501e-01	 1.259359e+00	-3.003111e+01
1	 2.193414e-01	 1.263455e+00	-2.978121e+01
1	 3.347759e-01	 1.250066e+00	-3.704197e+01
1	 3.120442e-01	 1.255933e+00	-3.572078e+01
1	 2.893246e-01	 1.261361e+00	-3.435136e+01
1	 2.666287e-01	 1.266353e+00	-3.310247e+01
1	 2.439680e-01	 1.270913e+00	-3.214700e+01
1	 2.213537e-01	 1.275046e+00	-3.166078e+01
1	 2.112921e-01	 1.217090e+00	-2.141780e+01
1	 1.897604e-01	 1.220632e+00	-2.186853e+01
1	 1.682934e-01	 1.223776e+00	-2.117172e+01
1	 1.469010e-01	 1.226528e+00	-1.952376e+01
1	 1.255926e-01	 1.228893e+00	-1.711576e+01
1	 1.043775e-01	 1.230876e+00	-1.413374e+01
1	 2.133044e-01	 1.228681e+00	-2.366795e+01
1	 1.915676e-01	 1.232257e+00	-2.383968e+01
1	 1.698962e-01	 1.235431e+00	-2.281962e+01
1	 1.483000e-01	 1.238210e+00	-2.081833e+01
1	 1.267887e-01	 1.240597e+00	-1.804174e+01
1	 1.053716e-01	 1.242599e+00	-1.469120e+01
1	 2.153168e-01	 1.240272e+00	-2.580076e+01
1	 1.933749e-01	 1.243882e+00	-2.568857e+01
1	 1.714990e-01	 1.247087e+00	-2.433365e+01
1	 1.496991e-01	 1.249891e+00	-2.196903e+01
1	 1.279849e-01	 1.252301e+00	-1.882355e+01
1	 1.063656e-01	 1.254322e+00	-1.512180e+01
1	 2.173291e-01	 1.251864e+00	-2.783309e+01
1	 1.951821e-01	 1.255507e+00	-2.742872e+01
1	 1.731018e-01	 1.258742e+00	-2.572418e+01
1	 1.510982e-01	 1.261572e+00	-2.298301e+01
1	 1.291810e-01	 1.264004e+00	-1.946485e+01
1	 1.073597e-01	 1.266044e+00	-1.542519e+01
1	 2.193414e-01	 1.263455e+00	-2.978121e+01
1	 1.969894e-01	 1.267132e+00	-2.907318e+01
1	 1.747046e-01	 1.270397e+00	-2.700119e+01
1	 1.524972e-01	 1.273253e+00	-2.386716e+01
1	 1.303771e-01	 1.275708e+00	-1.996918e+01
1	 1.083538e-01	 1.277767e+00	-1.560106e+01
1	 2.213537e-01	 1.275046e+00	-3.166078e+01
1	 1.987966e-01	 1.278757e+00	-3.063451e+01
1	 1.763074e-01	 1.282052e+00	-2.817432e+01
1	 1.538963e-01	 1.284934e+00	-2.462813e+01
1	 1.315732e-01	 1.287412e+00	-2.033992e+01
1	 1.093479e-01	 1.289490e+00	-1.564908e+01
1	 1.043775e-01	 1.230876e+00	-1.413374e+01
1	 8.326451e-02	 1.232485e+00	-1.295458e+01
1	 6.226220e-02	 1.233724e+00	-1.538200e+01
1	 4.137880e-02	 1.234601e+00	-2.074751e+01
1	 2.062221e-02	 1.235122e+00	-2.839503e+01
1	 0.000000e+00	 1.235294e+00	-3.768137e+01
1	 1.053716e-01	 1.242599e+00	-1.469120e+01
1	 8.405750e-02	 1.244223e+00	-1.316957e+01
1	 6.285517e-02	 1.245474e+00	-1.527862e+01
1	 4.177289e-02	 1.246359e+00	-2.032214e+01
1	 2.081861e-02	 1.246885e+00	-2.761435e+01
1	 0.000000e+00	 1.247059e+00	-3.648071e+01
1	 1.063656e-01	 1.254322e+00	-1.512180e+01
1	 8.485050e-02	 1.255961e+00	-1.328287e+01
1	 6.344815e-02	 1.257224e+00	-1.508343e+01
1	 4.216697e-02	 1.258117e+00	-1.978756e+01
1	 2.101502e-02	 1.258648e+00	-2.666870e+01
1	 0.000000e+00	 1.258824e+00	-3.501068e+01
1	 1.073597e-01	 1.266044e+00	-1.542519e+01
1	 8.564349e-02	 1.267699e+00	-1.329171e+01
1	 6.404112e-02	 1.268973e+00	-1.479514e+01
1	 4.256105e-02	 1.269875e+00	-1.914827e+01
1	 2.121142e-02	 1.270411e+00	-2.557293e+01
1	 0.000000e+00	 1.270588e+00	-3.330129e+01
1	 1.083538e-01	 1.277767e+00	-1.560106e+01
1	 8.643649e-02	 1.279437e+00	-1.319340e+01
1	 6.463409e-02	 1.280723e+00	-1.441253e+01
1	 4.295514e-02	 1.281633e+00	-1.840861e+01
1	 2.140782e-02	 1.282174e+00	-2.434133e+01
1	 0.000000e+00	 1.282353e+00	-3.138148e+01
1	 1.093479e-01	 1.289490e+00	-1.564908e+01
1	 8.722948e-02	 1.291174e+00	-1.298534e+01
1	 6.522707e-02	 1.292473e+00	-1.393439e+01
1	 4.334922e-02	 1.293391e+00	-1.757274e+01
1	 2.160422e-02	 1.293937e+00	-2.298767e+01
1	 0.000000e+00	 1.294118e+00	-2.927911e+01
1	 1.294118e+00	 0.000000e+00	-5.924035e+00
1	 1.293937e+00	 2.160422e-02	-1.560851e+01
1	 1.293391e+00	 4.334922e-02	-1.994441e+01
1	 1.292473e+00	 6.522707e-02	-1.896266e+01
1	 1.291174e+00	 8.722948e-02	-1.272455e+01
1	 1.289490e+00	 1.093479e-01	-1.323215e+00
1	 1.305882e+00	 0.000000e+00	-6.537189e+00
1	 1.305700e+00	 2.180062e-02	-1.573653e+01
1	 1.305150e+00	 4.374330e-02	-1.978722e+01
1	 1.304223e+00	 6.582004e-02	-1.872290e+01
1	 1.302912e+00	 8.802248e-02	-1.261057e+01
1	 1.301212e+00	 1.103419e-01	-1.552201e+00
1	 1.317647e+00	 0.000000e+00	-7.241545e+00
1	 1.317463e+00	 2.199703e-02	-1.588913e+01
1	 1.316908e+00	 4.413739e-02	-1.961771e+01
1	 1.315972e+00	 6.641301e-02	-1.846193e+01
1	 1.314650e+00	 8.881547e-02	-1.249219e+01
1	 1.312935e+00	 1.113360e-01	-1.816396e+00
1	 1.329412e+00	 0.000000e+00	-7.988663e+00
1	 1.329227e+00	 2.219343e-02	-1.603773e+01
1	 1.328666e+00	 4.453147e-02	-1.942286e+01
1	 1.327722e+00	 6.700599e-02	-1.817798e+01
1	 1.326388e+00	 8.960847e-02	-1.237467e+01
1	 1.324658e+00	 1.123301e-01	-2.123937e+00
1	 1.341176e+00	 0.000000e+00	-8.731807e+00
1	 1.340990e+00	 2.238983e-02	-1.615478e+01
1	 1.340424e+00	 4.492556e-02	-1.919009e+01
1	 1.339472e+00	 6.759896e-02	-1.786935e+01
1	 1.338126e+00	 9.040146e-02	-1.226309e+01
1	 1.336380e+00	 1.133241e-01	-2.482674e+00
1	 1.352941e+00	 0.000000e+00	-9.425862e+00
1	 1.352753e+00	 2.258623e-02	-1.621365e+01
1	 1.352182e+00	 4.531964e-02	-1.890727e+01
1	 1.351222e+00	 6.819193e-02	-1.753439e+01
1	 1.349864e+00	 9.119446e-02	-1.216237e+01
1	 1.348103e+00	 1.143182e-01	-2.900182e+00
1	 1.289490e+00	 1.093479e-01	-1.323215e+00
1	 1.287412e+00	 1.315732e-01	 1.119866e+01
1	 1.284934e+00	 1.538963e-01	 2.091482e+01
1	 1.282052e+00	 1.763074e-01	 2.789350e+01
1	 1.278757e+00	 1.987966e-01	 3.221858e+01
1	 1.275046e+00	 2.213537e-01	 3.398998e+01
1	 1.301212e+00	 1.103419e-01	-1.552201e+00
1	 1.299115e+00	 1.327693e-01	 1.054674e+01
1	 1.296616e+00	 1.552953e-01	 1.990716e+01
1	 1.293707e+00	 1.779102e-01	 2.660190e+01
1	 1.290382e+00	 2.006039e-01	 3.072062e+01
1	 1.286638e+00	 2.233660e-01	 3.237024e+01
1	 1.312935e+00	 1.113360e-01	-1.816396e+00
1	 1.310819e+00	 1.339655e-01	 9.815097e+00
1	 1.308297e+00	 1.566944e-01	 1.878629e+01
1	 1.305362e+00	 1.795130e-01	 2.517506e+01
1	 1.302007e+00	 2.024111e-01	 2.907758e+01
1	 1.298229e+00	 2.253783e-01	 3.060868e+01
1	 1.324658e+00	 1.123301e-01	-2.123937e+00
1	 1.322523e+00	 1.351616e-01	 8.995528e+00
1	 1.319978e+00	 1.580934e-01	 1.754536e+01
1	 1.317017e+00	 1.811158e-01	 2.360898e+01
1	 1.313633e+00	 2.042183e-01	 2.728973e+01
1	 1.309820e+00	 2.273906e-01	 2.871131e+01
1	 1.336380e+00	 1.133241e-01	-2.482674e+00
1	 1.334227e+00	 1.363577e-01	 8.080100e+00
1	 1.331659e+00	 1.594925e-01	 1.617778e+01
1	 1.328672e+00	 1.827186e-01	 2.189979e+01
1	 1.325258e+00	 2.060256e-01	 2.535735e+01
1	 1.321412e+00	 2.294029e-01	 2.668395e+01
1	 1.348103e+00	 1.143182e-01	-2.900182e+00
1	 1.345930e+00	 1.375538e-01	 7.061158e+00
1	 1.343341e+00	 1.608916e-01	 1.467716e+01
1	 1.340327e+00	 1.843214e-01	 2.004376e+01
1	 1.336883e+00	 2.078328e-01	 2.328071e+01
1	 1.333003e+00	 2.314152e-01	 2.453219e+01
1	 1.275046e+00	 2.213537e-01	 3.398998e+01
1	 1.270913e+00	 2.439680e-01	 3.445772e+01
1	 1.266353e+00	 2.666287e-01	 3.479043e+01
1	 1.261361e+00	 2.893246e-01	 3.497579e+01
1	 1.255933e+00	 3.120442e-01	 3.499811e+01
1	 1.250066e+00	 3.347759e-01	 3.483829e+01
1	 1.286638e+00	 2.233660e-01	 3.237024e+01
1	 1.282467e+00	 2.461859e-01	 3.275250e+01
1	 1.277865e+00	 2.690526e-01	 3.297735e+01
1	 1.272828e+00	 2.919548e-01	 3.302464e+01
1	 1.267351e+00	 3.148810e-01	 3.287074e+01
1	 1.261430e+00	 3.378193e-01	 3.248845e+01
1	 1.298229e+00	 2.253783e-01	 3.060868e+01
1	 1.294021e+00	 2.484038e-01	 3.091752e+01
1	 1.289377e+00	 2.714765e-01	 3.104879e+01
1	 1.284295e+00	 2.945850e-01	 3.097193e+01
1	 1.278769e+00	 3.177177e-01	 3.065239e+01
1	 1.272795e+00	 3.408627e-01	 3.005159e+01
1	 1.309820e+00	 2.273906e-01	 2.871131e+01
1	 1.305574e+00	 2.506217e-01	 2.896420e+01
1	 1.300890e+00	 2.739004e-01	 2.901946e+01
1	 1.295762e+00	 2.972152e-01	 2.883362e+01
1	 1.290186e+00	 3.205545e-01	 2.835832e+01
1	 1.284159e+00	 3.439061e-01	 2.754040e+01
1	 1.321412e+00	 2.294029e-01	 2.668395e+01
1	 1.317128e+00	 2.528396e-01	 2.690354e+01
1	 1.312402e+00	 2.763243e-01	 2.690355e+01
1	 1.307229e+00	 2.998455e-01	 2.662510e+01
1	 1.301604e+00	 3.233913e-01	 2.600326e+01
1	 1.295523e+00	 3.469495e-01	 2.496709e+01
1	 1.333003e+00	 2.314152e-01	 2.453219e+01
1	 1.328682e+00	 2.550574e-01	 2.474616e+01
1	 1.323914e+00	 2.787482e-01	 2.471474e+01
1	 1.318696e+00	 3.024757e-01	 2.436126e+01
1	 1.313021e+00	 3.262280e-01	 2.360143e+01
1	 1.306887e+00	 3.499930e-01	 2.234348e+01
1	 1.250066e+00	 3.347759e-01	 3.483829e+01
1	 1.243756e+00	 3.575076e-01	 3.365485e+01
1	 1.236999e+00	 3.802272e-01	 3.062440e+01
1	 1.229794e+00	 4.029223e-01	 2.575492e+01
1	 1.222138e+00	 4.255801e-01	 1.905803e+01
1	 1.214030e+00	 4.481880e-01	 1.054913e+01
1	 1.261430e+00	 3.378193e-01	 3.248845e+01
1	 1.255063e+00	 3.607577e-01	 3.104812e+01
1	 1.248245e+00	 3.836838e-01	 2.774996e+01
1	 1.240974e+00	 4.065852e-01	 2.261270e+01
1	 1.233249e+00	 4.294491e-01	 1.566030e+01
1	 1.225066e+00	 4.522625e-01	 6.922144e+00
1	 1.272795e+00	 3.408627e-01	 3.005159e+01
1	 1.266370e+00	 3.640077e-01	 2.835451e+01
1	 1.259490e+00	 3.871404e-01	 2.479256e+01
1	 1.252154e+00	 4.102481e-01	 1.939896e+01
1	 1.244359e+00	 4.333180e-01	 1.221396e+01
1	 1.236103e+00	 4.563369e-01	 3.284981e+00
1	 1.284159e+00	 3.439061e-01	 2.754040e+01
1	 1.277677e+00	 3.672578e-01	 2.558355e+01
1	 1.270736e+00	 3.905970e-01	 2.175918e+01
1	 1.263334e+00	 4.139111e-01	 1.611866e+01
1	 1.255469e+00	 4.371869e-01	 8.722359e+00
1	 1.247140e+00	 4.604114e-01	-3.602866e-01
1	 1.295523e+00	 3.469495e-01	 2.496709e+01
1	 1.288983e+00	 3.705079e-01	 2.274441e+01
1	 1.281981e+00	 3.940537e-01	 1.865653e+01
1	 1.274514e+00	 4.175740e-01	 1.277657e+01
1	 1.266580e+00	 4.410558e-01	 5.188739e+00
1	 1.258176e+00	 4.644858e-01	-4.011657e+00
1	 1.306887e+00	 3.499930e-01	 2.234348e+01
1	 1.300290e+00	 3.737580e-01	 1.984594e+01
1	 1.293227e+00	 3.975103e-01	 1.549112e+01
1	 1.285694e+00	 4.212369e-01	 9.377324e+00
1	 1.277690e+00	 4.449247e-01	 1.616228e+00
1	 1.269213e+00	 4.685602e-01	-7.667199e+00
1	 1.214030e+00	 4.481880e-01	 1.054913e+01
1	 1.205467e+00	 4.707330e-01	 1.882856e+00
1	 1.196450e+00	 4.932019e-01	-5.304146e+00
1	 1.186978e+00	 5.155815e-01	-1.102364e+01
1	 1.177051e+00	 5.378584e-01	-1.529167e+01
1	 1.166670e+00	 5.600193e-01	-1.812863e+01
1	 1.225066e+00	 4.522625e-01	 6.922144e+00
1	 1.216426e+00	 4.750124e-01	-1.950991e+00
1	 1.207327e+00	 4.976855e-01	-9.336589e+00
1	 1.197768e+00	 5.202686e-01	-1.524833e+01
1	 1.187751e+00	 5.427480e-01	-1.970639e+01
1	 1.177276e+00	 5.651103e-01	-2.273766e+01
1	 1.236103e+00	 4.563369e-01	 3.284981e+00
1	 1.227385e+00	 4.792918e-01	-5.749096e+00
1	 1.218204e+00	 5.021692e-01	-1.329289e+01
1	 1.208559e+00	 5.249557e-01	-1.936506e+01
1	 1.198452e+00	 5.476376e-01	-2.399279e+01
1	 1.187882e+00	 5.702014e-01	-2.721191e+01
1	 1.247140e+00	 4.604114e-01	-3.602866e-01
1	 1.238343e+00	 4.835712e-01	-9.509618e+00
1	 1.229080e+00	 5.066528e-01	-1.716953e+01
1	 1.219350e+00	 5.296428e-01	-2.336663e+01
1	 1.209152e+00	 5.525273e-01	-2.813780e+01
1	 1.198488e+00	 5.752925e-01	-3.153035e+01
1	 1.258176e+00	 4.644858e-01	-4.011657e+00
1	 1.249302e+00	 4.878506e-01	-1.323078e+01
1	 1.239957e+00	 5.111365e-01	-2.096309e+01
1	 1.230141e+00	 5.343299e-01	-2.724604e+01
1	 1.219853e+00	 5.574169e-01	-3.212887e+01
1	 1.209094e+00	 5.803836e-01	-3.567268e+01
1	 1.269213e+00	 4.685602e-01	-7.667199e+00
1	 1.260261e+00	 4.921299e-01	-1.691088e+01
1	 1.250834e+00	 5.156201e-01	-2.467029e+01
1	 1.240931e+00	 5.390170e-01	-3.099656e+01
1	 1.230553e+00	 5.623065e-01	-3.595384e+01
1	 1.219700e+00	 5.854747e-01	-3.961933e+01
1	 1.166670e+00	 5.600193e-01	-1.812863e+01
1	 1.155836e+00	 5.820506e-01	-2.008645e+01
1	 1.144552e+00	 6.039389e-01	-2.167233e+01
1	 1.132818e+00	 6.256707e-01	-2.283905e+01
1	 1.120639e+00	 6.472324e-01	-2.353434e+01
1	 1.108016e+00	 6.686106e-01	-2.370103e+01
1	 1.177276e+00	 5.651103e-01	-2.273766e+01
1	 1.166344e+00	 5.873420e-01	-2.487701e+01
1	 1.154957e+00	 6.094293e-01	-2.662495e+01
1	 1.143116e+00	 6.313586e-01	-2.795799e+01
1	 1.130826e+00	 6.531163e-01	-2.884752e+01
1	 1.118089e+00	 6.746889e-01	-2.925987e+01
1	 1.187882e+00	 5.702014e-01	-2.721191e+01
1	 1.176852e+00	 5.926333e-01	-2.953544e+01
1	 1.165362e+00	 6.149196e-01	-3.144777e+01
1	 1.153415e+00	 6.370465e-01	-3.294490e+01
1	 1.141014e+00	 6.590002e-01	-3.401815e+01
1	 1.128162e+00	 6.807672e-01	-3.465411e+01
1	 1.198488e+00	 5.752925e-01	-3.153035e+01
1	 1.187359e+00	 5.979247e-01	-3.403309e+01
1	 1.175767e+00	 6.204100e-01	-3.610755e+01
1	 1.163713e+00	 6.427344e-01	-3.776512e+01
1	 1.151201e+00	 6.648842e-01	-3.901340e+01
1	 1.138235e+00	 6.868455e-01	-3.985609e+01
1	 1.209094e+00	 5.803836e-01	-3.567268e+01
1	 1.197867e+00	 6.032161e-01	-3.834230e+01
1	 1.186172e+00	 6.259003e-01	-4.057220e+01
1	 1.174011e+00	 6.484223e-01	-4.238518e+01
1	 1.161389e+00	 6.707681e-01	-4.380158e+01
1	 1.148308e+00	 6.929237e-01	-4.483917e+01
1	 1.219700e+00	 5.854747e-01	-3.961933e+01
1	 1.208374e+00	 6.085074e-01	-4.243639e+01
1	 1.196577e+00	 6.313907e-01	-4.481078e+01
1	 1.184310e+00	 6.541102e-01	-4.677280e+01
1	 1.171577e+00	 6.766520e-01	-4.835213e+01
1	 1.158381e+00	 6.990020e-01	-4.957759e+01
1	 1.108016e+00	 6.686106e-01	-2.370103e+01
1	 1.094955e+00	 6.897920e-01	-2.387508e+01
1	 1.081460e+00	 7.107633e-01	-2.471704e+01
1	 1.067535e+00	 7.315112e-01	-2.635704e+01
1	 1.053187e+00	 7.520229e-01	-2.892997e+01
1	 1.038420e+00	 7.722854e-01	-3.257468e+01
1	 1.118089e+00	 6.746889e-01	-2.925987e+01
1	 1.104910e+00	 6.960629e-01	-2.976750e+01
1	 1.091292e+00	 7.172247e-01	-3.100922e+01
1	 1.077240e+00	 7.381613e-01	-3.304829e+01
1	 1.062761e+00	 7.588594e-01	-3.594902e+01
1	 1.047860e+00	 7.793062e-01	-3.977634e+01
1	 1.128162e+00	 6.807672e-01	-3.465411e+01
1	 1.114864e+00	 7.023337e-01	-3.545162e+01
1	 1.101123e+00	 7.236862e-01	-3.702755e+01
1	 1.086945e+00	 7.448114e-01	-3.939032e+01
1	 1.072335e+00	 7.656960e-01	-4.254606e+01
1	 1.057300e+00	 7.863269e-01	-4.649848e+01
1	 1.138235e+00	 6.868455e-01	-3.985609e+01
1	 1.124818e+00	 7.086045e-01	-4.090774e+01
1	 1.110955e+00	 7.301477e-01	-4.276199e+01
1	 1.096650e+00	 7.514615e-01	-4.538427e+01
1	 1.081910e+00	 7.725326e-01	-4.873462e+01
1	 1.066740e+00	 7.933477e-01	-5.276785e+01
1	 1.148308e+00	 6.929237e-01	-4.483917e+01
1	 1.134772e+00	 7.148754e-01	-4.611680e+01
1	 1.120786e+00	 7.366092e-01	-4.820288e+01
1	 1.106355e+00	 7.581116e-01	-5.103127e+01
1	 1.091484e+00	 7.793692e-01	-5.452777e+01
1	 1.076181e+00	 8.003685e-01	-5.861031e+01
1	 1.158381e+00	 6.990020e-01	-4.957759e+01
1	 1.144726e+00	 7.211462e-01	-5.106045e+01
1	 1.130617e+00	 7.430707e-01	-5.334087e+01
1	 1.116060e+00	 7.647617e-01	-5.633241e+01
1	 1.101059e+00	 7.862057e-01	-5.993810e+01
1	 1.085621e+00	 8.073893e-01	-6.405080e+01
1	 1.038420e+00	 7.722854e-01	-3.257468e+01
1	 1.023241e+00	 7.922861e-01	-3.728848e+01
1	 1.007659e+00	 8.120127e-01	-4.272104e+01
1	 9.916786e-01	 8.314530e-01	-4.846901e+01
1	 9.753095e-01	 8.505950e-01	-5.409971e+01
1	 9.585598e-01	 8.694272e-01	-5.915320e+01
1	 1.047860e+00	 7.793062e-01	-3.977634e+01
1	 1.032544e+00	 7.994887e-01	-4.439500e+01
1	 1.016819e+00	 8.193946e-01	-4.943397e+01
1	 1.000694e+00	 8.390116e-01	-5.458740e+01
1	 9.841760e-01	 8.583277e-01	-5.952756e+01
1	 9.672739e-01	 8.773311e-01	-6.390645e+01
1	 1.057300e+00	 7.863269e-01	-4.649848e+01
1	 1.041846e+00	 8.066913e-01	-5.101467e+01
1	 1.025980e+00	 8.267766e-01	-5.571525e+01
1	 1.009709e+00	 8.465703e-01	-6.036958e+01
1	 9.930424e-01	 8.660603e-01	-6.473107e+01
1	 9.759881e-01	 8.852350e-01	-6.853840e+01
1	 1.066740e+00	 7.933477e-01	-5.276785e+01
1	 1.051148e+00	 8.138939e-01	-5.718302e+01
1	 1.035140e+00	 8.341585e-01	-6.159991e+01
1	 1.018724e+00	 8.541289e-01	-6.584138e+01
1	 1.001909e+00	 8.737930e-01	-6.971879e+01
1	 9.847023e-01	 8.931389e-01	-7.303291e+01
1	 1.076181e+00	 8.003685e-01	-5.861031e+01
1	 1.060450e+00	 8.210965e-01	-6.293432e+01
1	 1.044301e+00	 8.415404e-01	-6.712173e+01
1	 1.027740e+00	 8.616876e-01	-7.102772e+01
1	 1.010775e+00	 8.815257e-01	-7.449897e+01
1	 9.934165e-01	 9.010427e-01	-7.737441e+01
1	 1.085621e+00	 8.073893e-01	-6.405080e+01
1	 1.069752e+00	 8.282991e-01	-6.830167e+01
1	 1.053461e+00	 8.489224e-01	-7.231331e+01
1	 1.036755e+00	 8.692463e-01	-7.595264e+01
1	 1.019642e+00	 8.892584e-01	-7.907959e+01
1	 1.002131e+00	 9.089466e-01	-8.154784e+01
1	 9.585598e-01	 8.694272e-01	-5.915320e+01
1	 9.414382e-01	 8.879384e-01	-6.280407e+01
1	 9.239542e-01	 9.061176e-01	-6.476581e+01
1	 9.061176e-01	 9.239542e-01	-6.538902e+01
1	 8.879384e-01	 9.414382e-01	-6.505106e+01
1	 8.694272e-01	 9.585598e-01	-6.415383e+01
1	 9.672739e-01	 8.773311e-01	-6.390645e+01
1	 9.499968e-01	 8.960105e-01	-6.711276e+01
1	 9.323538e-01	 9.143550e-01	-6.894031e+01
1	 9.143550e-01	 9.323538e-01	-6.965046e+01
1	 8.960105e-01	 9.499968e-01	-6.952445e+01
1	 8.773311e-01	 9.672739e-01	-6.886180e+01
1	 9.759881e-01	 8.852350e-01	-6.853840e+01
1	 9.585553e-01	 9.040827e-01	-7.134272e+01
1	 9.407534e-01	 9.225924e-01	-7.300209e+01
1	 9.225924e-01	 9.407534e-01	-7.371736e+01
1	 9.040827e-01	 9.585553e-01	-7.370453e+01
1	 8.852350e-01	 9.759881e-01	-7.319350e+01
1	 9.847023e-01	 8.931389e-01	-7.303291e+01
1	 9.671138e-01	 9.121549e-01	-7.545640e+01
1	 9.491530e-01	 9.308299e-01	-7.690520e+01
1	 9.308299e-01	 9.491530e-01	-7.754769e+01
1	 9.121549e-01	 9.671138e-01	-7.756467e+01
1	 8.931389e-01	 9.847023e-01	-7.714831e+01
1	 9.934165e-01	 9.010427e-01	-7.737441e+01
1	 9.756723e-01	 9.202270e-01	-7.941753e+01
1	 9.575526e-01	 9.390673e-01	-8.060532e+01
1	 9.390673e-01	 9.575526e-01	-8.110091e+01
1	 9.202270e-01	 9.756723e-01	-8.107916e+01
1	 9.010427e-01	 9.934165e-01	-8.072560e+01
1	 1.002131e+00	 9.089466e-01	-8.154784e+01
1	 9.842309e-01	 9.282992e-01	-8.319114e+01
1	 9.659522e-01	 9.473047e-01	-8.405967e+01
1	 9.473047e-01	 9.659522e-01	-8.433787e+01
1	 9.282992e-01	 9.842309e-01	-8.422317e+01
1	 9.089466e-01	 1.002131e+00	-8.392479e+01
1	 8.694272e-01	 9.585598e-01	-6.415383e+01
1	 8.505950e-01	 9.753095e-01	-6.295718e+01
1	 8.314530e-01	 9.916786e-01	-6.124759e+01
1	 8.120127e-01	 1.007659e+00	-5.872526e+01
1	 7.922861e-01	 1.023241e+00	-5.508024e+01
1	 7.722854e-01	 1.038420e+00	-4.999432e+01
1	 8.773311e-01	 9.672739e-01	-6.886180e+01
1	 8.583277e-01	 9.841760e-01	-6.775951e+01
1	 8.390116e-01	 1.000694e+00	-6.596673e+01
1	 8.193946e-01	 1.016819e+00	-6.326965e+01
1	 7.994887e-01	 1.032544e+00	-5.944979e+01
1	 7.793062e-01	 1.047860e+00	-5.428535e+01
1	 8.852350e-01	 9.759881e-01	-7.319350e+01
1	 8.660603e-01	 9.930424e-01	-7.217129e+01
1	 8.465703e-01	 1.009709e+00	-7.035936e+01
1	 8.267766e-01	 1.025980e+00	-6.759725e+01
1	 8.066913e-01	 1.041846e+00	-6.372319e+01
1	 7.863269e-01	 1.057300e+00	-5.857511e+01
1	 8.931389e-01	 9.847023e-01	-7.714831e+01
1	 8.737930e-01	 1.001909e+00	-7.621548e+01
1	 8.541289e-01	 1.018724e+00	-7.445762e+01
1	 8.341585e-01	 1.035140e+00	-7.173593e+01
1	 8.138939e-01	 1.051148e+00	-6.791151e+01
1	 7.933477e-01	 1.066740e+00	-6.284622e+01
1	 9.010427e-01	 9.934165e-01	-8.072560e+01
1	 8.815257e-01	 1.010775e+00	-7.991419e+01
1	 8.616876e-01	 1.027740e+00	-7.829252e+01
1	 8.415404e-01	 1.044301e+00	-7.571257e+01
1	 8.210965e-01	 1.060450e+00	-7.202538e+01
1	 8.003685e-01	 1.076181e+00	-6.708195e+01
1	 9.089466e-01	 1.002131e+00	-8.392479e+01
1	 8.892584e-01	 1.019642e+00	-8.328879e+01
1	 8.692463e-01	 1.036755e+00	-8.189399e+01
1	 8.489224e-01	 1.053461e+00	-7.955314e+01
1	 8.282991e-01	 1.069752e+00	-7.607511e+01
1	 8.073893e-01	 1.085621e+00	-7.126613e+01
1	 7.722854e-01	 1.038420e+00	-4.999432e+01
1	 7.520229e-01	 1.053187e+00	-4.382074e+01
1	 7.315112e-01	 1.067535e+00	-3.743203e+01
1	 7.107633e-01	 1.081460e+00	-3.130227e+01
1	 6.897920e-01	 1.094955e+00	-2.592768e+01
1	 6.686106e-01	 1.108016e+00	-2.182352e+01
1	 7.793062e-01	 1.047860e+00	-5.428535e+01
1	 7.588594e-01	 1.062761e+00	-4.828913e+01
1	 7.381613e-01	 1.077240e+00	-4.235181e+01
1	 7.172247e-01	 1.091292e+00	-3.682916e+01
1	 6.960629e-01	 1.104910e+00	-3.209163e+01
1	 6.746889e-01	 1.118089e+00	-2.852197e+01
1	 7.863269e-01	 1.057300e+00	-5.857511e+01
1	 7.656960e-01	 1.072335e+00	-5.276419e+01
1	 7.448114e-01	 1.086945e+00	-4.718653e+01
1	 7.236862e-01	 1.101123e+00	-4.211581e+01
1	 7.023337e-01	 1.114864e+00	-3.783513e+01
1	 6.807672e-01	 1.128162e+00	-3.463521e+01
1	 7.933477e-01	 1.066740e+00	-6.284622e+01
1	 7.725326e-01	 1.081910e+00	-5.720301e+01
1	 7.514615e-01	 1.096650e+00	-5.188365e+01
1	 7.301477e-01	 1.110955e+00	-4.711501e+01
1	 7.086045e-01	 1.124818e+00	-4.313027e+01
1	 6.868455e-01	 1.138235e+00	-4.016744e+01
1	 8.003685e-01	 1.076181e+00	-6.708195e+01
1	 7.793692e-01	 1.091484e+00	-6.156416e+01
1	 7.581116e-01	 1.106355e+00	-5.639248e+01
1	 7.366092e-01	 1.120786e+00	-5.178123e+01
1	 7.148754e-01	 1.134772e+00	-4.795010e+01
1	 6.929237e-01	 1.148308e+00	-4.512270e+01
1	 8.073893e-01	 1.085621e+00	-7.126613e+01
1	 7.862057e-01	 1.101059e+00	-6.580766e+01
1	 7.647617e-01	 1.116060e+00	-6.066407e+01
1	 7.430707e-01	 1.130617e+00	-5.607052e+01
1	 7.211462e-01	 1.144726e+00	-5.226862e+01
1	 6.990020e-01	 1.158381e+00	-4.950492e+01
1	 6.686106e-01	 1.108016e+00	-2.182352e+01
1	 6.472324e-01	 1.120639e+00	-1.970304e+01
1	 6.256707e-01	 1.132818e+00	-1.961825e+01
1	 6.039389e-01	 1.144552e+00	-2.108528e+01
1	 5.820506e-01	 1.155836e+00	-2.359633e+01
1	 5.600193e-01	 1.166670e+00	-2.662278e+01
1	 6.746889e-01	 1.118089e+00	-2.852197e+01
1	 6.531163e-01	 1.130826e+00	-2.660738e+01
1	 6.313586e-01	 1.143116e+00	-2.634266e+01
1	 6.094293e-01	 1.154957e+00	-2.736592e+01
1	 5.873420e-01	 1.166344e+00	-2.929836e+01
1	 5.651103e-01	 1.177276e+00	-3.174652e+01
1	 6.807672e-01	 1.128162e+00	-3.463521e+01
1	 6.590002e-01	 1.141014e+00	-3.284911e+01
1	 6.370465e-01	 1.153415e+00	-3.243762e+01
1	 6.149196e-01	 1.165362e+00	-3.312794e+01
1	 5.926333e-01	 1.176852e+00	-3.463549e+01
1	 5.702014e-01	 1.187882e+00	-3.666555e+01
1	 6.868455e-01	 1.138235e+00	-4.016744e+01
1	 6.648842e-01	 1.151201e+00	-3.846296e+01
1	 6.427344e-01	 1.163713e+00	-3.795369e+01
1	 6.204100e-01	 1.175767e+00	-3.842392e+01
1	 5.979247e-01	 1.187359e+00	-3.964947e+01
1	 5.752925e-01	 1.198488e+00	-4.139897e+01
1	 6.929237e-01	 1.148308e+00	-4.512270e+01
1	 6.707681e-01	 1.161389e+00	-4.348243e+01
1	 6.484223e-01	 1.174011e+00	-4.293961e+01
1	 6.259003e-01	 1.186172e+00	-4.330456e+01
1	 6.032161e-01	 1.197867e+00	-4.438061e+01
1	 5.803836e-01	 1.209094e+00	-4.596520e+01
1	 6.990020e-01	 1.158381e+00	-4.950492e+01
1	 6.766520e-01	 1.171577e+00	-4.793986e+01
1	 6.541102e-01	 1.184310e+00	-4.744247e+01
1	 6.313907e-01	 1.196577e+00	-4.781883e+01
1	 6.085074e-01	 1.208374e+00	-4.886778e+01
1	 5.854747e-01	 1.219700e+00	-5.038203e+01
1	 5.600193e-01	 1.166670e+00	-2.662278e+01
1	 5.378584e-01	 1.177051e+00	-2.939462e+01
1	 5.155815e-01	 1.186978e+00	-3.159902e+01
1	 4.932019e-01	 1.196450e+00	-3.338490e+01
1	 4.707330e-01	 1.205467e+00	-3.490788e+01
1	 4.481880e-01	 1.214030e+00	-3.632907e+01
1	 5.651103e-01	 1.177276e+00	-3.174652e+01
1	 5.427480e-01	 1.187751e+00	-3.412342e+01
1	 5.202686e-01	 1.197768e+00	-3.615426e+01
1	 4.976855e-01	 1.207327e+00	-3.790657e+01
1	 4.750124e-01	 1.216426e+00	-3.945060e+01
1	 4.522625e-01	 1.225066e+00	-4.085878e+01
1	 5.702014e-01	 1.187882e+00	-3.666555e+01
1	 5.476376e-01	 1.198452e+00	-3.875308e+01
1	 5.249557e-01	 1.208559e+00	-4.063964e+01
1	 5.021692e-01	 1.218204e+00	-4.233383e+01
1	 4.792918e-01	 1.227385e+00	-4.384426e+01
1	 4.563369e-01	 1.236103e+00	-4.517931e+01
1	 5.752925e-01	 1.198488e+00	-4.139897e+01
1	 5.525273e-01	 1.209152e+00	-4.327975e+01
1	 5.296428e-01	 1.219350e+00	-4.503846e+01
1	 5.066528e-01	 1.229080e+00	-4.664667e+01
1	 4.835712e-01	 1.238343e+00	-4.807434e+01
1	 4.604114e-01	 1.247140e+00	-4.928985e+01
1	 5.803836e-01	 1.209094e+00	-4.596520e+01
1	 5.574169e-01	 1.219853e+00	-4.769967e+01
1	 5.343299e-01	 1.230141e+00	-4.933460e+01
1	 5.111365e-01	 1.239957e+00	-5.082578e+01
1	 4.878506e-01	 1.249302e+00	-5.212687e+01
1	 4.644858e-01	 1.258176e+00	-5.318961e+01
1	 5.854747e-01	 1.219700e+00	-5.038203e+01
1	 5.623065e-01	 1.230553e+00	-5.200925e+01
1	 5.390170e-01	 1.240931e+00	-5.351253e+01
1	 5.156201e-01	 1.250834e+00	-5.485251e+01
1	 4.921299e-01	 1.260261e+00	-5.598834e+01
1	 4.685602e-01	 1.269213e+00	-5.687783e+01
1	 4.481880e-01	 1.214030e+00	-3.632907e+01
1	 4.255801e-01	 1.222138e+00	-3.751294e+01
1	 4.029223e-01	 1.229794e+00	-3.819992e+01
1	 3.802272e-01	 1.236999e+00	-3.836710e+01
1	 3.575076e-01	 1.243756e+00	-3.798981e+01
1	 3.347759e-01	 1.250066e+00	-3.704197e+01
1	 4.522625e-01	 1.225066e+00	-4.085878e+01
1	 4.294491e-01	 1.233249e+00	-4.190560e+01
1	 4.065852e-01	 1.240974e+00	-4.232846e+01
1	 3.836838e-01	 1.248245e+00	-4.214537e+01
1	 3.607577e-01	 1.255063e+00	-4.137435e+01
1	 3.378193e-01	 1.261430e+00	-4.003341e+01
1	 4.563369e-01	 1.236103e+00	-4.517931e+01
1	 4.333180e-01	 1.244359e+00	-4.606040e+01
1	 4.102481e-01	 1.252154e+00	-4.623175e+01
1	 3.871404e-01	 1.259490e+00	-4.573663e+01
1	 3.640077e-01	 1.266370e+00	-4.461945e+01
1	 3.408627e-01	 1.272795e+00	-4.292557e+01
1	 4.604114e-01	 1.247140e+00	-4.928985e+01
1	 4.371869e-01	 1.255469e+00	-4.999086e+01
1	 4.139111e-01	 1.263334e+00	-4.993148e+01
1	 3.905970e-01	 1.270736e+00	-4.916502e+01
1	 3.672578e-01	 1.277677e+00	-4.774648e+01
1	 3.439061e-01	 1.284159e+00	-4.573230e+01
1	 4.644858e-01	 1.258176e+00	-5.318961e+01
1	 4.410558e-01	 1.266580e+00	-5.370999e+01
1	 4.175740e-01	 1.274514e+00	-5.344855e+01
1	 3.940537e-01	 1.281981e+00	-5.245384e+01
1	 3.705079e-01	 1.288983e+00	-5.077609e+01
1	 3.469495e-01	 1.295523e+00	-4.846698e+01
1	 4.685602e-01	 1.269213e+00	-5.687783e+01
1	 4.449247e-01	 1.277690e+00	-5.723037e+01
1	 4.212369e-01	 1.285694e+00	-5.680316e+01
1	 3.975103e-01	 1.293227e+00	-5.562560e+01
1	 3.737580e-01	 1.300290e+00	-5.372821e+01
1	 3.499930e-01	 1.306887e+00	-5.114250e+01
1	 3.347759e-01	 1.250066e+00	-3.704197e+01
1	 3.120442e-01	 1.255933e+00	-3.572078e+01
1	 2.893246e-01	 1.261361e+00	-3.435136e+01
1	 2.666287e-01	 1.266353e+00	-3.310247e+01
1	 2.439680e-01	 1.270913e+00	-3.214700e+01
1	 2.213537e-01	 1.275046e+00	-3.166078e+01
1	 3.378193e-01	 1.261430e+00	-4.003341e+01
1	 3.148810e-01	 1.267351e+00	-3.838642e+01
1	 2.919548e-01	 1.272828e+00	-3.676942e+01
1	 2.690526e-01	 1.277865e+00	-3.531224e+01
1	 2.461859e-01	 1.282467e+00	-3.414860e+01
1	 2.233660e-01	 1.286638e+00	-3.341514e+01
1	 3.408627e-01	 1.272795e+00	-4.292557e+01
1	 3.177177e-01	 1.278769e+00	-4.096474e+01
1	 2.945850e-01	 1.284295e+00	-3.908342e+01
1	 2.714765e-01	 1.289377e+00	-3.738608e+01
1	 2.484038e-01	 1.294021e+00	-3.598099e+01
1	 2.253783e-01	 1.298229e+00	-3.497934e+01
1	 3.439061e-01	 1.284159e+00	-4.573230e+01
1	 3.205545e-01	 1.290186e+00	-4.346159e+01
1	 2.972152e-01	 1.295762e+00	-4.129448e+01
1	 2.739004e-01	 1.300890e+00	-3.932327e+01
1	 2.506217e-01	 1.305574e+00	-3.764410e+01
1	 2.273906e-01	 1.309820e+00	-3.635612e+01
1	 3.469495e-01	 1.295523e+00	-4.846698e+01
1	 3.233913e-01	 1.301604e+00	-4.588262e+01
1	 2.998455e-01	 1.307229e+00	-4.340367e+01
1	 2.763243e-01	 1.312402e+00	-4.112309e+01
1	 2.528396e-01	 1.317128e+00	-3.913785e+01
1	 2.294029e-01	 1.321412e+00	-3.754810e+01
1	 3.499930e-01	 1.306887e+00	-5.114250e+01
1	 3.262280e-01	 1.313021e+00	-4.823327e+01
1	 3.024757e-01	 1.318696e+00	-4.541202e+01
1	 2.787482e-01	 1.323914e+00	-4.278486e+01
1	 2.550574e-01	 1.328682e+00	-4.046219e+01
1	 2.314152e-01	 1.333003e+00	-3.855783e+01
1	 2.213537e-01	 1.275046e+00	-3.166078e+01
1	 1.987966e-01	 1.278757e+00	-3.063451e+01
1	 1.763074e-01	 1.282052e+00	-2.817432e+01
1	 1.538963e-01	 1.284934e+00	-2.462813e+01
1	 1.315732e-01	 1.287412e+00	-2.033992e+01
1	 1.093479e-01	 1.289490e+00	-1.564908e+01
1	 2.233660e-01	 1.286638e+00	-3.341514e+01
1	 2.006039e-01	 1.290382e+00	-3.206445e+01
1	 1.779102e-01	 1.293707e+00	-2.921880e+01
1	 1.552953e-01	 1.296616e+00	-2.526836e+01
1	 1.327693e-01	 1.299115e+00	-2.059933e+01
1	 1.103419e-01	 1.301212e+00	-1.559310e+01
1	 2.253783e-01	 1.298229e+00	-3.497934e+01
1	 2.024111e-01	 1.302007e+00	-3.331066e+01
1	 1.795130e-01	 1.305362e+00	-3.010925e+01
1	 1.566944e-01	 1.308297e+00	-2.579288e+01
1	 1.339655e-01	 1.310819e+00	-2.077560e+01
1	 1.113360e-01	 1.312935e+00	-1.546669e+01
1	 2.273906e-01	 1.309820e+00	-3.635612e+01
1	 2.042183e-01	 1.313633e+00	-3.437905e+01
1	 1.811158e-01	 1.317017e+00	-3.085390e+01
1	 1.580934e-01	 1.319978e+00	-2.621179e+01
1	 1.351616e-01	 1.322523e+00	-2.088057e+01
1	 1.123301e-01	 1.324658e+00	-1.528378e+01
1	 2.294029e-01	 1.321412e+00	-3.754810e+01
1	 2.060256e-01	 1.325258e+00	-3.527530e+01
1	 1.827186e-01	 1.328672e+00	-3.146069e+01
1	 1.594925e-01	 1.331659e+00	-2.653479e+01
1	 1.363577e-01	 1.334227e+00	-2.092567e+01
1	 1.133241e-01	 1.336380e+00	-1.505782e+01
1	 2.314152e-01	 1.333003e+00	-3.855783e+01
1	 2.078328e-01	 1.336883e+00	-3.600493e+01
1	 1.843214e-01	 1.340327e+00	-3.193728e+01
1	 1.608916e-01	 1.343341e+00	-2.677129e+01
1	 1.375538e-01	 1.345930e+00	-2.092195e+01
1	 1.143182e-01	 1.348103e+00	-1.480176e+01
1	 1.093479e-01	 1.289490e+00	-1.564908e+01
1	 8.722948e-02	 1.291174e+00	-1.298534e+01
1	 6.522707e-02	 1.292473e+00	-1.393439e+01
1	 4.334922e-02	 1.293391e+00	-1.757274e+01
1	 2.160422e-02	 1.293937e+00	-2.298767e+01
1	 0.000000e+00	 1.294118e+00	-2.927911e+01
1	 1.103419e-01	 1.301212e+00	-1.559310e+01
1	 8.802248e-02	 1.302912e+00	-1.267037e+01
1	 6.582004e-02	 1.304223e+00	-1.333489e+01
1	 4.374330e-02	 1.305150e+00	-1.659603e+01
1	 2.180062e-02	 1.305700e+00	-2.147502e+01
1	 0.000000e+00	 1.305882e+00	-2.700710e+01
1	 1.113360e-01	 1.312935e+00	-1.546669e+01
1	 8.881547e-02	 1.314650e+00	-1.226328e+01
1	 6.641301e-02	 1.315972e+00	-1.259791e+01
1	 4.413739e-02	 1.316908e+00	-1.543627e+01
1	 2.199703e-02	 1.317463e+00	-1.975596e+01
1	 0.000000e+00	 1.317647e+00	-2.454884e+01
1	 1.123301e-01	 1.324658e+00	-1.528378e+01
1	 8.960847e-02	 1.326388e+00	-1.177905e+01
1	 6.700599e-02	 1.327722e+00	-1.173645e+01
1	 4.453147e-02	 1.328666e+00	-1.410092e+01
1	 2.219343e-02	 1.329227e+00	-1.782823e+01
1	 0.000000e+00	 1.329412e+00	-2.188756e+01
1	 1.133241e-01	 1.336380e+00	-1.505782e+01
1	 9.040146e-02	 1.338126e+00	-1.123213e+01
1	 6.759896e-02	 1.339472e+00	-1.076311e+01
1	 4.492556e-02	 1.340424e+00	-1.259719e+01
1	 2.238983e-02	 1.340990e+00	-1.568961e+01
1	 0.000000e+00	 1.341176e+00	-1.900707e+01
1	 1.143182e-01	 1.348103e+00	-1.480176e+01
1	 9.119446e-02	 1.349864e+00	-1.063648e+01
1	 6.819193e-02	 1.351222e+00	-9.689999e+00
1	 4.531964e-02	 1.352182e+00	-1.093203e+01
1	 2.258623e-02	 1.352753e+00	-1.333799e+01
1	 0.000000e+00	 1.352941e+00	-1.589177e+01
1	 1.352941e+00	 0.000000e+00	-9.425862e+00
1	 1.352753e+00	 2.258623e-02	-1.621365e+01
1	 1.352182e+00	 4.531964e-02	-1.890727e+01
1	 1.351222e+00	 6.819193e-02	-1.753439e+01
1	 1.349864e+00	 9.119446e-02	-1.216237e+01
1	 1.348103e+00	 1.143182e-01	-2.900182e+00
1	 1.364706e+00	 0.000000e+00	-1.007275e+01
1	 1.364516e+00	 2.278263e-02	-1.622344e+01
1	 1.363940e+00	 4.571372e-02	-1.858806e+01
1	 1.362971e+00	 6.878491e-02	-1.718756e+01
1	 1.361602e+00	 9.198745e-02	-1.208335e+01
1	 1.359825e+00	 1.153123e-01	-3.379376e+00
1	 1.376471e+00	 0.000000e+00	-1.070321e+01
1	 1.376279e+00	 2.297904e-02	-1.619723e+01
1	 1.375698e+00	 4.610781e-02	-1.823146e+01
1	 1.374721e+00	 6.937788e-02	-1.681621e+01
1	 1.373340e+00	 9.278045e-02	-1.200367e+01
1	 1.371548e+00	 1.163064e-01	-3.890134e+00
1	 1.388235e+00	 0.000000e+00	-1.131658e+01
1	 1.388042e+00	 2.317544e-02	-1.611559e+01
1	 1.387456e+00	 4.650189e-02	-1.780449e+01
1	 1.386471e+00	 6.997085e-02	-1.637916e+01
1	 1.385078e+00	 9.357345e-02	-1.187941e+01
1	 1.383271e+00	 1.173004e-01	-4.391354e+00
1	 1.400000e+00	 0.000000e+00	-1.191222e+01
1	 1.399805e+00	 2.337184e-02	-1.595974e+01
1	 1.399214e+00	 4.689598e-02	-1.727527e+01
1	 1.398221e+00	 7.056383e-02	-1.583661e+01
1	 1.396816e+00	 9.436644e-02	-1.166811e+01
1	 1.394993e+00	 1.182945e-01	-4.843316e+00
1	 1.411765e+00	 0.000000e+00	-1.248951e+01
1	 1.411568e+00	 2.356824e-02	-1.571151e+01
1	 1.410972e+00	 4.729006e-02	-1.661299e+01
1	 1.409970e+00	 7.115680e-02	-1.515009e+01
1	 1.408554e+00	 9.515944e-02	-1.132876e+01
1	 1.406716e+00	 1.192886e-01	-5.207622e+00
1	 1.348103e+00	 1.143182e-01	-2.900182e+00
1	 1.345930e+00	 1.375538e-01	 7.061158e+00
1	 1.343341e+00	 1.608916e-01	 1.467716e+01
1	 1.340327e+00	 1.843214e-01	 2.004376e+01
1	 1.336883e+00	 2.078328e-01	 2.328071e+01
1	 1.333003e+00	 2.314152e-01	 2.453219e+01
1	 1.359825e+00	 1.153123e-01	-3.379376e+00
1	 1.357634e+00	 1.387499e-01	 5.946543e+00
1	 1.355022e+00	 1.622906e-01	 1.306242e+01
1	 1.351982e+00	 1.859241e-01	 1.806890e+01
1	 1.348508e+00	 2.096401e-01	 2.109242e+01
1	 1.344594e+00	 2.334275e-01	 2.228579e+01
1	 1.371548e+00	 1.163064e-01	-3.890134e+00
1	 1.369338e+00	 1.399461e-01	 4.772361e+00
1	 1.366703e+00	 1.636897e-01	 1.137315e+01
1	 1.363637e+00	 1.875269e-01	 1.601365e+01
1	 1.360133e+00	 2.114473e-01	 1.882252e+01
1	 1.356186e+00	 2.354398e-01	 1.995635e+01
1	 1.383271e+00	 1.173004e-01	-4.391354e+00
1	 1.381042e+00	 1.411422e-01	 3.572672e+00
1	 1.378384e+00	 1.650887e-01	 9.633577e+00
1	 1.375292e+00	 1.891297e-01	 1.388968e+01
1	 1.371758e+00	 2.132545e-01	 1.646754e+01
1	 1.367777e+00	 2.374521e-01	 1.752264e+01
1	 1.394993e+00	 1.182945e-01	-4.843316e+00
1	 1.392745e+00	 1.423383e-01	 2.380388e+00
1	 1.390065e+00	 1.664878e-01	 7.867127e+00
1	 1.386947e+00	 1.907325e-01	 1.170831e+01
1	 1.383383e+00	 2.150618e-01	 1.402410e+01
1	 1.379368e+00	 2.394644e-01	 1.496417e+01
1	 1.406716e+00	 1.192886e-01	-5.207622e+00
1	 1.404449e+00	 1.435344e-01	 1.227327e+00
1	 1.401747e+00	 1.678868e-01	 6.096430e+00
1	 1.398602e+00	 1.923353e-01	 9.480443e+00
1	 1.395008e+00	 2.168690e-01	 1.148894e+01
1	 1.390960e+00	 2.414767e-01	 1.226113e+01
1	 1.333003e+00	 2.314152e-01	 2.453219e+01
1	 1.328682e+00	 2.550574e-01	 2.474616e+01
1	 1.323914e+00	 2.787482e-01	 2.471474e+01
1	 1.318696e+00	 3.024757e-01	 2.436126e+01
1	 1.313021e+00	 3.262280e-01	 2.360143e+01
1	 1.306887e+00	 3.499930e-01	 2.234348e+01
1	 1.344594e+00	 2.334275e-01	 2.228579e+01
1	 1.340236e+00	 2.572753e-01	 2.250906e+01
1	 1.335427e+00	 2.811721e-01	 2.244996e+01
1	 1.330163e+00	 3.051059e-01	 2.201656e+01
1	 1.324439e+00	 3.290648e-01	 2.110839e+01
1	 1.318252e+00	 3.530364e-01	 1.961658e+01
1	 1.356186e+00	 2.354398e-01	 1.995635e+01
1	 1.351789e+00	 2.594932e-01	 2.017788e+01
1	 1.346939e+00	 2.835960e-01	 2.006887e+01
1	 1.341630e+00	 3.077361e-01	 1.952950e+01
1	 1.335857e+00	 3.319016e-01	 1.845198e+01
1	 1.329616e+00	 3.560798e-01	 1.672070e+01
1	 1.367777e+00	 2.374521e-01	 1.752264e+01
1	 1.363343e+00	 2.617111e-01	 1.771691e+01
1	 1.358451e+00	 2.860199e-01	 1.753002e+01
1	 1.353096e+00	 3.103664e-01	 1.686158e+01
1	 1.347274e+00	 3.347383e-01	 1.560511e+01
1	 1.340980e+00	 3.591232e-01	 1.364845e+01
1	 1.379368e+00	 2.394644e-01	 1.496417e+01
1	 1.374897e+00	 2.639290e-01	 1.509159e+01
1	 1.369964e+00	 2.884438e-01	 1.479338e+01
1	 1.364563e+00	 3.129966e-01	 1.397558e+01
1	 1.358692e+00	 3.375751e-01	 1.254161e+01
1	 1.352344e+00	 3.621666e-01	 1.039270e+01
1	 1.390960e+00	 2.414767e-01	 1.226113e+01
1	 1.386451e+00	 2.661469e-01	 1.226857e+01
1	 1.381476e+00	 2.908676e-01	 1.182022e+01
1	 1.376030e+00	 3.156268e-01	 1.083553e+01
1	 1.370109e+00	 3.404119e-01	 9.236175e+00
1	 1.363709e+00	 3.652100e-01	 6.946545e+00
1	 1.306887e+00	 3.499930e-01	 2.234348e+01
1	 1.300290e+00	 3.737580e-01	 1.984594e+01
1	 1.293227e+00	 3.975103e-01	 1.549112e+01
1	 1.285694e+00	 4.212369e-01	 9.377324e+00
1	 1.277690e+00	 4.449247e-01	 1.616228e+00
1	 1.269213e+00	 4.685602e-01	-7.667199e+00
1	 1.318252e+00	 3.530364e-01	 1.961658e+01
1	 1.311597e+00	 3.770080e-01	 1.684219e+01
1	 1.304472e+00	 4.009669e-01	 1.223647e+01
1	 1.296874e+00	 4.248998e-01	 5.920916e+00
1	 1.288800e+00	 4.487936e-01	-1.967847e+00
1	 1.280249e+00	 4.726347e-01	-1.127821e+01
1	 1.329616e+00	 3.560798e-01	 1.672070e+01
1	 1.322904e+00	 3.802581e-01	 1.369041e+01
1	 1.315718e+00	 4.044235e-01	 8.880442e+00
1	 1.308054e+00	 4.285628e-01	 2.428190e+00
1	 1.299911e+00	 4.526625e-01	-5.513231e+00
1	 1.291286e+00	 4.767091e-01	-1.477515e+01
1	 1.340980e+00	 3.591232e-01	 1.364845e+01
1	 1.334211e+00	 3.835082e-01	 1.040368e+01
1	 1.326963e+00	 4.078801e-01	 5.450138e+00
1	 1.319234e+00	 4.322257e-01	-1.066023e+00
1	 1.311021e+00	 4.565314e-01	-8.983439e+00
1	 1.302323e+00	 4.807835e-01	-1.812574e+01
1	 1.352344e+00	 3.621666e-01	 1.039270e+01
1	 1.345518e+00	 3.867582e-01	 6.994642e+00
1	 1.338209e+00	 4.113367e-01	 1.971747e+00
1	 1.330414e+00	 4.358886e-01	-4.528059e+00
1	 1.322131e+00	 4.604003e-01	-1.234322e+01
1	 1.313359e+00	 4.848580e-01	-2.129879e+01
1	 1.363709e+00	 3.652100e-01	 6.946545e+00
1	 1.356825e+00	 3.900083e-01	 3.475536e+00
1	 1.349454e+00	 4.147933e-01	-1.529412e+00
1	 1.341594e+00	 4.395516e-01	-7.925380e+00
1	 1.333242e+00	 4.642693e-01	-1.555848e+01
1	 1.324396e+00	 4.889324e-01	-2.426415e+01
1	 1.269213e+00	 4.685602e-01	-7.667199e+00
1	 1.260261e+00	 4.921299e-01	-1.691088e+01
1	 1.250834e+00	 5.156201e-01	-2.467029e+01
1	 1.240931e+00	 5.390170e-01	-3.099656e+01
1	 1.230553e+00	 5.623065e-01	-3.595384e+01
1	 1.219700e+00	 5.854747e-01	-3.961933e+01
1	 1.280249e+00	 4.726347e-01	-1.127821e+01
1	 1.271220e+00	 4.964093e-01	-2.049028e+01
1	 1.261711e+00	 5.201038e-01	-2.822880e+01
1	 1.251722e+00	 5.437041e-01	-3.455855e+01
1	 1.241254e+00	 5.671961e-01	-3.955848e+01
1	 1.230307e+00	 5.905658e-01	-4.332168e+01
1	 1.291286e+00	 4.767091e-01	-1.477515e+01
1	 1.282179e+00	 5.006887e-01	-2.389328e+01
1	 1.272588e+00	 5.245874e-01	-3.156630e+01
1	 1.262513e+00	 5.483912e-01	-3.786994e+01
1	 1.251954e+00	 5.720857e-01	-4.289524e+01
1	 1.240913e+00	 5.956568e-01	-4.674856e+01
1	 1.302323e+00	 4.807835e-01	-1.812574e+01
1	 1.293137e+00	 5.049681e-01	-2.709477e+01
1	 1.283464e+00	 5.290711e-01	-3.466510e+01
1	 1.273303e+00	 5.530783e-01	-4.092076e+01
1	 1.262655e+00	 5.769754e-01	-4.596234e+01
1	 1.251519e+00	 6.007479e-01	-4.990688e+01
1	 1.313359e+00	 4.848580e-01	-2.129879e+01
1	 1.304096e+00	 5.092475e-01	-3.007046e+01
1	 1.294341e+00	 5.335548e-01	-3.750806e+01
1	 1.284094e+00	 5.577654e-01	-4.370141e+01
1	 1.273355e+00	 5.818650e-01	-4.875808e+01
1	 1.262125e+00	 6.058390e-01	-5.280334e+01
1	 1.324396e+00	 4.889324e-01	-2.426415e+01
1	 1.315055e+00	 5.135269e-01	-3.279690e+01
1	 1.305218e+00	 5.380384e-01	-4.007867e+01
1	 1.294885e+00	 5.624525e-01	-4.620259e+01
1	 1.284056e+00	 5.867546e-01	-5.128080e+01
1	 1.272731e+00	 6.109301e-01	-5.544437e+01
1	 1.219700e+00	 5.854747e-01	-3.961933e+01
1	 1.208374e+00	 6.085074e-01	-4.243639e+01
1	 1.196577e+00	 6.313907e-01	-4.481078e+01
1	 1.184310e+00	 6.541102e-01	-4.677280e+01
1	 1.171577e+00	 6.766520e-01	-4.835213e+01
1	 1.158381e+00	 6.990020e-01	-4.957759e+01
1	 1.230307e+00	 5.905658e-01	-4.332168e+01
1	 1.218882e+00	 6.137988e-01	-4.627215e+01
1	 1.206982e+00	 6.368810e-01	-4.878695e+01
1	 1.194608e+00	 6.597982e-01	-5.090014e+01
1	 1.181764e+00	 6.825360e-01	-5.264665e+01
1	 1.168454e+00	 7.050803e-01	-5.406217e+01
1	 1.240913e+00	 5.956568e-01	-4.674856e+01
1	 1.229390e+00	 6.190902e-01	-4.983268e+01
1	 1.217387e+00	 6.423714e-01	-5.249387e+01
1	 1.204906e+00	 6.654861e-01	-5.476632e+01
1	 1.191952e+00	 6.884199e-01	-5.668565e+01
1	 1.178527e+00	 7.111586e-01	-5.828877e+01
1	 1.251519e+00	 6.007479e-01	-4.990688e+01
1	 1.239897e+00	 6.243816e-01	-5.313105e+01
1	 1.227792e+00	 6.478617e-01	-5.594522e+01
1	 1.215205e+00	 6.711740e-01	-5.838017e+01
1	 1.202140e+00	 6.943038e-01	-6.046766e+01
1	 1.188599e+00	 7.172369e-01	-6.224040e+01
1	 1.262125e+00	 6.058390e-01	-5.280334e+01
1	 1.250405e+00	 6.296729e-01	-5.617990e+01
1	 1.238197e+00	 6.533521e-01	-5.915423e+01
1	 1.225503e+00	 6.768619e-01	-6.175018e+01
1	 1.212327e+00	 7.001878e-01	-6.399128e+01
1	 1.198672e+00	 7.233151e-01	-6.590062e+01
1	 1.272731e+00	 6.109301e-01	-5.544437e+01
1	 1.260912e+00	 6.349643e-01	-5.899145e+01
1	 1.248602e+00	 6.588424e-01	-6.213367e+01
1	 1.235801e+00	 6.825498e-01	-6.488458e+01
1	 1.222515e+00	 7.060717e-01	-6.725513e+01
1	 1.208745e+00	 7.293934e-01	-6.925355e+01
1	 1.158381e+00	 6.990020e-01	-4.957759e+01
1	 1.144726e+00	 7.211462e-01	-5.106045e+01
1	 1.130617e+00	 7.430707e-01	-5.334087e+01
1	 1.116060e+00	 7.647617e-01	-5.633241e+01
1	 1.101059e+00	 7.862057e-01	-5.993810e+01
1	 1.085621e+00	 8.073893e-01	-6.405080e+01
1	 1.168454e+00	 7.050803e-01	-5.406217e+01
1	 1.154680e+00	 7.274170e-01	-5.573673e+01
1	 1.140449e+00	 7.495322e-01	-5.817706e+01
1	 1.125765e+00	 7.714118e-01	-6.128501e+01
1	 1.110633e+00	 7.930423e-01	-6.495024e+01
1	 1.095061e+00	 8.144100e-01	-6.905064e+01
1	 1.178527e+00	 7.111586e-01	-5.828877e+01
1	 1.164634e+00	 7.336879e-01	-6.013402e+01
1	 1.150280e+00	 7.559937e-01	-6.269178e+01
1	 1.135469e+00	 7.780619e-01	-6.585831e+01
1	 1.120208e+00	 7.998789e-01	-6.951724e+01
1	 1.104501e+00	 8.214308e-01	-7.354009e+01
1	 1.188599e+00	 7.172369e-01	-6.224040e+01
1	 1.174589e+00	 7.399587e-01	-6.422070e+01
1	 1.160112e+00	 7.624551e-01	-6.684581e+01
1	 1.145174e+00	 7.847120e-01	-7.001230e+01
1	 1.129782e+00	 8.067154e-01	-7.360498e+01
1	 1.113941e+00	 8.284516e-01	-7.749733e+01
1	 1.198672e+00	 7.233151e-01	-6.590062e+01
1	 1.184543e+00	 7.462295e-01	-6.796625e+01
1	 1.169943e+00	 7.689166e-01	-7.060125e+01
1	 1.154879e+00	 7.913621e-01	-7.370832e+01
1	 1.139356e+00	 8.135520e-01	-7.718046e+01
1	 1.123381e+00	 8.354724e-01	-8.090129e+01
1	 1.208745e+00	 7.293934e-01	-6.925355e+01
1	 1.194497e+00	 7.525004e-01	-7.134114e+01
1	 1.179775e+00	 7.753781e-01	-7.392146e+01
1	 1.164584e+00	 7.980122e-01	-7.690902e+01
1	 1.148931e+00	 8.203886e-01	-8.021179e+01
1	 1.132822e+00	 8.424932e-01	-8.373160e+01
1	 1.085621e+00	 8.073893e-01	-6.405080e+01
1	 1.069752e+00	 8.282991e-01	-6.830167e+01
1	 1.053461e+00	 8.489224e-01	-7.231331e+01
1	 1.036755e+00	 8.692463e-01	-7.595264e+01
1	 1.019642e+00	 8.892584e-01	-7.907959e+01
1	 1.002131e+00	 9.089466e-01	-8.154784e+01
1	 1.095061e+00	 8.144100e-01	-6.905064e+01
1	 1.079055e+00	 8.355017e-01	-7.320904e+01
1	 1.062622e+00	 8.563043e-01	-7.705267e+01
1	 1.045770e+00	 8.768049e-01	-8.045233e+01
1	 1.028508e+00	 8.969911e-01	-8.327259e+01
1	 1.010845e+00	 9.168505e-01	-8.537244e+01
1	 1.104501e+00	 8.214308e-01	-7.354009e+01
1	 1.088357e+00	 8.427043e-01	-7.755422e+01
1	 1.071782e+00	 8.636862e-01	-8.120121e+01
1	 1.054785e+00	 8.843636e-01	-8.436033e+01
1	 1.037375e+00	 9.047237e-01	-8.690508e+01
1	 1.019559e+00	 9.247544e-01	-8.870387e+01
1	 1.113941e+00	 8.284516e-01	-7.749733e+01
1	 1.097659e+00	 8.499069e-01	-8.133026e+01
1	 1.080943e+00	 8.710682e-01	-8.476562e+01
1	 1.063801e+00	 8.919223e-01	-8.769557e+01
1	 1.046241e+00	 9.124564e-01	-9.000681e+01
1	 1.028273e+00	 9.326583e-01	-9.158114e+01
1	 1.123381e+00	 8.354724e-01	-8.090129e+01
1	 1.106961e+00	 8.571095e-01	-8.453049e+01
1	 1.090103e+00	 8.784501e-01	-8.775236e+01
1	 1.072816e+00	 8.994809e-01	-9.047636e+01
1	 1.055108e+00	 9.201891e-01	-9.260653e+01
1	 1.036987e+00	 9.405622e-01	-9.404195e+01
1	 1.132822e+00	 8.424932e-01	-8.373160e+01
1	 1.116263e+00	 8.643121e-01	-8.714845e+01
1	 1.099264e+00	 8.858320e-01	-9.016771e+01
1	 1.081831e+00	 9.070396e-01	-9.272042e+01
1	 1.063974e+00	 9.279218e-01	-9.473202e+01
1	 1.045702e+00	 9.484660e-01	-9.612274e+01
1	 1.002131e+00	 9.089466e-01	-8.154784e+01
1	 9.842309e-01	 9.282992e-01	-8.319114e+01
1	 9.659522e-01	 9.473047e-01	-8.405967e+01
1	 9.473047e-01	 9.659522e-01	-8.433787e+01
1	 9.282992e-01	 9.842309e-01	-8.422317e+01
1	 9.089466e-01	 1.002131e+00	-8.392479e+01
1	 1.010845e+00	 9.168505e-01	-8.537244e+01
1	 9.927894e-01	 9.363714e-01	-8.665021e+01
1	 9.743517e-01	 9.555422e-01	-8.723023e+01
1	 9.555422e-01	 9.743517e-01	-8.731832e+01
1	 9.363714e-01	 9.927894e-01	-8.713471e+01
1	 9.168505e-01	 1.010845e+00	-8.691272e+01
1	 1.019559e+00	 9.247544e-01	-8.870387e+01
1	 1.001348e+00	 9.444435e-01	-8.971957e+01
1	 9.827513e-01	 9.637796e-01	-9.013192e+01
1	 9.637796e-01	 9.827513e-01	-9.014260e+01
1	 9.444435e-01	 1.001348e+00	-8.996756e+01
1	 9.247544e-01	 1.019559e+00	-8.983570e+01
1	 1.028273e+00	 9.326583e-01	-9.158114e+01
1	 1.009906e+00	 9.525157e-01	-9.244181e+01
1	 9.911509e-01	 9.720170e-01	-9.280150e+01
1	 9.720170e-01	 9.911509e-01	-9.283289e+01
1	 9.525157e-01	 1.009906e+00	-9.272124e+01
1	 9.326583e-01	 1.028273e+00	-9.266319e+01
1	 1.036987e+00	 9.405622e-01	-9.404195e+01
1	 1.018465e+00	 9.605879e-01	-9.485808e+01
1	 9.995505e-01	 9.802545e-01	-9.527450e+01
1	 9.802545e-01	 9.995505e-01	-9.541064e+01
1	 9.605879e-01	 1.018465e+00	-9.539527e+01
1	 9.405622e-01	 1.036987e+00	-9.536568e+01
1	 1.045702e+00	 9.484660e-01	-9.612274e+01
1	 1.027024e+00	 9.686600e-01	-9.700814e+01
1	 1.007950e+00	 9.884919e-01	-9.758525e+01
1	 9.884919e-01	 1.007950e+00	-9.789657e+01
1	 9.686600e-01	 1.027024e+00	-9.798923e+01
1	 9.484660e-01	 1.045702e+00	-9.791463e+01
1	 9.089466e-01	 1.002131e+00	-8.392479e+01
1	 8.892584e-01	 1.019642e+00	-8.328879e+01
1	 8.692463e-01	 1.036755e+00	-8.189399e+01
1	 8.489224e-01	 1.053461e+00	-7.955314e+01
1	 8.282991e-01	 1.069752e+00	-7.607511e+01
1	 8.073893e-01	 1.085621e+00	-7.126613e+01
1	 9.168505e-01	 1.010845e+00	-8.691272e+01
1	 8.969911e-01	 1.028508e+00	-8.645756e+01
1	 8.768049e-01	 1.045770e+00	-8.526929e+01
1	 8.563043e-01	 1.062622e+00	-8.312662e+01
1	 8.355017e-01	 1.079055e+00	-7.980172e+01
1	 8.144100e-01	 1.095061e+00	-7.506166e+01
1	 9.247544e-01	 1.019559e+00	-8.983570e+01
1	 9.047237e-01	 1.037375e+00	-8.948663e+01
1	 8.843636e-01	 1.054785e+00	-8.836131e+01
1	 8.636862e-01	 1.071782e+00	-8.624362e+01
1	 8.427043e-01	 1.088357e+00	-8.291063e+01
1	 8.214308e-01	 1.104501e+00	-7.813417e+01
1	 9.326583e-01	 1.028273e+00	-9.266319e+01
1	 9.124564e-01	 1.046241e+00	-9.232008e+01
1	 8.919223e-01	 1.063801e+00	-9.110441e+01
1	 8.710682e-01	 1.080943e+00	-8.884336e+01
1	 8.499069e-01	 1.097659e+00	-8.535955e+01
1	 8.284516e-01	 1.113941e+00	-8.047230e+01
1	 9.405622e-01	 1.036987e+00	-9.536568e+01
1	 9.201891e-01	 1.055108e+00	-9.490388e+01
1	 8.994809e-01	 1.072816e+00	-9.343515e+01
1	 8.784501e-01	 1.090103e+00	-9.086715e+01
1	 8.571095e-01	 1.106961e+00	-8.710761e+01
1	 8.354724e-01	 1.123381e+00	-8.206507e+01
1	 9.484660e-01	 1.045702e+00	-9.791463e+01
1	 9.279218e-01	 1.063974e+00	-9.718578e+01
1	 9.070396e-01	 1.081831e+00	-9.529219e+01
1	 8.858320e-01	 1.099264e+00	-9.225823e+01
1	 8.643121e-01	 1.116263e+00	-8.811530e+01
1	 8.424932e-01	 1.132822e+00	-8.290186e+01
1	 8.073893e-01	 1.085621e+00	-7.126613e+01
1	 7.862057e-01	 1.101059e+00	-6.580766e+01
1	 7.647617e-01	 1.116060e+00	-6.066407e+01
1	 7.430707e-01	 1.130617e+00	-5.607052e+01
1	 7.211462e-01	 1.144726e+00	-5.226862e+01
1	 6.990020e-01	 1.158381e+00	-4.950492e+01
1	 8.144100e-01	 1.095061e+00	-7.506166e+01
1	 7.930423e-01	 1.110633e+00	-6.960545e+01
1	 7.714118e-01	 1.125765e+00	-6.445521e+01
1	 7.495322e-01	 1.140449e+00	-5.986657e+01
1	 7.274170e-01	 1.154680e+00	-5.610283e+01
1	 7.050803e-01	 1.168454e+00	-5.343324e+01
1	 8.214308e-01	 1.104501e+00	-7.813417e+01
1	 7.998789e-01	 1.120208e+00	-7.266821e+01
1	 7.780619e-01	 1.135469e+00	-6.757892e+01
1	 7.559937e-01	 1.150280e+00	-6.310955e+01
1	 7.336879e-01	 1.164634e+00	-5.951035e+01
1	 7.111586e-01	 1.178527e+00	-5.703687e+01
1	 8.284516e-01	 1.113941e+00	-8.047230e+01
1	 8.067154e-01	 1.129782e+00	-7.501461e+01
1	 7.847120e-01	 1.145174e+00	-7.007097e+01
1	 7.624551e-01	 1.160112e+00	-6.584029e+01
1	 7.399587e-01	 1.174589e+00	-6.252591e+01
1	 7.172369e-01	 1.188599e+00	-6.033422e+01
1	 8.354724e-01	 1.123381e+00	-8.206507e+01
1	 8.135520e-01	 1.139356e+00	-7.666271e+01
1	 7.913621e-01	 1.154879e+00	-7.196593e+01
1	 7.689166e-01	 1.169943e+00	-6.809822e+01
1	 7.462295e-01	 1.184543e+00	-6.518307e+01
1	 7.233151e-01	 1.198672e+00	-6.334309e+01
1	 8.424932e-01	 1.132822e+00	-8.290186e+01
1	 8.203886e-01	 1.148931e+00	-7.762993e+01
1	 7.980122e-01	 1.164584e+00	-7.329723e+01
1	 7.753781e-01	 1.179775e+00	-6.992150e+01
1	 7.525004e-01	 1.194497e+00	-6.751427e+01
1	 7.293934e-01	 1.208745e+00	-6.608068e+01
1	 6.990020e-01	 1.158381e+00	-4.950492e+01
1	 6.766520e-01	 1.171577e+00	-4.793986e+01
1	 6.541102e-01	 1.184310e+00	-4.744247e+01
1	 6.313907e-01	 1.196577e+00	-4.781883e+01
1	 6.085074e-01	 1.208374e+00	-4.886778e+01
1	 5.854747e-01	 1.219700e+00	-5.038203e+01
1	 7.050803e-01	 1.168454e+00	-5.343324e+01
1	 6.825360e-01	 1.181764e+00	-5.198801e+01
1	 6.597982e-01	 1.194608e+00	-5.158412e+01
1	 6.368810e-01	 1.206982e+00	-5.201783e+01
1	 6.137988e-01	 1.218882e+00	-5.307753e+01
1	 5.905658e-01	 1.230307e+00	-5.454494e+01
1	 7.111586e-01	 1.178527e+00	-5.703687e+01
1	 6.884199e-01	 1.191952e+00	-5.575952e+01
1	 6.654861e-01	 1.204906e+00	-5.545023e+01
1	 6.423714e-01	 1.217387e+00	-5.591361e+01
1	 6.190902e-01	 1.229390e+00	-5.694680e+01
1	 5.956568e-01	 1.240913e+00	-5.834059e+01
1	 7.172369e-01	 1.188599e+00	-6.033422e+01
1	 6.943038e-01	 1.202140e+00	-5.925566e+01
1	 6.711740e-01	 1.215205e+00	-5.903260e+01
1	 6.478617e-01	 1.227792e+00	-5.949560e+01
1	 6.243816e-01	 1.239897e+00	-6.046922e+01
1	 6.007479e-01	 1.251519e+00	-6.177297e+01
1	 7.233151e-01	 1.198672e+00	-6.334309e+01
1	 7.001878e-01	 1.212327e+00	-6.247770e+01
1	 6.768619e-01	 1.225503e+00	-6.232327e+01
1	 6.533521e-01	 1.238197e+00	-6.275354e+01
1	 6.296729e-01	 1.250405e+00	-6.363868e+01
1	 6.058390e-01	 1.262125e+00	-6.484592e+01
1	 7.293934e-01	 1.208745e+00	-6.608068e+01
1	 7.060717e-01	 1.222515e+00	-6.542683e+01
1	 6.825498e-01	 1.235801e+00	-6.531458e+01
1	 6.588424e-01	 1.248602e+00	-6.567754e+01
1	 6.349643e-01	 1.260912e+00	-6.644922e+01
1	 6.109301e-01	 1.272731e+00	-6.756315e+01
1	 5.854747e-01	 1.219700e+00	-5.038203e+01
1	 5.623065e-01	 1.230553e+00	-5.200925e+01
1	 5.390170e-01	 1.240931e+00	-5.351253e+01
1	 5.156201e-01	 1.250834e+00	-5.485251e+01
1	 4.921299e-01	 1.260261e+00	-5.598834e+01
1	 4.685602e-01	 1.269213e+00	-5.687783e+01
1	 5.905658e-01	 1.230307e+00	-5.454494e+01
1	 5.671961e-01	 1.241254e+00	-5.607467e+01
1	 5.437041e-01	 1.251722e+00	-5.745013e+01
1	 5.201038e-01	 1.261711e+00	-5.864141e+01
1	 4.964093e-01	 1.271220e+00	-5.961795e+01
1	 4.726347e-01	 1.280249e+00	-6.034862e+01
1	 5.956568e-01	 1.240913e+00	-5.834059e+01
1	 5.720857e-01	 1.251954e+00	-5.977430e+01
1	 5.483912e-01	 1.262513e+00	-6.104873e+01
1	 5.245874e-01	 1.272588e+00	-6.213257e+01
1	 5.006887e-01	 1.282179e+00	-6.299399e+01
1	 4.767091e-01	 1.291286e+00	-6.360074e+01
1	 6.007479e-01	 1.251519e+00	-6.177297e+01
1	 5.769754e-01	 1.262655e+00	-6.312257e+01
1	 5.530783e-01	 1.273303e+00	-6.432791e+01
1	 5.290711e-01	 1.283464e+00	-6.534566e+01
1	 5.049681e-01	 1.293137e+00	-6.613150e+01
1	 4.807835e-01	 1.302323e+00	-6.664023e+01
1	 6.058390e-01	 1.262125e+00	-6.484592e+01
1	 5.818650e-01	 1.273355e+00	-6.613343e+01
1	 5.577654e-01	 1.284094e+00	-6.730656e+01
1	 5.335548e-01	 1.294341e+00	-6.829968e+01
1	 5.092475e-01	 1.304096e+00	-6.904502e+01
1	 4.848580e-01	 1.313359e+00	-6.947295e+01
1	 6.109301e-01	 1.272731e+00	-6.756315e+01
1	 5.867546e-01	 1.284056e+00	-6.882036e+01
1	 5.624525e-01	 1.294885e+00	-7.000294e+01
1	 5.380384e-01	 1.305218e+00	-7.101299e+01
1	 5.135269e-01	 1.315055e+00	-7.174863e+01
1	 4.889324e-01	 1.324396e+00	-7.210455e+01
1	 4.685602e-01	 1.269213e+00	-5.687783e+01
1	 4.449247e-01	 1.277690e+00	-5.723037e+01
1	 4.212369e-01	 1.285694e+00	-5.680316e+01
1	 3.975103e-01	 1.293227e+00	-5.562560e+01
1	 3.737580e-01	 1.300290e+00	-5.372821e+01
1	 3.499930e-01	 1.306887e+00	-5.114250e+01
1	 4.726347e-01	 1.280249e+00	-6.034862e+01
1	 4.487936e-01	 1.288800e+00	-6.055367e+01
1	 4.248998e-01	 1.296874e+00	-5.998059e+01
1	 4.009669e-01	 1.304472e+00	-5.863900e+01
1	 3.770080e-01	 1.311597e+00	-5.653902e+01
1	 3.530364e-01	 1.318252e+00	-5.369135e+01
1	 4.767091e-01	 1.291286e+00	-6.360074e+01
1	 4.526625e-01	 1.299911e+00	-6.367176e+01
1	 4.285628e-01	 1.308054e+00	-6.294909e+01
1	 4.044235e-01	 1.315718e+00	-6.143512e+01
1	 3.802581e-01	 1.322904e+00	-5.913267e+01
1	 3.560798e-01	 1.329616e+00	-5.604513e+01
1	 4.807835e-01	 1.302323e+00	-6.664023e+01
1	 4.565314e-01	 1.311021e+00	-6.658224e+01
1	 4.322257e-01	 1.319234e+00	-6.570289e+01
1	 4.078801e-01	 1.326963e+00	-6.400952e+01
1	 3.835082e-01	 1.334211e+00	-6.151042e+01
1	 3.591232e-01	 1.340980e+00	-5.821484e+01
1	 4.848580e-01	 1.313359e+00	-6.947295e+01
1	 4.604003e-01	 1.322131e+00	-6.928281e+01
1	 4.358886e-01	 1.330414e+00	-6.823639e+01
1	 4.113367e-01	 1.338209e+00	-6.635790e+01
1	 3.867582e-01	 1.345518e+00	-6.367348e+01
1	 3.621666e-01	 1.352344e+00	-6.021106e+01
1	 4.889324e-01	 1.324396e+00	-7.210455e+01
1	 4.642693e-01	 1.333242e+00	-7.177124e+01
1	 4.395516e-01	 1.341594e+00	-7.054422e+01
1	 4.147933e-01	 1.349454e+00	-6.847614e+01
1	 3.900083e-01	 1.356825e+00	-6.562304e+01
1	 3.652100e-01	 1.363709e+00	-6.204407e+01
1	 3.499930e-01	 1.306887e+00	-5.114250e+01
1	 3.262280e-01	 1.313021e+00	-4.823327e+01
1	 3.024757e-01	 1.318696e+00	-4.541202e+01
1	 2.787482e-01	 1.323914e+00	-4.278486e+01
1	 2.550574e-01	 1.328682e+00	-4.046219e+01
1	 2.314152e-01	 1.333003e+00	-3.855783e+01
1	 3.530364e-01	 1.318252e+00	-5.369135e+01
1	 3.290648e-01	 1.324439e+00	-5.047333e+01
1	 3.051059e-01	 1.330163e+00	-4.732947e+01
1	 2.811721e-01	 1.335427e+00	-4.437564e+01
1	 2.572753e-01	 1.340236e+00	-4.173235e+01
1	 2.334275e-01	 1.344594e+00	-3.952373e+01
1	 3.560798e-01	 1.329616e+00	-5.604513e+01
1	 3.319016e-01	 1.335857e+00	-5.257296e+01
1	 3.077361e-01	 1.341630e+00	-4.918268e+01
1	 2.835960e-01	 1.346939e+00	-4.598139e+01
1	 2.594932e-01	 1.351789e+00	-4.308092e+01
1	 2.354398e-01	 1.356186e+00	-4.059688e+01
1	 3.591232e-01	 1.340980e+00	-5.821484e+01
1	 3.347383e-01	 1.347274e+00	-5.455248e+01
1	 3.103664e-01	 1.353096e+00	-5.099715e+01
1	 2.860199e-01	 1.358451e+00	-4.762909e+01
1	 2.617111e-01	 1.363343e+00	-4.453318e+01
1	 2.374521e-01	 1.367777e+00	-4.179820e+01
1	 3.621666e-01	 1.352344e+00	-6.021106e+01
1	 3.375751e-01	 1.358692e+00	-5.643151e+01
1	 3.129966e-01	 1.364563e+00	-5.279751e+01
1	 2.884438e-01	 1.369964e+00	-4.934480e+01
1	 2.639290e-01	 1.374897e+00	-4.611358e+01
1	 2.394644e-01	 1.379368e+00	-4.314788e+01
1	 3.652100e-01	 1.363709e+00	-6.204407e+01
1	 3.404119e-01	 1.370109e+00	-5.822905e+01
1	 3.156268e-01	 1.376030e+00	-5.460757e+01
1	 2.908676e-01	 1.381476e+00	-5.115374e+01
1	 2.661469e-01	 1.386451e+00	-4.784573e+01
1	 2.414767e-01	 1.390960e+00	-4.466548e+01
1	 2.314152e-01	 1.333003e+00	-3.855783e+01
1	 2.078328e-01	 1.336883e+00	-3.600493e+01
1	 1.843214e-01	 1.340327e+00	-3.193728e+01
1	 1.608916e-01	 1.343341e+00	-2.677129e+01
1	 1.375538e-01	 1.345930e+00	-2.092195e+01
1	 1.143182e-01	 1.348103e+00	-1.480176e+01
1	 2.334275e-01	 1.344594e+00	-3.952373e+01
1	 2.096401e-01	 1.348508e+00	-3.669311e+01
1	 1.859241e-01	 1.351982e+00	-3.236961e+01
1	 1.622906e-01	 1.355022e+00	-2.695856e+01
1	 1.387499e-01	 1.357634e+00	-2.086478e+01
1	 1.153123e-01	 1.359825e+00	-1.449154e+01
1	 2.354398e-01	 1.356186e+00	-4.059688e+01
1	 2.114473e-01	 1.360133e+00	-3.747213e+01
1	 1.875269e-01	 1.363637e+00	-3.284590e+01
1	 1.636897e-01	 1.366703e+00	-2.713139e+01
1	 1.399461e-01	 1.369338e+00	-2.074178e+01
1	 1.163064e-01	 1.371548e+00	-1.408907e+01
1	 2.374521e-01	 1.367777e+00	-4.179820e+01
1	 2.132545e-01	 1.371758e+00	-3.835763e+01
1	 1.891297e-01	 1.375292e+00	-3.337670e+01
1	 1.650887e-01	 1.378384e+00	-2.729499e+01
1	 1.411422e-01	 1.381042e+00	-2.055206e+01
1	 1.173004e-01	 1.383271e+00	-1.358620e+01
1	 2.394644e-01	 1.379368e+00	-4.314788e+01
1	 2.150618e-01	 1.383383e+00	-3.936471e+01
1	 1.907325e-01	 1.386947e+00	-3.397223e+01
1	 1.664878e-01	 1.390065e+00	-2.745441e+01
1	 1.423383e-01	 1.392745e+00	-2.029481e+01
1	 1.182945e-01	 1.394993e+00	-1.297505e+01
1	 2.414767e-01	 1.390960e+00	-4.466548e+01
1	 2.168690e-01	 1.395008e+00	-4.050799e+01
1	 1.923353e-01	 1.398602e+00	-3.464235e+01
1	 1.678868e-01	 1.401747e+00	-2.761453e+01
1	 1.435344e-01	 1.404449e+00	-1.996922e+01
1	 1.192886e-01	 1.406716e+00	-1.224798e+01
1	 1.143182e-01	 1.348103e+00	-1.480176e+01
1	 9.119446e-02	 1.349864e+00	-1.063648e+01
1	 6.819193e-02	 1.351222e+00	-9.689999e+00
1	 4.531964e-02	 1.352182e+00	-1.093203e+01
1	 2.258623e-02	 1.352753e+00	-1.333799e+01
1	 0.000000e+00	 1.352941e+00	-1.589177e+01
1	 1.153123e-01	 1.359825e+00	-1.449154e+01
1	 9.198745e-02	 1.361602e+00	-9.979917e+00
1	 6.878491e-02	 1.362971e+00	-8.533960e+00
1	 4.571372e-02	 1.363940e+00	-9.149810e+00
1	 2.278263e-02	 1.364516e+00	-1.082632e+01
1	 0.000000e+00	 1.364706e+00	-1.256784e+01
1	 1.163064e-01	 1.371548e+00	-1.408907e+01
1	 9.278045e-02	 1.373340e+00	-9.231849e+00
1	 6.937788e-02	 1.374721e+00	-7.294361e+00
1	 4.610781e-02	 1.375698e+00	-7.284405e+00
1	 2.297904e-02	 1.376279e+00	-8.210583e+00
1	 0.000000e+00	 1.376471e+00	-9.085180e+00
1	 1.173004e-01	 1.383271e+00	-1.358620e+01
1	 9.357345e-02	 1.385078e+00	-8.378571e+00
1	 6.997085e-02	 1.386471e+00	-5.957197e+00
1	 4.650189e-02	 1.387456e+00	-5.327089e+00
1	 2.317544e-02	 1.388042e+00	-5.493247e+00
1	 0.000000e+00	 1.388235e+00	-5.463621e+00
1	 1.182945e-01	 1.394993e+00	-1.297505e+01
1	 9.436644e-02	 1.396816e+00	-7.406840e+00
1	 7.056383e-02	 1.398221e+00	-4.508934e+00
1	 4.689598e-02	 1.399214e+00	-3.269429e+00
1	 2.337184e-02	 1.399805e+00	-2.676678e+00
1	 0.000000e+00	 1.400000e+00	-1.722328e+00
1	 1.192886e-01	 1.406716e+00	-1.224798e+01
1	 9.515944e-02	 1.408554e+00	-6.303857e+00
1	 7.115680e-02	 1.409970e+00	-2.936489e+00
1	 4.729006e-02	 1.410972e+00	-1.103275e+00
1	 2.356824e-02	 1.411568e+00	 2.368327e-01
1	 0.000000e+00	 1.411765e+00	 2.120176e+00
1	 1.411765e+00	 0.000000e+00	-1.248951e+01
1	 1.411568e+00	 2.356824e-02	-1.571151e+01
1	 1.410972e+00	 4.729006e-02	-1.661299e+01
1	 1.409970e+00	 7.115680e-02	-1.515009e+01
1	 1.408554e+00	 9.515944e-02	-1.132876e+01
1	 1.406716e+00	 1.192886e-01	-5.207622e+00
1	 1.423529e+00	 0.000000e+00	-1.302276e+01
1	 1.423331e+00	 2.376465e-02	-1.537800e+01
1	 1.422731e+00	 4.768414e-02	-1.582423e+01
1	 1.421720e+00	 7.174977e-02	-1.430567e+01
1	 1.420292e+00	 9.595243e-02	-1.081981e+01
1	 1.418439e+00	 1.202826e-01	-5.420564e+00
1	 1.435294e+00	 0.000000e+00	-1.347741e+01
1	 1.435094e+00	 2.396105e-02	-1.498142e+01
1	 1.434489e+00	 4.807823e-02	-1.494811e+01
1	 1.433470e+00	 7.234275e-02	-1.333236e+01
1	 1.432030e+00	 9.674543e-02	-1.014568e+01
1	 1.430161e+00	 1.212767e-01	-5.459457e+00
1	 1.447059e+00	 0.000000e+00	-1.383997e+01
1	 1.446857e+00	 2.415745e-02	-1.452658e+01
1	 1.446247e+00	 4.847231e-02	-1.400289e+01
1	 1.445220e+00	 7.293572e-02	-1.225642e+01
1	 1.443768e+00	 9.753842e-02	-9.334563e+00
1	 1.441884e+00	 1.222708e-01	-5.347813e+00
1	 1.458824e+00	 0.000000e+00	-1.409733e+01
1	 1.458620e+00	 2.435385e-02	-1.401815e+01
1	 1.458005e+00	 4.886639e-02	-1.300627e+01
1	 1.456969e+00	 7.352869e-02	-1.110328e+01
1	 1.455506e+00	 9.833142e-02	-8.413751e+00
1	 1.453607e+00	 1.232649e-01	-5.108387e+00
1	 1.470588e+00	 0.000000e+00	-1.423684e+01
1	 1.470383e+00	 2.455025e-02	-1.346066e+01
1	 1.469763e+00	 4.926048e-02	-1.197537e+01
1	 1.468719e+00	 7.412167e-02	-9.897529e+00
1	 1.467244e+00	 9.912441e-02	-7.409660e+00
1	 1.465329e+00	 1.242589e-01	-4.763204e+00
1	 1.406716e+00	 1.192886e-01	-5.207622e+00
1	 1.404449e+00	 1.435344e-01	 1.227327e+00
1	 1.401747e+00	 1.678868e-01	 6.096430e+00
1	 1.398602e+00	 1.923353e-01	 9.480443e+00
1	 1.395008e+00	 2.168690e-01	 1.148894e+01
1	 1.390960e+00	 2.414767e-01	 1.226113e+01
1	 1.418439e+00	 1.202826e-01	-5.420564e+00
1	 1.416153e+00	 1.447305e-01	 1.854982e-01
1	 1.413428e+00	 1.692859e-01	 4.390817e+00
1	 1.410257e+00	 1.939381e-01	 7.267147e+00
1	 1.406633e+00	 2.186763e-01	 8.915322e+00
1	 1.402551e+00	 2.434890e-01	 9.466139e+00
1	 1.430161e+00	 1.212767e-01	-5.459457e+00
1	 1.427857e+00	 1.459267e-01	-7.027154e-01
1	 1.425109e+00	 1.706849e-01	 2.806067e+00
1	 1.421912e+00	 1.955409e-01	 5.136567e+00
1	 1.418258e+00	 2.204835e-01	 6.388632e+00
1	 1.414142e+00	 2.455013e-01	 6.693210e+00
1	 1.441884e+00	 1.222708e-01	-5.347813e+00
1	 1.439560e+00	 1.471228e-01	-1.450408e+00
1	 1.436790e+00	 1.720840e-01	 1.343883e+00
1	 1.433567e+00	 1.971437e-01	 3.109451e+00
1	 1.429883e+00	 2.222908e-01	 3.952768e+00
1	 1.425734e+00	 2.475137e-01	 4.013363e+00
1	 1.453607e+00	 1.232649e-01	-5.108387e+00
1	 1.451264e+00	 1.483189e-01	-2.070251e+00
1	 1.448472e+00	 1.734831e-01	 5.909775e-03
1	 1.445222e+00	 1.987465e-01	 1.205877e+00
1	 1.441508e+00	 2.240980e-01	 1.650219e+00
1	 1.437325e+00	 2.495260e-01	 1.495321e+00
1	 1.465329e+00	 1.242589e-01	-4.763204e+00
1	 1.462968e+00	 1.495150e-01	-2.574509e+00
1	 1.460153e+00	 1.748821e-01	-1.206256e+00
1	 1.456877e+00	 2.003493e-01	-5.547192e-01
1	 1.453133e+00	 2.259052e-01	-4.778889e-01
1	 1.448916e+00	 2.515383e-01	-7.943909e-01
1	 1.390960e+00	 2.414767e-01	 1.226113e+01
1	 1.386451e+00	 2.661469e-01	 1.226857e+01
1	 1.381476e+00	 2.908676e-01	 1.182022e+01
1	 1.376030e+00	 3.156268e-01	 1.083553e+01
1	 1.370109e+00	 3.404119e-01	 9.236175e+00
1	 1.363709e+00	 3.652100e-01	 6.946545e+00
1	 1.402551e+00	 2.434890e-01	 9.466139e+00
1	 1.398004e+00	 2.683648e-01	 9.314702e+00
1	 1.392988e+00	 2.932915e-01	 8.705505e+00
1	 1.387497e+00	 3.182570e-01	 7.570788e+00
1	 1.381527e+00	 3.432486e-01	 5.849137e+00
1	 1.375073e+00	 3.682535e-01	 3.486055e+00
1	 1.414142e+00	 2.455013e-01	 6.693210e+00
1	 1.409558e+00	 2.705827e-01	 6.381217e+00
1	 1.404500e+00	 2.957154e-01	 5.634803e+00
1	 1.398964e+00	 3.208872e-01	 4.390993e+00
1	 1.392944e+00	 3.460854e-01	 2.594488e+00
1	 1.386437e+00	 3.712969e-01	 1.982638e-01
1	 1.425734e+00	 2.475137e-01	 4.013363e+00
1	 1.421112e+00	 2.728006e-01	 3.559821e+00
1	 1.416013e+00	 2.981393e-01	 2.703871e+00
1	 1.410431e+00	 3.235175e-01	 1.379434e+00
1	 1.404362e+00	 3.489222e-01	-4.733120e-01
1	 1.397801e+00	 3.743403e-01	-2.907354e+00
1	 1.437325e+00	 2.495260e-01	 1.495321e+00
1	 1.432666e+00	 2.750185e-01	 9.392586e-01
1	 1.427525e+00	 3.005632e-01	 5.378187e-03
1	 1.421898e+00	 3.261477e-01	-1.383288e+00
1	 1.415780e+00	 3.517589e-01	-3.301561e+00
1	 1.409166e+00	 3.773837e-01	-5.821630e+00
1	 1.448916e+00	 2.515383e-01	-7.943909e-01
1	 1.444219e+00	 2.772364e-01	-1.394563e+00
1	 1.439037e+00	 3.029871e-01	-2.370974e+00
1	 1.433365e+00	 3.287779e-01	-3.819150e+00
1	 1.427197e+00	 3.545957e-01	-5.839244e+00
1	 1.420530e+00	 3.804271e-01	-8.535689e+00
1	 1.363709e+00	 3.652100e-01	 6.946545e+00
1	 1.356825e+00	 3.900083e-01	 3.475536e+00
1	 1.349454e+00	 4.147933e-01	-1.529412e+00
1	 1.341594e+00	 4.395516e-01	-7.925380e+00
1	 1.333242e+00	 4.642693e-01	-1.555848e+01
1	 1.324396e+00	 4.889324e-01	-2.426415e+01
1	 1.375073e+00	 3.682535e-01	 3.486055e+00
1	 1.368132e+00	 3.932584e-01	 1.010515e-02
1	 1.360699e+00	 4.182499e-01	-4.928243e+00
1	 1.352774e+00	 4.432145e-01	-1.118790e+01
1	 1.344352e+00	 4.681382e-01	-1.861844e+01
1	 1.335433e+00	 4.930068e-01	-2.706041e+01
1	 1.386437e+00	 3.712969e-01	 1.982638e-01
1	 1.379438e+00	 3.965084e-01	-3.269525e+00
1	 1.371945e+00	 4.217065e-01	-8.157912e+00
1	 1.363954e+00	 4.468774e-01	-1.431482e+01
1	 1.355462e+00	 4.720071e-01	-2.157732e+01
1	 1.346469e+00	 4.970813e-01	-2.977197e+01
1	 1.397801e+00	 3.743403e-01	-2.907354e+00
1	 1.390745e+00	 3.997585e-01	-6.397995e+00
1	 1.383190e+00	 4.251632e-01	-1.127961e+01
1	 1.375134e+00	 4.505404e-01	-1.737657e+01
1	 1.366573e+00	 4.758760e-01	-2.449783e+01
1	 1.357506e+00	 5.011557e-01	-3.243722e+01
1	 1.409166e+00	 3.773837e-01	-5.821630e+00
1	 1.402052e+00	 4.030086e-01	-9.408829e+00
1	 1.394436e+00	 4.286198e-01	-1.435253e+01
1	 1.386314e+00	 4.542033e-01	-2.044131e+01
1	 1.377683e+00	 4.797449e-01	-2.744065e+01
1	 1.368543e+00	 5.052302e-01	-3.509331e+01
1	 1.420530e+00	 3.804271e-01	-8.535689e+00
1	 1.413359e+00	 4.062586e-01	-1.233448e+01
1	 1.405681e+00	 4.320764e-01	-1.743401e+01
1	 1.397494e+00	 4.578662e-01	-2.357501e+01
1	 1.388794e+00	 4.836138e-01	-3.046451e+01
1	 1.379579e+00	 5.093046e-01	-3.777619e+01
1	 1.324396e+00	 4.889324e-01	-2.426415e+01
1	 1.315055e+00	 5.135269e-01	-3.279690e+01
1	 1.305218e+00	 5.380384e-01	-4.007867e+01
1	 1.294885e+00	 5.624525e-01	-4.620259e+01
1	 1.284056e+00	 5.867546e-01	-5.128080e+01
1	 1.272731e+00	 6.109301e-01	-5.544437e+01
1	 1.335433e+00	 4.930068e-01	-2.706041e+01
1	 1.326014e+00	 5.178063e-01	-3.533951e+01
1	 1.316095e+00	 5.425221e-01	-4.244792e+01
1	 1.305676e+00	 5.671396e-01	-4.848514e+01
1	 1.294756e+00	 5.916442e-01	-5.357157e+01
1	 1.283337e+00	 6.160212e-01	-5.784857e+01
1	 1.346469e+00	 4.970813e-01	-2.977197e+01
1	 1.336973e+00	 5.220857e-01	-3.778550e+01
1	 1.326972e+00	 5.470057e-01	-4.468936e+01
1	 1.316466e+00	 5.718267e-01	-5.059769e+01
1	 1.305456e+00	 5.965338e-01	-5.564893e+01
1	 1.293943e+00	 6.211123e-01	-6.000571e+01
1	 1.357506e+00	 5.011557e-01	-3.243722e+01
1	 1.347931e+00	 5.263651e-01	-4.014446e+01
1	 1.337849e+00	 5.514894e-01	-4.679092e+01
1	 1.327257e+00	 5.765138e-01	-5.251356e+01
1	 1.316157e+00	 6.014235e-01	-5.747827e+01
1	 1.304549e+00	 6.262034e-01	-6.187977e+01
1	 1.368543e+00	 5.052302e-01	-3.509331e+01
1	 1.358890e+00	 5.306445e-01	-4.242563e+01
1	 1.348725e+00	 5.559730e-01	-4.874094e+01
1	 1.338048e+00	 5.812009e-01	-5.420690e+01
1	 1.326857e+00	 6.063131e-01	-5.902611e+01
1	 1.315155e+00	 6.312944e-01	-6.343590e+01
1	 1.379579e+00	 5.093046e-01	-3.777619e+01
1	 1.369849e+00	 5.349239e-01	-4.463798e+01
1	 1.359602e+00	 5.604567e-01	-5.052812e+01
1	 1.348838e+00	 5.858880e-01	-5.565270e+01
1	 1.337558e+00	 6.112027e-01	-6.026003e+01
1	 1.325761e+00	 6.363855e-01	-6.464037e+01
1	 1.272731e+00	 6.109301e-01	-5.544437e+01
1	 1.260912e+00	 6.349643e-01	-5.899145e+01
1	 1.248602e+00	 6.588424e-01	-6.213367e+01
1	 1.235801e+00	 6.825498e-01	-6.488458e+01
1	 1.222515e+00	 7.060717e-01	-6.725513e+01
1	 1.208745e+00	 7.293934e-01	-6.925355e+01
1	 1.283337e+00	 6.160212e-01	-5.784857e+01
1	 1.271420e+00	 6.402557e-01	-6.156273e+01
1	 1.259007e+00	 6.643328e-01	-6.485981e+01
1	 1.246100e+00	 6.882377e-01	-6.774169e+01
1	 1.232702e+00	 7.119556e-01	-7.020517e+01
1	 1.218818e+00	 7.354717e-01	-7.224186e+01
1	 1.293943e+00	 6.211123e-01	-6.000571e+01
1	 1.281928e+00	 6.455470e-01	-6.386036e+01
1	 1.269412e+00	 6.698231e-01	-6.728220e+01
1	 1.256398e+00	 6.939256e-01	-7.026208e+01
1	 1.242890e+00	 7.178396e-01	-7.278376e+01
1	 1.228891e+00	 7.415500e-01	-7.482389e+01
1	 1.304549e+00	 6.262034e-01	-6.187977e+01
1	 1.292435e+00	 6.508384e-01	-6.585147e+01
1	 1.279817e+00	 6.753135e-01	-6.937393e+01
1	 1.266697e+00	 6.996136e-01	-7.242761e+01
1	 1.253078e+00	 7.237235e-01	-7.498437e+01
1	 1.238964e+00	 7.476282e-01	-7.700750e+01
1	 1.315155e+00	 6.312944e-01	-6.343590e+01
1	 1.302943e+00	 6.561298e-01	-6.750425e+01
1	 1.290222e+00	 6.808039e-01	-7.110895e+01
1	 1.276995e+00	 7.053015e-01	-7.422072e+01
1	 1.263265e+00	 7.296074e-01	-7.680066e+01
1	 1.249037e+00	 7.537065e-01	-7.880029e+01
1	 1.325761e+00	 6.363855e-01	-6.464037e+01
1	 1.313450e+00	 6.614211e-01	-6.878791e+01
1	 1.300627e+00	 6.862942e-01	-7.246206e+01
1	 1.287293e+00	 7.109894e-01	-7.562444e+01
1	 1.273453e+00	 7.354913e-01	-7.822651e+01
1	 1.259110e+00	 7.597848e-01	-8.020963e+01
1	 1.208745e+00	 7.293934e-01	-6.925355e+01
1	 1.194497e+00	 7.525004e-01	-7.134114e+01
1	 1.179775e+00	 7.753781e-01	-7.392146e+01
1	 1.164584e+00	 7.980122e-01	-7.690902e+01
1	 1.148931e+00	 8.203886e-01	-8.021179e+01
1	 1.132822e+00	 8.424932e-01	-8.373160e+01
1	 1.218818e+00	 7.354717e-01	-7.224186e+01
1	 1.204451e+00	 7.587712e-01	-7.430021e+01
1	 1.189606e+00	 7.818396e-01	-7.678917e+01
1	 1.174289e+00	 8.046623e-01	-7.963448e+01
1	 1.158505e+00	 8.272252e-01	-8.275846e+01
1	 1.142262e+00	 8.495139e-01	-8.608035e+01
1	 1.228891e+00	 7.415500e-01	-7.482389e+01
1	 1.214405e+00	 7.650421e-01	-7.683119e+01
1	 1.199438e+00	 7.883011e-01	-7.922805e+01
1	 1.183994e+00	 8.113124e-01	-8.194484e+01
1	 1.168080e+00	 8.340617e-01	-8.491031e+01
1	 1.151702e+00	 8.565347e-01	-8.805194e+01
1	 1.238964e+00	 7.476282e-01	-7.700750e+01
1	 1.224359e+00	 7.713129e-01	-7.895410e+01
1	 1.209269e+00	 7.947626e-01	-8.126310e+01
1	 1.193699e+00	 8.179625e-01	-8.386306e+01
1	 1.177654e+00	 8.408983e-01	-8.668146e+01
1	 1.161142e+00	 8.635555e-01	-8.964499e+01
1	 1.249037e+00	 7.537065e-01	-7.880029e+01
1	 1.234313e+00	 7.775837e-01	-8.068830e+01
1	 1.219101e+00	 8.012240e-01	-8.291851e+01
1	 1.203404e+00	 8.246126e-01	-8.541141e+01
1	 1.187229e+00	 8.477349e-01	-8.808558e+01
1	 1.170582e+00	 8.705763e-01	-9.085815e+01
1	 1.259110e+00	 7.597848e-01	-8.020963e+01
1	 1.244268e+00	 7.838546e-01	-8.205255e+01
1	 1.228932e+00	 8.076855e-01	-8.421772e+01
1	 1.213108e+00	 8.312627e-01	-8.661140e+01
1	 1.196803e+00	 8.545714e-01	-8.913591e+01
1	 1.180023e+00	 8.775970e-01	-9.169013e+01
1	 1.132822e+00	 8.424932e-01	-8.373160e+01
1	 1.116263e+00	 8.643121e-01	-8.714845e+01
1	 1.099264e+00	 8.858320e-01	-9.016771e+01
1	 1.081831e+00	 9.070396e-01	-9.272042e+01
1	 1.063974e+00	 9.279218e-01	-9.473202e+01
1	 1.045702e+00	 9.484660e-01	-9.612274e+01
1	 1.142262e+00	 8.495139e-01	-8.608035e+01
1	 1.125566e+00	 8.715148e-01	-8.929240e+01
1	 1.108424e+00	 8.932140e-01	-9.211735e+01
1	 1.090846e+00	 9.145982e-01	-9.451402e+01
1	 1.072840e+00	 9.356545e-01	-9.643588e+01
1	 1.054416e+00	 9.563699e-01	-9.783131e+01
1	 1.151702e+00	 8.565347e-01	-8.805194e+01
1	 1.134868e+00	 8.787174e-01	-9.106307e+01
1	 1.117585e+00	 9.005959e-01	-9.368426e+01
1	 1.099862e+00	 9.221569e-01	-9.591014e+01
1	 1.081707e+00	 9.433872e-01	-9.773130e+01
1	 1.063130e+00	 9.642738e-01	-9.913438e+01
1	 1.161142e+00	 8.635555e-01	-8.964499e+01
1	 1.144170e+00	 8.859200e-01	-9.244324e+01
1	 1.126746e+00	 9.079778e-01	-9.484113e+01
1	 1.108877e+00	 9.297156e-01	-9.687687e+01
1	 1.090573e+00	 9.511198e-01	-9.858706e+01
1	 1.071844e+00	 9.721777e-01	-1.000065e+02
1	 1.170582e+00	 8.705763e-01	-9.085815e+01
1	 1.153472e+00	 8.931226e-01	-9.341627e+01
1	 1.135906e+00	 9.153598e-01	-9.556150e+01
1	 1.117892e+00	 9.372742e-01	-9.738332e+01
1	 1.099440e+00	 9.588525e-01	-9.897295e+01
1	 1.080558e+00	 9.800816e-01	-1.004230e+02
1	 1.180023e+00	 8.775970e-01	-9.169013e+01
1	 1.162774e+00	 9.003252e-01	-9.396602e+01
1	 1.145067e+00	 9.227417e-01	-9.581980e+01
1	 1.126908e+00	 9.448329e-01	-9.739960e+01
1	 1.108306e+00	 9.665852e-01	-9.885974e+01
1	 1.089272e+00	 9.879855e-01	-1.003600e+02
1	 1.045702e+00	 9.484660e-01	-9.612274e+01
1	 1.027024e+00	 9.686600e-01	-9.700814e+01
1	 1.007950e+00	 9.884919e-01	-9.758525e+01
1	 9.884919e-01	 1.007950e+00	-9.789657e+01
1	 9.686600e-01	 1.027024e+00	-9.798923e+01
1	 9.484660e-01	 1.045702e+00	-9.791463e+01
1	 1.054416e+00	 9.563699e-01	-9.783131e+01
1	 1.035582e+00	 9.767322e-01	-9.884518e+01
1	 1.016350e+00	 9.967293e-01	-9.962839e+01
1	 9.967293e-01	 1.016350e+00	-1.001341e+02
1	 9.767322e-01	 1.035582e+00	-1.003146e+02
1	 9.563699e-01	 1.054416e+00	-1.001218e+02
1	 1.063130e+00	 9.642738e-01	-9.913438e+01
1	 1.044141e+00	 9.848044e-01	-1.002849e+02
1	 1.024749e+00	 1.004967e+00	-1.012706e+02
1	 1.004967e+00	 1.024749e+00	-1.019538e+02
1	 9.848044e-01	 1.044141e+00	-1.021907e+02
1	 9.642738e-01	 1.063130e+00	-1.018320e+02
1	 1.071844e+00	 9.721777e-01	-1.000065e+02
1	 1.052699e+00	 9.928765e-01	-1.013101e+02
1	 1.033149e+00	 1.013204e+00	-1.025035e+02
1	 1.013204e+00	 1.033149e+00	-1.033567e+02
1	 9.928765e-01	 1.052699e+00	-1.036283e+02
1	 9.721777e-01	 1.071844e+00	-1.030663e+02
1	 1.080558e+00	 9.800816e-01	-1.004230e+02
1	 1.061258e+00	 1.000949e+00	-1.019044e+02
1	 1.041548e+00	 1.021442e+00	-1.033192e+02
1	 1.021442e+00	 1.041548e+00	-1.043439e+02
1	 1.000949e+00	 1.061258e+00	-1.046377e+02
1	 9.800816e-01	 1.080558e+00	-1.038453e+02
1	 1.089272e+00	 9.879855e-01	-1.003600e+02
1	 1.069816e+00	 1.009021e+00	-1.020517e+02
1	 1.049948e+00	 1.029679e+00	-1.037100e+02
1	 1.029679e+00	 1.049948e+00	-1.049161e+02
1	 1.009021e+00	 1.069816e+00	-1.052291e+02
1	 9.879855e-01	 1.089272e+00	-1.041886e+02
1	 9.484660e-01	 1.045702e+00	-9.791463e+01
1	 9.279218e-01	 1.063974e+00	-9.718578e+01
1	 9.070396e-01	 1.081831e+00	-9.529219e+01
1	 8.858320e-01	 1.099264e+00	-9.225823e+01
1	 8.643121e-01	 1.116263e+00	-8.811530e+01
1	 8.424932e-01	 1.132822e+00	-8.290186e+01
1	 9.563699e-01	 1.054416e+00	-1.001218e+02
1	 9.356545e-01	 1.072840e+00	-9.902569e+01
1	 9.145982e-01	 1.090846e+00	-9.662410e+01
1	 8.932140e-01	 1.108424e+00	-9.307143e+01
1	 8.715148e-01	 1.125566e+00	-8.853664e+01
1	 8.495139e-01	 1.142262e+00	-8.320248e+01
1	 9.642738e-01	 1.063130e+00	-1.018320e+02
1	 9.433872e-01	 1.081707e+00	-1.003368e+02
1	 9.221569e-01	 1.099862e+00	-9.743869e+01
1	 9.005959e-01	 1.117585e+00	-9.341336e+01
1	 8.787174e-01	 1.134868e+00	-8.855728e+01
1	 8.565347e-01	 1.151702e+00	-8.318632e+01
1	 9.721777e-01	 1.071844e+00	-1.030663e+02
1	 9.511198e-01	 1.090573e+00	-1.011472e+02
1	 9.297156e-01	 1.108877e+00	-9.776437e+01
1	 9.079778e-01	 1.126746e+00	-9.330582e+01
1	 8.859200e-01	 1.144170e+00	-8.818588e+01
1	 8.635555e-01	 1.161142e+00	-8.284272e+01
1	 9.800816e-01	 1.080558e+00	-1.038453e+02
1	 9.588525e-01	 1.099440e+00	-1.014845e+02
1	 9.372742e-01	 1.117892e+00	-9.762860e+01
1	 9.153598e-01	 1.135906e+00	-9.276990e+01
1	 8.931226e-01	 1.153472e+00	-8.743087e+01
1	 8.705763e-01	 1.170582e+00	-8.216136e+01
1	 9.879855e-01	 1.089272e+00	-1.041886e+02
1	 9.665852e-01	 1.108306e+00	-1.013749e+02
1	 9.448329e-01	 1.126908e+00	-9.705799e+01
1	 9.227417e-01	 1.145067e+00	-9.182601e+01
1	 9.003252e-01	 1.162774e+00	-8.630037e+01
1	 8.775970e-01	 1.180023e+00	-8.113223e+01
1	 8.424932e-01	 1.132822e+00	-8.290186e+01
1	 8.203886e-01	 1.148931e+00	-7.762993e+01
1	 7.980122e-01	 1.164584e+00	-7.329723e+01
1	 7.753781e-01	 1.179775e+00	-6.992150e+01
1	 7.525004e-01	 1.194497e+00	-6.751427e+01
1	 7.293934e-01	 1.208745e+00	-6.608068e+01
1	 8.495139e-01	 1.142262e+00	-8.320248e+01
1	 8.272252e-01	 1.158505e+00	-7.814092e+01
1	 8.046623e-01	 1.174289e+00	-7.423893e+01
1	 7.818396e-01	 1.189606e+00	-7.140175e+01
1	 7.587712e-01	 1.204451e+00	-6.952215e+01
1	 7.354717e-01	 1.218818e+00	-6.848097e+01
1	 8.565347e-01	 1.151702e+00	-8.318632e+01
1	 8.340617e-01	 1.168080e+00	-7.838995e+01
1	 8.113124e-01	 1.183994e+00	-7.491956e+01
1	 7.883011e-01	 1.199438e+00	-7.258394e+01
1	 7.650421e-01	 1.214405e+00	-7.117470e+01
1	 7.415500e-01	 1.228891e+00	-7.046750e+01
1	 8.635555e-01	 1.161142e+00	-8.284272e+01
1	 8.408983e-01	 1.177654e+00	-7.834917e+01
1	 8.179625e-01	 1.193699e+00	-7.530433e+01
1	 7.947626e-01	 1.209269e+00	-7.343607e+01
1	 7.713129e-01	 1.224359e+00	-7.245203e+01
1	 7.476282e-01	 1.238964e+00	-7.204140e+01
1	 8.705763e-01	 1.170582e+00	-8.216136e+01
1	 8.477349e-01	 1.187229e+00	-7.799166e+01
1	 8.246126e-01	 1.203404e+00	-7.535955e+01
1	 8.012240e-01	 1.219101e+00	-7.392715e+01
1	 7.775837e-01	 1.234313e+00	-7.333492e+01
1	 7.537065e-01	 1.249037e+00	-7.320374e+01
1	 8.775970e-01	 1.180023e+00	-8.113223e+01
1	 8.545714e-01	 1.196803e+00	-7.729135e+01
1	 8.312627e-01	 1.213108e+00	-7.505261e+01
1	 8.076855e-01	 1.228932e+00	-7.402721e+01
1	 7.838546e-01	 1.244268e+00	-7.380473e+01
1	 7.597848e-01	 1.259110e+00	-7.395559e+01
1	 7.293934e-01	 1.208745e+00	-6.608068e+01
1	 7.060717e-01	 1.222515e+00	-6.542683e+01
1	 6.825498e-01	 1.235801e+00	-6.531458e+01
1	 6.588424e-01	 1.248602e+00	-6.567754e+01
1	 6.349643e-01	 1.260912e+00	-6.644922e+01
1	 6.109301e-01	 1.272731e+00	-6.756315e+01
1	 7.354717e-01	 1.218818e+00	-6.848097e+01
1	 7.119556e-01	 1.232702e+00	-6.801432e+01
1	 6.882377e-01	 1.246100e+00	-6.793699e+01
1	 6.643328e-01	 1.259007e+00	-6.824161e+01
1	 6.402557e-01	 1.271420e+00	-6.892378e+01
1	 6.160212e-01	 1.283337e+00	-6.998191e+01
1	 7.415500e-01	 1.228891e+00	-7.046750e+01
1	 7.178396e-01	 1.242890e+00	-7.016504e+01
1	 6.939256e-01	 1.256398e+00	-7.014702e+01
1	 6.698231e-01	 1.269412e+00	-7.044716e+01
1	 6.455470e-01	 1.281928e+00	-7.110373e+01
1	 6.211123e-01	 1.293943e+00	-7.215915e+01
1	 7.476282e-01	 1.238964e+00	-7.204140e+01
1	 7.237235e-01	 1.253078e+00	-7.190010e+01
1	 6.996136e-01	 1.266697e+00	-7.197549e+01
1	 6.753135e-01	 1.279817e+00	-7.232492e+01
1	 6.508384e-01	 1.292435e+00	-7.301041e+01
1	 6.262034e-01	 1.304549e+00	-7.409804e+01
1	 7.537065e-01	 1.249037e+00	-7.320374e+01
1	 7.296074e-01	 1.263265e+00	-7.323992e+01
1	 7.053015e-01	 1.276995e+00	-7.345220e+01
1	 6.808039e-01	 1.290222e+00	-7.390463e+01
1	 6.561298e-01	 1.302943e+00	-7.466447e+01
1	 6.312944e-01	 1.315155e+00	-7.580164e+01
1	 7.597848e-01	 1.259110e+00	-7.395559e+01
1	 7.354913e-01	 1.273453e+00	-7.420428e+01
1	 7.109894e-01	 1.287293e+00	-7.460603e+01
1	 6.862942e-01	 1.300627e+00	-7.521505e+01
1	 6.614211e-01	 1.313450e+00	-7.608588e+01
1	 6.363855e-01	 1.325761e+00	-7.727292e+01
1	 6.109301e-01	 1.272731e+00	-6.756315e+01
1	 5.867546e-01	 1.284056e+00	-6.882036e+01
1	 5.624525e-01	 1.294885e+00	-7.000294e+01
1	 5.380384e-01	 1.305218e+00	-7.101299e+01
1	 5.135269e-01	 1.315055e+00	-7.174863e+01
1	 4.889324e-01	 1.324396e+00	-7.210455e+01
1	 6.160212e-01	 1.283337e+00	-6.998191e+01
1	 5.916442e-01	 1.294756e+00	-7.124262e+01
1	 5.671396e-01	 1.305676e+00	-7.245243e+01
1	 5.425221e-01	 1.316095e+00	-7.348711e+01
1	 5.178063e-01	 1.326014e+00	-7.421696e+01
1	 4.930068e-01	 1.335433e+00	-7.450753e+01
1	 6.211123e-01	 1.293943e+00	-7.215915e+01
1	 5.965338e-01	 1.305456e+00	-7.344105e+01
1	 5.718267e-01	 1.316466e+00	-7.466383e+01
1	 5.470057e-01	 1.326972e+00	-7.569822e+01
1	 5.220857e-01	 1.336973e+00	-7.640933e+01
1	 4.970813e-01	 1.346469e+00	-7.665736e+01
1	 6.262034e-01	 1.304549e+00	-7.409804e+01
1	 6.014235e-01	 1.316157e+00	-7.540154e+01
1	 5.765138e-01	 1.327257e+00	-7.661559e+01
1	 5.514894e-01	 1.337849e+00	-7.762668e+01
1	 5.263651e-01	 1.347931e+00	-7.831671e+01
1	 5.011557e-01	 1.357506e+00	-7.856369e+01
1	 6.312944e-01	 1.315155e+00	-7.580164e+01
1	 6.063131e-01	 1.326857e+00	-7.711043e+01
1	 5.812009e-01	 1.338048e+00	-7.828691e+01
1	 5.559730e-01	 1.348725e+00	-7.925348e+01
1	 5.306445e-01	 1.358890e+00	-7.993034e+01
1	 5.052302e-01	 1.368543e+00	-8.023591e+01
1	 6.363855e-01	 1.325761e+00	-7.727292e+01
1	 6.112027e-01	 1.337558e+00	-7.855451e+01
1	 5.858880e-01	 1.348838e+00	-7.965761e+01
1	 5.604567e-01	 1.359602e+00	-8.056021e+01
1	 5.349239e-01	 1.369849e+00	-8.124177e+01
1	 5.093046e-01	 1.379579e+00	-8.168308e+01
1	 4.889324e-01	 1.324396e+00	-7.210455e+01
1	 4.642693e-01	 1.333242e+00	-7.177124e+01
1	 4.395516e-01	 1.341594e+00	-7.054422e+01
1	 4.147933e-01	 1.349454e+00	-6.847614e+01
1	 3.900083e-01	 1.356825e+00	-6.562304e+01
1	 3.652100e-01	 1.363709e+00	-6.204407e+01
1	 4.930068e-01	 1.335433e+00	-7.450753e+01
1	 4.681382e-01	 1.344352e+00	-7.405605e+01
1	 4.432145e-01	 1.352774e+00	-7.269450e+01
1	 4.182499e-01	 1.360699e+00	-7.049119e+01
1	 3.932584e-01	 1.368132e+00	-6.751905e+01
1	 3.682535e-01	 1.375073e+00	-6.385522e+01
1	 4.970813e-01	 1.346469e+00	-7.665736e+01
1	 4.720071e-01	 1.355462e+00	-7.616540e+01
1	 4.468774e-01	 1.363954e+00	-7.478116e+01
1	 4.217065e-01	 1.371945e+00	-7.255237e+01
1	 3.965084e-01	 1.379438e+00	-6.953160e+01
1	 3.712969e-01	 1.386437e+00	-6.577598e+01
1	 5.011557e-01	 1.357506e+00	-7.856369e+01
1	 4.758760e-01	 1.366573e+00	-7.812582e+01
1	 4.505404e-01	 1.375134e+00	-7.683678e+01
1	 4.251632e-01	 1.383190e+00	-7.468841e+01
1	 3.997585e-01	 1.390745e+00	-7.167666e+01
1	 3.743403e-01	 1.397801e+00	-6.780157e+01
1	 5.052302e-01	 1.368543e+00	-8.023591e+01
1	 4.797449e-01	 1.377683e+00	-7.996298e+01
1	 4.542033e-01	 1.386314e+00	-7.889288e+01
1	 4.286198e-01	 1.394436e+00	-7.692715e+01
1	 4.030086e-01	 1.402052e+00	-7.396970e+01
1	 3.773837e-01	 1.409166e+00	-6.992738e+01
1	 5.093046e-01	 1.379579e+00	-8.168308e+01
1	 4.836138e-01	 1.388794e+00	-8.170174e+01
1	 4.578662e-01	 1.397494e+00	-8.097998e+01
1	 4.320764e-01	 1.405681e+00	-7.929549e+01
1	 4.062586e-01	 1.413359e+00	-7.642566e+01
1	 3.804271e-01	 1.420530e+00	-7.214892e+01
1	 3.652100e-01	 1.363709e+00	-6.204407e+01
1	 3.404119e-01	 1.370109e+00	-5.822905e+01
1	 3.156268e-01	 1.376030e+00	-5.460757e+01
1	 2.908676e-01	 1.381476e+00	-5.115374e+01
1	 2.661469e-01	 1.386451e+00	-4.784573e+01
1	 2.414767e-01	 1.390960e+00	-4.466548e+01
1	 3.682535e-01	 1.375073e+00	-6.385522e+01
1	 3.432486e-01	 1.381527e+00	-5.999860e+01
1	 3.182570e-01	 1.387497e+00	-5.634562e+01
1	 2.932915e-01	 1.392988e+00	-5.282551e+01
1	 2.683648e-01	 1.398004e+00	-4.937120e+01
1	 2.434890e-01	 1.402551e+00	-4.591937e+01
1	 3.712969e-01	 1.386437e+00	-6.577598e+01
1	 3.460854e-01	 1.392944e+00	-6.176504e+01
1	 3.208872e-01	 1.398964e+00	-5.789198e+01
1	 2.957154e-01	 1.404500e+00	-5.409050e+01
1	 2.705827e-01	 1.409558e+00	-5.029811e+01
1	 2.455013e-01	 1.414142e+00	-4.645607e+01
1	 3.743403e-01	 1.397801e+00	-6.780157e+01
1	 3.489222e-01	 1.404362e+00	-6.350458e+01
1	 3.235175e-01	 1.410431e+00	-5.921370e+01
1	 2.981393e-01	 1.416013e+00	-5.491530e+01
1	 2.728006e-01	 1.421112e+00	-5.059995e+01
1	 2.475137e-01	 1.425734e+00	-4.626215e+01
1	 3.773837e-01	 1.409166e+00	-6.992738e+01
1	 3.517589e-01	 1.415780e+00	-6.519416e+01
1	 3.261477e-01	 1.421898e+00	-6.027890e+01
1	 3.005632e-01	 1.427525e+00	-5.526755e+01
1	 2.750185e-01	 1.432666e+00	-5.025109e+01
1	 2.495260e-01	 1.437325e+00	-4.532461e+01
1	 3.804271e-01	 1.420530e+00	-7.214892e+01
1	 3.545957e-01	 1.427197e+00	-6.681147e+01
1	 3.287779e-01	 1.433365e+00	-6.105670e+01
1	 3.029871e-01	 1.439037e+00	-5.511594e+01
1	 2.772364e-01	 1.444219e+00	-4.922669e+01
1	 2.515383e-01	 1.448916e+00	-4.363089e+01
1	 2.414767e-01	 1.390960e+00	-4.466548e+01
1	 2.168690e-01	 1.395008e+00	-4.050799e+01
1	 1.923353e-01	 1.398602e+00	-3.464235e+01
1	 1.678868e-01	 1.401747e+00	-2.761453e+01
1	 1.435344e-01	 1.404449e+00	-1.996922e+01
1	 1.192886e-01	 1.406716e+00	-1.224798e+01
1	 2.434890e-01	 1.402551e+00	-4.591937e+01
1	 2.186763e-01	 1.406633e+00	-4.136173e+01
1	 1.939381e-01	 1.410257e+00	-3.503001e+01
1	 1.692859e-01	 1.413428e+00	-2.752326e+01
1	 1.447305e-01	 1.416153e+00	-1.943834e+01
1	 1.202826e-01	 1.418439e+00	-1.136783e+01
1	 2.455013e-01	 1.414142e+00	-4.645607e+01
1	 2.204835e-01	 1.418258e+00	-4.149074e+01
1	 1.955409e-01	 1.421912e+00	-3.477815e+01
1	 1.706849e-01	 1.425109e+00	-2.693597e+01
1	 1.459267e-01	 1.427857e+00	-1.857906e+01
1	 1.212767e-01	 1.430161e+00	-1.031727e+01
1	 2.475137e-01	 1.425734e+00	-4.626215e+01
1	 2.222908e-01	 1.429883e+00	-4.089502e+01
1	 1.971437e-01	 1.433567e+00	-3.389616e+01
1	 1.720840e-01	 1.436790e+00	-2.586826e+01
1	 1.471228e-01	 1.439560e+00	-1.741081e+01
1	 1.222708e-01	 1.441884e+00	-9.118090e+00
1	 2.495260e-01	 1.437325e+00	-4.532461e+01
1	 2.240980e-01	 1.441508e+00	-3.957457e+01
1	 1.987465e-01	 1.445222e+00	-3.239312e+01
1	 1.734831e-01	 1.448472e+00	-2.433519e+01
1	 1.483189e-01	 1.451264e+00	-1.595243e+01
1	 1.232649e-01	 1.453607e+00	-7.791393e+00
1	 2.515383e-01	 1.448916e+00	-4.363089e+01
1	 2.259052e-01	 1.453133e+00	-3.752938e+01
1	 2.003493e-01	 1.456877e+00	-3.027783e+01
1	 1.748821e-01	 1.460153e+00	-2.235138e+01
1	 1.495150e-01	 1.462968e+00	-1.422211e+01
1	 1.242589e-01	 1.465329e+00	-6.357598e+00
1	 1.192886e-01	 1.406716e+00	-1.224798e+01
1	 9.515944e-02	 1.408554e+00	-6.303857e+00
1	 7.115680e-02	 1.409970e+00	-2.936489e+00
1	 4.729006e-02	 1.410972e+00	-1.103275e+00
1	 2.356824e-02	 1.411568e+00	 2.368327e-01
1	 0.000000e+00	 1.411765e+00	 2.120176e+00
1	 1.202826e-01	 1.418439e+00	-1.136783e+01
1	 9.595243e-02	 1.420292e+00	-5.100894e+00
1	 7.174977e-02	 1.421720e+00	-1.319107e+00
1	 4.768414e-02	 1.422731e+00	 1.050317e+00
1	 2.376465e-02	 1.423331e+00	 3.077061e+00
1	 0.000000e+00	 1.423529e+00	 5.824455e+00
1	 1.212767e-01	 1.430161e+00	-1.031727e+01
1	 9.674543e-02	 1.432030e+00	-3.853488e+00
1	 7.234275e-02	 1.433470e+00	 2.391100e-01
1	 4.807823e-02	 1.434489e+00	 3.049100e+00
1	 2.396105e-02	 1.435094e+00	 5.660932e+00
1	 0.000000e+00	 1.435294e+00	 9.151636e+00
1	 1.222708e-01	 1.441884e+00	-9.118090e+00
1	 9.753842e-02	 1.443768e+00	-2.584971e+00
1	 7.293572e-02	 1.445220e+00	 1.714232e+00
1	 4.847231e-02	 1.446247e+00	 4.869814e+00
1	 2.415745e-02	 1.446857e+00	 7.967459e+00
1	 0.000000e+00	 1.447059e+00	 1.208492e+01
1	 1.232649e-01	 1.453607e+00	-7.791393e+00
1	 9.833142e-02	 1.455506e+00	-1.317919e+00
1	 7.352869e-02	 1.456969e+00	 3.083099e+00
1	 4.886639e-02	 1.458005e+00	 6.489950e+00
1	 2.435385e-02	 1.458620e+00	 9.976329e+00
1	 0.000000e+00	 1.458824e+00	 1.460806e+01
1	 1.242589e-01	 1.465329e+00	-6.357598e+00
1	 9.912441e-02	 1.467244e+00	-7.418853e-02
1	 7.412167e-02	 1.468719e+00	 4.323295e+00
1	 4.926048e-02	 1.469763e+00	 7.887717e+00
1	 2.455025e-02	 1.470383e+00	 1.166788e+01
1	 0.000000e+00	 1.470588e+00	 1.670532e+01
1	 1.470588e+00	 0.000000e+00	-1.423684e+01
1	 1.470383e+00	 2.455025e-02	-1.346066e+01
1	 1.469763e+00	 4.926048e-02	-1.197537e+01
1	 1.468719e+00	 7.412167e-02	-9.897529e+00
1	 1.467244e+00	 9.912441e-02	-7.409660e+00
1	 1.465329e+00	 1.242589e-01	-4.763204e+00
1	 1.482353e+00	 0.000000e+00	-1.429289e+01
1	 1.482146e+00	 2.474666e-02	-1.283420e+01
1	 1.481521e+00	 4.965456e-02	-1.088925e+01
1	 1.480469e+00	 7.471464e-02	-8.650653e+00
1	 1.478982e+00	 9.991741e-02	-6.378829e+00
1	 1.477052e+00	 1.252530e-01	-4.404666e+00
1	 1.494118e+00	 0.000000e+00	-1.431015e+01
1	 1.493909e+00	 2.494306e-02	-1.213097e+01
1	 1.493279e+00	 5.004865e-02	-9.735777e+00
1	 1.492219e+00	 7.530761e-02	-7.375161e+00
1	 1.490720e+00	 1.007104e-01	-5.367186e+00
1	 1.488774e+00	 1.262471e-01	-4.099717e+00
1	 1.505882e+00	 0.000000e+00	-1.429162e+01
1	 1.505672e+00	 2.513946e-02	-1.137298e+01
1	 1.505037e+00	 5.044273e-02	-8.544154e+00
1	 1.503968e+00	 7.590059e-02	-6.096002e+00
1	 1.502458e+00	 1.015034e-01	-4.384368e+00
1	 1.500497e+00	 1.272411e-01	-3.832068e+00
1	 1.517647e+00	 0.000000e+00	-1.424020e+01
1	 1.517436e+00	 2.533586e-02	-1.058158e+01
1	 1.516795e+00	 5.083681e-02	-7.342689e+00
1	 1.515718e+00	 7.649356e-02	-4.837354e+00
1	 1.514196e+00	 1.022964e-01	-3.439714e+00
1	 1.512220e+00	 1.282352e-01	-3.585934e+00
1	 1.529412e+00	 0.000000e+00	-1.415873e+01
1	 1.529199e+00	 2.553226e-02	-9.777426e+00
1	 1.528553e+00	 5.123090e-02	-6.158816e+00
1	 1.527468e+00	 7.708653e-02	-3.622648e+00
1	 1.525933e+00	 1.030894e-01	-2.542276e+00
1	 1.523942e+00	 1.292293e-01	-3.346015e+00
1	 1.465329e+00	 1.242589e-01	-4.763204e+00
1	 1.462968e+00	 1.495150e-01	-2.574509e+00
1	 1.460153e+00	 1.748821e-01	-1.206256e+00
1	 1.456877e+00	 2.003493e-01	-5.547192e-01
1	 1.453133e+00	 2.259052e-01	-4.778889e-01
1	 1.448916e+00	 2.515383e-01	-7.943909e-01
1	 1.477052e+00	 1.252530e-01	-4.404666e+00
1	 1.474672e+00	 1.507111e-01	-3.067326e+00
1	 1.471834e+00	 1.762812e-01	-2.388386e+00
1	 1.468532e+00	 2.019521e-01	-2.246628e+00
1	 1.464758e+00	 2.277125e-01	-2.479799e+00
1	 1.460508e+00	 2.535506e-01	-2.883513e+00
1	 1.488774e+00	 1.262471e-01	-4.099717e+00
1	 1.486375e+00	 1.519073e-01	-3.617116e+00
1	 1.483515e+00	 1.776802e-01	-3.602080e+00
1	 1.480187e+00	 2.035549e-01	-3.923191e+00
1	 1.476384e+00	 2.295197e-01	-4.407513e+00
1	 1.472099e+00	 2.555629e-01	-4.839517e+00
1	 1.500497e+00	 1.272411e-01	-3.832068e+00
1	 1.498079e+00	 1.531034e-01	-4.183243e+00
1	 1.495196e+00	 1.790793e-01	-4.795761e+00
1	 1.491842e+00	 2.051577e-01	-5.535194e+00
1	 1.488009e+00	 2.313270e-01	-6.227333e+00
1	 1.483690e+00	 2.575752e-01	-6.657193e+00
1	 1.512220e+00	 1.282352e-01	-3.585934e+00
1	 1.509783e+00	 1.542995e-01	-4.726328e+00
1	 1.506878e+00	 1.804783e-01	-5.919452e+00
1	 1.503497e+00	 2.067605e-01	-7.034950e+00
1	 1.499634e+00	 2.331342e-01	-7.906608e+00
1	 1.495282e+00	 2.595875e-01	-8.331497e+00
1	 1.523942e+00	 1.292293e-01	-3.346015e+00
1	 1.521487e+00	 1.554956e-01	-5.208204e+00
1	 1.518559e+00	 1.818774e-01	-6.924715e+00
1	 1.515152e+00	 2.083633e-01	-8.376240e+00
1	 1.511259e+00	 2.349414e-01	-9.413692e+00
1	 1.506873e+00	 2.615998e-01	-9.857537e+00
1	 1.448916e+00	 2.515383e-01	-7.943909e-01
1	 1.444219e+00	 2.772364e-01	-1.394563e+00
1	 1.439037e+00	 3.029871e-01	-2.370974e+00
1	 1.433365e+00	 3.287779e-01	-3.819150e+00
1	 1.427197e+00	 3.545957e-01	-5.839244e+00
1	 1.420530e+00	 3.804271e-01	-8.535689e+00
1	 1.460508e+00	 2.535506e-01	-2.883513e+00
1	 1.455773e+00	 2.794542e-01	-3.467809e+00
1	 1.450550e+00	 3.054110e-01	-4.469048e+00
1	 1.444832e+00	 3.314081e-01	-5.998452e+00
1	 1.438615e+00	 3.574324e-01	-8.178197e+00
1	 1.431894e+00	 3.834705e-01	-1.114121e+01
1	 1.472099e+00	 2.555629e-01	-4.839517e+00
1	 1.467327e+00	 2.816721e-01	-5.376061e+00
1	 1.462062e+00	 3.078349e-01	-6.408253e+00
1	 1.456299e+00	 3.340384e-01	-8.049822e+00
1	 1.450032e+00	 3.602692e-01	-1.042830e+01
1	 1.443258e+00	 3.865140e-01	-1.368491e+01
1	 1.483690e+00	 2.575752e-01	-6.657193e+00
1	 1.478881e+00	 2.838900e-01	-7.139127e+00
1	 1.473574e+00	 3.102588e-01	-8.213753e+00
1	 1.467766e+00	 3.366686e-01	-9.984333e+00
1	 1.461450e+00	 3.631060e-01	-1.256737e+01
1	 1.454623e+00	 3.895574e-01	-1.609250e+01
1	 1.495282e+00	 2.595875e-01	-8.331497e+00
1	 1.490434e+00	 2.861079e-01	-8.776203e+00
1	 1.485087e+00	 3.126827e-01	-9.909931e+00
1	 1.479233e+00	 3.392988e-01	-1.181272e+01
1	 1.472867e+00	 3.659427e-01	-1.457389e+01
1	 1.465987e+00	 3.926008e-01	-1.829197e+01
1	 1.506873e+00	 2.615998e-01	-9.857537e+00
1	 1.501988e+00	 2.883258e-01	-1.030589e+01
1	 1.496599e+00	 3.151066e-01	-1.152042e+01
1	 1.490699e+00	 3.419290e-01	-1.354537e+01
1	 1.484285e+00	 3.687795e-01	-1.642703e+01
1	 1.477351e+00	 3.956442e-01	-2.021354e+01
1	 1.420530e+00	 3.804271e-01	-8.535689e+00
1	 1.413359e+00	 4.062586e-01	-1.233448e+01
1	 1.405681e+00	 4.320764e-01	-1.743401e+01
1	 1.397494e+00	 4.578662e-01	-2.357501e+01
1	 1.388794e+00	 4.836138e-01	-3.046451e+01
1	 1.379579e+00	 5.093046e-01	-3.777619e+01
1	 1.431894e+00	 3.834705e-01	-1.114121e+01
1	 1.424666e+00	 4.095087e-01	-1.522268e+01
1	 1.416927e+00	 4.355330e-01	-2.048664e+01
1	 1.408674e+00	 4.615291e-01	-2.663508e+01
1	 1.399904e+00	 4.874827e-01	-3.332721e+01
1	 1.390616e+00	 5.133790e-01	-4.017974e+01
1	 1.443258e+00	 3.865140e-01	-1.368491e+01
1	 1.435973e+00	 4.127588e-01	-1.801823e+01
1	 1.428172e+00	 4.389896e-01	-2.334422e+01
1	 1.419853e+00	 4.651921e-01	-2.935586e+01
1	 1.411014e+00	 4.913516e-01	-3.570011e+01
1	 1.401652e+00	 5.174535e-01	-4.197818e+01
1	 1.454623e+00	 3.895574e-01	-1.609250e+01
1	 1.447280e+00	 4.160089e-01	-2.060127e+01
1	 1.439418e+00	 4.424462e-01	-2.587272e+01
1	 1.431033e+00	 4.688550e-01	-3.161994e+01
1	 1.422125e+00	 4.952205e-01	-3.751257e+01
1	 1.412689e+00	 5.215279e-01	-4.317698e+01
1	 1.465987e+00	 3.926008e-01	-1.829197e+01
1	 1.458586e+00	 4.192589e-01	-2.285567e+01
1	 1.450663e+00	 4.459028e-01	-2.794227e+01
1	 1.442213e+00	 4.725179e-01	-3.331356e+01
1	 1.433235e+00	 4.990894e-01	-3.869611e+01
1	 1.423726e+00	 5.256023e-01	-4.378144e+01
1	 1.477351e+00	 3.956442e-01	-2.021354e+01
1	 1.469893e+00	 4.225090e-01	-2.466885e+01
1	 1.461908e+00	 4.493594e-01	-2.942698e+01
1	 1.453393e+00	 4.761809e-01	-3.432646e+01
1	 1.444345e+00	 5.029584e-01	-3.918440e+01
1	 1.434762e+00	 5.296768e-01	-4.379671e+01
1	 1.379579e+00	 5.093046e-01	-3.777619e+01
1	 1.369849e+00	 5.349239e-01	-4.463798e+01
1	 1.359602e+00	 5.604567e-01	-5.052812e+01
1	 1.348838e+00	 5.858880e-01	-5.565270e+01
1	 1.337558e+00	 6.112027e-01	-6.026003e+01
1	 1.325761e+00	 6.363855e-01	-6.464037e+01
1	 1.390616e+00	 5.133790e-01	-4.017974e+01
1	 1.380808e+00	 5.392032e-01	-4.647617e+01
1	 1.370479e+00	 5.649403e-01	-5.190649e+01
1	 1.359629e+00	 5.905751e-01	-5.670078e+01
1	 1.348258e+00	 6.160923e-01	-6.113617e+01
1	 1.336367e+00	 6.414766e-01	-6.553654e+01
1	 1.401652e+00	 5.174535e-01	-4.197818e+01
1	 1.391767e+00	 5.434826e-01	-4.768360e+01
1	 1.381356e+00	 5.694240e-01	-5.272112e+01
1	 1.370420e+00	 5.952622e-01	-5.730895e+01
1	 1.358959e+00	 6.209820e-01	-6.171103e+01
1	 1.346974e+00	 6.465677e-01	-6.623671e+01
1	 1.412689e+00	 5.215279e-01	-4.317698e+01
1	 1.402725e+00	 5.477620e-01	-4.834015e+01
1	 1.392233e+00	 5.739076e-01	-5.309461e+01
1	 1.381211e+00	 5.999493e-01	-5.761160e+01
1	 1.369659e+00	 6.258716e-01	-6.210073e+01
1	 1.357580e+00	 6.516588e-01	-6.680974e+01
1	 1.423726e+00	 5.256023e-01	-4.378144e+01
1	 1.413684e+00	 5.520414e-01	-4.852325e+01
1	 1.403109e+00	 5.783913e-01	-5.314576e+01
1	 1.392001e+00	 6.046364e-01	-5.773895e+01
1	 1.380360e+00	 6.307612e-01	-6.241782e+01
1	 1.368186e+00	 6.567499e-01	-6.732234e+01
1	 1.434762e+00	 5.296768e-01	-4.379671e+01
1	 1.424643e+00	 5.563208e-01	-4.830792e+01
1	 1.413986e+00	 5.828749e-01	-5.298971e+01
1	 1.402792e+00	 6.093235e-01	-5.781719e+01
1	 1.391060e+00	 6.356508e-01	-6.277134e+01
1	 1.378792e+00	 6.618409e-01	-6.783915e+01
1	 1.325761e+00	 6.363855e-01	-6.464037e+01
1	 1.313450e+00	 6.614211e-01	-6.878791e+01
1	 1.300627e+00	 6.862942e-01	-7.246206e+01
1	 1.287293e+00	 7.109894e-01	-7.562444e+01
1	 1.273453e+00	 7.354913e-01	-7.822651e+01
1	 1.259110e+00	 7.597848e-01	-8.020963e+01
1	 1.336367e+00	 6.414766e-01	-6.553654e+01
1	 1.323958e+00	 6.667125e-01	-6.979088e+01
1	 1.311032e+00	 6.917846e-01	-7.352989e+01
1	 1.297592e+00	 7.166773e-01	-7.671803e+01
1	 1.283641e+00	 7.413753e-01	-7.931095e+01
1	 1.269182e+00	 7.658631e-01	-8.125560e+01
1	 1.346974e+00	 6.465677e-01	-6.623671e+01
1	 1.334466e+00	 6.720039e-01	-7.063253e+01
1	 1.321437e+00	 6.972749e-01	-7.441176e+01
1	 1.307890e+00	 7.223652e-01	-7.756453e+01
1	 1.293828e+00	 7.472592e-01	-8.007686e+01
1	 1.279255e+00	 7.719414e-01	-8.193071e+01
1	 1.357580e+00	 6.516588e-01	-6.680974e+01
1	 1.344973e+00	 6.772952e-01	-7.132883e+01
1	 1.331842e+00	 7.027653e-01	-7.508754e+01
1	 1.318188e+00	 7.280531e-01	-7.812396e+01
1	 1.304016e+00	 7.531431e-01	-8.048005e+01
1	 1.289328e+00	 7.780196e-01	-8.220153e+01
1	 1.368186e+00	 6.567499e-01	-6.732234e+01
1	 1.355481e+00	 6.825866e-01	-7.189524e+01
1	 1.342247e+00	 7.082556e-01	-7.553773e+01
1	 1.328487e+00	 7.337411e-01	-7.835758e+01
1	 1.314203e+00	 7.590271e-01	-8.047770e+01
1	 1.299401e+00	 7.840979e-01	-8.203570e+01
1	 1.378792e+00	 6.618409e-01	-6.783915e+01
1	 1.365988e+00	 6.878780e-01	-7.234675e+01
1	 1.352652e+00	 7.137460e-01	-7.574340e+01
1	 1.338785e+00	 7.394290e-01	-7.822785e+01
1	 1.324391e+00	 7.649110e-01	-8.002831e+01
1	 1.309474e+00	 7.901762e-01	-8.140184e+01
1	 1.259110e+00	 7.597848e-01	-8.020963e+01
1	 1.244268e+00	 7.838546e-01	-8.205255e+01
1	 1.228932e+00	 8.076855e-01	-8.421772e+01
1	 1.213108e+00	 8.312627e-01	-8.661140e+01
1	 1.196803e+00	 8.545714e-01	-8.913591e+01
1	 1.180023e+00	 8.775970e-01	-9.169013e+01
1	 1.269182e+00	 7.658631e-01	-8.125560e+01
1	 1.254222e+00	 7.901254e-01	-8.304680e+01
1	 1.238763e+00	 8.141470e-01	-8.514730e+01
1	 1.222813e+00	 8.379128e-01	-8.744403e+01
1	 1.206377e+00	 8.614080e-01	-8.981709e+01
1	 1.189463e+00	 8.846178e-01	-9.214023e+01
1	 1.279255e+00	 7.719414e-01	-8.193071e+01
1	 1.264176e+00	 7.963962e-01	-8.364731e+01
1	 1.248595e+00	 8.206085e-01	-8.567647e+01
1	 1.232518e+00	 8.445629e-01	-8.788180e+01
1	 1.215952e+00	 8.682446e-01	-9.011650e+01
1	 1.198903e+00	 8.916386e-01	-9.222405e+01
1	 1.289328e+00	 7.780196e-01	-8.220153e+01
1	 1.274130e+00	 8.026671e-01	-8.383727e+01
1	 1.258426e+00	 8.270700e-01	-8.580223e+01
1	 1.242223e+00	 8.512131e-01	-8.793277e+01
1	 1.225526e+00	 8.750812e-01	-9.005074e+01
1	 1.208343e+00	 8.986594e-01	-9.196430e+01
1	 1.299401e+00	 7.840979e-01	-8.203570e+01
1	 1.284084e+00	 8.089379e-01	-8.360038e+01
1	 1.268258e+00	 8.335315e-01	-8.552164e+01
1	 1.251928e+00	 8.578632e-01	-8.760476e+01
1	 1.235101e+00	 8.819177e-01	-8.963589e+01
1	 1.217783e+00	 9.056801e-01	-9.138293e+01
1	 1.309474e+00	 7.901762e-01	-8.140184e+01
1	 1.294038e+00	 8.152087e-01	-8.292085e+01
1	 1.278089e+00	 8.399929e-01	-8.483185e+01
1	 1.261633e+00	 8.645133e-01	-8.690535e+01
1	 1.244675e+00	 8.887543e-01	-8.888753e+01
1	 1.227223e+00	 9.127009e-01	-9.050126e+01
1	 1.180023e+00	 8.775970e-01	-9.169013e+01
1	 1.162774e+00	 9.003252e-01	-9.396602e+01
1	 1.145067e+00	 9.227417e-01	-9.581980e+01
1	 1.126908e+00	 9.448329e-01	-9.739960e+01
1	 1.108306e+00	 9.665852e-01	-9.885974e+01
1	 1.089272e+00	 9.879855e-01	-1.003600e+02
1	 1.189463e+00	 8.846178e-01	-9.214023e+01
1	 1.172077e+00	 9.075278e-01	-9.412176e+01
1	 1.154227e+00	 9.301237e-01	-9.568659e+01
1	 1.135923e+00	 9.523916e-01	-9.703752e+01
1	 1.117173e+00	 9.743179e-01	-9.838793e+01
1	 1.097987e+00	 9.958893e-01	-9.996073e+01
1	 1.198903e+00	 8.916386e-01	-9.222405e+01
1	 1.181379e+00	 9.147304e-01	-9.393993e+01
1	 1.163388e+00	 9.375056e-01	-9.526277e+01
1	 1.144938e+00	 9.599502e-01	-9.643508e+01
1	 1.126039e+00	 9.820506e-01	-9.771316e+01
1	 1.106701e+00	 1.003793e+00	-9.936578e+01
1	 1.208343e+00	 8.986594e-01	-9.196430e+01
1	 1.190681e+00	 9.219330e-01	-9.344493e+01
1	 1.172548e+00	 9.448875e-01	-9.456838e+01
1	 1.153953e+00	 9.675089e-01	-9.560218e+01
1	 1.134906e+00	 9.897832e-01	-9.682971e+01
1	 1.115415e+00	 1.011697e+00	-9.854877e+01
1	 1.217783e+00	 9.056801e-01	-9.138293e+01
1	 1.199983e+00	 9.291356e-01	-9.266045e+01
1	 1.181709e+00	 9.522695e-01	-9.362286e+01
1	 1.162969e+00	 9.750676e-01	-9.454837e+01
1	 1.143772e+00	 9.975159e-01	-9.573202e+01
1	 1.124129e+00	 1.019601e+00	-9.748415e+01
1	 1.227223e+00	 9.127009e-01	-9.050126e+01
1	 1.209285e+00	 9.363382e-01	-9.160942e+01
1	 1.190869e+00	 9.596514e-01	-9.244502e+01
1	 1.171984e+00	 9.826262e-01	-9.328293e+01
1	 1.152639e+00	 1.005249e+00	-9.441473e+01
1	 1.132843e+00	 1.027505e+00	-9.614714e+01
1	 1.089272e+00	 9.879855e-01	-1.003600e+02
1	 1.069816e+00	 1.009021e+00	-1.020517e+02
1	 1.049948e+00	 1.029679e+00	-1.037100e+02
1	 1.029679e+00	 1.049948e+00	-1.049161e+02
1	 1.009021e+00	 1.069816e+00	-1.052291e+02
1	 9.879855e-01	 1.089272e+00	-1.041886e+02
1	 1.097987e+00	 9.958893e-01	-9.996073e+01
1	 1.078375e+00	 1.017093e+00	-1.018621e+02
1	 1.058348e+00	 1.037916e+00	-1.037272e+02
1	 1.037916e+00	 1.058348e+00	-1.050576e+02
1	 1.017093e+00	 1.078375e+00	-1.053282e+02
1	 9.958893e-01	 1.097987e+00	-1.039907e+02
1	 1.106701e+00	 1.003793e+00	-9.936578e+01
1	 1.086933e+00	 1.025165e+00	-1.014263e+02
1	 1.066747e+00	 1.046154e+00	-1.033938e+02
1	 1.046154e+00	 1.066747e+00	-1.047213e+02
1	 1.025165e+00	 1.086933e+00	-1.048331e+02
1	 1.003793e+00	 1.106701e+00	-1.031282e+02
1	 1.115415e+00	 1.011697e+00	-9.854877e+01
1	 1.095492e+00	 1.033237e+00	-1.007006e+02
1	 1.075147e+00	 1.054391e+00	-1.026603e+02
1	 1.054391e+00	 1.075147e+00	-1.038625e+02
1	 1.033237e+00	 1.095492e+00	-1.037135e+02
1	 1.011697e+00	 1.115415e+00	-1.015941e+02
1	 1.124129e+00	 1.019601e+00	-9.748415e+01
1	 1.104050e+00	 1.041310e+00	-9.964299e+01
1	 1.083546e+00	 1.062629e+00	-1.014787e+02
1	 1.062629e+00	 1.083546e+00	-1.024378e+02
1	 1.041310e+00	 1.104050e+00	-1.019400e+02
1	 1.019601e+00	 1.124129e+00	-9.938156e+01
1	 1.132843e+00	 1.027505e+00	-9.614714e+01
1	 1.112609e+00	 1.049382e+00	-9.821244e+01
1	 1.091946e+00	 1.070866e+00	-9.980257e+01
1	 1.070866e+00	 1.091946e+00	-1.004050e+02
1	 1.049382e+00	 1.112609e+00	-9.948412e+01
1	 1.027505e+00	 1.132843e+00	-9.648418e+01
1	 9.879855e-01	 1.089272e+00	-1.041886e+02
1	 9.665852e-01	 1.108306e+00	-1.013749e+02
1	 9.448329e-01	 1.126908e+00	-9.705799e+01
1	 9.227417e-01	 1.145067e+00	-9.182601e+01
1	 9.003252e-01	 1.162774e+00	-8.630037e+01
1	 8.775970e-01	 1.180023e+00	-8.113223e+01
1	 9.958893e-01	 1.097987e+00	-1.039907e+02
1	 9.743179e-01	 1.117173e+00	-1.007185e+02
1	 9.523916e-01	 1.135923e+00	-9.598441e+01
1	 9.301237e-01	 1.154227e+00	-9.045273e+01
1	 9.075278e-01	 1.172077e+00	-8.482280e+01
1	 8.846178e-01	 1.189463e+00	-7.982495e+01
1	 1.003793e+00	 1.106701e+00	-1.031282e+02
1	 9.820506e-01	 1.126039e+00	-9.940893e+01
1	 9.599502e-01	 1.144938e+00	-9.434315e+01
1	 9.375056e-01	 1.163388e+00	-8.864047e+01
1	 9.147304e-01	 1.181379e+00	-8.304587e+01
1	 8.916386e-01	 1.198903e+00	-7.833534e+01
1	 1.011697e+00	 1.115415e+00	-1.015941e+02
1	 9.897832e-01	 1.134906e+00	-9.746225e+01
1	 9.675089e-01	 1.153953e+00	-9.216461e+01
1	 9.448875e-01	 1.172548e+00	-8.642601e+01
1	 9.219330e-01	 1.190681e+00	-8.100558e+01
1	 8.986594e-01	 1.208343e+00	-7.669224e+01
1	 1.019601e+00	 1.124129e+00	-9.938156e+01
1	 9.975159e-01	 1.143772e+00	-9.489402e+01
1	 9.750676e-01	 1.162969e+00	-8.947824e+01
1	 9.522695e-01	 1.181709e+00	-8.384499e+01
1	 9.291356e-01	 1.199983e+00	-7.873683e+01
1	 9.056801e-01	 1.217783e+00	-7.492361e+01
1	 1.027505e+00	 1.132843e+00	-9.648418e+01
1	 1.005249e+00	 1.152639e+00	-9.171931e+01
1	 9.826262e-01	 1.171984e+00	-8.631256e+01
1	 9.596514e-01	 1.190869e+00	-8.093197e+01
1	 9.363382e-01	 1.209285e+00	-7.627343e+01
1	 9.127009e-01	 1.227223e+00	-7.305656e+01
1	 8.775970e-01	 1.180023e+00	-8.113223e+01
1	 8.545714e-01	 1.196803e+00	-7.729135e+01
1	 8.312627e-01	 1.213108e+00	-7.505261e+01
1	 8.076855e-01	 1.228932e+00	-7.402721e+01
1	 7.838546e-01	 1.244268e+00	-7.380473e+01
1	 7.597848e-01	 1.259110e+00	-7.395559e+01
1	 8.846178e-01	 1.189463e+00	-7.982495e+01
1	 8.614080e-01	 1.206377e+00	-7.634715e+01
1	 8.379128e-01	 1.222813e+00	-7.450353e+01
1	 8.141470e-01	 1.238763e+00	-7.386709e+01
1	 7.901254e-01	 1.254222e+00	-7.398992e+01
1	 7.658631e-01	 1.269182e+00	-7.440587e+01
1	 8.916386e-01	 1.198903e+00	-7.833534e+01
1	 8.682446e-01	 1.215952e+00	-7.528760e+01
1	 8.445629e-01	 1.232518e+00	-7.385875e+01
1	 8.206085e-01	 1.248595e+00	-7.359428e+01
1	 7.963962e-01	 1.264176e+00	-7.401928e+01
1	 7.719414e-01	 1.279255e+00	-7.464125e+01
1	 8.986594e-01	 1.208343e+00	-7.669224e+01
1	 8.750812e-01	 1.225526e+00	-7.413126e+01
1	 8.512131e-01	 1.242223e+00	-7.312588e+01
1	 8.270700e-01	 1.258426e+00	-7.320455e+01
1	 8.026671e-01	 1.274130e+00	-7.387558e+01
1	 7.780196e-01	 1.289328e+00	-7.463009e+01
1	 9.056801e-01	 1.217783e+00	-7.492361e+01
1	 8.819177e-01	 1.235101e+00	-7.289610e+01
1	 8.578632e-01	 1.251928e+00	-7.231228e+01
1	 8.335315e-01	 1.268258e+00	-7.269380e+01
1	 8.089379e-01	 1.284084e+00	-7.354214e+01
1	 7.840979e-01	 1.299401e+00	-7.434172e+01
1	 9.127009e-01	 1.227223e+00	-7.305656e+01
1	 8.887543e-01	 1.244675e+00	-7.159952e+01
1	 8.645133e-01	 1.261633e+00	-7.142511e+01
1	 8.399929e-01	 1.278089e+00	-7.205805e+01
1	 8.152087e-01	 1.294038e+00	-7.300277e+01
1	 7.901762e-01	 1.309474e+00	-7.374644e+01
1	 7.597848e-01	 1.259110e+00	-7.395559e+01
1	 7.354913e-01	 1.273453e+00	-7.420428e+01
1	 7.109894e-01	 1.287293e+00	-7.460603e+01
1	 6.862942e-01	 1.300627e+00	-7.521505e+01
1	 6.614211e-01	 1.313450e+00	-7.608588e+01
1	 6.363855e-01	 1.325761e+00	-7.727292e+01
1	 7.658631e-01	 1.269182e+00	-7.440587e+01
1	 7.413753e-01	 1.283641e+00	-7.485821e+01
1	 7.166773e-01	 1.297592e+00	-7.544068e+01
1	 6.917846e-01	 1.311032e+00	-7.619924e+01
1	 6.667125e-01	 1.323958e+00	-7.717740e+01
1	 6.414766e-01	 1.336367e+00	-7.841583e+01
1	 7.719414e-01	 1.279255e+00	-7.464125e+01
1	 7.472592e-01	 1.293828e+00	-7.522560e+01
1	 7.223652e-01	 1.307890e+00	-7.591319e+01
1	 6.972749e-01	 1.321437e+00	-7.676087e+01
1	 6.720039e-01	 1.334466e+00	-7.782186e+01
1	 6.465677e-01	 1.346974e+00	-7.914535e+01
1	 7.780196e-01	 1.289328e+00	-7.463009e+01
1	 7.531431e-01	 1.304016e+00	-7.526497e+01
1	 7.280531e-01	 1.318188e+00	-7.598272e+01
1	 7.027653e-01	 1.331842e+00	-7.686972e+01
1	 6.772952e-01	 1.344973e+00	-7.800914e+01
1	 6.516588e-01	 1.357580e+00	-7.948039e+01
1	 7.840979e-01	 1.299401e+00	-7.434172e+01
1	 7.590271e-01	 1.314203e+00	-7.493616e+01
1	 7.337411e-01	 1.328487e+00	-7.560971e+01
1	 7.082556e-01	 1.342247e+00	-7.649649e+01
1	 6.825866e-01	 1.355481e+00	-7.772942e+01
1	 6.567499e-01	 1.368186e+00	-7.943930e+01
1	 7.901762e-01	 1.309474e+00	-7.374644e+01
1	 7.649110e-01	 1.324391e+00	-7.420021e+01
1	 7.394290e-01	 1.338785e+00	-7.475580e+01
1	 7.137460e-01	 1.352652e+00	-7.561280e+01
1	 6.878780e-01	 1.365988e+00	-7.697317e+01
1	 6.618409e-01	 1.378792e+00	-7.903983e+01
1	 6.363855e-01	 1.325761e+00	-7.727292e+01
1	 6.112027e-01	 1.337558e+00	-7.855451e+01
1	 5.858880e-01	 1.348838e+00	-7.965761e+01
1	 5.604567e-01	 1.359602e+00	-8.056021e+01
1	 5.349239e-01	 1.369849e+00	-8.124177e+01
1	 5.093046e-01	 1.379579e+00	-8.168308e+01
1	 6.414766e-01	 1.336367e+00	-7.841583e+01
1	 6.160923e-01	 1.348258e+00	-7.969729e+01
1	 5.905751e-01	 1.359629e+00	-8.078515e+01
1	 5.649403e-01	 1.370479e+00	-8.169225e+01
1	 5.392032e-01	 1.380808e+00	-8.243599e+01
1	 5.133790e-01	 1.390616e+00	-8.303795e+01
1	 6.465677e-01	 1.346974e+00	-7.914535e+01
1	 6.209820e-01	 1.358959e+00	-8.053995e+01
1	 5.952622e-01	 1.370420e+00	-8.177271e+01
1	 5.694240e-01	 1.381356e+00	-8.283143e+01
1	 5.434826e-01	 1.391767e+00	-8.370938e+01
1	 5.174535e-01	 1.401652e+00	-8.440503e+01
1	 6.516588e-01	 1.357580e+00	-7.948039e+01
1	 6.258716e-01	 1.369659e+00	-8.112503e+01
1	 5.999493e-01	 1.381211e+00	-8.266802e+01
1	 5.739076e-01	 1.392233e+00	-8.401366e+01
1	 5.477620e-01	 1.402725e+00	-8.507050e+01
1	 5.215279e-01	 1.412689e+00	-8.575161e+01
1	 6.567499e-01	 1.368186e+00	-7.943930e+01
1	 6.307612e-01	 1.380360e+00	-8.149379e+01
1	 6.046364e-01	 1.392001e+00	-8.351732e+01
1	 5.783913e-01	 1.403109e+00	-8.527370e+01
1	 5.520414e-01	 1.413684e+00	-8.652767e+01
1	 5.256023e-01	 1.423726e+00	-8.704597e+01
1	 6.618409e-01	 1.378792e+00	-7.903983e+01
1	 6.356508e-01	 1.391060e+00	-8.168619e+01
1	 6.093235e-01	 1.402792e+00	-8.436544e+01
1	 5.828749e-01	 1.413986e+00	-8.664530e+01
1	 5.563208e-01	 1.424643e+00	-8.808894e+01
1	 5.296768e-01	 1.434762e+00	-8.825739e+01
1	 5.093046e-01	 1.379579e+00	-8.168308e+01
1	 4.836138e-01	 1.388794e+00	-8.170174e+01
1	 4.578662e-01	 1.397494e+00	-8.097998e+01
1	 4.320764e-01	 1.405681e+00	-7.929549e+01
1	 4.062586e-01	 1.413359e+00	-7.642566e+01
1	 3.804271e-01	 1.420530e+00	-7.214892e+01
1	 5.133790e-01	 1.390616e+00	-8.303795e+01
1	 4.874827e-01	 1.399904e+00	-8.330060e+01
1	 4.615291e-01	 1.408674e+00	-8.280477e+01
1	 4.355330e-01	 1.416927e+00	-8.123947e+01
1	 4.095087e-01	 1.424666e+00	-7.829121e+01
1	 3.834705e-01	 1.431894e+00	-7.364593e+01
1	 5.174535e-01	 1.401652e+00	-8.440503e+01
1	 4.913516e-01	 1.411014e+00	-8.465562e+01
1	 4.651921e-01	 1.419853e+00	-8.400025e+01
1	 4.389896e-01	 1.428172e+00	-8.214082e+01
1	 4.127588e-01	 1.435973e+00	-7.877647e+01
1	 3.865140e-01	 1.443258e+00	-7.360544e+01
1	 5.215279e-01	 1.412689e+00	-8.575161e+01
1	 4.952205e-01	 1.422125e+00	-8.569908e+01
1	 4.688550e-01	 1.431033e+00	-8.448760e+01
1	 4.424462e-01	 1.439418e+00	-8.193106e+01
1	 4.160089e-01	 1.447280e+00	-7.784220e+01
1	 3.895574e-01	 1.454623e+00	-7.203384e+01
1	 5.256023e-01	 1.423726e+00	-8.704597e+01
1	 4.990894e-01	 1.433235e+00	-8.636536e+01
1	 4.725179e-01	 1.442213e+00	-8.419045e+01
1	 4.459028e-01	 1.450663e+00	-8.054381e+01
1	 4.192589e-01	 1.458586e+00	-7.545035e+01
1	 3.926008e-01	 1.465987e+00	-6.893735e+01
1	 5.296768e-01	 1.434762e+00	-8.825739e+01
1	 5.029584e-01	 1.444345e+00	-8.659085e+01
1	 4.761809e-01	 1.453393e+00	-8.303478e+01
1	 4.493594e-01	 1.461908e+00	-7.791475e+01
1	 4.225090e-01	 1.469893e+00	-7.156408e+01
1	 3.956442e-01	 1.477351e+00	-6.432199e+01
1	 3.804271e-01	 1.420530e+00	-7.214892e+01
1	 3.545957e-01	 1.427197e+00	-6.681147e+01
1	 3.287779e-01	 1.433365e+00	-6.105670e+01
1	 3.029871e-01	 1.439037e+00	-5.511594e+01
1	 2.772364e-01	 1.444219e+00	-4.922669e+01
1	 2.515383e-01	 1.448916e+00	-4.363089e+01
1	 3.834705e-01	 1.431894e+00	-7.364593e+01
1	 3.574324e-01	 1.438615e+00	-6.765314e+01
1	 3.314081e-01	 1.444832e+00	-6.109882e+01
1	 3.054110e-01	 1.450550e+00	-5.433105e+01
1	 2.794542e-01	 1.455773e+00	-4.770492e+01
1	 2.535506e-01	 1.460508e+00	-4.158021e+01
1	 3.865140e-01	 1.443258e+00	-7.360544e+01
1	 3.602692e-01	 1.450032e+00	-6.706351e+01
1	 3.340384e-01	 1.456299e+00	-6.002557e+01
1	 3.078349e-01	 1.462062e+00	-5.285570e+01
1	 2.816721e-01	 1.467327e+00	-4.592510e+01
1	 2.555629e-01	 1.472099e+00	-3.960959e+01
1	 3.895574e-01	 1.454623e+00	-7.203384e+01
1	 3.631060e-01	 1.461450e+00	-6.509128e+01
1	 3.366686e-01	 1.467766e+00	-5.790799e+01
1	 3.102588e-01	 1.473574e+00	-5.076589e+01
1	 2.838900e-01	 1.478881e+00	-4.395319e+01
1	 2.575752e-01	 1.483690e+00	-3.776246e+01
1	 3.926008e-01	 1.465987e+00	-6.893735e+01
1	 3.659427e-01	 1.472867e+00	-6.178359e+01
1	 3.392988e-01	 1.479233e+00	-5.481493e+01
1	 3.126827e-01	 1.485087e+00	-4.813524e+01
1	 2.861079e-01	 1.490434e+00	-4.185313e+01
1	 2.595875e-01	 1.495282e+00	-3.608087e+01
1	 3.956442e-01	 1.477351e+00	-6.432199e+01
1	 3.687795e-01	 1.484285e+00	-5.718617e+01
1	 3.419290e-01	 1.490699e+00	-5.081312e+01
1	 3.151066e-01	 1.496599e+00	-4.503515e+01
1	 2.883258e-01	 1.501988e+00	-3.968686e+01
1	 2.615998e-01	 1.506873e+00	-3.460560e+01
1	 2.515383e-01	 1.448916e+00	-4.363089e+01
1	 2.259052e-01	 1.453133e+00	-3.752938e+01
1	 2.003493e-01	 1.456877e+00	-3.027783e+01
1	 1.748821e-01	 1.460153e+00	-2.235138e+01
1	 1.495150e-01	 1.462968e+00	-1.422211e+01
1	 1.242589e-01	 1.465329e+00	-6.357598e+00
1	 2.535506e-01	 1.460508e+00	-4.158021e+01
1	 2.277125e-01	 1.464758e+00	-3.523637e+01
1	 2.019521e-01	 1.468532e+00	-2.798576e+01
1	 1.762812e-01	 1.471834e+00	-2.023820e+01
1	 1.507111e-01	 1.474672e+00	-1.240062e+01
1	 1.252530e-01	 1.477052e+00	-4.875943e+00
1	 2.555629e-01	 1.472099e+00	-3.960959e+01
1	 2.295197e-01	 1.476384e+00	-3.318601e+01
1	 2.035549e-01	 1.480187e+00	-2.594961e+01
1	 1.776802e-01	 1.483515e+00	-1.830431e+01
1	 1.519073e-01	 1.486375e+00	-1.065098e+01
1	 1.262471e-01	 1.488774e+00	-3.386344e+00
1	 2.575752e-01	 1.483690e+00	-3.776246e+01
1	 2.313270e-01	 1.488009e+00	-3.139818e+01
1	 2.051577e-01	 1.491842e+00	-2.417368e+01
1	 1.790793e-01	 1.495196e+00	-1.654497e+01
1	 1.531034e-01	 1.498079e+00	-8.964533e+00
1	 1.272411e-01	 1.500497e+00	-1.879965e+00
1	 2.595875e-01	 1.495282e+00	-3.608087e+01
1	 2.331342e-01	 1.499634e+00	-2.989212e+01
1	 2.067605e-01	 1.503497e+00	-2.266212e+01
1	 1.804783e-01	 1.506878e+00	-1.495559e+01
1	 1.542995e-01	 1.509783e+00	-7.332906e+00
1	 1.282352e-01	 1.512220e+00	-3.482443e-01
1	 2.615998e-01	 1.506873e+00	-3.460560e+01
1	 2.349414e-01	 1.511259e+00	-2.868649e+01
1	 2.083633e-01	 1.515152e+00	-2.141899e+01
1	 1.818774e-01	 1.518559e+00	-1.353174e+01
1	 1.554956e-01	 1.521487e+00	-5.747978e+00
1	 1.292293e-01	 1.523942e+00	 1.217116e+00
1	 1.242589e-01	 1.465329e+00	-6.357598e+00
1	 9.912441e-02	 1.467244e+00	-7.418853e-02
1	 7.412167e-02	 1.468719e+00	 4.323295e+00
1	 4.926048e-02	 1.469763e+00	 7.887717e+00
1	 2.455025e-02	 1.470383e+00	 1.166788e+01
1	 0.000000e+00	 1.470588e+00	 1.670532e+01
1	 1.252530e-01	 1.477052e+00	-4.875943e+00
1	 9.991741e-02	 1.478982e+00	 1.157388e+00
1	 7.471464e-02	 1.480469e+00	 5.483727e+00
1	 4.965456e-02	 1.481521e+00	 9.147139e+00
1	 2.474666e-02	 1.482146e+00	 1.318779e+01
1	 0.000000e+00	 1.482353e+00	 1.863872e+01
1	 1.262471e-01	 1.488774e+00	-3.386344e+00
1	 1.007104e-01	 1.490720e+00	 2.407912e+00
1	 7.530761e-02	 1.492219e+00	 6.633810e+00
1	 5.004865e-02	 1.493279e+00	 1.037234e+01
1	 2.494306e-02	 1.493909e+00	 1.469951e+01
1	 0.000000e+00	 1.494118e+00	 2.068301e+01
1	 1.272411e-01	 1.500497e+00	-1.879965e+00
1	 1.015034e-01	 1.502458e+00	 3.685759e+00
1	 7.590059e-02	 1.503968e+00	 7.782221e+00
1	 5.044273e-02	 1.505037e+00	 1.157199e+01
1	 2.513946e-02	 1.505672e+00	 1.621037e+01
1	 0.000000e+00	 1.505882e+00	 2.284179e+01
1	 1.282352e-01	 1.512220e+00	-3.482443e-01
1	 1.022964e-01	 1.514196e+00	 4.999040e+00
1	 7.649356e-02	 1.515718e+00	 8.937365e+00
1	 5.083681e-02	 1.516795e+00	 1.275449e+01
1	 2.533586e-02	 1.517436e+00	 1.772748e+01
1	 0.000000e+00	 1.517647e+00	 2.511857e+01
1	 1.292293e-01	 1.523942e+00	 1.217116e+00
1	 1.030894e-01	 1.525933e+00	 6.355619e+00
1	 7.708653e-02	 1.527468e+00	 1.010739e+01
1	 5.123090e-02	 1.528553e+00	 1.392801e+01
1	 2.553226e-02	 1.529199e+00	 1.925772e+01
1	 0.000000e+00	 1.529412e+00	 2.751674e+01
1	 1.529412e+00	 0.000000e+00	-1.415873e+01
1	 1.529199e+00	 2.553226e-02	-9.777426e+00
1	 1.528553e+00	 5.123090e-02	-6.158816e+00
1	 1.527468e+00	 7.708653e-02	-3.622648e+00
1	 1.525933e+00	 1.030894e-01	-2.542276e+00
1	 1.523942e+00	 1.292293e-01	-3.346015e+00
1	 1.541176e+00	 0.000000e+00	-1.400873e+01
1	 1.540962e+00	 2.572867e-02	-8.992833e+00
1	 1.540312e+00	 5.162498e-02	-5.049778e+00
1	 1.539218e+00	 7.767951e-02	-2.499881e+00
1	 1.537671e+00	 1.038824e-01	-1.709994e+00
1	 1.535665e+00	 1.302234e-01	-3.094547e+00
1	 1.552941e+00	 0.000000e+00	-1.376077e+01
1	 1.552725e+00	 2.592507e-02	-8.244150e+00
1	 1.552070e+00	 5.201907e-02	-4.044790e+00
1	 1.550967e+00	 7.827248e-02	-1.489539e+00
1	 1.549409e+00	 1.046754e-01	-9.460919e-01
1	 1.547388e+00	 1.312174e-01	-2.823741e+00
1	 1.564706e+00	 0.000000e+00	-1.343076e+01
1	 1.564488e+00	 2.612147e-02	-7.527727e+00
1	 1.563828e+00	 5.241315e-02	-3.128947e+00
1	 1.562717e+00	 7.886545e-02	-5.736640e-01
1	 1.561147e+00	 1.054684e-01	-2.376328e-01
1	 1.559110e+00	 1.322115e-01	-2.533608e+00
1	 1.576471e+00	 0.000000e+00	-1.303413e+01
1	 1.576251e+00	 2.631787e-02	-6.840027e+00
1	 1.575586e+00	 5.280723e-02	-2.287794e+00
1	 1.574467e+00	 7.945843e-02	 2.651638e-01
1	 1.572885e+00	 1.062614e-01	 4.279330e-01
1	 1.570833e+00	 1.332056e-01	-2.224160e+00
1	 1.588235e+00	 0.000000e+00	-1.258588e+01
1	 1.588014e+00	 2.651427e-02	-6.177615e+00
1	 1.587344e+00	 5.320132e-02	-1.507298e+00
1	 1.586217e+00	 8.005140e-02	 1.043850e+00
1	 1.584623e+00	 1.070544e-01	 1.062784e+00
1	 1.582555e+00	 1.341996e-01	-1.895410e+00
1	 1.523942e+00	 1.292293e-01	-3.346015e+00
1	 1.521487e+00	 1.554956e-01	-5.208204e+00
1	 1.518559e+00	 1.818774e-01	-6.924715e+00
1	 1.515152e+00	 2.083633e-01	-8.376240e+00
1	 1.511259e+00	 2.349414e-01	-9.413692e+00
1	 1.506873e+00	 2.615998e-01	-9.857537e+00
1	 1.535665e+00	 1.302234e-01	-3.094547e+00
1	 1.533190e+00	 1.566917e-01	-5.590680e+00
1	 1.530240e+00	 1.832765e-01	-7.775148e+00
1	 1.526807e+00	 2.099661e-01	-9.540868e+00
1	 1.522884e+00	 2.367487e-01	-1.075744e+01
1	 1.518464e+00	 2.636121e-01	-1.127067e+01
1	 1.547388e+00	 1.312174e-01	-2.823741e+00
1	 1.544894e+00	 1.578879e-01	-5.869186e+00
1	 1.541921e+00	 1.846755e-01	-8.477948e+00
1	 1.538462e+00	 2.115689e-01	-1.055066e+01
1	 1.534509e+00	 2.385559e-01	-1.196975e+01
1	 1.530056e+00	 2.656244e-01	-1.259908e+01
1	 1.559110e+00	 1.322115e-01	-2.533608e+00
1	 1.556598e+00	 1.590840e-01	-6.056572e+00
1	 1.553603e+00	 1.860746e-01	-9.050790e+00
1	 1.550117e+00	 2.131717e-01	-1.142018e+01
1	 1.546134e+00	 2.403632e-01	-1.305418e+01
1	 1.541647e+00	 2.676367e-01	-1.382759e+01
1	 1.570833e+00	 1.332056e-01	-2.224160e+00
1	 1.568302e+00	 1.602801e-01	-6.165302e+00
1	 1.565284e+00	 1.874736e-01	-9.510819e+00
1	 1.561772e+00	 2.147744e-01	-1.216353e+01
1	 1.557759e+00	 2.421704e-01	-1.401420e+01
1	 1.553238e+00	 2.696490e-01	-1.494148e+01
1	 1.582555e+00	 1.341996e-01	-1.895410e+00
1	 1.580005e+00	 1.614762e-01	-6.207471e+00
1	 1.576965e+00	 1.888727e-01	-9.874673e+00
1	 1.573427e+00	 2.163772e-01	-1.279442e+01
1	 1.569384e+00	 2.439777e-01	-1.485317e+01
1	 1.564830e+00	 2.716613e-01	-1.592647e+01
1	 1.506873e+00	 2.615998e-01	-9.857537e+00
1	 1.501988e+00	 2.883258e-01	-1.030589e+01
1	 1.496599e+00	 3.151066e-01	-1.152042e+01
1	 1.490699e+00	 3.419290e-01	-1.354537e+01
1	 1.484285e+00	 3.687795e-01	-1.642703e+01
1	 1.477351e+00	 3.956442e-01	-2.021354e+01
1	 1.518464e+00	 2.636121e-01	-1.127067e+01
1	 1.513542e+00	 2.905437e-01	-1.177102e+01
1	 1.508111e+00	 3.175305e-01	-1.307147e+01
1	 1.502166e+00	 3.445593e-01	-1.517942e+01
1	 1.495703e+00	 3.716163e-01	-1.809655e+01
1	 1.488715e+00	 3.986876e-01	-2.181861e+01
1	 1.530056e+00	 2.656244e-01	-1.259908e+01
1	 1.525096e+00	 2.927616e-01	-1.318077e+01
1	 1.519623e+00	 3.199544e-01	-1.454968e+01
1	 1.513633e+00	 3.471895e-01	-1.668654e+01
1	 1.507120e+00	 3.744530e-01	-1.956089e+01
1	 1.500079e+00	 4.017310e-01	-2.313081e+01
1	 1.541647e+00	 2.676367e-01	-1.382759e+01
1	 1.536649e+00	 2.949795e-01	-1.450364e+01
1	 1.531136e+00	 3.223783e-01	-1.591953e+01
1	 1.525100e+00	 3.498197e-01	-1.803937e+01
1	 1.518538e+00	 3.772898e-01	-2.081281e+01
1	 1.511444e+00	 4.047745e-01	-2.417479e+01
1	 1.553238e+00	 2.696490e-01	-1.494148e+01
1	 1.548203e+00	 2.971974e-01	-1.570902e+01
1	 1.542648e+00	 3.248022e-01	-1.714655e+01
1	 1.536567e+00	 3.524499e-01	-1.921136e+01
1	 1.529955e+00	 3.801266e-01	-2.184529e+01
1	 1.522808e+00	 4.078179e-01	-2.497441e+01
1	 1.564830e+00	 2.716613e-01	-1.592647e+01
1	 1.559757e+00	 2.994153e-01	-1.676725e+01
1	 1.554160e+00	 3.272261e-01	-1.819728e+01
1	 1.548034e+00	 3.550801e-01	-2.017676e+01
1	 1.541373e+00	 3.829633e-01	-2.265153e+01
1	 1.534172e+00	 4.108613e-01	-2.555287e+01
1	 1.477351e+00	 3.956442e-01	-2.021354e+01
1	 1.469893e+00	 4.225090e-01	-2.466885e+01
1	 1.461908e+00	 4.493594e-01	-2.942698e+01
1	 1.453393e+00	 4.761809e-01	-3.432646e+01
1	 1.444345e+00	 5.029584e-01	-3.918440e+01
1	 1.434762e+00	 5.296768e-01	-4.379671e+01
1	 1.488715e+00	 3.986876e-01	-2.181861e+01
1	 1.481200e+00	 4.257591e-01	-2.604194e+01
1	 1.473154e+00	 4.528160e-01	-3.041663e+01
1	 1.464573e+00	 4.798438e-01	-3.485905e+01
1	 1.455456e+00	 5.068273e-01	-3.927856e+01
1	 1.445799e+00	 5.337512e-01	-4.357767e+01
1	 1.500079e+00	 4.017310e-01	-2.313081e+01
1	 1.492507e+00	 4.290091e-01	-2.708407e+01
1	 1.484399e+00	 4.562727e-01	-3.112021e+01
1	 1.475753e+00	 4.835067e-01	-3.520832e+01
1	 1.466566e+00	 5.106962e-01	-3.932053e+01
1	 1.456836e+00	 5.378257e-01	-4.343217e+01
1	 1.511444e+00	 4.047745e-01	-2.417479e+01
1	 1.503814e+00	 4.322592e-01	-2.784611e+01
1	 1.495645e+00	 4.597293e-01	-3.159231e+01
1	 1.486933e+00	 4.871697e-01	-3.541058e+01
1	 1.477676e+00	 5.145651e-01	-3.930686e+01
1	 1.467872e+00	 5.419001e-01	-4.329610e+01
1	 1.522808e+00	 4.078179e-01	-2.497441e+01
1	 1.515121e+00	 4.355093e-01	-2.837738e+01
1	 1.506890e+00	 4.631859e-01	-3.188589e+01
1	 1.498113e+00	 4.908326e-01	-3.550103e+01
1	 1.488787e+00	 5.184340e-01	-3.923420e+01
1	 1.478909e+00	 5.459745e-01	-4.310730e+01
1	 1.534172e+00	 4.108613e-01	-2.555287e+01
1	 1.526428e+00	 4.387593e-01	-2.872577e+01
1	 1.518136e+00	 4.666425e-01	-3.205234e+01
1	 1.509293e+00	 4.944955e-01	-3.551387e+01
1	 1.499897e+00	 5.223029e-01	-3.909930e+01
1	 1.489945e+00	 5.500490e-01	-4.280543e+01
1	 1.434762e+00	 5.296768e-01	-4.379671e+01
1	 1.424643e+00	 5.563208e-01	-4.830792e+01
1	 1.413986e+00	 5.828749e-01	-5.298971e+01
1	 1.402792e+00	 6.093235e-01	-5.781719e+01
1	 1.391060e+00	 6.356508e-01	-6.277134e+01
1	 1.378792e+00	 6.618409e-01	-6.783915e+01
1	 1.445799e+00	 5.337512e-01	-4.357767e+01
1	 1.435602e+00	 5.606002e-01	-4.800856e+01
1	 1.424863e+00	 5.873586e-01	-5.280966e+01
1	 1.413583e+00	 6.140106e-01	-5.784828e+01
1	 1.401761e+00	 6.405404e-01	-6.297899e+01
1	 1.389398e+00	 6.669320e-01	-6.804401e+01
1	 1.456836e+00	 5.378257e-01	-4.343217e+01
1	 1.446561e+00	 5.648796e-01	-4.781061e+01
1	 1.435740e+00	 5.918422e-01	-5.262093e+01
1	 1.424373e+00	 6.186977e-01	-5.766911e+01
1	 1.412461e+00	 6.454301e-01	-6.273676e+01
1	 1.400004e+00	 6.720231e-01	-6.758151e+01
1	 1.467872e+00	 5.419001e-01	-4.329610e+01
1	 1.457519e+00	 5.691590e-01	-4.759668e+01
1	 1.446617e+00	 5.963259e-01	-5.228732e+01
1	 1.435164e+00	 6.233848e-01	-5.715823e+01
1	 1.423162e+00	 6.503197e-01	-6.197037e+01
1	 1.410610e+00	 6.771142e-01	-6.645589e+01
1	 1.478909e+00	 5.459745e-01	-4.310730e+01
1	 1.468478e+00	 5.734384e-01	-4.725288e+01
1	 1.457494e+00	 6.008096e-01	-5.167669e+01
1	 1.445955e+00	 6.280720e-01	-5.619777e+01
1	 1.433862e+00	 6.552093e-01	-6.060776e+01
1	 1.421216e+00	 6.822053e-01	-6.467126e+01
1	 1.489945e+00	 5.500490e-01	-4.280543e+01
1	 1.479437e+00	 5.777178e-01	-4.666869e+01
1	 1.468370e+00	 6.052932e-01	-5.066082e+01
1	 1.456745e+00	 6.327591e-01	-5.467338e+01
1	 1.444562e+00	 6.600989e-01	-5.857903e+01
1	 1.431822e+00	 6.872964e-01	-6.223161e+01
1	 1.378792e+00	 6.618409e-01	-6.783915e+01
1	 1.365988e+00	 6.878780e-01	-7.234675e+01
1	 1.352652e+00	 7.137460e-01	-7.574340e+01
1	 1.338785e+00	 7.394290e-01	-7.822785e+01
1	 1.324391e+00	 7.649110e-01	-8.002831e+01
1	 1.309474e+00	 7.901762e-01	-8.140184e+01
1	 1.389398e+00	 6.669320e-01	-6.804401e+01
1	 1.376496e+00	 6.931694e-01	-7.233905e+01
1	 1.363057e+00	 7.192363e-01	-7.543180e+01
1	 1.349083e+00	 7.451169e-01	-7.759525e+01
1	 1.334579e+00	 7.707949e-01	-7.914432e+01
1	 1.319547e+00	 7.962545e-01	-8.043494e+01
1	 1.400004e+00	 6.720231e-01	-6.758151e+01
1	 1.387004e+00	 6.984607e-01	-7.157295e+01
1	 1.373462e+00	 7.247267e-01	-7.442586e+01
1	 1.359382e+00	 7.508048e-01	-7.643405e+01
1	 1.344766e+00	 7.766789e-01	-7.793867e+01
1	 1.329620e+00	 8.023328e-01	-7.932726e+01
1	 1.410610e+00	 6.771142e-01	-6.645589e+01
1	 1.397511e+00	 7.037521e-01	-7.012887e+01
1	 1.383867e+00	 7.302170e-01	-7.284784e+01
1	 1.369680e+00	 7.564927e-01	-7.487516e+01
1	 1.354954e+00	 7.825628e-01	-7.651904e+01
1	 1.339693e+00	 8.084110e-01	-7.813276e+01
1	 1.421216e+00	 6.822053e-01	-6.467126e+01
1	 1.408019e+00	 7.090435e-01	-6.808485e+01
1	 1.394272e+00	 7.357074e-01	-7.081636e+01
1	 1.379978e+00	 7.621806e-01	-7.304560e+01
1	 1.365141e+00	 7.884467e-01	-7.498993e+01
1	 1.349765e+00	 8.144893e-01	-7.690379e+01
1	 1.431822e+00	 6.872964e-01	-6.223161e+01
1	 1.418526e+00	 7.143348e-01	-6.551661e+01
1	 1.404677e+00	 7.411977e-01	-6.844654e+01
1	 1.390277e+00	 7.678685e-01	-7.106863e+01
1	 1.375329e+00	 7.943307e-01	-7.345271e+01
1	 1.359838e+00	 8.205676e-01	-7.569116e+01
1	 1.309474e+00	 7.901762e-01	-8.140184e+01
1	 1.294038e+00	 8.152087e-01	-8.292085e+01
1	 1.278089e+00	 8.399929e-01	-8.483185e+01
1	 1.261633e+00	 8.645133e-01	-8.690535e+01
1	 1.244675e+00	 8.887543e-01	-8.888753e+01
1	 1.227223e+00	 9.127009e-01	-9.050126e+01
1	 1.319547e+00	 7.962545e-01	-8.043494e+01
1	 1.303992e+00	 8.214796e-01	-8.198471e+01
1	 1.287921e+00	 8.464544e-01	-8.390520e+01
1	 1.271338e+00	 8.711634e-01	-8.595222e+01
1	 1.254250e+00	 8.955909e-01	-8.785405e+01
1	 1.236664e+00	 9.197217e-01	-8.931264e+01
1	 1.329620e+00	 8.023328e-01	-7.932726e+01
1	 1.313947e+00	 8.277504e-01	-8.098627e+01
1	 1.297752e+00	 8.529159e-01	-8.289051e+01
1	 1.281042e+00	 8.778135e-01	-8.482409e+01
1	 1.263824e+00	 9.024274e-01	-8.654505e+01
1	 1.246104e+00	 9.267425e-01	-8.778652e+01
1	 1.339693e+00	 8.084110e-01	-7.813276e+01
1	 1.323901e+00	 8.340213e-01	-7.992263e+01
1	 1.307584e+00	 8.593774e-01	-8.175061e+01
1	 1.290747e+00	 8.844636e-01	-8.347111e+01
1	 1.273398e+00	 9.092640e-01	-8.491858e+01
1	 1.255544e+00	 9.337632e-01	-8.590827e+01
1	 1.349765e+00	 8.144893e-01	-7.690379e+01
1	 1.333855e+00	 8.402921e-01	-7.879097e+01
1	 1.317415e+00	 8.658389e-01	-8.044941e+01
1	 1.300452e+00	 8.911137e-01	-8.184491e+01
1	 1.282973e+00	 9.161006e-01	-8.293391e+01
1	 1.264984e+00	 9.407840e-01	-8.366368e+01
1	 1.359838e+00	 8.205676e-01	-7.569116e+01
1	 1.343809e+00	 8.465629e-01	-7.758856e+01
1	 1.327247e+00	 8.723004e-01	-7.895190e+01
1	 1.310157e+00	 8.977638e-01	-7.989857e+01
1	 1.292547e+00	 9.229372e-01	-8.055154e+01
1	 1.274424e+00	 9.478048e-01	-8.103894e+01
1	 1.227223e+00	 9.127009e-01	-9.050126e+01
1	 1.209285e+00	 9.363382e-01	-9.160942e+01
1	 1.190869e+00	 9.596514e-01	-9.244502e+01
1	 1.171984e+00	 9.826262e-01	-9.328293e+01
1	 1.152639e+00	 1.005249e+00	-9.441473e+01
1	 1.132843e+00	 1.027505e+00	-9.614714e+01
1	 1.236664e+00	 9.197217e-01	-8.931264e+01
1	 1.218588e+00	 9.435408e-01	-9.026427e+01
1	 1.200030e+00	 9.670333e-01	-9.101359e+01
1	 1.180999e+00	 9.901849e-01	-9.180797e+01
1	 1.161505e+00	 1.012981e+00	-9.290948e+01
1	 1.141558e+00	 1.035409e+00	-9.459341e+01
1	 1.246104e+00	 9.267425e-01	-8.778652e+01
1	 1.227890e+00	 9.507434e-01	-8.859274e+01
1	 1.209190e+00	 9.744153e-01	-8.931646e+01
1	 1.190014e+00	 9.977435e-01	-9.014362e+01
1	 1.170371e+00	 1.020714e+00	-9.127008e+01
1	 1.150272e+00	 1.043313e+00	-9.290055e+01
1	 1.255544e+00	 9.337632e-01	-8.590827e+01
1	 1.237192e+00	 9.579460e-01	-8.660992e+01
1	 1.218351e+00	 9.817972e-01	-8.738509e+01
1	 1.199030e+00	 1.005302e+00	-8.832511e+01
1	 1.179238e+00	 1.028447e+00	-8.952386e+01
1	 1.158986e+00	 1.051217e+00	-9.107710e+01
1	 1.264984e+00	 9.407840e-01	-8.366368e+01
1	 1.246494e+00	 9.651486e-01	-8.433041e+01
1	 1.227511e+00	 9.891791e-01	-8.524997e+01
1	 1.208045e+00	 1.012861e+00	-8.638668e+01
1	 1.188104e+00	 1.036179e+00	-8.769733e+01
1	 1.167700e+00	 1.059120e+00	-8.913131e+01
1	 1.274424e+00	 9.478048e-01	-8.103894e+01
1	 1.255796e+00	 9.723512e-01	-8.176842e+01
1	 1.236672e+00	 9.965611e-01	-8.294072e+01
1	 1.217060e+00	 1.020420e+00	-8.436150e+01
1	 1.196971e+00	 1.043912e+00	-8.581622e+01
1	 1.176414e+00	 1.067024e+00	-8.707120e+01
1	 1.132843e+00	 1.027505e+00	-9.614714e+01
1	 1.112609e+00	 1.049382e+00	-9.821244e+01
1	 1.091946e+00	 1.070866e+00	-9.980257e+01
1	 1.070866e+00	 1.091946e+00	-1.004050e+02
1	 1.049382e+00	 1.112609e+00	-9.948412e+01
1	 1.027505e+00	 1.132843e+00	-9.648418e+01
1	 1.141558e+00	 1.035409e+00	-9.459341e+01
1	 1.121167e+00	 1.057454e+00	-9.648131e+01
1	 1.100346e+00	 1.079104e+00	-9.772131e+01
1	 1.079104e+00	 1.100346e+00	-9.787287e+01
1	 1.057454e+00	 1.121167e+00	-9.647793e+01
1	 1.035409e+00	 1.141558e+00	-9.306366e+01
1	 1.150272e+00	 1.043313e+00	-9.290055e+01
1	 1.129726e+00	 1.065526e+00	-9.454150e+01
1	 1.108745e+00	 1.087341e+00	-9.534109e+01
1	 1.087341e+00	 1.108745e+00	-9.496373e+01
1	 1.065526e+00	 1.129726e+00	-9.306380e+01
1	 1.043313e+00	 1.150272e+00	-8.928786e+01
1	 1.158986e+00	 1.051217e+00	-9.107710e+01
1	 1.138284e+00	 1.073598e+00	-9.238264e+01
1	 1.117145e+00	 1.095579e+00	-9.264227e+01
1	 1.095579e+00	 1.117145e+00	-9.165756e+01
1	 1.073598e+00	 1.138284e+00	-8.922942e+01
1	 1.051217e+00	 1.158986e+00	-8.515943e+01
1	 1.167700e+00	 1.059120e+00	-8.913131e+01
1	 1.146843e+00	 1.081670e+00	-8.999465e+01
1	 1.125544e+00	 1.103816e+00	-8.960579e+01
1	 1.103816e+00	 1.125544e+00	-8.793494e+01
1	 1.081670e+00	 1.146843e+00	-8.496281e+01
1	 1.059120e+00	 1.167700e+00	-8.068094e+01
1	 1.176414e+00	 1.067024e+00	-8.707120e+01
1	 1.155401e+00	 1.089743e+00	-8.736775e+01
1	 1.133944e+00	 1.112053e+00	-8.621314e+01
1	 1.112053e+00	 1.133944e+00	-8.377700e+01
1	 1.089743e+00	 1.155401e+00	-8.025237e+01
1	 1.067024e+00	 1.176414e+00	-7.585490e+01
1	 1.027505e+00	 1.132843e+00	-9.648418e+01
1	 1.005249e+00	 1.152639e+00	-9.171931e+01
1	 9.826262e-01	 1.171984e+00	-8.631256e+01
1	 9.596514e-01	 1.190869e+00	-8.093197e+01
1	 9.363382e-01	 1.209285e+00	-7.627343e+01
1	 9.127009e-01	 1.227223e+00	-7.305656e+01
1	 1.035409e+00	 1.141558e+00	-9.306366e+01
1	 1.012981e+00	 1.161505e+00	-8.812794e+01
1	 9.901849e-01	 1.180999e+00	-8.287151e+01
1	 9.670333e-01	 1.200030e+00	-7.788544e+01
1	 9.435408e-01	 1.218588e+00	-7.378315e+01
1	 9.197217e-01	 1.236664e+00	-7.119669e+01
1	 1.043313e+00	 1.150272e+00	-8.928786e+01
1	 1.020714e+00	 1.170371e+00	-8.431033e+01
1	 9.977435e-01	 1.190014e+00	-7.935205e+01
1	 9.744153e-01	 1.209190e+00	-7.488751e+01
1	 9.507434e-01	 1.227890e+00	-7.140612e+01
1	 9.267425e-01	 1.246104e+00	-6.940918e+01
1	 1.051217e+00	 1.158986e+00	-8.515943e+01
1	 1.028447e+00	 1.179238e+00	-8.028177e+01
1	 1.005302e+00	 1.199030e+00	-7.577126e+01
1	 9.817972e-01	 1.218351e+00	-7.194712e+01
1	 9.579460e-01	 1.237192e+00	-6.913412e+01
1	 9.337632e-01	 1.255544e+00	-6.766058e+01
1	 1.059120e+00	 1.167700e+00	-8.068094e+01
1	 1.036179e+00	 1.188104e+00	-7.605709e+01
1	 1.012861e+00	 1.208045e+00	-7.214572e+01
1	 9.891791e-01	 1.227511e+00	-6.907291e+01
1	 9.651486e-01	 1.246494e+00	-6.695915e+01
1	 9.407840e-01	 1.264984e+00	-6.591845e+01
1	 1.067024e+00	 1.176414e+00	-7.585490e+01
1	 1.043912e+00	 1.196971e+00	-7.165071e+01
1	 1.020420e+00	 1.217060e+00	-6.849150e+01
1	 9.965611e-01	 1.236672e+00	-6.627331e+01
1	 9.723512e-01	 1.255796e+00	-6.487348e+01
1	 9.478048e-01	 1.274424e+00	-6.415129e+01
1	 9.127009e-01	 1.227223e+00	-7.305656e+01
1	 8.887543e-01	 1.244675e+00	-7.159952e+01
1	 8.645133e-01	 1.261633e+00	-7.142511e+01
1	 8.399929e-01	 1.278089e+00	-7.205805e+01
1	 8.152087e-01	 1.294038e+00	-7.300277e+01
1	 7.901762e-01	 1.309474e+00	-7.374644e+01
1	 9.197217e-01	 1.236664e+00	-7.119669e+01
1	 8.955909e-01	 1.254250e+00	-7.025634e+01
1	 8.711634e-01	 1.271338e+00	-7.038201e+01
1	 8.464544e-01	 1.287921e+00	-7.113588e+01
1	 8.214796e-01	 1.303992e+00	-7.206101e+01
1	 7.962545e-01	 1.319547e+00	-7.268411e+01
1	 9.267425e-01	 1.246104e+00	-6.940918e+01
1	 9.024274e-01	 1.263824e+00	-6.883371e+01
1	 8.778135e-01	 1.281042e+00	-6.905806e+01
1	 8.529159e-01	 1.297752e+00	-6.973997e+01
1	 8.277504e-01	 1.313947e+00	-7.052190e+01
1	 8.023328e-01	 1.329620e+00	-7.103340e+01
1	 9.337632e-01	 1.255544e+00	-6.766058e+01
1	 9.092640e-01	 1.273398e+00	-6.727842e+01
1	 8.844636e-01	 1.290747e+00	-6.739775e+01
1	 8.593774e-01	 1.307584e+00	-6.782854e+01
1	 8.340213e-01	 1.323901e+00	-6.837218e+01
1	 8.084110e-01	 1.339693e+00	-6.882285e+01
1	 9.407840e-01	 1.264984e+00	-6.591845e+01
1	 9.161006e-01	 1.282973e+00	-6.553885e+01
1	 8.911137e-01	 1.300452e+00	-6.534720e+01
1	 8.658389e-01	 1.317415e+00	-6.536109e+01
1	 8.402921e-01	 1.333855e+00	-6.559897e+01
1	 8.144893e-01	 1.349765e+00	-6.608015e+01
1	 9.478048e-01	 1.274424e+00	-6.415129e+01
1	 9.229372e-01	 1.292547e+00	-6.356492e+01
1	 8.977638e-01	 1.310157e+00	-6.285413e+01
1	 8.723004e-01	 1.327247e+00	-6.229831e+01
1	 8.465629e-01	 1.343809e+00	-6.218979e+01
1	 8.205676e-01	 1.359838e+00	-6.283215e+01
1	 7.901762e-01	 1.309474e+00	-7.374644e+01
1	 7.649110e-01	 1.324391e+00	-7.420021e+01
1	 7.394290e-01	 1.338785e+00	-7.475580e+01
1	 7.137460e-01	 1.352652e+00	-7.561280e+01
1	 6.878780e-01	 1.365988e+00	-7.697317e+01
1	 6.618409e-01	 1.378792e+00	-7.903983e+01
1	 7.962545e-01	 1.319547e+00	-7.268411e+01
1	 7.707949e-01	 1.334579e+00	-7.302055e+01
1	 7.451169e-01	 1.349083e+00	-7.355529e+01
1	 7.192363e-01	 1.363057e+00	-7.451347e+01
1	 6.931694e-01	 1.376496e+00	-7.612502e+01
1	 6.669320e-01	 1.389398e+00	-7.862307e+01
1	 8.023328e-01	 1.329620e+00	-7.103340e+01
1	 7.766789e-01	 1.344766e+00	-7.142853e+01
1	 7.508048e-01	 1.359382e+00	-7.221488e+01
1	 7.247267e-01	 1.373462e+00	-7.354733e+01
1	 6.984607e-01	 1.387004e+00	-7.558426e+01
1	 6.720231e-01	 1.400004e+00	-7.848642e+01
1	 8.084110e-01	 1.339693e+00	-6.882285e+01
1	 7.825628e-01	 1.354954e+00	-6.948653e+01
1	 7.564927e-01	 1.369680e+00	-7.080408e+01
1	 7.302170e-01	 1.383867e+00	-7.276649e+01
1	 7.037521e-01	 1.397511e+00	-7.536336e+01
1	 6.771142e-01	 1.410610e+00	-7.858277e+01
1	 8.144893e-01	 1.349765e+00	-6.608015e+01
1	 7.884467e-01	 1.365141e+00	-6.725509e+01
1	 7.621806e-01	 1.379978e+00	-6.939031e+01
1	 7.357074e-01	 1.394272e+00	-7.222149e+01
1	 7.090435e-01	 1.408019e+00	-7.547442e+01
1	 6.822053e-01	 1.421216e+00	-7.886647e+01
1	 8.205676e-01	 1.359838e+00	-6.283215e+01
1	 7.943307e-01	 1.375329e+00	-6.479296e+01
1	 7.678685e-01	 1.390277e+00	-6.803903e+01
1	 7.411977e-01	 1.404677e+00	-7.196139e+01
1	 7.143348e-01	 1.418526e+00	-7.592916e+01
1	 6.872964e-01	 1.431822e+00	-7.929319e+01
1	 6.618409e-01	 1.378792e+00	-7.903983e+01
1	 6.356508e-01	 1.391060e+00	-8.168619e+01
1	 6.093235e-01	 1.402792e+00	-8.436544e+01
1	 5.828749e-01	 1.413986e+00	-8.664530e+01
1	 5.563208e-01	 1.424643e+00	-8.808894e+01
1	 5.296768e-01	 1.434762e+00	-8.825739e+01
1	 6.669320e-01	 1.389398e+00	-7.862307e+01
1	 6.405404e-01	 1.401761e+00	-8.182322e+01
1	 6.140106e-01	 1.413583e+00	-8.500234e+01
1	 5.873586e-01	 1.424863e+00	-8.757828e+01
1	 5.606002e-01	 1.435602e+00	-8.895988e+01
1	 5.337512e-01	 1.445799e+00	-8.855041e+01
1	 6.720231e-01	 1.400004e+00	-7.848642e+01
1	 6.454301e-01	 1.412461e+00	-8.193388e+01
1	 6.186977e-01	 1.424373e+00	-8.511348e+01
1	 5.918422e-01	 1.435740e+00	-8.743808e+01
1	 5.648796e-01	 1.446561e+00	-8.831112e+01
1	 5.378257e-01	 1.456836e+00	-8.713012e+01
1	 6.771142e-01	 1.410610e+00	-7.858277e+01
1	 6.503197e-01	 1.423162e+00	-8.192146e+01
1	 6.233848e-01	 1.435164e+00	-8.458847e+01
1	 5.963259e-01	 1.446617e+00	-8.613317e+01
1	 5.691590e-01	 1.457519e+00	-8.609911e+01
1	 5.419001e-01	 1.467872e+00	-8.402656e+01
1	 6.822053e-01	 1.421216e+00	-7.886647e+01
1	 6.552093e-01	 1.433862e+00	-8.169213e+01
1	 6.280720e-01	 1.445955e+00	-8.332020e+01
1	 6.008096e-01	 1.457494e+00	-8.357477e+01
1	 5.734384e-01	 1.468478e+00	-8.228159e+01
1	 5.459745e-01	 1.478909e+00	-7.926889e+01
1	 6.872964e-01	 1.431822e+00	-7.929319e+01
1	 6.600989e-01	 1.444562e+00	-8.115487e+01
1	 6.327591e-01	 1.456745e+00	-8.120475e+01
1	 6.052932e-01	 1.468370e+00	-7.967671e+01
1	 5.777178e-01	 1.479437e+00	-7.681757e+01
1	 5.500490e-01	 1.489945e+00	-7.288542e+01
1	 5.296768e-01	 1.434762e+00	-8.825739e+01
1	 5.029584e-01	 1.444345e+00	-8.659085e+01
1	 4.761809e-01	 1.453393e+00	-8.303478e+01
1	 4.493594e-01	 1.461908e+00	-7.791475e+01
1	 4.225090e-01	 1.469893e+00	-7.156408e+01
1	 3.956442e-01	 1.477351e+00	-6.432199e+01
1	 5.337512e-01	 1.445799e+00	-8.855041e+01
1	 5.068273e-01	 1.455456e+00	-8.578182e+01
1	 4.798438e-01	 1.464573e+00	-8.087398e+01
1	 4.528160e-01	 1.473154e+00	-7.442126e+01
1	 4.257591e-01	 1.481200e+00	-6.703049e+01
1	 3.986876e-01	 1.488715e+00	-5.931753e+01
1	 5.378257e-01	 1.456836e+00	-8.713012e+01
1	 5.106962e-01	 1.466566e+00	-8.345143e+01
1	 4.835067e-01	 1.475753e+00	-7.769553e+01
1	 4.562727e-01	 1.484399e+00	-7.056674e+01
1	 4.290091e-01	 1.492507e+00	-6.278353e+01
1	 4.017310e-01	 1.500079e+00	-5.507444e+01
1	 5.419001e-01	 1.467872e+00	-8.402656e+01
1	 5.145651e-01	 1.477676e+00	-7.969570e+01
1	 4.871697e-01	 1.486933e+00	-7.362527e+01
1	 4.597293e-01	 1.495645e+00	-6.647447e+01
1	 4.322592e-01	 1.503814e+00	-5.891532e+01
1	 4.047745e-01	 1.511444e+00	-5.162885e+01
1	 5.459745e-01	 1.478909e+00	-7.926889e+01
1	 5.184340e-01	 1.488787e+00	-7.460778e+01
1	 4.908326e-01	 1.498113e+00	-6.878529e+01
1	 4.631859e-01	 1.506890e+00	-6.226407e+01
1	 4.355093e-01	 1.515121e+00	-5.551526e+01
1	 4.078179e-01	 1.522808e+00	-4.901582e+01
1	 5.500490e-01	 1.489945e+00	-7.288542e+01
1	 5.223029e-01	 1.499897e+00	-6.827804e+01
1	 4.944955e-01	 1.509293e+00	-6.329407e+01
1	 4.666425e-01	 1.518136e+00	-5.805162e+01
1	 4.387593e-01	 1.526428e+00	-5.267005e+01
1	 4.108613e-01	 1.534172e+00	-4.726935e+01
1	 3.956442e-01	 1.477351e+00	-6.432199e+01
1	 3.687795e-01	 1.484285e+00	-5.718617e+01
1	 3.419290e-01	 1.490699e+00	-5.081312e+01
1	 3.151066e-01	 1.496599e+00	-4.503515e+01
1	 2.883258e-01	 1.501988e+00	-3.968686e+01
1	 2.615998e-01	 1.506873e+00	-3.460560e+01
1	 3.986876e-01	 1.488715e+00	-5.931753e+01
1	 3.716163e-01	 1.495703e+00	-5.242097e+01
1	 3.445593e-01	 1.502166e+00	-4.678339e+01
1	 3.175305e-01	 1.508111e+00	-4.198028e+01
1	 2.905437e-01	 1.513542e+00	-3.758712e+01
1	 2.636121e-01	 1.518464e+00	-3.318128e+01
1	 4.017310e-01	 1.500079e+00	-5.507444e+01
1	 3.744530e-01	 1.507120e+00	-4.856770e+01
1	 3.471895e-01	 1.513633e+00	-4.352959e+01
1	 3.199544e-01	 1.519623e+00	-3.939837e+01
1	 2.927616e-01	 1.525096e+00	-3.561115e+01
1	 2.656244e-01	 1.530056e+00	-3.160651e+01
1	 4.047745e-01	 1.511444e+00	-5.162885e+01
1	 3.772898e-01	 1.518538e+00	-4.560804e+01
1	 3.498197e-01	 1.525100e+00	-4.100253e+01
1	 3.223783e-01	 1.531136e+00	-3.723011e+01
1	 2.949795e-01	 1.536649e+00	-3.370743e+01
1	 2.676367e-01	 1.541647e+00	-2.985269e+01
1	 4.078179e-01	 1.522808e+00	-4.901582e+01
1	 3.801266e-01	 1.529955e+00	-4.352425e+01
1	 3.524499e-01	 1.536567e+00	-3.915449e+01
1	 3.248022e-01	 1.542648e+00	-3.541796e+01
1	 2.971974e-01	 1.548203e+00	-3.182599e+01
1	 2.696490e-01	 1.553238e+00	-2.789207e+01
1	 4.108613e-01	 1.534172e+00	-4.726935e+01
1	 3.829633e-01	 1.541373e+00	-4.229909e+01
1	 3.550801e-01	 1.548034e+00	-3.793918e+01
1	 3.272261e-01	 1.554160e+00	-3.390609e+01
1	 2.994153e-01	 1.559757e+00	-2.991834e+01
1	 2.716613e-01	 1.564830e+00	-2.569771e+01
1	 2.615998e-01	 1.506873e+00	-3.460560e+01
1	 2.349414e-01	 1.511259e+00	-2.868649e+01
1	 2.083633e-01	 1.515152e+00	-2.141899e+01
1	 1.818774e-01	 1.518559e+00	-1.353174e+01
1	 1.554956e-01	 1.521487e+00	-5.747978e+00
1	 1.292293e-01	 1.523942e+00	 1.217116e+00
1	 2.636121e-01	 1.518464e+00	-3.318128e+01
1	 2.367487e-01	 1.522884e+00	-2.751727e+01
1	 2.099661e-01	 1.526807e+00	-2.021927e+01
1	 1.832765e-01	 1.530240e+00	-1.216888e+01
1	 1.566917e-01	 1.533190e+00	-4.241205e+00
1	 1.302234e-01	 1.535665e+00	 2.698528e+00
1	 2.656244e-01	 1.530056e+00	-3.160651e+01
1	 2.385559e-01	 1.534509e+00	-2.610490e+01
1	 2.115689e-01	 1.538462e+00	-1.884085e+01
1	 1.846755e-01	 1.541921e+00	-1.077374e+01
1	 1.578879e-01	 1.544894e+00	-2.855652e+00
1	 1.312174e-01	 1.547388e+00	 3.972401e+00
1	 2.676367e-01	 1.541647e+00	-2.985269e+01
1	 2.403632e-01	 1.546134e+00	-2.444440e+01
1	 2.131717e-01	 1.550117e+00	-1.729180e+01
1	 1.860746e-01	 1.553603e+00	-9.358565e+00
1	 1.590840e-01	 1.556598e+00	-1.600585e+00
1	 1.322115e-01	 1.559110e+00	 5.037858e+00
1	 2.696490e-01	 1.553238e+00	-2.789207e+01
1	 2.421704e-01	 1.557759e+00	-2.253097e+01
1	 2.147744e-01	 1.561772e+00	-1.557994e+01
1	 1.874736e-01	 1.565284e+00	-7.935215e+00
1	 1.602801e-01	 1.568302e+00	-4.849961e-01
1	 1.332056e-01	 1.570833e+00	 5.894048e+00
1	 2.716613e-01	 1.564830e+00	-2.569771e+01
1	 2.439777e-01	 1.569384e+00	-2.035994e+01
1	 2.163772e-01	 1.573427e+00	-1.371288e+01
1	 1.888727e-01	 1.576965e+00	-6.515216e+00
1	 1.614762e-01	 1.580005e+00	 4.823907e-01
1	 1.341996e-01	 1.582555e+00	 6.540146e+00
1	 1.292293e-01	 1.523942e+00	 1.217116e+00
1	 1.030894e-01	 1.525933e+00	 6.355619e+00
1	 7.708653e-02	 1.527468e+00	 1.010739e+01
1	 5.123090e-02	 1.528553e+00	 1.392801e+01
1	 2.553226e-02	 1.529199e+00	 1.925772e+01
1	 0.000000e+00	 1.529412e+00	 2.751674e+01
1	 1.302234e-01	 1.535665e+00	 2.698528e+00
1	 1.038824e-01	 1.537671e+00	 7.645588e+00
1	 7.767951e-02	 1.539218e+00	 1.124307e+01
1	 5.162498e-02	 1.540312e+00	 1.509533e+01
1	 2.572867e-02	 1.540962e+00	 2.078699e+01
1	 0.000000e+00	 1.541176e+00	 2.987758e+01
1	 1.312174e-01	 1.547388e+00	 3.972401e+00
1	 1.046754e-01	 1.549409e+00	 8.758183e+00
1	 7.827248e-02	 1.550967e+00	 1.229517e+01
1	 5.201907e-02	 1.552070e+00	 1.625777e+01
1	 2.592507e-02	 1.552725e+00	 2.229759e+01
1	 0.000000e+00	 1.552941e+00	 3.203796e+01
1	 1.322115e-01	 1.559110e+00	 5.037858e+00
1	 1.054684e-01	 1.561147e+00	 9.699661e+00
1	 7.886545e-02	 1.562717e+00	 1.327151e+01
1	 5.241315e-02	 1.563828e+00	 1.742087e+01
1	 2.612147e-02	 1.564488e+00	 2.379084e+01
1	 0.000000e+00	 1.564706e+00	 3.399468e+01
1	 1.332056e-01	 1.570833e+00	 5.894048e+00
1	 1.062614e-01	 1.572885e+00	 1.047609e+01
1	 7.945843e-02	 1.574467e+00	 1.417966e+01
1	 5.280723e-02	 1.575586e+00	 1.859005e+01
1	 2.631787e-02	 1.576251e+00	 2.526802e+01
1	 0.000000e+00	 1.576471e+00	 3.574460e+01
1	 1.341996e-01	 1.582555e+00	 6.540146e+00
1	 1.070544e-01	 1.584623e+00	 1.109336e+01
1	 8.005140e-02	 1.586217e+00	 1.502695e+01
1	 5.320132e-02	 1.587344e+00	 1.977054e+01
1	 2.651427e-02	 1.588014e+00	 2.673035e+01
1	 0.000000e+00	 1.588235e+00	 3.728471e+01
1	 1.588235e+00	 0.000000e+00	-1.258588e+01
1	 1.588014e+00	 2.651427e-02	-6.177615e+00
1	 1.587344e+00	 5.320132e-02	-1.507298e+00
1	 1.586217e+00	 8.005140e-02	 1.043850e+00
1	 1.584623e+00	 1.070544e-01	 1.062784e+00
1	 1.582555e+00	 1.341996e-01	-1.895410e+00
1	 1.600000e+00	 0.000000e+00	-1.212368e+01
1	 1.599777e+00	 2.671068e-02	-5.536379e+00
1	 1.599102e+00	 5.359540e-02	-7.643832e-01
1	 1.597966e+00	 8.064437e-02	 1.786596e+00
1	 1.596361e+00	 1.078474e-01	 1.680275e+00
1	 1.594278e+00	 1.351937e-01	-1.550061e+00
1	 1.611765e+00	 0.000000e+00	-1.167230e+01
1	 1.611540e+00	 2.690708e-02	-4.914452e+00
1	 1.610860e+00	 5.398948e-02	-4.703884e-02
1	 1.609716e+00	 8.123735e-02	 2.503962e+00
1	 1.608099e+00	 1.086404e-01	 2.283658e+00
1	 1.606001e+00	 1.361878e-01	-1.191431e+00
1	 1.623529e+00	 0.000000e+00	-1.122706e+01
1	 1.623303e+00	 2.710348e-02	-4.311844e+00
1	 1.622618e+00	 5.438357e-02	 6.419118e-01
1	 1.621466e+00	 8.183032e-02	 3.192098e+00
1	 1.619837e+00	 1.094334e-01	 2.869749e+00
1	 1.617723e+00	 1.371819e-01	-8.204353e-01
1	 1.635294e+00	 0.000000e+00	-1.078343e+01
1	 1.635066e+00	 2.729988e-02	-3.728567e+00
1	 1.634376e+00	 5.477765e-02	 1.299727e+00
1	 1.633216e+00	 8.242329e-02	 3.847263e+00
1	 1.631575e+00	 1.102263e-01	 3.435458e+00
1	 1.629446e+00	 1.381759e-01	-4.379600e-01
1	 1.647059e+00	 0.000000e+00	-1.033699e+01
1	 1.646829e+00	 2.749628e-02	-3.164630e+00
1	 1.646135e+00	 5.517174e-02	 1.923743e+00
1	 1.644965e+00	 8.301627e-02	 4.465825e+00
1	 1.643313e+00	 1.110193e-01	 3.977783e+00
1	 1.641169e+00	 1.391700e-01	-4.486771e-02
1	 1.582555e+00	 1.341996e-01	-1.895410e+00
1	 1.580005e+00	 1.614762e-01	-6.207471e+00
1	 1.576965e+00	 1.888727e-01	-9.874673e+00
1	 1.573427e+00	 2.163772e-01	-1.279442e+01
1	 1.569384e+00	 2.439777e-01	-1.485317e+01
1	 1.564830e+00	 2.716613e-01	-1.592647e+01
1	 1.594278e+00	 1.351937e-01	-1.550061e+00
1	 1.591709e+00	 1.626723e-01	-6.195372e+00
1	 1.588646e+00	 1.902717e-01	-1.015281e+01
1	 1.585082e+00	 2.179800e-01	-1.331331e+01
1	 1.581009e+00	 2.457849e-01	-1.555748e+01
1	 1.576421e+00	 2.736736e-01	-1.675564e+01
1	 1.606001e+00	 1.361878e-01	-1.191431e+00
1	 1.603413e+00	 1.638685e-01	-6.132412e+00
1	 1.600327e+00	 1.916708e-01	-1.034310e+01
1	 1.596737e+00	 2.195828e-01	-1.371010e+01
1	 1.592634e+00	 2.475921e-01	-1.611056e+01
1	 1.588012e+00	 2.756859e-01	-1.741230e+01
1	 1.617723e+00	 1.371819e-01	-8.204353e-01
1	 1.615117e+00	 1.650646e-01	-6.017121e+00
1	 1.612009e+00	 1.930699e-01	-1.044297e+01
1	 1.608392e+00	 2.211856e-01	-1.398235e+01
1	 1.604259e+00	 2.493994e-01	-1.651131e+01
1	 1.599604e+00	 2.776982e-01	-1.789780e+01
1	 1.629446e+00	 1.381759e-01	-4.379600e-01
1	 1.626820e+00	 1.662607e-01	-5.848072e+00
1	 1.623690e+00	 1.944689e-01	-1.044991e+01
1	 1.620047e+00	 2.227884e-01	-1.412767e+01
1	 1.615884e+00	 2.512066e-01	-1.675863e+01
1	 1.611195e+00	 2.797106e-01	-1.821343e+01
1	 1.641169e+00	 1.391700e-01	-4.486771e-02
1	 1.638524e+00	 1.674568e-01	-5.623880e+00
1	 1.635371e+00	 1.958680e-01	-1.036150e+01
1	 1.631702e+00	 2.243912e-01	-1.414376e+01
1	 1.627509e+00	 2.530139e-01	-1.685147e+01
1	 1.622786e+00	 2.817229e-01	-1.836047e+01
1	 1.564830e+00	 2.716613e-01	-1.592647e+01
1	 1.559757e+00	 2.994153e-01	-1.676725e+01
1	 1.554160e+00	 3.272261e-01	-1.819728e+01
1	 1.548034e+00	 3.550801e-01	-2.017676e+01
1	 1.541373e+00	 3.829633e-01	-2.265153e+01
1	 1.534172e+00	 4.108613e-01	-2.555287e+01
1	 1.576421e+00	 2.736736e-01	-1.675564e+01
1	 1.571311e+00	 3.016332e-01	-1.765010e+01
1	 1.565673e+00	 3.296500e-01	-1.905810e+01
1	 1.559501e+00	 3.577104e-01	-2.094583e+01
1	 1.552790e+00	 3.858001e-01	-2.326720e+01
1	 1.545536e+00	 4.139047e-01	-2.596357e+01
1	 1.588012e+00	 2.756859e-01	-1.741230e+01
1	 1.582864e+00	 3.038510e-01	-1.835107e+01
1	 1.577185e+00	 3.320739e-01	-1.973980e+01
1	 1.570968e+00	 3.603406e-01	-2.154736e+01
1	 1.564208e+00	 3.886369e-01	-2.373208e+01
1	 1.556901e+00	 4.169481e-01	-2.624142e+01
1	 1.599604e+00	 2.776982e-01	-1.789780e+01
1	 1.594418e+00	 3.060689e-01	-1.887364e+01
1	 1.588697e+00	 3.344978e-01	-2.024619e+01
1	 1.582435e+00	 3.629708e-01	-2.198384e+01
1	 1.575626e+00	 3.914736e-01	-2.404570e+01
1	 1.568265e+00	 4.199915e-01	-2.638145e+01
1	 1.611195e+00	 2.797106e-01	-1.821343e+01
1	 1.605972e+00	 3.082868e-01	-1.922116e+01
1	 1.600210e+00	 3.369217e-01	-2.058101e+01
1	 1.593902e+00	 3.656010e-01	-2.225769e+01
1	 1.587043e+00	 3.943104e-01	-2.420763e+01
1	 1.579629e+00	 4.230350e-01	-2.637885e+01
1	 1.622786e+00	 2.817229e-01	-1.836047e+01
1	 1.617526e+00	 3.105047e-01	-1.939691e+01
1	 1.611722e+00	 3.393456e-01	-2.074784e+01
1	 1.605369e+00	 3.682313e-01	-2.237125e+01
1	 1.598461e+00	 3.971472e-01	-2.421743e+01
1	 1.590993e+00	 4.260784e-01	-2.622893e+01
1	 1.534172e+00	 4.108613e-01	-2.555287e+01
1	 1.526428e+00	 4.387593e-01	-2.872577e+01
1	 1.518136e+00	 4.666425e-01	-3.205234e+01
1	 1.509293e+00	 4.944955e-01	-3.551387e+01
1	 1.499897e+00	 5.223029e-01	-3.909930e+01
1	 1.489945e+00	 5.500490e-01	-4.280543e+01
1	 1.545536e+00	 4.139047e-01	-2.596357e+01
1	 1.537735e+00	 4.420094e-01	-2.893591e+01
1	 1.529381e+00	 4.700991e-01	-3.209867e+01
1	 1.520473e+00	 4.981584e-01	-3.540632e+01
1	 1.511007e+00	 5.261718e-01	-3.881672e+01
1	 1.500982e+00	 5.541234e-01	-4.229142e+01
1	 1.556901e+00	 4.169481e-01	-2.624142e+01
1	 1.549041e+00	 4.452595e-01	-2.901587e+01
1	 1.540627e+00	 4.735557e-01	-3.199430e+01
1	 1.531653e+00	 5.018214e-01	-3.511356e+01
1	 1.522118e+00	 5.300407e-01	-3.831066e+01
1	 1.512019e+00	 5.581978e-01	-4.152309e+01
1	 1.568265e+00	 4.199915e-01	-2.638145e+01
1	 1.560348e+00	 4.485095e-01	-2.895784e+01
1	 1.551872e+00	 4.770123e-01	-3.173324e+01
1	 1.542833e+00	 5.054843e-01	-3.463593e+01
1	 1.533228e+00	 5.339096e-01	-3.759211e+01
1	 1.523055e+00	 5.622723e-01	-4.052618e+01
1	 1.579629e+00	 4.230350e-01	-2.637885e+01
1	 1.571655e+00	 4.517596e-01	-2.875422e+01
1	 1.563118e+00	 4.804689e-01	-3.130968e+01
1	 1.554013e+00	 5.091472e-01	-3.397378e+01
1	 1.544338e+00	 5.377785e-01	-3.667175e+01
1	 1.534092e+00	 5.663467e-01	-3.932570e+01
1	 1.590993e+00	 4.260784e-01	-2.622893e+01
1	 1.582962e+00	 4.550097e-01	-2.839765e+01
1	 1.574363e+00	 4.839255e-01	-3.071795e+01
1	 1.565193e+00	 5.128102e-01	-3.312741e+01
1	 1.555449e+00	 5.416475e-01	-3.555994e+01
1	 1.545129e+00	 5.704211e-01	-3.794592e+01
1	 1.489945e+00	 5.500490e-01	-4.280543e+01
1	 1.479437e+00	 5.777178e-01	-4.666869e+01
1	 1.468370e+00	 6.052932e-01	-5.066082e+01
1	 1.456745e+00	 6.327591e-01	-5.467338e+01
1	 1.444562e+00	 6.600989e-01	-5.857903e+01
1	 1.431822e+00	 6.872964e-01	-6.223161e+01
1	 1.500982e+00	 5.541234e-01	-4.229142e+01
1	 1.490396e+00	 5.819972e-01	-4.579559e+01
1	 1.479247e+00	 6.097769e-01	-4.930480e+01
1	 1.467536e+00	 6.374462e-01	-5.279281e+01
1	 1.455263e+00	 6.649885e-01	-5.622489e+01
1	 1.442428e+00	 6.923874e-01	-5.955768e+01
1	 1.512019e+00	 5.581978e-01	-4.152309e+01
1	 1.501354e+00	 5.862765e-01	-4.468175e+01
1	 1.490124e+00	 6.142605e-01	-4.778076e+01
1	 1.478327e+00	 6.421333e-01	-5.085257e+01
1	 1.465963e+00	 6.698782e-01	-5.392896e+01
1	 1.453034e+00	 6.974785e-01	-5.704072e+01
1	 1.523055e+00	 5.622723e-01	-4.052618e+01
1	 1.512313e+00	 5.905559e-01	-4.336338e+01
1	 1.501001e+00	 6.187442e-01	-4.612313e+01
1	 1.489118e+00	 6.468204e-01	-4.887355e+01
1	 1.476664e+00	 6.747678e-01	-5.168729e+01
1	 1.463641e+00	 7.025696e-01	-5.464126e+01
1	 1.534092e+00	 5.663467e-01	-3.932570e+01
1	 1.523272e+00	 5.948353e-01	-4.187565e+01
1	 1.511878e+00	 6.232278e-01	-4.436537e+01
1	 1.499908e+00	 6.515075e-01	-4.687603e+01
1	 1.487364e+00	 6.796574e-01	-4.949608e+01
1	 1.474247e+00	 7.076607e-01	-5.232096e+01
1	 1.545129e+00	 5.704211e-01	-3.794592e+01
1	 1.534231e+00	 5.991147e-01	-4.025271e+01
1	 1.522754e+00	 6.277115e-01	-4.253994e+01
1	 1.510699e+00	 6.561946e-01	-4.487970e+01
1	 1.498065e+00	 6.845470e-01	-4.735160e+01
1	 1.484853e+00	 7.127518e-01	-5.004256e+01
1	 1.431822e+00	 6.872964e-01	-6.223161e+01
1	 1.418526e+00	 7.143348e-01	-6.551661e+01
1	 1.404677e+00	 7.411977e-01	-6.844654e+01
1	 1.390277e+00	 7.678685e-01	-7.106863e+01
1	 1.375329e+00	 7.943307e-01	-7.345271e+01
1	 1.359838e+00	 8.205676e-01	-7.569116e+01
1	 1.442428e+00	 6.923874e-01	-5.955768e+01
1	 1.429034e+00	 7.196262e-01	-6.281709e+01
1	 1.415082e+00	 7.466881e-01	-6.600033e+01
1	 1.400575e+00	 7.735565e-01	-6.901902e+01
1	 1.385517e+00	 8.002146e-01	-7.179132e+01
1	 1.369911e+00	 8.266459e-01	-7.424242e+01
1	 1.453034e+00	 6.974785e-01	-5.704072e+01
1	 1.439542e+00	 7.249176e-01	-6.028261e+01
1	 1.425487e+00	 7.521785e-01	-6.361132e+01
1	 1.410873e+00	 7.792444e-01	-6.684548e+01
1	 1.395704e+00	 8.060985e-01	-6.979865e+01
1	 1.379984e+00	 8.327241e-01	-7.228016e+01
1	 1.463641e+00	 7.025696e-01	-5.464126e+01
1	 1.450049e+00	 7.302089e-01	-5.784375e+01
1	 1.435892e+00	 7.576688e-01	-6.120121e+01
1	 1.421172e+00	 7.849323e-01	-6.448096e+01
1	 1.405892e+00	 8.119825e-01	-6.743807e+01
1	 1.390057e+00	 8.388024e-01	-6.981638e+01
1	 1.474247e+00	 7.076607e-01	-5.232096e+01
1	 1.460557e+00	 7.355003e-01	-5.543313e+01
1	 1.446297e+00	 7.631592e-01	-5.869397e+01
1	 1.431470e+00	 7.906202e-01	-6.186036e+01
1	 1.416080e+00	 8.178664e-01	-6.467405e+01
1	 1.400130e+00	 8.448807e-01	-6.686272e+01
1	 1.484853e+00	 7.127518e-01	-5.004256e+01
1	 1.471064e+00	 7.407917e-01	-5.298526e+01
1	 1.456702e+00	 7.686495e-01	-5.601572e+01
1	 1.441768e+00	 7.963081e-01	-5.892040e+01
1	 1.426267e+00	 8.237503e-01	-6.147201e+01
1	 1.410203e+00	 8.509590e-01	-6.343050e+01
1	 1.359838e+00	 8.205676e-01	-7.569116e+01
1	 1.343809e+00	 8.465629e-01	-7.758856e+01
1	 1.327247e+00	 8.723004e-01	-7.895190e+01
1	 1.310157e+00	 8.977638e-01	-7.989857e+01
1	 1.292547e+00	 9.229372e-01	-8.055154e+01
1	 1.274424e+00	 9.478048e-01	-8.103894e+01
1	 1.369911e+00	 8.266459e-01	-7.424242e+01
1	 1.353763e+00	 8.528338e-01	-7.604263e+01
1	 1.337078e+00	 8.787619e-01	-7.707211e+01
1	 1.319862e+00	 9.044139e-01	-7.759224e+01
1	 1.302122e+00	 9.297737e-01	-7.788468e+01
1	 1.283865e+00	 9.548256e-01	-7.825008e+01
1	 1.379984e+00	 8.327241e-01	-7.228016e+01
1	 1.363717e+00	 8.591046e-01	-7.392093e+01
1	 1.346909e+00	 8.852233e-01	-7.469962e+01
1	 1.329567e+00	 9.110640e-01	-7.496778e+01
1	 1.311696e+00	 9.366103e-01	-7.510675e+01
1	 1.293305e+00	 9.618463e-01	-7.552597e+01
1	 1.390057e+00	 8.388024e-01	-6.981638e+01
1	 1.373671e+00	 8.653754e-01	-7.128032e+01
1	 1.356741e+00	 8.916848e-01	-7.191188e+01
1	 1.339272e+00	 9.177141e-01	-7.210012e+01
1	 1.321271e+00	 9.434469e-01	-7.226836e+01
1	 1.302745e+00	 9.688671e-01	-7.287230e+01
1	 1.400130e+00	 8.448807e-01	-6.686272e+01
1	 1.383626e+00	 8.716463e-01	-6.817599e+01
1	 1.366572e+00	 8.981463e-01	-6.878410e+01
1	 1.348977e+00	 9.243642e-01	-6.906206e+01
1	 1.330845e+00	 9.502834e-01	-6.941865e+01
1	 1.312185e+00	 9.758879e-01	-7.029460e+01
1	 1.410203e+00	 8.509590e-01	-6.343050e+01
1	 1.393580e+00	 8.779171e-01	-6.466160e+01
1	 1.376404e+00	 9.046078e-01	-6.538935e+01
1	 1.358681e+00	 9.310143e-01	-6.592429e+01
1	 1.340419e+00	 9.571200e-01	-6.660533e+01
1	 1.321625e+00	 9.829087e-01	-6.779823e+01
1	 1.274424e+00	 9.478048e-01	-8.103894e+01
1	 1.255796e+00	 9.723512e-01	-8.176842e+01
1	 1.236672e+00	 9.965611e-01	-8.294072e+01
1	 1.217060e+00	 1.020420e+00	-8.436150e+01
1	 1.196971e+00	 1.043912e+00	-8.581622e+01
1	 1.176414e+00	 1.067024e+00	-8.707120e+01
1	 1.283865e+00	 9.548256e-01	-7.825008e+01
1	 1.265099e+00	 9.795538e-01	-7.913991e+01
1	 1.245832e+00	 1.003943e+00	-8.058619e+01
1	 1.226075e+00	 1.027978e+00	-8.224922e+01
1	 1.205837e+00	 1.051645e+00	-8.375762e+01
1	 1.185128e+00	 1.074928e+00	-8.471019e+01
1	 1.293305e+00	 9.618463e-01	-7.552597e+01
1	 1.274401e+00	 9.867564e-01	-7.662641e+01
1	 1.254993e+00	 1.011325e+00	-7.825746e+01
1	 1.235091e+00	 1.035537e+00	-7.999111e+01
1	 1.214704e+00	 1.059377e+00	-8.136097e+01
1	 1.193843e+00	 1.082832e+00	-8.186462e+01
1	 1.302745e+00	 9.688671e-01	-7.287230e+01
1	 1.283703e+00	 9.939590e-01	-7.419091e+01
1	 1.264154e+00	 1.018707e+00	-7.589809e+01
1	 1.244106e+00	 1.043096e+00	-7.753331e+01
1	 1.223570e+00	 1.067110e+00	-7.859566e+01
1	 1.202557e+00	 1.090736e+00	-7.854643e+01
1	 1.312185e+00	 9.758879e-01	-7.029460e+01
1	 1.293005e+00	 1.001162e+00	-7.179747e+01
1	 1.273314e+00	 1.026089e+00	-7.345326e+01
1	 1.253121e+00	 1.050654e+00	-7.482349e+01
1	 1.232437e+00	 1.074843e+00	-7.543197e+01
1	 1.211271e+00	 1.098640e+00	-7.476723e+01
1	 1.321625e+00	 9.829087e-01	-6.779823e+01
1	 1.302307e+00	 1.008364e+00	-6.941117e+01
1	 1.282475e+00	 1.033471e+00	-7.086971e+01
1	 1.262136e+00	 1.058213e+00	-7.181082e+01
1	 1.241303e+00	 1.082575e+00	-7.184100e+01
1	 1.219985e+00	 1.106544e+00	-7.053831e+01
1	 1.176414e+00	 1.067024e+00	-8.707120e+01
1	 1.155401e+00	 1.089743e+00	-8.736775e+01
1	 1.133944e+00	 1.112053e+00	-8.621314e+01
1	 1.112053e+00	 1.133944e+00	-8.377700e+01
1	 1.089743e+00	 1.155401e+00	-8.025237e+01
1	 1.067024e+00	 1.176414e+00	-7.585490e+01
1	 1.185128e+00	 1.074928e+00	-8.471019e+01
1	 1.163960e+00	 1.097815e+00	-8.435326e+01
1	 1.142343e+00	 1.120291e+00	-8.243134e+01
1	 1.120291e+00	 1.142343e+00	-7.929665e+01
1	 1.097815e+00	 1.163960e+00	-7.533628e+01
1	 1.074928e+00	 1.185128e+00	-7.097023e+01
1	 1.193843e+00	 1.082832e+00	-8.186462e+01
1	 1.172519e+00	 1.105887e+00	-8.084375e+01
1	 1.150743e+00	 1.128528e+00	-7.828471e+01
1	 1.128528e+00	 1.150743e+00	-7.465930e+01
1	 1.105887e+00	 1.172519e+00	-7.048095e+01
1	 1.082832e+00	 1.193843e+00	-6.630196e+01
1	 1.202557e+00	 1.090736e+00	-7.854643e+01
1	 1.181077e+00	 1.113959e+00	-7.689044e+01
1	 1.159143e+00	 1.136766e+00	-7.383968e+01
1	 1.136766e+00	 1.159143e+00	-6.992397e+01
1	 1.113959e+00	 1.181077e+00	-6.571676e+01
1	 1.090736e+00	 1.202557e+00	-6.183213e+01
1	 1.211271e+00	 1.098640e+00	-7.476723e+01
1	 1.189636e+00	 1.122031e+00	-7.254308e+01
1	 1.167542e+00	 1.145003e+00	-6.916081e+01
1	 1.145003e+00	 1.167542e+00	-6.514794e+01
1	 1.122031e+00	 1.189636e+00	-6.107318e+01
1	 1.098640e+00	 1.211271e+00	-5.754328e+01
1	 1.219985e+00	 1.106544e+00	-7.053831e+01
1	 1.198194e+00	 1.130103e+00	-6.785001e+01
1	 1.175942e+00	 1.153241e+00	-6.431076e+01
1	 1.153241e+00	 1.175942e+00	-6.038690e+01
1	 1.130103e+00	 1.198194e+00	-5.657886e+01
1	 1.106544e+00	 1.219985e+00	-5.341847e+01
1	 1.067024e+00	 1.176414e+00	-7.585490e+01
1	 1.043912e+00	 1.196971e+00	-7.165071e+01
1	 1.020420e+00	 1.217060e+00	-6.849150e+01
1	 9.965611e-01	 1.236672e+00	-6.627331e+01
1	 9.723512e-01	 1.255796e+00	-6.487348e+01
1	 9.478048e-01	 1.274424e+00	-6.415129e+01
1	 1.074928e+00	 1.185128e+00	-7.097023e+01
1	 1.051645e+00	 1.205837e+00	-6.728696e+01
1	 1.027978e+00	 1.226075e+00	-6.488662e+01
1	 1.003943e+00	 1.245832e+00	-6.345645e+01
1	 9.795538e-01	 1.265099e+00	-6.265362e+01
1	 9.548256e-01	 1.283865e+00	-6.210722e+01
1	 1.082832e+00	 1.193843e+00	-6.630196e+01
1	 1.059377e+00	 1.214704e+00	-6.313913e+01
1	 1.035537e+00	 1.235091e+00	-6.134628e+01
1	 1.011325e+00	 1.254993e+00	-6.047974e+01
1	 9.867564e-01	 1.274401e+00	-6.005947e+01
1	 9.618463e-01	 1.293305e+00	-5.957190e+01
1	 1.090736e+00	 1.202557e+00	-6.183213e+01
1	 1.067110e+00	 1.223570e+00	-5.914600e+01
1	 1.043096e+00	 1.244106e+00	-5.779372e+01
1	 1.018707e+00	 1.264154e+00	-5.727683e+01
1	 9.939590e-01	 1.283703e+00	-5.705923e+01
1	 9.688671e-01	 1.302745e+00	-5.657035e+01
1	 1.098640e+00	 1.211271e+00	-5.754328e+01
1	 1.074843e+00	 1.232437e+00	-5.524813e+01
1	 1.050654e+00	 1.253121e+00	-5.415439e+01
1	 1.026089e+00	 1.273314e+00	-5.378327e+01
1	 1.001162e+00	 1.293005e+00	-5.362200e+01
1	 9.758879e-01	 1.312185e+00	-5.312687e+01
1	 1.106544e+00	 1.219985e+00	-5.341847e+01
1	 1.082575e+00	 1.241303e+00	-5.138777e+01
1	 1.058213e+00	 1.262136e+00	-5.035587e+01
1	 1.033471e+00	 1.282475e+00	-4.993646e+01
1	 1.008364e+00	 1.302307e+00	-4.971778e+01
1	 9.829087e-01	 1.321625e+00	-4.926506e+01
1	 9.478048e-01	 1.274424e+00	-6.415129e+01
1	 9.229372e-01	 1.292547e+00	-6.356492e+01
1	 8.977638e-01	 1.310157e+00	-6.285413e+01
1	 8.723004e-01	 1.327247e+00	-6.229831e+01
1	 8.465629e-01	 1.343809e+00	-6.218979e+01
1	 8.205676e-01	 1.359838e+00	-6.283215e+01
1	 9.548256e-01	 1.283865e+00	-6.210722e+01
1	 9.297737e-01	 1.302122e+00	-6.122764e+01
1	 9.044139e-01	 1.319862e+00	-6.001422e+01
1	 8.787619e-01	 1.337078e+00	-5.897912e+01
1	 8.528338e-01	 1.353763e+00	-5.865806e+01
1	 8.266459e-01	 1.369911e+00	-5.960697e+01
1	 9.618463e-01	 1.293305e+00	-5.957190e+01
1	 9.366103e-01	 1.311696e+00	-5.848139e+01
1	 9.110640e-01	 1.329567e+00	-5.701814e+01
1	 8.852233e-01	 1.346909e+00	-5.581755e+01
1	 8.591046e-01	 1.363717e+00	-5.554338e+01
1	 8.327241e-01	 1.379984e+00	-5.688361e+01
1	 9.688671e-01	 1.302745e+00	-5.657035e+01
1	 9.434469e-01	 1.321271e+00	-5.540054e+01
1	 9.177141e-01	 1.339272e+00	-5.395533e+01
1	 8.916848e-01	 1.356741e+00	-5.288622e+01
1	 8.653754e-01	 1.373671e+00	-5.287222e+01
1	 8.388024e-01	 1.390057e+00	-5.461567e+01
1	 9.758879e-01	 1.312185e+00	-5.312687e+01
1	 9.502834e-01	 1.330845e+00	-5.205733e+01
1	 9.243642e-01	 1.348977e+00	-5.091265e+01
1	 8.981463e-01	 1.366572e+00	-5.025564e+01
1	 8.716463e-01	 1.383626e+00	-5.067028e+01
1	 8.448807e-01	 1.400130e+00	-5.275810e+01
1	 9.829087e-01	 1.321625e+00	-4.926506e+01
1	 9.571200e-01	 1.340419e+00	-4.852194e+01
1	 9.310143e-01	 1.358681e+00	-4.797447e+01
1	 9.046078e-01	 1.376404e+00	-4.799434e+01
1	 8.779171e-01	 1.393580e+00	-4.896255e+01
1	 8.509590e-01	 1.410203e+00	-5.126712e+01
1	 8.205676e-01	 1.359838e+00	-6.283215e+01
1	 7.943307e-01	 1.375329e+00	-6.479296e+01
1	 7.678685e-01	 1.390277e+00	-6.803903e+01
1	 7.411977e-01	 1.404677e+00	-7.196139e+01
1	 7.143348e-01	 1.418526e+00	-7.592916e+01
1	 6.872964e-01	 1.431822e+00	-7.929319e+01
1	 8.266459e-01	 1.369911e+00	-5.960697e+01
1	 8.002146e-01	 1.385517e+00	-6.241477e+01
1	 7.735565e-01	 1.400575e+00	-6.669628e+01
1	 7.466881e-01	 1.415082e+00	-7.153153e+01
1	 7.196262e-01	 1.429034e+00	-7.596790e+01
1	 6.923874e-01	 1.442428e+00	-7.902582e+01
1	 8.327241e-01	 1.379984e+00	-5.688361e+01
1	 8.060985e-01	 1.395704e+00	-6.032236e+01
1	 7.792444e-01	 1.410873e+00	-6.517714e+01
1	 7.521785e-01	 1.425487e+00	-7.036979e+01
1	 7.249176e-01	 1.439542e+00	-7.478494e+01
1	 6.974785e-01	 1.453034e+00	-7.727676e+01
1	 8.388024e-01	 1.390057e+00	-5.461567e+01
1	 8.119825e-01	 1.405892e+00	-5.840642e+01
1	 7.849323e-01	 1.421172e+00	-6.335199e+01
1	 7.576688e-01	 1.435892e+00	-6.836541e+01
1	 7.302089e-01	 1.450049e+00	-7.232402e+01
1	 7.025696e-01	 1.463641e+00	-7.407630e+01
1	 8.448807e-01	 1.400130e+00	-5.275810e+01
1	 8.178664e-01	 1.416080e+00	-5.656078e+01
1	 7.906202e-01	 1.431470e+00	-6.109494e+01
1	 7.631592e-01	 1.446297e+00	-6.541082e+01
1	 7.355003e-01	 1.460557e+00	-6.853050e+01
1	 7.076607e-01	 1.474247e+00	-6.945385e+01
1	 8.509590e-01	 1.410203e+00	-5.126712e+01
1	 8.237503e-01	 1.426267e+00	-5.468231e+01
1	 7.963081e-01	 1.441768e+00	-5.828369e+01
1	 7.686495e-01	 1.456702e+00	-6.140151e+01
1	 7.407917e-01	 1.471064e+00	-6.335130e+01
1	 7.127518e-01	 1.484853e+00	-6.343799e+01
1	 6.872964e-01	 1.431822e+00	-7.929319e+01
1	 6.600989e-01	 1.444562e+00	-8.115487e+01
1	 6.327591e-01	 1.456745e+00	-8.120475e+01
1	 6.052932e-01	 1.468370e+00	-7.967671e+01
1	 5.777178e-01	 1.479437e+00	-7.681757e+01
1	 5.500490e-01	 1.489945e+00	-7.288542e+01
1	 6.923874e-01	 1.442428e+00	-7.902582e+01
1	 6.649885e-01	 1.455263e+00	-7.972561e+01
1	 6.374462e-01	 1.467536e+00	-7.815430e+01
1	 6.097769e-01	 1.479247e+00	-7.493570e+01
1	 5.819972e-01	 1.490396e+00	-7.071711e+01
1	 5.541234e-01	 1.500982e+00	-6.616516e+01
1	 6.974785e-01	 1.453034e+00	-7.727676e+01
1	 6.698782e-01	 1.465963e+00	-7.695350e+01
1	 6.421333e-01	 1.478327e+00	-7.424579e+01
1	 6.142605e-01	 1.490124e+00	-6.999742e+01
1	 5.862765e-01	 1.501354e+00	-6.508084e+01
1	 5.581978e-01	 1.512019e+00	-6.039164e+01
1	 7.025696e-01	 1.463641e+00	-7.407630e+01
1	 6.747678e-01	 1.476664e+00	-7.294688e+01
1	 6.468204e-01	 1.489118e+00	-6.962157e+01
1	 6.187442e-01	 1.501001e+00	-6.499803e+01
1	 5.905559e-01	 1.512313e+00	-6.000247e+01
1	 5.622723e-01	 1.523055e+00	-5.558379e+01
1	 7.076607e-01	 1.474247e+00	-6.945385e+01
1	 6.796574e-01	 1.487364e+00	-6.781098e+01
1	 6.515075e-01	 1.499908e+00	-6.441988e+01
1	 6.232278e-01	 1.511878e+00	-6.006976e+01
1	 5.948353e-01	 1.523272e+00	-5.557299e+01
1	 5.663467e-01	 1.534092e+00	-5.176003e+01
1	 7.127518e-01	 1.484853e+00	-6.343799e+01
1	 6.845470e-01	 1.498065e+00	-6.164799e+01
1	 6.561946e-01	 1.510699e+00	-5.877502e+01
1	 6.277115e-01	 1.522754e+00	-5.534106e+01
1	 5.991147e-01	 1.534231e+00	-5.188080e+01
1	 5.704211e-01	 1.545129e+00	-4.893823e+01
1	 5.500490e-01	 1.489945e+00	-7.288542e+01
1	 5.223029e-01	 1.499897e+00	-6.827804e+01
1	 4.944955e-01	 1.509293e+00	-6.329407e+01
1	 4.666425e-01	 1.518136e+00	-5.805162e+01
1	 4.387593e-01	 1.526428e+00	-5.267005e+01
1	 4.108613e-01	 1.534172e+00	-4.726935e+01
1	 5.541234e-01	 1.500982e+00	-6.616516e+01
1	 5.261718e-01	 1.511007e+00	-6.190762e+01
1	 4.981584e-01	 1.520473e+00	-5.797123e+01
1	 4.700991e-01	 1.529381e+00	-5.412789e+01
1	 4.420094e-01	 1.537735e+00	-5.014359e+01
1	 4.139047e-01	 1.545536e+00	-4.577999e+01
1	 5.581978e-01	 1.512019e+00	-6.039164e+01
1	 5.300407e-01	 1.522118e+00	-5.660284e+01
1	 5.018214e-01	 1.531653e+00	-5.349750e+01
1	 4.735557e-01	 1.540627e+00	-5.064127e+01
1	 4.452595e-01	 1.549041e+00	-4.759012e+01
1	 4.169481e-01	 1.556901e+00	-4.389300e+01
1	 5.622723e-01	 1.523055e+00	-5.558379e+01
1	 5.339096e-01	 1.533228e+00	-5.231103e+01
1	 5.054843e-01	 1.542833e+00	-4.978230e+01
1	 4.770123e-01	 1.551872e+00	-4.749389e+01
1	 4.485095e-01	 1.560348e+00	-4.493172e+01
1	 4.199915e-01	 1.568265e+00	-4.157449e+01
1	 5.663467e-01	 1.534092e+00	-5.176003e+01
1	 5.377785e-01	 1.544338e+00	-4.898103e+01
1	 5.091472e-01	 1.554013e+00	-4.673770e+01
1	 4.804689e-01	 1.563118e+00	-4.459066e+01
1	 4.517596e-01	 1.571655e+00	-4.209272e+01
1	 4.230350e-01	 1.579629e+00	-3.879156e+01
1	 5.704211e-01	 1.545129e+00	-4.893823e+01
1	 5.416475e-01	 1.555449e+00	-4.656315e+01
1	 5.128102e-01	 1.565193e+00	-4.427826e+01
1	 4.839255e-01	 1.574363e+00	-4.183924e+01
1	 4.550097e-01	 1.582962e+00	-3.899961e+01
1	 4.260784e-01	 1.590993e+00	-3.551222e+01
1	 4.108613e-01	 1.534172e+00	-4.726935e+01
1	 3.829633e-01	 1.541373e+00	-4.229909e+01
1	 3.550801e-01	 1.548034e+00	-3.793918e+01
1	 3.272261e-01	 1.554160e+00	-3.390609e+01
1	 2.994153e-01	 1.559757e+00	-2.991834e+01
1	 2.716613e-01	 1.564830e+00	-2.569771e+01
1	 4.139047e-01	 1.545536e+00	-4.577999e+01
1	 3.858001e-01	 1.552790e+00	-4.122839e+01
1	 3.577104e-01	 1.559501e+00	-3.679195e+01
1	 3.296500e-01	 1.565673e+00	-3.240083e+01
1	 3.016332e-01	 1.571311e+00	-2.798940e+01
1	 2.736736e-01	 1.576421e+00	-2.349613e+01
1	 4.169481e-01	 1.556901e+00	-4.389300e+01
1	 3.886369e-01	 1.564208e+00	-3.962644e+01
1	 3.603406e-01	 1.570968e+00	-3.520256e+01
1	 3.320739e-01	 1.577185e+00	-3.067430e+01
1	 3.038510e-01	 1.582864e+00	-2.609964e+01
1	 2.756859e-01	 1.588012e+00	-2.154090e+01
1	 4.199915e-01	 1.568265e+00	-4.157449e+01
1	 3.914736e-01	 1.575626e+00	-3.750386e+01
1	 3.629708e-01	 1.582435e+00	-3.320658e+01
1	 3.344978e-01	 1.588697e+00	-2.876952e+01
1	 3.060689e-01	 1.594418e+00	-2.428423e+01
1	 2.776982e-01	 1.599604e+00	-1.984599e+01
1	 4.230350e-01	 1.579629e+00	-3.879156e+01
1	 3.943104e-01	 1.587043e+00	-3.487094e+01
1	 3.656010e-01	 1.593902e+00	-3.083854e+01
1	 3.369217e-01	 1.600210e+00	-2.672833e+01
1	 3.082868e-01	 1.605972e+00	-2.257731e+01
1	 2.797106e-01	 1.611195e+00	-1.842493e+01
1	 4.260784e-01	 1.590993e+00	-3.551222e+01
1	 3.971472e-01	 1.598461e+00	-3.173770e+01
1	 3.682313e-01	 1.605369e+00	-2.813200e+01
1	 3.393456e-01	 1.611722e+00	-2.459133e+01
1	 3.105047e-01	 1.617526e+00	-2.101204e+01
1	 2.817229e-01	 1.622786e+00	-1.729089e+01
1	 2.716613e-01	 1.564830e+00	-2.569771e+01
1	 2.439777e-01	 1.569384e+00	-2.035994e+01
1	 2.163772e-01	 1.573427e+00	-1.371288e+01
1	 1.888727e-01	 1.576965e+00	-6.515216e+00
1	 1.614762e-01	 1.580005e+00	 4.823907e-01
1	 1.341996e-01	 1.582555e+00	 6.540146e+00
1	 2.736736e-01	 1.576421e+00	-2.349613e+01
1	 2.457849e-01	 1.581009e+00	-1.821855e+01
1	 2.179800e-01	 1.585082e+00	-1.190678e+01
1	 1.902717e-01	 1.588646e+00	-5.176854e+00
1	 1.626723e-01	 1.591709e+00	 1.363037e+00
1	 1.351937e-01	 1.594278e+00	 7.114651e+00
1	 2.756859e-01	 1.588012e+00	-2.154090e+01
1	 2.475921e-01	 1.592634e+00	-1.639190e+01
1	 2.195828e-01	 1.596737e+00	-1.036011e+01
1	 1.916708e-01	 1.600327e+00	-3.976753e+00
1	 1.638685e-01	 1.603413e+00	 2.234357e+00
1	 1.361878e-01	 1.606001e+00	 7.758570e+00
1	 2.776982e-01	 1.599604e+00	-1.984599e+01
1	 2.493994e-01	 1.604259e+00	-1.487243e+01
1	 2.211856e-01	 1.608392e+00	-9.054162e+00
1	 1.930699e-01	 1.612009e+00	-2.894147e+00
1	 1.650646e-01	 1.615117e+00	 3.111413e+00
1	 1.371819e-01	 1.617723e+00	 8.474792e+00
1	 2.797106e-01	 1.611195e+00	-1.842493e+01
1	 2.512066e-01	 1.615884e+00	-1.365280e+01
1	 2.227884e-01	 1.620047e+00	-7.970762e+00
1	 1.944689e-01	 1.623690e+00	-1.908865e+00
1	 1.662607e-01	 1.626820e+00	 4.008832e+00
1	 1.381759e-01	 1.629446e+00	 9.266125e+00
1	 2.817229e-01	 1.622786e+00	-1.729089e+01
1	 2.530139e-01	 1.627509e+00	-1.272585e+01
1	 2.243912e-01	 1.631702e+00	-7.092267e+00
1	 1.958680e-01	 1.635371e+00	-1.001314e+00
1	 1.674568e-01	 1.638524e+00	 4.940826e+00
1	 1.391700e-01	 1.641169e+00	 1.013529e+01
1	 1.341996e-01	 1.582555e+00	 6.540146e+00
1	 1.070544e-01	 1.584623e+00	 1.109336e+01
1	 8.005140e-02	 1.586217e+00	 1.502695e+01
1	 5.320132e-02	 1.587344e+00	 1.977054e+01
1	 2.651427e-02	 1.588014e+00	 2.673035e+01
1	 0.000000e+00	 1.588235e+00	 3.728471e+01
1	 1.351937e-01	 1.594278e+00	 7.114651e+00
1	 1.078474e-01	 1.596361e+00	 1.166012e+01
1	 8.064437e-02	 1.597966e+00	 1.583231e+01
1	 5.359540e-02	 1.599102e+00	 2.090373e+01
1	 2.671068e-02	 1.599777e+00	 2.812494e+01
1	 0.000000e+00	 1.600000e+00	 3.872068e+01
1	 1.361878e-01	 1.606001e+00	 7.758570e+00
1	 1.086404e-01	 1.608099e+00	 1.227606e+01
1	 8.123735e-02	 1.609716e+00	 1.660326e+01
1	 5.398948e-02	 1.610860e+00	 2.192405e+01
1	 2.690708e-02	 1.611540e+00	 2.940105e+01
1	 0.000000e+00	 1.611765e+00	 4.017215e+01
1	 1.371819e-01	 1.617723e+00	 8.474792e+00
1	 1.094334e-01	 1.619837e+00	 1.293371e+01
1	 8.183032e-02	 1.621466e+00	 1.733015e+01
1	 5.438357e-02	 1.622618e+00	 2.282629e+01
1	 2.710348e-02	 1.623303e+00	 3.056305e+01
1	 0.000000e+00	 1.623529e+00	 4.165671e+01
1	 1.381759e-01	 1.629446e+00	 9.266125e+00
1	 1.102263e-01	 1.631575e+00	 1.362580e+01
1	 8.242329e-02	 1.633216e+00	 1.800357e+01
1	 5.477765e-02	 1.634376e+00	 2.360536e+01
1	 2.729988e-02	 1.635066e+00	 3.161518e+01
1	 0.000000e+00	 1.635294e+00	 4.319143e+01
1	 1.391700e-01	 1.641169e+00	 1.013529e+01
1	 1.110193e-01	 1.643313e+00	 1.434528e+01
1	 8.301627e-02	 1.644965e+00	 1.861439e+01
1	 5.517174e-02	 1.646135e+00	 2.425636e+01
1	 2.749628e-02	 1.646829e+00	 3.256156e+01
1	 0.000000e+00	 1.647059e+00	 4.479291e+01
1	 1.647059e+00	 0.000000e+00	-1.033699e+01
1	 1.646829e+00	 2.749628e-02	-3.164630e+00
1	 1.646135e+00	 5.517174e-02	 1.923743e+00
1	 1.644965e+00	 8.301627e-02	 4.465825e+00
1	 1.643313e+00	 1.110193e-01	 3.977783e+00
1	 1.641169e+00	 1.391700e-01	-4.486771e-02
1	 1.658824e+00	 0.000000e+00	-9.875305e+00
1	 1.658592e+00	 2.769269e-02	-2.620536e+00
1	 1.657893e+00	 5.556582e-02	 2.507568e+00
1	 1.656715e+00	 8.360924e-02	 5.040498e+00
1	 1.655051e+00	 1.118123e-01	 4.491514e+00
1	 1.652891e+00	 1.401641e-01	 3.567317e-01
1	 1.670588e+00	 0.000000e+00	-9.382901e+00
1	 1.670355e+00	 2.788909e-02	-2.096211e+00
1	 1.669651e+00	 5.595990e-02	 3.043817e+00
1	 1.668465e+00	 8.420221e-02	 5.562347e+00
1	 1.666789e+00	 1.126053e-01	 4.970124e+00
1	 1.664614e+00	 1.411581e-01	 7.647819e-01
1	 1.682353e+00	 0.000000e+00	-8.851159e+00
1	 1.682118e+00	 2.808549e-02	-1.590819e+00
1	 1.681409e+00	 5.635399e-02	 3.528480e+00
1	 1.680215e+00	 8.479519e-02	 6.025475e+00
1	 1.678527e+00	 1.133983e-01	 5.408801e+00
1	 1.676337e+00	 1.421522e-01	 1.178536e+00
1	 1.694118e+00	 0.000000e+00	-8.271691e+00
1	 1.693882e+00	 2.828189e-02	-1.103547e+00
1	 1.693167e+00	 5.674807e-02	 3.957657e+00
1	 1.691964e+00	 8.538816e-02	 6.424150e+00
1	 1.690265e+00	 1.141913e-01	 5.802868e+00
1	 1.688059e+00	 1.431463e-01	 1.597267e+00
1	 1.705882e+00	 0.000000e+00	-7.636343e+00
1	 1.705645e+00	 2.847829e-02	-6.336038e-01
1	 1.704925e+00	 5.714215e-02	 4.327556e+00
1	 1.703714e+00	 8.598113e-02	 6.752796e+00
1	 1.702003e+00	 1.149843e-01	 6.147776e+00
1	 1.699782e+00	 1.441403e-01	 2.020269e+00
1	 1.641169e+00	 1.391700e-01	-4.486771e-02
1	 1.638524e+00	 1.674568e-01	-5.623880e+00
1	 1.635371e+00	 1.958680e-01	-1.036150e+01
1	 1.631702e+00	 2.243912e-01	-1.414376e+01
1	 1.627509e+00	 2.530139e-01	-1.685147e+01
1	 1.622786e+00	 2.817229e-01	-1.836047e+01
1	 1.652891e+00	 1.401641e-01	 3.567317e-01
1	 1.650228e+00	 1.686529e-01	-5.345412e+00
1	 1.647052e+00	 1.972670e-01	-1.017996e+01
1	 1.643357e+00	 2.259940e-01	-1.403556e+01
1	 1.639134e+00	 2.548211e-01	-1.679761e+01
1	 1.634378e+00	 2.837352e-01	-1.834863e+01
1	 1.664614e+00	 1.411581e-01	 7.647819e-01
1	 1.661932e+00	 1.698491e-01	-5.011974e+00
1	 1.658734e+00	 1.986661e-01	-9.905289e+00
1	 1.655012e+00	 2.275968e-01	-1.380594e+01
1	 1.650760e+00	 2.566284e-01	-1.660390e+01
1	 1.645969e+00	 2.857475e-01	-1.818877e+01
1	 1.676337e+00	 1.421522e-01	 1.178536e+00
1	 1.673635e+00	 1.710452e-01	-4.619943e+00
1	 1.670415e+00	 2.000651e-01	-9.531864e+00
1	 1.666667e+00	 2.291996e-01	-1.344970e+01
1	 1.662385e+00	 2.584356e-01	-1.626797e+01
1	 1.657560e+00	 2.877598e-01	-1.788377e+01
1	 1.688059e+00	 1.431463e-01	 1.597267e+00
1	 1.685339e+00	 1.722413e-01	-4.165795e+00
1	 1.682096e+00	 2.014642e-01	-9.054228e+00
1	 1.678322e+00	 2.308024e-01	-1.296178e+01
1	 1.674010e+00	 2.602428e-01	-1.578750e+01
1	 1.669152e+00	 2.897721e-01	-1.743641e+01
1	 1.699782e+00	 1.441403e-01	 2.020269e+00
1	 1.697043e+00	 1.734374e-01	-3.646103e+00
1	 1.693777e+00	 2.028633e-01	-8.467072e+00
1	 1.689977e+00	 2.324052e-01	-1.233726e+01
1	 1.685635e+00	 2.620501e-01	-1.516025e+01
1	 1.680743e+00	 2.917844e-01	-1.684943e+01
1	 1.622786e+00	 2.817229e-01	-1.836047e+01
1	 1.617526e+00	 3.105047e-01	-1.939691e+01
1	 1.611722e+00	 3.393456e-01	-2.074784e+01
1	 1.605369e+00	 3.682313e-01	-2.237125e+01
1	 1.598461e+00	 3.971472e-01	-2.421743e+01
1	 1.590993e+00	 4.260784e-01	-2.622893e+01
1	 1.634378e+00	 2.837352e-01	-1.834863e+01
1	 1.629080e+00	 3.127226e-01	-1.940963e+01
1	 1.623234e+00	 3.417695e-01	-2.075179e+01
1	 1.616836e+00	 3.708615e-01	-2.232541e+01
1	 1.609878e+00	 3.999839e-01	-2.407340e+01
1	 1.602358e+00	 4.291218e-01	-2.593122e+01
1	 1.645969e+00	 2.857475e-01	-1.818877e+01
1	 1.640633e+00	 3.149405e-01	-1.927162e+01
1	 1.634746e+00	 3.441934e-01	-2.060345e+01
1	 1.628302e+00	 3.734917e-01	-2.212812e+01
1	 1.621296e+00	 4.028207e-01	-2.378199e+01
1	 1.613722e+00	 4.321652e-01	-2.549390e+01
1	 1.657560e+00	 2.877598e-01	-1.788377e+01
1	 1.652187e+00	 3.171584e-01	-1.899115e+01
1	 1.646259e+00	 3.466173e-01	-2.031437e+01
1	 1.639769e+00	 3.761219e-01	-2.179202e+01
1	 1.632714e+00	 4.056575e-01	-2.335474e+01
1	 1.625086e+00	 4.352086e-01	-2.492517e+01
1	 1.669152e+00	 2.897721e-01	-1.743641e+01
1	 1.663741e+00	 3.193763e-01	-1.857629e+01
1	 1.657771e+00	 3.490412e-01	-1.989579e+01
1	 1.651236e+00	 3.787522e-01	-2.132942e+01
1	 1.644131e+00	 4.084942e-01	-2.280287e+01
1	 1.636450e+00	 4.382520e-01	-2.423302e+01
1	 1.680743e+00	 2.917844e-01	-1.684943e+01
1	 1.675295e+00	 3.215942e-01	-1.803487e+01
1	 1.669283e+00	 3.514651e-01	-1.935863e+01
1	 1.662703e+00	 3.813824e-01	-2.075226e+01
1	 1.655549e+00	 4.113310e-01	-2.213729e+01
1	 1.647815e+00	 4.412955e-01	-2.342519e+01
1	 1.590993e+00	 4.260784e-01	-2.622893e+01
1	 1.582962e+00	 4.550097e-01	-2.839765e+01
1	 1.574363e+00	 4.839255e-01	-3.071795e+01
1	 1.565193e+00	 5.128102e-01	-3.312741e+01
1	 1.555449e+00	 5.416475e-01	-3.555994e+01
1	 1.545129e+00	 5.704211e-01	-3.794592e+01
1	 1.602358e+00	 4.291218e-01	-2.593122e+01
1	 1.594269e+00	 4.582598e-01	-2.789641e+01
1	 1.585608e+00	 4.873822e-01	-2.998182e+01
1	 1.576373e+00	 5.164731e-01	-3.213777e+01
1	 1.566559e+00	 5.455164e-01	-3.431112e+01
1	 1.556165e+00	 5.744956e-01	-3.644545e+01
1	 1.613722e+00	 4.321652e-01	-2.549390e+01
1	 1.605576e+00	 4.615098e-01	-2.726666e+01
1	 1.596854e+00	 4.908388e-01	-2.913025e+01
1	 1.587553e+00	 5.201360e-01	-3.104652e+01
1	 1.577669e+00	 5.493853e-01	-3.297441e+01
1	 1.567202e+00	 5.785700e-01	-3.487004e+01
1	 1.625086e+00	 4.352086e-01	-2.492517e+01
1	 1.616883e+00	 4.647599e-01	-2.651287e+01
1	 1.608099e+00	 4.942954e-01	-2.816543e+01
1	 1.598733e+00	 5.237989e-01	-2.985508e+01
1	 1.588780e+00	 5.532542e-01	-3.155193e+01
1	 1.578239e+00	 5.826445e-01	-3.322407e+01
1	 1.636450e+00	 4.382520e-01	-2.423302e+01
1	 1.628190e+00	 4.680100e-01	-2.563940e+01
1	 1.619345e+00	 4.977520e-01	-2.708950e+01
1	 1.609913e+00	 5.274619e-01	-2.856480e+01
1	 1.599890e+00	 5.571231e-01	-3.004576e+01
1	 1.589275e+00	 5.867189e-01	-3.151181e+01
1	 1.647815e+00	 4.412955e-01	-2.342519e+01
1	 1.639496e+00	 4.712600e-01	-2.465046e+01
1	 1.630590e+00	 5.012086e-01	-2.590452e+01
1	 1.621093e+00	 5.311248e-01	-2.717703e+01
1	 1.611000e+00	 5.609920e-01	-2.845792e+01
1	 1.600312e+00	 5.907933e-01	-2.973741e+01
1	 1.545129e+00	 5.704211e-01	-3.794592e+01
1	 1.534231e+00	 5.991147e-01	-4.025271e+01
1	 1.522754e+00	 6.277115e-01	-4.253994e+01
1	 1.510699e+00	 6.561946e-01	-4.487970e+01
1	 1.498065e+00	 6.845470e-01	-4.735160e+01
1	 1.484853e+00	 7.127518e-01	-5.004256e+01
1	 1.556165e+00	 5.744956e-01	-3.644545e+01
1	 1.545190e+00	 6.033941e-01	-3.853820e+01
1	 1.533631e+00	 6.321951e-01	-4.065778e+01
1	 1.521490e+00	 6.608817e-01	-4.285676e+01
1	 1.508765e+00	 6.894367e-01	-4.519424e+01
1	 1.495459e+00	 7.178429e-01	-4.773561e+01
1	 1.567202e+00	 5.785700e-01	-3.487004e+01
1	 1.556148e+00	 6.076735e-01	-3.675821e+01
1	 1.544508e+00	 6.366788e-01	-3.871445e+01
1	 1.532280e+00	 6.655688e-01	-4.077289e+01
1	 1.519466e+00	 6.943263e-01	-4.297294e+01
1	 1.506065e+00	 7.229340e-01	-4.535914e+01
1	 1.578239e+00	 5.826445e-01	-3.322407e+01
1	 1.567107e+00	 6.119529e-01	-3.491970e+01
1	 1.555385e+00	 6.411624e-01	-3.671855e+01
1	 1.543071e+00	 6.702559e-01	-3.863734e+01
1	 1.530166e+00	 6.992159e-01	-4.069666e+01
1	 1.516671e+00	 7.280250e-01	-4.292085e+01
1	 1.589275e+00	 5.867189e-01	-3.151181e+01
1	 1.578066e+00	 6.162323e-01	-3.302944e+01
1	 1.566262e+00	 6.456461e-01	-3.467844e+01
1	 1.553862e+00	 6.749430e-01	-3.645915e+01
1	 1.540867e+00	 7.041055e-01	-3.837412e+01
1	 1.527277e+00	 7.331161e-01	-4.042817e+01
1	 1.600312e+00	 5.907933e-01	-2.973741e+01
1	 1.589025e+00	 6.205117e-01	-3.109400e+01
1	 1.577139e+00	 6.501297e-01	-3.260224e+01
1	 1.564653e+00	 6.796301e-01	-3.424706e+01
1	 1.551567e+00	 7.089951e-01	-3.601382e+01
1	 1.537883e+00	 7.382072e-01	-3.788839e+01
1	 1.484853e+00	 7.127518e-01	-5.004256e+01
1	 1.471064e+00	 7.407917e-01	-5.298526e+01
1	 1.456702e+00	 7.686495e-01	-5.601572e+01
1	 1.441768e+00	 7.963081e-01	-5.892040e+01
1	 1.426267e+00	 8.237503e-01	-6.147201e+01
1	 1.410203e+00	 8.509590e-01	-6.343050e+01
1	 1.495459e+00	 7.178429e-01	-4.773561e+01
1	 1.481572e+00	 7.460830e-01	-5.046130e+01
1	 1.467107e+00	 7.741399e-01	-5.319991e+01
1	 1.452067e+00	 8.019960e-01	-5.578555e+01
1	 1.436455e+00	 8.296342e-01	-5.804196e+01
1	 1.420276e+00	 8.570373e-01	-5.978328e+01
1	 1.506065e+00	 7.229340e-01	-4.535914e+01
1	 1.492080e+00	 7.513744e-01	-4.786869e+01
1	 1.477512e+00	 7.796302e-01	-5.032931e+01
1	 1.462365e+00	 8.076839e-01	-5.261944e+01
1	 1.446642e+00	 8.355182e-01	-5.461033e+01
1	 1.430348e+00	 8.631155e-01	-5.616654e+01
1	 1.516671e+00	 7.280250e-01	-4.292085e+01
1	 1.502587e+00	 7.566658e-01	-4.521269e+01
1	 1.487917e+00	 7.851206e-01	-4.740555e+01
1	 1.472663e+00	 8.133719e-01	-4.941899e+01
1	 1.456830e+00	 8.414021e-01	-5.116824e+01
1	 1.440421e+00	 8.691938e-01	-5.256459e+01
1	 1.527277e+00	 7.331161e-01	-4.042817e+01
1	 1.513095e+00	 7.619571e-01	-4.249842e+01
1	 1.498322e+00	 7.906109e-01	-4.443025e+01
1	 1.482962e+00	 8.190598e-01	-4.618119e+01
1	 1.467018e+00	 8.472860e-01	-4.770704e+01
1	 1.450494e+00	 8.752721e-01	-4.896215e+01
1	 1.537883e+00	 7.382072e-01	-3.788839e+01
1	 1.523602e+00	 7.672485e-01	-3.973084e+01
1	 1.508727e+00	 7.961013e-01	-4.140497e+01
1	 1.493260e+00	 8.247477e-01	-4.290312e+01
1	 1.477205e+00	 8.531700e-01	-4.421832e+01
1	 1.460567e+00	 8.813504e-01	-4.534439e+01
1	 1.410203e+00	 8.509590e-01	-6.343050e+01
1	 1.393580e+00	 8.779171e-01	-6.466160e+01
1	 1.376404e+00	 9.046078e-01	-6.538935e+01
1	 1.358681e+00	 9.310143e-01	-6.592429e+01
1	 1.340419e+00	 9.571200e-01	-6.660533e+01
1	 1.321625e+00	 9.829087e-01	-6.779823e+01
1	 1.420276e+00	 8.570373e-01	-5.978328e+01
1	 1.403534e+00	 8.841879e-01	-6.098736e+01
1	 1.386235e+00	 9.110693e-01	-6.189969e+01
1	 1.368386e+00	 9.376644e-01	-6.274566e+01
1	 1.349994e+00	 9.639566e-01	-6.377176e+01
1	 1.331065e+00	 9.899295e-01	-6.524447e+01
1	 1.430348e+00	 8.631155e-01	-5.616654e+01
1	 1.413488e+00	 8.904588e-01	-5.735461e+01
1	 1.396067e+00	 9.175308e-01	-5.842577e+01
1	 1.378091e+00	 9.443145e-01	-5.952858e+01
1	 1.359568e+00	 9.707932e-01	-6.082649e+01
1	 1.340506e+00	 9.969502e-01	-6.249707e+01
1	 1.440421e+00	 8.691938e-01	-5.256459e+01
1	 1.423442e+00	 8.967296e-01	-5.374293e+01
1	 1.405898e+00	 9.239922e-01	-5.494743e+01
1	 1.387796e+00	 9.509646e-01	-5.625797e+01
1	 1.369143e+00	 9.776297e-01	-5.776416e+01
1	 1.349946e+00	 1.003971e+00	-5.956487e+01
1	 1.450494e+00	 8.752721e-01	-4.896215e+01
1	 1.433396e+00	 9.030005e-01	-5.013245e+01
1	 1.415730e+00	 9.304537e-01	-5.144505e+01
1	 1.397501e+00	 9.576147e-01	-5.291916e+01
1	 1.378717e+00	 9.844663e-01	-5.457956e+01
1	 1.359386e+00	 1.010992e+00	-5.645644e+01
1	 1.460567e+00	 8.813504e-01	-4.534439e+01
1	 1.443350e+00	 9.092713e-01	-4.650387e+01
1	 1.425561e+00	 9.369152e-01	-4.789957e+01
1	 1.407206e+00	 9.642648e-01	-4.949789e+01
1	 1.388291e+00	 9.913029e-01	-5.126763e+01
1	 1.368826e+00	 1.018013e+00	-5.318012e+01
1	 1.321625e+00	 9.829087e-01	-6.779823e+01
1	 1.302307e+00	 1.008364e+00	-6.941117e+01
1	 1.282475e+00	 1.033471e+00	-7.086971e+01
1	 1.262136e+00	 1.058213e+00	-7.181082e+01
1	 1.241303e+00	 1.082575e+00	-7.184100e+01
1	 1.219985e+00	 1.106544e+00	-7.053831e+01
1	 1.331065e+00	 9.899295e-01	-6.524447e+01
1	 1.311610e+00	 1.015567e+00	-6.688723e+01
1	 1.291635e+00	 1.040853e+00	-6.806994e+01
1	 1.271152e+00	 1.065772e+00	-6.852579e+01
1	 1.250169e+00	 1.090308e+00	-6.796624e+01
1	 1.228699e+00	 1.114448e+00	-6.608258e+01
1	 1.340506e+00	 9.969502e-01	-6.249707e+01
1	 1.320912e+00	 1.022769e+00	-6.411832e+01
1	 1.300796e+00	 1.048235e+00	-6.502972e+01
1	 1.280167e+00	 1.073330e+00	-6.504975e+01
1	 1.259036e+00	 1.098041e+00	-6.398242e+01
1	 1.237414e+00	 1.122351e+00	-6.161838e+01
1	 1.349946e+00	 1.003971e+00	-5.956487e+01
1	 1.330214e+00	 1.029972e+00	-6.112598e+01
1	 1.309956e+00	 1.055617e+00	-6.177625e+01
1	 1.289182e+00	 1.080889e+00	-6.140870e+01
1	 1.267902e+00	 1.105773e+00	-5.990774e+01
1	 1.246128e+00	 1.130255e+00	-5.714982e+01
1	 1.359386e+00	 1.010992e+00	-5.645644e+01
1	 1.339516e+00	 1.037175e+00	-5.793117e+01
1	 1.319117e+00	 1.062998e+00	-5.833596e+01
1	 1.298197e+00	 1.088447e+00	-5.762793e+01
1	 1.276769e+00	 1.113506e+00	-5.575993e+01
1	 1.254842e+00	 1.138159e+00	-5.268091e+01
1	 1.368826e+00	 1.018013e+00	-5.318012e+01
1	 1.348818e+00	 1.044377e+00	-5.455425e+01
1	 1.328277e+00	 1.070380e+00	-5.473458e+01
1	 1.307213e+00	 1.096006e+00	-5.373201e+01
1	 1.285635e+00	 1.121239e+00	-5.155618e+01
1	 1.263556e+00	 1.146063e+00	-4.821551e+01
1	 1.219985e+00	 1.106544e+00	-7.053831e+01
1	 1.198194e+00	 1.130103e+00	-6.785001e+01
1	 1.175942e+00	 1.153241e+00	-6.431076e+01
1	 1.153241e+00	 1.175942e+00	-6.038690e+01
1	 1.130103e+00	 1.198194e+00	-5.657886e+01
1	 1.106544e+00	 1.219985e+00	-5.341847e+01
1	 1.228699e+00	 1.114448e+00	-6.608258e+01
1	 1.206753e+00	 1.138176e+00	-6.303589e+01
1	 1.184341e+00	 1.161478e+00	-5.944374e+01
1	 1.161478e+00	 1.184341e+00	-5.568845e+01
1	 1.138176e+00	 1.206753e+00	-5.217793e+01
1	 1.114448e+00	 1.228699e+00	-4.934345e+01
1	 1.237414e+00	 1.122351e+00	-6.161838e+01
1	 1.215311e+00	 1.146248e+00	-5.828755e+01
1	 1.192741e+00	 1.169715e+00	-5.466272e+01
1	 1.169715e+00	 1.192741e+00	-5.105449e+01
1	 1.146248e+00	 1.215311e+00	-4.779204e+01
1	 1.122351e+00	 1.237414e+00	-4.522136e+01
1	 1.246128e+00	 1.130255e+00	-5.714982e+01
1	 1.223870e+00	 1.154320e+00	-5.359576e+01
1	 1.201141e+00	 1.177953e+00	-4.995259e+01
1	 1.177953e+00	 1.201141e+00	-4.647121e+01
1	 1.154320e+00	 1.223870e+00	-4.341562e+01
1	 1.130255e+00	 1.246128e+00	-4.106145e+01
1	 1.254842e+00	 1.138159e+00	-5.268091e+01
1	 1.232428e+00	 1.162392e+00	-4.895152e+01
1	 1.209540e+00	 1.186190e+00	-4.529862e+01
1	 1.186190e+00	 1.209540e+00	-4.192518e+01
1	 1.162392e+00	 1.232428e+00	-3.904324e+01
1	 1.138159e+00	 1.254842e+00	-3.687274e+01
1	 1.263556e+00	 1.146063e+00	-4.821551e+01
1	 1.240987e+00	 1.170464e+00	-4.434609e+01
1	 1.217940e+00	 1.194428e+00	-4.068651e+01
1	 1.194428e+00	 1.217940e+00	-3.740334e+01
1	 1.170464e+00	 1.240987e+00	-3.466963e+01
1	 1.146063e+00	 1.263556e+00	-3.266398e+01
1	 1.106544e+00	 1.219985e+00	-5.341847e+01
1	 1.082575e+00	 1.241303e+00	-5.138777e+01
1	 1.058213e+00	 1.262136e+00	-5.035587e+01
1	 1.033471e+00	 1.282475e+00	-4.993646e+01
1	 1.008364e+00	 1.302307e+00	-4.971778e+01
1	 9.829087e-01	 1.321625e+00	-4.926506e+01
1	 1.114448e+00	 1.228699e+00	-4.934345e+01
1	 1.090308e+00	 1.250169e+00	-4.748345e+01
1	 1.065772e+00	 1.271152e+00	-4.642595e+01
1	 1.040853e+00	 1.291635e+00	-4.590008e+01
1	 1.015567e+00	 1.311610e+00	-4.561941e+01
1	 9.899295e-01	 1.331065e+00	-4.528369e+01
1	 1.122351e+00	 1.237414e+00	-4.522136e+01
1	 1.098041e+00	 1.259036e+00	-4.350612e+01
1	 1.073330e+00	 1.280167e+00	-4.245541e+01
1	 1.048235e+00	 1.300796e+00	-4.188835e+01
1	 1.022769e+00	 1.320912e+00	-4.161631e+01
1	 9.969502e-01	 1.340506e+00	-4.144404e+01
1	 1.130255e+00	 1.246128e+00	-4.106145e+01
1	 1.105773e+00	 1.267902e+00	-3.947744e+01
1	 1.080889e+00	 1.289182e+00	-3.846740e+01
1	 1.055617e+00	 1.309956e+00	-3.791552e+01
1	 1.029972e+00	 1.330214e+00	-3.770399e+01
1	 1.003971e+00	 1.349946e+00	-3.771374e+01
1	 1.138159e+00	 1.254842e+00	-3.687274e+01
1	 1.113506e+00	 1.276769e+00	-3.541848e+01
1	 1.088447e+00	 1.298197e+00	-3.448442e+01
1	 1.062998e+00	 1.319117e+00	-3.399542e+01
1	 1.037175e+00	 1.339516e+00	-3.387811e+01
1	 1.010992e+00	 1.359386e+00	-3.406128e+01
1	 1.146063e+00	 1.263556e+00	-3.266398e+01
1	 1.121239e+00	 1.285635e+00	-3.134973e+01
1	 1.096006e+00	 1.307213e+00	-3.052835e+01
1	 1.070380e+00	 1.328277e+00	-3.014153e+01
1	 1.044377e+00	 1.348818e+00	-3.013444e+01
1	 1.018013e+00	 1.368826e+00	-3.045603e+01
1	 9.829087e-01	 1.321625e+00	-4.926506e+01
1	 9.571200e-01	 1.340419e+00	-4.852194e+01
1	 9.310143e-01	 1.358681e+00	-4.797447e+01
1	 9.046078e-01	 1.376404e+00	-4.799434e+01
1	 8.779171e-01	 1.393580e+00	-4.896255e+01
1	 8.509590e-01	 1.410203e+00	-5.126712e+01
1	 9.899295e-01	 1.331065e+00	-4.528369e+01
1	 9.639566e-01	 1.349994e+00	-4.497928e+01
1	 9.376644e-01	 1.368386e+00	-4.510512e+01
1	 9.110693e-01	 1.386235e+00	-4.581833e+01
1	 8.841879e-01	 1.403534e+00	-4.727252e+01
1	 8.570373e-01	 1.420276e+00	-4.961683e+01
1	 9.969502e-01	 1.340506e+00	-4.144404e+01
1	 9.707932e-01	 1.359568e+00	-4.153106e+01
1	 9.443145e-01	 1.378091e+00	-4.217380e+01
1	 9.175308e-01	 1.396067e+00	-4.336824e+01
1	 8.904588e-01	 1.413488e+00	-4.509721e+01
1	 8.631155e-01	 1.430348e+00	-4.733057e+01
1	 1.003971e+00	 1.349946e+00	-3.771374e+01
1	 9.776297e-01	 1.369143e+00	-3.812229e+01
1	 9.509646e-01	 1.387796e+00	-3.912169e+01
1	 9.239922e-01	 1.405898e+00	-4.059899e+01
1	 8.967296e-01	 1.423442e+00	-4.242169e+01
1	 8.691938e-01	 1.440421e+00	-4.443869e+01
1	 1.010992e+00	 1.359386e+00	-3.406128e+01
1	 9.844663e-01	 1.378717e+00	-3.469952e+01
1	 9.576147e-01	 1.397501e+00	-3.589162e+01
1	 9.304537e-01	 1.415730e+00	-3.746676e+01
1	 9.030005e-01	 1.433396e+00	-3.923143e+01
1	 8.752721e-01	 1.450494e+00	-4.097067e+01
1	 1.018013e+00	 1.368826e+00	-3.045603e+01
1	 9.913029e-01	 1.388291e+00	-3.121077e+01
1	 9.642648e-01	 1.407206e+00	-3.242796e+01
1	 9.369152e-01	 1.425561e+00	-3.392893e+01
1	 9.092713e-01	 1.443350e+00	-3.551230e+01
1	 8.813504e-01	 1.460567e+00	-3.695521e+01
1	 8.509590e-01	 1.410203e+00	-5.126712e+01
1	 8.237503e-01	 1.426267e+00	-5.468231e+01
1	 7.963081e-01	 1.441768e+00	-5.828369e+01
1	 7.686495e-01	 1.456702e+00	-6.140151e+01
1	 7.407917e-01	 1.471064e+00	-6.335130e+01
1	 7.127518e-01	 1.484853e+00	-6.343799e+01
1	 8.570373e-01	 1.420276e+00	-4.961683e+01
1	 8.296342e-01	 1.436455e+00	-5.242018e+01
1	 8.019960e-01	 1.452067e+00	-5.491697e+01
1	 7.741399e-01	 1.467107e+00	-5.674926e+01
1	 7.460830e-01	 1.481572e+00	-5.755875e+01
1	 7.178429e-01	 1.495459e+00	-5.698892e+01
1	 8.631155e-01	 1.430348e+00	-4.733057e+01
1	 8.355182e-01	 1.446642e+00	-4.953834e+01
1	 8.076839e-01	 1.462365e+00	-5.113075e+01
1	 7.796302e-01	 1.477512e+00	-5.198563e+01
1	 7.513744e-01	 1.492080e+00	-5.199097e+01
1	 7.229340e-01	 1.506065e+00	-5.104543e+01
1	 8.691938e-01	 1.440421e+00	-4.443869e+01
1	 8.414021e-01	 1.456830e+00	-4.610662e+01
1	 8.133719e-01	 1.472663e+00	-4.700943e+01
1	 7.851206e-01	 1.487917e+00	-4.718641e+01
1	 7.566658e-01	 1.502587e+00	-4.669363e+01
1	 7.280250e-01	 1.516671e+00	-4.560339e+01
1	 8.752721e-01	 1.450494e+00	-4.097067e+01
1	 8.472860e-01	 1.467018e+00	-4.219288e+01
1	 8.190598e-01	 1.482962e+00	-4.263507e+01
1	 7.906109e-01	 1.498322e+00	-4.242529e+01
1	 7.619571e-01	 1.513095e+00	-4.171118e+01
1	 7.331161e-01	 1.527277e+00	-4.065880e+01
1	 8.813504e-01	 1.460567e+00	-3.695521e+01
1	 8.531700e-01	 1.477205e+00	-3.786312e+01
1	 8.247477e-01	 1.493260e+00	-3.808747e+01
1	 7.961013e-01	 1.508727e+00	-3.777393e+01
1	 7.672485e-01	 1.523602e+00	-3.708681e+01
1	 7.382072e-01	 1.537883e+00	-3.620778e+01
1	 7.127518e-01	 1.484853e+00	-6.343799e+01
1	 6.845470e-01	 1.498065e+00	-6.164799e+01
1	 6.561946e-01	 1.510699e+00	-5.877502e+01
1	 6.277115e-01	 1.522754e+00	-5.534106e+01
1	 5.991147e-01	 1.534231e+00	-5.188080e+01
1	 5.704211e-01	 1.545129e+00	-4.893823e+01
1	 7.178429e-01	 1.495459e+00	-5.698892e+01
1	 6.894367e-01	 1.508765e+00	-5.532395e+01
1	 6.608817e-01	 1.521490e+00	-5.322651e+01
1	 6.321951e-01	 1.533631e+00	-5.091210e+01
1	 6.033941e-01	 1.545190e+00	-4.859754e+01
1	 5.744956e-01	 1.556165e+00	-4.649953e+01
1	 7.229340e-01	 1.506065e+00	-5.104543e+01
1	 6.943263e-01	 1.519466e+00	-4.960367e+01
1	 6.655688e-01	 1.532280e+00	-4.817625e+01
1	 6.366788e-01	 1.544508e+00	-4.674881e+01
1	 6.076735e-01	 1.556148e+00	-4.530019e+01
1	 5.785700e-01	 1.567202e+00	-4.380255e+01
1	 7.280250e-01	 1.516671e+00	-4.560339e+01
1	 6.992159e-01	 1.530166e+00	-4.443642e+01
1	 6.702559e-01	 1.543071e+00	-4.355076e+01
1	 6.411624e-01	 1.555385e+00	-4.277707e+01
1	 6.119529e-01	 1.567107e+00	-4.193442e+01
1	 5.826445e-01	 1.578239e+00	-4.083134e+01
1	 7.331161e-01	 1.527277e+00	-4.065880e+01
1	 7.041055e-01	 1.540867e+00	-3.977290e+01
1	 6.749430e-01	 1.553862e+00	-3.927860e+01
1	 6.456461e-01	 1.566262e+00	-3.892485e+01
1	 6.162323e-01	 1.578066e+00	-3.844741e+01
1	 5.867189e-01	 1.589275e+00	-3.757040e+01
1	 7.382072e-01	 1.537883e+00	-3.620778e+01
1	 7.089951e-01	 1.551567e+00	-3.556516e+01
1	 6.796301e-01	 1.564653e+00	-3.529030e+01
1	 6.501297e-01	 1.577139e+00	-3.512209e+01
1	 6.205117e-01	 1.589025e+00	-3.478780e+01
1	 5.907933e-01	 1.600312e+00	-3.400466e+01
1	 5.704211e-01	 1.545129e+00	-4.893823e+01
1	 5.416475e-01	 1.555449e+00	-4.656315e+01
1	 5.128102e-01	 1.565193e+00	-4.427826e+01
1	 4.839255e-01	 1.574363e+00	-4.183924e+01
1	 4.550097e-01	 1.582962e+00	-3.899961e+01
1	 4.260784e-01	 1.590993e+00	-3.551222e+01
1	 5.744956e-01	 1.556165e+00	-4.649953e+01
1	 5.455164e-01	 1.566559e+00	-4.440029e+01
1	 5.164731e-01	 1.576373e+00	-4.192530e+01
1	 4.873822e-01	 1.585608e+00	-3.905814e+01
1	 4.582598e-01	 1.594269e+00	-3.578642e+01
1	 4.291218e-01	 1.602358e+00	-3.210185e+01
1	 5.785700e-01	 1.567202e+00	-4.380255e+01
1	 5.493853e-01	 1.577669e+00	-4.188263e+01
1	 5.201360e-01	 1.587553e+00	-3.928427e+01
1	 4.908388e-01	 1.596854e+00	-3.615688e+01
1	 4.615098e-01	 1.605576e+00	-3.265802e+01
1	 4.321652e-01	 1.613722e+00	-2.895248e+01
1	 5.826445e-01	 1.578239e+00	-4.083134e+01
1	 5.532542e-01	 1.588780e+00	-3.903195e+01
1	 5.237989e-01	 1.598733e+00	-3.639685e+01
1	 4.942954e-01	 1.608099e+00	-3.318061e+01
1	 4.647599e-01	 1.616883e+00	-2.964803e+01
1	 4.352086e-01	 1.625086e+00	-2.607254e+01
1	 5.867189e-01	 1.589275e+00	-3.757040e+01
1	 5.571231e-01	 1.599890e+00	-3.586942e+01
1	 5.274619e-01	 1.609913e+00	-3.330357e+01
1	 4.977520e-01	 1.619345e+00	-3.017324e+01
1	 4.680100e-01	 1.628190e+00	-2.678909e+01
1	 4.382520e-01	 1.636450e+00	-2.347026e+01
1	 5.907933e-01	 1.600312e+00	-3.400466e+01
1	 5.609920e-01	 1.611000e+00	-3.241564e+01
1	 5.311248e-01	 1.621093e+00	-3.004384e+01
1	 5.012086e-01	 1.630590e+00	-2.717745e+01
1	 4.712600e-01	 1.639496e+00	-2.411299e+01
1	 4.412955e-01	 1.647815e+00	-2.115364e+01
1	 4.260784e-01	 1.590993e+00	-3.551222e+01
1	 3.971472e-01	 1.598461e+00	-3.173770e+01
1	 3.682313e-01	 1.605369e+00	-2.813200e+01
1	 3.393456e-01	 1.611722e+00	-2.459133e+01
1	 3.105047e-01	 1.617526e+00	-2.101204e+01
1	 2.817229e-01	 1.622786e+00	-1.729089e+01
1	 4.291218e-01	 1.602358e+00	-3.210185e+01
1	 3.999839e-01	 1.609878e+00	-2.852699e+01
1	 3.708615e-01	 1.616836e+00	-2.541670e+01
1	 3.417695e-01	 1.623234e+00	-2.251146e+01
1	 3.127226e-01	 1.629080e+00	-1.954894e+01
1	 2.837352e-01	 1.634378e+00	-1.626520e+01
1	 4.321652e-01	 1.613722e+00	-2.895248e+01
1	 4.028207e-01	 1.621296e+00	-2.564377e+01
1	 3.734917e-01	 1.628302e+00	-2.298001e+01
1	 3.441934e-01	 1.634746e+00	-2.059297e+01
1	 3.149405e-01	 1.640633e+00	-1.810966e+01
1	 2.857475e-01	 1.645969e+00	-1.515416e+01
1	 4.352086e-01	 1.625086e+00	-2.607254e+01
1	 4.056575e-01	 1.632714e+00	-2.307129e+01
1	 3.761219e-01	 1.639769e+00	-2.079188e+01
1	 3.466173e-01	 1.646259e+00	-1.880330e+01
1	 3.171584e-01	 1.652187e+00	-1.666885e+01
1	 2.877598e-01	 1.657560e+00	-1.394837e+01
1	 4.382520e-01	 1.636450e+00	-2.347026e+01
1	 4.084942e-01	 1.644131e+00	-2.079330e+01
1	 3.787522e-01	 1.651236e+00	-1.882307e+01
1	 3.490412e-01	 1.657771e+00	-1.711076e+01
1	 3.193763e-01	 1.663741e+00	-1.520189e+01
1	 2.897721e-01	 1.669152e+00	-1.263867e+01
1	 4.412955e-01	 1.647815e+00	-2.115364e+01
1	 4.113310e-01	 1.655549e+00	-1.879398e+01
1	 3.813824e-01	 1.662703e+00	-1.704518e+01
1	 3.514651e-01	 1.669283e+00	-1.548456e+01
1	 3.215942e-01	 1.675295e+00	-1.368481e+01
1	 2.917844e-01	 1.680743e+00	-1.121618e+01
1	 2.817229e-01	 1.622786e+00	-1.729089e+01
1	 2.530139e-01	 1.627509e+00	-1.272585e+01
1	 2.243912e-01	 1.631702e+00	-7.092267e+00
1	 1.958680e-01	 1.635371e+00	-1.001314e+00
1	 1.674568e-01	 1.638524e+00	 4.940826e+00
1	 1.391700e-01	 1.641169e+00	 1.013529e+01
1	 2.837352e-01	 1.634378e+00	-1.626520e+01
1	 2.548211e-01	 1.639134e+00	-1.188423e+01
1	 2.259940e-01	 1.643357e+00	-6.273634e+00
1	 1.972670e-01	 1.647052e+00	-1.331741e-01
1	 1.686529e-01	 1.650228e+00	 5.841445e+00
1	 1.401641e-01	 1.652891e+00	 1.096143e+01
1	 2.857475e-01	 1.645969e+00	-1.515416e+01
1	 2.566284e-01	 1.650760e+00	-1.092949e+01
1	 2.275968e-01	 1.655012e+00	-5.390818e+00
1	 1.986661e-01	 1.658734e+00	 7.112399e-01
1	 1.698491e-01	 1.661932e+00	 6.629544e+00
1	 1.411581e-01	 1.664614e+00	 1.162362e+01
1	 2.877598e-01	 1.657560e+00	-1.394837e+01
1	 2.584356e-01	 1.662385e+00	-9.867883e+00
1	 2.291996e-01	 1.666667e+00	-4.457740e+00
1	 2.000651e-01	 1.670415e+00	 1.517465e+00
1	 1.710452e-01	 1.673635e+00	 7.296420e+00
1	 1.421522e-01	 1.676337e+00	 1.212439e+01
1	 2.897721e-01	 1.669152e+00	-1.263867e+01
1	 2.602428e-01	 1.674010e+00	-8.705469e+00
1	 2.308024e-01	 1.678322e+00	-3.487936e+00
1	 2.014642e-01	 1.682096e+00	 2.271439e+00
1	 1.722413e-01	 1.685339e+00	 7.833613e+00
1	 1.431463e-01	 1.688059e+00	 1.246619e+01
1	 2.917844e-01	 1.680743e+00	-1.121618e+01
1	 2.620501e-01	 1.685635e+00	-7.448151e+00
1	 2.324052e-01	 1.689977e+00	-2.494568e+00
1	 2.028633e-01	 1.693777e+00	 2.959489e+00
1	 1.734374e-01	 1.697043e+00	 8.232897e+00
1	 1.441403e-01	 1.699782e+00	 1.265141e+01
1	 1.391700e-01	 1.641169e+00	 1.013529e+01
1	 1.110193e-01	 1.643313e+00	 1.434528e+01
1	 8.301627e-02	 1.644965e+00	 1.861439e+01
1	 5.517174e-02	 1.646135e+00	 2.425636e+01
1	 2.749628e-02	 1.646829e+00	 3.256156e+01
1	 0.000000e+00	 1.647059e+00	 4.479291e+01
1	 1.401641e-01	 1.652891e+00	 1.096143e+01
1	 1.118123e-01	 1.655051e+00	 1.499953e+01
1	 8.360924e-02	 1.656715e+00	 1.914540e+01
1	 5.556582e-02	 1.657893e+00	 2.482668e+01
1	 2.769269e-02	 1.658592e+00	 3.344605e+01
1	 0.000000e+00	 1.658824e+00	 4.637658e+01
1	 1.411581e-01	 1.664614e+00	 1.162362e+01
1	 1.126053e-01	 1.666789e+00	 1.550864e+01
1	 8.420221e-02	 1.668465e+00	 1.959434e+01
1	 5.595990e-02	 1.669651e+00	 2.537228e+01
1	 2.788909e-02	 1.670355e+00	 3.430757e+01
1	 0.000000e+00	 1.670588e+00	 4.783401e+01
1	 1.421522e-01	 1.676337e+00	 1.212439e+01
1	 1.133983e-01	 1.678527e+00	 1.588449e+01
1	 8.479519e-02	 1.680215e+00	 1.997453e+01
1	 5.635399e-02	 1.681409e+00	 2.590103e+01
1	 2.808549e-02	 1.682118e+00	 3.514281e+01
1	 0.000000e+00	 1.682353e+00	 4.914602e+01
1	 1.431463e-01	 1.688059e+00	 1.246619e+01
1	 1.141913e-01	 1.690265e+00	 1.613862e+01
1	 8.538816e-02	 1.691964e+00	 2.029888e+01
1	 5.674807e-02	 1.693167e+00	 2.642059e+01
1	 2.828189e-02	 1.693882e+00	 3.594855e+01
1	 0.000000e+00	 1.694118e+00	 5.029398e+01
1	 1.441403e-01	 1.699782e+00	 1.265141e+01
1	 1.149843e-01	 1.702003e+00	 1.628228e+01
1	 8.598113e-02	 1.703714e+00	 2.057997e+01
1	 5.714215e-02	 1.704925e+00	 2.693839e+01
1	 2.847829e-02	 1.705645e+00	 3.672167e+01
1	 0.000000e+00	 1.705882e+00	 5.125978e+01
1	 1.705882e+00	 0.000000e+00	-7.636343e+00
1	 1.705645e+00	 2.847829e-02	-6.336038e-01
1	 1.704925e+00	 5.714215e-02	 4.327556e+00
1	 1.703714e+00	 8.598113e-02	 6.752796e+00
1	 1.702003e+00	 1.149843e-01	 6.147776e+00
1	 1.699782e+00	 1.441403e-01	 2.020269e+00
1	 1.717647e+00	 0.000000e+00	-6.954871e+00
1	 1.717408e+00	 2.867470e-02	-1.779082e-01
1	 1.716683e+00	 5.753624e-02	 4.644146e+00
1	 1.715464e+00	 8.657411e-02	 7.014988e+00
1	 1.713741e+00	 1.157773e-01	 6.443481e+00
1	 1.711504e+00	 1.451344e-01	 2.446027e+00
1	 1.729412e+00	 0.000000e+00	-6.246194e+00
1	 1.729171e+00	 2.887110e-02	 2.693528e-01
1	 1.728441e+00	 5.793032e-02	 4.922271e+00
1	 1.727214e+00	 8.716708e-02	 7.223411e+00
1	 1.725479e+00	 1.165703e-01	 6.693215e+00
1	 1.723227e+00	 1.461285e-01	 2.864274e+00
1	 1.741176e+00	 0.000000e+00	-5.515953e+00
1	 1.740934e+00	 2.906750e-02	 7.129525e-01
1	 1.740199e+00	 5.832441e-02	 5.171336e+00
1	 1.738963e+00	 8.776005e-02	 7.386100e+00
1	 1.737217e+00	 1.173633e-01	 6.897435e+00
1	 1.734950e+00	 1.471226e-01	 3.261471e+00
1	 1.752941e+00	 0.000000e+00	-4.769637e+00
1	 1.752697e+00	 2.926390e-02	 1.157536e+00
1	 1.751957e+00	 5.871849e-02	 5.400494e+00
1	 1.750713e+00	 8.835303e-02	 7.510877e+00
1	 1.748955e+00	 1.181563e-01	 7.056581e+00
1	 1.746672e+00	 1.481166e-01	 3.624444e+00
1	 1.764706e+00	 0.000000e+00	-4.012591e+00
1	 1.764460e+00	 2.946030e-02	 1.607625e+00
1	 1.763716e+00	 5.911257e-02	 5.618655e+00
1	 1.762463e+00	 8.894600e-02	 7.605354e+00
1	 1.760692e+00	 1.189493e-01	 7.171087e+00
1	 1.758395e+00	 1.491107e-01	 3.940368e+00
1	 1.699782e+00	 1.441403e-01	 2.020269e+00
1	 1.697043e+00	 1.734374e-01	-3.646103e+00
1	 1.693777e+00	 2.028633e-01	-8.467072e+00
1	 1.689977e+00	 2.324052e-01	-1.233726e+01
1	 1.685635e+00	 2.620501e-01	-1.516025e+01
1	 1.680743e+00	 2.917844e-01	-1.684943e+01
1	 1.711504e+00	 1.451344e-01	 2.446027e+00
1	 1.708746e+00	 1.746335e-01	-3.060679e+00
1	 1.705458e+00	 2.042623e-01	-7.767717e+00
1	 1.701632e+00	 2.340080e-01	-1.157182e+01
1	 1.697260e+00	 2.638573e-01	-1.438193e+01
1	 1.692334e+00	 2.937967e-01	-1.612009e+01
1	 1.723227e+00	 1.461285e-01	 2.864274e+00
1	 1.720450e+00	 1.758297e-01	-2.429993e+00
1	 1.717140e+00	 2.056614e-01	-6.979458e+00
1	 1.713287e+00	 2.356108e-01	-1.068579e+01
1	 1.708885e+00	 2.656646e-01	-1.346480e+01
1	 1.703925e+00	 2.958090e-01	-1.524734e+01
1	 1.734950e+00	 1.471226e-01	 3.261471e+00
1	 1.732154e+00	 1.770258e-01	-1.781120e+00
1	 1.728821e+00	 2.070604e-01	-6.135376e+00
1	 1.724942e+00	 2.372136e-01	-9.710631e+00
1	 1.720510e+00	 2.674718e-01	-1.243098e+01
1	 1.715517e+00	 2.978213e-01	-1.423625e+01
1	 1.746672e+00	 1.481166e-01	 3.624444e+00
1	 1.743858e+00	 1.782219e-01	-1.140406e+00
1	 1.740502e+00	 2.084595e-01	-5.267662e+00
1	 1.736597e+00	 2.388164e-01	-8.676951e+00
1	 1.732135e+00	 2.692790e-01	-1.130205e+01
1	 1.727108e+00	 2.998336e-01	-1.309174e+01
1	 1.758395e+00	 1.491107e-01	 3.940368e+00
1	 1.755561e+00	 1.794180e-01	-5.334957e-01
1	 1.752183e+00	 2.098585e-01	-4.407650e+00
1	 1.748252e+00	 2.404192e-01	-7.614558e+00
1	 1.743760e+00	 2.710863e-01	-1.009896e+01
1	 1.738699e+00	 3.018459e-01	-1.181861e+01
1	 1.680743e+00	 2.917844e-01	-1.684943e+01
1	 1.675295e+00	 3.215942e-01	-1.803487e+01
1	 1.669283e+00	 3.514651e-01	-1.935863e+01
1	 1.662703e+00	 3.813824e-01	-2.075226e+01
1	 1.655549e+00	 4.113310e-01	-2.213729e+01
1	 1.647815e+00	 4.412955e-01	-2.342519e+01
1	 1.692334e+00	 2.937967e-01	-1.612009e+01
1	 1.686848e+00	 3.238121e-01	-1.736584e+01
1	 1.680796e+00	 3.538890e-01	-1.870210e+01
1	 1.674170e+00	 3.840126e-01	-2.005830e+01
1	 1.666966e+00	 4.141678e-01	-2.135318e+01
1	 1.659179e+00	 4.443389e-01	-2.249477e+01
1	 1.703925e+00	 2.958090e-01	-1.524734e+01
1	 1.698402e+00	 3.260300e-01	-1.655471e+01
1	 1.692308e+00	 3.563129e-01	-1.790320e+01
1	 1.685637e+00	 3.866428e-01	-1.922073e+01
1	 1.678384e+00	 4.170045e-01	-2.042523e+01
1	 1.670543e+00	 4.473823e-01	-2.142475e+01
1	 1.715517e+00	 2.978213e-01	-1.423625e+01
1	 1.709956e+00	 3.282478e-01	-1.558924e+01
1	 1.703820e+00	 3.587368e-01	-1.693984e+01
1	 1.697104e+00	 3.892731e-01	-1.821497e+01
1	 1.689801e+00	 4.198413e-01	-1.933378e+01
1	 1.681907e+00	 4.504257e-01	-2.020782e+01
1	 1.727108e+00	 2.998336e-01	-1.309174e+01
1	 1.721510e+00	 3.304657e-01	-1.445755e+01
1	 1.715333e+00	 3.611607e-01	-1.579048e+01
1	 1.708571e+00	 3.919033e-01	-1.701709e+01
1	 1.701219e+00	 4.226781e-01	-1.805971e+01
1	 1.693272e+00	 4.534691e-01	-1.883681e+01
1	 1.738699e+00	 3.018459e-01	-1.181861e+01
1	 1.733063e+00	 3.326836e-01	-1.314805e+01
1	 1.726845e+00	 3.635846e-01	-1.443420e+01
1	 1.720038e+00	 3.945335e-01	-1.560380e+01
1	 1.712637e+00	 4.255148e-01	-1.658441e+01
1	 1.704636e+00	 4.565125e-01	-1.730479e+01
1	 1.647815e+00	 4.412955e-01	-2.342519e+01
1	 1.639496e+00	 4.712600e-01	-2.465046e+01
1	 1.630590e+00	 5.012086e-01	-2.590452e+01
1	 1.621093e+00	 5.311248e-01	-2.717703e+01
1	 1.611000e+00	 5.609920e-01	-2.845792e+01
1	 1.600312e+00	 5.907933e-01	-2.973741e+01
1	 1.659179e+00	 4.443389e-01	-2.249477e+01
1	 1.650803e+00	 4.745101e-01	-2.353978e+01
1	 1.641836e+00	 5.046652e-01	-2.460823e+01
1	 1.632272e+00	 5.347877e-01	-2.569598e+01
1	 1.622111e+00	 5.648609e-01	-2.680016e+01
1	 1.611348e+00	 5.948678e-01	-2.791909e+01
1	 1.670543e+00	 4.473823e-01	-2.142475e+01
1	 1.662110e+00	 4.777602e-01	-2.230259e+01
1	 1.653081e+00	 5.081218e-01	-2.320723e+01
1	 1.643452e+00	 5.384507e-01	-2.413804e+01
1	 1.633221e+00	 5.687298e-01	-2.509556e+01
1	 1.622385e+00	 5.989422e-01	-2.608150e+01
1	 1.681907e+00	 4.504257e-01	-2.020782e+01
1	 1.673417e+00	 4.810102e-01	-2.094515e+01
1	 1.664327e+00	 5.115784e-01	-2.171661e+01
1	 1.654632e+00	 5.421136e-01	-2.252236e+01
1	 1.644332e+00	 5.725987e-01	-2.336271e+01
1	 1.633422e+00	 6.030166e-01	-2.423804e+01
1	 1.693272e+00	 4.534691e-01	-1.883681e+01
1	 1.684724e+00	 4.842603e-01	-1.947353e+01
1	 1.675572e+00	 5.150350e-01	-2.015102e+01
1	 1.665812e+00	 5.457765e-01	-2.086760e+01
1	 1.655442e+00	 5.764677e-01	-2.161970e+01
1	 1.644458e+00	 6.070911e-01	-2.240178e+01
1	 1.704636e+00	 4.565125e-01	-1.730479e+01
1	 1.696031e+00	 4.875104e-01	-1.789367e+01
1	 1.686817e+00	 5.184917e-01	-1.852475e+01
1	 1.676992e+00	 5.494395e-01	-1.919190e+01
1	 1.666552e+00	 5.803366e-01	-1.988413e+01
1	 1.655495e+00	 6.111655e-01	-2.058545e+01
1	 1.600312e+00	 5.907933e-01	-2.973741e+01
1	 1.589025e+00	 6.205117e-01	-3.109400e+01
1	 1.577139e+00	 6.501297e-01	-3.260224e+01
1	 1.564653e+00	 6.796301e-01	-3.424706e+01
1	 1.551567e+00	 7.089951e-01	-3.601382e+01
1	 1.537883e+00	 7.382072e-01	-3.788839e+01
1	 1.611348e+00	 5.948678e-01	-2.791909e+01
1	 1.599984e+00	 6.247911e-01	-2.913463e+01
1	 1.588015e+00	 6.546134e-01	-3.051119e+01
1	 1.575443e+00	 6.843172e-01	-3.202100e+01
1	 1.562268e+00	 7.138848e-01	-3.363516e+01
1	 1.548489e+00	 7.432983e-01	-3.532369e+01
1	 1.622385e+00	 5.989422e-01	-2.608150e+01
1	 1.610942e+00	 6.290705e-01	-2.717321e+01
1	 1.598892e+00	 6.590971e-01	-2.842348e+01
1	 1.586234e+00	 6.890043e-01	-2.979634e+01
1	 1.572968e+00	 7.187744e-01	-3.125358e+01
1	 1.559095e+00	 7.483894e-01	-3.275489e+01
1	 1.633422e+00	 6.030166e-01	-2.423804e+01
1	 1.621901e+00	 6.333498e-01	-2.521691e+01
1	 1.609769e+00	 6.635807e-01	-2.634244e+01
1	 1.597025e+00	 6.936914e-01	-2.757480e+01
1	 1.583668e+00	 7.236640e-01	-2.887137e+01
1	 1.569701e+00	 7.534805e-01	-3.018692e+01
1	 1.644458e+00	 6.070911e-01	-2.240178e+01
1	 1.632860e+00	 6.376292e-01	-2.327274e+01
1	 1.620646e+00	 6.680644e-01	-2.427131e+01
1	 1.607815e+00	 6.983785e-01	-2.535805e+01
1	 1.594369e+00	 7.285536e-01	-2.649076e+01
1	 1.580308e+00	 7.585715e-01	-2.762457e+01
1	 1.655495e+00	 6.111655e-01	-2.058545e+01
1	 1.643819e+00	 6.419086e-01	-2.134753e+01
1	 1.631523e+00	 6.725480e-01	-2.221322e+01
1	 1.618606e+00	 7.030656e-01	-2.314772e+01
1	 1.605069e+00	 7.334433e-01	-2.411391e+01
1	 1.590914e+00	 7.636626e-01	-2.507251e+01
1	 1.537883e+00	 7.382072e-01	-3.788839e+01
1	 1.523602e+00	 7.672485e-01	-3.973084e+01
1	 1.508727e+00	 7.961013e-01	-4.140497e+01
1	 1.493260e+00	 8.247477e-01	-4.290312e+01
1	 1.477205e+00	 8.531700e-01	-4.421832e+01
1	 1.460567e+00	 8.813504e-01	-4.534439e+01
1	 1.548489e+00	 7.432983e-01	-3.532369e+01
1	 1.534110e+00	 7.725399e-01	-3.693967e+01
1	 1.519132e+00	 8.015916e-01	-3.836946e+01
1	 1.503558e+00	 8.304356e-01	-3.963434e+01
1	 1.487393e+00	 8.590539e-01	-4.075834e+01
1	 1.470640e+00	 8.874287e-01	-4.176810e+01
1	 1.559095e+00	 7.483894e-01	-3.275489e+01
1	 1.544618e+00	 7.778313e-01	-3.415646e+01
1	 1.529537e+00	 8.070820e-01	-3.536792e+01
1	 1.513857e+00	 8.361235e-01	-3.643092e+01
1	 1.497581e+00	 8.649378e-01	-3.739137e+01
1	 1.480713e+00	 8.935069e-01	-3.829929e+01
1	 1.569701e+00	 7.534805e-01	-3.018692e+01
1	 1.555125e+00	 7.831226e-01	-3.138870e+01
1	 1.539942e+00	 8.125723e-01	-3.240839e+01
1	 1.524155e+00	 8.418114e-01	-3.329957e+01
1	 1.507768e+00	 8.708218e-01	-3.412117e+01
1	 1.490786e+00	 8.995852e-01	-3.493720e+01
1	 1.580308e+00	 7.585715e-01	-2.762457e+01
1	 1.565633e+00	 7.884140e-01	-2.864370e+01
1	 1.550347e+00	 8.180627e-01	-2.949869e+01
1	 1.534454e+00	 8.474994e-01	-3.024685e+01
1	 1.517956e+00	 8.767057e-01	-3.095138e+01
1	 1.500859e+00	 9.056635e-01	-3.168114e+01
1	 1.590914e+00	 7.636626e-01	-2.507251e+01
1	 1.576140e+00	 7.937054e-01	-2.592853e+01
1	 1.560752e+00	 8.235531e-01	-2.664644e+01
1	 1.544752e+00	 8.531873e-01	-2.727913e+01
1	 1.528143e+00	 8.825896e-01	-2.788554e+01
1	 1.510931e+00	 9.117418e-01	-2.853040e+01
1	 1.460567e+00	 8.813504e-01	-4.534439e+01
1	 1.443350e+00	 9.092713e-01	-4.650387e+01
1	 1.425561e+00	 9.369152e-01	-4.789957e+01
1	 1.407206e+00	 9.642648e-01	-4.949789e+01
1	 1.388291e+00	 9.913029e-01	-5.126763e+01
1	 1.368826e+00	 1.018013e+00	-5.318012e+01
1	 1.470640e+00	 8.874287e-01	-4.176810e+01
1	 1.453305e+00	 9.155421e-01	-4.290893e+01
1	 1.435393e+00	 9.433767e-01	-4.435646e+01
1	 1.416911e+00	 9.709149e-01	-4.603461e+01
1	 1.397866e+00	 9.981394e-01	-4.786726e+01
1	 1.378266e+00	 1.025033e+00	-4.977870e+01
1	 1.480713e+00	 8.935069e-01	-3.829929e+01
1	 1.463259e+00	 9.218130e-01	-3.940881e+01
1	 1.445224e+00	 9.498382e-01	-4.086931e+01
1	 1.426615e+00	 9.775650e-01	-4.257492e+01
1	 1.407440e+00	 1.004976e+00	-4.441787e+01
1	 1.387707e+00	 1.032054e+00	-4.628911e+01
1	 1.490786e+00	 8.995852e-01	-3.493720e+01
1	 1.473213e+00	 9.280838e-01	-3.599882e+01
1	 1.455055e+00	 9.562997e-01	-3.743173e+01
1	 1.436320e+00	 9.842151e-01	-3.911272e+01
1	 1.417015e+00	 1.011813e+00	-4.091539e+01
1	 1.397147e+00	 1.039075e+00	-4.271074e+01
1	 1.500859e+00	 9.056635e-01	-3.168114e+01
1	 1.483167e+00	 9.343546e-01	-3.267440e+01
1	 1.464887e+00	 9.627611e-01	-3.403749e+01
1	 1.446025e+00	 9.908652e-01	-3.564209e+01
1	 1.426589e+00	 1.018649e+00	-3.735583e+01
1	 1.406587e+00	 1.046096e+00	-3.904302e+01
1	 1.510931e+00	 9.117418e-01	-2.853040e+01
1	 1.493121e+00	 9.406255e-01	-2.943112e+01
1	 1.474718e+00	 9.692226e-01	-3.068055e+01
1	 1.455730e+00	 9.975153e-01	-3.215724e+01
1	 1.436164e+00	 1.025486e+00	-3.373536e+01
1	 1.416027e+00	 1.053116e+00	-3.528538e+01
1	 1.368826e+00	 1.018013e+00	-5.318012e+01
1	 1.348818e+00	 1.044377e+00	-5.455425e+01
1	 1.328277e+00	 1.070380e+00	-5.473458e+01
1	 1.307213e+00	 1.096006e+00	-5.373201e+01
1	 1.285635e+00	 1.121239e+00	-5.155618e+01
1	 1.263556e+00	 1.146063e+00	-4.821551e+01
1	 1.378266e+00	 1.025033e+00	-4.977870e+01
1	 1.358121e+00	 1.051580e+00	-5.104394e+01
1	 1.337438e+00	 1.077762e+00	-5.102369e+01
1	 1.316228e+00	 1.103565e+00	-4.977201e+01
1	 1.294502e+00	 1.128972e+00	-4.734379e+01
1	 1.272270e+00	 1.153967e+00	-4.379460e+01
1	 1.387707e+00	 1.032054e+00	-4.628911e+01
1	 1.367423e+00	 1.058782e+00	-4.743748e+01
1	 1.346598e+00	 1.085144e+00	-4.724105e+01
1	 1.325243e+00	 1.111123e+00	-4.578606e+01
1	 1.303368e+00	 1.136704e+00	-4.316137e+01
1	 1.280984e+00	 1.161871e+00	-3.945805e+01
1	 1.397147e+00	 1.039075e+00	-4.271074e+01
1	 1.376725e+00	 1.065985e+00	-4.373750e+01
1	 1.355759e+00	 1.092526e+00	-4.339097e+01
1	 1.334259e+00	 1.118682e+00	-4.177880e+01
1	 1.312235e+00	 1.144437e+00	-3.901270e+01
1	 1.289699e+00	 1.169775e+00	-3.520789e+01
1	 1.406587e+00	 1.046096e+00	-3.904302e+01
1	 1.386027e+00	 1.073188e+00	-3.994660e+01
1	 1.364919e+00	 1.099908e+00	-3.947765e+01
1	 1.343274e+00	 1.126241e+00	-3.775471e+01
1	 1.321101e+00	 1.152170e+00	-3.490147e+01
1	 1.298413e+00	 1.177679e+00	-3.104614e+01
1	 1.416027e+00	 1.053116e+00	-3.528538e+01
1	 1.395329e+00	 1.080390e+00	-3.606727e+01
1	 1.374080e+00	 1.107290e+00	-3.550517e+01
1	 1.352289e+00	 1.133799e+00	-3.371817e+01
1	 1.329968e+00	 1.159902e+00	-3.083125e+01
1	 1.307127e+00	 1.185583e+00	-2.697473e+01
1	 1.263556e+00	 1.146063e+00	-4.821551e+01
1	 1.240987e+00	 1.170464e+00	-4.434609e+01
1	 1.217940e+00	 1.194428e+00	-4.068651e+01
1	 1.194428e+00	 1.217940e+00	-3.740334e+01
1	 1.170464e+00	 1.240987e+00	-3.466963e+01
1	 1.146063e+00	 1.263556e+00	-3.266398e+01
1	 1.272270e+00	 1.153967e+00	-4.379460e+01
1	 1.249545e+00	 1.178536e+00	-3.981760e+01
1	 1.226339e+00	 1.202665e+00	-3.615809e+01
1	 1.202665e+00	 1.226339e+00	-3.295419e+01
1	 1.178536e+00	 1.249545e+00	-3.034871e+01
1	 1.153967e+00	 1.272270e+00	-2.848835e+01
1	 1.280984e+00	 1.161871e+00	-3.945805e+01
1	 1.258104e+00	 1.186609e+00	-3.541016e+01
1	 1.234739e+00	 1.210903e+00	-3.176433e+01
1	 1.210903e+00	 1.234739e+00	-2.863463e+01
1	 1.186609e+00	 1.258104e+00	-2.613820e+01
1	 1.161871e+00	 1.280984e+00	-2.439465e+01
1	 1.289699e+00	 1.169775e+00	-3.520789e+01
1	 1.266662e+00	 1.194681e+00	-3.112420e+01
1	 1.243138e+00	 1.219140e+00	-2.750494e+01
1	 1.219140e+00	 1.243138e+00	-2.444443e+01
1	 1.194681e+00	 1.266662e+00	-2.203869e+01
1	 1.169775e+00	 1.289699e+00	-2.038487e+01
1	 1.298413e+00	 1.177679e+00	-3.104614e+01
1	 1.275221e+00	 1.202753e+00	-2.696015e+01
1	 1.251538e+00	 1.227377e+00	-2.337962e+01
1	 1.227377e+00	 1.251538e+00	-2.038338e+01
1	 1.202753e+00	 1.275221e+00	-1.805073e+01
1	 1.177679e+00	 1.298413e+00	-1.646091e+01
1	 1.307127e+00	 1.185583e+00	-2.697473e+01
1	 1.283779e+00	 1.210825e+00	-2.291842e+01
1	 1.259938e+00	 1.235615e+00	-1.938809e+01
1	 1.235615e+00	 1.259938e+00	-1.645128e+01
1	 1.210825e+00	 1.283779e+00	-1.417485e+01
1	 1.185583e+00	 1.307127e+00	-1.262466e+01
1	 1.146063e+00	 1.263556e+00	-3.266398e+01
1	 1.121239e+00	 1.285635e+00	-3.134973e+01
1	 1.096006e+00	 1.307213e+00	-3.052835e+01
1	 1.070380e+00	 1.328277e+00	-3.014153e+01
1	 1.044377e+00	 1.348818e+00	-3.013444e+01
1	 1.018013e+00	 1.368826e+00	-3.045603e+01
1	 1.153967e+00	 1.272270e+00	-2.848835e+01
1	 1.128972e+00	 1.294502e+00	-2.730789e+01
1	 1.103565e+00	 1.316228e+00	-2.660515e+01
1	 1.077762e+00	 1.337438e+00	-2.632683e+01
1	 1.051580e+00	 1.358121e+00	-2.642378e+01
1	 1.025033e+00	 1.378266e+00	-2.685121e+01
1	 1.161871e+00	 1.280984e+00	-2.439465e+01
1	 1.136704e+00	 1.303368e+00	-2.331850e+01
1	 1.111123e+00	 1.325243e+00	-2.270908e+01
1	 1.085144e+00	 1.346598e+00	-2.251801e+01
1	 1.058782e+00	 1.367423e+00	-2.270152e+01
1	 1.032054e+00	 1.387707e+00	-2.322068e+01
1	 1.169775e+00	 1.289699e+00	-2.038487e+01
1	 1.144437e+00	 1.312235e+00	-1.938484e+01
1	 1.118682e+00	 1.334259e+00	-1.884397e+01
1	 1.092526e+00	 1.355759e+00	-1.871867e+01
1	 1.065985e+00	 1.376725e+00	-1.897031e+01
1	 1.039075e+00	 1.397147e+00	-1.956539e+01
1	 1.177679e+00	 1.298413e+00	-1.646091e+01
1	 1.152170e+00	 1.321101e+00	-1.551012e+01
1	 1.126241e+00	 1.343274e+00	-1.501353e+01
1	 1.099908e+00	 1.364919e+00	-1.493231e+01
1	 1.073188e+00	 1.386027e+00	-1.523271e+01
1	 1.046096e+00	 1.406587e+00	-1.588624e+01
1	 1.185583e+00	 1.307127e+00	-1.262466e+01
1	 1.159902e+00	 1.329968e+00	-1.169743e+01
1	 1.133799e+00	 1.352289e+00	-1.122140e+01
1	 1.107290e+00	 1.374080e+00	-1.116237e+01
1	 1.080390e+00	 1.395329e+00	-1.149123e+01
1	 1.053116e+00	 1.416027e+00	-1.218412e+01
1	 1.018013e+00	 1.368826e+00	-3.045603e+01
1	 9.913029e-01	 1.388291e+00	-3.121077e+01
1	 9.642648e-01	 1.407206e+00	-3.242796e+01
1	 9.369152e-01	 1.425561e+00	-3.392893e+01
1	 9.092713e-01	 1.443350e+00	-3.551230e+01
1	 8.813504e-01	 1.460567e+00	-3.695521e+01
1	 1.025033e+00	 1.378266e+00	-2.685121e+01
1	 9.981394e-01	 1.397866e+00	-2.765552e+01
1	 9.709149e-01	 1.416911e+00	-2.881392e+01
1	 9.433767e-01	 1.435393e+00	-3.016468e+01
1	 9.155421e-01	 1.453305e+00	-3.152487e+01
1	 8.874287e-01	 1.470640e+00	-3.269155e+01
1	 1.032054e+00	 1.387707e+00	-2.322068e+01
1	 1.004976e+00	 1.407440e+00	-2.406649e+01
1	 9.775650e-01	 1.426615e+00	-2.516722e+01
1	 9.498382e-01	 1.445224e+00	-2.637826e+01
1	 9.218130e-01	 1.463259e+00	-2.753544e+01
1	 8.935069e-01	 1.480713e+00	-2.845607e+01
1	 1.039075e+00	 1.397147e+00	-1.956539e+01
1	 1.011813e+00	 1.417015e+00	-2.044269e+01
1	 9.842151e-01	 1.436320e+00	-2.148518e+01
1	 9.562997e-01	 1.455055e+00	-2.256561e+01
1	 9.280838e-01	 1.473213e+00	-2.353882e+01
1	 8.995852e-01	 1.490786e+00	-2.424272e+01
1	 1.046096e+00	 1.406587e+00	-1.588624e+01
1	 1.018649e+00	 1.426589e+00	-1.678315e+01
1	 9.908652e-01	 1.446025e+00	-1.776524e+01
1	 9.627611e-01	 1.464887e+00	-1.872280e+01
1	 9.343546e-01	 1.483167e+00	-1.952998e+01
1	 9.056635e-01	 1.500859e+00	-2.004560e+01
1	 1.053116e+00	 1.416027e+00	-1.218412e+01
1	 1.025486e+00	 1.436164e+00	-1.308691e+01
1	 9.975153e-01	 1.455730e+00	-1.400486e+01
1	 9.692226e-01	 1.474718e+00	-1.484599e+01
1	 9.406255e-01	 1.493121e+00	-1.550400e+01
1	 9.117418e-01	 1.510931e+00	-1.585897e+01
1	 8.813504e-01	 1.460567e+00	-3.695521e+01
1	 8.531700e-01	 1.477205e+00	-3.786312e+01
1	 8.247477e-01	 1.493260e+00	-3.808747e+01
1	 7.961013e-01	 1.508727e+00	-3.777393e+01
1	 7.672485e-01	 1.523602e+00	-3.708681e+01
1	 7.382072e-01	 1.537883e+00	-3.620778e+01
1	 8.874287e-01	 1.470640e+00	-3.269155e+01
1	 8.590539e-01	 1.487393e+00	-3.337817e+01
1	 8.304356e-01	 1.503558e+00	-3.352001e+01
1	 8.015916e-01	 1.519132e+00	-3.324522e+01
1	 7.725399e-01	 1.534110e+00	-3.269782e+01
1	 7.432983e-01	 1.548489e+00	-3.203665e+01
1	 8.935069e-01	 1.480713e+00	-2.845607e+01
1	 8.649378e-01	 1.497581e+00	-2.895149e+01
1	 8.361235e-01	 1.513857e+00	-2.903016e+01
1	 8.070820e-01	 1.529537e+00	-2.880252e+01
1	 7.778313e-01	 1.544618e+00	-2.839231e+01
1	 7.483894e-01	 1.559095e+00	-2.793571e+01
1	 8.995852e-01	 1.490786e+00	-2.424272e+01
1	 8.708218e-01	 1.507768e+00	-2.457672e+01
1	 8.418114e-01	 1.524155e+00	-2.461224e+01
1	 8.125723e-01	 1.539942e+00	-2.444179e+01
1	 7.831226e-01	 1.555125e+00	-2.416883e+01
1	 7.534805e-01	 1.569701e+00	-2.390705e+01
1	 9.056635e-01	 1.500859e+00	-2.004560e+01
1	 8.767057e-01	 1.517956e+00	-2.024771e+01
1	 8.474994e-01	 1.534454e+00	-2.026074e+01
1	 8.180627e-01	 1.550347e+00	-2.015911e+01
1	 7.884140e-01	 1.565633e+00	-2.002599e+01
1	 7.585715e-01	 1.580308e+00	-1.995273e+01
1	 9.117418e-01	 1.510931e+00	-1.585897e+01
1	 8.825896e-01	 1.528143e+00	-1.595845e+01
1	 8.531873e-01	 1.544752e+00	-1.597030e+01
1	 8.235531e-01	 1.560752e+00	-1.595066e+01
1	 7.937054e-01	 1.576140e+00	-1.596240e+01
1	 7.636626e-01	 1.590914e+00	-1.607472e+01
1	 7.382072e-01	 1.537883e+00	-3.620778e+01
1	 7.089951e-01	 1.551567e+00	-3.556516e+01
1	 6.796301e-01	 1.564653e+00	-3.529030e+01
1	 6.501297e-01	 1.577139e+00	-3.512209e+01
1	 6.205117e-01	 1.589025e+00	-3.478780e+01
1	 5.907933e-01	 1.600312e+00	-3.400466e+01
1	 7.432983e-01	 1.548489e+00	-3.203665e+01
1	 7.138848e-01	 1.562268e+00	-3.159790e+01
1	 6.843172e-01	 1.575443e+00	-3.145146e+01
1	 6.546134e-01	 1.588015e+00	-3.135981e+01
1	 6.247911e-01	 1.599984e+00	-3.107680e+01
1	 5.948678e-01	 1.611348e+00	-3.034898e+01
1	 7.483894e-01	 1.559095e+00	-2.793571e+01
1	 7.187744e-01	 1.572968e+00	-2.769055e+01
1	 6.890043e-01	 1.586234e+00	-2.767685e+01
1	 6.590971e-01	 1.598892e+00	-2.767753e+01
1	 6.290705e-01	 1.610942e+00	-2.746945e+01
1	 5.989422e-01	 1.622385e+00	-2.682458e+01
1	 7.534805e-01	 1.569701e+00	-2.390705e+01
1	 7.236640e-01	 1.583668e+00	-2.384806e+01
1	 6.936914e-01	 1.597025e+00	-2.397209e+01
1	 6.635807e-01	 1.609769e+00	-2.407937e+01
1	 6.333498e-01	 1.621901e+00	-2.396627e+01
1	 6.030166e-01	 1.633422e+00	-2.342633e+01
1	 7.585715e-01	 1.580308e+00	-1.995273e+01
1	 7.285536e-01	 1.594369e+00	-2.007530e+01
1	 6.983785e-01	 1.607815e+00	-2.034266e+01
1	 6.680644e-01	 1.620646e+00	-2.056931e+01
1	 6.376292e-01	 1.632860e+00	-2.056772e+01
1	 6.070911e-01	 1.644458e+00	-2.014923e+01
1	 7.636626e-01	 1.590914e+00	-1.607472e+01
1	 7.334433e-01	 1.605069e+00	-1.637697e+01
1	 7.030656e-01	 1.618606e+00	-1.679387e+01
1	 6.725480e-01	 1.631523e+00	-1.715122e+01
1	 6.419086e-01	 1.643819e+00	-1.727426e+01
1	 6.111655e-01	 1.655495e+00	-1.698845e+01
1	 5.907933e-01	 1.600312e+00	-3.400466e+01
1	 5.609920e-01	 1.611000e+00	-3.241564e+01
1	 5.311248e-01	 1.621093e+00	-3.004384e+01
1	 5.012086e-01	 1.630590e+00	-2.717745e+01
1	 4.712600e-01	 1.639496e+00	-2.411299e+01
1	 4.412955e-01	 1.647815e+00	-2.115364e+01
1	 5.948678e-01	 1.611348e+00	-3.034898e+01
1	 5.648609e-01	 1.622111e+00	-2.889895e+01
1	 5.347877e-01	 1.632272e+00	-2.678501e+01
1	 5.046652e-01	 1.641836e+00	-2.425779e+01
1	 4.745101e-01	 1.650803e+00	-2.157353e+01
1	 4.443389e-01	 1.659179e+00	-1.899267e+01
1	 5.989422e-01	 1.622385e+00	-2.682458e+01
1	 5.687298e-01	 1.633221e+00	-2.552714e+01
1	 5.384507e-01	 1.643452e+00	-2.365960e+01
1	 5.081218e-01	 1.653081e+00	-2.144144e+01
1	 4.777602e-01	 1.662110e+00	-1.909538e+01
1	 4.473823e-01	 1.670543e+00	-1.684611e+01
1	 6.030166e-01	 1.633422e+00	-2.342633e+01
1	 5.725987e-01	 1.644332e+00	-2.228977e+01
1	 5.421136e-01	 1.654632e+00	-2.065428e+01
1	 5.115784e-01	 1.664327e+00	-1.871450e+01
1	 4.810102e-01	 1.673417e+00	-1.666619e+01
1	 4.504257e-01	 1.681907e+00	-1.470520e+01
1	 6.070911e-01	 1.644458e+00	-2.014923e+01
1	 5.764677e-01	 1.655442e+00	-1.917667e+01
1	 5.457765e-01	 1.665812e+00	-1.775608e+01
1	 5.150350e-01	 1.675572e+00	-1.606342e+01
1	 4.842603e-01	 1.684724e+00	-1.427393e+01
1	 4.534691e-01	 1.693272e+00	-1.256137e+01
1	 6.111655e-01	 1.655495e+00	-1.698845e+01
1	 5.803366e-01	 1.666552e+00	-1.617793e+01
1	 5.494395e-01	 1.676992e+00	-1.495238e+01
1	 5.184917e-01	 1.686817e+00	-1.347500e+01
1	 4.875104e-01	 1.696031e+00	-1.190689e+01
1	 4.565125e-01	 1.704636e+00	-1.040630e+01
1	 4.412955e-01	 1.647815e+00	-2.115364e+01
1	 4.113310e-01	 1.655549e+00	-1.879398e+01
1	 3.813824e-01	 1.662703e+00	-1.704518e+01
1	 3.514651e-01	 1.669283e+00	-1.548456e+01
1	 3.215942e-01	 1.675295e+00	-1.368481e+01
1	 2.917844e-01	 1.680743e+00	-1.121618e+01
1	 4.443389e-01	 1.659179e+00	-1.899267e+01
1	 4.141678e-01	 1.666966e+00	-1.692133e+01
1	 3.840126e-01	 1.674170e+00	-1.534136e+01
1	 3.538890e-01	 1.680796e+00	-1.387551e+01
1	 3.238121e-01	 1.686848e+00	-1.214337e+01
1	 2.937967e-01	 1.692334e+00	-9.763242e+00
1	 4.473823e-01	 1.670543e+00	-1.684611e+01
1	 4.170045e-01	 1.678384e+00	-1.503023e+01
1	 3.866428e-01	 1.685637e+00	-1.361136e+01
1	 3.563129e-01	 1.692308e+00	-1.225311e+01
1	 3.260300e-01	 1.698402e+00	-1.061721e+01
1	 2.958090e-01	 1.703925e+00	-8.365103e+00
1	 4.504257e-01	 1.681907e+00	-1.470520e+01
1	 4.198413e-01	 1.689801e+00	-1.311564e+01
1	 3.892731e-01	 1.697104e+00	-1.185234e+01
1	 3.587368e-01	 1.703820e+00	-1.061531e+01
1	 3.282478e-01	 1.709956e+00	-9.103743e+00
1	 2.978213e-01	 1.715517e+00	-7.017469e+00
1	 4.534691e-01	 1.693272e+00	-1.256137e+01
1	 4.226781e-01	 1.701219e+00	-1.117262e+01
1	 3.919033e-01	 1.708571e+00	-1.006153e+01
1	 3.611607e-01	 1.715333e+00	-8.960110e+00
1	 3.304657e-01	 1.721510e+00	-7.600484e+00
1	 2.998336e-01	 1.727108e+00	-5.716162e+00
1	 4.565125e-01	 1.704636e+00	-1.040630e+01
1	 4.255148e-01	 1.712637e+00	-9.196379e+00
1	 3.945335e-01	 1.720038e+00	-8.236239e+00
1	 3.635846e-01	 1.726845e+00	-7.285573e+00
1	 3.326836e-01	 1.733063e+00	-6.104998e+00
1	 3.018459e-01	 1.738699e+00	-4.457115e+00
1	 2.917844e-01	 1.680743e+00	-1.121618e+01
1	 2.620501e-01	 1.685635e+00	-7.448151e+00
1	 2.324052e-01	 1.689977e+00	-2.494568e+00
1	 2.028633e-01	 1.693777e+00	 2.959489e+00
1	 1.734374e-01	 1.697043e+00	 8.232897e+00
1	 1.441403e-01	 1.699782e+00	 1.265141e+01
1	 2.937967e-01	 1.692334e+00	-9.763242e+00
1	 2.638573e-01	 1.697260e+00	-6.191935e+00
1	 2.340080e-01	 1.701632e+00	-1.549233e+00
1	 2.042623e-01	 1.705458e+00	 3.553778e+00
1	 1.746335e-01	 1.708746e+00	 8.510538e+00
1	 1.451344e-01	 1.711504e+00	 1.272156e+01
1	 2.958090e-01	 1.703925e+00	-8.365103e+00
1	 2.656646e-01	 1.708885e+00	-5.025063e+00
1	 2.356108e-01	 1.713287e+00	-7.111579e-01
1	 2.056614e-01	 1.717140e+00	 4.037941e+00
1	 1.758297e-01	 1.720450e+00	 8.688415e+00
1	 1.461285e-01	 1.723227e+00	 1.271349e+01
1	 2.978213e-01	 1.715517e+00	-7.017469e+00
1	 2.674718e-01	 1.720510e+00	-3.941785e+00
1	 2.372136e-01	 1.724942e+00	 2.520746e-02
1	 2.070604e-01	 1.728821e+00	 4.415714e+00
1	 1.770258e-01	 1.732154e+00	 8.766874e+00
1	 1.471226e-01	 1.734950e+00	 1.262261e+01
1	 2.998336e-01	 1.727108e+00	-5.716162e+00
1	 2.692790e-01	 1.732135e+00	-2.936506e+00
1	 2.388164e-01	 1.736597e+00	 6.652651e-01
1	 2.084595e-01	 1.740502e+00	 4.690734e+00
1	 1.782219e-01	 1.743858e+00	 8.746256e+00
1	 1.481166e-01	 1.746672e+00	 1.244449e+01
1	 3.018459e-01	 1.738699e+00	-4.457115e+00
1	 2.710863e-01	 1.743760e+00	-2.003780e+00
1	 2.404192e-01	 1.748252e+00	 1.214273e+00
1	 2.098585e-01	 1.752183e+00	 4.866539e+00
1	 1.794180e-01	 1.755561e+00	 8.626890e+00
1	 1.491107e-01	 1.758395e+00	 1.217480e+01
1	 1.441403e-01	 1.699782e+00	 1.265141e+01
1	 1.149843e-01	 1.702003e+00	 1.628228e+01
1	 8.598113e-02	 1.703714e+00	 2.057997e+01
1	 5.714215e-02	 1.704925e+00	 2.693839e+01
1	 2.847829e-02	 1.705645e+00	 3.672167e+01
1	 0.000000e+00	 1.705882e+00	 5.125978e+01
1	 1.451344e-01	 1.711504e+00	 1.272156e+01
1	 1.157773e-01	 1.713741e+00	 1.634672e+01
1	 8.657411e-02	 1.715464e+00	 2.081675e+01
1	 5.753624e-02	 1.716683e+00	 2.742499e+01
1	 2.867470e-02	 1.717408e+00	 3.743436e+01
1	 0.000000e+00	 1.717647e+00	 5.207347e+01
1	 1.461285e-01	 1.723227e+00	 1.271349e+01
1	 1.165703e-01	 1.725479e+00	 1.635017e+01
1	 8.716708e-02	 1.727214e+00	 2.099418e+01
1	 5.793032e-02	 1.728441e+00	 2.784266e+01
1	 2.887110e-02	 1.729171e+00	 3.806218e+01
1	 0.000000e+00	 1.729412e+00	 5.278523e+01
1	 1.471226e-01	 1.734950e+00	 1.262261e+01
1	 1.173633e-01	 1.737217e+00	 1.628428e+01
1	 8.776005e-02	 1.738963e+00	 2.110381e+01
1	 5.832441e-02	 1.740199e+00	 2.818641e+01
1	 2.906750e-02	 1.740934e+00	 3.860702e+01
1	 0.000000e+00	 1.741176e+00	 5.340721e+01
1	 1.481166e-01	 1.746672e+00	 1.244449e+01
1	 1.181563e-01	 1.748955e+00	 1.614093e+01
1	 8.835303e-02	 1.750713e+00	 2.113741e+01
1	 5.871849e-02	 1.751957e+00	 2.845137e+01
1	 2.926390e-02	 1.752697e+00	 3.907075e+01
1	 0.000000e+00	 1.752941e+00	 5.395124e+01
1	 1.491107e-01	 1.758395e+00	 1.217480e+01
1	 1.189493e-01	 1.760692e+00	 1.591218e+01
1	 8.894600e-02	 1.762463e+00	 2.108694e+01
1	 5.911257e-02	 1.763716e+00	 2.863279e+01
1	 2.946030e-02	 1.764460e+00	 3.945518e+01
1	 0.000000e+00	 1.764706e+00	 5.442883e+01
1	 1.764706e+00	 0.000000e+00	-4.012591e+00
1	 1.764460e+00	 2.946030e-02	 1.607625e+00
1	 1.763716e+00	 5.911257e-02	 5.618655e+00
1	 1.762463e+00	 8.894600e-02	 7.605354e+00
1	 1.760692e+00	 1.189493e-01	 7.171087e+00
1	 1.758395e+00	 1.491107e-01	 3.940368e+00
1	 1.776471e+00	 0.000000e+00	-3.229498e+00
1	 1.776223e+00	 2.965671e-02	 2.056620e+00
1	 1.775474e+00	 5.950666e-02	 5.819233e+00
1	 1.774213e+00	 8.953897e-02	 7.673800e+00
1	 1.772430e+00	 1.197423e-01	 7.255855e+00
1	 1.770118e+00	 1.501048e-01	 4.223572e+00
1	 1.788235e+00	 0.000000e+00	-2.404935e+00
1	 1.787986e+00	 2.985311e-02	 2.497236e+00
1	 1.787232e+00	 5.990074e-02	 5.996348e+00
1	 1.785962e+00	 9.013195e-02	 7.725088e+00
1	 1.784168e+00	 1.205353e-01	 7.337103e+00
1	 1.781840e+00	 1.510988e-01	 4.509539e+00
1	 1.800000e+00	 0.000000e+00	-1.543871e+00
1	 1.799749e+00	 3.004951e-02	 2.932813e+00
1	 1.798990e+00	 6.029483e-02	 6.159605e+00
1	 1.797712e+00	 9.072492e-02	 7.773302e+00
1	 1.795906e+00	 1.213283e-01	 7.431884e+00
1	 1.793563e+00	 1.520929e-01	 4.817062e+00
1	 1.811765e+00	 0.000000e+00	-6.511486e-01
1	 1.811512e+00	 3.024591e-02	 3.366605e+00
1	 1.810748e+00	 6.068891e-02	 6.318358e+00
1	 1.809462e+00	 9.131789e-02	 7.832158e+00
1	 1.807644e+00	 1.221213e-01	 7.556806e+00
1	 1.805285e+00	 1.530870e-01	 5.164446e+00
1	 1.823529e+00	 0.000000e+00	 2.685139e-01
1	 1.823275e+00	 3.044231e-02	 3.801780e+00
1	 1.822506e+00	 6.108299e-02	 6.481720e+00
1	 1.821212e+00	 9.191087e-02	 7.915020e+00
1	 1.819382e+00	 1.229143e-01	 7.728050e+00
1	 1.817008e+00	 1.540811e-01	 5.569521e+00
1	 1.758395e+00	 1.491107e-01	 3.940368e+00
1	 1.755561e+00	 1.794180e-01	-5.334957e-01
1	 1.752183e+00	 2.098585e-01	-4.407650e+00
1	 1.748252e+00	 2.404192e-01	-7.614558e+00
1	 1.743760e+00	 2.710863e-01	-1.009896e+01
1	 1.738699e+00	 3.018459e-01	-1.181861e+01
1	 1.770118e+00	 1.501048e-01	 4.223572e+00
1	 1.767265e+00	 1.806141e-01	 3.941003e-02
1	 1.763865e+00	 2.112576e-01	-3.575176e+00
1	 1.759907e+00	 2.420220e-01	-6.562172e+00
1	 1.755385e+00	 2.728935e-01	-8.873625e+00
1	 1.750291e+00	 3.038582e-01	-1.047222e+01
1	 1.781840e+00	 1.510988e-01	 4.509539e+00
1	 1.778969e+00	 1.818103e-01	 6.072232e-01
1	 1.775546e+00	 2.126567e-01	-2.760266e+00
1	 1.771562e+00	 2.436247e-01	-5.535471e+00
1	 1.767010e+00	 2.747008e-01	-7.669299e+00
1	 1.761882e+00	 3.058705e-01	-9.121530e+00
1	 1.793563e+00	 1.520929e-01	 4.817062e+00
1	 1.790673e+00	 1.830064e-01	 1.188117e+00
1	 1.787227e+00	 2.140557e-01	-1.949192e+00
1	 1.783217e+00	 2.452275e-01	-4.529198e+00
1	 1.778635e+00	 2.765080e-01	-6.493430e+00
1	 1.773473e+00	 3.078828e-01	-7.791111e+00
1	 1.805285e+00	 1.530870e-01	 5.164446e+00
1	 1.802376e+00	 1.842025e-01	 1.799792e+00
1	 1.798908e+00	 2.154548e-01	-1.128579e+00
1	 1.794872e+00	 2.468303e-01	-3.538233e+00
1	 1.790260e+00	 2.783153e-01	-5.353273e+00
1	 1.785065e+00	 3.098951e-01	-6.504897e+00
1	 1.817008e+00	 1.540811e-01	 5.569521e+00
1	 1.814080e+00	 1.853986e-01	 2.459492e+00
1	 1.810589e+00	 2.168538e-01	-2.854012e-01
1	 1.806527e+00	 2.484331e-01	-2.557590e+00
1	 1.801885e+00	 2.801225e-01	-4.255895e+00
1	 1.796656e+00	 3.119074e-01	-5.286209e+00
1	 1.738699e+00	 3.018459e-01	-1.181861e+01
1	 1.733063e+00	 3.326836e-01	-1.314805e+01
1	 1.726845e+00	 3.635846e-01	-1.443420e+01
1	 1.720038e+00	 3.945335e-01	-1.560380e+01
1	 1.712637e+00	 4.255148e-01	-1.658441e+01
1	 1.704636e+00	 4.565125e-01	-1.730479e+01
1	 1.750291e+00	 3.038582e-01	-1.047222e+01
1	 1.744617e+00	 3.349015e-01	-1.171260e+01
1	 1.738357e+00	 3.660085e-01	-1.291901e+01
1	 1.731505e+00	 3.971637e-01	-1.402073e+01
1	 1.724054e+00	 4.283516e-01	-1.495268e+01
1	 1.716000e+00	 4.595560e-01	-1.565600e+01
1	 1.761882e+00	 3.058705e-01	-9.121530e+00
1	 1.756171e+00	 3.371194e-01	-1.023769e+01
1	 1.749869e+00	 3.684324e-01	-1.133842e+01
1	 1.742972e+00	 3.997939e-01	-1.235942e+01
1	 1.735472e+00	 4.311883e-01	-1.324530e+01
1	 1.727364e+00	 4.625994e-01	-1.395023e+01
1	 1.773473e+00	 3.078828e-01	-7.791111e+00
1	 1.767725e+00	 3.393373e-01	-8.763151e+00
1	 1.761382e+00	 3.708563e-01	-9.739158e+00
1	 1.754439e+00	 4.024242e-01	-1.066501e+01
1	 1.746889e+00	 4.340251e-01	-1.149724e+01
1	 1.738728e+00	 4.656428e-01	-1.220370e+01
1	 1.785065e+00	 3.098951e-01	-6.504897e+00
1	 1.779278e+00	 3.415552e-01	-7.327791e+00
1	 1.772894e+00	 3.732802e-01	-8.166738e+00
1	 1.765906e+00	 4.050544e-01	-8.981481e+00
1	 1.758307e+00	 4.368619e-01	-9.742613e+00
1	 1.750093e+00	 4.686862e-01	-1.043219e+01
1	 1.796656e+00	 3.119074e-01	-5.286209e+00
1	 1.790832e+00	 3.437731e-01	-5.969407e+00
1	 1.784406e+00	 3.757040e-01	-6.665501e+00
1	 1.777372e+00	 4.076846e-01	-7.351663e+00
1	 1.769724e+00	 4.396986e-01	-8.014605e+00
1	 1.761457e+00	 4.717296e-01	-8.651054e+00
1	 1.704636e+00	 4.565125e-01	-1.730479e+01
1	 1.696031e+00	 4.875104e-01	-1.789367e+01
1	 1.686817e+00	 5.184917e-01	-1.852475e+01
1	 1.676992e+00	 5.494395e-01	-1.919190e+01
1	 1.666552e+00	 5.803366e-01	-1.988413e+01
1	 1.655495e+00	 6.111655e-01	-2.058545e+01
1	 1.716000e+00	 4.595560e-01	-1.565600e+01
1	 1.707338e+00	 4.907604e-01	-1.624412e+01
1	 1.698063e+00	 5.219483e-01	-1.686312e+01
1	 1.688172e+00	 5.531024e-01	-1.750255e+01
1	 1.677663e+00	 5.842055e-01	-1.814445e+01
1	 1.666532e+00	 6.152400e-01	-1.876315e+01
1	 1.727364e+00	 4.625994e-01	-1.395023e+01
1	 1.718645e+00	 4.940105e-01	-1.455736e+01
1	 1.709308e+00	 5.254049e-01	-1.517161e+01
1	 1.699352e+00	 5.567653e-01	-1.578108e+01
1	 1.688773e+00	 5.880744e-01	-1.636522e+01
1	 1.677568e+00	 6.193144e-01	-1.689465e+01
1	 1.738728e+00	 4.656428e-01	-1.220370e+01
1	 1.729951e+00	 4.972606e-01	-1.283012e+01
1	 1.720554e+00	 5.288615e-01	-1.343474e+01
1	 1.710532e+00	 5.604282e-01	-1.400704e+01
1	 1.699883e+00	 5.919433e-01	-1.452821e+01
1	 1.688605e+00	 6.233888e-01	-1.497103e+01
1	 1.750093e+00	 4.686862e-01	-1.043219e+01
1	 1.741258e+00	 5.005107e-01	-1.105918e+01
1	 1.731799e+00	 5.323181e-01	-1.163743e+01
1	 1.721712e+00	 5.640912e-01	-1.216052e+01
1	 1.710994e+00	 5.958122e-01	-1.261568e+01
1	 1.699641e+00	 6.274633e-01	-1.298362e+01
1	 1.761457e+00	 4.717296e-01	-8.651054e+00
1	 1.752565e+00	 5.037607e-01	-9.241455e+00
1	 1.743045e+00	 5.357747e-01	-9.764998e+00
1	 1.732892e+00	 5.677541e-01	-1.022213e+01
1	 1.722104e+00	 5.996811e-01	-1.061032e+01
1	 1.710678e+00	 6.315377e-01	-1.092397e+01
1	 1.655495e+00	 6.111655e-01	-2.058545e+01
1	 1.643819e+00	 6.419086e-01	-2.134753e+01
1	 1.631523e+00	 6.725480e-01	-2.221322e+01
1	 1.618606e+00	 7.030656e-01	-2.314772e+01
1	 1.605069e+00	 7.334433e-01	-2.411391e+01
1	 1.590914e+00	 7.636626e-01	-2.507251e+01
1	 1.666532e+00	 6.152400e-01	-1.876315e+01
1	 1.654778e+00	 6.461880e-01	-1.941204e+01
1	 1.642399e+00	 6.770317e-01	-2.014619e+01
1	 1.629397e+00	 7.077527e-01	-2.093502e+01
1	 1.615770e+00	 7.383329e-01	-2.174597e+01
1	 1.601520e+00	 7.687537e-01	-2.254462e+01
1	 1.677568e+00	 6.193144e-01	-1.689465e+01
1	 1.665736e+00	 6.504674e-01	-1.743409e+01
1	 1.653276e+00	 6.815153e-01	-1.805280e+01
1	 1.640187e+00	 7.124398e-01	-1.871959e+01
1	 1.626470e+00	 7.432225e-01	-1.940081e+01
1	 1.612126e+00	 7.738448e-01	-2.006044e+01
1	 1.688605e+00	 6.233888e-01	-1.497103e+01
1	 1.676695e+00	 6.547468e-01	-1.541582e+01
1	 1.664153e+00	 6.859990e-01	-1.594282e+01
1	 1.650978e+00	 7.171269e-01	-1.651545e+01
1	 1.637171e+00	 7.481121e-01	-1.709339e+01
1	 1.622732e+00	 7.789359e-01	-1.763275e+01
1	 1.699641e+00	 6.274633e-01	-1.298362e+01
1	 1.687654e+00	 6.590262e-01	-1.335934e+01
1	 1.675030e+00	 6.904826e-01	-1.382574e+01
1	 1.661769e+00	 7.218140e-01	-1.433620e+01
1	 1.647871e+00	 7.530017e-01	-1.483830e+01
1	 1.633338e+00	 7.840270e-01	-1.527400e+01
1	 1.710678e+00	 6.315377e-01	-1.092397e+01
1	 1.698613e+00	 6.633056e-01	-1.126669e+01
1	 1.685907e+00	 6.949663e-01	-1.171084e+01
1	 1.672560e+00	 7.265011e-01	-1.219513e+01
1	 1.658572e+00	 7.578914e-01	-1.264972e+01
1	 1.643944e+00	 7.891180e-01	-1.299630e+01
1	 1.590914e+00	 7.636626e-01	-2.507251e+01
1	 1.576140e+00	 7.937054e-01	-2.592853e+01
1	 1.560752e+00	 8.235531e-01	-2.664644e+01
1	 1.544752e+00	 8.531873e-01	-2.727913e+01
1	 1.528143e+00	 8.825896e-01	-2.788554e+01
1	 1.510931e+00	 9.117418e-01	-2.853040e+01
1	 1.601520e+00	 7.687537e-01	-2.254462e+01
1	 1.586648e+00	 7.989967e-01	-2.325496e+01
1	 1.571157e+00	 8.290434e-01	-2.385262e+01
1	 1.555050e+00	 8.588752e-01	-2.438389e+01
1	 1.538331e+00	 8.884736e-01	-2.490111e+01
1	 1.521004e+00	 9.178200e-01	-2.546245e+01
1	 1.612126e+00	 7.738448e-01	-2.006044e+01
1	 1.597156e+00	 8.042881e-01	-2.063664e+01
1	 1.581562e+00	 8.345338e-01	-2.111827e+01
1	 1.565349e+00	 8.645631e-01	-2.154854e+01
1	 1.548519e+00	 8.943575e-01	-2.197695e+01
1	 1.531077e+00	 9.238983e-01	-2.245910e+01
1	 1.622732e+00	 7.789359e-01	-1.763275e+01
1	 1.607663e+00	 8.095795e-01	-1.808312e+01
1	 1.591967e+00	 8.400241e-01	-1.845070e+01
1	 1.575647e+00	 8.702510e-01	-1.877907e+01
1	 1.558706e+00	 9.002414e-01	-1.911855e+01
1	 1.541150e+00	 9.299766e-01	-1.952609e+01
1	 1.633338e+00	 7.840270e-01	-1.527400e+01
1	 1.618171e+00	 8.148708e-01	-1.560372e+01
1	 1.602372e+00	 8.455145e-01	-1.585707e+01
1	 1.585945e+00	 8.759389e-01	-1.608133e+01
1	 1.568894e+00	 9.061253e-01	-1.633127e+01
1	 1.551223e+00	 9.360549e-01	-1.666899e+01
1	 1.643944e+00	 7.891180e-01	-1.299630e+01
1	 1.628678e+00	 8.201622e-01	-1.320754e+01
1	 1.612777e+00	 8.510048e-01	-1.334434e+01
1	 1.596244e+00	 8.816268e-01	-1.346101e+01
1	 1.579082e+00	 9.120093e-01	-1.362030e+01
1	 1.561296e+00	 9.421332e-01	-1.389324e+01
1	 1.510931e+00	 9.117418e-01	-2.853040e+01
1	 1.493121e+00	 9.406255e-01	-2.943112e+01
1	 1.474718e+00	 9.692226e-01	-3.068055e+01
1	 1.455730e+00	 9.975153e-01	-3.215724e+01
1	 1.436164e+00	 1.025486e+00	-3.373536e+01
1	 1.416027e+00	 1.053116e+00	-3.528538e+01
1	 1.521004e+00	 9.178200e-01	-2.546245e+01
1	 1.503075e+00	 9.468963e-01	-2.626227e+01
1	 1.484550e+00	 9.756841e-01	-2.738205e+01
1	 1.465435e+00	 1.004165e+00	-2.871123e+01
1	 1.445738e+00	 1.032322e+00	-3.013471e+01
1	 1.425467e+00	 1.060137e+00	-3.153346e+01
1	 1.531077e+00	 9.238983e-01	-2.245910e+01
1	 1.513029e+00	 9.531671e-01	-2.316800e+01
1	 1.494381e+00	 9.821456e-01	-2.417038e+01
1	 1.475140e+00	 1.010815e+00	-2.536294e+01
1	 1.455312e+00	 1.039159e+00	-2.663741e+01
1	 1.434907e+00	 1.067158e+00	-2.788113e+01
1	 1.541150e+00	 9.299766e-01	-1.952609e+01
1	 1.522984e+00	 9.594380e-01	-2.015411e+01
1	 1.504213e+00	 9.886071e-01	-2.105042e+01
1	 1.484845e+00	 1.017466e+00	-2.211540e+01
1	 1.464887e+00	 1.045995e+00	-2.324379e+01
1	 1.444348e+00	 1.074179e+00	-2.432525e+01
1	 1.551223e+00	 9.360549e-01	-1.666899e+01
1	 1.532938e+00	 9.657088e-01	-1.722625e+01
1	 1.514044e+00	 9.950686e-01	-1.802692e+01
1	 1.494550e+00	 1.024116e+00	-1.897156e+01
1	 1.474461e+00	 1.052832e+00	-1.995417e+01
1	 1.453788e+00	 1.081200e+00	-2.086274e+01
1	 1.561296e+00	 9.421332e-01	-1.389324e+01
1	 1.542892e+00	 9.719797e-01	-1.438990e+01
1	 1.523876e+00	 1.001530e+00	-1.510451e+01
1	 1.504254e+00	 1.030766e+00	-1.593429e+01
1	 1.484036e+00	 1.059669e+00	-1.676886e+01
1	 1.463228e+00	 1.088220e+00	-1.749063e+01
1	 1.416027e+00	 1.053116e+00	-3.528538e+01
1	 1.395329e+00	 1.080390e+00	-3.606727e+01
1	 1.374080e+00	 1.107290e+00	-3.550517e+01
1	 1.352289e+00	 1.133799e+00	-3.371817e+01
1	 1.329968e+00	 1.159902e+00	-3.083125e+01
1	 1.307127e+00	 1.185583e+00	-2.697473e+01
1	 1.425467e+00	 1.060137e+00	-3.153346e+01
1	 1.404632e+00	 1.087593e+00	-3.219015e+01
1	 1.383240e+00	 1.114672e+00	-3.154317e+01
1	 1.361304e+00	 1.141358e+00	-2.970984e+01
1	 1.338834e+00	 1.167635e+00	-2.681422e+01
1	 1.315841e+00	 1.193486e+00	-2.298652e+01
1	 1.434907e+00	 1.067158e+00	-2.788113e+01
1	 1.413934e+00	 1.094795e+00	-2.840021e+01
1	 1.392401e+00	 1.122054e+00	-2.765424e+01
1	 1.370320e+00	 1.148917e+00	-2.576420e+01
1	 1.347700e+00	 1.175368e+00	-2.285915e+01
1	 1.324555e+00	 1.201390e+00	-1.907566e+01
1	 1.444348e+00	 1.074179e+00	-2.432525e+01
1	 1.423236e+00	 1.101998e+00	-2.469158e+01
1	 1.401561e+00	 1.129436e+00	-2.383194e+01
1	 1.379335e+00	 1.156475e+00	-2.187629e+01
1	 1.356567e+00	 1.183100e+00	-1.896453e+01
1	 1.333269e+00	 1.209294e+00	-1.524589e+01
1	 1.453788e+00	 1.081200e+00	-2.086274e+01
1	 1.432538e+00	 1.109201e+00	-2.105855e+01
1	 1.410722e+00	 1.136818e+00	-2.007002e+01
1	 1.388350e+00	 1.164034e+00	-1.804131e+01
1	 1.365433e+00	 1.190833e+00	-1.512891e+01
1	 1.341984e+00	 1.217198e+00	-1.150088e+01
1	 1.463228e+00	 1.088220e+00	-1.749063e+01
1	 1.441840e+00	 1.116403e+00	-1.749554e+01
1	 1.419883e+00	 1.144200e+00	-1.636235e+01
1	 1.397365e+00	 1.171593e+00	-1.425457e+01
1	 1.374300e+00	 1.198566e+00	-1.135085e+01
1	 1.350698e+00	 1.225102e+00	-7.844190e+00
1	 1.307127e+00	 1.185583e+00	-2.697473e+01
1	 1.283779e+00	 1.210825e+00	-2.291842e+01
1	 1.259938e+00	 1.235615e+00	-1.938809e+01
1	 1.235615e+00	 1.259938e+00	-1.645128e+01
1	 1.210825e+00	 1.283779e+00	-1.417485e+01
1	 1.185583e+00	 1.307127e+00	-1.262466e+01
1	 1.315841e+00	 1.193486e+00	-2.298652e+01
1	 1.292338e+00	 1.218897e+00	-1.898863e+01
1	 1.268337e+00	 1.243852e+00	-1.552979e+01
1	 1.243852e+00	 1.268337e+00	-1.266424e+01
1	 1.218897e+00	 1.292338e+00	-1.044422e+01
1	 1.193486e+00	 1.315841e+00	-8.919659e+00
1	 1.324555e+00	 1.201390e+00	-1.907566e+01
1	 1.300896e+00	 1.226969e+00	-1.516584e+01
1	 1.276737e+00	 1.252090e+00	-1.181118e+01
1	 1.252090e+00	 1.276737e+00	-9.044628e+00
1	 1.226969e+00	 1.300896e+00	-6.895162e+00
1	 1.201390e+00	 1.324555e+00	-5.387598e+00
1	 1.333269e+00	 1.209294e+00	-1.524589e+01
1	 1.309455e+00	 1.235042e+00	-1.145844e+01
1	 1.285136e+00	 1.260327e+00	-8.242299e+00
1	 1.260327e+00	 1.285136e+00	-5.601378e+00
1	 1.235042e+00	 1.309455e+00	-3.532917e+00
1	 1.209294e+00	 1.333269e+00	-2.027543e+00
1	 1.341984e+00	 1.217198e+00	-1.150088e+01
1	 1.318014e+00	 1.243114e+00	-7.874560e+00
1	 1.293536e+00	 1.268565e+00	-4.832942e+00
1	 1.268565e+00	 1.293536e+00	-2.343203e+00
1	 1.243114e+00	 1.318014e+00	-3.625701e-01
1	 1.217198e+00	 1.341984e+00	 1.161414e+00
1	 1.350698e+00	 1.225102e+00	-7.844190e+00
1	 1.326572e+00	 1.251186e+00	-4.422159e+00
1	 1.301936e+00	 1.276802e+00	-1.592641e+00
1	 1.276802e+00	 1.301936e+00	 7.214101e-01
1	 1.251186e+00	 1.326572e+00	 2.610920e+00
1	 1.225102e+00	 1.350698e+00	 4.180160e+00
1	 1.185583e+00	 1.307127e+00	-1.262466e+01
1	 1.159902e+00	 1.329968e+00	-1.169743e+01
1	 1.133799e+00	 1.352289e+00	-1.122140e+01
1	 1.107290e+00	 1.374080e+00	-1.116237e+01
1	 1.080390e+00	 1.395329e+00	-1.149123e+01
1	 1.053116e+00	 1.416027e+00	-1.218412e+01
1	 1.193486e+00	 1.315841e+00	-8.919659e+00
1	 1.167635e+00	 1.338834e+00	-7.988967e+00
1	 1.141358e+00	 1.361304e+00	-7.499977e+00
1	 1.114672e+00	 1.383240e+00	-7.428892e+00
1	 1.087593e+00	 1.404632e+00	-7.757292e+00
1	 1.060137e+00	 1.425467e+00	-8.472233e+00
1	 1.201390e+00	 1.324555e+00	-5.387598e+00
1	 1.175368e+00	 1.347700e+00	-4.420508e+00
1	 1.148917e+00	 1.370320e+00	-3.873550e+00
1	 1.122054e+00	 1.392401e+00	-3.744787e+00
1	 1.094795e+00	 1.413934e+00	-4.038667e+00
1	 1.067158e+00	 1.434907e+00	-4.765982e+00
1	 1.209294e+00	 1.333269e+00	-2.027543e+00
1	 1.183100e+00	 1.356567e+00	-9.856235e-01
1	 1.156475e+00	 1.379335e+00	-3.336817e-01
1	 1.129436e+00	 1.401561e+00	-1.028656e-01
1	 1.101998e+00	 1.423236e+00	-3.324288e-01
1	 1.074179e+00	 1.444348e+00	-1.069477e+00
1	 1.217198e+00	 1.341984e+00	 1.161414e+00
1	 1.190833e+00	 1.365433e+00	 2.321951e+00
1	 1.164034e+00	 1.388350e+00	 3.127851e+00
1	 1.136818e+00	 1.410722e+00	 3.503880e+00
1	 1.109201e+00	 1.432538e+00	 3.364275e+00
1	 1.081200e+00	 1.453788e+00	 2.613281e+00
1	 1.225102e+00	 1.350698e+00	 4.180160e+00
1	 1.198566e+00	 1.374300e+00	 5.508318e+00
1	 1.171593e+00	 1.397365e+00	 6.519060e+00
1	 1.144200e+00	 1.419883e+00	 7.082278e+00
1	 1.116403e+00	 1.441840e+00	 7.054222e+00
1	 1.088220e+00	 1.463228e+00	 6.278395e+00
1	 1.053116e+00	 1.416027e+00	-1.218412e+01
1	 1.025486e+00	 1.436164e+00	-1.308691e+01
1	 9.975153e-01	 1.455730e+00	-1.400486e+01
1	 9.692226e-01	 1.474718e+00	-1.484599e+01
1	 9.406255e-01	 1.493121e+00	-1.550400e+01
1	 9.117418e-01	 1.510931e+00	-1.585897e+01
1	 1.060137e+00	 1.425467e+00	-8.472233e+00
1	 1.032322e+00	 1.445738e+00	-9.383820e+00
1	 1.004165e+00	 1.465435e+00	-1.026017e+01
1	 9.756841e-01	 1.484550e+00	-1.101944e+01
1	 9.468963e-01	 1.503075e+00	-1.156689e+01
1	 9.178200e-01	 1.521004e+00	-1.179554e+01
1	 1.067158e+00	 1.434907e+00	-4.765982e+00
1	 1.039159e+00	 1.455312e+00	-5.711240e+00
1	 1.010815e+00	 1.475140e+00	-6.597056e+00
1	 9.821456e-01	 1.494381e+00	-7.336512e+00
1	 9.531671e-01	 1.513029e+00	-7.830431e+00
1	 9.238983e-01	 1.531077e+00	-7.968071e+00
1	 1.074179e+00	 1.444348e+00	-1.069477e+00
1	 1.045995e+00	 1.464887e+00	-2.079367e+00
1	 1.017466e+00	 1.484845e+00	-3.027488e+00
1	 9.886071e-01	 1.504213e+00	-3.806946e+00
1	 9.594380e-01	 1.522984e+00	-4.298446e+00
1	 9.299766e-01	 1.541150e+00	-4.371108e+00
1	 1.081200e+00	 1.453788e+00	 2.613281e+00
1	 1.052832e+00	 1.474461e+00	 1.501875e+00
1	 1.024116e+00	 1.494550e+00	 4.368823e-01
1	 9.950686e-01	 1.514044e+00	-4.402263e-01
1	 9.657088e-01	 1.532938e+00	-9.746601e-01
1	 9.360549e-01	 1.551223e+00	-9.993438e-01
1	 1.088220e+00	 1.463228e+00	 6.278395e+00
1	 1.059669e+00	 1.484036e+00	 5.022814e+00
1	 1.030766e+00	 1.504254e+00	 3.784702e+00
1	 1.001530e+00	 1.523876e+00	 2.754409e+00
1	 9.719797e-01	 1.542892e+00	 2.137299e+00
1	 9.421332e-01	 1.561296e+00	 2.152392e+00
1	 9.117418e-01	 1.510931e+00	-1.585897e+01
1	 8.825896e-01	 1.528143e+00	-1.595845e+01
1	 8.531873e-01	 1.544752e+00	-1.597030e+01
1	 8.235531e-01	 1.560752e+00	-1.595066e+01
1	 7.937054e-01	 1.576140e+00	-1.596240e+01
1	 7.636626e-01	 1.590914e+00	-1.607472e+01
1	 9.178200e-01	 1.521004e+00	-1.179554e+01
1	 8.884736e-01	 1.538331e+00	-1.180818e+01
1	 8.588752e-01	 1.555050e+00	-1.181251e+01
1	 8.290434e-01	 1.571157e+00	-1.185435e+01
1	 7.989967e-01	 1.586648e+00	-1.198477e+01
1	 7.687537e-01	 1.601520e+00	-1.225975e+01
1	 9.238983e-01	 1.531077e+00	-7.968071e+00
1	 8.943575e-01	 1.548519e+00	-7.890703e+00
1	 8.645631e-01	 1.565349e+00	-7.850744e+00
1	 8.345338e-01	 1.581562e+00	-7.899598e+00
1	 8.042881e-01	 1.597156e+00	-8.093259e+00
1	 7.738448e-01	 1.612126e+00	-8.491953e+00
1	 9.299766e-01	 1.541150e+00	-4.371108e+00
1	 9.002414e-01	 1.558706e+00	-4.192263e+00
1	 8.702510e-01	 1.575647e+00	-4.067767e+00
1	 8.400241e-01	 1.591967e+00	-4.070199e+00
1	 8.095795e-01	 1.607663e+00	-4.276878e+00
1	 7.789359e-01	 1.622732e+00	-4.769389e+00
1	 9.360549e-01	 1.551223e+00	-9.993438e-01
1	 9.061253e-01	 1.568894e+00	-6.994504e-01
1	 8.759389e-01	 1.585945e+00	-4.467911e-01
1	 8.455145e-01	 1.602372e+00	-3.503799e-01
1	 8.148708e-01	 1.618171e+00	-5.249373e-01
1	 7.840270e-01	 1.633338e+00	-1.090184e+00
1	 9.421332e-01	 1.561296e+00	 2.152392e+00
1	 9.120093e-01	 1.579082e+00	 2.600794e+00
1	 8.816268e-01	 1.596244e+00	 3.028541e+00
1	 8.510048e-01	 1.612777e+00	 3.275227e+00
1	 8.201622e-01	 1.628678e+00	 3.172979e+00
1	 7.891180e-01	 1.643944e+00	 2.547492e+00
1	 7.636626e-01	 1.590914e+00	-1.607472e+01
1	 7.334433e-01	 1.605069e+00	-1.637697e+01
1	 7.030656e-01	 1.618606e+00	-1.679387e+01
1	 6.725480e-01	 1.631523e+00	-1.715122e+01
1	 6.419086e-01	 1.643819e+00	-1.727426e+01
1	 6.111655e-01	 1.655495e+00	-1.698845e+01
1	 7.687537e-01	 1.601520e+00	-1.225975e+01
1	 7.383329e-01	 1.615770e+00	-1.273558e+01
1	 7.077527e-01	 1.629397e+00	-1.331460e+01
1	 6.770317e-01	 1.642399e+00	-1.382511e+01
1	 6.461880e-01	 1.654778e+00	-1.409570e+01
1	 6.152400e-01	 1.666532e+00	-1.395607e+01
1	 7.738448e-01	 1.612126e+00	-8.491953e+00
1	 7.432225e-01	 1.626470e+00	-9.134890e+00
1	 7.124398e-01	 1.640187e+00	-9.896854e+00
1	 6.815153e-01	 1.653276e+00	-1.059416e+01
1	 6.504674e-01	 1.665736e+00	-1.104352e+01
1	 6.193144e-01	 1.677568e+00	-1.106289e+01
1	 7.789359e-01	 1.622732e+00	-4.769389e+00
1	 7.481121e-01	 1.637171e+00	-5.581259e+00
1	 7.171269e-01	 1.650978e+00	-6.550362e+00
1	 6.859990e-01	 1.664153e+00	-7.466864e+00
1	 6.547468e-01	 1.676695e+00	-8.120636e+00
1	 6.233888e-01	 1.688605e+00	-8.302283e+00
1	 7.840270e-01	 1.633338e+00	-1.090184e+00
1	 7.530017e-01	 1.647871e+00	-2.080882e+00
1	 7.218140e-01	 1.661769e+00	-3.284599e+00
1	 6.904826e-01	 1.675030e+00	-4.451472e+00
1	 6.590262e-01	 1.687654e+00	-5.329890e+00
1	 6.274633e-01	 1.699641e+00	-5.667786e+00
1	 7.891180e-01	 1.643944e+00	 2.547492e+00
1	 7.578914e-01	 1.658572e+00	 1.360203e+00
1	 7.265011e-01	 1.672560e+00	-1.087941e-01
1	 6.949663e-01	 1.685907e+00	-1.556026e+00
1	 6.633056e-01	 1.698613e+00	-2.674050e+00
1	 6.315377e-01	 1.710678e+00	-3.153116e+00
1	 6.111655e-01	 1.655495e+00	-1.698845e+01
1	 5.803366e-01	 1.666552e+00	-1.617793e+01
1	 5.494395e-01	 1.676992e+00	-1.495238e+01
1	 5.184917e-01	 1.686817e+00	-1.347500e+01
1	 4.875104e-01	 1.696031e+00	-1.190689e+01
1	 4.565125e-01	 1.704636e+00	-1.040630e+01
1	 6.152400e-01	 1.666532e+00	-1.395607e+01
1	 5.842055e-01	 1.677663e+00	-1.329846e+01
1	 5.531024e-01	 1.688172e+00	-1.223664e+01
1	 5.219483e-01	 1.698063e+00	-1.093193e+01
1	 4.907604e-01	 1.707338e+00	-9.542604e+00
1	 4.595560e-01	 1.716000e+00	-8.223161e+00
1	 6.193144e-01	 1.677568e+00	-1.106289e+01
1	 5.880744e-01	 1.688773e+00	-1.053912e+01
1	 5.567653e-01	 1.699352e+00	-9.597476e+00
1	 5.254049e-01	 1.709308e+00	-8.412945e+00
1	 4.940105e-01	 1.718645e+00	-7.157168e+00
1	 4.625994e-01	 1.727364e+00	-5.997716e+00
1	 6.233888e-01	 1.688605e+00	-8.302283e+00
1	 5.919433e-01	 1.699883e+00	-7.884452e+00
1	 5.604282e-01	 1.710532e+00	-7.015605e+00
1	 5.288615e-01	 1.720554e+00	-5.899576e+00
1	 4.972606e-01	 1.729951e+00	-4.737275e+00
1	 4.656428e-01	 1.738728e+00	-3.725785e+00
1	 6.274633e-01	 1.699641e+00	-5.667786e+00
1	 5.958122e-01	 1.710994e+00	-5.319409e+00
1	 5.640912e-01	 1.721712e+00	-4.472242e+00
1	 5.323181e-01	 1.731799e+00	-3.373849e+00
1	 5.005107e-01	 1.741258e+00	-2.269961e+00
1	 4.686862e-01	 1.750093e+00	-1.403300e+00
1	 6.315377e-01	 1.710678e+00	-3.153116e+00
1	 5.996811e-01	 1.722104e+00	-2.829331e+00
1	 5.677541e-01	 1.732892e+00	-1.949088e+00
1	 5.357747e-01	 1.743045e+00	-8.182450e-01
1	 5.037607e-01	 1.752565e+00	 2.574047e-01
1	 4.717296e-01	 1.761457e+00	 9.737048e-01
1	 4.565125e-01	 1.704636e+00	-1.040630e+01
1	 4.255148e-01	 1.712637e+00	-9.196379e+00
1	 3.945335e-01	 1.720038e+00	-8.236239e+00
1	 3.635846e-01	 1.726845e+00	-7.285573e+00
1	 3.326836e-01	 1.733063e+00	-6.104998e+00
1	 3.018459e-01	 1.738699e+00	-4.457115e+00
1	 4.595560e-01	 1.716000e+00	-8.223161e+00
1	 4.283516e-01	 1.724054e+00	-7.187602e+00
1	 3.971637e-01	 1.731505e+00	-6.398716e+00
1	 3.660085e-01	 1.738357e+00	-5.631525e+00
1	 3.349015e-01	 1.744617e+00	-4.662532e+00
1	 3.038582e-01	 1.750291e+00	-3.270682e+00
1	 4.625994e-01	 1.727364e+00	-5.997716e+00
1	 4.311883e-01	 1.735472e+00	-5.153288e+00
1	 3.997939e-01	 1.742972e+00	-4.579476e+00
1	 3.684324e-01	 1.749869e+00	-4.046415e+00
1	 3.371194e-01	 1.756171e+00	-3.325981e+00
1	 3.058705e-01	 1.761882e+00	-2.192777e+00
1	 4.656428e-01	 1.738728e+00	-3.725785e+00
1	 4.340251e-01	 1.746889e+00	-3.098120e+00
1	 4.024242e-01	 1.754439e+00	-2.788061e+00
1	 3.708563e-01	 1.761382e+00	-2.541053e+00
1	 3.393373e-01	 1.767725e+00	-2.104255e+00
1	 3.078828e-01	 1.773473e+00	-1.227668e+00
1	 4.686862e-01	 1.750093e+00	-1.403300e+00
1	 4.368619e-01	 1.758307e+00	-1.026663e+00
1	 4.050544e-01	 1.765906e+00	-1.033764e+00
1	 3.732802e-01	 1.772894e+00	-1.125964e+00
1	 3.415552e-01	 1.779278e+00	-1.006032e+00
1	 3.098951e-01	 1.785065e+00	-3.795154e-01
1	 4.717296e-01	 1.761457e+00	 9.737048e-01
1	 4.396986e-01	 1.769724e+00	 1.056638e+00
1	 4.076846e-01	 1.777372e+00	 6.743635e-01
1	 3.757040e-01	 1.784406e+00	 1.885941e-01
1	 3.437731e-01	 1.790832e+00	-3.976811e-02
1	 3.119074e-01	 1.796656e+00	 3.476309e-01
1	 3.018459e-01	 1.738699e+00	-4.457115e+00
1	 2.710863e-01	 1.743760e+00	-2.003780e+00
1	 2.404192e-01	 1.748252e+00	 1.214273e+00
1	 2.098585e-01	 1.752183e+00	 4.866539e+00
1	 1.794180e-01	 1.755561e+00	 8.626890e+00
1	 1.491107e-01	 1.758395e+00	 1.217480e+01
1	 3.038582e-01	 1.750291e+00	-3.270682e+00
1	 2.728935e-01	 1.755385e+00	-1.135918e+00
1	 2.420220e-01	 1.759907e+00	 1.728830e+00
1	 2.112576e-01	 1.763865e+00	 5.045188e+00
1	 1.806141e-01	 1.767265e+00	 8.538863e+00
1	 1.501048e-01	 1.770118e+00	 1.194063e+01
1	 3.058705e-01	 1.761882e+00	-2.192777e+00
1	 2.747008e-01	 1.767010e+00	-3.285237e-01
1	 2.436247e-01	 1.771562e+00	 2.264155e+00
1	 2.126567e-01	 1.775546e+00	 5.329298e+00
1	 1.818103e-01	 1.778969e+00	 8.615152e+00
1	 1.510988e-01	 1.781840e+00	 1.187505e+01
1	 3.078828e-01	 1.773473e+00	-1.227668e+00
1	 2.765080e-01	 1.778635e+00	 4.187917e-01
1	 2.452275e-01	 1.783217e+00	 2.823270e+00
1	 2.140557e-01	 1.787227e+00	 5.723086e+00
1	 1.830064e-01	 1.790673e+00	 8.860323e+00
1	 1.520929e-01	 1.793563e+00	 1.198271e+01
1	 3.098951e-01	 1.785065e+00	-3.795154e-01
1	 2.783153e-01	 1.790260e+00	 1.106407e+00
1	 2.468303e-01	 1.794872e+00	 3.409115e+00
1	 2.154548e-01	 1.798908e+00	 6.230663e+00
1	 1.842025e-01	 1.802376e+00	 9.278826e+00
1	 1.530870e-01	 1.805285e+00	 1.226813e+01
1	 3.119074e-01	 1.796656e+00	 3.476309e-01
1	 2.801225e-01	 1.801885e+00	 1.734692e+00
1	 2.484331e-01	 1.806527e+00	 4.024559e+00
1	 2.168538e-01	 1.810589e+00	 6.856031e+00
1	 1.853986e-01	 1.814080e+00	 9.874993e+00
1	 1.540811e-01	 1.817008e+00	 1.273571e+01
1	 1.491107e-01	 1.758395e+00	 1.217480e+01
1	 1.189493e-01	 1.760692e+00	 1.591218e+01
1	 8.894600e-02	 1.762463e+00	 2.108694e+01
1	 5.911257e-02	 1.763716e+00	 2.863279e+01
1	 2.946030e-02	 1.764460e+00	 3.945518e+01
1	 0.000000e+00	 1.764706e+00	 5.442883e+01
1	 1.501048e-01	 1.770118e+00	 1.194063e+01
1	 1.197423e-01	 1.772430e+00	 1.568502e+01
1	 8.953897e-02	 1.774213e+00	 2.097595e+01
1	 5.950666e-02	 1.775474e+00	 2.868354e+01
1	 2.965671e-02	 1.776223e+00	 3.965062e+01
1	 0.000000e+00	 1.776471e+00	 5.469046e+01
1	 1.510988e-01	 1.781840e+00	 1.187505e+01
1	 1.205353e-01	 1.784168e+00	 1.555509e+01
1	 9.013195e-02	 1.785962e+00	 2.083725e+01
1	 5.990074e-02	 1.787232e+00	 2.856392e+01
1	 2.985311e-02	 1.787986e+00	 3.955009e+01
1	 0.000000e+00	 1.788235e+00	 5.458132e+01
1	 1.520929e-01	 1.793563e+00	 1.198271e+01
1	 1.213283e-01	 1.795906e+00	 1.552753e+01
1	 9.072492e-02	 1.797712e+00	 2.067680e+01
1	 6.029483e-02	 1.798990e+00	 2.828026e+01
1	 3.004951e-02	 1.799749e+00	 3.915927e+01
1	 0.000000e+00	 1.800000e+00	 5.410469e+01
1	 1.530870e-01	 1.805285e+00	 1.226813e+01
1	 1.221213e-01	 1.807644e+00	 1.560736e+01
1	 9.131789e-02	 1.809462e+00	 2.050040e+01
1	 6.068891e-02	 1.810748e+00	 2.783879e+01
1	 3.024591e-02	 1.811512e+00	 3.848371e+01
1	 0.000000e+00	 1.811765e+00	 5.326378e+01
1	 1.540811e-01	 1.817008e+00	 1.273571e+01
1	 1.229143e-01	 1.819382e+00	 1.579947e+01
1	 9.191087e-02	 1.821212e+00	 2.031370e+01
1	 6.108299e-02	 1.822506e+00	 2.724551e+01
1	 3.044231e-02	 1.823275e+00	 3.752880e+01
1	 0.000000e+00	 1.823529e+00	 5.206171e+01
1	 1.823529e+00	 0.000000e+00	 2.685139e-01
1	 1.823275e+00	 3.044231e-02	 3.801780e+00
1	 1.822506e+00	 6.108299e-02	 6.481720e+00
1	 1.821212e+00	 9.191087e-02	 7.915020e+00
1	 1.819382e+00	 1.229143e-01	 7.728050e+00
1	 1.817008e+00	 1.540811e-01	 5.569521e+00
1	 1.835294e+00	 0.000000e+00	 1.184137e+00
1	 1.835038e+00	 3.063872e-02	 4.248446e+00
1	 1.834264e+00	 6.147708e-02	 6.668145e+00
1	 1.832961e+00	 9.250384e-02	 8.028982e+00
1	 1.831120e+00	 1.237073e-01	 7.934996e+00
1	 1.828731e+00	 1.550751e-01	 6.011241e+00
1	 1.847059e+00	 0.000000e+00	 2.065415e+00
1	 1.846801e+00	 3.083512e-02	 4.715558e+00
1	 1.846022e+00	 6.187116e-02	 6.893241e+00
1	 1.844711e+00	 9.309681e-02	 8.176388e+00
1	 1.842858e+00	 1.245003e-01	 8.159822e+00
1	 1.840453e+00	 1.560692e-01	 6.457990e+00
1	 1.858824e+00	 0.000000e+00	 2.908805e+00
1	 1.858564e+00	 3.103152e-02	 5.204469e+00
1	 1.857780e+00	 6.226524e-02	 7.161589e+00
1	 1.856461e+00	 9.368979e-02	 8.363111e+00
1	 1.854596e+00	 1.252933e-01	 8.407495e+00
1	 1.852176e+00	 1.570633e-01	 6.911365e+00
1	 1.870588e+00	 0.000000e+00	 3.710849e+00
1	 1.870328e+00	 3.122792e-02	 5.716497e+00
1	 1.869538e+00	 6.265933e-02	 7.477651e+00
1	 1.868211e+00	 9.428276e-02	 8.594875e+00
1	 1.866334e+00	 1.260863e-01	 8.682854e+00
1	 1.863899e+00	 1.580573e-01	 7.372926e+00
1	 1.882353e+00	 0.000000e+00	 4.468180e+00
1	 1.882091e+00	 3.142432e-02	 6.252929e+00
1	 1.881297e+00	 6.305341e-02	 7.845781e+00
1	 1.879960e+00	 9.487573e-02	 8.877259e+00
1	 1.878072e+00	 1.268792e-01	 8.990622e+00
1	 1.875621e+00	 1.590514e-01	 7.844193e+00
1	 1.817008e+00	 1.540811e-01	 5.569521e+00
1	 1.814080e+00	 1.853986e-01	 2.459492e+00
1	 1.810589e+00	 2.168538e-01	-2.854012e-01
1	 1.806527e+00	 2.484331e-01	-2.557590e+00
1	 1.801885e+00	 2.801225e-01	-4.255895e+00
1	 1.796656e+00	 3.119074e-01	-5.286209e+00
1	 1.828731e+00	 1.550751e-01	 6.011241e+00
1	 1.825784e+00	 1.865947e-01	 3.152404e+00
1	 1.822271e+00	 2.182529e-01	 5.829063e-01
1	 1.818182e+00	 2.500359e-01	-1.564525e+00
1	 1.813510e+00	 2.819297e-01	-3.163624e+00
1	 1.808247e+00	 3.139198e-01	-4.095409e+00
1	 1.840453e+00	 1.560692e-01	 6.457990e+00
1	 1.837488e+00	 1.877909e-01	 3.850720e+00
1	 1.833952e+00	 2.196519e-01	 1.466692e+00
1	 1.829837e+00	 2.516387e-01	-5.442943e-01
1	 1.825136e+00	 2.837370e-01	-2.038908e+00
1	 1.819839e+00	 3.159321e-01	-2.881201e+00
1	 1.852176e+00	 1.570633e-01	 6.911365e+00
1	 1.849191e+00	 1.889870e-01	 4.551910e+00
1	 1.845633e+00	 2.210510e-01	 2.360517e+00
1	 1.841492e+00	 2.532415e-01	 4.961296e-01
1	 1.836761e+00	 2.855442e-01	-8.887143e-01
1	 1.831430e+00	 3.179444e-01	-1.648857e+00
1	 1.863899e+00	 1.580573e-01	 7.372926e+00
1	 1.860895e+00	 1.901831e-01	 5.253509e+00
1	 1.857314e+00	 2.224501e-01	 3.259077e+00
1	 1.853147e+00	 2.548443e-01	 1.549949e+00
1	 1.848386e+00	 2.873515e-01	 2.801616e-01
1	 1.843021e+00	 3.199567e-01	-4.035175e-01
1	 1.875621e+00	 1.590514e-01	 7.844193e+00
1	 1.872599e+00	 1.913792e-01	 5.953111e+00
1	 1.868995e+00	 2.238491e-01	 4.157201e+00
1	 1.864802e+00	 2.564471e-01	 2.610538e+00
1	 1.860011e+00	 2.891587e-01	 1.461096e+00
1	 1.854613e+00	 3.219690e-01	 8.498059e-01
1	 1.796656e+00	 3.119074e-01	-5.286209e+00
1	 1.790832e+00	 3.437731e-01	-5.969407e+00
1	 1.784406e+00	 3.757040e-01	-6.665501e+00
1	 1.777372e+00	 4.076846e-01	-7.351663e+00
1	 1.769724e+00	 4.396986e-01	-8.014605e+00
1	 1.761457e+00	 4.717296e-01	-8.651054e+00
1	 1.808247e+00	 3.139198e-01	-4.095409e+00
1	 1.802386e+00	 3.459910e-01	-4.659912e+00
1	 1.795919e+00	 3.781279e-01	-5.224564e+00
1	 1.788839e+00	 4.103148e-01	-5.782956e+00
1	 1.781142e+00	 4.425354e-01	-6.336313e+00
1	 1.772821e+00	 4.747731e-01	-6.893809e+00
1	 1.819839e+00	 3.159321e-01	-2.881201e+00
1	 1.813940e+00	 3.482089e-01	-3.348961e+00
1	 1.807431e+00	 3.805518e-01	-3.806683e+00
1	 1.800306e+00	 4.129451e-01	-4.258951e+00
1	 1.792560e+00	 4.453722e-01	-4.716359e+00
1	 1.784185e+00	 4.778165e-01	-5.195712e+00
1	 1.831430e+00	 3.179444e-01	-1.648857e+00
1	 1.825493e+00	 3.504268e-01	-2.040158e+00
1	 1.818943e+00	 3.829757e-01	-2.415727e+00
1	 1.811773e+00	 4.155753e-01	-2.785827e+00
1	 1.803977e+00	 4.482089e-01	-3.165390e+00
1	 1.795550e+00	 4.808599e-01	-3.574147e+00
1	 1.843021e+00	 3.199567e-01	-4.035175e-01
1	 1.837047e+00	 3.526446e-01	-7.370166e-01
1	 1.830456e+00	 3.853996e-01	-1.055468e+00
1	 1.823240e+00	 4.182055e-01	-1.369607e+00
1	 1.815395e+00	 4.510457e-01	-1.693786e+00
1	 1.806914e+00	 4.839033e-01	-2.046061e+00
1	 1.854613e+00	 3.219690e-01	 8.498059e-01
1	 1.848601e+00	 3.548625e-01	 5.570366e-01
1	 1.841968e+00	 3.878235e-01	 2.704183e-01
1	 1.834707e+00	 4.208357e-01	-1.616496e-02
1	 1.826812e+00	 4.538825e-01	-3.116695e-01
1	 1.818278e+00	 4.869467e-01	-6.279743e-01
1	 1.761457e+00	 4.717296e-01	-8.651054e+00
1	 1.752565e+00	 5.037607e-01	-9.241455e+00
1	 1.743045e+00	 5.357747e-01	-9.764998e+00
1	 1.732892e+00	 5.677541e-01	-1.022213e+01
1	 1.722104e+00	 5.996811e-01	-1.061032e+01
1	 1.710678e+00	 6.315377e-01	-1.092397e+01
1	 1.772821e+00	 4.747731e-01	-6.893809e+00
1	 1.763872e+00	 5.070108e-01	-7.419532e+00
1	 1.754290e+00	 5.392313e-01	-7.872416e+00
1	 1.744072e+00	 5.714170e-01	-8.260536e+00
1	 1.733214e+00	 6.035500e-01	-8.592617e+00
1	 1.721715e+00	 6.356121e-01	-8.878021e+00
1	 1.784185e+00	 4.778165e-01	-5.195712e+00
1	 1.775179e+00	 5.102609e-01	-5.653709e+00
1	 1.765536e+00	 5.426879e-01	-6.040715e+00
1	 1.755252e+00	 5.750800e-01	-6.371270e+00
1	 1.744325e+00	 6.074189e-01	-6.663228e+00
1	 1.732751e+00	 6.396866e-01	-6.937787e+00
1	 1.795550e+00	 4.808599e-01	-3.574147e+00
1	 1.786486e+00	 5.135109e-01	-3.967026e+00
1	 1.776781e+00	 5.461445e-01	-4.294100e+00
1	 1.766432e+00	 5.787429e-01	-4.575209e+00
1	 1.755435e+00	 6.112878e-01	-4.835224e+00
1	 1.743788e+00	 6.437610e-01	-5.104091e+00
1	 1.806914e+00	 4.839033e-01	-2.046061e+00
1	 1.797793e+00	 5.167610e-01	-2.381947e+00
1	 1.788027e+00	 5.496012e-01	-2.656165e+00
1	 1.777612e+00	 5.824058e-01	-2.892703e+00
1	 1.766545e+00	 6.151568e-01	-3.121348e+00
1	 1.754825e+00	 6.478354e-01	-3.377731e+00
1	 1.818278e+00	 4.869467e-01	-6.279743e-01
1	 1.809100e+00	 5.200111e-01	-9.203691e-01
1	 1.799272e+00	 5.530578e-01	-1.149916e+00
1	 1.788792e+00	 5.860688e-01	-1.343594e+00
1	 1.777656e+00	 6.190257e-01	-1.534022e+00
1	 1.765861e+00	 6.519099e-01	-1.759485e+00
1	 1.710678e+00	 6.315377e-01	-1.092397e+01
1	 1.698613e+00	 6.633056e-01	-1.126669e+01
1	 1.685907e+00	 6.949663e-01	-1.171084e+01
1	 1.672560e+00	 7.265011e-01	-1.219513e+01
1	 1.658572e+00	 7.578914e-01	-1.264972e+01
1	 1.643944e+00	 7.891180e-01	-1.299630e+01
1	 1.721715e+00	 6.356121e-01	-8.878021e+00
1	 1.709572e+00	 6.675850e-01	-9.215912e+00
1	 1.696784e+00	 6.994499e-01	-9.654838e+00
1	 1.683350e+00	 7.311882e-01	-1.012030e+01
1	 1.669272e+00	 7.627810e-01	-1.052669e+01
1	 1.654550e+00	 7.942091e-01	-1.077742e+01
1	 1.732751e+00	 6.396866e-01	-6.937787e+00
1	 1.720530e+00	 6.718644e-01	-7.276321e+00
1	 1.707660e+00	 7.039336e-01	-7.696961e+00
1	 1.694141e+00	 7.358753e-01	-8.119237e+00
1	 1.679973e+00	 7.676706e-01	-8.450339e+00
1	 1.665156e+00	 7.993002e-01	-8.585298e+00
1	 1.743788e+00	 6.437610e-01	-5.104091e+00
1	 1.731489e+00	 6.761438e-01	-5.437108e+00
1	 1.718537e+00	 7.084172e-01	-5.820355e+00
1	 1.704932e+00	 7.405624e-01	-6.174508e+00
1	 1.690673e+00	 7.725602e-01	-6.407989e+00
1	 1.675762e+00	 8.043913e-01	-6.417147e+00
1	 1.754825e+00	 6.478354e-01	-3.377731e+00
1	 1.742448e+00	 6.804231e-01	-3.687733e+00
1	 1.729414e+00	 7.129009e-01	-4.008589e+00
1	 1.715722e+00	 7.452496e-01	-4.269121e+00
1	 1.701374e+00	 7.774498e-01	-4.387265e+00
1	 1.686368e+00	 8.094824e-01	-4.270250e+00
1	 1.765861e+00	 6.519099e-01	-1.759485e+00
1	 1.753407e+00	 6.847025e-01	-2.017919e+00
1	 1.740291e+00	 7.173845e-01	-2.245644e+00
1	 1.726513e+00	 7.499367e-01	-2.386507e+00
1	 1.712074e+00	 7.823395e-01	-2.376107e+00
1	 1.696975e+00	 8.145735e-01	-2.141957e+00
1	 1.643944e+00	 7.891180e-01	-1.299630e+01
1	 1.628678e+00	 8.201622e-01	-1.320754e+01
1	 1.612777e+00	 8.510048e-01	-1.334434e+01
1	 1.596244e+00	 8.816268e-01	-1.346101e+01
1	 1.579082e+00	 9.120093e-01	-1.362030e+01
1	 1.561296e+00	 9.421332e-01	-1.389324e+01
1	 1.654550e+00	 7.942091e-01	-1.077742e+01
1	 1.639186e+00	 8.254536e-01	-1.086623e+01
1	 1.623182e+00	 8.564952e-01	-1.089141e+01
1	 1.606542e+00	 8.873148e-01	-1.091202e+01
1	 1.589269e+00	 9.178932e-01	-1.099613e+01
1	 1.571369e+00	 9.482114e-01	-1.122062e+01
1	 1.665156e+00	 7.993002e-01	-8.585298e+00
1	 1.649694e+00	 8.307449e-01	-8.550600e+00
1	 1.633587e+00	 8.619855e-01	-8.481786e+00
1	 1.616840e+00	 8.930027e-01	-8.434991e+00
1	 1.599457e+00	 9.237771e-01	-8.474877e+00
1	 1.581442e+00	 9.542897e-01	-8.674421e+00
1	 1.675762e+00	 8.043913e-01	-6.417147e+00
1	 1.660201e+00	 8.360363e-01	-6.268110e+00
1	 1.643992e+00	 8.674759e-01	-6.128927e+00
1	 1.627139e+00	 8.986906e-01	-6.045265e+00
1	 1.609644e+00	 9.296611e-01	-6.069805e+00
1	 1.591514e+00	 9.603680e-01	-6.262057e+00
1	 1.686368e+00	 8.094824e-01	-4.270250e+00
1	 1.670709e+00	 8.413277e-01	-4.026037e+00
1	 1.654397e+00	 8.729662e-01	-3.845953e+00
1	 1.637437e+00	 9.043785e-01	-3.757797e+00
1	 1.619832e+00	 9.355450e-01	-3.793850e+00
1	 1.601587e+00	 9.664463e-01	-3.990754e+00
1	 1.696975e+00	 8.145735e-01	-2.141957e+00
1	 1.681216e+00	 8.466191e-01	-1.831475e+00
1	 1.664802e+00	 8.784566e-01	-1.645656e+00
1	 1.647735e+00	 9.100664e-01	-1.587167e+00
1	 1.630020e+00	 9.414289e-01	-1.659624e+00
1	 1.611660e+00	 9.725246e-01	-1.867559e+00
1	 1.561296e+00	 9.421332e-01	-1.389324e+01
1	 1.542892e+00	 9.719797e-01	-1.438990e+01
1	 1.523876e+00	 1.001530e+00	-1.510451e+01
1	 1.504254e+00	 1.030766e+00	-1.593429e+01
1	 1.484036e+00	 1.059669e+00	-1.676886e+01
1	 1.463228e+00	 1.088220e+00	-1.749063e+01
1	 1.571369e+00	 9.482114e-01	-1.122062e+01
1	 1.552846e+00	 9.782505e-01	-1.166747e+01
1	 1.533707e+00	 1.007992e+00	-1.229798e+01
1	 1.513959e+00	 1.037416e+00	-1.300776e+01
1	 1.493610e+00	 1.066505e+00	-1.368392e+01
1	 1.472668e+00	 1.095241e+00	-1.420557e+01
1	 1.581442e+00	 9.542897e-01	-8.674421e+00
1	 1.562800e+00	 9.845213e-01	-9.078706e+00
1	 1.543539e+00	 1.014453e+00	-9.618292e+00
1	 1.523664e+00	 1.044066e+00	-1.019378e+01
1	 1.503185e+00	 1.073342e+00	-1.069723e+01
1	 1.482108e+00	 1.102262e+00	-1.101263e+01
1	 1.591514e+00	 9.603680e-01	-6.262057e+00
1	 1.572754e+00	 9.907922e-01	-6.625046e+00
1	 1.553370e+00	 1.020915e+00	-7.064237e+00
1	 1.533369e+00	 1.050716e+00	-7.491715e+00
1	 1.512759e+00	 1.080178e+00	-7.811782e+00
1	 1.491548e+00	 1.109283e+00	-7.921380e+00
1	 1.601587e+00	 9.664463e-01	-3.990754e+00
1	 1.582708e+00	 9.970630e-01	-4.307889e+00
1	 1.563201e+00	 1.027376e+00	-4.634629e+00
1	 1.543074e+00	 1.057366e+00	-4.900924e+00
1	 1.522333e+00	 1.087015e+00	-5.030486e+00
1	 1.500989e+00	 1.116303e+00	-4.941136e+00
1	 1.611660e+00	 9.725246e-01	-1.867559e+00
1	 1.592662e+00	 1.003334e+00	-2.128597e+00
1	 1.573033e+00	 1.033837e+00	-2.328317e+00
1	 1.552779e+00	 1.064016e+00	-2.420791e+00
1	 1.531908e+00	 1.093851e+00	-2.356185e+00
1	 1.510429e+00	 1.123324e+00	-2.080982e+00
1	 1.463228e+00	 1.088220e+00	-1.749063e+01
1	 1.441840e+00	 1.116403e+00	-1.749554e+01
1	 1.419883e+00	 1.144200e+00	-1.636235e+01
1	 1.397365e+00	 1.171593e+00	-1.425457e+01
1	 1.374300e+00	 1.198566e+00	-1.135085e+01
1	 1.350698e+00	 1.225102e+00	-7.844190e+00
1	 1.472668e+00	 1.095241e+00	-1.420557e+01
1	 1.451142e+00	 1.123606e+00	-1.401326e+01
1	 1.429043e+00	 1.151582e+00	-1.274284e+01
1	 1.406381e+00	 1.179151e+00	-1.057445e+01
1	 1.383166e+00	 1.206298e+00	-7.705877e+00
1	 1.359412e+00	 1.233006e+00	-4.351645e+00
1	 1.482108e+00	 1.102262e+00	-1.101263e+01
1	 1.460445e+00	 1.130808e+00	-1.063627e+01
1	 1.438204e+00	 1.158964e+00	-9.260027e+00
1	 1.415396e+00	 1.186710e+00	-7.070294e+00
1	 1.392033e+00	 1.214031e+00	-4.272488e+00
1	 1.368126e+00	 1.240910e+00	-1.090068e+00
1	 1.491548e+00	 1.109283e+00	-7.921380e+00
1	 1.469747e+00	 1.138011e+00	-7.379625e+00
1	 1.447364e+00	 1.166346e+00	-5.929548e+00
1	 1.424411e+00	 1.194269e+00	-3.753659e+00
1	 1.400899e+00	 1.221764e+00	-1.053689e+00
1	 1.376840e+00	 1.248814e+00	 1.950357e+00
1	 1.500989e+00	 1.116303e+00	-4.941136e+00
1	 1.479049e+00	 1.145214e+00	-4.257979e+00
1	 1.456525e+00	 1.173727e+00	-2.766661e+00
1	 1.433426e+00	 1.201827e+00	-6.358214e-01
1	 1.409766e+00	 1.229496e+00	 1.947593e+00
1	 1.385555e+00	 1.256718e+00	 4.779198e+00
1	 1.510429e+00	 1.123324e+00	-2.080982e+00
1	 1.488351e+00	 1.152416e+00	-1.285631e+00
1	 1.465685e+00	 1.181109e+00	 2.137619e-01
1	 1.442442e+00	 1.209386e+00	 2.272226e+00
1	 1.418632e+00	 1.237229e+00	 4.728501e+00
1	 1.394269e+00	 1.264621e+00	 7.405786e+00
1	 1.350698e+00	 1.225102e+00	-7.844190e+00
1	 1.326572e+00	 1.251186e+00	-4.422159e+00
1	 1.301936e+00	 1.276802e+00	-1.592641e+00
1	 1.276802e+00	 1.301936e+00	 7.214101e-01
1	 1.251186e+00	 1.326572e+00	 2.610920e+00
1	 1.225102e+00	 1.350698e+00	 4.180160e+00
1	 1.359412e+00	 1.233006e+00	-4.351645e+00
1	 1.335131e+00	 1.259258e+00	-1.153230e+00
1	 1.310335e+00	 1.285039e+00	 1.467062e+00
1	 1.285039e+00	 1.310335e+00	 3.624866e+00
1	 1.259258e+00	 1.335131e+00	 5.453061e+00
1	 1.233006e+00	 1.359412e+00	 7.100993e+00
1	 1.368126e+00	 1.240910e+00	-1.090068e+00
1	 1.343689e+00	 1.267330e+00	 1.899514e+00
1	 1.318735e+00	 1.293277e+00	 4.357150e+00
1	 1.293277e+00	 1.318735e+00	 6.418633e+00
1	 1.267330e+00	 1.343689e+00	 8.238614e+00
1	 1.240910e+00	 1.368126e+00	 9.989691e+00
1	 1.376840e+00	 1.248814e+00	 1.950357e+00
1	 1.352248e+00	 1.275402e+00	 4.756809e+00
1	 1.327134e+00	 1.301514e+00	 7.101598e+00
1	 1.301514e+00	 1.327134e+00	 9.122598e+00
1	 1.275402e+00	 1.352248e+00	 1.097643e+01
1	 1.248814e+00	 1.376840e+00	 1.283751e+01
1	 1.385555e+00	 1.256718e+00	 4.779198e+00
1	 1.360806e+00	 1.283475e+00	 7.438868e+00
1	 1.335534e+00	 1.309752e+00	 9.723776e+00
1	 1.309752e+00	 1.335534e+00	 1.175615e+01
1	 1.283475e+00	 1.360806e+00	 1.367513e+01
1	 1.256718e+00	 1.385555e+00	 1.563593e+01
1	 1.394269e+00	 1.264621e+00	 7.405786e+00
1	 1.369365e+00	 1.291547e+00	 9.965398e+00
1	 1.343933e+00	 1.317989e+00	 1.224647e+01
1	 1.317989e+00	 1.343933e+00	 1.433818e+01
1	 1.291547e+00	 1.369365e+00	 1.634312e+01
1	 1.264621e+00	 1.394269e+00	 1.837662e+01
1	 1.225102e+00	 1.350698e+00	 4.180160e+00
1	 1.198566e+00	 1.374300e+00	 5.508318e+00
1	 1.171593e+00	 1.397365e+00	 6.519060e+00
1	 1.144200e+00	 1.419883e+00	 7.082278e+00
1	 1.116403e+00	 1.441840e+00	 7.054222e+00
1	 1.088220e+00	 1.463228e+00	 6.278395e+00
1	 1.233006e+00	 1.359412e+00	 7.100993e+00
1	 1.206298e+00	 1.383166e+00	 8.614505e+00
1	 1.179151e+00	 1.406381e+00	 9.822368e+00
1	 1.151582e+00	 1.429043e+00	 1.054743e+01
1	 1.123606e+00	 1.451142e+00	 1.059647e+01
1	 1.095241e+00	 1.472668e+00	 9.761434e+00
1	 1.240910e+00	 1.368126e+00	 9.989691e+00
1	 1.214031e+00	 1.392033e+00	 1.166088e+01
1	 1.186710e+00	 1.415396e+00	 1.299408e+01
1	 1.158964e+00	 1.438204e+00	 1.379104e+01
1	 1.130808e+00	 1.460445e+00	 1.383710e+01
1	 1.102262e+00	 1.482108e+00	 1.290252e+01
1	 1.248814e+00	 1.376840e+00	 1.283751e+01
1	 1.221764e+00	 1.400899e+00	 1.462292e+01
1	 1.194269e+00	 1.424411e+00	 1.600348e+01
1	 1.166346e+00	 1.447364e+00	 1.678527e+01
1	 1.138011e+00	 1.469747e+00	 1.675965e+01
1	 1.109283e+00	 1.491548e+00	 1.570460e+01
1	 1.256718e+00	 1.385555e+00	 1.563593e+01
1	 1.229496e+00	 1.409766e+00	 1.747671e+01
1	 1.201827e+00	 1.433426e+00	 1.882061e+01
1	 1.173727e+00	 1.456525e+00	 1.950296e+01
1	 1.145214e+00	 1.479049e+00	 1.934811e+01
1	 1.116303e+00	 1.500989e+00	 1.817055e+01
1	 1.264621e+00	 1.394269e+00	 1.837662e+01
1	 1.237229e+00	 1.418632e+00	 2.019895e+01
1	 1.209386e+00	 1.442442e+00	 2.141627e+01
1	 1.181109e+00	 1.465685e+00	 2.191764e+01
1	 1.152416e+00	 1.488351e+00	 2.158683e+01
1	 1.123324e+00	 1.510429e+00	 2.030315e+01
1	 1.088220e+00	 1.463228e+00	 6.278395e+00
1	 1.059669e+00	 1.484036e+00	 5.022814e+00
1	 1.030766e+00	 1.504254e+00	 3.784702e+00
1	 1.001530e+00	 1.523876e+00	 2.754409e+00
1	 9.719797e-01	 1.542892e+00	 2.137299e+00
1	 9.421332e-01	 1.561296e+00	 2.152392e+00
1	 1.095241e+00	 1.472668e+00	 9.761434e+00
1	 1.066505e+00	 1.493610e+00	 8.344519e+00
1	 1.037416e+00	 1.513959e+00	 6.939318e+00
1	 1.007992e+00	 1.533707e+00	 5.777444e+00
1	 9.782505e-01	 1.552846e+00	 5.106578e+00
1	 9.482114e-01	 1.571369e+00	 5.188851e+00
1	 1.102262e+00	 1.482108e+00	 1.290252e+01
1	 1.073342e+00	 1.503185e+00	 1.134862e+01
1	 1.044066e+00	 1.523664e+00	 9.851224e+00
1	 1.014453e+00	 1.543539e+00	 8.654221e+00
1	 9.845213e-01	 1.562800e+00	 8.016636e+00
1	 9.542897e-01	 1.581442e+00	 8.210924e+00
1	 1.109283e+00	 1.491548e+00	 1.570460e+01
1	 1.080178e+00	 1.512759e+00	 1.405610e+01
1	 1.050716e+00	 1.533369e+00	 1.254944e+01
1	 1.020915e+00	 1.553370e+00	 1.141243e+01
1	 9.907922e-01	 1.572754e+00	 1.088504e+01
1	 9.603680e-01	 1.591514e+00	 1.121790e+01
1	 1.116303e+00	 1.500989e+00	 1.817055e+01
1	 1.087015e+00	 1.522333e+00	 1.648737e+01
1	 1.057366e+00	 1.543074e+00	 1.506225e+01
1	 1.027376e+00	 1.563201e+00	 1.407905e+01
1	 9.970630e-01	 1.582708e+00	 1.372893e+01
1	 9.664463e-01	 1.601587e+00	 1.420910e+01
1	 1.123324e+00	 1.510429e+00	 2.030315e+01
1	 1.093851e+00	 1.531908e+00	 1.866237e+01
1	 1.064016e+00	 1.552779e+00	 1.741724e+01
1	 1.033837e+00	 1.573033e+00	 1.668041e+01
1	 1.003334e+00	 1.592662e+00	 1.656499e+01
1	 9.725246e-01	 1.611660e+00	 1.718384e+01
1	 9.421332e-01	 1.561296e+00	 2.152392e+00
1	 9.120093e-01	 1.579082e+00	 2.600794e+00
1	 8.816268e-01	 1.596244e+00	 3.028541e+00
1	 8.510048e-01	 1.612777e+00	 3.275227e+00
1	 8.201622e-01	 1.628678e+00	 3.172979e+00
1	 7.891180e-01	 1.643944e+00	 2.547492e+00
1	 9.482114e-01	 1.571369e+00	 5.188851e+00
1	 9.178932e-01	 1.589269e+00	 5.796537e+00
1	 8.873148e-01	 1.606542e+00	 6.390118e+00
1	 8.564952e-01	 1.623182e+00	 6.766562e+00
1	 8.254536e-01	 1.639186e+00	 6.714122e+00
1	 7.942091e-01	 1.654550e+00	 6.013653e+00
1	 9.542897e-01	 1.581442e+00	 8.210924e+00
1	 9.237771e-01	 1.599457e+00	 8.955331e+00
1	 8.930027e-01	 1.616840e+00	 9.642498e+00
1	 8.619855e-01	 1.633587e+00	 1.005861e+01
1	 8.307449e-01	 1.649694e+00	 9.981698e+00
1	 7.993002e-01	 1.665156e+00	 9.183049e+00
1	 9.603680e-01	 1.591514e+00	 1.121790e+01
1	 9.296611e-01	 1.609644e+00	 1.205955e+01
1	 8.986906e-01	 1.627139e+00	 1.276119e+01
1	 8.674759e-01	 1.643992e+00	 1.312942e+01
1	 8.360363e-01	 1.660201e+00	 1.296506e+01
1	 8.043913e-01	 1.675762e+00	 1.206440e+01
1	 9.664463e-01	 1.601587e+00	 1.420910e+01
1	 9.355450e-01	 1.619832e+00	 1.509202e+01
1	 9.043785e-01	 1.637437e+00	 1.572233e+01
1	 8.729662e-01	 1.654397e+00	 1.595760e+01
1	 8.413277e-01	 1.670709e+00	 1.565383e+01
1	 8.094824e-01	 1.686368e+00	 1.466621e+01
1	 9.725246e-01	 1.611660e+00	 1.718384e+01
1	 9.414289e-01	 1.630020e+00	 1.803599e+01
1	 9.100664e-01	 1.647735e+00	 1.850264e+01
1	 8.784566e-01	 1.664802e+00	 1.852231e+01
1	 8.466191e-01	 1.681216e+00	 1.803789e+01
1	 8.145735e-01	 1.696975e+00	 1.699676e+01
1	 7.891180e-01	 1.643944e+00	 2.547492e+00
1	 7.578914e-01	 1.658572e+00	 1.360203e+00
1	 7.265011e-01	 1.672560e+00	-1.087941e-01
1	 6.949663e-01	 1.685907e+00	-1.556026e+00
1	 6.633056e-01	 1.698613e+00	-2.674050e+00
1	 6.315377e-01	 1.710678e+00	-3.153116e+00
1	 7.942091e-01	 1.654550e+00	 6.013653e+00
1	 7.627810e-01	 1.669272e+00	 4.640399e+00
1	 7.311882e-01	 1.683350e+00	 2.944689e+00
1	 6.994499e-01	 1.696784e+00	 1.270734e+00
1	 6.675850e-01	 1.709572e+00	-3.153231e-02
1	 6.356121e-01	 1.721715e+00	-6.084063e-01
1	 7.993002e-01	 1.665156e+00	 9.183049e+00
1	 7.676706e-01	 1.679973e+00	 7.679892e+00
1	 7.358753e-01	 1.694141e+00	 5.871954e+00
1	 7.039336e-01	 1.707660e+00	 4.105554e+00
1	 6.718644e-01	 1.720530e+00	 2.732817e+00
1	 6.396866e-01	 1.732751e+00	 2.109695e+00
1	 8.043913e-01	 1.675762e+00	 1.206440e+01
1	 7.725602e-01	 1.690673e+00	 1.050494e+01
1	 7.405624e-01	 1.704932e+00	 8.706010e+00
1	 7.084172e-01	 1.718537e+00	 6.978194e+00
1	 6.761438e-01	 1.731489e+00	 5.636306e+00
1	 6.437610e-01	 1.743788e+00	 4.997643e+00
1	 8.094824e-01	 1.686368e+00	 1.466621e+01
1	 7.774498e-01	 1.701374e+00	 1.314113e+01
1	 7.452496e-01	 1.715722e+00	 1.147903e+01
1	 7.129009e-01	 1.729414e+00	 9.917670e+00
1	 6.804231e-01	 1.742448e+00	 8.695808e+00
1	 6.478354e-01	 1.754825e+00	 8.051985e+00
1	 8.145735e-01	 1.696975e+00	 1.699676e+01
1	 7.823395e-01	 1.712074e+00	 1.561341e+01
1	 7.499367e-01	 1.726513e+00	 1.422240e+01
1	 7.173845e-01	 1.740291e+00	 1.295227e+01
1	 6.847025e-01	 1.753407e+00	 1.192777e+01
1	 6.519099e-01	 1.765861e+00	 1.126935e+01
1	 6.315377e-01	 1.710678e+00	-3.153116e+00
1	 5.996811e-01	 1.722104e+00	-2.829331e+00
1	 5.677541e-01	 1.732892e+00	-1.949088e+00
1	 5.357747e-01	 1.743045e+00	-8.182450e-01
1	 5.037607e-01	 1.752565e+00	 2.574047e-01
1	 4.717296e-01	 1.761457e+00	 9.737048e-01
1	 6.356121e-01	 1.721715e+00	-6.084063e-01
1	 6.035500e-01	 1.733214e+00	-2.999279e-01
1	 5.714170e-01	 1.744072e+00	 5.853653e-01
1	 5.392313e-01	 1.754290e+00	 1.697895e+00
1	 5.070108e-01	 1.763872e+00	 2.686678e+00
1	 4.747731e-01	 1.772821e+00	 3.201200e+00
1	 6.396866e-01	 1.732751e+00	 2.109695e+00
1	 6.074189e-01	 1.744325e+00	 2.357909e+00
1	 5.750800e-01	 1.755252e+00	 3.128775e+00
1	 5.426879e-01	 1.765536e+00	 4.071927e+00
1	 5.102609e-01	 1.775179e+00	 4.835365e+00
1	 4.778165e-01	 1.784185e+00	 5.067349e+00
1	 6.437610e-01	 1.743788e+00	 4.997643e+00
1	 6.112878e-01	 1.755435e+00	 5.121224e+00
1	 5.787429e-01	 1.766432e+00	 5.648936e+00
1	 5.461445e-01	 1.776781e+00	 6.271698e+00
1	 5.135109e-01	 1.786486e+00	 6.679783e+00
1	 4.808599e-01	 1.795550e+00	 6.564477e+00
1	 6.478354e-01	 1.754825e+00	 8.051985e+00
1	 6.151568e-01	 1.766545e+00	 7.967640e+00
1	 5.824058e-01	 1.777612e+00	 8.114456e+00
1	 5.496012e-01	 1.788027e+00	 8.265861e+00
1	 5.167610e-01	 1.797793e+00	 8.196844e+00
1	 4.839033e-01	 1.806914e+00	 7.685103e+00
1	 6.519099e-01	 1.765861e+00	 1.126935e+01
1	 6.190257e-01	 1.777656e+00	 1.087534e+01
1	 5.860688e-01	 1.788792e+00	 1.049473e+01
1	 5.530578e-01	 1.799272e+00	 1.002385e+01
1	 5.200111e-01	 1.809100e+00	 9.364039e+00
1	 4.869467e-01	 1.818278e+00	 8.421932e+00
1	 4.717296e-01	 1.761457e+00	 9.737048e-01
1	 4.396986e-01	 1.769724e+00	 1.056638e+00
1	 4.076846e-01	 1.777372e+00	 6.743635e-01
1	 3.757040e-01	 1.784406e+00	 1.885941e-01
1	 3.437731e-01	 1.790832e+00	-3.976811e-02
1	 3.119074e-01	 1.796656e+00	 3.476309e-01
1	 4.747731e-01	 1.772821e+00	 3.201200e+00
1	 4.425354e-01	 1.781142e+00	 2.968102e+00
1	 4.103148e-01	 1.788839e+00	 2.222325e+00
1	 3.781279e-01	 1.795919e+00	 1.378339e+00
1	 3.459910e-01	 1.802386e+00	 8.503836e-01
1	 3.139198e-01	 1.808247e+00	 1.050419e+00
1	 4.778165e-01	 1.784185e+00	 5.067349e+00
1	 4.453722e-01	 1.792560e+00	 4.532706e+00
1	 4.129451e-01	 1.800306e+00	 3.514569e+00
1	 3.805518e-01	 1.807431e+00	 2.441321e+00
1	 3.482089e-01	 1.813940e+00	 1.741386e+00
1	 3.159321e-01	 1.819839e+00	 1.841077e+00
1	 4.808599e-01	 1.795550e+00	 6.564477e+00
1	 4.482089e-01	 1.803977e+00	 5.758914e+00
1	 4.155753e-01	 1.811773e+00	 4.569525e+00
1	 3.829757e-01	 1.818943e+00	 3.400538e+00
1	 3.504268e-01	 1.825493e+00	 2.656179e+00
1	 3.179444e-01	 1.831430e+00	 2.738631e+00
1	 4.839033e-01	 1.806914e+00	 7.685103e+00
1	 4.510457e-01	 1.815395e+00	 6.654974e+00
1	 4.182055e-01	 1.823240e+00	 5.405160e+00
1	 3.853996e-01	 1.830456e+00	 4.278411e+00
1	 3.526446e-01	 1.837047e+00	 3.617126e+00
1	 3.199567e-01	 1.843021e+00	 3.761629e+00
1	 4.869467e-01	 1.818278e+00	 8.421932e+00
1	 4.538825e-01	 1.826812e+00	 7.228933e+00
1	 4.208357e-01	 1.834707e+00	 6.038992e+00
1	 3.878235e-01	 1.841968e+00	 5.096799e+00
1	 3.548625e-01	 1.848601e+00	 4.646031e+00
1	 3.219690e-01	 1.854613e+00	 4.928155e+00
1	 3.119074e-01	 1.796656e+00	 3.476309e-01
1	 2.801225e-01	 1.801885e+00	 1.734692e+00
1	 2.484331e-01	 1.806527e+00	 4.024559e+00
1	 2.168538e-01	 1.810589e+00	 6.856031e+00
1	 1.853986e-01	 1.814080e+00	 9.874993e+00
1	 1.540811e-01	 1.817008e+00	 1.273571e+01
1	 3.139198e-01	 1.808247e+00	 1.050419e+00
1	 2.819297e-01	 1.813510e+00	 2.380516e+00
1	 2.500359e-01	 1.818182e+00	 4.684593e+00
1	 2.182529e-01	 1.822271e+00	 7.539790e+00
1	 1.865947e-01	 1.825784e+00	 1.053163e+01
1	 1.550751e-01	 1.828731e+00	 1.325558e+01
1	 3.159321e-01	 1.819839e+00	 1.841077e+00
1	 2.837370e-01	 1.825136e+00	 3.130273e+00
1	 2.516387e-01	 1.829837e+00	 5.409930e+00
1	 2.196519e-01	 1.833952e+00	 8.225947e+00
1	 1.877909e-01	 1.837488e+00	 1.113338e+01
1	 1.560692e-01	 1.840453e+00	 1.369812e+01
1	 3.179444e-01	 1.831430e+00	 2.738631e+00
1	 2.855442e-01	 1.836761e+00	 3.998333e+00
1	 2.532415e-01	 1.841492e+00	 6.211747e+00
1	 2.210510e-01	 1.845633e+00	 8.923366e+00
1	 1.889870e-01	 1.849191e+00	 1.168710e+01
1	 1.570633e-01	 1.852176e+00	 1.406796e+01
1	 3.199567e-01	 1.843021e+00	 3.761629e+00
1	 2.873515e-01	 1.848386e+00	 4.998701e+00
1	 2.548443e-01	 1.853147e+00	 7.100938e+00
1	 2.224501e-01	 1.857314e+00	 9.640691e+00
1	 1.901831e-01	 1.860895e+00	 1.219948e+01
1	 1.580573e-01	 1.863899e+00	 1.436959e+01
1	 3.219690e-01	 1.854613e+00	 4.928155e+00
1	 2.891587e-01	 1.860011e+00	 6.145037e+00
1	 2.564471e-01	 1.864802e+00	 8.088124e+00
1	 2.238491e-01	 1.868995e+00	 1.038635e+01
1	 1.913792e-01	 1.872599e+00	 1.267706e+01
1	 1.590514e-01	 1.875621e+00	 1.460740e+01
1	 1.540811e-01	 1.817008e+00	 1.273571e+01
1	 1.229143e-01	 1.819382e+00	 1.579947e+01
1	 9.191087e-02	 1.821212e+00	 2.031370e+01
1	 6.108299e-02	 1.822506e+00	 2.724551e+01
1	 3.044231e-02	 1.823275e+00	 3.752880e+01
1	 0.000000e+00	 1.823529e+00	 5.206171e+01
1	 1.550751e-01	 1.828731e+00	 1.325558e+01
1	 1.237073e-01	 1.831120e+00	 1.602422e+01
1	 9.250384e-02	 1.832961e+00	 2.012648e+01
1	 6.147708e-02	 1.834264e+00	 2.660531e+01
1	 3.063872e-02	 1.835038e+00	 3.646746e+01
1	 0.000000e+00	 1.835294e+00	 5.068085e+01
1	 1.560692e-01	 1.840453e+00	 1.369812e+01
1	 1.245003e-01	 1.842858e+00	 1.619995e+01
1	 9.309681e-02	 1.844711e+00	 1.994397e+01
1	 6.187116e-02	 1.846022e+00	 2.601641e+01
1	 3.083512e-02	 1.846801e+00	 3.546533e+01
1	 0.000000e+00	 1.847059e+00	 4.929776e+01
1	 1.570633e-01	 1.852176e+00	 1.406796e+01
1	 1.252933e-01	 1.854596e+00	 1.632843e+01
1	 9.368979e-02	 1.856461e+00	 1.976486e+01
1	 6.226524e-02	 1.857780e+00	 2.547489e+01
1	 3.103152e-02	 1.858564e+00	 3.451686e+01
1	 0.000000e+00	 1.858824e+00	 4.790689e+01
1	 1.580573e-01	 1.863899e+00	 1.436959e+01
1	 1.260863e-01	 1.866334e+00	 1.641134e+01
1	 9.428276e-02	 1.868211e+00	 1.958789e+01
1	 6.265933e-02	 1.869538e+00	 2.497693e+01
1	 3.122792e-02	 1.870328e+00	 3.361663e+01
1	 0.000000e+00	 1.870588e+00	 4.650281e+01
1	 1.590514e-01	 1.875621e+00	 1.460740e+01
1	 1.268792e-01	 1.878072e+00	 1.645038e+01
1	 9.487573e-02	 1.879960e+00	 1.941182e+01
1	 6.305341e-02	 1.881297e+00	 2.451877e+01
1	 3.142432e-02	 1.882091e+00	 3.275937e+01
1	 0.000000e+00	 1.882353e+00	 4.508022e+01
1	 1.882353e+00	 0.000000e+00	 4.468180e+00
1	 1.882091e+00	 3.142432e-02	 6.252929e+00
1	 1.881297e+00	 6.305341e-02	 7.845781e+00
1	 1.879960e+00	 9.487573e-02	 8.877259e+00
1	 1.878072e+00	 1.268792e-01	 8.990622e+00
1	 1.875621e+00	 1.590514e-01	 7.844193e+00
1	 1.894118e+00	 0.000000e+00	 5.221064e+00
1	 1.893854e+00	 3.162073e-02	 6.808419e+00
1	 1.893055e+00	 6.344750e-02	 8.252713e+00
1	 1.891710e+00	 9.546871e-02	 9.211532e+00
1	 1.889810e+00	 1.276722e-01	 9.354003e+00
1	 1.887344e+00	 1.600455e-01	 8.362960e+00
1	 1.905882e+00	 0.000000e+00	 6.014205e+00
1	 1.905617e+00	 3.181713e-02	 7.371043e+00
1	 1.904813e+00	 6.384158e-02	 8.671617e+00
1	 1.903460e+00	 9.606168e-02	 9.582840e+00
1	 1.901548e+00	 1.284652e-01	 9.782368e+00
1	 1.899067e+00	 1.610396e-01	 8.960700e+00
1	 1.917647e+00	 0.000000e+00	 6.850889e+00
1	 1.917380e+00	 3.201353e-02	 7.932354e+00
1	 1.916571e+00	 6.423566e-02	 9.086713e+00
1	 1.915210e+00	 9.665465e-02	 9.972824e+00
1	 1.913286e+00	 1.292582e-01	 1.025988e+01
1	 1.910789e+00	 1.620336e-01	 9.629565e+00
1	 1.929412e+00	 0.000000e+00	 7.734324e+00
1	 1.929143e+00	 3.220993e-02	 8.484108e+00
1	 1.928329e+00	 6.462975e-02	 9.482601e+00
1	 1.926959e+00	 9.724763e-02	 1.036357e+01
1	 1.925024e+00	 1.300512e-01	 1.077111e+01
1	 1.922512e+00	 1.630277e-01	 1.036190e+01
1	 1.941176e+00	 0.000000e+00	 8.667636e+00
1	 1.940906e+00	 3.240633e-02	 9.018265e+00
1	 1.940087e+00	 6.502383e-02	 9.844261e+00
1	 1.938709e+00	 9.784060e-02	 1.073761e+01
1	 1.936762e+00	 1.308442e-01	 1.130097e+01
1	 1.934234e+00	 1.640218e-01	 1.115024e+01
1	 1.875621e+00	 1.590514e-01	 7.844193e+00
1	 1.872599e+00	 1.913792e-01	 5.953111e+00
1	 1.868995e+00	 2.238491e-01	 4.157201e+00
1	 1.864802e+00	 2.564471e-01	 2.610538e+00
1	 1.860011e+00	 2.891587e-01	 1.461096e+00
1	 1.854613e+00	 3.219690e-01	 8.498059e-01
1	 1.887344e+00	 1.600455e-01	 8.362960e+00
1	 1.884303e+00	 1.925753e-01	 6.685805e+00
1	 1.880677e+00	 2.252482e-01	 5.075169e+00
1	 1.876457e+00	 2.580499e-01	 3.679299e+00
1	 1.871636e+00	 2.909659e-01	 2.640341e+00
1	 1.866204e+00	 3.239813e-01	 2.093413e+00
1	 1.899067e+00	 1.610396e-01	 8.960700e+00
1	 1.896006e+00	 1.937715e-01	 7.489266e+00
1	 1.892358e+00	 2.266472e-01	 6.041900e+00
1	 1.888112e+00	 2.596527e-01	 4.769272e+00
1	 1.883261e+00	 2.927732e-01	 3.815506e+00
1	 1.877795e+00	 3.259936e-01	 3.317206e+00
1	 1.910789e+00	 1.620336e-01	 9.629565e+00
1	 1.907710e+00	 1.949676e-01	 8.364986e+00
1	 1.904039e+00	 2.280463e-01	 7.065137e+00
1	 1.899767e+00	 2.612555e-01	 5.891203e+00
1	 1.894886e+00	 2.945804e-01	 4.996929e+00
1	 1.889387e+00	 3.280059e-01	 4.527553e+00
1	 1.922512e+00	 1.630277e-01	 1.036190e+01
1	 1.919414e+00	 1.961637e-01	 9.314419e+00
1	 1.915720e+00	 2.294453e-01	 8.152436e+00
1	 1.911422e+00	 2.628583e-01	 7.055576e+00
1	 1.906511e+00	 2.963877e-01	 6.194697e+00
1	 1.900978e+00	 3.300182e-01	 5.730669e+00
1	 1.934234e+00	 1.640218e-01	 1.115024e+01
1	 1.931118e+00	 1.973598e-01	 1.033899e+01
1	 1.927402e+00	 2.308444e-01	 9.311169e+00
1	 1.923077e+00	 2.644611e-01	 8.272622e+00
1	 1.918136e+00	 2.981949e-01	 7.418654e+00
1	 1.912569e+00	 3.320305e-01	 6.932614e+00
1	 1.854613e+00	 3.219690e-01	 8.498059e-01
1	 1.848601e+00	 3.548625e-01	 5.570366e-01
1	 1.841968e+00	 3.878235e-01	 2.704183e-01
1	 1.834707e+00	 4.208357e-01	-1.616496e-02
1	 1.826812e+00	 4.538825e-01	-3.116695e-01
1	 1.818278e+00	 4.869467e-01	-6.279743e-01
1	 1.866204e+00	 3.239813e-01	 2.093413e+00
1	 1.860155e+00	 3.570804e-01	 1.835354e+00
1	 1.853480e+00	 3.902474e-01	 1.575796e+00
1	 1.846174e+00	 4.234660e-01	 1.311632e+00
1	 1.838230e+00	 4.567192e-01	 1.037587e+00
1	 1.829642e+00	 4.899901e-01	 7.461432e-01
1	 1.877795e+00	 3.259936e-01	 3.317206e+00
1	 1.871708e+00	 3.592983e-01	 3.094220e+00
1	 1.864992e+00	 3.926713e-01	 2.874678e+00
1	 1.857641e+00	 4.260962e-01	 2.650337e+00
1	 1.849647e+00	 4.595560e-01	 2.411528e+00
1	 1.841007e+00	 4.930336e-01	 2.147140e+00
1	 1.889387e+00	 3.280059e-01	 4.527553e+00
1	 1.883262e+00	 3.615162e-01	 4.334653e+00
1	 1.876505e+00	 3.950952e-01	 4.163738e+00
1	 1.869108e+00	 4.287264e-01	 3.993434e+00
1	 1.861065e+00	 4.623928e-01	 3.801758e+00
1	 1.852371e+00	 4.960770e-01	 3.566195e+00
1	 1.900978e+00	 3.300182e-01	 5.730669e+00
1	 1.894816e+00	 3.637341e-01	 5.557646e+00
1	 1.888017e+00	 3.975191e-01	 5.439731e+00
1	 1.880575e+00	 4.313566e-01	 5.334570e+00
1	 1.872483e+00	 4.652295e-01	 5.200087e+00
1	 1.863735e+00	 4.991204e-01	 4.994700e+00
1	 1.912569e+00	 3.320305e-01	 6.932614e+00
1	 1.906370e+00	 3.659520e-01	 6.764169e+00
1	 1.899529e+00	 3.999430e-01	 6.699492e+00
1	 1.892042e+00	 4.339868e-01	 6.667544e+00
1	 1.883900e+00	 4.680663e-01	 6.598522e+00
1	 1.875099e+00	 5.021638e-01	 6.424257e+00
1	 1.818278e+00	 4.869467e-01	-6.279743e-01
1	 1.809100e+00	 5.200111e-01	-9.203691e-01
1	 1.799272e+00	 5.530578e-01	-1.149916e+00
1	 1.788792e+00	 5.860688e-01	-1.343594e+00
1	 1.777656e+00	 6.190257e-01	-1.534022e+00
1	 1.765861e+00	 6.519099e-01	-1.759485e+00
1	 1.829642e+00	 4.899901e-01	 7.461432e-01
1	 1.820406e+00	 5.232611e-01	 4.811867e-01
1	 1.810517e+00	 5.565144e-01	 2.783876e-01
1	 1.799972e+00	 5.897317e-01	 1.124905e-01
1	 1.788766e+00	 6.228946e-01	-4.670596e-02
1	 1.776898e+00	 6.559843e-01	-2.343537e-01
1	 1.841007e+00	 4.930336e-01	 2.147140e+00
1	 1.831713e+00	 5.265112e-01	 1.894853e+00
1	 1.821763e+00	 5.599710e-01	 1.692272e+00
1	 1.811152e+00	 5.933946e-01	 1.524036e+00
1	 1.799876e+00	 6.267635e-01	 1.370690e+00
1	 1.787935e+00	 6.600588e-01	 1.208655e+00
1	 1.852371e+00	 4.960770e-01	 3.566195e+00
1	 1.843020e+00	 5.297613e-01	 3.312275e+00
1	 1.833008e+00	 5.634276e-01	 3.083983e+00
1	 1.822332e+00	 5.970575e-01	 2.883876e+00
1	 1.810987e+00	 6.306324e-01	 2.711419e+00
1	 1.798971e+00	 6.641332e-01	 2.562893e+00
1	 1.863735e+00	 4.991204e-01	 4.994700e+00
1	 1.854327e+00	 5.330113e-01	 4.725301e+00
1	 1.844254e+00	 5.668842e-01	 4.445957e+00
1	 1.833512e+00	 6.007205e-01	 4.185020e+00
1	 1.822097e+00	 6.345013e-01	 3.968901e+00
1	 1.810008e+00	 6.682076e-01	 3.821875e+00
1	 1.875099e+00	 5.021638e-01	 6.424257e+00
1	 1.865634e+00	 5.362614e-01	 6.125977e+00
1	 1.855499e+00	 5.703408e-01	 5.770815e+00
1	 1.844692e+00	 6.043834e-01	 5.420647e+00
1	 1.833207e+00	 6.383702e-01	 5.136712e+00
1	 1.821044e+00	 6.722821e-01	 4.979275e+00
1	 1.765861e+00	 6.519099e-01	-1.759485e+00
1	 1.753407e+00	 6.847025e-01	-2.017919e+00
1	 1.740291e+00	 7.173845e-01	-2.245644e+00
1	 1.726513e+00	 7.499367e-01	-2.386507e+00
1	 1.712074e+00	 7.823395e-01	-2.376107e+00
1	 1.696975e+00	 8.145735e-01	-2.141957e+00
1	 1.776898e+00	 6.559843e-01	-2.343537e-01
1	 1.764365e+00	 6.889819e-01	-4.236428e-01
1	 1.751168e+00	 7.218682e-01	-5.405393e-01
1	 1.737304e+00	 7.546238e-01	-5.492141e-01
1	 1.722775e+00	 7.872291e-01	-4.087876e-01
1	 1.707581e+00	 8.196646e-01	-7.345299e-02
1	 1.787935e+00	 6.600588e-01	 1.208655e+00
1	 1.775324e+00	 6.932613e-01	 1.088089e+00
1	 1.762044e+00	 7.263519e-01	 1.083748e+00
1	 1.748095e+00	 7.593109e-01	 1.207383e+00
1	 1.733475e+00	 7.921187e-01	 1.472744e+00
1	 1.718187e+00	 8.247556e-01	 1.895526e+00
1	 1.798971e+00	 6.641332e-01	 2.562893e+00
1	 1.786283e+00	 6.975407e-01	 2.510941e+00
1	 1.772921e+00	 7.308355e-01	 2.622099e+00
1	 1.758885e+00	 7.639980e-01	 2.880358e+00
1	 1.744175e+00	 7.970083e-01	 3.268808e+00
1	 1.728793e+00	 8.298467e-01	 3.769668e+00
1	 1.810008e+00	 6.682076e-01	 3.821875e+00
1	 1.797242e+00	 7.018201e-01	 3.838734e+00
1	 1.783798e+00	 7.353192e-01	 4.069519e+00
1	 1.769676e+00	 7.686851e-01	 4.466856e+00
1	 1.754876e+00	 8.018980e-01	 4.979715e+00
1	 1.739399e+00	 8.349378e-01	 5.553545e+00
1	 1.821044e+00	 6.722821e-01	 4.979275e+00
1	 1.808201e+00	 7.060995e-01	 5.065436e+00
1	 1.794675e+00	 7.398028e-01	 5.421133e+00
1	 1.780467e+00	 7.733722e-01	 5.964092e+00
1	 1.765576e+00	 8.067876e-01	 6.605769e+00
1	 1.750005e+00	 8.400289e-01	 7.251619e+00
1	 1.696975e+00	 8.145735e-01	-2.141957e+00
1	 1.681216e+00	 8.466191e-01	-1.831475e+00
1	 1.664802e+00	 8.784566e-01	-1.645656e+00
1	 1.647735e+00	 9.100664e-01	-1.587167e+00
1	 1.630020e+00	 9.414289e-01	-1.659624e+00
1	 1.611660e+00	 9.725246e-01	-1.867559e+00
1	 1.707581e+00	 8.196646e-01	-7.345299e-02
1	 1.691724e+00	 8.519104e-01	 2.780157e-01
1	 1.675207e+00	 8.839469e-01	 4.491721e-01
1	 1.658034e+00	 9.157543e-01	 4.650307e-01
1	 1.640207e+00	 9.473129e-01	 3.533798e-01
1	 1.621733e+00	 9.786028e-01	 1.447170e-01
1	 1.718187e+00	 8.247556e-01	 1.895526e+00
1	 1.702232e+00	 8.572018e-01	 2.275186e+00
1	 1.685612e+00	 8.894373e-01	 2.430534e+00
1	 1.668332e+00	 9.214423e-01	 2.412208e+00
1	 1.650395e+00	 9.531968e-01	 2.276742e+00
1	 1.631806e+00	 9.846811e-01	 2.086401e+00
1	 1.728793e+00	 8.298467e-01	 3.769668e+00
1	 1.712739e+00	 8.624932e-01	 4.168389e+00
1	 1.696017e+00	 8.949277e-01	 4.307894e+00
1	 1.678630e+00	 9.271302e-01	 4.262420e+00
1	 1.660583e+00	 9.590807e-01	 4.114623e+00
1	 1.641879e+00	 9.907594e-01	 3.955322e+00
1	 1.739399e+00	 8.349378e-01	 5.553545e+00
1	 1.723247e+00	 8.677845e-01	 5.965775e+00
1	 1.706422e+00	 9.004180e-01	 6.090487e+00
1	 1.688929e+00	 9.328181e-01	 6.023521e+00
1	 1.670770e+00	 9.649647e-01	 5.871080e+00
1	 1.651952e+00	 9.968377e-01	 5.749362e+00
1	 1.750005e+00	 8.400289e-01	 7.251619e+00
1	 1.733754e+00	 8.730759e-01	 7.675294e+00
1	 1.716827e+00	 9.059084e-01	 7.787321e+00
1	 1.699227e+00	 9.385060e-01	 7.703180e+00
1	 1.680958e+00	 9.708486e-01	 7.550071e+00
1	 1.662025e+00	 1.002916e+00	 7.466454e+00
1	 1.611660e+00	 9.725246e-01	-1.867559e+00
1	 1.592662e+00	 1.003334e+00	-2.128597e+00
1	 1.573033e+00	 1.033837e+00	-2.328317e+00
1	 1.552779e+00	 1.064016e+00	-2.420791e+00
1	 1.531908e+00	 1.093851e+00	-2.356185e+00
1	 1.510429e+00	 1.123324e+00	-2.080982e+00
1	 1.621733e+00	 9.786028e-01	 1.447170e-01
1	 1.602617e+00	 1.009605e+00	-4.617062e-02
1	 1.582864e+00	 1.040299e+00	-1.133313e-01
1	 1.562484e+00	 1.070666e+00	-3.634304e-02
1	 1.541482e+00	 1.100688e+00	 2.067316e-01
1	 1.519869e+00	 1.130345e+00	 6.392455e-01
1	 1.631806e+00	 9.846811e-01	 2.086401e+00
1	 1.612571e+00	 1.015876e+00	 1.975597e+00
1	 1.592696e+00	 1.046760e+00	 2.033429e+00
1	 1.572188e+00	 1.077317e+00	 2.258189e+00
1	 1.551057e+00	 1.107525e+00	 2.647932e+00
1	 1.529309e+00	 1.137366e+00	 3.200489e+00
1	 1.641879e+00	 9.907594e-01	 3.955322e+00
1	 1.622525e+00	 1.022146e+00	 3.928336e+00
1	 1.602527e+00	 1.053222e+00	 4.100017e+00
1	 1.581893e+00	 1.083967e+00	 4.449841e+00
1	 1.560631e+00	 1.114361e+00	 4.955925e+00
1	 1.538749e+00	 1.144387e+00	 5.595142e+00
1	 1.651952e+00	 9.968377e-01	 5.749362e+00
1	 1.632479e+00	 1.028417e+00	 5.803878e+00
1	 1.612359e+00	 1.059683e+00	 6.074777e+00
1	 1.591598e+00	 1.090617e+00	 6.525966e+00
1	 1.570206e+00	 1.121198e+00	 7.119501e+00
1	 1.548190e+00	 1.151407e+00	 7.815783e+00
1	 1.662025e+00	 1.002916e+00	 7.466454e+00
1	 1.642433e+00	 1.034688e+00	 7.594256e+00
1	 1.622190e+00	 1.066145e+00	 7.946335e+00
1	 1.601303e+00	 1.097267e+00	 8.474224e+00
1	 1.579780e+00	 1.128034e+00	 9.127722e+00
1	 1.557630e+00	 1.158428e+00	 9.855171e+00
1	 1.510429e+00	 1.123324e+00	-2.080982e+00
1	 1.488351e+00	 1.152416e+00	-1.285631e+00
1	 1.465685e+00	 1.181109e+00	 2.137619e-01
1	 1.442442e+00	 1.209386e+00	 2.272226e+00
1	 1.418632e+00	 1.237229e+00	 4.728501e+00
1	 1.394269e+00	 1.264621e+00	 7.405786e+00
1	 1.519869e+00	 1.130345e+00	 6.392455e-01
1	 1.497653e+00	 1.159619e+00	 1.513811e+00
1	 1.474846e+00	 1.188491e+00	 2.996280e+00
1	 1.451457e+00	 1.216945e+00	 4.970134e+00
1	 1.427498e+00	 1.244962e+00	 7.304980e+00
1	 1.402983e+00	 1.272525e+00	 9.857155e+00
1	 1.529309e+00	 1.137366e+00	 3.200489e+00
1	 1.506956e+00	 1.166821e+00	 4.123931e+00
1	 1.484006e+00	 1.195873e+00	 5.575143e+00
1	 1.460472e+00	 1.224503e+00	 7.465962e+00
1	 1.436365e+00	 1.252694e+00	 9.696461e+00
1	 1.411697e+00	 1.280429e+00	 1.215541e+01
1	 1.538749e+00	 1.144387e+00	 5.595142e+00
1	 1.516258e+00	 1.174024e+00	 6.541538e+00
1	 1.493167e+00	 1.203255e+00	 7.950294e+00
1	 1.469487e+00	 1.232062e+00	 9.761509e+00
1	 1.445231e+00	 1.260427e+00	 1.190533e+01
1	 1.420411e+00	 1.288333e+00	 1.430226e+01
1	 1.548190e+00	 1.151407e+00	 7.815783e+00
1	 1.525560e+00	 1.181227e+00	 8.763520e+00
1	 1.502327e+00	 1.210637e+00	 1.012168e+01
1	 1.478503e+00	 1.239621e+00	 1.185853e+01
1	 1.454098e+00	 1.268160e+00	 1.393391e+01
1	 1.429125e+00	 1.296237e+00	 1.629939e+01
1	 1.557630e+00	 1.158428e+00	 9.855171e+00
1	 1.534862e+00	 1.188429e+00	 1.078684e+01
1	 1.511488e+00	 1.218019e+00	 1.208924e+01
1	 1.487518e+00	 1.247179e+00	 1.375874e+01
1	 1.462964e+00	 1.275892e+00	 1.578448e+01
1	 1.437840e+00	 1.304141e+00	 1.814843e+01
1	 1.394269e+00	 1.264621e+00	 7.405786e+00
1	 1.369365e+00	 1.291547e+00	 9.965398e+00
1	 1.343933e+00	 1.317989e+00	 1.224647e+01
1	 1.317989e+00	 1.343933e+00	 1.433818e+01
1	 1.291547e+00	 1.369365e+00	 1.634312e+01
1	 1.264621e+00	 1.394269e+00	 1.837662e+01
1	 1.402983e+00	 1.272525e+00	 9.857155e+00
1	 1.377923e+00	 1.299619e+00	 1.236012e+01
1	 1.352333e+00	 1.326227e+00	 1.467576e+01
1	 1.326227e+00	 1.352333e+00	 1.685061e+01
1	 1.299619e+00	 1.377923e+00	 1.894033e+01
1	 1.272525e+00	 1.402983e+00	 2.100935e+01
1	 1.411697e+00	 1.280429e+00	 1.215541e+01
1	 1.386482e+00	 1.307691e+00	 1.463439e+01
1	 1.360733e+00	 1.334464e+00	 1.700328e+01
1	 1.334464e+00	 1.360733e+00	 1.926389e+01
1	 1.307691e+00	 1.386482e+00	 2.142314e+01
1	 1.280429e+00	 1.411697e+00	 2.349287e+01
1	 1.420411e+00	 1.288333e+00	 1.430226e+01
1	 1.395040e+00	 1.315763e+00	 1.678903e+01
1	 1.369132e+00	 1.342701e+00	 1.922968e+01
1	 1.342701e+00	 1.369132e+00	 2.157937e+01
1	 1.315763e+00	 1.395040e+00	 2.379441e+01
1	 1.288333e+00	 1.420411e+00	 2.583245e+01
1	 1.429125e+00	 1.296237e+00	 1.629939e+01
1	 1.403599e+00	 1.323835e+00	 1.882482e+01
1	 1.377532e+00	 1.350939e+00	 2.135562e+01
1	 1.350939e+00	 1.377532e+00	 2.379834e+01
1	 1.323835e+00	 1.403599e+00	 2.605694e+01
1	 1.296237e+00	 1.429125e+00	 2.803324e+01
1	 1.437840e+00	 1.304141e+00	 1.814843e+01
1	 1.412157e+00	 1.331908e+00	 2.074252e+01
1	 1.385931e+00	 1.359176e+00	 2.338174e+01
1	 1.359176e+00	 1.385931e+00	 2.592211e+01
1	 1.331908e+00	 1.412157e+00	 2.821346e+01
1	 1.304141e+00	 1.437840e+00	 3.010025e+01
1	 1.264621e+00	 1.394269e+00	 1.837662e+01
1	 1.237229e+00	 1.418632e+00	 2.019895e+01
1	 1.209386e+00	 1.442442e+00	 2.141627e+01
1	 1.181109e+00	 1.465685e+00	 2.191764e+01
1	 1.152416e+00	 1.488351e+00	 2.158683e+01
1	 1.123324e+00	 1.510429e+00	 2.030315e+01
1	 1.272525e+00	 1.402983e+00	 2.100935e+01
1	 1.244962e+00	 1.427498e+00	 2.275366e+01
1	 1.216945e+00	 1.451457e+00	 2.379087e+01
1	 1.188491e+00	 1.474846e+00	 2.407487e+01
1	 1.159619e+00	 1.497653e+00	 2.356075e+01
1	 1.130345e+00	 1.519869e+00	 2.220512e+01
1	 1.280429e+00	 1.411697e+00	 2.349287e+01
1	 1.252694e+00	 1.436365e+00	 2.512482e+01
1	 1.224503e+00	 1.460472e+00	 2.596811e+01
1	 1.195873e+00	 1.484006e+00	 2.603962e+01
1	 1.166821e+00	 1.506956e+00	 2.536338e+01
1	 1.137366e+00	 1.529309e+00	 2.397040e+01
1	 1.288333e+00	 1.420411e+00	 2.583245e+01
1	 1.260427e+00	 1.445231e+00	 2.731935e+01
1	 1.232062e+00	 1.469487e+00	 2.795414e+01
1	 1.203255e+00	 1.493167e+00	 2.781491e+01
1	 1.174024e+00	 1.516258e+00	 2.699230e+01
1	 1.144387e+00	 1.538749e+00	 2.558887e+01
1	 1.296237e+00	 1.429125e+00	 2.803324e+01
1	 1.268160e+00	 1.454098e+00	 2.934399e+01
1	 1.239621e+00	 1.478503e+00	 2.975497e+01
1	 1.210637e+00	 1.502327e+00	 2.940372e+01
1	 1.181227e+00	 1.525560e+00	 2.844516e+01
1	 1.151407e+00	 1.548190e+00	 2.705063e+01
1	 1.304141e+00	 1.437840e+00	 3.010025e+01
1	 1.275892e+00	 1.462964e+00	 3.120533e+01
1	 1.247179e+00	 1.487518e+00	 3.137647e+01
1	 1.218019e+00	 1.511488e+00	 3.080893e+01
1	 1.188429e+00	 1.534862e+00	 2.971965e+01
1	 1.158428e+00	 1.557630e+00	 2.834601e+01
1	 1.123324e+00	 1.510429e+00	 2.030315e+01
1	 1.093851e+00	 1.531908e+00	 1.866237e+01
1	 1.064016e+00	 1.552779e+00	 1.741724e+01
1	 1.033837e+00	 1.573033e+00	 1.668041e+01
1	 1.003334e+00	 1.592662e+00	 1.656499e+01
1	 9.725246e-01	 1.611660e+00	 1.718384e+01
1	 1.130345e+00	 1.519869e+00	 2.220512e+01
1	 1.100688e+00	 1.541482e+00	 2.066290e+01
1	 1.070666e+00	 1.562484e+00	 1.964367e+01
1	 1.040299e+00	 1.582864e+00	 1.918231e+01
1	 1.009605e+00	 1.602617e+00	 1.930701e+01
1	 9.786028e-01	 1.621733e+00	 2.003908e+01
1	 1.137366e+00	 1.529309e+00	 2.397040e+01
1	 1.107525e+00	 1.551057e+00	 2.254688e+01
1	 1.077317e+00	 1.572188e+00	 2.174192e+01
1	 1.046760e+00	 1.592696e+00	 2.152634e+01
1	 1.015876e+00	 1.612571e+00	 2.185829e+01
1	 9.846811e-01	 1.631806e+00	 2.268355e+01
1	 1.144387e+00	 1.538749e+00	 2.558887e+01
1	 1.114361e+00	 1.560631e+00	 2.429834e+01
1	 1.083967e+00	 1.581893e+00	 2.369606e+01
1	 1.053222e+00	 1.602527e+00	 2.370221e+01
1	 1.022146e+00	 1.622525e+00	 2.421951e+01
1	 9.907594e-01	 1.641879e+00	 2.513397e+01
1	 1.151407e+00	 1.548190e+00	 2.705063e+01
1	 1.121198e+00	 1.570206e+00	 2.590168e+01
1	 1.090617e+00	 1.591598e+00	 2.549053e+01
1	 1.059683e+00	 1.612359e+00	 2.569986e+01
1	 1.028417e+00	 1.632479e+00	 2.639134e+01
1	 9.968377e-01	 1.651952e+00	 2.740662e+01
1	 1.158428e+00	 1.557630e+00	 2.834601e+01
1	 1.128034e+00	 1.579780e+00	 2.734171e+01
1	 1.097267e+00	 1.601303e+00	 2.711015e+01
1	 1.066145e+00	 1.622190e+00	 2.750950e+01
1	 1.034688e+00	 1.642433e+00	 2.837443e+01
1	 1.002916e+00	 1.662025e+00	 2.951740e+01
1	 9.725246e-01	 1.611660e+00	 1.718384e+01
1	 9.414289e-01	 1.630020e+00	 1.803599e+01
1	 9.100664e-01	 1.647735e+00	 1.850264e+01
1	 8.784566e-01	 1.664802e+00	 1.852231e+01
1	 8.466191e-01	 1.681216e+00	 1.803789e+01
1	 8.145735e-01	 1.696975e+00	 1.699676e+01
1	 9.786028e-01	 1.621733e+00	 2.003908e+01
1	 9.473129e-01	 1.640207e+00	 2.082860e+01
1	 9.157543e-01	 1.658034e+00	 2.112229e+01
1	 8.839469e-01	 1.675207e+00	 2.093902e+01
1	 8.519104e-01	 1.691724e+00	 2.030777e+01
1	 8.196646e-01	 1.707581e+00	 1.926730e+01
1	 9.846811e-01	 1.631806e+00	 2.268355e+01
1	 9.531968e-01	 1.650395e+00	 2.343821e+01
1	 9.214423e-01	 1.668332e+00	 2.363897e+01
1	 8.894373e-01	 1.685612e+00	 2.335454e+01
1	 8.572018e-01	 1.702232e+00	 2.266763e+01
1	 8.247556e-01	 1.718187e+00	 2.167425e+01
1	 9.907594e-01	 1.641879e+00	 2.513397e+01
1	 9.590807e-01	 1.660583e+00	 2.589466e+01
1	 9.271302e-01	 1.678630e+00	 2.608544e+01
1	 8.949277e-01	 1.696017e+00	 2.579494e+01
1	 8.624932e-01	 1.712739e+00	 2.512781e+01
1	 8.298467e-01	 1.728793e+00	 2.420384e+01
1	 9.968377e-01	 1.651952e+00	 2.740662e+01
1	 9.649647e-01	 1.670770e+00	 2.822708e+01
1	 9.328181e-01	 1.688929e+00	 2.849368e+01
1	 9.004180e-01	 1.706422e+00	 2.828565e+01
1	 8.677845e-01	 1.723247e+00	 2.769841e+01
1	 8.349378e-01	 1.739399e+00	 2.684262e+01
1	 1.002916e+00	 1.662025e+00	 2.951740e+01
1	 9.708486e-01	 1.680958e+00	 3.046388e+01
1	 9.385060e-01	 1.699227e+00	 3.089487e+01
1	 9.059084e-01	 1.716827e+00	 3.085148e+01
1	 8.730759e-01	 1.733754e+00	 3.038925e+01
1	 8.400289e-01	 1.750005e+00	 2.957748e+01
1	 8.145735e-01	 1.696975e+00	 1.699676e+01
1	 7.823395e-01	 1.712074e+00	 1.561341e+01
1	 7.499367e-01	 1.726513e+00	 1.422240e+01
1	 7.173845e-01	 1.740291e+00	 1.295227e+01
1	 6.847025e-01	 1.753407e+00	 1.192777e+01
1	 6.519099e-01	 1.765861e+00	 1.126935e+01
1	 8.196646e-01	 1.707581e+00	 1.926730e+01
1	 7.872291e-01	 1.722775e+00	 1.807051e+01
1	 7.546238e-01	 1.737304e+00	 1.695891e+01
1	 7.218682e-01	 1.751168e+00	 1.595486e+01
1	 6.889819e-01	 1.764365e+00	 1.507235e+01
1	 6.559843e-01	 1.776898e+00	 1.431721e+01
1	 8.247556e-01	 1.718187e+00	 2.167425e+01
1	 7.921187e-01	 1.733475e+00	 2.062079e+01
1	 7.593109e-01	 1.748095e+00	 1.966070e+01
1	 7.263519e-01	 1.762044e+00	 1.875149e+01
1	 6.932613e-01	 1.775324e+00	 1.783983e+01
1	 6.600588e-01	 1.787935e+00	 1.686217e+01
1	 8.298467e-01	 1.728793e+00	 2.420384e+01
1	 7.970083e-01	 1.744175e+00	 2.322892e+01
1	 7.639980e-01	 1.758885e+00	 2.228338e+01
1	 7.308355e-01	 1.772921e+00	 2.130046e+01
1	 6.975407e-01	 1.786283e+00	 2.020210e+01
1	 6.641332e-01	 1.798971e+00	 1.889973e+01
1	 8.349378e-01	 1.739399e+00	 2.684262e+01
1	 8.018980e-01	 1.754876e+00	 2.586040e+01
1	 7.686851e-01	 1.769676e+00	 2.478367e+01
1	 7.353192e-01	 1.783798e+00	 2.356111e+01
1	 7.018201e-01	 1.797242e+00	 2.213173e+01
1	 6.682076e-01	 1.810008e+00	 2.042551e+01
1	 8.400289e-01	 1.750005e+00	 2.957748e+01
1	 8.067876e-01	 1.765576e+00	 2.848158e+01
1	 7.733722e-01	 1.780467e+00	 2.711930e+01
1	 7.398028e-01	 1.794675e+00	 2.549374e+01
1	 7.060995e-01	 1.808201e+00	 2.360197e+01
1	 6.722821e-01	 1.821044e+00	 2.143523e+01
1	 6.519099e-01	 1.765861e+00	 1.126935e+01
1	 6.190257e-01	 1.777656e+00	 1.087534e+01
1	 5.860688e-01	 1.788792e+00	 1.049473e+01
1	 5.530578e-01	 1.799272e+00	 1.002385e+01
1	 5.200111e-01	 1.809100e+00	 9.364039e+00
1	 4.869467e-01	 1.818278e+00	 8.421932e+00
1	 6.559843e-01	 1.776898e+00	 1.431721e+01
1	 6.228946e-01	 1.788766e+00	 1.353509e+01
1	 5.897317e-01	 1.799972e+00	 1.258110e+01
1	 5.565144e-01	 1.810517e+00	 1.147565e+01
1	 5.232611e-01	 1.820406e+00	 1.024748e+01
1	 4.899901e-01	 1.829642e+00	 8.933225e+00
1	 6.600588e-01	 1.787935e+00	 1.686217e+01
1	 6.267635e-01	 1.799876e+00	 1.566468e+01
1	 5.933946e-01	 1.811152e+00	 1.420690e+01
1	 5.599710e-01	 1.821763e+00	 1.259630e+01
1	 5.265112e-01	 1.831713e+00	 1.095066e+01
1	 4.930336e-01	 1.841007e+00	 9.397141e+00
1	 6.641332e-01	 1.798971e+00	 1.889973e+01
1	 6.306324e-01	 1.810987e+00	 1.728287e+01
1	 5.970575e-01	 1.822332e+00	 1.540448e+01
1	 5.634276e-01	 1.833008e+00	 1.342274e+01
1	 5.297613e-01	 1.843020e+00	 1.150690e+01
1	 4.960770e-01	 1.852371e+00	 9.835952e+00
1	 6.682076e-01	 1.810008e+00	 2.042551e+01
1	 6.345013e-01	 1.822097e+00	 1.840796e+01
1	 6.007205e-01	 1.833512e+00	 1.620535e+01
1	 5.668842e-01	 1.844254e+00	 1.399101e+01
1	 5.330113e-01	 1.854327e+00	 1.194872e+01
1	 4.991204e-01	 1.863735e+00	 1.027139e+01
1	 6.722821e-01	 1.821044e+00	 2.143523e+01
1	 6.383702e-01	 1.833207e+00	 1.905782e+01
1	 6.043834e-01	 1.844692e+00	 1.664031e+01
1	 5.703408e-01	 1.855499e+00	 1.433627e+01
1	 5.362614e-01	 1.865634e+00	 1.230786e+01
1	 5.021638e-01	 1.875099e+00	 1.072465e+01
1	 4.869467e-01	 1.818278e+00	 8.421932e+00
1	 4.538825e-01	 1.826812e+00	 7.228933e+00
1	 4.208357e-01	 1.834707e+00	 6.038992e+00
1	 3.878235e-01	 1.841968e+00	 5.096799e+00
1	 3.548625e-01	 1.848601e+00	 4.646031e+00
1	 3.219690e-01	 1.854613e+00	 4.928155e+00
1	 4.899901e-01	 1.829642e+00	 8.933225e+00
1	 4.567192e-01	 1.838230e+00	 7.652746e+00
1	 4.234660e-01	 1.846174e+00	 6.592190e+00
1	 3.902474e-01	 1.853480e+00	 5.892384e+00
1	 3.570804e-01	 1.860155e+00	 5.692445e+00
1	 3.239813e-01	 1.866204e+00	 6.129137e+00
1	 4.930336e-01	 1.841007e+00	 9.397141e+00
1	 4.595560e-01	 1.849647e+00	 8.099792e+00
1	 4.260962e-01	 1.857641e+00	 7.175347e+00
1	 3.926713e-01	 1.864992e+00	 6.684961e+00
1	 3.592983e-01	 1.871708e+00	 6.687604e+00
1	 3.259936e-01	 1.877795e+00	 7.239847e+00
1	 4.960770e-01	 1.852371e+00	 9.835952e+00
1	 4.623928e-01	 1.861065e+00	 8.579911e+00
1	 4.287264e-01	 1.869108e+00	 7.789766e+00
1	 3.950952e-01	 1.876505e+00	 7.470720e+00
1	 3.615162e-01	 1.883262e+00	 7.625540e+00
1	 3.280059e-01	 1.889387e+00	 8.254647e+00
1	 4.991204e-01	 1.863735e+00	 1.027139e+01
1	 4.652295e-01	 1.872483e+00	 9.102703e+00
1	 4.313566e-01	 1.880575e+00	 8.436718e+00
1	 3.975191e-01	 1.888017e+00	 8.245943e+00
1	 3.637341e-01	 1.894816e+00	 8.500431e+00
1	 3.300182e-01	 1.900978e+00	 9.168036e+00
1	 5.021638e-01	 1.875099e+00	 1.072465e+01
1	 4.680663e-01	 1.883900e+00	 9.677536e+00
1	 4.339868e-01	 1.892042e+00	 9.117443e+00
1	 3.999430e-01	 1.899529e+00	 9.007003e+00
1	 3.659520e-01	 1.906370e+00	 9.306597e+00
1	 3.320305e-01	 1.912569e+00	 9.974649e+00
1	 3.219690e-01	 1.854613e+00	 4.928155e+00
1	 2.891587e-01	 1.860011e+00	 6.145037e+00
1	 2.564471e-01	 1.864802e+00	 8.088124e+00
1	 2.238491e-01	 1.868995e+00	 1.038635e+01
1	 1.913792e-01	 1.872599e+00	 1.267706e+01
1	 1.590514e-01	 1.875621e+00	 1.460740e+01
1	 3.239813e-01	 1.866204e+00	 6.129137e+00
1	 2.909659e-01	 1.871636e+00	 7.322020e+00
1	 2.580499e-01	 1.876457e+00	 9.091900e+00
1	 2.252482e-01	 1.880677e+00	 1.113032e+01
1	 1.925753e-01	 1.884303e+00	 1.313646e+01
1	 1.600455e-01	 1.887344e+00	 1.481827e+01
1	 3.259936e-01	 1.877795e+00	 7.239847e+00
1	 2.927732e-01	 1.883261e+00	 8.402460e+00
1	 2.596527e-01	 1.888112e+00	 1.002188e+01
1	 2.266472e-01	 1.892358e+00	 1.183614e+01
1	 1.937715e-01	 1.896006e+00	 1.359060e+01
1	 1.610396e-01	 1.899067e+00	 1.503882e+01
1	 3.280059e-01	 1.889387e+00	 8.254647e+00
1	 2.945804e-01	 1.894886e+00	 9.382040e+00
1	 2.612555e-01	 1.899767e+00	 1.087505e+01
1	 2.280463e-01	 1.904039e+00	 1.250242e+01
1	 1.949676e-01	 1.907710e+00	 1.404028e+01
1	 1.620336e-01	 1.910789e+00	 1.527291e+01
1	 3.300182e-01	 1.900978e+00	 9.168036e+00
1	 2.963877e-01	 1.906511e+00	 1.025655e+01
1	 2.628583e-01	 1.911422e+00	 1.164849e+01
1	 2.294453e-01	 1.915720e+00	 1.312780e+01
1	 1.961637e-01	 1.919414e+00	 1.448629e+01
1	 1.630277e-01	 1.922512e+00	 1.552431e+01
1	 3.320305e-01	 1.912569e+00	 9.974649e+00
1	 2.981949e-01	 1.918136e+00	 1.102187e+01
1	 2.644611e-01	 1.923077e+00	 1.233934e+01
1	 2.308444e-01	 1.927402e+00	 1.371096e+01
1	 1.973598e-01	 1.931118e+00	 1.492939e+01
1	 1.640218e-01	 1.934234e+00	 1.579668e+01
1	 1.590514e-01	 1.875621e+00	 1.460740e+01
1	 1.268792e-01	 1.878072e+00	 1.645038e+01
1	 9.487573e-02	 1.879960e+00	 1.941182e+01
1	 6.305341e-02	 1.881297e+00	 2.451877e+01
1	 3.142432e-02	 1.882091e+00	 3.275937e+01
1	 0.000000e+00	 1.882353e+00	 4.508022e+01
1	 1.600455e-01	 1.887344e+00	 1.481827e+01
1	 1.276722e-01	 1.889810e+00	 1.646344e+01
1	 9.546871e-02	 1.891710e+00	 1.921783e+01
1	 6.344750e-02	 1.893055e+00	 2.405649e+01
1	 3.162073e-02	 1.893854e+00	 3.191593e+01
1	 0.000000e+00	 1.894118e+00	 4.369170e+01
1	 1.610396e-01	 1.899067e+00	 1.503882e+01
1	 1.284652e-01	 1.901548e+00	 1.647152e+01
1	 9.606168e-02	 1.903460e+00	 1.899165e+01
1	 6.384158e-02	 1.904813e+00	 2.354957e+01
1	 3.181713e-02	 1.905617e+00	 3.105617e+01
1	 0.000000e+00	 1.905882e+00	 4.238053e+01
1	 1.620336e-01	 1.910789e+00	 1.527291e+01
1	 1.292582e-01	 1.913286e+00	 1.648076e+01
1	 9.665465e-02	 1.915210e+00	 1.873875e+01
1	 6.423566e-02	 1.916571e+00	 2.299944e+01
1	 3.201353e-02	 1.917380e+00	 3.017360e+01
1	 0.000000e+00	 1.917647e+00	 4.112795e+01
1	 1.630277e-01	 1.922512e+00	 1.552431e+01
1	 1.300512e-01	 1.925024e+00	 1.649714e+01
1	 9.724763e-02	 1.926959e+00	 1.846449e+01
1	 6.462975e-02	 1.928329e+00	 2.240749e+01
1	 3.220993e-02	 1.929143e+00	 2.926186e+01
1	 0.000000e+00	 1.929412e+00	 3.991567e+01
1	 1.640218e-01	 1.934234e+00	 1.579668e+01
1	 1.308442e-01	 1.936762e+00	 1.652649e+01
1	 9.784060e-02	 1.938709e+00	 1.817408e+01
1	 6.502383e-02	 1.940087e+00	 2.177508e+01
1	 3.240633e-02	 1.940906e+00	 2.831477e+01
1	 0.000000e+00	 1.941176e+00	 3.872583e+01
1	 1.941176e+00	 0.000000e+00	 8.667636e+00
1	 1.940906e+00	 3.240633e-02	 9.018265e+00
1	 1.940087e+00	 6.502383e-02	 9.844261e+00
1	 1.938709e+00	 9.784060e-02	 1.073761e+01
1	 1.936762e+00	 1.308442e-01	 1.130097e+01
1	 1.934234e+00	 1.640218e-01	 1.115024e+01
1	 1.952941e+00	 0.000000e+00	 9.442403e+00
1	 1.952669e+00	 3.260274e-02	 9.575241e+00
1	 1.951845e+00	 6.541792e-02	 1.029381e+01
1	 1.950459e+00	 9.843357e-02	 1.118991e+01
1	 1.948500e+00	 1.316372e-01	 1.186644e+01
1	 1.945957e+00	 1.650158e-01	 1.193998e+01
1	 1.964706e+00	 0.000000e+00	 9.871627e+00
1	 1.964432e+00	 3.279914e-02	 1.024483e+01
1	 1.963603e+00	 6.581200e-02	 1.101864e+01
1	 1.962209e+00	 9.902655e-02	 1.188309e+01
1	 1.960238e+00	 1.324302e-01	 1.253944e+01
1	 1.957680e+00	 1.660099e-01	 1.270228e+01
1	 1.976471e+00	 0.000000e+00	 9.989897e+00
1	 1.976195e+00	 3.299554e-02	 1.109202e+01
1	 1.975361e+00	 6.620608e-02	 1.210044e+01
1	 1.973958e+00	 9.961952e-02	 1.289995e+01
1	 1.971976e+00	 1.332232e-01	 1.338640e+01
1	 1.969402e+00	 1.670040e-01	 1.346783e+01
1	 1.988235e+00	 0.000000e+00	 9.830978e+00
1	 1.987958e+00	 3.319194e-02	 1.218026e+01
1	 1.987120e+00	 6.660017e-02	 1.361897e+01
1	 1.985708e+00	 1.002125e-01	 1.432133e+01
1	 1.983713e+00	 1.340162e-01	 1.447219e+01
1	 1.981125e+00	 1.679981e-01	 1.426663e+01
1	 2.000000e+00	 0.000000e+00	 9.427844e+00
1	 1.999721e+00	 3.338834e-02	 1.357150e+01
1	 1.998878e+00	 6.699425e-02	 1.565210e+01
1	 1.997458e+00	 1.008055e-01	 1.622616e+01
1	 1.995451e+00	 1.348092e-01	 1.586013e+01
1	 1.992848e+00	 1.689921e-01	 1.512793e+01
1	 1.934234e+00	 1.640218e-01	 1.115024e+01
1	 1.931118e+00	 1.973598e-01	 1.033899e+01
1	 1.927402e+00	 2.308444e-01	 9.311169e+00
1	 1.923077e+00	 2.644611e-01	 8.272622e+00
1	 1.918136e+00	 2.981949e-01	 7.418654e+00
1	 1.912569e+00	 3.320305e-01	 6.932614e+00
1	 1.945957e+00	 1.650158e-01	 1.193998e+01
1	 1.942821e+00	 1.985559e-01	 1.136196e+01
1	 1.939083e+00	 2.322435e-01	 1.048315e+01
1	 1.934732e+00	 2.660639e-01	 9.523175e+00
1	 1.929761e+00	 3.000022e-01	 8.690083e+00
1	 1.924161e+00	 3.340428e-01	 8.178801e+00
1	 1.957680e+00	 1.660099e-01	 1.270228e+01
1	 1.954525e+00	 1.997521e-01	 1.229931e+01
1	 1.950764e+00	 2.336425e-01	 1.158006e+01
1	 1.946387e+00	 2.676667e-01	 1.074584e+01
1	 1.941386e+00	 3.018094e-01	 9.987219e+00
1	 1.935752e+00	 3.360551e-01	 9.482517e+00
1	 1.969402e+00	 1.670040e-01	 1.346783e+01
1	 1.966229e+00	 2.009482e-01	 1.314160e+01
1	 1.962445e+00	 2.350416e-01	 1.256456e+01
1	 1.958042e+00	 2.692695e-01	 1.188826e+01
1	 1.953011e+00	 3.036166e-01	 1.125613e+01
1	 1.947343e+00	 3.380674e-01	 1.080228e+01
1	 1.981125e+00	 1.679981e-01	 1.426663e+01
1	 1.977933e+00	 2.021443e-01	 1.387964e+01
1	 1.974126e+00	 2.364406e-01	 1.340023e+01
1	 1.969697e+00	 2.708723e-01	 1.289934e+01
1	 1.964636e+00	 3.054239e-01	 1.244415e+01
1	 1.958935e+00	 3.400797e-01	 1.209760e+01
1	 1.992848e+00	 1.689921e-01	 1.512793e+01
1	 1.989636e+00	 2.033404e-01	 1.450445e+01
1	 1.985808e+00	 2.378397e-01	 1.405150e+01
1	 1.981352e+00	 2.724750e-01	 1.372914e+01
1	 1.976261e+00	 3.072311e-01	 1.349987e+01
1	 1.970526e+00	 3.420920e-01	 1.332891e+01
1	 1.912569e+00	 3.320305e-01	 6.932614e+00
1	 1.906370e+00	 3.659520e-01	 6.764169e+00
1	 1.899529e+00	 3.999430e-01	 6.699492e+00
1	 1.892042e+00	 4.339868e-01	 6.667544e+00
1	 1.883900e+00	 4.680663e-01	 6.598522e+00
1	 1.875099e+00	 5.021638e-01	 6.424257e+00
1	 1.924161e+00	 3.340428e-01	 8.178801e+00
1	 1.917923e+00	 3.681699e-01	 7.995976e+00
1	 1.911042e+00	 4.023669e-01	 7.961596e+00
1	 1.903509e+00	 4.366171e-01	 7.980892e+00
1	 1.895318e+00	 4.709031e-01	 7.960972e+00
1	 1.886464e+00	 5.052072e-01	 7.811369e+00
1	 1.935752e+00	 3.360551e-01	 9.482517e+00
1	 1.929477e+00	 3.703878e-01	 9.277872e+00
1	 1.922554e+00	 4.047908e-01	 9.239078e+00
1	 1.914975e+00	 4.392473e-01	 9.264933e+00
1	 1.906735e+00	 4.737398e-01	 9.256063e+00
1	 1.897828e+00	 5.082506e-01	 9.115505e+00
1	 1.947343e+00	 3.380674e-01	 1.080228e+01
1	 1.941031e+00	 3.726057e-01	 1.058583e+01
1	 1.934066e+00	 4.072147e-01	 1.052072e+01
1	 1.926442e+00	 4.418775e-01	 1.051631e+01
1	 1.918153e+00	 4.765766e-01	 1.048304e+01
1	 1.909192e+00	 5.112941e-01	 1.033294e+01
1	 1.958935e+00	 3.400797e-01	 1.209760e+01
1	 1.952585e+00	 3.748236e-01	 1.189637e+01
1	 1.945579e+00	 4.096386e-01	 1.179557e+01
1	 1.937909e+00	 4.445077e-01	 1.173175e+01
1	 1.929571e+00	 4.794134e-01	 1.164116e+01
1	 1.920556e+00	 5.143375e-01	 1.146002e+01
1	 1.970526e+00	 3.420920e-01	 1.332891e+01
1	 1.964138e+00	 3.770414e-01	 1.318661e+01
1	 1.957091e+00	 4.120625e-01	 1.305294e+01
1	 1.949376e+00	 4.471380e-01	 1.290806e+01
1	 1.940988e+00	 4.822501e-01	 1.272970e+01
1	 1.931921e+00	 5.173809e-01	 1.249321e+01
1	 1.875099e+00	 5.021638e-01	 6.424257e+00
1	 1.865634e+00	 5.362614e-01	 6.125977e+00
1	 1.855499e+00	 5.703408e-01	 5.770815e+00
1	 1.844692e+00	 6.043834e-01	 5.420647e+00
1	 1.833207e+00	 6.383702e-01	 5.136712e+00
1	 1.821044e+00	 6.722821e-01	 4.979275e+00
1	 1.886464e+00	 5.052072e-01	 7.811369e+00
1	 1.876941e+00	 5.395115e-01	 7.488161e+00
1	 1.866745e+00	 5.737974e-01	 7.066658e+00
1	 1.855871e+00	 6.080463e-01	 6.638168e+00
1	 1.844318e+00	 6.422391e-01	 6.294672e+00
1	 1.832081e+00	 6.763565e-01	 6.128358e+00
1	 1.897828e+00	 5.082506e-01	 9.115505e+00
1	 1.888248e+00	 5.427615e-01	 8.784480e+00
1	 1.877990e+00	 5.772540e-01	 8.336354e+00
1	 1.867051e+00	 6.117093e-01	 7.876222e+00
1	 1.855428e+00	 6.461080e-01	 7.511030e+00
1	 1.843118e+00	 6.804309e-01	 7.349067e+00
1	 1.909192e+00	 5.112941e-01	 1.033294e+01
1	 1.899554e+00	 5.460116e-01	 1.000546e+01
1	 1.889236e+00	 5.807107e-01	 9.565076e+00
1	 1.878231e+00	 6.153722e-01	 9.115304e+00
1	 1.866538e+00	 6.499770e-01	 8.762556e+00
1	 1.854154e+00	 6.845054e-01	 8.615672e+00
1	 1.920556e+00	 5.143375e-01	 1.146002e+01
1	 1.910861e+00	 5.492617e-01	 1.114185e+01
1	 1.900481e+00	 5.841673e-01	 1.073835e+01
1	 1.889411e+00	 6.190351e-01	 1.033637e+01
1	 1.877649e+00	 6.538459e-01	 1.002657e+01
1	 1.865191e+00	 6.885798e-01	 9.903052e+00
1	 1.931921e+00	 5.173809e-01	 1.249321e+01
1	 1.922168e+00	 5.525118e-01	 1.218461e+01
1	 1.911726e+00	 5.876239e-01	 1.184204e+01
1	 1.900591e+00	 6.226980e-01	 1.152083e+01
1	 1.888759e+00	 6.577148e-01	 1.128091e+01
1	 1.876228e+00	 6.926543e-01	 1.118668e+01
1	 1.821044e+00	 6.722821e-01	 4.979275e+00
1	 1.808201e+00	 7.060995e-01	 5.065436e+00
1	 1.794675e+00	 7.398028e-01	 5.421133e+00
1	 1.780467e+00	 7.733722e-01	 5.964092e+00
1	 1.765576e+00	 8.067876e-01	 6.605769e+00
1	 1.750005e+00	 8.400289e-01	 7.251619e+00
1	 1.832081e+00	 6.763565e-01	 6.128358e+00
1	 1.819159e+00	 7.103789e-01	 6.271221e+00
1	 1.805552e+00	 7.442865e-01	 6.725437e+00
1	 1.791257e+00	 7.780593e-01	 7.381845e+00
1	 1.776277e+00	 8.116772e-01	 8.122900e+00
1	 1.760611e+00	 8.451200e-01	 8.823047e+00
1	 1.843118e+00	 6.804309e-01	 7.349067e+00
1	 1.830118e+00	 7.146583e-01	 7.522520e+00
1	 1.816429e+00	 7.487701e-01	 8.018049e+00
1	 1.802048e+00	 7.827464e-01	 8.718891e+00
1	 1.786977e+00	 8.165668e-01	 9.498639e+00
1	 1.771217e+00	 8.502111e-01	 1.022163e+01
1	 1.854154e+00	 6.845054e-01	 8.615672e+00
1	 1.841077e+00	 7.189377e-01	 8.793279e+00
1	 1.827305e+00	 7.532538e-01	 9.275303e+00
1	 1.812839e+00	 7.874335e-01	 9.956335e+00
1	 1.797678e+00	 8.214564e-01	 1.072090e+01
1	 1.781823e+00	 8.553021e-01	 1.144378e+01
1	 1.865191e+00	 6.885798e-01	 9.903052e+00
1	 1.852036e+00	 7.232171e-01	 1.005806e+01
1	 1.838182e+00	 7.577374e-01	 1.047409e+01
1	 1.823629e+00	 7.921206e-01	 1.107573e+01
1	 1.808378e+00	 8.263461e-01	 1.177788e+01
1	 1.792429e+00	 8.603932e-01	 1.248598e+01
1	 1.876228e+00	 6.926543e-01	 1.118668e+01
1	 1.862995e+00	 7.274964e-01	 1.129202e+01
1	 1.849059e+00	 7.622211e-01	 1.159186e+01
1	 1.834420e+00	 7.968077e-01	 1.205906e+01
1	 1.819079e+00	 8.312357e-01	 1.265806e+01
1	 1.803035e+00	 8.654843e-01	 1.334482e+01
1	 1.750005e+00	 8.400289e-01	 7.251619e+00
1	 1.733754e+00	 8.730759e-01	 7.675294e+00
1	 1.716827e+00	 9.059084e-01	 7.787321e+00
1	 1.699227e+00	 9.385060e-01	 7.703180e+00
1	 1.680958e+00	 9.708486e-01	 7.550071e+00
1	 1.662025e+00	 1.002916e+00	 7.466454e+00
1	 1.760611e+00	 8.451200e-01	 8.823047e+00
1	 1.744262e+00	 8.783673e-01	 9.263434e+00
1	 1.727232e+00	 9.113987e-01	 9.389529e+00
1	 1.709525e+00	 9.441939e-01	 9.325916e+00
1	 1.691145e+00	 9.767325e-01	 9.209380e+00
1	 1.672097e+00	 1.008994e+00	 9.188390e+00
1	 1.771217e+00	 8.502111e-01	 1.022163e+01
1	 1.754770e+00	 8.836586e-01	 1.069380e+01
1	 1.737637e+00	 9.168891e-01	 1.088657e+01
1	 1.719824e+00	 9.498818e-01	 1.091474e+01
1	 1.701333e+00	 9.826164e-01	 1.090460e+01
1	 1.682170e+00	 1.015073e+00	 1.099347e+01
1	 1.781823e+00	 8.553021e-01	 1.144378e+01
1	 1.765277e+00	 8.889500e-01	 1.196980e+01
1	 1.748042e+00	 9.223794e-01	 1.228468e+01
1	 1.730122e+00	 9.555697e-01	 1.247483e+01
1	 1.711521e+00	 9.885004e-01	 1.263633e+01
1	 1.692243e+00	 1.021151e+00	 1.287453e+01
1	 1.792429e+00	 8.603932e-01	 1.248598e+01
1	 1.775785e+00	 8.942414e-01	 1.309479e+01
1	 1.758447e+00	 9.278698e-01	 1.358994e+01
1	 1.740420e+00	 9.612577e-01	 1.401124e+01
1	 1.721708e+00	 9.943843e-01	 1.440515e+01
1	 1.702316e+00	 1.027229e+00	 1.482462e+01
1	 1.803035e+00	 8.654843e-01	 1.334482e+01
1	 1.786292e+00	 8.995327e-01	 1.407202e+01
1	 1.768852e+00	 9.333601e-01	 1.480828e+01
1	 1.750719e+00	 9.669456e-01	 1.552889e+01
1	 1.731896e+00	 1.000268e+00	 1.621162e+01
1	 1.712389e+00	 1.033307e+00	 1.683690e+01
1	 1.662025e+00	 1.002916e+00	 7.466454e+00
1	 1.642433e+00	 1.034688e+00	 7.594256e+00
1	 1.622190e+00	 1.066145e+00	 7.946335e+00
1	 1.601303e+00	 1.097267e+00	 8.474224e+00
1	 1.579780e+00	 1.128034e+00	 9.127722e+00
1	 1.557630e+00	 1.158428e+00	 9.855171e+00
1	 1.672097e+00	 1.008994e+00	 9.188390e+00
1	 1.652387e+00	 1.040959e+00	 9.391665e+00
1	 1.632022e+00	 1.072606e+00	 9.808660e+00
1	 1.611008e+00	 1.103917e+00	 1.038670e+01
1	 1.589354e+00	 1.134871e+00	 1.107247e+01
1	 1.567070e+00	 1.165449e+00	 1.181234e+01
1	 1.682170e+00	 1.015073e+00	 1.099347e+01
1	 1.662341e+00	 1.047230e+00	 1.128419e+01
1	 1.641853e+00	 1.079068e+00	 1.175278e+01
1	 1.620713e+00	 1.110567e+00	 1.235539e+01
1	 1.598929e+00	 1.141707e+00	 1.304996e+01
1	 1.576510e+00	 1.172470e+00	 1.379653e+01
1	 1.692243e+00	 1.021151e+00	 1.287453e+01
1	 1.672296e+00	 1.053501e+00	 1.325808e+01
1	 1.651685e+00	 1.085529e+00	 1.376340e+01
1	 1.630418e+00	 1.117217e+00	 1.436827e+01
1	 1.608503e+00	 1.148544e+00	 1.505603e+01
1	 1.585950e+00	 1.179490e+00	 1.581574e+01
1	 1.702316e+00	 1.027229e+00	 1.482462e+01
1	 1.682250e+00	 1.059771e+00	 1.529991e+01
1	 1.661516e+00	 1.091991e+00	 1.582557e+01
1	 1.640123e+00	 1.123867e+00	 1.641361e+01
1	 1.618078e+00	 1.155381e+00	 1.708661e+01
1	 1.595390e+00	 1.186511e+00	 1.787781e+01
1	 1.712389e+00	 1.033307e+00	 1.683690e+01
1	 1.692204e+00	 1.066042e+00	 1.739657e+01
1	 1.671348e+00	 1.098452e+00	 1.792472e+01
1	 1.649827e+00	 1.130517e+00	 1.847994e+01
1	 1.627652e+00	 1.162217e+00	 1.913773e+01
1	 1.604831e+00	 1.193532e+00	 1.999039e+01
1	 1.557630e+00	 1.158428e+00	 9.855171e+00
1	 1.534862e+00	 1.188429e+00	 1.078684e+01
1	 1.511488e+00	 1.218019e+00	 1.208924e+01
1	 1.487518e+00	 1.247179e+00	 1.375874e+01
1	 1.462964e+00	 1.275892e+00	 1.578448e+01
1	 1.437840e+00	 1.304141e+00	 1.814843e+01
1	 1.567070e+00	 1.165449e+00	 1.181234e+01
1	 1.544164e+00	 1.195632e+00	 1.272668e+01
1	 1.520648e+00	 1.225401e+00	 1.398710e+01
1	 1.496533e+00	 1.254738e+00	 1.561153e+01
1	 1.471831e+00	 1.283625e+00	 1.761077e+01
1	 1.446554e+00	 1.312045e+00	 1.998836e+01
1	 1.576510e+00	 1.172470e+00	 1.379653e+01
1	 1.553467e+00	 1.202834e+00	 1.471265e+01
1	 1.529809e+00	 1.232783e+00	 1.596357e+01
1	 1.505548e+00	 1.262297e+00	 1.757596e+01
1	 1.480697e+00	 1.291358e+00	 1.956744e+01
1	 1.455268e+00	 1.319949e+00	 2.194643e+01
1	 1.585950e+00	 1.179490e+00	 1.581574e+01
1	 1.562769e+00	 1.210037e+00	 1.676306e+01
1	 1.538969e+00	 1.240165e+00	 1.803952e+01
1	 1.514564e+00	 1.269855e+00	 1.966790e+01
1	 1.489564e+00	 1.299091e+00	 2.165808e+01
1	 1.463982e+00	 1.327852e+00	 2.400689e+01
1	 1.595390e+00	 1.186511e+00	 1.787781e+01
1	 1.572071e+00	 1.217240e+00	 1.889582e+01
1	 1.548130e+00	 1.247547e+00	 2.023533e+01
1	 1.523579e+00	 1.277414e+00	 2.190284e+01
1	 1.498430e+00	 1.306823e+00	 2.388617e+01
1	 1.472696e+00	 1.335756e+00	 2.615439e+01
1	 1.604831e+00	 1.193532e+00	 1.999039e+01
1	 1.581373e+00	 1.224442e+00	 2.112838e+01
1	 1.557291e+00	 1.254929e+00	 2.257088e+01
1	 1.532594e+00	 1.284973e+00	 2.429591e+01
1	 1.507297e+00	 1.314556e+00	 2.625513e+01
1	 1.481411e+00	 1.343660e+00	 2.837393e+01
1	 1.437840e+00	 1.304141e+00	 1.814843e+01
1	 1.412157e+00	 1.331908e+00	 2.074252e+01
1	 1.385931e+00	 1.359176e+00	 2.338174e+01
1	 1.359176e+00	 1.385931e+00	 2.592211e+01
1	 1.331908e+00	 1.412157e+00	 2.821346e+01
1	 1.304141e+00	 1.437840e+00	 3.010025e+01
1	 1.446554e+00	 1.312045e+00	 1.998836e+01
1	 1.420716e+00	 1.339980e+00	 2.264404e+01
1	 1.394331e+00	 1.367414e+00	 2.536070e+01
1	 1.367414e+00	 1.394331e+00	 2.795427e+01
1	 1.339980e+00	 1.420716e+00	 3.023230e+01
1	 1.312045e+00	 1.446554e+00	 3.199498e+01
1	 1.455268e+00	 1.319949e+00	 2.194643e+01
1	 1.429274e+00	 1.348052e+00	 2.460827e+01
1	 1.402731e+00	 1.375651e+00	 2.731740e+01
1	 1.375651e+00	 1.402731e+00	 2.987219e+01
1	 1.348052e+00	 1.429274e+00	 3.206295e+01
1	 1.319949e+00	 1.455268e+00	 3.367303e+01
1	 1.463982e+00	 1.327852e+00	 2.400689e+01
1	 1.437833e+00	 1.356124e+00	 2.660206e+01
1	 1.411130e+00	 1.383889e+00	 2.921161e+01
1	 1.383889e+00	 1.411130e+00	 3.163846e+01
1	 1.356124e+00	 1.437833e+00	 3.368028e+01
1	 1.327852e+00	 1.463982e+00	 3.513058e+01
1	 1.472696e+00	 1.335756e+00	 2.615439e+01
1	 1.446391e+00	 1.364196e+00	 2.859302e+01
1	 1.419530e+00	 1.392126e+00	 3.100401e+01
1	 1.392126e+00	 1.419530e+00	 3.321651e+01
1	 1.364196e+00	 1.446391e+00	 3.505974e+01
1	 1.335756e+00	 1.472696e+00	 3.636390e+01
1	 1.481411e+00	 1.343660e+00	 2.837393e+01
1	 1.454950e+00	 1.372268e+00	 3.054956e+01
1	 1.427929e+00	 1.400364e+00	 3.265624e+01
1	 1.400364e+00	 1.427929e+00	 3.457066e+01
1	 1.372268e+00	 1.454950e+00	 3.617738e+01
1	 1.343660e+00	 1.481411e+00	 3.736933e+01
1	 1.304141e+00	 1.437840e+00	 3.010025e+01
1	 1.275892e+00	 1.462964e+00	 3.120533e+01
1	 1.247179e+00	 1.487518e+00	 3.137647e+01
1	 1.218019e+00	 1.511488e+00	 3.080893e+01
1	 1.188429e+00	 1.534862e+00	 2.971965e+01
1	 1.158428e+00	 1.557630e+00	 2.834601e+01
1	 1.312045e+00	 1.446554e+00	 3.199498e+01
1	 1.283625e+00	 1.471831e+00	 3.289431e+01
1	 1.254738e+00	 1.496533e+00	 3.286351e+01
1	 1.225401e+00	 1.520648e+00	 3.213913e+01
1	 1.195632e+00	 1.544164e+00	 3.098246e+01
1	 1.165449e+00	 1.567070e+00	 2.967796e+01
1	 1.319949e+00	 1.455268e+00	 3.367303e+01
1	 1.291358e+00	 1.480697e+00	 3.440911e+01
1	 1.262297e+00	 1.505548e+00	 3.427658e+01
1	 1.232783e+00	 1.529809e+00	 3.352254e+01
1	 1.202834e+00	 1.553467e+00	 3.241985e+01
1	 1.172470e+00	 1.576510e+00	 3.126538e+01
1	 1.327852e+00	 1.463982e+00	 3.513058e+01
1	 1.299091e+00	 1.489564e+00	 3.576677e+01
1	 1.269855e+00	 1.514564e+00	 3.564434e+01
1	 1.240165e+00	 1.538969e+00	 3.499084e+01
1	 1.210037e+00	 1.562769e+00	 3.405846e+01
1	 1.179490e+00	 1.585950e+00	 3.312245e+01
1	 1.335756e+00	 1.472696e+00	 3.636390e+01
1	 1.306823e+00	 1.498430e+00	 3.698392e+01
1	 1.277414e+00	 1.523579e+00	 3.699480e+01
1	 1.247547e+00	 1.548130e+00	 3.657496e+01
1	 1.217240e+00	 1.572071e+00	 3.592432e+01
1	 1.186511e+00	 1.595390e+00	 3.526304e+01
1	 1.343660e+00	 1.481411e+00	 3.736933e+01
1	 1.314556e+00	 1.507297e+00	 3.807678e+01
1	 1.284973e+00	 1.532594e+00	 3.835529e+01
1	 1.254929e+00	 1.557291e+00	 3.830511e+01
1	 1.224442e+00	 1.581373e+00	 3.804284e+01
1	 1.193532e+00	 1.604831e+00	 3.770068e+01
1	 1.158428e+00	 1.557630e+00	 2.834601e+01
1	 1.128034e+00	 1.579780e+00	 2.734171e+01
1	 1.097267e+00	 1.601303e+00	 2.711015e+01
1	 1.066145e+00	 1.622190e+00	 2.750950e+01
1	 1.034688e+00	 1.642433e+00	 2.837443e+01
1	 1.002916e+00	 1.662025e+00	 2.951740e+01
1	 1.165449e+00	 1.567070e+00	 2.967796e+01
1	 1.134871e+00	 1.589354e+00	 2.882732e+01
1	 1.103917e+00	 1.611008e+00	 2.874698e+01
1	 1.072606e+00	 1.632022e+00	 2.929053e+01
1	 1.040959e+00	 1.652387e+00	 3.028661e+01
1	 1.008994e+00	 1.672097e+00	 3.154022e+01
1	 1.172470e+00	 1.576510e+00	 3.126538e+01
1	 1.141707e+00	 1.598929e+00	 3.057766e+01
1	 1.110567e+00	 1.620713e+00	 3.059657e+01
1	 1.079068e+00	 1.641853e+00	 3.119804e+01
1	 1.047230e+00	 1.662341e+00	 3.223225e+01
1	 1.015073e+00	 1.682170e+00	 3.352482e+01
1	 1.179490e+00	 1.585950e+00	 3.312245e+01
1	 1.148544e+00	 1.608503e+00	 3.259312e+01
1	 1.117217e+00	 1.630418e+00	 3.264946e+01
1	 1.085529e+00	 1.651685e+00	 3.321617e+01
1	 1.053501e+00	 1.672296e+00	 3.419204e+01
1	 1.021151e+00	 1.692243e+00	 3.545092e+01
1	 1.186511e+00	 1.595390e+00	 3.526304e+01
1	 1.155381e+00	 1.618078e+00	 3.487407e+01
1	 1.123867e+00	 1.640123e+00	 3.489643e+01
1	 1.091991e+00	 1.661516e+00	 3.532946e+01
1	 1.059771e+00	 1.682250e+00	 3.614718e+01
1	 1.027229e+00	 1.702316e+00	 3.729872e+01
1	 1.193532e+00	 1.604831e+00	 3.770068e+01
1	 1.162217e+00	 1.627652e+00	 3.742090e+01
1	 1.130517e+00	 1.649827e+00	 3.732846e+01
1	 1.098452e+00	 1.671348e+00	 3.752281e+01
1	 1.066042e+00	 1.692204e+00	 3.807927e+01
1	 1.033307e+00	 1.712389e+00	 3.904889e+01
1	 1.002916e+00	 1.662025e+00	 2.951740e+01
1	 9.708486e-01	 1.680958e+00	 3.046388e+01
1	 9.385060e-01	 1.699227e+00	 3.089487e+01
1	 9.059084e-01	 1.716827e+00	 3.085148e+01
1	 8.730759e-01	 1.733754e+00	 3.038925e+01
1	 8.400289e-01	 1.750005e+00	 2.957748e+01
1	 1.008994e+00	 1.672097e+00	 3.154022e+01
1	 9.767325e-01	 1.691145e+00	 3.263254e+01
1	 9.441939e-01	 1.709525e+00	 3.326697e+01
1	 9.113987e-01	 1.727232e+00	 3.342405e+01
1	 8.783673e-01	 1.744262e+00	 3.309639e+01
1	 8.451200e-01	 1.760611e+00	 3.228837e+01
1	 1.015073e+00	 1.682170e+00	 3.352482e+01
1	 9.826164e-01	 1.701333e+00	 3.472858e+01
1	 9.498818e-01	 1.719824e+00	 3.555524e+01
1	 9.168891e-01	 1.737637e+00	 3.590861e+01
1	 8.836586e-01	 1.754770e+00	 3.570267e+01
1	 8.502111e-01	 1.771217e+00	 3.486174e+01
1	 1.021151e+00	 1.692243e+00	 3.545092e+01
1	 9.885004e-01	 1.711521e+00	 3.673225e+01
1	 9.555697e-01	 1.730122e+00	 3.774166e+01
1	 9.223794e-01	 1.748042e+00	 3.829029e+01
1	 8.889500e-01	 1.765277e+00	 3.819809e+01
1	 8.553021e-01	 1.781823e+00	 3.729450e+01
1	 1.027229e+00	 1.702316e+00	 3.729872e+01
1	 9.943843e-01	 1.721708e+00	 3.862427e+01
1	 9.612577e-01	 1.740420e+00	 3.980860e+01
1	 9.278698e-01	 1.758447e+00	 4.055457e+01
1	 8.942414e-01	 1.775785e+00	 4.057292e+01
1	 8.603932e-01	 1.792429e+00	 3.958363e+01
1	 1.033307e+00	 1.712389e+00	 3.904889e+01
1	 1.000268e+00	 1.731896e+00	 4.038583e+01
1	 9.669456e-01	 1.750719e+00	 4.173889e+01
1	 9.333601e-01	 1.768852e+00	 4.268726e+01
1	 8.995327e-01	 1.786292e+00	 4.281761e+01
1	 8.654843e-01	 1.803035e+00	 4.172618e+01
1	 8.400289e-01	 1.750005e+00	 2.957748e+01
1	 8.067876e-01	 1.765576e+00	 2.848158e+01
1	 7.733722e-01	 1.780467e+00	 2.711930e+01
1	 7.398028e-01	 1.794675e+00	 2.549374e+01
1	 7.060995e-01	 1.808201e+00	 2.360197e+01
1	 6.722821e-01	 1.821044e+00	 2.143523e+01
1	 8.451200e-01	 1.760611e+00	 3.228837e+01
1	 8.116772e-01	 1.776277e+00	 3.098999e+01
1	 7.780593e-01	 1.791257e+00	 2.923938e+01
1	 7.442865e-01	 1.805552e+00	 2.712080e+01
1	 7.103789e-01	 1.819159e+00	 2.471696e+01
1	 6.763565e-01	 1.832081e+00	 2.210865e+01
1	 8.502111e-01	 1.771217e+00	 3.486174e+01
1	 8.165668e-01	 1.786977e+00	 3.330852e+01
1	 7.827464e-01	 1.802048e+00	 3.112933e+01
1	 7.487701e-01	 1.816429e+00	 2.850443e+01
1	 7.146583e-01	 1.830118e+00	 2.561672e+01
1	 6.804309e-01	 1.843118e+00	 2.265073e+01
1	 8.553021e-01	 1.781823e+00	 3.729450e+01
1	 8.214564e-01	 1.797678e+00	 3.544207e+01
1	 7.874335e-01	 1.812839e+00	 3.280192e+01
1	 7.532538e-01	 1.827305e+00	 2.966486e+01
1	 7.189377e-01	 1.841077e+00	 2.632829e+01
1	 6.845054e-01	 1.854154e+00	 2.309444e+01
1	 8.603932e-01	 1.792429e+00	 3.958363e+01
1	 8.263461e-01	 1.808378e+00	 3.739544e+01
1	 7.921206e-01	 1.823629e+00	 3.426962e+01
1	 7.577374e-01	 1.838182e+00	 3.062186e+01
1	 7.232171e-01	 1.852036e+00	 2.687809e+01
1	 6.885798e-01	 1.865191e+00	 2.347196e+01
1	 8.654843e-01	 1.803035e+00	 4.172618e+01
1	 8.312357e-01	 1.819079e+00	 3.917332e+01
1	 7.968077e-01	 1.834420e+00	 3.554460e+01
1	 7.622211e-01	 1.849059e+00	 3.139469e+01
1	 7.274964e-01	 1.862995e+00	 2.729191e+01
1	 6.926543e-01	 1.876228e+00	 2.381475e+01
1	 6.722821e-01	 1.821044e+00	 2.143523e+01
1	 6.383702e-01	 1.833207e+00	 1.905782e+01
1	 6.043834e-01	 1.844692e+00	 1.664031e+01
1	 5.703408e-01	 1.855499e+00	 1.433627e+01
1	 5.362614e-01	 1.865634e+00	 1.230786e+01
1	 5.021638e-01	 1.875099e+00	 1.072465e+01
1	 6.763565e-01	 1.832081e+00	 2.210865e+01
1	 6.422391e-01	 1.844318e+00	 1.946248e+01
1	 6.080463e-01	 1.855871e+00	 1.696090e+01
1	 5.737974e-01	 1.866745e+00	 1.471168e+01
1	 5.395115e-01	 1.876941e+00	 1.282829e+01
1	 5.052072e-01	 1.886464e+00	 1.142913e+01
1	 6.804309e-01	 1.843118e+00	 2.265073e+01
1	 6.461080e-01	 1.855428e+00	 1.986471e+01
1	 6.117093e-01	 1.867051e+00	 1.742189e+01
1	 5.772540e-01	 1.877990e+00	 1.536673e+01
1	 5.427615e-01	 1.888248e+00	 1.374589e+01
1	 5.082506e-01	 1.897828e+00	 1.260790e+01
1	 6.845054e-01	 1.854154e+00	 2.309444e+01
1	 6.499770e-01	 1.866538e+00	 2.030049e+01
1	 6.153722e-01	 1.878231e+00	 1.805762e+01
1	 5.807107e-01	 1.889236e+00	 1.632988e+01
1	 5.460116e-01	 1.899554e+00	 1.507931e+01
1	 5.112941e-01	 1.909192e+00	 1.426618e+01
1	 6.885798e-01	 1.865191e+00	 2.347196e+01
1	 6.538459e-01	 1.877649e+00	 2.080493e+01
1	 6.190351e-01	 1.889411e+00	 1.890164e+01
1	 5.841673e-01	 1.900481e+00	 1.762894e+01
1	 5.492617e-01	 1.910861e+00	 1.684677e+01
1	 5.143375e-01	 1.920556e+00	 1.640906e+01
1	 6.926543e-01	 1.876228e+00	 2.381475e+01
1	 6.577148e-01	 1.888759e+00	 2.141233e+01
1	 6.226980e-01	 1.900591e+00	 1.998672e+01
1	 5.876239e-01	 1.911726e+00	 1.929107e+01
1	 5.525118e-01	 1.922168e+00	 1.906603e+01
1	 5.173809e-01	 1.931921e+00	 1.904153e+01
1	 5.021638e-01	 1.875099e+00	 1.072465e+01
1	 4.680663e-01	 1.883900e+00	 9.677536e+00
1	 4.339868e-01	 1.892042e+00	 9.117443e+00
1	 3.999430e-01	 1.899529e+00	 9.007003e+00
1	 3.659520e-01	 1.906370e+00	 9.306597e+00
1	 3.320305e-01	 1.912569e+00	 9.974649e+00
1	 5.052072e-01	 1.886464e+00	 1.142913e+01
1	 4.709031e-01	 1.895318e+00	 1.053741e+01
1	 4.366171e-01	 1.903509e+00	 1.007404e+01
1	 4.023669e-01	 1.911042e+00	 1.000607e+01
1	 3.681699e-01	 1.917923e+00	 1.029932e+01
1	 3.340428e-01	 1.924161e+00	 1.091859e+01
1	 5.082506e-01	 1.897828e+00	 1.260790e+01
1	 4.737398e-01	 1.906735e+00	 1.190488e+01
1	 4.392473e-01	 1.914975e+00	 1.154028e+01
1	 4.047908e-01	 1.922554e+00	 1.149161e+01
1	 3.703878e-01	 1.929477e+00	 1.173746e+01
1	 3.360551e-01	 1.935752e+00	 1.225763e+01
1	 5.112941e-01	 1.909192e+00	 1.426618e+01
1	 4.765766e-01	 1.918153e+00	 1.377353e+01
1	 4.418775e-01	 1.926442e+00	 1.350510e+01
1	 4.072147e-01	 1.934066e+00	 1.345465e+01
1	 3.726057e-01	 1.941031e+00	 1.362077e+01
1	 3.380674e-01	 1.947343e+00	 1.400672e+01
1	 5.143375e-01	 1.920556e+00	 1.640906e+01
1	 4.794134e-01	 1.929571e+00	 1.613715e+01
1	 4.445077e-01	 1.937909e+00	 1.595769e+01
1	 4.096386e-01	 1.945579e+00	 1.588645e+01
1	 3.748236e-01	 1.952585e+00	 1.594903e+01
1	 3.400797e-01	 1.958935e+00	 1.618045e+01
1	 5.173809e-01	 1.931921e+00	 1.904153e+01
1	 4.822501e-01	 1.940988e+00	 1.898963e+01
1	 4.471380e-01	 1.949376e+00	 1.888751e+01
1	 4.120625e-01	 1.957091e+00	 1.877846e+01
1	 3.770414e-01	 1.964138e+00	 1.872202e+01
1	 3.420920e-01	 1.970526e+00	 1.879307e+01
1	 3.320305e-01	 1.912569e+00	 9.974649e+00
1	 2.981949e-01	 1.918136e+00	 1.102187e+01
1	 2.644611e-01	 1.923077e+00	 1.233934e+01
1	 2.308444e-01	 1.927402e+00	 1.371096e+01
1	 1.973598e-01	 1.931118e+00	 1.492939e+01
1	 1.640218e-01	 1.934234e+00	 1.579668e+01
1	 3.340428e-01	 1.924161e+00	 1.091859e+01
1	 3.000022e-01	 1.929761e+00	 1.189050e+01
1	 2.660639e-01	 1.934732e+00	 1.311321e+01
1	 2.322435e-01	 1.939083e+00	 1.436443e+01
1	 1.985559e-01	 1.942821e+00	 1.543082e+01
1	 1.650158e-01	 1.945957e+00	 1.610861e+01
1	 3.360551e-01	 1.935752e+00	 1.225763e+01
1	 3.018094e-01	 1.941386e+00	 1.309719e+01
1	 2.676667e-01	 1.946387e+00	 1.416039e+01
1	 2.336425e-01	 1.950764e+00	 1.522163e+01
1	 1.997521e-01	 1.954525e+00	 1.606249e+01
1	 1.660099e-01	 1.957680e+00	 1.647249e+01
1	 3.380674e-01	 1.947343e+00	 1.400672e+01
1	 3.036166e-01	 1.953011e+00	 1.467073e+01
1	 2.692695e-01	 1.958042e+00	 1.551453e+01
1	 2.350416e-01	 1.962445e+00	 1.631208e+01
1	 2.009482e-01	 1.966229e+00	 1.684083e+01
1	 1.670040e-01	 1.969402e+00	 1.688277e+01
1	 3.400797e-01	 1.958935e+00	 1.618045e+01
1	 3.054239e-01	 1.964636e+00	 1.663924e+01
1	 2.708723e-01	 1.969697e+00	 1.720850e+01
1	 2.364406e-01	 1.974126e+00	 1.766458e+01
1	 2.021443e-01	 1.977933e+00	 1.778186e+01
1	 1.679981e-01	 1.981125e+00	 1.733400e+01
1	 3.420920e-01	 1.970526e+00	 1.879307e+01
1	 3.072311e-01	 1.976261e+00	 1.903017e+01
1	 2.724750e-01	 1.981352e+00	 1.927436e+01
1	 2.378397e-01	 1.985808e+00	 1.930728e+01
1	 2.033404e-01	 1.989636e+00	 1.890124e+01
1	 1.689921e-01	 1.992848e+00	 1.782086e+01
1	 1.640218e-01	 1.934234e+00	 1.579668e+01
1	 1.308442e-01	 1.936762e+00	 1.652649e+01
1	 9.784060e-02	 1.938709e+00	 1.817408e+01
1	 6.502383e-02	 1.940087e+00	 2.177508e+01
1	 3.240633e-02	 1.940906e+00	 2.831477e+01
1	 0.000000e+00	 1.941176e+00	 3.872583e+01
1	 1.650158e-01	 1.945957e+00	 1.610861e+01
1	 1.316372e-01	 1.948500e+00	 1.655943e+01
1	 9.843357e-02	 1.950459e+00	 1.784988e+01
1	 6.541792e-02	 1.951845e+00	 2.110146e+01
1	 3.260274e-02	 1.952669e+00	 2.738048e+01
1	 0.000000e+00	 1.952941e+00	 3.769570e+01
1	 1.660099e-01	 1.957680e+00	 1.647249e+01
1	 1.324302e-01	 1.960238e+00	 1.656587e+01
1	 9.902655e-02	 1.962209e+00	 1.745018e+01
1	 6.581200e-02	 1.963603e+00	 2.036938e+01
1	 3.279914e-02	 1.964432e+00	 2.650899e+01
1	 0.000000e+00	 1.964706e+00	 3.699315e+01
1	 1.670040e-01	 1.969402e+00	 1.688277e+01
1	 1.332232e-01	 1.971976e+00	 1.652095e+01
1	 9.961952e-02	 1.973958e+00	 1.694455e+01
1	 6.620608e-02	 1.975361e+00	 1.955591e+01
1	 3.299554e-02	 1.976195e+00	 2.569704e+01
1	 0.000000e+00	 1.976471e+00	 3.664602e+01
1	 1.679981e-01	 1.981125e+00	 1.733400e+01
1	 1.340162e-01	 1.983713e+00	 1.640037e+01
1	 1.002125e-01	 1.985708e+00	 1.630332e+01
1	 6.660017e-02	 1.987120e+00	 1.863863e+01
1	 3.319194e-02	 1.987958e+00	 2.494141e+01
1	 0.000000e+00	 1.988235e+00	 3.668152e+01
1	 1.689921e-01	 1.992848e+00	 1.782086e+01
1	 1.348092e-01	 1.995451e+00	 1.618044e+01
1	 1.008055e-01	 1.997458e+00	 1.549749e+01
1	 6.699425e-02	 1.998878e+00	 1.759565e+01
1	 3.338834e-02	 1.999721e+00	 2.423900e+01
1	 0.000000e+00	 2.000000e+00	 3.712620e+01
