patch_n	x	y	stress_yy
0	 0.000000e+00	 0.000000e+00	 3.190102e-01
0	 0.000000e+00	 7.407407e-02	-1.558333e-01
0	 0.000000e+00	 1.481481e-01	-3.539200e-01
0	 0.000000e+00	 2.222222e-01	-3.144517e-01
0	 0.000000e+00	 2.962963e-01	-7.663006e-02
0	 0.000000e+00	 3.703704e-01	 3.203432e-01
0	 7.407407e-02	 0.000000e+00	 6.401671e-01
0	 7.407407e-02	 7.407407e-02	 3.075461e-02
0	 7.407407e-02	 1.481481e-01	-2.991139e-01
0	 7.407407e-02	 2.222222e-01	-3.509585e-01
0	 7.407407e-02	 2.962963e-01	-1.262992e-01
0	 7.407407e-02	 3.703704e-01	 3.733438e-01
0	 1.481481e-01	 0.000000e+00	 7.812077e-01
0	 1.481481e-01	 7.407407e-02	 1.254708e-01
0	 1.481481e-01	 1.481481e-01	-2.607082e-01
0	 1.481481e-01	 2.222222e-01	-3.530247e-01
0	 1.481481e-01	 2.962963e-01	-1.271740e-01
0	 1.481481e-01	 3.703704e-01	 4.411485e-01
0	 2.222222e-01	 0.000000e+00	 7.792182e-01
0	 2.222222e-01	 7.407407e-02	 1.406012e-01
0	 2.222222e-01	 1.481481e-01	-2.460354e-01
0	 2.222222e-01	 2.222222e-01	-3.424191e-01
0	 2.222222e-01	 2.962963e-01	-1.102776e-01
0	 2.222222e-01	 3.703704e-01	 4.886615e-01
0	 2.962963e-01	 0.000000e+00	 6.712851e-01
0	 2.962963e-01	 7.407407e-02	 8.843195e-02
0	 2.962963e-01	 1.481481e-01	-2.624277e-01
0	 2.962963e-01	 2.222222e-01	-3.409105e-01
0	 2.962963e-01	 2.962963e-01	-1.066333e-01
0	 2.962963e-01	 3.703704e-01	 4.807870e-01
0	 3.703704e-01	 0.000000e+00	 4.944947e-01
0	 3.703704e-01	 7.407407e-02	-1.875097e-02
0	 3.703704e-01	 1.481481e-01	-3.172175e-01
0	 3.703704e-01	 2.222222e-01	-3.702677e-01
0	 3.703704e-01	 2.962963e-01	-1.472645e-01
0	 3.703704e-01	 3.703704e-01	 3.824293e-01
0	 0.000000e+00	 3.703704e-01	 3.203432e-01
0	 0.000000e+00	 4.444444e-01	 6.240843e-01
0	 0.000000e+00	 5.185185e-01	 6.180239e-01
0	 0.000000e+00	 5.925926e-01	 3.166816e-01
0	 0.000000e+00	 6.666667e-01	-2.654226e-01
0	 0.000000e+00	 7.407407e-01	-1.113769e+00
0	 7.407407e-02	 3.703704e-01	 3.733438e-01
0	 7.407407e-02	 4.444444e-01	 8.093572e-01
0	 7.407407e-02	 5.185185e-01	 8.423243e-01
0	 7.407407e-02	 5.925926e-01	 4.695201e-01
0	 7.407407e-02	 6.666667e-01	-3.117807e-01
0	 7.407407e-02	 7.407407e-01	-1.504303e+00
0	 1.481481e-01	 3.703704e-01	 4.411485e-01
0	 1.481481e-01	 4.444444e-01	 9.599350e-01
0	 1.481481e-01	 5.185185e-01	 1.010488e+00
0	 1.481481e-01	 5.925926e-01	 5.770784e-01
0	 1.481481e-01	 6.666667e-01	-3.560244e-01
0	 1.481481e-01	 7.407407e-01	-1.804550e+00
0	 2.222222e-01	 3.703704e-01	 4.886615e-01
0	 2.222222e-01	 4.444444e-01	 1.041892e+00
0	 2.222222e-01	 5.185185e-01	 1.095064e+00
0	 2.222222e-01	 5.925926e-01	 6.236822e-01
0	 2.222222e-01	 6.666667e-01	-3.967469e-01
0	 2.222222e-01	 7.407407e-01	-1.990718e+00
0	 2.962963e-01	 3.703704e-01	 4.807870e-01
0	 2.962963e-01	 4.444444e-01	 1.021303e+00
0	 2.962963e-01	 5.185185e-01	 1.068599e+00
0	 2.962963e-01	 5.925926e-01	 5.936573e-01
0	 2.962963e-01	 6.666667e-01	-4.325418e-01
0	 2.962963e-01	 7.407407e-01	-2.039017e+00
0	 3.703704e-01	 3.703704e-01	 3.824293e-01
0	 3.703704e-01	 4.444444e-01	 8.642423e-01
0	 3.703704e-01	 5.185185e-01	 9.036431e-01
0	 3.703704e-01	 5.925926e-01	 4.713291e-01
0	 3.703704e-01	 6.666667e-01	-4.620024e-01
0	 3.703704e-01	 7.407407e-01	-1.925654e+00
0	 0.000000e+00	 7.407407e-01	-1.113769e+00
0	 0.000000e+00	 8.148148e-01	-1.373221e+00
0	 0.000000e+00	 8.888889e-01	-2.357124e-01
0	 0.000000e+00	 9.629630e-01	 2.242671e+00
0	 0.000000e+00	 1.037037e+00	 6.005845e+00
0	 0.000000e+00	 1.111111e+00	 1.099772e+01
0	 7.407407e-02	 7.407407e-01	-1.504303e+00
0	 7.407407e-02	 8.148148e-01	-1.902523e+00
0	 7.407407e-02	 8.888889e-01	-3.113195e-01
0	 7.407407e-02	 9.629630e-01	 3.250973e+00
0	 7.407407e-02	 1.037037e+00	 8.766024e+00
0	 7.407407e-02	 1.111111e+00	 1.621550e+01
0	 1.481481e-01	 7.407407e-01	-1.804550e+00
0	 1.481481e-01	 8.148148e-01	-2.214241e+00
0	 1.481481e-01	 8.888889e-01	-1.412225e-02
0	 1.481481e-01	 9.629630e-01	 4.805150e+00
0	 1.481481e-01	 1.037037e+00	 1.225292e+01
0	 1.481481e-01	 1.111111e+00	 2.233854e+01
0	 2.222222e-01	 7.407407e-01	-1.990718e+00
0	 2.222222e-01	 8.148148e-01	-2.292026e+00
0	 2.222222e-01	 8.888889e-01	 5.998287e-01
0	 2.222222e-01	 9.629630e-01	 6.711794e+00
0	 2.222222e-01	 1.037037e+00	 1.607082e+01
0	 2.222222e-01	 1.111111e+00	 2.870385e+01
0	 2.962963e-01	 7.407407e-01	-2.039017e+00
0	 2.962963e-01	 8.148148e-01	-2.119530e+00
0	 2.962963e-01	 8.888889e-01	 1.474483e+00
0	 2.962963e-01	 9.629630e-01	 8.777499e+00
0	 2.962963e-01	 1.037037e+00	 1.982399e+01
0	 2.962963e-01	 1.111111e+00	 3.464844e+01
0	 3.703704e-01	 7.407407e-01	-1.925654e+00
0	 3.703704e-01	 8.148148e-01	-1.680404e+00
0	 3.703704e-01	 8.888889e-01	 2.553789e+00
0	 3.703704e-01	 9.629630e-01	 1.080886e+01
0	 3.703704e-01	 1.037037e+00	 2.311672e+01
0	 3.703704e-01	 1.111111e+00	 3.950932e+01
0	 0.000000e+00	 1.111111e+00	 1.099772e+01
0	 0.000000e+00	 1.185185e+00	 1.715484e+01
0	 0.000000e+00	 1.259259e+00	 2.453425e+01
0	 0.000000e+00	 1.333333e+00	 3.326069e+01
0	 0.000000e+00	 1.407407e+00	 4.345887e+01
0	 0.000000e+00	 1.481481e+00	 5.525351e+01
0	 7.407407e-02	 1.111111e+00	 1.621550e+01
0	 7.407407e-02	 1.185185e+00	 2.453116e+01
0	 7.407407e-02	 1.259259e+00	 3.269336e+01
0	 7.407407e-02	 1.333333e+00	 4.075664e+01
0	 7.407407e-02	 1.407407e+00	 4.877551e+01
0	 7.407407e-02	 1.481481e+00	 5.680453e+01
0	 1.481481e-01	 1.111111e+00	 2.233854e+01
0	 1.481481e-01	 1.185185e+00	 3.287138e+01
0	 1.481481e-01	 1.259259e+00	 4.165729e+01
0	 1.481481e-01	 1.333333e+00	 4.870027e+01
0	 1.481481e-01	 1.407407e+00	 5.400433e+01
0	 1.481481e-01	 1.481481e+00	 5.757347e+01
0	 2.222222e-01	 1.111111e+00	 2.870385e+01
0	 2.222222e-01	 1.185185e+00	 4.130104e+01
0	 2.222222e-01	 1.259259e+00	 5.051668e+01
0	 2.222222e-01	 1.333333e+00	 5.632391e+01
0	 2.222222e-01	 1.407407e+00	 5.869588e+01
0	 2.222222e-01	 1.481481e+00	 5.760572e+01
0	 2.962963e-01	 1.111111e+00	 3.464844e+01
0	 2.962963e-01	 1.185185e+00	 4.894568e+01
0	 2.962963e-01	 1.259259e+00	 5.836219e+01
0	 2.962963e-01	 1.333333e+00	 6.285989e+01
0	 2.962963e-01	 1.407407e+00	 6.240073e+01
0	 2.962963e-01	 1.481481e+00	 5.694664e+01
0	 3.703704e-01	 1.111111e+00	 3.950932e+01
0	 3.703704e-01	 1.185185e+00	 5.493084e+01
0	 3.703704e-01	 1.259259e+00	 6.428445e+01
0	 3.703704e-01	 1.333333e+00	 6.754053e+01
0	 3.703704e-01	 1.407407e+00	 6.466946e+01
0	 3.703704e-01	 1.481481e+00	 5.564164e+01
0	 0.000000e+00	 1.481481e+00	 5.525351e+01
0	 0.000000e+00	 1.555556e+00	 6.491738e+01
0	 0.000000e+00	 1.629630e+00	 6.857145e+01
0	 0.000000e+00	 1.703704e+00	 6.611272e+01
0	 0.000000e+00	 1.777778e+00	 5.743821e+01
0	 0.000000e+00	 1.851852e+00	 4.244493e+01
0	 7.407407e-02	 1.481481e+00	 5.680453e+01
0	 7.407407e-02	 1.555556e+00	 6.250585e+01
0	 7.407407e-02	 1.629630e+00	 6.347494e+01
0	 7.407407e-02	 1.703704e+00	 5.966635e+01
0	 7.407407e-02	 1.777778e+00	 5.103460e+01
0	 7.407407e-02	 1.851852e+00	 3.753423e+01
0	 1.481481e-01	 1.481481e+00	 5.757347e+01
0	 1.481481e-01	 1.555556e+00	 5.869856e+01
0	 1.481481e-01	 1.629630e+00	 5.666505e+01
0	 1.481481e-01	 1.703704e+00	 5.146883e+01
0	 1.481481e-01	 1.777778e+00	 4.310581e+01
0	 1.481481e-01	 1.851852e+00	 3.157191e+01
0	 2.222222e-01	 1.481481e+00	 5.760572e+01
0	 2.222222e-01	 1.555556e+00	 5.403247e+01
0	 2.222222e-01	 1.629630e+00	 4.898717e+01
0	 2.222222e-01	 1.703704e+00	 4.249096e+01
0	 2.222222e-01	 1.777778e+00	 3.456498e+01
0	 2.222222e-01	 1.851852e+00	 2.523035e+01
0	 2.962963e-01	 1.481481e+00	 5.694664e+01
0	 2.962963e-01	 1.555556e+00	 4.904451e+01
0	 2.962963e-01	 1.629630e+00	 4.128675e+01
0	 2.962963e-01	 1.703704e+00	 3.370358e+01
0	 2.962963e-01	 1.777778e+00	 2.632524e+01
0	 2.962963e-01	 1.851852e+00	 1.918193e+01
0	 3.703704e-01	 1.481481e+00	 5.564164e+01
0	 3.703704e-01	 1.555556e+00	 4.427163e+01
0	 3.703704e-01	 1.629630e+00	 3.440920e+01
0	 3.703704e-01	 1.703704e+00	 2.607751e+01
0	 3.703704e-01	 1.777778e+00	 1.929973e+01
0	 3.703704e-01	 1.851852e+00	 1.409902e+01
0	 0.000000e+00	 1.851852e+00	 4.244493e+01
0	 0.000000e+00	 1.925926e+00	 2.630484e+01
0	 0.000000e+00	 2.000000e+00	 1.427017e+01
0	 0.000000e+00	 2.074074e+00	 6.358313e+00
0	 0.000000e+00	 2.148148e+00	 2.586690e+00
0	 0.000000e+00	 2.222222e+00	 2.972705e+00
0	 7.407407e-02	 1.851852e+00	 3.753423e+01
0	 7.407407e-02	 1.925926e+00	 2.340062e+01
0	 7.407407e-02	 2.000000e+00	 1.290199e+01
0	 7.407407e-02	 2.074074e+00	 6.042148e+00
0	 7.407407e-02	 2.148148e+00	 2.824867e+00
0	 7.407407e-02	 2.222222e+00	 3.253940e+00
0	 1.481481e-01	 1.851852e+00	 3.157191e+01
0	 1.481481e-01	 1.925926e+00	 1.996401e+01
0	 1.481481e-01	 2.000000e+00	 1.137797e+01
0	 1.481481e-01	 2.074074e+00	 5.808126e+00
0	 1.481481e-01	 2.148148e+00	 3.248832e+00
0	 1.481481e-01	 2.222222e+00	 3.694436e+00
0	 2.222222e-01	 1.851852e+00	 2.523035e+01
0	 2.222222e-01	 1.925926e+00	 1.637242e+01
0	 2.222222e-01	 2.000000e+00	 9.855128e+00
0	 2.222222e-01	 2.074074e+00	 5.667567e+00
0	 2.222222e-01	 2.148148e+00	 3.798824e+00
0	 2.222222e-01	 2.222222e+00	 4.237985e+00
0	 2.962963e-01	 1.851852e+00	 1.918193e+01
0	 2.962963e-01	 1.925926e+00	 1.300322e+01
0	 2.962963e-01	 2.000000e+00	 8.490510e+00
0	 2.962963e-01	 2.074074e+00	 5.631795e+00
0	 2.962963e-01	 2.148148e+00	 4.415084e+00
0	 2.962963e-01	 2.222222e+00	 4.828380e+00
0	 3.703704e-01	 1.851852e+00	 1.409902e+01
0	 3.703704e-01	 1.925926e+00	 1.023382e+01
0	 3.703704e-01	 2.000000e+00	 7.441153e+00
0	 3.703704e-01	 2.074074e+00	 5.712130e+00
0	 3.703704e-01	 2.148148e+00	 5.037849e+00
0	 3.703704e-01	 2.222222e+00	 5.409411e+00
0	 0.000000e+00	 2.222222e+00	 2.972705e+00
0	 0.000000e+00	 2.296296e+00	 5.116908e+00
0	 0.000000e+00	 2.370370e+00	 6.621287e+00
0	 0.000000e+00	 2.444444e+00	 7.505405e+00
0	 0.000000e+00	 2.518519e+00	 7.788827e+00
0	 0.000000e+00	 2.592593e+00	 7.491116e+00
0	 7.407407e-02	 2.222222e+00	 3.253940e+00
0	 7.407407e-02	 2.296296e+00	 5.215548e+00
0	 7.407407e-02	 2.370370e+00	 6.602727e+00
0	 7.407407e-02	 2.444444e+00	 7.429546e+00
0	 7.407407e-02	 2.518519e+00	 7.710074e+00
0	 7.407407e-02	 2.592593e+00	 7.458381e+00
0	 1.481481e-01	 2.222222e+00	 3.694436e+00
0	 1.481481e-01	 2.296296e+00	 5.394026e+00
0	 1.481481e-01	 2.370370e+00	 6.606713e+00
0	 1.481481e-01	 2.444444e+00	 7.341874e+00
0	 1.481481e-01	 2.518519e+00	 7.608888e+00
0	 1.481481e-01	 2.592593e+00	 7.417134e+00
0	 2.222222e-01	 2.222222e+00	 4.237985e+00
0	 2.222222e-01	 2.296296e+00	 5.631593e+00
0	 2.222222e-01	 2.370370e+00	 6.637126e+00
0	 2.222222e-01	 2.444444e+00	 7.260077e+00
0	 2.222222e-01	 2.518519e+00	 7.505936e+00
0	 2.222222e-01	 2.592593e+00	 7.380197e+00
0	 2.962963e-01	 2.222222e+00	 4.828380e+00
0	 2.962963e-01	 2.296296e+00	 5.907496e+00
0	 2.962963e-01	 2.370370e+00	 6.697847e+00
0	 2.962963e-01	 2.444444e+00	 7.201841e+00
0	 2.962963e-01	 2.518519e+00	 7.421887e+00
0	 2.962963e-01	 2.592593e+00	 7.360394e+00
0	 3.703704e-01	 2.222222e+00	 5.409411e+00
0	 3.703704e-01	 2.296296e+00	 6.200984e+00
0	 3.703704e-01	 2.370370e+00	 6.792754e+00
0	 3.703704e-01	 2.444444e+00	 7.184852e+00
0	 3.703704e-01	 2.518519e+00	 7.377407e+00
0	 3.703704e-01	 2.592593e+00	 7.370548e+00
0	 0.000000e+00	 2.592593e+00	 7.491116e+00
0	 0.000000e+00	 2.666667e+00	 7.026913e+00
0	 0.000000e+00	 2.740741e+00	 6.787589e+00
0	 0.000000e+00	 2.814815e+00	 6.757799e+00
0	 0.000000e+00	 2.888889e+00	 6.922199e+00
0	 0.000000e+00	 2.962963e+00	 7.265444e+00
0	 7.407407e-02	 2.592593e+00	 7.458381e+00
0	 7.407407e-02	 2.666667e+00	 7.048157e+00
0	 7.407407e-02	 2.740741e+00	 6.836461e+00
0	 7.407407e-02	 2.814815e+00	 6.812414e+00
0	 7.407407e-02	 2.888889e+00	 6.965139e+00
0	 7.407407e-02	 2.962963e+00	 7.283759e+00
0	 1.481481e-01	 2.592593e+00	 7.417134e+00
0	 1.481481e-01	 2.666667e+00	 7.084190e+00
0	 1.481481e-01	 2.740741e+00	 6.916684e+00
0	 1.481481e-01	 2.814815e+00	 6.907566e+00
0	 1.481481e-01	 2.888889e+00	 7.049788e+00
0	 1.481481e-01	 2.962963e+00	 7.336300e+00
0	 2.222222e-01	 2.592593e+00	 7.380197e+00
0	 2.222222e-01	 2.666667e+00	 7.136419e+00
0	 2.222222e-01	 2.740741e+00	 7.021927e+00
0	 2.222222e-01	 2.814815e+00	 7.032865e+00
0	 2.222222e-01	 2.888889e+00	 7.165376e+00
0	 2.222222e-01	 2.962963e+00	 7.415602e+00
0	 2.962963e-01	 2.592593e+00	 7.360394e+00
0	 2.962963e-01	 2.666667e+00	 7.206248e+00
0	 2.962963e-01	 2.740741e+00	 7.145859e+00
0	 2.962963e-01	 2.814815e+00	 7.177923e+00
0	 2.962963e-01	 2.888889e+00	 7.301138e+00
0	 2.962963e-01	 2.962963e+00	 7.514199e+00
0	 3.703704e-01	 2.592593e+00	 7.370548e+00
0	 3.703704e-01	 2.666667e+00	 7.295085e+00
0	 3.703704e-01	 2.740741e+00	 7.282148e+00
0	 3.703704e-01	 2.814815e+00	 7.332351e+00
0	 3.703704e-01	 2.888889e+00	 7.446305e+00
0	 3.703704e-01	 2.962963e+00	 7.624623e+00
0	 0.000000e+00	 2.962963e+00	 7.265444e+00
0	 0.000000e+00	 3.037037e+00	 7.636447e+00
0	 0.000000e+00	 3.111111e+00	 7.901156e+00
0	 0.000000e+00	 3.185185e+00	 8.069780e+00
0	 0.000000e+00	 3.259259e+00	 8.152527e+00
0	 0.000000e+00	 3.333333e+00	 8.159606e+00
0	 7.407407e-02	 2.962963e+00	 7.283759e+00
0	 7.407407e-02	 3.037037e+00	 7.632566e+00
0	 7.407407e-02	 3.111111e+00	 7.887867e+00
0	 7.407407e-02	 3.185185e+00	 8.056807e+00
0	 7.407407e-02	 3.259259e+00	 8.146529e+00
0	 7.407407e-02	 3.333333e+00	 8.164178e+00
0	 1.481481e-01	 2.962963e+00	 7.336300e+00
0	 1.481481e-01	 3.037037e+00	 7.651800e+00
0	 1.481481e-01	 3.111111e+00	 7.888707e+00
0	 1.481481e-01	 3.185185e+00	 8.051557e+00
0	 1.481481e-01	 3.259259e+00	 8.144886e+00
0	 1.481481e-01	 3.333333e+00	 8.173230e+00
0	 2.222222e-01	 2.962963e+00	 7.415602e+00
0	 2.222222e-01	 3.037037e+00	 7.691166e+00
0	 2.222222e-01	 3.111111e+00	 7.903852e+00
0	 2.222222e-01	 3.185185e+00	 8.056047e+00
0	 2.222222e-01	 3.259259e+00	 8.150135e+00
0	 2.222222e-01	 3.333333e+00	 8.188501e+00
0	 2.962963e-01	 2.962963e+00	 7.514199e+00
0	 2.962963e-01	 3.037037e+00	 7.747678e+00
0	 2.962963e-01	 3.111111e+00	 7.933479e+00
0	 2.962963e-01	 3.185185e+00	 8.072293e+00
0	 2.962963e-01	 3.259259e+00	 8.164813e+00
0	 2.962963e-01	 3.333333e+00	 8.211729e+00
0	 3.703704e-01	 2.962963e+00	 7.624623e+00
0	 3.703704e-01	 3.037037e+00	 7.818351e+00
0	 3.703704e-01	 3.111111e+00	 7.977763e+00
0	 3.703704e-01	 3.185185e+00	 8.102313e+00
0	 3.703704e-01	 3.259259e+00	 8.191459e+00
0	 3.703704e-01	 3.333333e+00	 8.244654e+00
0	 0.000000e+00	 3.333333e+00	 8.159606e+00
0	 0.000000e+00	 3.407407e+00	 8.152718e+00
0	 0.000000e+00	 3.481481e+00	 8.182619e+00
0	 0.000000e+00	 3.555556e+00	 8.243105e+00
0	 0.000000e+00	 3.629630e+00	 8.327969e+00
0	 0.000000e+00	 3.703704e+00	 8.431005e+00
0	 7.407407e-02	 3.333333e+00	 8.164178e+00
0	 7.407407e-02	 3.407407e+00	 8.165005e+00
0	 7.407407e-02	 3.481481e+00	 8.196623e+00
0	 7.407407e-02	 3.555556e+00	 8.254718e+00
0	 7.407407e-02	 3.629630e+00	 8.334976e+00
0	 7.407407e-02	 3.703704e+00	 8.433081e+00
0	 1.481481e-01	 3.333333e+00	 8.173230e+00
0	 1.481481e-01	 3.407407e+00	 8.183802e+00
0	 1.481481e-01	 3.481481e+00	 8.218985e+00
0	 1.481481e-01	 3.555556e+00	 8.276069e+00
0	 1.481481e-01	 3.629630e+00	 8.352343e+00
0	 1.481481e-01	 3.703704e+00	 8.445099e+00
0	 2.222222e-01	 3.333333e+00	 8.188501e+00
0	 2.222222e-01	 3.407407e+00	 8.209570e+00
0	 2.222222e-01	 3.481481e+00	 8.249246e+00
0	 2.222222e-01	 3.555556e+00	 8.306137e+00
0	 2.222222e-01	 3.629630e+00	 8.378852e+00
0	 2.222222e-01	 3.703704e+00	 8.465997e+00
0	 2.962963e-01	 3.333333e+00	 8.211729e+00
0	 2.962963e-01	 3.407407e+00	 8.242766e+00
0	 2.962963e-01	 3.481481e+00	 8.286945e+00
0	 2.962963e-01	 3.555556e+00	 8.343904e+00
0	 2.962963e-01	 3.629630e+00	 8.413282e+00
0	 2.962963e-01	 3.703704e+00	 8.494718e+00
0	 3.703704e-01	 3.333333e+00	 8.244654e+00
0	 3.703704e-01	 3.407407e+00	 8.283852e+00
0	 3.703704e-01	 3.481481e+00	 8.331623e+00
0	 3.703704e-01	 3.555556e+00	 8.388349e+00
0	 3.703704e-01	 3.629630e+00	 8.454413e+00
0	 3.703704e-01	 3.703704e+00	 8.530200e+00
0	 0.000000e+00	 3.703704e+00	 8.431005e+00
0	 0.000000e+00	 3.777778e+00	 8.530375e+00
0	 0.000000e+00	 3.851852e+00	 8.610559e+00
0	 0.000000e+00	 3.925926e+00	 8.674836e+00
0	 0.000000e+00	 4.000000e+00	 8.726482e+00
0	 0.000000e+00	 4.074074e+00	 8.768776e+00
0	 7.407407e-02	 3.703704e+00	 8.433081e+00
0	 7.407407e-02	 3.777778e+00	 8.529668e+00
0	 7.407407e-02	 3.851852e+00	 8.609726e+00
0	 7.407407e-02	 3.925926e+00	 8.675477e+00
0	 7.407407e-02	 4.000000e+00	 8.729143e+00
0	 7.407407e-02	 4.074074e+00	 8.772946e+00
0	 1.481481e-01	 3.703704e+00	 8.445099e+00
0	 1.481481e-01	 3.777778e+00	 8.537734e+00
0	 1.481481e-01	 3.851852e+00	 8.616347e+00
0	 1.481481e-01	 3.925926e+00	 8.682275e+00
0	 1.481481e-01	 4.000000e+00	 8.736858e+00
0	 1.481481e-01	 4.074074e+00	 8.781433e+00
0	 2.222222e-01	 3.703704e+00	 8.465997e+00
0	 2.222222e-01	 3.777778e+00	 8.553824e+00
0	 2.222222e-01	 3.851852e+00	 8.629930e+00
0	 2.222222e-01	 3.925926e+00	 8.694941e+00
0	 2.222222e-01	 4.000000e+00	 8.749483e+00
0	 2.222222e-01	 4.074074e+00	 8.794185e+00
0	 2.962963e-01	 3.703704e+00	 8.494718e+00
0	 2.962963e-01	 3.777778e+00	 8.577192e+00
0	 2.962963e-01	 3.851852e+00	 8.649985e+00
0	 2.962963e-01	 3.925926e+00	 8.713183e+00
0	 2.962963e-01	 4.000000e+00	 8.766875e+00
0	 2.962963e-01	 4.074074e+00	 8.811148e+00
0	 3.703704e-01	 3.703704e+00	 8.530200e+00
0	 3.703704e-01	 3.777778e+00	 8.607089e+00
0	 3.703704e-01	 3.851852e+00	 8.676020e+00
0	 3.703704e-01	 3.925926e+00	 8.736714e+00
0	 3.703704e-01	 4.000000e+00	 8.788890e+00
0	 3.703704e-01	 4.074074e+00	 8.832271e+00
0	 0.000000e+00	 4.074074e+00	 8.768776e+00
0	 0.000000e+00	 4.148148e+00	 8.809844e+00
0	 0.000000e+00	 4.222222e+00	 8.854487e+00
0	 0.000000e+00	 4.296296e+00	 8.900998e+00
0	 0.000000e+00	 4.370370e+00	 8.947671e+00
0	 0.000000e+00	 4.444444e+00	 8.992796e+00
0	 7.407407e-02	 4.074074e+00	 8.772946e+00
0	 7.407407e-02	 4.148148e+00	 8.814224e+00
0	 7.407407e-02	 4.222222e+00	 8.858061e+00
0	 7.407407e-02	 4.296296e+00	 8.903297e+00
0	 7.407407e-02	 4.370370e+00	 8.948770e+00
0	 7.407407e-02	 4.444444e+00	 8.993320e+00
0	 1.481481e-01	 4.074074e+00	 8.781433e+00
0	 1.481481e-01	 4.148148e+00	 8.822568e+00
0	 1.481481e-01	 4.222222e+00	 8.865470e+00
0	 1.481481e-01	 4.296296e+00	 8.909433e+00
0	 1.481481e-01	 4.370370e+00	 8.953752e+00
0	 1.481481e-01	 4.444444e+00	 8.997720e+00
0	 2.222222e-01	 4.074074e+00	 8.794185e+00
0	 2.222222e-01	 4.148148e+00	 8.834873e+00
0	 2.222222e-01	 4.222222e+00	 8.876730e+00
0	 2.222222e-01	 4.296296e+00	 8.919414e+00
0	 2.222222e-01	 4.370370e+00	 8.962583e+00
0	 2.222222e-01	 4.444444e+00	 9.005895e+00
0	 2.962963e-01	 4.074074e+00	 8.811148e+00
0	 2.962963e-01	 4.148148e+00	 8.851133e+00
0	 2.962963e-01	 4.222222e+00	 8.891855e+00
0	 2.962963e-01	 4.296296e+00	 8.933244e+00
0	 2.962963e-01	 4.370370e+00	 8.975230e+00
0	 2.962963e-01	 4.444444e+00	 9.017745e+00
0	 3.703704e-01	 4.074074e+00	 8.832271e+00
0	 3.703704e-01	 4.148148e+00	 8.871344e+00
0	 3.703704e-01	 4.222222e+00	 8.910860e+00
0	 3.703704e-01	 4.296296e+00	 8.950929e+00
0	 3.703704e-01	 4.370370e+00	 8.991661e+00
0	 3.703704e-01	 4.444444e+00	 9.033170e+00
0	 0.000000e+00	 4.444444e+00	 8.992796e+00
0	 0.000000e+00	 4.518519e+00	 9.034637e+00
0	 0.000000e+00	 4.592593e+00	 9.073097e+00
0	 0.000000e+00	 4.666667e+00	 9.108938e+00
0	 0.000000e+00	 4.740741e+00	 9.142918e+00
0	 0.000000e+00	 4.814815e+00	 9.175797e+00
0	 7.407407e-02	 4.444444e+00	 8.993320e+00
0	 7.407407e-02	 4.518519e+00	 9.035333e+00
0	 7.407407e-02	 4.592593e+00	 9.074297e+00
0	 7.407407e-02	 4.666667e+00	 9.110710e+00
0	 7.407407e-02	 4.740741e+00	 9.145071e+00
0	 7.407407e-02	 4.814815e+00	 9.177877e+00
0	 1.481481e-01	 4.444444e+00	 8.997720e+00
0	 1.481481e-01	 4.518519e+00	 9.039770e+00
0	 1.481481e-01	 4.592593e+00	 9.078994e+00
0	 1.481481e-01	 4.666667e+00	 9.115672e+00
0	 1.481481e-01	 4.740741e+00	 9.150089e+00
0	 1.481481e-01	 4.814815e+00	 9.182526e+00
0	 2.222222e-01	 4.444444e+00	 9.005895e+00
0	 2.222222e-01	 4.518519e+00	 9.047783e+00
0	 2.222222e-01	 4.592593e+00	 9.086986e+00
0	 2.222222e-01	 4.666667e+00	 9.123617e+00
0	 2.222222e-01	 4.740741e+00	 9.157793e+00
0	 2.222222e-01	 4.814815e+00	 9.189626e+00
0	 2.962963e-01	 4.444444e+00	 9.017745e+00
0	 2.962963e-01	 4.518519e+00	 9.059205e+00
0	 2.962963e-01	 4.592593e+00	 9.098073e+00
0	 2.962963e-01	 4.666667e+00	 9.134341e+00
0	 2.962963e-01	 4.740741e+00	 9.168004e+00
0	 2.962963e-01	 4.814815e+00	 9.199058e+00
0	 3.703704e-01	 4.444444e+00	 9.033170e+00
0	 3.703704e-01	 4.518519e+00	 9.073870e+00
0	 3.703704e-01	 4.592593e+00	 9.112052e+00
0	 3.703704e-01	 4.666667e+00	 9.147637e+00
0	 3.703704e-01	 4.740741e+00	 9.180546e+00
0	 3.703704e-01	 4.814815e+00	 9.210700e+00
0	 0.000000e+00	 4.814815e+00	 9.175797e+00
0	 0.000000e+00	 4.888889e+00	 9.208095e+00
0	 0.000000e+00	 4.962963e+00	 9.239580e+00
0	 0.000000e+00	 5.037037e+00	 9.269892e+00
0	 0.000000e+00	 5.111111e+00	 9.298666e+00
0	 0.000000e+00	 5.185185e+00	 9.325542e+00
0	 7.407407e-02	 4.814815e+00	 9.177877e+00
0	 7.407407e-02	 4.888889e+00	 9.209721e+00
0	 7.407407e-02	 4.962963e+00	 9.240704e+00
0	 7.407407e-02	 5.037037e+00	 9.270581e+00
0	 7.407407e-02	 5.111111e+00	 9.299105e+00
0	 7.407407e-02	 5.185185e+00	 9.326032e+00
0	 1.481481e-01	 4.814815e+00	 9.182526e+00
0	 1.481481e-01	 4.888889e+00	 9.213697e+00
0	 1.481481e-01	 4.962963e+00	 9.244026e+00
0	 1.481481e-01	 5.037037e+00	 9.273364e+00
0	 1.481481e-01	 5.111111e+00	 9.301562e+00
0	 1.481481e-01	 5.185185e+00	 9.328470e+00
0	 2.222222e-01	 4.814815e+00	 9.189626e+00
0	 2.222222e-01	 4.888889e+00	 9.219966e+00
0	 2.222222e-01	 4.962963e+00	 9.249532e+00
0	 2.222222e-01	 5.037037e+00	 9.278249e+00
0	 2.222222e-01	 5.111111e+00	 9.306043e+00
0	 2.222222e-01	 5.185185e+00	 9.332838e+00
0	 2.962963e-01	 4.814815e+00	 9.199058e+00
0	 2.962963e-01	 4.888889e+00	 9.228472e+00
0	 2.962963e-01	 4.962963e+00	 9.257207e+00
0	 2.962963e-01	 5.037037e+00	 9.285241e+00
0	 2.962963e-01	 5.111111e+00	 9.312554e+00
0	 2.962963e-01	 5.185185e+00	 9.339123e+00
0	 3.703704e-01	 4.814815e+00	 9.210700e+00
0	 3.703704e-01	 4.888889e+00	 9.239158e+00
0	 3.703704e-01	 4.962963e+00	 9.267037e+00
0	 3.703704e-01	 5.037037e+00	 9.294348e+00
0	 3.703704e-01	 5.111111e+00	 9.321102e+00
0	 3.703704e-01	 5.185185e+00	 9.347307e+00
0	 0.000000e+00	 5.185185e+00	 9.325542e+00
0	 0.000000e+00	 5.259259e+00	 9.350868e+00
0	 0.000000e+00	 5.333333e+00	 9.375321e+00
0	 0.000000e+00	 5.407407e+00	 9.399028e+00
0	 0.000000e+00	 5.481481e+00	 9.422114e+00
0	 0.000000e+00	 5.555556e+00	 9.444706e+00
0	 7.407407e-02	 5.185185e+00	 9.326032e+00
0	 7.407407e-02	 5.259259e+00	 9.351602e+00
0	 7.407407e-02	 5.333333e+00	 9.376272e+00
0	 7.407407e-02	 5.407407e+00	 9.400120e+00
0	 7.407407e-02	 5.481481e+00	 9.423225e+00
0	 7.407407e-02	 5.555556e+00	 9.445667e+00
0	 1.481481e-01	 5.185185e+00	 9.328470e+00
0	 1.481481e-01	 5.259259e+00	 9.354197e+00
0	 1.481481e-01	 5.333333e+00	 9.378980e+00
0	 1.481481e-01	 5.407407e+00	 9.402859e+00
0	 1.481481e-01	 5.481481e+00	 9.425876e+00
0	 1.481481e-01	 5.555556e+00	 9.448071e+00
0	 2.222222e-01	 5.185185e+00	 9.332838e+00
0	 2.222222e-01	 5.259259e+00	 9.358609e+00
0	 2.222222e-01	 5.333333e+00	 9.383385e+00
0	 2.222222e-01	 5.407407e+00	 9.407179e+00
0	 2.222222e-01	 5.481481e+00	 9.430002e+00
0	 2.222222e-01	 5.555556e+00	 9.451869e+00
0	 2.962963e-01	 5.185185e+00	 9.339123e+00
0	 2.962963e-01	 5.259259e+00	 9.364795e+00
0	 2.962963e-01	 5.333333e+00	 9.389426e+00
0	 2.962963e-01	 5.407407e+00	 9.413010e+00
0	 2.962963e-01	 5.481481e+00	 9.435540e+00
0	 2.962963e-01	 5.555556e+00	 9.457009e+00
0	 3.703704e-01	 5.185185e+00	 9.347307e+00
0	 3.703704e-01	 5.259259e+00	 9.372712e+00
0	 3.703704e-01	 5.333333e+00	 9.397044e+00
0	 3.703704e-01	 5.407407e+00	 9.420287e+00
0	 3.703704e-01	 5.481481e+00	 9.442425e+00
0	 3.703704e-01	 5.555556e+00	 9.463442e+00
0	 0.000000e+00	 5.555556e+00	 9.444706e+00
0	 0.000000e+00	 5.629630e+00	 9.466709e+00
0	 0.000000e+00	 5.703704e+00	 9.487900e+00
0	 0.000000e+00	 5.777778e+00	 9.508222e+00
0	 0.000000e+00	 5.851852e+00	 9.527614e+00
0	 0.000000e+00	 5.925926e+00	 9.546017e+00
0	 7.407407e-02	 5.555556e+00	 9.445667e+00
0	 7.407407e-02	 5.629630e+00	 9.467434e+00
0	 7.407407e-02	 5.703704e+00	 9.488436e+00
0	 7.407407e-02	 5.777778e+00	 9.508631e+00
0	 7.407407e-02	 5.851852e+00	 9.527975e+00
0	 7.407407e-02	 5.925926e+00	 9.546427e+00
0	 1.481481e-01	 5.555556e+00	 9.448071e+00
0	 1.481481e-01	 5.629630e+00	 9.469522e+00
0	 1.481481e-01	 5.703704e+00	 9.490263e+00
0	 1.481481e-01	 5.777778e+00	 9.510264e+00
0	 1.481481e-01	 5.851852e+00	 9.529496e+00
0	 1.481481e-01	 5.925926e+00	 9.547931e+00
0	 2.222222e-01	 5.555556e+00	 9.451869e+00
0	 2.222222e-01	 5.629630e+00	 9.472940e+00
0	 2.222222e-01	 5.703704e+00	 9.493358e+00
0	 2.222222e-01	 5.777778e+00	 9.513106e+00
0	 2.222222e-01	 5.851852e+00	 9.532164e+00
0	 2.222222e-01	 5.925926e+00	 9.550515e+00
0	 2.962963e-01	 5.555556e+00	 9.457009e+00
0	 2.962963e-01	 5.629630e+00	 9.477651e+00
0	 2.962963e-01	 5.703704e+00	 9.497699e+00
0	 2.962963e-01	 5.777778e+00	 9.517142e+00
0	 2.962963e-01	 5.851852e+00	 9.535967e+00
0	 2.962963e-01	 5.925926e+00	 9.554165e+00
0	 3.703704e-01	 5.555556e+00	 9.463442e+00
0	 3.703704e-01	 5.629630e+00	 9.483624e+00
0	 3.703704e-01	 5.703704e+00	 9.503265e+00
0	 3.703704e-01	 5.777778e+00	 9.522357e+00
0	 3.703704e-01	 5.851852e+00	 9.540894e+00
0	 3.703704e-01	 5.925926e+00	 9.558869e+00
0	 0.000000e+00	 5.925926e+00	 9.546017e+00
0	 0.000000e+00	 6.000000e+00	 9.563671e+00
0	 0.000000e+00	 6.074074e+00	 9.580863e+00
0	 0.000000e+00	 6.148148e+00	 9.597601e+00
0	 0.000000e+00	 6.222222e+00	 9.613893e+00
0	 0.000000e+00	 6.296296e+00	 9.629749e+00
0	 7.407407e-02	 5.925926e+00	 9.546427e+00
0	 7.407407e-02	 6.000000e+00	 9.564169e+00
0	 7.407407e-02	 6.074074e+00	 9.581415e+00
0	 7.407407e-02	 6.148148e+00	 9.598170e+00
0	 7.407407e-02	 6.222222e+00	 9.614436e+00
0	 7.407407e-02	 6.296296e+00	 9.630220e+00
0	 1.481481e-01	 5.925926e+00	 9.547931e+00
0	 1.481481e-01	 6.000000e+00	 9.565695e+00
0	 1.481481e-01	 6.074074e+00	 9.582935e+00
0	 1.481481e-01	 6.148148e+00	 9.599652e+00
0	 1.481481e-01	 6.222222e+00	 9.615845e+00
0	 1.481481e-01	 6.296296e+00	 9.631516e+00
0	 2.222222e-01	 5.925926e+00	 9.550515e+00
0	 2.222222e-01	 6.000000e+00	 9.568233e+00
0	 2.222222e-01	 6.074074e+00	 9.585404e+00
0	 2.222222e-01	 6.148148e+00	 9.602027e+00
0	 2.222222e-01	 6.222222e+00	 9.618099e+00
0	 2.222222e-01	 6.296296e+00	 9.633619e+00
0	 2.962963e-01	 5.925926e+00	 9.554165e+00
0	 2.962963e-01	 6.000000e+00	 9.571765e+00
0	 2.962963e-01	 6.074074e+00	 9.588803e+00
0	 2.962963e-01	 6.148148e+00	 9.605275e+00
0	 2.962963e-01	 6.222222e+00	 9.621178e+00
0	 2.962963e-01	 6.296296e+00	 9.636511e+00
0	 3.703704e-01	 5.925926e+00	 9.558869e+00
0	 3.703704e-01	 6.000000e+00	 9.576275e+00
0	 3.703704e-01	 6.074074e+00	 9.593112e+00
0	 3.703704e-01	 6.148148e+00	 9.609376e+00
0	 3.703704e-01	 6.222222e+00	 9.625064e+00
0	 3.703704e-01	 6.296296e+00	 9.640173e+00
0	 0.000000e+00	 6.296296e+00	 9.629749e+00
0	 0.000000e+00	 6.370370e+00	 9.645141e+00
0	 0.000000e+00	 6.444444e+00	 9.660031e+00
0	 0.000000e+00	 6.518519e+00	 9.674413e+00
0	 0.000000e+00	 6.592593e+00	 9.688282e+00
0	 0.000000e+00	 6.666667e+00	 9.701630e+00
0	 7.407407e-02	 6.296296e+00	 9.630220e+00
0	 7.407407e-02	 6.370370e+00	 9.645526e+00
0	 7.407407e-02	 6.444444e+00	 9.660354e+00
0	 7.407407e-02	 6.518519e+00	 9.674698e+00
0	 7.407407e-02	 6.592593e+00	 9.688553e+00
0	 7.407407e-02	 6.666667e+00	 9.701912e+00
0	 1.481481e-01	 6.296296e+00	 9.631516e+00
0	 1.481481e-01	 6.370370e+00	 9.646700e+00
0	 1.481481e-01	 6.444444e+00	 9.661428e+00
0	 1.481481e-01	 6.518519e+00	 9.675696e+00
0	 1.481481e-01	 6.592593e+00	 9.689497e+00
0	 1.481481e-01	 6.666667e+00	 9.702826e+00
0	 2.222222e-01	 6.296296e+00	 9.633619e+00
0	 2.222222e-01	 6.370370e+00	 9.648647e+00
0	 2.222222e-01	 6.444444e+00	 9.663240e+00
0	 2.222222e-01	 6.518519e+00	 9.677394e+00
0	 2.222222e-01	 6.592593e+00	 9.691103e+00
0	 2.222222e-01	 6.666667e+00	 9.704361e+00
0	 2.962963e-01	 6.296296e+00	 9.636511e+00
0	 2.962963e-01	 6.370370e+00	 9.651350e+00
0	 2.962963e-01	 6.444444e+00	 9.665775e+00
0	 2.962963e-01	 6.518519e+00	 9.679780e+00
0	 2.962963e-01	 6.592593e+00	 9.693359e+00
0	 2.962963e-01	 6.666667e+00	 9.706508e+00
0	 3.703704e-01	 6.296296e+00	 9.640173e+00
0	 3.703704e-01	 6.370370e+00	 9.654794e+00
0	 3.703704e-01	 6.444444e+00	 9.669018e+00
0	 3.703704e-01	 6.518519e+00	 9.682839e+00
0	 3.703704e-01	 6.592593e+00	 9.696254e+00
0	 3.703704e-01	 6.666667e+00	 9.709257e+00
0	 0.000000e+00	 6.666667e+00	 9.701630e+00
0	 0.000000e+00	 6.740741e+00	 9.714550e+00
0	 0.000000e+00	 6.814815e+00	 9.727137e+00
0	 0.000000e+00	 6.888889e+00	 9.739387e+00
0	 0.000000e+00	 6.962963e+00	 9.751297e+00
0	 0.000000e+00	 7.037037e+00	 9.762864e+00
0	 7.407407e-02	 6.666667e+00	 9.701912e+00
0	 7.407407e-02	 6.740741e+00	 9.714849e+00
0	 7.407407e-02	 6.814815e+00	 9.727440e+00
0	 7.407407e-02	 6.888889e+00	 9.739682e+00
0	 7.407407e-02	 6.962963e+00	 9.751573e+00
0	 7.407407e-02	 7.037037e+00	 9.763111e+00
0	 1.481481e-01	 6.666667e+00	 9.702826e+00
0	 1.481481e-01	 6.740741e+00	 9.715740e+00
0	 1.481481e-01	 6.814815e+00	 9.728299e+00
0	 1.481481e-01	 6.888889e+00	 9.740501e+00
0	 1.481481e-01	 6.962963e+00	 9.752346e+00
0	 1.481481e-01	 7.037037e+00	 9.763832e+00
0	 2.222222e-01	 6.666667e+00	 9.704361e+00
0	 2.222222e-01	 6.740741e+00	 9.717213e+00
0	 2.222222e-01	 6.814815e+00	 9.729706e+00
0	 2.222222e-01	 6.888889e+00	 9.741838e+00
0	 2.222222e-01	 6.962963e+00	 9.753610e+00
0	 2.222222e-01	 7.037037e+00	 9.765020e+00
0	 2.962963e-01	 6.666667e+00	 9.706508e+00
0	 2.962963e-01	 6.740741e+00	 9.719261e+00
0	 2.962963e-01	 6.814815e+00	 9.731653e+00
0	 2.962963e-01	 6.888889e+00	 9.743685e+00
0	 2.962963e-01	 6.962963e+00	 9.755356e+00
0	 2.962963e-01	 7.037037e+00	 9.766666e+00
0	 3.703704e-01	 6.666667e+00	 9.709257e+00
0	 3.703704e-01	 6.740741e+00	 9.721874e+00
0	 3.703704e-01	 6.814815e+00	 9.734133e+00
0	 3.703704e-01	 6.888889e+00	 9.746034e+00
0	 3.703704e-01	 6.962963e+00	 9.757577e+00
0	 3.703704e-01	 7.037037e+00	 9.768763e+00
0	 0.000000e+00	 7.037037e+00	 9.762864e+00
0	 0.000000e+00	 7.111111e+00	 9.774095e+00
0	 0.000000e+00	 7.185185e+00	 9.785000e+00
0	 0.000000e+00	 7.259259e+00	 9.795581e+00
0	 0.000000e+00	 7.333333e+00	 9.805840e+00
0	 0.000000e+00	 7.407407e+00	 9.815777e+00
0	 7.407407e-02	 7.037037e+00	 9.763111e+00
0	 7.407407e-02	 7.111111e+00	 9.774313e+00
0	 7.407407e-02	 7.185185e+00	 9.785197e+00
0	 7.407407e-02	 7.259259e+00	 9.795763e+00
0	 7.407407e-02	 7.333333e+00	 9.806013e+00
0	 7.407407e-02	 7.407407e+00	 9.815947e+00
0	 1.481481e-01	 7.037037e+00	 9.763832e+00
0	 1.481481e-01	 7.111111e+00	 9.774983e+00
0	 1.481481e-01	 7.185185e+00	 9.785822e+00
0	 1.481481e-01	 7.259259e+00	 9.796350e+00
0	 1.481481e-01	 7.333333e+00	 9.806568e+00
0	 1.481481e-01	 7.407407e+00	 9.816474e+00
0	 2.222222e-01	 7.037037e+00	 9.765020e+00
0	 2.222222e-01	 7.111111e+00	 9.776096e+00
0	 2.222222e-01	 7.185185e+00	 9.786868e+00
0	 2.222222e-01	 7.259259e+00	 9.797335e+00
0	 2.222222e-01	 7.333333e+00	 9.807496e+00
0	 2.222222e-01	 7.407407e+00	 9.817352e+00
0	 2.962963e-01	 7.037037e+00	 9.766666e+00
0	 2.962963e-01	 7.111111e+00	 9.777646e+00
0	 2.962963e-01	 7.185185e+00	 9.788327e+00
0	 2.962963e-01	 7.259259e+00	 9.798710e+00
0	 2.962963e-01	 7.333333e+00	 9.808792e+00
0	 2.962963e-01	 7.407407e+00	 9.818574e+00
0	 3.703704e-01	 7.037037e+00	 9.768763e+00
0	 3.703704e-01	 7.111111e+00	 9.779624e+00
0	 3.703704e-01	 7.185185e+00	 9.790192e+00
0	 3.703704e-01	 7.259259e+00	 9.800467e+00
0	 3.703704e-01	 7.333333e+00	 9.810449e+00
0	 3.703704e-01	 7.407407e+00	 9.820136e+00
0	 0.000000e+00	 7.407407e+00	 9.815777e+00
0	 0.000000e+00	 7.481481e+00	 9.825422e+00
0	 0.000000e+00	 7.555556e+00	 9.834802e+00
0	 0.000000e+00	 7.629630e+00	 9.843919e+00
0	 0.000000e+00	 7.703704e+00	 9.852772e+00
0	 0.000000e+00	 7.777778e+00	 9.861363e+00
0	 7.407407e-02	 7.407407e+00	 9.815947e+00
0	 7.407407e-02	 7.481481e+00	 9.825590e+00
0	 7.407407e-02	 7.555556e+00	 9.834964e+00
0	 7.407407e-02	 7.629630e+00	 9.844072e+00
0	 7.407407e-02	 7.703704e+00	 9.852915e+00
0	 7.407407e-02	 7.777778e+00	 9.861493e+00
0	 1.481481e-01	 7.407407e+00	 9.816474e+00
0	 1.481481e-01	 7.481481e+00	 9.826090e+00
0	 1.481481e-01	 7.555556e+00	 9.835438e+00
0	 1.481481e-01	 7.629630e+00	 9.844517e+00
0	 1.481481e-01	 7.703704e+00	 9.853331e+00
0	 1.481481e-01	 7.777778e+00	 9.861882e+00
0	 2.222222e-01	 7.407407e+00	 9.817352e+00
0	 2.222222e-01	 7.481481e+00	 9.826920e+00
0	 2.222222e-01	 7.555556e+00	 9.836219e+00
0	 2.222222e-01	 7.629630e+00	 9.845251e+00
0	 2.222222e-01	 7.703704e+00	 9.854019e+00
0	 2.222222e-01	 7.777778e+00	 9.862525e+00
0	 2.962963e-01	 7.407407e+00	 9.818574e+00
0	 2.962963e-01	 7.481481e+00	 9.828072e+00
0	 2.962963e-01	 7.555556e+00	 9.837303e+00
0	 2.962963e-01	 7.629630e+00	 9.846270e+00
0	 2.962963e-01	 7.703704e+00	 9.854975e+00
0	 2.962963e-01	 7.777778e+00	 9.863420e+00
0	 3.703704e-01	 7.407407e+00	 9.820136e+00
0	 3.703704e-01	 7.481481e+00	 9.829544e+00
0	 3.703704e-01	 7.555556e+00	 9.838687e+00
0	 3.703704e-01	 7.629630e+00	 9.847570e+00
0	 3.703704e-01	 7.703704e+00	 9.856194e+00
0	 3.703704e-01	 7.777778e+00	 9.864562e+00
0	 0.000000e+00	 7.777778e+00	 9.861363e+00
0	 0.000000e+00	 7.851852e+00	 9.869694e+00
0	 0.000000e+00	 7.925926e+00	 9.877771e+00
0	 0.000000e+00	 8.000000e+00	 9.885598e+00
0	 0.000000e+00	 8.074074e+00	 9.893180e+00
0	 0.000000e+00	 8.148148e+00	 9.900520e+00
0	 7.407407e-02	 7.777778e+00	 9.861493e+00
0	 7.407407e-02	 7.851852e+00	 9.869813e+00
0	 7.407407e-02	 7.925926e+00	 9.877880e+00
0	 7.407407e-02	 8.000000e+00	 9.885699e+00
0	 7.407407e-02	 8.074074e+00	 9.893274e+00
0	 7.407407e-02	 8.148148e+00	 9.900610e+00
0	 1.481481e-01	 7.777778e+00	 9.861882e+00
0	 1.481481e-01	 7.851852e+00	 9.870174e+00
0	 1.481481e-01	 7.925926e+00	 9.878217e+00
0	 1.481481e-01	 8.000000e+00	 9.886013e+00
0	 1.481481e-01	 8.074074e+00	 9.893567e+00
0	 1.481481e-01	 8.148148e+00	 9.900882e+00
0	 2.222222e-01	 7.777778e+00	 9.862525e+00
0	 2.222222e-01	 7.851852e+00	 9.870775e+00
0	 2.222222e-01	 7.925926e+00	 9.878777e+00
0	 2.222222e-01	 8.000000e+00	 9.886535e+00
0	 2.222222e-01	 8.074074e+00	 9.894053e+00
0	 2.222222e-01	 8.148148e+00	 9.901334e+00
0	 2.962963e-01	 7.777778e+00	 9.863420e+00
0	 2.962963e-01	 7.851852e+00	 9.871612e+00
0	 2.962963e-01	 7.925926e+00	 9.879559e+00
0	 2.962963e-01	 8.000000e+00	 9.887263e+00
0	 2.962963e-01	 8.074074e+00	 9.894730e+00
0	 2.962963e-01	 8.148148e+00	 9.901962e+00
0	 3.703704e-01	 7.777778e+00	 9.864562e+00
0	 3.703704e-01	 7.851852e+00	 9.872681e+00
0	 3.703704e-01	 7.925926e+00	 9.880556e+00
0	 3.703704e-01	 8.000000e+00	 9.888193e+00
0	 3.703704e-01	 8.074074e+00	 9.895594e+00
0	 3.703704e-01	 8.148148e+00	 9.902764e+00
0	 0.000000e+00	 8.148148e+00	 9.900520e+00
0	 0.000000e+00	 8.222222e+00	 9.907619e+00
0	 0.000000e+00	 8.296296e+00	 9.914474e+00
0	 0.000000e+00	 8.370370e+00	 9.921091e+00
0	 0.000000e+00	 8.444444e+00	 9.927476e+00
0	 0.000000e+00	 8.518519e+00	 9.933635e+00
0	 7.407407e-02	 8.148148e+00	 9.900610e+00
0	 7.407407e-02	 8.222222e+00	 9.907703e+00
0	 7.407407e-02	 8.296296e+00	 9.914552e+00
0	 7.407407e-02	 8.370370e+00	 9.921163e+00
0	 7.407407e-02	 8.444444e+00	 9.927542e+00
0	 7.407407e-02	 8.518519e+00	 9.933694e+00
0	 1.481481e-01	 8.148148e+00	 9.900882e+00
0	 1.481481e-01	 8.222222e+00	 9.907955e+00
0	 1.481481e-01	 8.296296e+00	 9.914785e+00
0	 1.481481e-01	 8.370370e+00	 9.921378e+00
0	 1.481481e-01	 8.444444e+00	 9.927738e+00
0	 1.481481e-01	 8.518519e+00	 9.933873e+00
0	 2.222222e-01	 8.148148e+00	 9.901334e+00
0	 2.222222e-01	 8.222222e+00	 9.908374e+00
0	 2.222222e-01	 8.296296e+00	 9.915171e+00
0	 2.222222e-01	 8.370370e+00	 9.921733e+00
0	 2.222222e-01	 8.444444e+00	 9.928064e+00
0	 2.222222e-01	 8.518519e+00	 9.934170e+00
0	 2.962963e-01	 8.148148e+00	 9.901962e+00
0	 2.962963e-01	 8.222222e+00	 9.908955e+00
0	 2.962963e-01	 8.296296e+00	 9.915708e+00
0	 2.962963e-01	 8.370370e+00	 9.922226e+00
0	 2.962963e-01	 8.444444e+00	 9.928516e+00
0	 2.962963e-01	 8.518519e+00	 9.934584e+00
0	 3.703704e-01	 8.148148e+00	 9.902764e+00
0	 3.703704e-01	 8.222222e+00	 9.909698e+00
0	 3.703704e-01	 8.296296e+00	 9.916393e+00
0	 3.703704e-01	 8.370370e+00	 9.922857e+00
0	 3.703704e-01	 8.444444e+00	 9.929094e+00
0	 3.703704e-01	 8.518519e+00	 9.935112e+00
0	 0.000000e+00	 8.518519e+00	 9.933635e+00
0	 0.000000e+00	 8.592593e+00	 9.939551e+00
0	 0.000000e+00	 8.666667e+00	 9.945211e+00
0	 0.000000e+00	 8.740741e+00	 9.950625e+00
0	 0.000000e+00	 8.814815e+00	 9.955801e+00
0	 0.000000e+00	 8.888889e+00	 9.960749e+00
0	 7.407407e-02	 8.518519e+00	 9.933694e+00
0	 7.407407e-02	 8.592593e+00	 9.939604e+00
0	 7.407407e-02	 8.666667e+00	 9.945260e+00
0	 7.407407e-02	 8.740741e+00	 9.950669e+00
0	 7.407407e-02	 8.814815e+00	 9.955840e+00
0	 7.407407e-02	 8.888889e+00	 9.960784e+00
0	 1.481481e-01	 8.518519e+00	 9.933873e+00
0	 1.481481e-01	 8.592593e+00	 9.939767e+00
0	 1.481481e-01	 8.666667e+00	 9.945407e+00
0	 1.481481e-01	 8.740741e+00	 9.950802e+00
0	 1.481481e-01	 8.814815e+00	 9.955960e+00
0	 1.481481e-01	 8.888889e+00	 9.960890e+00
0	 2.222222e-01	 8.518519e+00	 9.934170e+00
0	 2.222222e-01	 8.592593e+00	 9.940038e+00
0	 2.222222e-01	 8.666667e+00	 9.945652e+00
0	 2.222222e-01	 8.740741e+00	 9.951022e+00
0	 2.222222e-01	 8.814815e+00	 9.956157e+00
0	 2.222222e-01	 8.888889e+00	 9.961065e+00
0	 2.962963e-01	 8.518519e+00	 9.934584e+00
0	 2.962963e-01	 8.592593e+00	 9.940414e+00
0	 2.962963e-01	 8.666667e+00	 9.945993e+00
0	 2.962963e-01	 8.740741e+00	 9.951329e+00
0	 2.962963e-01	 8.814815e+00	 9.956432e+00
0	 2.962963e-01	 8.888889e+00	 9.961309e+00
0	 3.703704e-01	 8.518519e+00	 9.935112e+00
0	 3.703704e-01	 8.592593e+00	 9.940894e+00
0	 3.703704e-01	 8.666667e+00	 9.946427e+00
0	 3.703704e-01	 8.740741e+00	 9.951720e+00
0	 3.703704e-01	 8.814815e+00	 9.956781e+00
0	 3.703704e-01	 8.888889e+00	 9.961619e+00
0	 0.000000e+00	 8.888889e+00	 9.960749e+00
0	 0.000000e+00	 8.962963e+00	 9.965440e+00
0	 0.000000e+00	 9.037037e+00	 9.969849e+00
0	 0.000000e+00	 9.111111e+00	 9.973988e+00
0	 0.000000e+00	 9.185185e+00	 9.977869e+00
0	 0.000000e+00	 9.259259e+00	 9.981504e+00
0	 7.407407e-02	 8.888889e+00	 9.960784e+00
0	 7.407407e-02	 8.962963e+00	 9.965471e+00
0	 7.407407e-02	 9.037037e+00	 9.969876e+00
0	 7.407407e-02	 9.111111e+00	 9.974011e+00
0	 7.407407e-02	 9.185185e+00	 9.977889e+00
0	 7.407407e-02	 9.259259e+00	 9.981521e+00
0	 1.481481e-01	 8.888889e+00	 9.960890e+00
0	 1.481481e-01	 8.962963e+00	 9.965564e+00
0	 1.481481e-01	 9.037037e+00	 9.969957e+00
0	 1.481481e-01	 9.111111e+00	 9.974081e+00
0	 1.481481e-01	 9.185185e+00	 9.977948e+00
0	 1.481481e-01	 9.259259e+00	 9.981571e+00
0	 2.222222e-01	 8.888889e+00	 9.961065e+00
0	 2.222222e-01	 8.962963e+00	 9.965719e+00
0	 2.222222e-01	 9.037037e+00	 9.970092e+00
0	 2.222222e-01	 9.111111e+00	 9.974198e+00
0	 2.222222e-01	 9.185185e+00	 9.978048e+00
0	 2.222222e-01	 9.259259e+00	 9.981654e+00
0	 2.962963e-01	 8.888889e+00	 9.961309e+00
0	 2.962963e-01	 8.962963e+00	 9.965933e+00
0	 2.962963e-01	 9.037037e+00	 9.970279e+00
0	 2.962963e-01	 9.111111e+00	 9.974359e+00
0	 2.962963e-01	 9.185185e+00	 9.978185e+00
0	 2.962963e-01	 9.259259e+00	 9.981769e+00
0	 3.703704e-01	 8.888889e+00	 9.961619e+00
0	 3.703704e-01	 8.962963e+00	 9.966206e+00
0	 3.703704e-01	 9.037037e+00	 9.970517e+00
0	 3.703704e-01	 9.111111e+00	 9.974564e+00
0	 3.703704e-01	 9.185185e+00	 9.978359e+00
0	 3.703704e-01	 9.259259e+00	 9.981914e+00
0	 0.000000e+00	 9.259259e+00	 9.981504e+00
0	 0.000000e+00	 9.333333e+00	 9.984848e+00
0	 0.000000e+00	 9.407407e+00	 9.987858e+00
0	 0.000000e+00	 9.481481e+00	 9.990551e+00
0	 0.000000e+00	 9.555556e+00	 9.992944e+00
0	 0.000000e+00	 9.629630e+00	 9.995052e+00
0	 7.407407e-02	 9.259259e+00	 9.981521e+00
0	 7.407407e-02	 9.333333e+00	 9.984861e+00
0	 7.407407e-02	 9.407407e+00	 9.987869e+00
0	 7.407407e-02	 9.481481e+00	 9.990559e+00
0	 7.407407e-02	 9.555556e+00	 9.992950e+00
0	 7.407407e-02	 9.629630e+00	 9.995057e+00
0	 1.481481e-01	 9.259259e+00	 9.981571e+00
0	 1.481481e-01	 9.333333e+00	 9.984903e+00
0	 1.481481e-01	 9.407407e+00	 9.987902e+00
0	 1.481481e-01	 9.481481e+00	 9.990585e+00
0	 1.481481e-01	 9.555556e+00	 9.992970e+00
0	 1.481481e-01	 9.629630e+00	 9.995071e+00
0	 2.222222e-01	 9.259259e+00	 9.981654e+00
0	 2.222222e-01	 9.333333e+00	 9.984971e+00
0	 2.222222e-01	 9.407407e+00	 9.987957e+00
0	 2.222222e-01	 9.481481e+00	 9.990629e+00
0	 2.222222e-01	 9.555556e+00	 9.993002e+00
0	 2.222222e-01	 9.629630e+00	 9.995094e+00
0	 2.962963e-01	 9.259259e+00	 9.981769e+00
0	 2.962963e-01	 9.333333e+00	 9.985065e+00
0	 2.962963e-01	 9.407407e+00	 9.988033e+00
0	 2.962963e-01	 9.481481e+00	 9.990688e+00
0	 2.962963e-01	 9.555556e+00	 9.993046e+00
0	 2.962963e-01	 9.629630e+00	 9.995125e+00
0	 3.703704e-01	 9.259259e+00	 9.981914e+00
0	 3.703704e-01	 9.333333e+00	 9.985185e+00
0	 3.703704e-01	 9.407407e+00	 9.988128e+00
0	 3.703704e-01	 9.481481e+00	 9.990762e+00
0	 3.703704e-01	 9.555556e+00	 9.993101e+00
0	 3.703704e-01	 9.629630e+00	 9.995163e+00
0	 0.000000e+00	 9.629630e+00	 9.995052e+00
0	 0.000000e+00	 9.703704e+00	 9.996816e+00
0	 0.000000e+00	 9.777778e+00	 9.998175e+00
0	 0.000000e+00	 9.851852e+00	 9.999154e+00
0	 0.000000e+00	 9.925926e+00	 9.999772e+00
0	 0.000000e+00	 1.000000e+01	 1.000005e+01
0	 7.407407e-02	 9.629630e+00	 9.995057e+00
0	 7.407407e-02	 9.703704e+00	 9.996819e+00
0	 7.407407e-02	 9.777778e+00	 9.998177e+00
0	 7.407407e-02	 9.851852e+00	 9.999154e+00
0	 7.407407e-02	 9.925926e+00	 9.999772e+00
0	 7.407407e-02	 1.000000e+01	 1.000005e+01
0	 1.481481e-01	 9.629630e+00	 9.995071e+00
0	 1.481481e-01	 9.703704e+00	 9.996828e+00
0	 1.481481e-01	 9.777778e+00	 9.998182e+00
0	 1.481481e-01	 9.851852e+00	 9.999157e+00
0	 1.481481e-01	 9.925926e+00	 9.999773e+00
0	 1.481481e-01	 1.000000e+01	 1.000005e+01
0	 2.222222e-01	 9.629630e+00	 9.995094e+00
0	 2.222222e-01	 9.703704e+00	 9.996843e+00
0	 2.222222e-01	 9.777778e+00	 9.998191e+00
0	 2.222222e-01	 9.851852e+00	 9.999161e+00
0	 2.222222e-01	 9.925926e+00	 9.999775e+00
0	 2.222222e-01	 1.000000e+01	 1.000005e+01
0	 2.962963e-01	 9.629630e+00	 9.995125e+00
0	 2.962963e-01	 9.703704e+00	 9.996863e+00
0	 2.962963e-01	 9.777778e+00	 9.998203e+00
0	 2.962963e-01	 9.851852e+00	 9.999166e+00
0	 2.962963e-01	 9.925926e+00	 9.999776e+00
0	 2.962963e-01	 1.000000e+01	 1.000005e+01
0	 3.703704e-01	 9.629630e+00	 9.995163e+00
0	 3.703704e-01	 9.703704e+00	 9.996886e+00
0	 3.703704e-01	 9.777778e+00	 9.998215e+00
0	 3.703704e-01	 9.851852e+00	 9.999171e+00
0	 3.703704e-01	 9.925926e+00	 9.999776e+00
0	 3.703704e-01	 1.000000e+01	 1.000005e+01
0	 3.703704e-01	 0.000000e+00	 4.944947e-01
0	 3.703704e-01	 7.407407e-02	-1.875097e-02
0	 3.703704e-01	 1.481481e-01	-3.172175e-01
0	 3.703704e-01	 2.222222e-01	-3.702677e-01
0	 3.703704e-01	 2.962963e-01	-1.472645e-01
0	 3.703704e-01	 3.703704e-01	 3.824293e-01
0	 4.444444e-01	 0.000000e+00	 3.168467e-01
0	 4.444444e-01	 7.407407e-02	-9.824864e-02
0	 4.444444e-01	 1.481481e-01	-3.306189e-01
0	 4.444444e-01	 2.222222e-01	-3.649767e-01
0	 4.444444e-01	 2.962963e-01	-1.860345e-01
0	 4.444444e-01	 3.703704e-01	 2.214951e-01
0	 5.185185e-01	 0.000000e+00	 1.829043e-01
0	 5.185185e-01	 7.407407e-02	-8.648128e-02
0	 5.185185e-01	 1.481481e-01	-2.327065e-01
0	 5.185185e-01	 2.222222e-01	-2.551839e-01
0	 5.185185e-01	 2.962963e-01	-1.533260e-01
0	 5.185185e-01	 3.703704e-01	 7.345443e-02
0	 5.925926e-01	 0.000000e+00	 9.459891e-02
0	 5.925926e-01	 7.407407e-02	 1.583368e-04
0	 5.925926e-01	 1.481481e-01	-4.560322e-02
0	 5.925926e-01	 2.222222e-01	-5.614871e-02
0	 5.925926e-01	 2.962963e-01	-4.494107e-02
0	 5.925926e-01	 3.703704e-01	-2.544324e-02
0	 6.666667e-01	 0.000000e+00	 5.386209e-02
0	 6.666667e-01	 7.407407e-02	 1.452775e-01
0	 6.666667e-01	 1.481481e-01	 2.085677e-01
0	 6.666667e-01	 2.222222e-01	 2.168692e-01
0	 6.666667e-01	 2.962963e-01	 1.433183e-01
0	 6.666667e-01	 3.703704e-01	-3.894853e-02
0	 7.407407e-01	 0.000000e+00	 6.262535e-02
0	 7.407407e-01	 7.407407e-02	 3.324833e-01
0	 7.407407e-01	 1.481481e-01	 5.076832e-01
0	 7.407407e-01	 2.222222e-01	 5.486104e-01
0	 7.407407e-01	 2.962963e-01	 4.156502e-01
0	 7.407407e-01	 3.703704e-01	 6.918795e-02
0	 3.703704e-01	 3.703704e-01	 3.824293e-01
0	 3.703704e-01	 4.444444e-01	 8.642423e-01
0	 3.703704e-01	 5.185185e-01	 9.036431e-01
0	 3.703704e-01	 5.925926e-01	 4.713291e-01
0	 3.703704e-01	 6.666667e-01	-4.620024e-01
0	 3.703704e-01	 7.407407e-01	-1.925654e+00
0	 4.444444e-01	 3.703704e-01	 2.214951e-01
0	 4.444444e-01	 4.444444e-01	 5.852788e-01
0	 4.444444e-01	 5.185185e-01	 6.053450e-01
0	 4.444444e-01	 5.925926e-01	 2.555236e-01
0	 4.444444e-01	 6.666667e-01	-4.903551e-01
0	 4.444444e-01	 7.407407e-01	-1.658461e+00
0	 5.185185e-01	 3.703704e-01	 7.345443e-02
0	 5.185185e-01	 4.444444e-01	 2.700080e-01
0	 5.185185e-01	 5.185185e-01	 2.671640e-01
0	 5.185185e-01	 5.925926e-01	 4.447849e-02
0	 5.185185e-01	 6.666667e-01	-4.184928e-01
0	 5.185185e-01	 7.407407e-01	-1.142194e+00
0	 5.925926e-01	 3.703704e-01	-2.544324e-02
0	 5.925926e-01	 4.444444e-01	-8.955807e-03
0	 5.925926e-01	 5.185185e-01	-5.887438e-03
0	 5.925926e-01	 5.925926e-01	-2.836320e-02
0	 5.925926e-01	 6.666667e-01	-8.850818e-02
0	 5.925926e-01	 7.407407e-01	-1.984474e-01
0	 6.666667e-01	 3.703704e-01	-3.894853e-02
0	 6.666667e-01	 4.444444e-01	-1.789983e-01
0	 6.666667e-01	 5.185185e-01	-1.087973e-01
0	 6.666667e-01	 5.925926e-01	 1.704417e-01
0	 6.666667e-01	 6.666667e-01	 6.575058e-01
0	 6.666667e-01	 7.407407e-01	 1.351182e+00
0	 7.407407e-01	 3.703704e-01	 6.918795e-02
0	 7.407407e-01	 4.444444e-01	-1.675052e-01
0	 7.407407e-01	 5.185185e-01	 6.344677e-02
0	 7.407407e-01	 5.925926e-01	 7.743364e-01
0	 7.407407e-01	 6.666667e-01	 1.977456e+00
0	 7.407407e-01	 7.407407e-01	 3.685099e+00
0	 3.703704e-01	 7.407407e-01	-1.925654e+00
0	 3.703704e-01	 8.148148e-01	-1.680404e+00
0	 3.703704e-01	 8.888889e-01	 2.553789e+00
0	 3.703704e-01	 9.629630e-01	 1.080886e+01
0	 3.703704e-01	 1.037037e+00	 2.311672e+01
0	 3.703704e-01	 1.111111e+00	 3.950932e+01
0	 4.444444e-01	 7.407407e-01	-1.658461e+00
0	 4.444444e-01	 8.148148e-01	-1.011939e+00
0	 4.444444e-01	 8.888889e-01	 3.720750e+00
0	 4.444444e-01	 9.629630e-01	 1.256546e+01
0	 4.444444e-01	 1.037037e+00	 2.554804e+01
0	 4.444444e-01	 1.111111e+00	 4.269435e+01
0	 5.185185e-01	 7.407407e-01	-1.142194e+00
0	 5.185185e-01	 8.148148e-01	-3.010245e-02
0	 5.185185e-01	 8.888889e-01	 5.043130e+00
0	 5.185185e-01	 9.629630e-01	 1.410030e+01
0	 5.185185e-01	 1.037037e+00	 2.716420e+01
0	 5.185185e-01	 1.111111e+00	 4.425762e+01
0	 5.925926e-01	 7.407407e-01	-1.984474e-01
0	 5.925926e-01	 8.148148e-01	 1.463439e+00
0	 5.925926e-01	 8.888889e-01	 6.742024e+00
0	 5.925926e-01	 9.629630e-01	 1.566006e+01
0	 5.925926e-01	 1.037037e+00	 2.824030e+01
0	 5.925926e-01	 1.111111e+00	 4.450550e+01
0	 6.666667e-01	 7.407407e-01	 1.351182e+00
0	 6.666667e-01	 8.148148e-01	 3.667020e+00
0	 6.666667e-01	 8.888889e-01	 9.038528e+00
0	 6.666667e-01	 9.629630e-01	 1.749144e+01
0	 6.666667e-01	 1.037037e+00	 2.905147e+01
0	 6.666667e-01	 1.111111e+00	 4.374437e+01
0	 7.407407e-01	 7.407407e-01	 3.685099e+00
0	 7.407407e-01	 8.148148e-01	 6.778972e+00
0	 7.407407e-01	 8.888889e-01	 1.215373e+01
0	 7.407407e-01	 9.629630e-01	 1.984111e+01
0	 7.407407e-01	 1.037037e+00	 2.987282e+01
0	 7.407407e-01	 1.111111e+00	 4.228058e+01
0	 3.703704e-01	 1.111111e+00	 3.950932e+01
0	 3.703704e-01	 1.185185e+00	 5.493084e+01
0	 3.703704e-01	 1.259259e+00	 6.428445e+01
0	 3.703704e-01	 1.333333e+00	 6.754053e+01
0	 3.703704e-01	 1.407407e+00	 6.466946e+01
0	 3.703704e-01	 1.481481e+00	 5.564164e+01
0	 4.444444e-01	 1.111111e+00	 4.269435e+01
0	 4.444444e-01	 1.185185e+00	 5.854204e+01
0	 4.444444e-01	 1.259259e+00	 6.760172e+01
0	 4.444444e-01	 1.333333e+00	 6.985867e+01
0	 4.444444e-01	 1.407407e+00	 6.529816e+01
0	 4.444444e-01	 1.481481e+00	 5.390549e+01
0	 5.185185e-01	 1.111111e+00	 4.425762e+01
0	 5.185185e-01	 1.185185e+00	 5.985689e+01
0	 5.185185e-01	 1.259259e+00	 6.841874e+01
0	 5.185185e-01	 1.333333e+00	 6.993657e+01
0	 5.185185e-01	 1.407407e+00	 6.440379e+01
0	 5.185185e-01	 1.481481e+00	 5.181382e+01
0	 5.925926e-01	 1.111111e+00	 4.450550e+01
0	 5.925926e-01	 1.185185e+00	 5.918911e+01
0	 5.925926e-01	 1.259259e+00	 6.700591e+01
0	 5.925926e-01	 1.333333e+00	 6.795068e+01
0	 5.925926e-01	 1.407407e+00	 6.201818e+01
0	 5.925926e-01	 1.481481e+00	 4.920318e+01
0	 6.666667e-01	 1.111111e+00	 4.374437e+01
0	 6.666667e-01	 1.185185e+00	 5.685242e+01
0	 6.666667e-01	 1.259259e+00	 6.363366e+01
0	 6.666667e-01	 1.333333e+00	 6.407746e+01
0	 6.666667e-01	 1.407407e+00	 5.817317e+01
0	 6.666667e-01	 1.481481e+00	 4.591015e+01
0	 7.407407e-01	 1.111111e+00	 4.228058e+01
0	 7.407407e-01	 1.185185e+00	 5.316051e+01
0	 7.407407e-01	 1.259259e+00	 5.857238e+01
0	 7.407407e-01	 1.333333e+00	 5.849335e+01
0	 7.407407e-01	 1.407407e+00	 5.290060e+01
0	 7.407407e-01	 1.481481e+00	 4.177132e+01
0	 3.703704e-01	 1.481481e+00	 5.564164e+01
0	 3.703704e-01	 1.555556e+00	 4.427163e+01
0	 3.703704e-01	 1.629630e+00	 3.440920e+01
0	 3.703704e-01	 1.703704e+00	 2.607751e+01
0	 3.703704e-01	 1.777778e+00	 1.929973e+01
0	 3.703704e-01	 1.851852e+00	 1.409902e+01
0	 4.444444e-01	 1.481481e+00	 5.390549e+01
0	 4.444444e-01	 1.555556e+00	 4.031393e+01
0	 4.444444e-01	 1.629630e+00	 2.917316e+01
0	 4.444444e-01	 1.703704e+00	 2.049306e+01
0	 4.444444e-01	 1.777778e+00	 1.428351e+01
0	 4.444444e-01	 1.851852e+00	 1.055439e+01
0	 5.185185e-01	 1.481481e+00	 5.181382e+01
0	 5.185185e-01	 1.555556e+00	 3.718226e+01
0	 5.185185e-01	 1.629630e+00	 2.552931e+01
0	 5.185185e-01	 1.703704e+00	 1.685528e+01
0	 5.185185e-01	 1.777778e+00	 1.116045e+01
0	 5.185185e-01	 1.851852e+00	 8.445121e+00
0	 5.925926e-01	 1.481481e+00	 4.920318e+01
0	 5.925926e-01	 1.555556e+00	 3.452959e+01
0	 5.925926e-01	 1.629630e+00	 2.302109e+01
0	 5.925926e-01	 1.703704e+00	 1.467208e+01
0	 5.925926e-01	 1.777778e+00	 9.476965e+00
0	 5.925926e-01	 1.851852e+00	 7.430131e+00
0	 6.666667e-01	 1.481481e+00	 4.591015e+01
0	 6.666667e-01	 1.555556e+00	 3.200893e+01
0	 6.666667e-01	 1.629630e+00	 2.119194e+01
0	 6.666667e-01	 1.703704e+00	 1.345137e+01
0	 6.666667e-01	 1.777778e+00	 8.779433e+00
0	 6.666667e-01	 1.851852e+00	 7.168315e+00
0	 7.407407e-01	 1.481481e+00	 4.177132e+01
0	 7.407407e-01	 1.555556e+00	 2.927329e+01
0	 7.407407e-01	 1.629630e+00	 1.958530e+01
0	 7.407407e-01	 1.703704e+00	 1.270106e+01
0	 7.407407e-01	 1.777778e+00	 8.614248e+00
0	 7.407407e-01	 1.851852e+00	 7.318570e+00
0	 3.703704e-01	 1.851852e+00	 1.409902e+01
0	 3.703704e-01	 1.925926e+00	 1.023382e+01
0	 3.703704e-01	 2.000000e+00	 7.441153e+00
0	 3.703704e-01	 2.074074e+00	 5.712130e+00
0	 3.703704e-01	 2.148148e+00	 5.037849e+00
0	 3.703704e-01	 2.222222e+00	 5.409411e+00
0	 4.444444e-01	 1.851852e+00	 1.055439e+01
0	 4.444444e-01	 1.925926e+00	 8.384041e+00
0	 4.444444e-01	 2.000000e+00	 6.841487e+00
0	 4.444444e-01	 2.074074e+00	 5.922615e+00
0	 4.444444e-01	 2.148148e+00	 5.623317e+00
0	 4.444444e-01	 2.222222e+00	 5.939483e+00
0	 5.185185e-01	 1.851852e+00	 8.445121e+00
0	 5.185185e-01	 1.925926e+00	 7.383752e+00
0	 5.185185e-01	 2.000000e+00	 6.650546e+00
0	 5.185185e-01	 2.074074e+00	 6.245398e+00
0	 5.185185e-01	 2.148148e+00	 6.168200e+00
0	 5.185185e-01	 2.222222e+00	 6.418846e+00
0	 5.925926e-01	 1.851852e+00	 7.430131e+00
0	 5.925926e-01	 1.925926e+00	 7.025371e+00
0	 5.925926e-01	 2.000000e+00	 6.762277e+00
0	 5.925926e-01	 2.074074e+00	 6.643957e+00
0	 5.925926e-01	 2.148148e+00	 6.673518e+00
0	 5.925926e-01	 2.222222e+00	 6.854068e+00
0	 6.666667e-01	 1.851852e+00	 7.168315e+00
0	 6.666667e-01	 1.925926e+00	 7.101317e+00
0	 6.666667e-01	 2.000000e+00	 7.070625e+00
0	 6.666667e-01	 2.074074e+00	 7.081772e+00
0	 6.666667e-01	 2.148148e+00	 7.140290e+00
0	 6.666667e-01	 2.222222e+00	 7.251713e+00
0	 7.407407e-01	 1.851852e+00	 7.318570e+00
0	 7.407407e-01	 1.925926e+00	 7.404009e+00
0	 7.407407e-01	 2.000000e+00	 7.469537e+00
0	 7.407407e-01	 2.074074e+00	 7.522323e+00
0	 7.407407e-01	 2.148148e+00	 7.569536e+00
0	 7.407407e-01	 2.222222e+00	 7.618347e+00
0	 3.703704e-01	 2.222222e+00	 5.409411e+00
0	 3.703704e-01	 2.296296e+00	 6.200984e+00
0	 3.703704e-01	 2.370370e+00	 6.792754e+00
0	 3.703704e-01	 2.444444e+00	 7.184852e+00
0	 3.703704e-01	 2.518519e+00	 7.377407e+00
0	 3.703704e-01	 2.592593e+00	 7.370548e+00
0	 4.444444e-01	 2.222222e+00	 5.939483e+00
0	 4.444444e-01	 2.296296e+00	 6.497921e+00
0	 4.444444e-01	 2.370370e+00	 6.927133e+00
0	 4.444444e-01	 2.444444e+00	 7.225551e+00
0	 4.444444e-01	 2.518519e+00	 7.391606e+00
0	 4.444444e-01	 2.592593e+00	 7.423732e+00
0	 5.185185e-01	 2.222222e+00	 6.418846e+00
0	 5.185185e-01	 2.296296e+00	 6.796399e+00
0	 5.185185e-01	 2.370370e+00	 7.098055e+00
0	 5.185185e-01	 2.444444e+00	 7.320908e+00
0	 5.185185e-01	 2.518519e+00	 7.462055e+00
0	 5.185185e-01	 2.592593e+00	 7.518589e+00
0	 5.925926e-01	 2.222222e+00	 6.854068e+00
0	 5.925926e-01	 2.296296e+00	 7.094009e+00
0	 5.925926e-01	 2.370370e+00	 7.297084e+00
0	 5.925926e-01	 2.444444e+00	 7.459411e+00
0	 5.925926e-01	 2.518519e+00	 7.577109e+00
0	 5.925926e-01	 2.592593e+00	 7.646297e+00
0	 6.666667e-01	 2.222222e+00	 7.251713e+00
0	 6.666667e-01	 2.296296e+00	 7.388340e+00
0	 6.666667e-01	 2.370370e+00	 7.515783e+00
0	 6.666667e-01	 2.444444e+00	 7.629544e+00
0	 6.666667e-01	 2.518519e+00	 7.725128e+00
0	 6.666667e-01	 2.592593e+00	 7.798035e+00
0	 7.407407e-01	 2.222222e+00	 7.618347e+00
0	 7.407407e-01	 2.296296e+00	 7.676981e+00
0	 7.407407e-01	 2.370370e+00	 7.745714e+00
0	 7.407407e-01	 2.444444e+00	 7.819794e+00
0	 7.407407e-01	 2.518519e+00	 7.894467e+00
0	 7.407407e-01	 2.592593e+00	 7.964980e+00
0	 3.703704e-01	 2.592593e+00	 7.370548e+00
0	 3.703704e-01	 2.666667e+00	 7.295085e+00
0	 3.703704e-01	 2.740741e+00	 7.282148e+00
0	 3.703704e-01	 2.814815e+00	 7.332351e+00
0	 3.703704e-01	 2.888889e+00	 7.446305e+00
0	 3.703704e-01	 2.962963e+00	 7.624623e+00
0	 4.444444e-01	 2.592593e+00	 7.423732e+00
0	 4.444444e-01	 2.666667e+00	 7.406805e+00
0	 4.444444e-01	 2.740741e+00	 7.428105e+00
0	 4.444444e-01	 2.814815e+00	 7.489664e+00
0	 4.444444e-01	 2.888889e+00	 7.593518e+00
0	 4.444444e-01	 2.962963e+00	 7.741698e+00
0	 5.185185e-01	 2.592593e+00	 7.518589e+00
0	 5.185185e-01	 2.666667e+00	 7.540972e+00
0	 5.185185e-01	 2.740741e+00	 7.583668e+00
0	 5.185185e-01	 2.814815e+00	 7.649781e+00
0	 5.185185e-01	 2.888889e+00	 7.742414e+00
0	 5.185185e-01	 2.962963e+00	 7.864670e+00
0	 5.925926e-01	 2.592593e+00	 7.646297e+00
0	 5.925926e-01	 2.666667e+00	 7.692518e+00
0	 5.925926e-01	 2.740741e+00	 7.746450e+00
0	 5.925926e-01	 2.814815e+00	 7.811913e+00
0	 5.925926e-01	 2.888889e+00	 7.892727e+00
0	 5.925926e-01	 2.962963e+00	 7.992711e+00
0	 6.666667e-01	 2.592593e+00	 7.798035e+00
0	 6.666667e-01	 2.666667e+00	 7.856379e+00
0	 6.666667e-01	 2.740741e+00	 7.914062e+00
0	 6.666667e-01	 2.814815e+00	 7.975269e+00
0	 6.666667e-01	 2.888889e+00	 8.044186e+00
0	 6.666667e-01	 2.962963e+00	 8.124997e+00
0	 7.407407e-01	 2.592593e+00	 7.964980e+00
0	 7.407407e-01	 2.666667e+00	 8.027489e+00
0	 7.407407e-01	 2.740741e+00	 8.084116e+00
0	 7.407407e-01	 2.814815e+00	 8.139062e+00
0	 7.407407e-01	 2.888889e+00	 8.196523e+00
0	 7.407407e-01	 2.962963e+00	 8.260698e+00
0	 3.703704e-01	 2.962963e+00	 7.624623e+00
0	 3.703704e-01	 3.037037e+00	 7.818351e+00
0	 3.703704e-01	 3.111111e+00	 7.977763e+00
0	 3.703704e-01	 3.185185e+00	 8.102313e+00
0	 3.703704e-01	 3.259259e+00	 8.191459e+00
0	 3.703704e-01	 3.333333e+00	 8.244654e+00
0	 4.444444e-01	 2.962963e+00	 7.741698e+00
0	 4.444444e-01	 3.037037e+00	 7.901384e+00
0	 4.444444e-01	 3.111111e+00	 8.037450e+00
0	 4.444444e-01	 3.185185e+00	 8.148472e+00
0	 4.444444e-01	 3.259259e+00	 8.233024e+00
0	 4.444444e-01	 3.333333e+00	 8.289684e+00
0	 5.185185e-01	 2.962963e+00	 7.864670e+00
0	 5.185185e-01	 3.037037e+00	 7.995795e+00
0	 5.185185e-01	 3.111111e+00	 8.111605e+00
0	 5.185185e-01	 3.185185e+00	 8.210051e+00
0	 5.185185e-01	 3.259259e+00	 8.289086e+00
0	 5.185185e-01	 3.333333e+00	 8.346661e+00
0	 5.925926e-01	 2.962963e+00	 7.992711e+00
0	 5.925926e-01	 3.037037e+00	 8.099827e+00
0	 5.925926e-01	 3.111111e+00	 8.197877e+00
0	 5.925926e-01	 3.185185e+00	 8.284446e+00
0	 5.925926e-01	 3.259259e+00	 8.357118e+00
0	 5.925926e-01	 3.333333e+00	 8.413479e+00
0	 6.666667e-01	 2.962963e+00	 8.124997e+00
0	 6.666667e-01	 3.037037e+00	 8.211725e+00
0	 6.666667e-01	 3.111111e+00	 8.293919e+00
0	 6.666667e-01	 3.185185e+00	 8.369052e+00
0	 6.666667e-01	 3.259259e+00	 8.434598e+00
0	 6.666667e-01	 3.333333e+00	 8.488031e+00
0	 7.407407e-01	 2.962963e+00	 8.260698e+00
0	 7.407407e-01	 3.037037e+00	 8.329732e+00
0	 7.407407e-01	 3.111111e+00	 8.397381e+00
0	 7.407407e-01	 3.185185e+00	 8.461264e+00
0	 7.407407e-01	 3.259259e+00	 8.519000e+00
0	 7.407407e-01	 3.333333e+00	 8.568207e+00
0	 3.703704e-01	 3.333333e+00	 8.244654e+00
0	 3.703704e-01	 3.407407e+00	 8.283852e+00
0	 3.703704e-01	 3.481481e+00	 8.331623e+00
0	 3.703704e-01	 3.555556e+00	 8.388349e+00
0	 3.703704e-01	 3.629630e+00	 8.454413e+00
0	 3.703704e-01	 3.703704e+00	 8.530200e+00
0	 4.444444e-01	 3.333333e+00	 8.289684e+00
0	 4.444444e-01	 3.407407e+00	 8.334151e+00
0	 4.444444e-01	 3.481481e+00	 8.383678e+00
0	 4.444444e-01	 3.555556e+00	 8.439175e+00
0	 4.444444e-01	 3.629630e+00	 8.501547e+00
0	 4.444444e-01	 3.703704e+00	 8.571704e+00
0	 5.185185e-01	 3.333333e+00	 8.346661e+00
0	 5.185185e-01	 3.407407e+00	 8.393626e+00
0	 5.185185e-01	 3.481481e+00	 8.443045e+00
0	 5.185185e-01	 3.555556e+00	 8.496198e+00
0	 5.185185e-01	 3.629630e+00	 8.554362e+00
0	 5.185185e-01	 3.703704e+00	 8.618817e+00
0	 5.925926e-01	 3.333333e+00	 8.413479e+00
0	 5.925926e-01	 3.407407e+00	 8.460702e+00
0	 5.925926e-01	 3.481481e+00	 8.508565e+00
0	 5.925926e-01	 3.555556e+00	 8.558566e+00
0	 5.925926e-01	 3.629630e+00	 8.612203e+00
0	 5.925926e-01	 3.703704e+00	 8.670973e+00
0	 6.666667e-01	 3.333333e+00	 8.488031e+00
0	 6.666667e-01	 3.407407e+00	 8.533799e+00
0	 6.666667e-01	 3.481481e+00	 8.579078e+00
0	 6.666667e-01	 3.555556e+00	 8.625431e+00
0	 6.666667e-01	 3.629630e+00	 8.674418e+00
0	 6.666667e-01	 3.703704e+00	 8.727604e+00
0	 7.407407e-01	 3.333333e+00	 8.568207e+00
0	 7.407407e-01	 3.407407e+00	 8.611341e+00
0	 7.407407e-01	 3.481481e+00	 8.653427e+00
0	 7.407407e-01	 3.555556e+00	 8.695940e+00
0	 7.407407e-01	 3.629630e+00	 8.740354e+00
0	 7.407407e-01	 3.703704e+00	 8.788144e+00
0	 3.703704e-01	 3.703704e+00	 8.530200e+00
0	 3.703704e-01	 3.777778e+00	 8.607089e+00
0	 3.703704e-01	 3.851852e+00	 8.676020e+00
0	 3.703704e-01	 3.925926e+00	 8.736714e+00
0	 3.703704e-01	 4.000000e+00	 8.788890e+00
0	 3.703704e-01	 4.074074e+00	 8.832271e+00
0	 4.444444e-01	 3.703704e+00	 8.571704e+00
0	 4.444444e-01	 3.777778e+00	 8.642979e+00
0	 4.444444e-01	 3.851852e+00	 8.707755e+00
0	 4.444444e-01	 3.925926e+00	 8.765513e+00
0	 4.444444e-01	 4.000000e+00	 8.815731e+00
0	 4.444444e-01	 4.074074e+00	 8.857889e+00
0	 5.185185e-01	 3.703704e+00	 8.618817e+00
0	 5.185185e-01	 3.777778e+00	 8.684462e+00
0	 5.185185e-01	 3.851852e+00	 8.744888e+00
0	 5.185185e-01	 3.925926e+00	 8.799413e+00
0	 5.185185e-01	 4.000000e+00	 8.847354e+00
0	 5.185185e-01	 4.074074e+00	 8.888028e+00
0	 5.925926e-01	 3.703704e+00	 8.670973e+00
0	 5.925926e-01	 3.777778e+00	 8.730999e+00
0	 5.925926e-01	 3.851852e+00	 8.786897e+00
0	 5.925926e-01	 3.925926e+00	 8.837902e+00
0	 5.925926e-01	 4.000000e+00	 8.883248e+00
0	 5.925926e-01	 4.074074e+00	 8.922169e+00
0	 6.666667e-01	 3.703704e+00	 8.727604e+00
0	 6.666667e-01	 3.777778e+00	 8.782049e+00
0	 6.666667e-01	 3.851852e+00	 8.833260e+00
0	 6.666667e-01	 3.925926e+00	 8.880466e+00
0	 6.666667e-01	 4.000000e+00	 8.922900e+00
0	 6.666667e-01	 4.074074e+00	 8.959792e+00
0	 7.407407e-01	 3.703704e+00	 8.788144e+00
0	 7.407407e-01	 3.777778e+00	 8.837072e+00
0	 7.407407e-01	 3.851852e+00	 8.883453e+00
0	 7.407407e-01	 3.925926e+00	 8.926594e+00
0	 7.407407e-01	 4.000000e+00	 8.965800e+00
0	 7.407407e-01	 4.074074e+00	 9.000377e+00
0	 3.703704e-01	 4.074074e+00	 8.832271e+00
0	 3.703704e-01	 4.148148e+00	 8.871344e+00
0	 3.703704e-01	 4.222222e+00	 8.910860e+00
0	 3.703704e-01	 4.296296e+00	 8.950929e+00
0	 3.703704e-01	 4.370370e+00	 8.991661e+00
0	 3.703704e-01	 4.444444e+00	 9.033170e+00
0	 4.444444e-01	 4.074074e+00	 8.857889e+00
0	 4.444444e-01	 4.148148e+00	 8.895870e+00
0	 4.444444e-01	 4.222222e+00	 8.934057e+00
0	 4.444444e-01	 4.296296e+00	 8.972677e+00
0	 4.444444e-01	 4.370370e+00	 9.011959e+00
0	 4.444444e-01	 4.444444e+00	 9.052132e+00
0	 5.185185e-01	 4.074074e+00	 8.888028e+00
0	 5.185185e-01	 4.148148e+00	 8.924729e+00
0	 5.185185e-01	 4.222222e+00	 8.961411e+00
0	 5.185185e-01	 4.296296e+00	 8.998386e+00
0	 5.185185e-01	 4.370370e+00	 9.035962e+00
0	 5.185185e-01	 4.444444e+00	 9.074452e+00
0	 5.925926e-01	 4.074074e+00	 8.922169e+00
0	 5.925926e-01	 4.148148e+00	 8.957400e+00
0	 5.925926e-01	 4.222222e+00	 8.992423e+00
0	 5.925926e-01	 4.296296e+00	 9.027595e+00
0	 5.925926e-01	 4.370370e+00	 9.063274e+00
0	 5.925926e-01	 4.444444e+00	 9.099817e+00
0	 6.666667e-01	 4.074074e+00	 8.959792e+00
0	 6.666667e-01	 4.148148e+00	 8.993362e+00
0	 6.666667e-01	 4.222222e+00	 9.026590e+00
0	 6.666667e-01	 4.296296e+00	 9.059845e+00
0	 6.666667e-01	 4.370370e+00	 9.093497e+00
0	 6.666667e-01	 4.444444e+00	 9.127912e+00
0	 7.407407e-01	 4.074074e+00	 9.000377e+00
0	 7.407407e-01	 4.148148e+00	 9.032094e+00
0	 7.407407e-01	 4.222222e+00	 9.063413e+00
0	 7.407407e-01	 4.296296e+00	 9.094677e+00
0	 7.407407e-01	 4.370370e+00	 9.126233e+00
0	 7.407407e-01	 4.444444e+00	 9.158424e+00
0	 3.703704e-01	 4.444444e+00	 9.033170e+00
0	 3.703704e-01	 4.518519e+00	 9.073870e+00
0	 3.703704e-01	 4.592593e+00	 9.112052e+00
0	 3.703704e-01	 4.666667e+00	 9.147637e+00
0	 3.703704e-01	 4.740741e+00	 9.180546e+00
0	 3.703704e-01	 4.814815e+00	 9.210700e+00
0	 4.444444e-01	 4.444444e+00	 9.052132e+00
0	 4.444444e-01	 4.518519e+00	 9.091667e+00
0	 4.444444e-01	 4.592593e+00	 9.128801e+00
0	 4.444444e-01	 4.666667e+00	 9.163415e+00
0	 4.444444e-01	 4.740741e+00	 9.195385e+00
0	 4.444444e-01	 4.814815e+00	 9.224590e+00
0	 5.185185e-01	 4.444444e+00	 9.074452e+00
0	 5.185185e-01	 4.518519e+00	 9.112443e+00
0	 5.185185e-01	 4.592593e+00	 9.148216e+00
0	 5.185185e-01	 4.666667e+00	 9.181622e+00
0	 5.185185e-01	 4.740741e+00	 9.212511e+00
0	 5.185185e-01	 4.814815e+00	 9.240734e+00
0	 5.925926e-01	 4.444444e+00	 9.099817e+00
0	 5.925926e-01	 4.518519e+00	 9.135967e+00
0	 5.925926e-01	 4.592593e+00	 9.170120e+00
0	 5.925926e-01	 4.666667e+00	 9.202113e+00
0	 5.925926e-01	 4.740741e+00	 9.231785e+00
0	 5.925926e-01	 4.814815e+00	 9.258971e+00
0	 6.666667e-01	 4.444444e+00	 9.127912e+00
0	 6.666667e-01	 4.518519e+00	 9.162005e+00
0	 6.666667e-01	 4.592593e+00	 9.194336e+00
0	 6.666667e-01	 4.666667e+00	 9.224743e+00
0	 6.666667e-01	 4.740741e+00	 9.253065e+00
0	 6.666667e-01	 4.814815e+00	 9.279139e+00
0	 7.407407e-01	 4.444444e+00	 9.158424e+00
0	 7.407407e-01	 4.518519e+00	 9.190327e+00
0	 7.407407e-01	 4.592593e+00	 9.220689e+00
0	 7.407407e-01	 4.666667e+00	 9.249366e+00
0	 7.407407e-01	 4.740741e+00	 9.276210e+00
0	 7.407407e-01	 4.814815e+00	 9.301077e+00
0	 3.703704e-01	 4.814815e+00	 9.210700e+00
0	 3.703704e-01	 4.888889e+00	 9.239158e+00
0	 3.703704e-01	 4.962963e+00	 9.267037e+00
0	 3.703704e-01	 5.037037e+00	 9.294348e+00
0	 3.703704e-01	 5.111111e+00	 9.321102e+00
0	 3.703704e-01	 5.185185e+00	 9.347307e+00
0	 4.444444e-01	 4.814815e+00	 9.224590e+00
0	 4.444444e-01	 4.888889e+00	 9.252110e+00
0	 4.444444e-01	 4.962963e+00	 9.279123e+00
0	 4.444444e-01	 5.037037e+00	 9.305658e+00
0	 4.444444e-01	 5.111111e+00	 9.331745e+00
0	 4.444444e-01	 5.185185e+00	 9.357413e+00
0	 5.185185e-01	 4.814815e+00	 9.240734e+00
0	 5.185185e-01	 4.888889e+00	 9.267323e+00
0	 5.185185e-01	 4.962963e+00	 9.293438e+00
0	 5.185185e-01	 5.037037e+00	 9.319123e+00
0	 5.185185e-01	 5.111111e+00	 9.344420e+00
0	 5.185185e-01	 5.185185e+00	 9.369374e+00
0	 5.925926e-01	 4.814815e+00	 9.258971e+00
0	 5.925926e-01	 4.888889e+00	 9.284610e+00
0	 5.925926e-01	 4.962963e+00	 9.309784e+00
0	 5.925926e-01	 5.037037e+00	 9.334546e+00
0	 5.925926e-01	 5.111111e+00	 9.358949e+00
0	 5.925926e-01	 5.185185e+00	 9.383045e+00
0	 6.666667e-01	 4.814815e+00	 9.279139e+00
0	 6.666667e-01	 4.888889e+00	 9.303784e+00
0	 6.666667e-01	 4.962963e+00	 9.327963e+00
0	 6.666667e-01	 5.037037e+00	 9.351734e+00
0	 6.666667e-01	 5.111111e+00	 9.375154e+00
0	 6.666667e-01	 5.185185e+00	 9.398282e+00
0	 7.407407e-01	 4.814815e+00	 9.301077e+00
0	 7.407407e-01	 4.888889e+00	 9.324657e+00
0	 7.407407e-01	 4.962963e+00	 9.347774e+00
0	 7.407407e-01	 5.037037e+00	 9.370489e+00
0	 7.407407e-01	 5.111111e+00	 9.392857e+00
0	 7.407407e-01	 5.185185e+00	 9.414938e+00
0	 3.703704e-01	 5.185185e+00	 9.347307e+00
0	 3.703704e-01	 5.259259e+00	 9.372712e+00
0	 3.703704e-01	 5.333333e+00	 9.397044e+00
0	 3.703704e-01	 5.407407e+00	 9.420287e+00
0	 3.703704e-01	 5.481481e+00	 9.442425e+00
0	 3.703704e-01	 5.555556e+00	 9.463442e+00
0	 4.444444e-01	 5.185185e+00	 9.357413e+00
0	 4.444444e-01	 5.259259e+00	 9.382351e+00
0	 4.444444e-01	 5.333333e+00	 9.406217e+00
0	 4.444444e-01	 5.407407e+00	 9.428989e+00
0	 4.444444e-01	 5.481481e+00	 9.450648e+00
0	 4.444444e-01	 5.555556e+00	 9.471172e+00
0	 5.185185e-01	 5.185185e+00	 9.369374e+00
0	 5.185185e-01	 5.259259e+00	 9.393659e+00
0	 5.185185e-01	 5.333333e+00	 9.416907e+00
0	 5.185185e-01	 5.407407e+00	 9.439095e+00
0	 5.185185e-01	 5.481481e+00	 9.460198e+00
0	 5.185185e-01	 5.555556e+00	 9.480193e+00
0	 5.925926e-01	 5.185185e+00	 9.383045e+00
0	 5.925926e-01	 5.259259e+00	 9.406526e+00
0	 5.925926e-01	 5.333333e+00	 9.429030e+00
0	 5.925926e-01	 5.407407e+00	 9.450533e+00
0	 5.925926e-01	 5.481481e+00	 9.471009e+00
0	 5.925926e-01	 5.555556e+00	 9.490434e+00
0	 6.666667e-01	 5.185185e+00	 9.398282e+00
0	 6.666667e-01	 5.259259e+00	 9.420841e+00
0	 6.666667e-01	 5.333333e+00	 9.442500e+00
0	 6.666667e-01	 5.407407e+00	 9.463234e+00
0	 6.666667e-01	 5.481481e+00	 9.483017e+00
0	 6.666667e-01	 5.555556e+00	 9.501825e+00
0	 7.407407e-01	 5.185185e+00	 9.414938e+00
0	 7.407407e-01	 5.259259e+00	 9.436494e+00
0	 7.407407e-01	 5.333333e+00	 9.457232e+00
0	 7.407407e-01	 5.407407e+00	 9.477128e+00
0	 7.407407e-01	 5.481481e+00	 9.496157e+00
0	 7.407407e-01	 5.555556e+00	 9.514296e+00
0	 3.703704e-01	 5.555556e+00	 9.463442e+00
0	 3.703704e-01	 5.629630e+00	 9.483624e+00
0	 3.703704e-01	 5.703704e+00	 9.503265e+00
0	 3.703704e-01	 5.777778e+00	 9.522357e+00
0	 3.703704e-01	 5.851852e+00	 9.540894e+00
0	 3.703704e-01	 5.925926e+00	 9.558869e+00
0	 4.444444e-01	 5.555556e+00	 9.471172e+00
0	 4.444444e-01	 5.629630e+00	 9.490874e+00
0	 4.444444e-01	 5.703704e+00	 9.510076e+00
0	 4.444444e-01	 5.777778e+00	 9.528774e+00
0	 4.444444e-01	 5.851852e+00	 9.546963e+00
0	 4.444444e-01	 5.925926e+00	 9.564637e+00
0	 5.185185e-01	 5.555556e+00	 9.480193e+00
0	 5.185185e-01	 5.629630e+00	 9.499391e+00
0	 5.185185e-01	 5.703704e+00	 9.518118e+00
0	 5.185185e-01	 5.777778e+00	 9.536372e+00
0	 5.185185e-01	 5.851852e+00	 9.554149e+00
0	 5.185185e-01	 5.925926e+00	 9.571447e+00
0	 5.925926e-01	 5.555556e+00	 9.490434e+00
0	 5.925926e-01	 5.629630e+00	 9.509098e+00
0	 5.925926e-01	 5.703704e+00	 9.527310e+00
0	 5.925926e-01	 5.777778e+00	 9.545070e+00
0	 5.925926e-01	 5.851852e+00	 9.562378e+00
0	 5.925926e-01	 5.925926e+00	 9.579234e+00
0	 6.666667e-01	 5.555556e+00	 9.501825e+00
0	 6.666667e-01	 5.629630e+00	 9.519916e+00
0	 6.666667e-01	 5.703704e+00	 9.537570e+00
0	 6.666667e-01	 5.777778e+00	 9.554790e+00
0	 6.666667e-01	 5.851852e+00	 9.571577e+00
0	 6.666667e-01	 5.925926e+00	 9.587935e+00
0	 7.407407e-01	 5.555556e+00	 9.514296e+00
0	 7.407407e-01	 5.629630e+00	 9.531768e+00
0	 7.407407e-01	 5.703704e+00	 9.548818e+00
0	 7.407407e-01	 5.777778e+00	 9.565450e+00
0	 7.407407e-01	 5.851852e+00	 9.581671e+00
0	 7.407407e-01	 5.925926e+00	 9.597484e+00
0	 3.703704e-01	 5.925926e+00	 9.558869e+00
0	 3.703704e-01	 6.000000e+00	 9.576275e+00
0	 3.703704e-01	 6.074074e+00	 9.593112e+00
0	 3.703704e-01	 6.148148e+00	 9.609376e+00
0	 3.703704e-01	 6.222222e+00	 9.625064e+00
0	 3.703704e-01	 6.296296e+00	 9.640173e+00
0	 4.444444e-01	 5.925926e+00	 9.564637e+00
0	 4.444444e-01	 6.000000e+00	 9.581769e+00
0	 4.444444e-01	 6.074074e+00	 9.598336e+00
0	 4.444444e-01	 6.148148e+00	 9.614333e+00
0	 4.444444e-01	 6.222222e+00	 9.629758e+00
0	 4.444444e-01	 6.296296e+00	 9.644609e+00
0	 5.185185e-01	 5.925926e+00	 9.571447e+00
0	 5.185185e-01	 6.000000e+00	 9.588229e+00
0	 5.185185e-01	 6.074074e+00	 9.604459e+00
0	 5.185185e-01	 6.148148e+00	 9.620135e+00
0	 5.185185e-01	 6.222222e+00	 9.635253e+00
0	 5.185185e-01	 6.296296e+00	 9.649811e+00
0	 5.925926e-01	 5.925926e+00	 9.579234e+00
0	 5.925926e-01	 6.000000e+00	 9.595600e+00
0	 5.925926e-01	 6.074074e+00	 9.611437e+00
0	 5.925926e-01	 6.148148e+00	 9.626741e+00
0	 5.925926e-01	 6.222222e+00	 9.641511e+00
0	 5.925926e-01	 6.296296e+00	 9.655742e+00
0	 6.666667e-01	 5.925926e+00	 9.587935e+00
0	 6.666667e-01	 6.000000e+00	 9.603829e+00
0	 6.666667e-01	 6.074074e+00	 9.619223e+00
0	 6.666667e-01	 6.148148e+00	 9.634112e+00
0	 6.666667e-01	 6.222222e+00	 9.648494e+00
0	 6.666667e-01	 6.296296e+00	 9.662367e+00
0	 7.407407e-01	 5.925926e+00	 9.597484e+00
0	 7.407407e-01	 6.000000e+00	 9.612862e+00
0	 7.407407e-01	 6.074074e+00	 9.627771e+00
0	 7.407407e-01	 6.148148e+00	 9.642207e+00
0	 7.407407e-01	 6.222222e+00	 9.656167e+00
0	 7.407407e-01	 6.296296e+00	 9.669648e+00
0	 3.703704e-01	 6.296296e+00	 9.640173e+00
0	 3.703704e-01	 6.370370e+00	 9.654794e+00
0	 3.703704e-01	 6.444444e+00	 9.669018e+00
0	 3.703704e-01	 6.518519e+00	 9.682839e+00
0	 3.703704e-01	 6.592593e+00	 9.696254e+00
0	 3.703704e-01	 6.666667e+00	 9.709257e+00
0	 4.444444e-01	 6.296296e+00	 9.644609e+00
0	 4.444444e-01	 6.370370e+00	 9.658982e+00
0	 4.444444e-01	 6.444444e+00	 9.672973e+00
0	 4.444444e-01	 6.518519e+00	 9.686578e+00
0	 4.444444e-01	 6.592593e+00	 9.699793e+00
0	 4.444444e-01	 6.666667e+00	 9.712613e+00
0	 5.185185e-01	 6.296296e+00	 9.649811e+00
0	 5.185185e-01	 6.370370e+00	 9.663905e+00
0	 5.185185e-01	 6.444444e+00	 9.677632e+00
0	 5.185185e-01	 6.518519e+00	 9.690987e+00
0	 5.185185e-01	 6.592593e+00	 9.703967e+00
0	 5.185185e-01	 6.666667e+00	 9.716567e+00
0	 5.925926e-01	 6.296296e+00	 9.655742e+00
0	 5.925926e-01	 6.370370e+00	 9.669528e+00
0	 5.925926e-01	 6.444444e+00	 9.682958e+00
0	 5.925926e-01	 6.518519e+00	 9.696031e+00
0	 5.925926e-01	 6.592593e+00	 9.708742e+00
0	 5.925926e-01	 6.666667e+00	 9.721090e+00
0	 6.666667e-01	 6.296296e+00	 9.662367e+00
0	 6.666667e-01	 6.370370e+00	 9.675813e+00
0	 6.666667e-01	 6.444444e+00	 9.688916e+00
0	 6.666667e-01	 6.518519e+00	 9.701675e+00
0	 6.666667e-01	 6.592593e+00	 9.714088e+00
0	 6.666667e-01	 6.666667e+00	 9.726152e+00
0	 7.407407e-01	 6.296296e+00	 9.669648e+00
0	 7.407407e-01	 6.370370e+00	 9.682724e+00
0	 7.407407e-01	 6.444444e+00	 9.695470e+00
0	 7.407407e-01	 6.518519e+00	 9.707885e+00
0	 7.407407e-01	 6.592593e+00	 9.719969e+00
0	 7.407407e-01	 6.666667e+00	 9.731722e+00
0	 3.703704e-01	 6.666667e+00	 9.709257e+00
0	 3.703704e-01	 6.740741e+00	 9.721874e+00
0	 3.703704e-01	 6.814815e+00	 9.734133e+00
0	 3.703704e-01	 6.888889e+00	 9.746034e+00
0	 3.703704e-01	 6.962963e+00	 9.757577e+00
0	 3.703704e-01	 7.037037e+00	 9.768763e+00
0	 4.444444e-01	 6.666667e+00	 9.712613e+00
0	 4.444444e-01	 6.740741e+00	 9.725057e+00
0	 4.444444e-01	 6.814815e+00	 9.737149e+00
0	 4.444444e-01	 6.888889e+00	 9.748889e+00
0	 4.444444e-01	 6.962963e+00	 9.760278e+00
0	 4.444444e-01	 7.037037e+00	 9.771315e+00
0	 5.185185e-01	 6.666667e+00	 9.716567e+00
0	 5.185185e-01	 6.740741e+00	 9.728804e+00
0	 5.185185e-01	 6.814815e+00	 9.740697e+00
0	 5.185185e-01	 6.888889e+00	 9.752246e+00
0	 5.185185e-01	 6.962963e+00	 9.763452e+00
0	 5.185185e-01	 7.037037e+00	 9.774315e+00
0	 5.925926e-01	 6.666667e+00	 9.721090e+00
0	 5.925926e-01	 6.740741e+00	 9.733087e+00
0	 5.925926e-01	 6.814815e+00	 9.744751e+00
0	 5.925926e-01	 6.888889e+00	 9.756081e+00
0	 5.925926e-01	 6.962963e+00	 9.767079e+00
0	 5.925926e-01	 7.037037e+00	 9.777744e+00
0	 6.666667e-01	 6.666667e+00	 9.726152e+00
0	 6.666667e-01	 6.740741e+00	 9.737880e+00
0	 6.666667e-01	 6.814815e+00	 9.749287e+00
0	 6.666667e-01	 6.888889e+00	 9.760373e+00
0	 6.666667e-01	 6.962963e+00	 9.771138e+00
0	 6.666667e-01	 7.037037e+00	 9.781583e+00
0	 7.407407e-01	 6.666667e+00	 9.731722e+00
0	 7.407407e-01	 6.740741e+00	 9.743155e+00
0	 7.407407e-01	 6.814815e+00	 9.754280e+00
0	 7.407407e-01	 6.888889e+00	 9.765098e+00
0	 7.407407e-01	 6.962963e+00	 9.775609e+00
0	 7.407407e-01	 7.037037e+00	 9.785813e+00
0	 3.703704e-01	 7.037037e+00	 9.768763e+00
0	 3.703704e-01	 7.111111e+00	 9.779624e+00
0	 3.703704e-01	 7.185185e+00	 9.790192e+00
0	 3.703704e-01	 7.259259e+00	 9.800467e+00
0	 3.703704e-01	 7.333333e+00	 9.810449e+00
0	 3.703704e-01	 7.407407e+00	 9.820136e+00
0	 4.444444e-01	 7.037037e+00	 9.771315e+00
0	 4.444444e-01	 7.111111e+00	 9.782033e+00
0	 4.444444e-01	 7.185185e+00	 9.792465e+00
0	 4.444444e-01	 7.259259e+00	 9.802610e+00
0	 4.444444e-01	 7.333333e+00	 9.812468e+00
0	 4.444444e-01	 7.407407e+00	 9.822039e+00
0	 5.185185e-01	 7.037037e+00	 9.774315e+00
0	 5.185185e-01	 7.111111e+00	 9.784867e+00
0	 5.185185e-01	 7.185185e+00	 9.795139e+00
0	 5.185185e-01	 7.259259e+00	 9.805133e+00
0	 5.185185e-01	 7.333333e+00	 9.814847e+00
0	 5.185185e-01	 7.407407e+00	 9.824281e+00
0	 5.925926e-01	 7.037037e+00	 9.777744e+00
0	 5.925926e-01	 7.111111e+00	 9.788108e+00
0	 5.925926e-01	 7.185185e+00	 9.798199e+00
0	 5.925926e-01	 7.259259e+00	 9.808020e+00
0	 5.925926e-01	 7.333333e+00	 9.817569e+00
0	 5.925926e-01	 7.407407e+00	 9.826847e+00
0	 6.666667e-01	 7.037037e+00	 9.781583e+00
0	 6.666667e-01	 7.111111e+00	 9.791737e+00
0	 6.666667e-01	 7.185185e+00	 9.801627e+00
0	 6.666667e-01	 7.259259e+00	 9.811254e+00
0	 6.666667e-01	 7.333333e+00	 9.820618e+00
0	 6.666667e-01	 7.407407e+00	 9.829721e+00
0	 7.407407e-01	 7.037037e+00	 9.785813e+00
0	 7.407407e-01	 7.111111e+00	 9.795736e+00
0	 7.407407e-01	 7.185185e+00	 9.805404e+00
0	 7.407407e-01	 7.259259e+00	 9.814818e+00
0	 7.407407e-01	 7.333333e+00	 9.823980e+00
0	 7.407407e-01	 7.407407e+00	 9.832890e+00
0	 3.703704e-01	 7.407407e+00	 9.820136e+00
0	 3.703704e-01	 7.481481e+00	 9.829544e+00
0	 3.703704e-01	 7.555556e+00	 9.838687e+00
0	 3.703704e-01	 7.629630e+00	 9.847570e+00
0	 3.703704e-01	 7.703704e+00	 9.856194e+00
0	 3.703704e-01	 7.777778e+00	 9.864562e+00
0	 4.444444e-01	 7.407407e+00	 9.822039e+00
0	 4.444444e-01	 7.481481e+00	 9.831336e+00
0	 4.444444e-01	 7.555556e+00	 9.840374e+00
0	 4.444444e-01	 7.629630e+00	 9.849154e+00
0	 4.444444e-01	 7.703704e+00	 9.857680e+00
0	 4.444444e-01	 7.777778e+00	 9.865954e+00
0	 5.185185e-01	 7.407407e+00	 9.824281e+00
0	 5.185185e-01	 7.481481e+00	 9.833448e+00
0	 5.185185e-01	 7.555556e+00	 9.842360e+00
0	 5.185185e-01	 7.629630e+00	 9.851019e+00
0	 5.185185e-01	 7.703704e+00	 9.859430e+00
0	 5.185185e-01	 7.777778e+00	 9.867594e+00
0	 5.925926e-01	 7.407407e+00	 9.826847e+00
0	 5.925926e-01	 7.481481e+00	 9.835864e+00
0	 5.925926e-01	 7.555556e+00	 9.844632e+00
0	 5.925926e-01	 7.629630e+00	 9.853154e+00
0	 5.925926e-01	 7.703704e+00	 9.861433e+00
0	 5.925926e-01	 7.777778e+00	 9.869470e+00
0	 6.666667e-01	 7.407407e+00	 9.829721e+00
0	 6.666667e-01	 7.481481e+00	 9.838571e+00
0	 6.666667e-01	 7.555556e+00	 9.847179e+00
0	 6.666667e-01	 7.629630e+00	 9.855547e+00
0	 6.666667e-01	 7.703704e+00	 9.863677e+00
0	 6.666667e-01	 7.777778e+00	 9.871573e+00
0	 7.407407e-01	 7.407407e+00	 9.832890e+00
0	 7.407407e-01	 7.481481e+00	 9.841556e+00
0	 7.407407e-01	 7.555556e+00	 9.849987e+00
0	 7.407407e-01	 7.629630e+00	 9.858184e+00
0	 7.407407e-01	 7.703704e+00	 9.866152e+00
0	 7.407407e-01	 7.777778e+00	 9.873893e+00
0	 3.703704e-01	 7.777778e+00	 9.864562e+00
0	 3.703704e-01	 7.851852e+00	 9.872681e+00
0	 3.703704e-01	 7.925926e+00	 9.880556e+00
0	 3.703704e-01	 8.000000e+00	 9.888193e+00
0	 3.703704e-01	 8.074074e+00	 9.895594e+00
0	 3.703704e-01	 8.148148e+00	 9.902764e+00
0	 4.444444e-01	 7.777778e+00	 9.865954e+00
0	 4.444444e-01	 7.851852e+00	 9.873983e+00
0	 4.444444e-01	 7.925926e+00	 9.881772e+00
0	 4.444444e-01	 8.000000e+00	 9.889326e+00
0	 4.444444e-01	 8.074074e+00	 9.896648e+00
0	 4.444444e-01	 8.148148e+00	 9.903742e+00
0	 5.185185e-01	 7.777778e+00	 9.867594e+00
0	 5.185185e-01	 7.851852e+00	 9.875517e+00
0	 5.185185e-01	 7.925926e+00	 9.883204e+00
0	 5.185185e-01	 8.000000e+00	 9.890660e+00
0	 5.185185e-01	 8.074074e+00	 9.897889e+00
0	 5.185185e-01	 8.148148e+00	 9.904893e+00
0	 5.925926e-01	 7.777778e+00	 9.869470e+00
0	 5.925926e-01	 7.851852e+00	 9.877272e+00
0	 5.925926e-01	 7.925926e+00	 9.884843e+00
0	 5.925926e-01	 8.000000e+00	 9.892188e+00
0	 5.925926e-01	 8.074074e+00	 9.899309e+00
0	 5.925926e-01	 8.148148e+00	 9.906212e+00
0	 6.666667e-01	 7.777778e+00	 9.871573e+00
0	 6.666667e-01	 7.851852e+00	 9.879239e+00
0	 6.666667e-01	 7.925926e+00	 9.886680e+00
0	 6.666667e-01	 8.000000e+00	 9.893900e+00
0	 6.666667e-01	 8.074074e+00	 9.900902e+00
0	 6.666667e-01	 8.148148e+00	 9.907691e+00
0	 7.407407e-01	 7.777778e+00	 9.873893e+00
0	 7.407407e-01	 7.851852e+00	 9.881410e+00
0	 7.407407e-01	 7.925926e+00	 9.888707e+00
0	 7.407407e-01	 8.000000e+00	 9.895789e+00
0	 7.407407e-01	 8.074074e+00	 9.902659e+00
0	 7.407407e-01	 8.148148e+00	 9.909322e+00
0	 3.703704e-01	 8.148148e+00	 9.902764e+00
0	 3.703704e-01	 8.222222e+00	 9.909698e+00
0	 3.703704e-01	 8.296296e+00	 9.916393e+00
0	 3.703704e-01	 8.370370e+00	 9.922857e+00
0	 3.703704e-01	 8.444444e+00	 9.929094e+00
0	 3.703704e-01	 8.518519e+00	 9.935112e+00
0	 4.444444e-01	 8.148148e+00	 9.903742e+00
0	 4.444444e-01	 8.222222e+00	 9.910603e+00
0	 4.444444e-01	 8.296296e+00	 9.917229e+00
0	 4.444444e-01	 8.370370e+00	 9.923625e+00
0	 4.444444e-01	 8.444444e+00	 9.929799e+00
0	 4.444444e-01	 8.518519e+00	 9.935756e+00
0	 5.185185e-01	 8.148148e+00	 9.904893e+00
0	 5.185185e-01	 8.222222e+00	 9.911670e+00
0	 5.185185e-01	 8.296296e+00	 9.918214e+00
0	 5.185185e-01	 8.370370e+00	 9.924532e+00
0	 5.185185e-01	 8.444444e+00	 9.930631e+00
0	 5.185185e-01	 8.518519e+00	 9.936515e+00
0	 5.925926e-01	 8.148148e+00	 9.906212e+00
0	 5.925926e-01	 8.222222e+00	 9.912891e+00
0	 5.925926e-01	 8.296296e+00	 9.919342e+00
0	 5.925926e-01	 8.370370e+00	 9.925570e+00
0	 5.925926e-01	 8.444444e+00	 9.931583e+00
0	 5.925926e-01	 8.518519e+00	 9.937385e+00
0	 6.666667e-01	 8.148148e+00	 9.907691e+00
0	 6.666667e-01	 8.222222e+00	 9.914261e+00
0	 6.666667e-01	 8.296296e+00	 9.920606e+00
0	 6.666667e-01	 8.370370e+00	 9.926734e+00
0	 6.666667e-01	 8.444444e+00	 9.932650e+00
0	 6.666667e-01	 8.518519e+00	 9.938361e+00
0	 7.407407e-01	 8.148148e+00	 9.909322e+00
0	 7.407407e-01	 8.222222e+00	 9.915771e+00
0	 7.407407e-01	 8.296296e+00	 9.922001e+00
0	 7.407407e-01	 8.370370e+00	 9.928018e+00
0	 7.407407e-01	 8.444444e+00	 9.933827e+00
0	 7.407407e-01	 8.518519e+00	 9.939436e+00
0	 3.703704e-01	 8.518519e+00	 9.935112e+00
0	 3.703704e-01	 8.592593e+00	 9.940894e+00
0	 3.703704e-01	 8.666667e+00	 9.946427e+00
0	 3.703704e-01	 8.740741e+00	 9.951720e+00
0	 3.703704e-01	 8.814815e+00	 9.956781e+00
0	 3.703704e-01	 8.888889e+00	 9.961619e+00
0	 4.444444e-01	 8.518519e+00	 9.935756e+00
0	 4.444444e-01	 8.592593e+00	 9.941480e+00
0	 4.444444e-01	 8.666667e+00	 9.946958e+00
0	 4.444444e-01	 8.740741e+00	 9.952198e+00
0	 4.444444e-01	 8.814815e+00	 9.957208e+00
0	 4.444444e-01	 8.888889e+00	 9.961998e+00
0	 5.185185e-01	 8.518519e+00	 9.936515e+00
0	 5.185185e-01	 8.592593e+00	 9.942171e+00
0	 5.185185e-01	 8.666667e+00	 9.947583e+00
0	 5.185185e-01	 8.740741e+00	 9.952761e+00
0	 5.185185e-01	 8.814815e+00	 9.957712e+00
0	 5.185185e-01	 8.888889e+00	 9.962446e+00
0	 5.925926e-01	 8.518519e+00	 9.937385e+00
0	 5.925926e-01	 8.592593e+00	 9.942962e+00
0	 5.925926e-01	 8.666667e+00	 9.948300e+00
0	 5.925926e-01	 8.740741e+00	 9.953406e+00
0	 5.925926e-01	 8.814815e+00	 9.958289e+00
0	 5.925926e-01	 8.888889e+00	 9.962958e+00
0	 6.666667e-01	 8.518519e+00	 9.938361e+00
0	 6.666667e-01	 8.592593e+00	 9.943849e+00
0	 6.666667e-01	 8.666667e+00	 9.949103e+00
0	 6.666667e-01	 8.740741e+00	 9.954129e+00
0	 6.666667e-01	 8.814815e+00	 9.958936e+00
0	 6.666667e-01	 8.888889e+00	 9.963533e+00
0	 7.407407e-01	 8.518519e+00	 9.939436e+00
0	 7.407407e-01	 8.592593e+00	 9.944827e+00
0	 7.407407e-01	 8.666667e+00	 9.949987e+00
0	 7.407407e-01	 8.740741e+00	 9.954925e+00
0	 7.407407e-01	 8.814815e+00	 9.959648e+00
0	 7.407407e-01	 8.888889e+00	 9.964164e+00
0	 3.703704e-01	 8.888889e+00	 9.961619e+00
0	 3.703704e-01	 8.962963e+00	 9.966206e+00
0	 3.703704e-01	 9.037037e+00	 9.970517e+00
0	 3.703704e-01	 9.111111e+00	 9.974564e+00
0	 3.703704e-01	 9.185185e+00	 9.978359e+00
0	 3.703704e-01	 9.259259e+00	 9.981914e+00
0	 4.444444e-01	 8.888889e+00	 9.961998e+00
0	 4.444444e-01	 8.962963e+00	 9.966540e+00
0	 4.444444e-01	 9.037037e+00	 9.970808e+00
0	 4.444444e-01	 9.111111e+00	 9.974815e+00
0	 4.444444e-01	 9.185185e+00	 9.978573e+00
0	 4.444444e-01	 9.259259e+00	 9.982093e+00
0	 5.185185e-01	 8.888889e+00	 9.962446e+00
0	 5.185185e-01	 8.962963e+00	 9.966934e+00
0	 5.185185e-01	 9.037037e+00	 9.971153e+00
0	 5.185185e-01	 9.111111e+00	 9.975113e+00
0	 5.185185e-01	 9.185185e+00	 9.978827e+00
0	 5.185185e-01	 9.259259e+00	 9.982306e+00
0	 5.925926e-01	 8.888889e+00	 9.962958e+00
0	 5.925926e-01	 8.962963e+00	 9.967386e+00
0	 5.925926e-01	 9.037037e+00	 9.971547e+00
0	 5.925926e-01	 9.111111e+00	 9.975454e+00
0	 5.925926e-01	 9.185185e+00	 9.979117e+00
0	 5.925926e-01	 9.259259e+00	 9.982549e+00
0	 6.666667e-01	 8.888889e+00	 9.963533e+00
0	 6.666667e-01	 8.962963e+00	 9.967892e+00
0	 6.666667e-01	 9.037037e+00	 9.971989e+00
0	 6.666667e-01	 9.111111e+00	 9.975835e+00
0	 6.666667e-01	 9.185185e+00	 9.979442e+00
0	 6.666667e-01	 9.259259e+00	 9.982821e+00
0	 7.407407e-01	 8.888889e+00	 9.964164e+00
0	 7.407407e-01	 8.962963e+00	 9.968448e+00
0	 7.407407e-01	 9.037037e+00	 9.972474e+00
0	 7.407407e-01	 9.111111e+00	 9.976254e+00
0	 7.407407e-01	 9.185185e+00	 9.979798e+00
0	 7.407407e-01	 9.259259e+00	 9.983118e+00
0	 3.703704e-01	 9.259259e+00	 9.981914e+00
0	 3.703704e-01	 9.333333e+00	 9.985185e+00
0	 3.703704e-01	 9.407407e+00	 9.988128e+00
0	 3.703704e-01	 9.481481e+00	 9.990762e+00
0	 3.703704e-01	 9.555556e+00	 9.993101e+00
0	 3.703704e-01	 9.629630e+00	 9.995163e+00
0	 4.444444e-01	 9.259259e+00	 9.982093e+00
0	 4.444444e-01	 9.333333e+00	 9.985331e+00
0	 4.444444e-01	 9.407407e+00	 9.988246e+00
0	 4.444444e-01	 9.481481e+00	 9.990853e+00
0	 4.444444e-01	 9.555556e+00	 9.993169e+00
0	 4.444444e-01	 9.629630e+00	 9.995210e+00
0	 5.185185e-01	 9.259259e+00	 9.982306e+00
0	 5.185185e-01	 9.333333e+00	 9.985506e+00
0	 5.185185e-01	 9.407407e+00	 9.988386e+00
0	 5.185185e-01	 9.481481e+00	 9.990963e+00
0	 5.185185e-01	 9.555556e+00	 9.993252e+00
0	 5.185185e-01	 9.629630e+00	 9.995269e+00
0	 5.925926e-01	 9.259259e+00	 9.982549e+00
0	 5.925926e-01	 9.333333e+00	 9.985706e+00
0	 5.925926e-01	 9.407407e+00	 9.988548e+00
0	 5.925926e-01	 9.481481e+00	 9.991089e+00
0	 5.925926e-01	 9.555556e+00	 9.993347e+00
0	 5.925926e-01	 9.629630e+00	 9.995337e+00
0	 6.666667e-01	 9.259259e+00	 9.982821e+00
0	 6.666667e-01	 9.333333e+00	 9.985929e+00
0	 6.666667e-01	 9.407407e+00	 9.988727e+00
0	 6.666667e-01	 9.481481e+00	 9.991229e+00
0	 6.666667e-01	 9.555556e+00	 9.993452e+00
0	 6.666667e-01	 9.629630e+00	 9.995411e+00
0	 7.407407e-01	 9.259259e+00	 9.983118e+00
0	 7.407407e-01	 9.333333e+00	 9.986172e+00
0	 7.407407e-01	 9.407407e+00	 9.988921e+00
0	 7.407407e-01	 9.481481e+00	 9.991380e+00
0	 7.407407e-01	 9.555556e+00	 9.993564e+00
0	 7.407407e-01	 9.629630e+00	 9.995488e+00
0	 3.703704e-01	 9.629630e+00	 9.995163e+00
0	 3.703704e-01	 9.703704e+00	 9.996886e+00
0	 3.703704e-01	 9.777778e+00	 9.998215e+00
0	 3.703704e-01	 9.851852e+00	 9.999171e+00
0	 3.703704e-01	 9.925926e+00	 9.999776e+00
0	 3.703704e-01	 1.000000e+01	 1.000005e+01
0	 4.444444e-01	 9.629630e+00	 9.995210e+00
0	 4.444444e-01	 9.703704e+00	 9.996917e+00
0	 4.444444e-01	 9.777778e+00	 9.998232e+00
0	 4.444444e-01	 9.851852e+00	 9.999179e+00
0	 4.444444e-01	 9.925926e+00	 9.999777e+00
0	 4.444444e-01	 1.000000e+01	 1.000005e+01
0	 5.185185e-01	 9.629630e+00	 9.995269e+00
0	 5.185185e-01	 9.703704e+00	 9.996955e+00
0	 5.185185e-01	 9.777778e+00	 9.998255e+00
0	 5.185185e-01	 9.851852e+00	 9.999191e+00
0	 5.185185e-01	 9.925926e+00	 9.999782e+00
0	 5.185185e-01	 1.000000e+01	 1.000005e+01
0	 5.925926e-01	 9.629630e+00	 9.995337e+00
0	 5.925926e-01	 9.703704e+00	 9.997000e+00
0	 5.925926e-01	 9.777778e+00	 9.998282e+00
0	 5.925926e-01	 9.851852e+00	 9.999205e+00
0	 5.925926e-01	 9.925926e+00	 9.999788e+00
0	 5.925926e-01	 1.000000e+01	 1.000005e+01
0	 6.666667e-01	 9.629630e+00	 9.995411e+00
0	 6.666667e-01	 9.703704e+00	 9.997048e+00
0	 6.666667e-01	 9.777778e+00	 9.998310e+00
0	 6.666667e-01	 9.851852e+00	 9.999218e+00
0	 6.666667e-01	 9.925926e+00	 9.999792e+00
0	 6.666667e-01	 1.000000e+01	 1.000005e+01
0	 7.407407e-01	 9.629630e+00	 9.995488e+00
0	 7.407407e-01	 9.703704e+00	 9.997096e+00
0	 7.407407e-01	 9.777778e+00	 9.998336e+00
0	 7.407407e-01	 9.851852e+00	 9.999228e+00
0	 7.407407e-01	 9.925926e+00	 9.999791e+00
0	 7.407407e-01	 1.000000e+01	 1.000005e+01
0	 7.407407e-01	 0.000000e+00	 6.262535e-02
0	 7.407407e-01	 7.407407e-02	 3.324833e-01
0	 7.407407e-01	 1.481481e-01	 5.076832e-01
0	 7.407407e-01	 2.222222e-01	 5.486104e-01
0	 7.407407e-01	 2.962963e-01	 4.156502e-01
0	 7.407407e-01	 3.703704e-01	 6.918795e-02
0	 8.148148e-01	 0.000000e+00	-1.934493e-02
0	 8.148148e-01	 7.407407e-02	 3.417101e-01
0	 8.148148e-01	 1.481481e-01	 5.619607e-01
0	 8.148148e-01	 2.222222e-01	 5.979479e-01
0	 8.148148e-01	 2.962963e-01	 4.062128e-01
0	 8.148148e-01	 3.703704e-01	-5.670350e-02
0	 8.888889e-01	 0.000000e+00	-2.387262e-01
0	 8.888889e-01	 7.407407e-02	 5.649744e-02
0	 8.888889e-01	 1.481481e-01	 1.859553e-01
0	 8.888889e-01	 2.222222e-01	 1.195081e-01
0	 8.888889e-01	 2.962963e-01	-1.729837e-01
0	 8.888889e-01	 3.703704e-01	-7.216594e-01
0	 9.629630e-01	 0.000000e+00	-4.532524e-01
0	 9.629630e-01	 7.407407e-02	-3.841389e-01
0	 9.629630e-01	 1.481481e-01	-4.859489e-01
0	 9.629630e-01	 2.222222e-01	-7.583385e-01
0	 9.629630e-01	 2.962963e-01	-1.200964e+00
0	 9.629630e-01	 3.703704e-01	-1.813481e+00
0	 1.037037e+00	 0.000000e+00	-5.206579e-01
0	 1.037037e+00	 7.407407e-02	-8.411834e-01
0	 1.037037e+00	 1.481481e-01	-1.319368e+00
0	 1.037037e+00	 2.222222e-01	-1.907221e+00
0	 1.037037e+00	 2.962963e-01	-2.556752e+00
0	 1.037037e+00	 3.703704e-01	-3.219968e+00
0	 1.111111e+00	 0.000000e+00	-2.986767e-01
0	 1.111111e+00	 7.407407e-02	-1.175620e+00
0	 1.111111e+00	 1.481481e-01	-2.179919e+00
0	 1.111111e+00	 2.222222e-01	-3.198770e+00
0	 1.111111e+00	 2.962963e-01	-4.119372e+00
0	 1.111111e+00	 3.703704e-01	-4.828923e+00
0	 7.407407e-01	 3.703704e-01	 6.918795e-02
0	 7.407407e-01	 4.444444e-01	-1.675052e-01
0	 7.407407e-01	 5.185185e-01	 6.344677e-02
0	 7.407407e-01	 5.925926e-01	 7.743364e-01
0	 7.407407e-01	 6.666667e-01	 1.977456e+00
0	 7.407407e-01	 7.407407e-01	 3.685099e+00
0	 8.148148e-01	 3.703704e-01	-5.670350e-02
0	 8.148148e-01	 4.444444e-01	-2.900676e-01
0	 8.148148e-01	 5.185185e-01	 2.502794e-01
0	 8.148148e-01	 5.925926e-01	 1.586017e+00
0	 8.148148e-01	 6.666667e-01	 3.738823e+00
0	 8.148148e-01	 7.407407e-01	 6.730379e+00
0	 8.888889e-01	 3.703704e-01	-7.216594e-01
0	 8.888889e-01	 4.444444e-01	-8.580260e-01
0	 8.888889e-01	 5.185185e-01	 1.199923e-01
0	 8.888889e-01	 5.925926e-01	 2.232631e+00
0	 8.888889e-01	 6.666667e-01	 5.500124e+00
0	 8.888889e-01	 7.407407e-01	 9.942706e+00
0	 9.629630e-01	 3.703704e-01	-1.813481e+00
0	 9.629630e-01	 4.444444e-01	-1.792391e+00
0	 9.629630e-01	 5.185185e-01	-3.291171e-01
0	 9.629630e-01	 5.925926e-01	 2.584299e+00
0	 9.629630e-01	 6.666667e-01	 6.955819e+00
0	 9.629630e-01	 7.407407e-01	 1.279340e+01
0	 1.037037e+00	 3.703704e-01	-3.219968e+00
0	 1.037037e+00	 4.444444e-01	-3.014171e+00
0	 1.037037e+00	 5.185185e-01	-1.098751e+00
0	 1.037037e+00	 5.925926e-01	 2.511144e+00
0	 1.037037e+00	 6.666667e-01	 7.800370e+00
0	 1.037037e+00	 7.407407e-01	 1.475378e+01
0	 1.111111e+00	 3.703704e-01	-4.828923e+00
0	 1.111111e+00	 4.444444e-01	-4.444378e+00
0	 1.111111e+00	 5.185185e-01	-2.190613e+00
0	 1.111111e+00	 5.925926e-01	 1.883287e+00
0	 1.111111e+00	 6.666667e-01	 7.728239e+00
0	 1.111111e+00	 7.407407e-01	 1.529516e+01
0	 7.407407e-01	 7.407407e-01	 3.685099e+00
0	 7.407407e-01	 8.148148e-01	 6.778972e+00
0	 7.407407e-01	 8.888889e-01	 1.215373e+01
0	 7.407407e-01	 9.629630e-01	 1.984111e+01
0	 7.407407e-01	 1.037037e+00	 2.987282e+01
0	 7.407407e-01	 1.111111e+00	 4.228058e+01
0	 8.148148e-01	 7.407407e-01	 6.730379e+00
0	 8.148148e-01	 8.148148e-01	 1.079232e+01
0	 8.148148e-01	 8.888889e-01	 1.616562e+01
0	 8.148148e-01	 9.629630e-01	 2.288597e+01
0	 8.148148e-01	 1.037037e+00	 3.098904e+01
0	 8.148148e-01	 1.111111e+00	 4.051052e+01
0	 8.888889e-01	 7.407407e-01	 9.942706e+00
0	 8.888889e-01	 8.148148e-01	 1.509558e+01
0	 8.888889e-01	 8.888889e-01	 2.050215e+01
0	 8.888889e-01	 9.629630e-01	 2.619498e+01
0	 8.888889e-01	 1.037037e+00	 3.220665e+01
0	 8.888889e-01	 1.111111e+00	 3.856972e+01
0	 9.629630e-01	 7.407407e-01	 1.279340e+01
0	 9.629630e-01	 8.148148e-01	 1.898029e+01
0	 9.629630e-01	 8.888889e-01	 2.440936e+01
0	 9.629630e-01	 9.629630e-01	 2.910295e+01
0	 9.629630e-01	 1.037037e+00	 3.308345e+01
0	 9.629630e-01	 1.111111e+00	 3.637321e+01
0	 1.037037e+00	 7.407407e-01	 1.475378e+01
0	 1.037037e+00	 8.148148e-01	 2.173804e+01
0	 1.037037e+00	 8.888889e-01	 2.713331e+01
0	 1.037037e+00	 9.629630e-01	 3.094468e+01
0	 1.037037e+00	 1.037037e+00	 3.317723e+01
0	 1.037037e+00	 1.111111e+00	 3.383606e+01
0	 1.111111e+00	 7.407407e-01	 1.529516e+01
0	 1.111111e+00	 8.148148e-01	 2.266037e+01
0	 1.111111e+00	 8.888889e-01	 2.792007e+01
0	 1.111111e+00	 9.629630e-01	 3.105497e+01
0	 1.111111e+00	 1.037037e+00	 3.204581e+01
0	 1.111111e+00	 1.111111e+00	 3.087332e+01
0	 7.407407e-01	 1.111111e+00	 4.228058e+01
0	 7.407407e-01	 1.185185e+00	 5.316051e+01
0	 7.407407e-01	 1.259259e+00	 5.857238e+01
0	 7.407407e-01	 1.333333e+00	 5.849335e+01
0	 7.407407e-01	 1.407407e+00	 5.290060e+01
0	 7.407407e-01	 1.481481e+00	 4.177132e+01
0	 8.148148e-01	 1.111111e+00	 4.051052e+01
0	 8.148148e-01	 1.185185e+00	 4.857839e+01
0	 8.148148e-01	 1.259259e+00	 5.227377e+01
0	 8.148148e-01	 1.333333e+00	 5.156211e+01
0	 8.148148e-01	 1.407407e+00	 4.640886e+01
0	 8.148148e-01	 1.481481e+00	 3.677946e+01
0	 8.888889e-01	 1.111111e+00	 3.856972e+01
0	 8.888889e-01	 1.185185e+00	 4.354627e+01
0	 8.888889e-01	 1.259259e+00	 4.535092e+01
0	 8.888889e-01	 1.333333e+00	 4.394504e+01
0	 8.888889e-01	 1.407407e+00	 3.929000e+01
0	 8.888889e-01	 1.481481e+00	 3.134715e+01
0	 9.629630e-01	 1.111111e+00	 3.637321e+01
0	 9.629630e-01	 1.185185e+00	 3.834076e+01
0	 9.629630e-01	 1.259259e+00	 3.831634e+01
0	 9.629630e-01	 1.333333e+00	 3.626490e+01
0	 9.629630e-01	 1.407407e+00	 3.215135e+01
0	 9.629630e-01	 1.481481e+00	 2.594066e+01
0	 1.037037e+00	 1.111111e+00	 3.383606e+01
0	 1.037037e+00	 1.185185e+00	 3.323848e+01
0	 1.037037e+00	 1.259259e+00	 3.168254e+01
0	 1.037037e+00	 1.333333e+00	 2.914441e+01
0	 1.037037e+00	 1.407407e+00	 2.560025e+01
0	 1.037037e+00	 1.481481e+00	 2.102622e+01
0	 1.111111e+00	 1.111111e+00	 3.087332e+01
0	 1.111111e+00	 1.185185e+00	 2.851602e+01
0	 1.111111e+00	 1.259259e+00	 2.596201e+01
0	 1.111111e+00	 1.333333e+00	 2.320632e+01
0	 1.111111e+00	 1.407407e+00	 2.024401e+01
0	 1.111111e+00	 1.481481e+00	 1.707012e+01
0	 7.407407e-01	 1.481481e+00	 4.177132e+01
0	 7.407407e-01	 1.555556e+00	 2.927329e+01
0	 7.407407e-01	 1.629630e+00	 1.958530e+01
0	 7.407407e-01	 1.703704e+00	 1.270106e+01
0	 7.407407e-01	 1.777778e+00	 8.614248e+00
0	 7.407407e-01	 1.851852e+00	 7.318570e+00
0	 8.148148e-01	 1.481481e+00	 3.677946e+01
0	 8.148148e-01	 1.555556e+00	 2.611123e+01
0	 8.148148e-01	 1.629630e+00	 1.786243e+01
0	 8.148148e-01	 1.703704e+00	 1.202991e+01
0	 8.148148e-01	 1.777778e+00	 8.610507e+00
0	 8.148148e-01	 1.851852e+00	 7.601074e+00
0	 8.888889e-01	 1.481481e+00	 3.134715e+01
0	 8.888889e-01	 1.555556e+00	 2.273180e+01
0	 8.888889e-01	 1.629630e+00	 1.608473e+01
0	 8.888889e-01	 1.703704e+00	 1.140557e+01
0	 8.888889e-01	 1.777778e+00	 8.693946e+00
0	 8.888889e-01	 1.851852e+00	 7.949464e+00
0	 9.629630e-01	 1.481481e+00	 2.594066e+01
0	 9.629630e-01	 1.555556e+00	 1.941863e+01
0	 9.629630e-01	 1.629630e+00	 1.439583e+01
0	 9.629630e-01	 1.703704e+00	 1.087425e+01
0	 9.629630e-01	 1.777778e+00	 8.855919e+00
0	 9.629630e-01	 1.851852e+00	 8.342836e+00
0	 1.037037e+00	 1.481481e+00	 2.102622e+01
0	 1.037037e+00	 1.555556e+00	 1.645539e+01
0	 1.037037e+00	 1.629630e+00	 1.293935e+01
0	 1.037037e+00	 1.703704e+00	 1.048214e+01
0	 1.037037e+00	 1.777778e+00	 9.087780e+00
0	 1.037037e+00	 1.851852e+00	 8.760281e+00
0	 1.111111e+00	 1.481481e+00	 1.707012e+01
0	 1.111111e+00	 1.555556e+00	 1.412572e+01
0	 1.111111e+00	 1.629630e+00	 1.185895e+01
0	 1.111111e+00	 1.703704e+00	 1.027545e+01
0	 1.111111e+00	 1.777778e+00	 9.380884e+00
0	 1.111111e+00	 1.851852e+00	 9.180894e+00
0	 7.407407e-01	 1.851852e+00	 7.318570e+00
0	 7.407407e-01	 1.925926e+00	 7.404009e+00
0	 7.407407e-01	 2.000000e+00	 7.469537e+00
0	 7.407407e-01	 2.074074e+00	 7.522323e+00
0	 7.407407e-01	 2.148148e+00	 7.569536e+00
0	 7.407407e-01	 2.222222e+00	 7.618347e+00
0	 8.148148e-01	 1.851852e+00	 7.601074e+00
0	 8.148148e-01	 1.925926e+00	 7.765874e+00
0	 8.148148e-01	 2.000000e+00	 7.876641e+00
0	 8.148148e-01	 2.074074e+00	 7.941424e+00
0	 8.148148e-01	 2.148148e+00	 7.968273e+00
0	 8.148148e-01	 2.222222e+00	 7.965237e+00
0	 8.888889e-01	 1.851852e+00	 7.949464e+00
0	 8.888889e-01	 1.925926e+00	 8.149084e+00
0	 8.888889e-01	 2.000000e+00	 8.275481e+00
0	 8.888889e-01	 2.074074e+00	 8.336859e+00
0	 8.888889e-01	 2.148148e+00	 8.341420e+00
0	 8.888889e-01	 2.222222e+00	 8.297367e+00
0	 9.629630e-01	 1.851852e+00	 8.342836e+00
0	 9.629630e-01	 1.925926e+00	 8.540681e+00
0	 9.629630e-01	 2.000000e+00	 8.658878e+00
0	 9.629630e-01	 2.074074e+00	 8.705057e+00
0	 9.629630e-01	 2.148148e+00	 8.686849e+00
0	 9.629630e-01	 2.222222e+00	 8.611884e+00
0	 1.037037e+00	 1.851852e+00	 8.760281e+00
0	 1.037037e+00	 1.925926e+00	 8.927705e+00
0	 1.037037e+00	 2.000000e+00	 9.019651e+00
0	 1.037037e+00	 2.074074e+00	 9.042449e+00
0	 1.037037e+00	 2.148148e+00	 9.002432e+00
0	 1.037037e+00	 2.222222e+00	 8.905931e+00
0	 1.111111e+00	 1.851852e+00	 9.180894e+00
0	 1.111111e+00	 1.925926e+00	 9.297199e+00
0	 1.111111e+00	 2.000000e+00	 9.350620e+00
0	 1.111111e+00	 2.074074e+00	 9.345465e+00
0	 1.111111e+00	 2.148148e+00	 9.286040e+00
0	 1.111111e+00	 2.222222e+00	 9.176652e+00
0	 7.407407e-01	 2.222222e+00	 7.618347e+00
0	 7.407407e-01	 2.296296e+00	 7.676981e+00
0	 7.407407e-01	 2.370370e+00	 7.745714e+00
0	 7.407407e-01	 2.444444e+00	 7.819794e+00
0	 7.407407e-01	 2.518519e+00	 7.894467e+00
0	 7.407407e-01	 2.592593e+00	 7.964980e+00
0	 8.148148e-01	 2.222222e+00	 7.965237e+00
0	 8.148148e-01	 2.296296e+00	 7.963297e+00
0	 8.148148e-01	 2.370370e+00	 7.984922e+00
0	 8.148148e-01	 2.444444e+00	 8.025392e+00
0	 8.148148e-01	 2.518519e+00	 8.079986e+00
0	 8.148148e-01	 2.592593e+00	 8.143985e+00
0	 8.888889e-01	 2.222222e+00	 8.297367e+00
0	 8.888889e-01	 2.296296e+00	 8.249337e+00
0	 8.888889e-01	 2.370370e+00	 8.233516e+00
0	 8.888889e-01	 2.444444e+00	 8.245435e+00
0	 8.888889e-01	 2.518519e+00	 8.280622e+00
0	 8.888889e-01	 2.592593e+00	 8.334606e+00
0	 9.629630e-01	 2.222222e+00	 8.611884e+00
0	 9.629630e-01	 2.296296e+00	 8.530721e+00
0	 9.629630e-01	 2.370370e+00	 8.486164e+00
0	 9.629630e-01	 2.444444e+00	 8.474207e+00
0	 9.629630e-01	 2.518519e+00	 8.490848e+00
0	 9.629630e-01	 2.592593e+00	 8.532082e+00
0	 1.037037e+00	 2.222222e+00	 8.905931e+00
0	 1.037037e+00	 2.296296e+00	 8.803067e+00
0	 1.037037e+00	 2.370370e+00	 8.737529e+00
0	 1.037037e+00	 2.444444e+00	 8.705993e+00
0	 1.037037e+00	 2.518519e+00	 8.705140e+00
0	 1.037037e+00	 2.592593e+00	 8.731648e+00
0	 1.111111e+00	 2.222222e+00	 9.176652e+00
0	 1.111111e+00	 2.296296e+00	 9.061996e+00
0	 1.111111e+00	 2.370370e+00	 8.982278e+00
0	 1.111111e+00	 2.444444e+00	 8.935077e+00
0	 1.111111e+00	 2.518519e+00	 8.917972e+00
0	 1.111111e+00	 2.592593e+00	 8.928542e+00
0	 7.407407e-01	 2.592593e+00	 7.964980e+00
0	 7.407407e-01	 2.666667e+00	 8.027489e+00
0	 7.407407e-01	 2.740741e+00	 8.084116e+00
0	 7.407407e-01	 2.814815e+00	 8.139062e+00
0	 7.407407e-01	 2.888889e+00	 8.196523e+00
0	 7.407407e-01	 2.962963e+00	 8.260698e+00
0	 8.148148e-01	 2.592593e+00	 8.143985e+00
0	 8.148148e-01	 2.666667e+00	 8.205277e+00
0	 8.148148e-01	 2.740741e+00	 8.257555e+00
0	 8.148148e-01	 2.814815e+00	 8.304804e+00
0	 8.148148e-01	 2.888889e+00	 8.351010e+00
0	 8.148148e-01	 2.962963e+00	 8.400157e+00
0	 8.888889e-01	 2.592593e+00	 8.334606e+00
0	 8.888889e-01	 2.666667e+00	 8.390006e+00
0	 8.888889e-01	 2.740741e+00	 8.434867e+00
0	 8.888889e-01	 2.814815e+00	 8.472857e+00
0	 8.888889e-01	 2.888889e+00	 8.507649e+00
0	 8.888889e-01	 2.962963e+00	 8.542913e+00
0	 9.629630e-01	 2.592593e+00	 8.532082e+00
0	 9.629630e-01	 2.666667e+00	 8.577863e+00
0	 9.629630e-01	 2.740741e+00	 8.612984e+00
0	 9.629630e-01	 2.814815e+00	 8.640701e+00
0	 9.629630e-01	 2.888889e+00	 8.664269e+00
0	 9.629630e-01	 2.962963e+00	 8.686941e+00
0	 1.037037e+00	 2.592593e+00	 8.731648e+00
0	 1.037037e+00	 2.666667e+00	 8.765031e+00
0	 1.037037e+00	 2.740741e+00	 8.788841e+00
0	 1.037037e+00	 2.814815e+00	 8.805817e+00
0	 1.037037e+00	 2.888889e+00	 8.818696e+00
0	 1.037037e+00	 2.962963e+00	 8.830216e+00
0	 1.111111e+00	 2.592593e+00	 8.928542e+00
0	 1.111111e+00	 2.666667e+00	 8.947696e+00
0	 1.111111e+00	 2.740741e+00	 8.959370e+00
0	 1.111111e+00	 2.814815e+00	 8.965684e+00
0	 1.111111e+00	 2.888889e+00	 8.968758e+00
0	 1.111111e+00	 2.962963e+00	 8.970712e+00
0	 7.407407e-01	 2.962963e+00	 8.260698e+00
0	 7.407407e-01	 3.037037e+00	 8.329732e+00
0	 7.407407e-01	 3.111111e+00	 8.397381e+00
0	 7.407407e-01	 3.185185e+00	 8.461264e+00
0	 7.407407e-01	 3.259259e+00	 8.519000e+00
0	 7.407407e-01	 3.333333e+00	 8.568207e+00
0	 8.148148e-01	 2.962963e+00	 8.400157e+00
0	 8.148148e-01	 3.037037e+00	 8.453260e+00
0	 8.148148e-01	 3.111111e+00	 8.507279e+00
0	 8.148148e-01	 3.185185e+00	 8.560113e+00
0	 8.148148e-01	 3.259259e+00	 8.609662e+00
0	 8.148148e-01	 3.333333e+00	 8.653824e+00
0	 8.888889e-01	 2.962963e+00	 8.542913e+00
0	 8.888889e-01	 3.037037e+00	 8.581579e+00
0	 8.888889e-01	 3.111111e+00	 8.622931e+00
0	 8.888889e-01	 3.185185e+00	 8.665164e+00
0	 8.888889e-01	 3.259259e+00	 8.706475e+00
0	 8.888889e-01	 3.333333e+00	 8.745059e+00
0	 9.629630e-01	 2.962963e+00	 8.686941e+00
0	 9.629630e-01	 3.037037e+00	 8.712719e+00
0	 9.629630e-01	 3.111111e+00	 8.742441e+00
0	 9.629630e-01	 3.185185e+00	 8.774615e+00
0	 9.629630e-01	 3.259259e+00	 8.807748e+00
0	 9.629630e-01	 3.333333e+00	 8.840348e+00
0	 1.037037e+00	 2.962963e+00	 8.830216e+00
0	 1.037037e+00	 3.037037e+00	 8.844712e+00
0	 1.037037e+00	 3.111111e+00	 8.863915e+00
0	 1.037037e+00	 3.185185e+00	 8.886662e+00
0	 1.037037e+00	 3.259259e+00	 8.911788e+00
0	 1.037037e+00	 3.333333e+00	 8.938129e+00
0	 1.111111e+00	 2.962963e+00	 8.970712e+00
0	 1.111111e+00	 3.037037e+00	 8.975586e+00
0	 1.111111e+00	 3.111111e+00	 8.985456e+00
0	 1.111111e+00	 3.185185e+00	 8.999503e+00
0	 1.111111e+00	 3.259259e+00	 9.016904e+00
0	 1.111111e+00	 3.333333e+00	 9.036840e+00
0	 7.407407e-01	 3.333333e+00	 8.568207e+00
0	 7.407407e-01	 3.407407e+00	 8.611341e+00
0	 7.407407e-01	 3.481481e+00	 8.653427e+00
0	 7.407407e-01	 3.555556e+00	 8.695940e+00
0	 7.407407e-01	 3.629630e+00	 8.740354e+00
0	 7.407407e-01	 3.703704e+00	 8.788144e+00
0	 8.148148e-01	 3.333333e+00	 8.653824e+00
0	 8.148148e-01	 3.407407e+00	 8.693515e+00
0	 8.148148e-01	 3.481481e+00	 8.731921e+00
0	 8.148148e-01	 3.555556e+00	 8.770354e+00
0	 8.148148e-01	 3.629630e+00	 8.810125e+00
0	 8.148148e-01	 3.703704e+00	 8.852542e+00
0	 8.888889e-01	 3.333333e+00	 8.745059e+00
0	 8.888889e-01	 3.407407e+00	 8.780607e+00
0	 8.888889e-01	 3.481481e+00	 8.814780e+00
0	 8.888889e-01	 3.555556e+00	 8.848723e+00
0	 8.888889e-01	 3.629630e+00	 8.883583e+00
0	 8.888889e-01	 3.703704e+00	 8.920506e+00
0	 9.629630e-01	 3.333333e+00	 8.840348e+00
0	 9.629630e-01	 3.407407e+00	 8.871193e+00
0	 9.629630e-01	 3.481481e+00	 8.900708e+00
0	 9.629630e-01	 3.555556e+00	 8.929878e+00
0	 9.629630e-01	 3.629630e+00	 8.959683e+00
0	 9.629630e-01	 3.703704e+00	 8.991106e+00
0	 1.037037e+00	 3.333333e+00	 8.938129e+00
0	 1.037037e+00	 3.407407e+00	 8.963844e+00
0	 1.037037e+00	 3.481481e+00	 8.988411e+00
0	 1.037037e+00	 3.555556e+00	 9.012649e+00
0	 1.037037e+00	 3.629630e+00	 9.037376e+00
0	 1.037037e+00	 3.703704e+00	 9.063412e+00
0	 1.111111e+00	 3.333333e+00	 9.036840e+00
0	 1.111111e+00	 3.407407e+00	 9.057134e+00
0	 1.111111e+00	 3.481481e+00	 9.076591e+00
0	 1.111111e+00	 3.555556e+00	 9.095868e+00
0	 1.111111e+00	 3.629630e+00	 9.115618e+00
0	 1.111111e+00	 3.703704e+00	 9.136495e+00
0	 7.407407e-01	 3.703704e+00	 8.788144e+00
0	 7.407407e-01	 3.777778e+00	 8.837072e+00
0	 7.407407e-01	 3.851852e+00	 8.883453e+00
0	 7.407407e-01	 3.925926e+00	 8.926594e+00
0	 7.407407e-01	 4.000000e+00	 8.965800e+00
0	 7.407407e-01	 4.074074e+00	 9.000377e+00
0	 8.148148e-01	 3.703704e+00	 8.852542e+00
0	 8.148148e-01	 3.777778e+00	 8.895931e+00
0	 8.148148e-01	 3.851852e+00	 8.937351e+00
0	 8.148148e-01	 3.925926e+00	 8.976222e+00
0	 8.148148e-01	 4.000000e+00	 9.011960e+00
0	 8.148148e-01	 4.074074e+00	 9.043984e+00
0	 8.888889e-01	 3.703704e+00	 8.920506e+00
0	 8.888889e-01	 3.777778e+00	 8.958298e+00
0	 8.888889e-01	 3.851852e+00	 8.994684e+00
0	 8.888889e-01	 3.925926e+00	 9.029187e+00
0	 8.888889e-01	 4.000000e+00	 9.061330e+00
0	 8.888889e-01	 4.074074e+00	 9.090636e+00
0	 9.629630e-01	 3.703704e+00	 8.991106e+00
0	 9.629630e-01	 3.777778e+00	 9.023351e+00
0	 9.629630e-01	 3.851852e+00	 9.054718e+00
0	 9.629630e-01	 3.925926e+00	 9.084826e+00
0	 9.629630e-01	 4.000000e+00	 9.113300e+00
0	 9.629630e-01	 4.074074e+00	 9.139761e+00
0	 1.037037e+00	 3.703704e+00	 9.063412e+00
0	 1.037037e+00	 3.777778e+00	 9.090267e+00
0	 1.037037e+00	 3.851852e+00	 9.116717e+00
0	 1.037037e+00	 3.925926e+00	 9.142477e+00
0	 1.037037e+00	 4.000000e+00	 9.167263e+00
0	 1.037037e+00	 4.074074e+00	 9.190787e+00
0	 1.111111e+00	 3.703704e+00	 9.136495e+00
0	 1.111111e+00	 3.777778e+00	 9.158221e+00
0	 1.111111e+00	 3.851852e+00	 9.179948e+00
0	 1.111111e+00	 3.925926e+00	 9.201477e+00
0	 1.111111e+00	 4.000000e+00	 9.222608e+00
0	 1.111111e+00	 4.074074e+00	 9.243143e+00
0	 7.407407e-01	 4.074074e+00	 9.000377e+00
0	 7.407407e-01	 4.148148e+00	 9.032094e+00
0	 7.407407e-01	 4.222222e+00	 9.063413e+00
0	 7.407407e-01	 4.296296e+00	 9.094677e+00
0	 7.407407e-01	 4.370370e+00	 9.126233e+00
0	 7.407407e-01	 4.444444e+00	 9.158424e+00
0	 8.148148e-01	 4.074074e+00	 9.043984e+00
0	 8.148148e-01	 4.148148e+00	 9.073652e+00
0	 8.148148e-01	 4.222222e+00	 9.102914e+00
0	 8.148148e-01	 4.296296e+00	 9.132075e+00
0	 8.148148e-01	 4.370370e+00	 9.161441e+00
0	 8.148148e-01	 4.444444e+00	 9.191315e+00
0	 8.888889e-01	 4.074074e+00	 9.090636e+00
0	 8.888889e-01	 4.148148e+00	 9.118075e+00
0	 8.888889e-01	 4.222222e+00	 9.145112e+00
0	 8.888889e-01	 4.296296e+00	 9.172016e+00
0	 8.888889e-01	 4.370370e+00	 9.199054e+00
0	 8.888889e-01	 4.444444e+00	 9.226492e+00
0	 9.629630e-01	 4.074074e+00	 9.139761e+00
0	 9.629630e-01	 4.148148e+00	 9.164820e+00
0	 9.629630e-01	 4.222222e+00	 9.189497e+00
0	 9.629630e-01	 4.296296e+00	 9.214024e+00
0	 9.629630e-01	 4.370370e+00	 9.238635e+00
0	 9.629630e-01	 4.444444e+00	 9.263561e+00
0	 1.037037e+00	 4.074074e+00	 9.190787e+00
0	 1.037037e+00	 4.148148e+00	 9.213347e+00
0	 1.037037e+00	 4.222222e+00	 9.235559e+00
0	 1.037037e+00	 4.296296e+00	 9.257626e+00
0	 1.037037e+00	 4.370370e+00	 9.279747e+00
0	 1.037037e+00	 4.444444e+00	 9.302125e+00
0	 1.111111e+00	 4.074074e+00	 9.243143e+00
0	 1.111111e+00	 4.148148e+00	 9.263111e+00
0	 1.111111e+00	 4.222222e+00	 9.282788e+00
0	 1.111111e+00	 4.296296e+00	 9.302345e+00
0	 1.111111e+00	 4.370370e+00	 9.321955e+00
0	 1.111111e+00	 4.444444e+00	 9.341789e+00
0	 7.407407e-01	 4.444444e+00	 9.158424e+00
0	 7.407407e-01	 4.518519e+00	 9.190327e+00
0	 7.407407e-01	 4.592593e+00	 9.220689e+00
0	 7.407407e-01	 4.666667e+00	 9.249366e+00
0	 7.407407e-01	 4.740741e+00	 9.276210e+00
0	 7.407407e-01	 4.814815e+00	 9.301077e+00
0	 8.148148e-01	 4.444444e+00	 9.191315e+00
0	 8.148148e-01	 4.518519e+00	 9.220922e+00
0	 8.148148e-01	 4.592593e+00	 9.249199e+00
0	 8.148148e-01	 4.666667e+00	 9.276023e+00
0	 8.148148e-01	 4.740741e+00	 9.301271e+00
0	 8.148148e-01	 4.814815e+00	 9.324820e+00
0	 8.888889e-01	 4.444444e+00	 9.226492e+00
0	 8.888889e-01	 4.518519e+00	 9.253697e+00
0	 8.888889e-01	 4.592593e+00	 9.279787e+00
0	 8.888889e-01	 4.666667e+00	 9.304659e+00
0	 8.888889e-01	 4.740741e+00	 9.328213e+00
0	 8.888889e-01	 4.814815e+00	 9.350347e+00
0	 9.629630e-01	 4.444444e+00	 9.263561e+00
0	 9.629630e-01	 4.518519e+00	 9.288298e+00
0	 9.629630e-01	 4.592593e+00	 9.312133e+00
0	 9.629630e-01	 4.666667e+00	 9.334983e+00
0	 9.629630e-01	 4.740741e+00	 9.356769e+00
0	 9.629630e-01	 4.814815e+00	 9.377408e+00
0	 1.037037e+00	 4.444444e+00	 9.302125e+00
0	 1.037037e+00	 4.518519e+00	 9.324369e+00
0	 1.037037e+00	 4.592593e+00	 9.345916e+00
0	 1.037037e+00	 4.666667e+00	 9.366705e+00
0	 1.037037e+00	 4.740741e+00	 9.386672e+00
0	 1.037037e+00	 4.814815e+00	 9.405757e+00
0	 1.111111e+00	 4.444444e+00	 9.341789e+00
0	 1.111111e+00	 4.518519e+00	 9.361554e+00
0	 1.111111e+00	 4.592593e+00	 9.380816e+00
0	 1.111111e+00	 4.666667e+00	 9.399531e+00
0	 1.111111e+00	 4.740741e+00	 9.417656e+00
0	 1.111111e+00	 4.814815e+00	 9.435146e+00
0	 7.407407e-01	 4.814815e+00	 9.301077e+00
0	 7.407407e-01	 4.888889e+00	 9.324657e+00
0	 7.407407e-01	 4.962963e+00	 9.347774e+00
0	 7.407407e-01	 5.037037e+00	 9.370489e+00
0	 7.407407e-01	 5.111111e+00	 9.392857e+00
0	 7.407407e-01	 5.185185e+00	 9.414938e+00
0	 8.148148e-01	 4.814815e+00	 9.324820e+00
0	 8.148148e-01	 4.888889e+00	 9.347238e+00
0	 8.148148e-01	 4.962963e+00	 9.369209e+00
0	 8.148148e-01	 5.037037e+00	 9.390790e+00
0	 8.148148e-01	 5.111111e+00	 9.412037e+00
0	 8.148148e-01	 5.185185e+00	 9.433005e+00
0	 8.888889e-01	 4.814815e+00	 9.350347e+00
0	 8.888889e-01	 4.888889e+00	 9.371507e+00
0	 8.888889e-01	 4.962963e+00	 9.392245e+00
0	 8.888889e-01	 5.037037e+00	 9.412613e+00
0	 8.888889e-01	 5.111111e+00	 9.432665e+00
0	 8.888889e-01	 5.185185e+00	 9.452454e+00
0	 9.629630e-01	 4.814815e+00	 9.377408e+00
0	 9.629630e-01	 4.888889e+00	 9.397234e+00
0	 9.629630e-01	 4.962963e+00	 9.416666e+00
0	 9.629630e-01	 5.037037e+00	 9.435756e+00
0	 9.629630e-01	 5.111111e+00	 9.454555e+00
0	 9.629630e-01	 5.185185e+00	 9.473112e+00
0	 1.037037e+00	 4.814815e+00	 9.405757e+00
0	 1.037037e+00	 4.888889e+00	 9.424186e+00
0	 1.037037e+00	 4.962963e+00	 9.442257e+00
0	 1.037037e+00	 5.037037e+00	 9.460018e+00
0	 1.037037e+00	 5.111111e+00	 9.477518e+00
0	 1.037037e+00	 5.185185e+00	 9.494805e+00
0	 1.111111e+00	 4.814815e+00	 9.435146e+00
0	 1.111111e+00	 4.888889e+00	 9.452131e+00
0	 1.111111e+00	 4.962963e+00	 9.468801e+00
0	 1.111111e+00	 5.037037e+00	 9.485198e+00
0	 1.111111e+00	 5.111111e+00	 9.501369e+00
0	 1.111111e+00	 5.185185e+00	 9.517358e+00
0	 7.407407e-01	 5.185185e+00	 9.414938e+00
0	 7.407407e-01	 5.259259e+00	 9.436494e+00
0	 7.407407e-01	 5.333333e+00	 9.457232e+00
0	 7.407407e-01	 5.407407e+00	 9.477128e+00
0	 7.407407e-01	 5.481481e+00	 9.496157e+00
0	 7.407407e-01	 5.555556e+00	 9.514296e+00
0	 8.148148e-01	 5.185185e+00	 9.433005e+00
0	 8.148148e-01	 5.259259e+00	 9.453492e+00
0	 8.148148e-01	 5.333333e+00	 9.473244e+00
0	 8.148148e-01	 5.407407e+00	 9.492237e+00
0	 8.148148e-01	 5.481481e+00	 9.510450e+00
0	 8.148148e-01	 5.555556e+00	 9.527860e+00
0	 8.888889e-01	 5.185185e+00	 9.452454e+00
0	 8.888889e-01	 5.259259e+00	 9.471810e+00
0	 8.888889e-01	 5.333333e+00	 9.490512e+00
0	 8.888889e-01	 5.407407e+00	 9.508541e+00
0	 8.888889e-01	 5.481481e+00	 9.525876e+00
0	 8.888889e-01	 5.555556e+00	 9.542498e+00
0	 9.629630e-01	 5.185185e+00	 9.473112e+00
0	 9.629630e-01	 5.259259e+00	 9.491286e+00
0	 9.629630e-01	 5.333333e+00	 9.508887e+00
0	 9.629630e-01	 5.407407e+00	 9.525900e+00
0	 9.629630e-01	 5.481481e+00	 9.542308e+00
0	 9.629630e-01	 5.555556e+00	 9.558093e+00
0	 1.037037e+00	 5.185185e+00	 9.494805e+00
0	 1.037037e+00	 5.259259e+00	 9.511758e+00
0	 1.037037e+00	 5.333333e+00	 9.528220e+00
0	 1.037037e+00	 5.407407e+00	 9.544178e+00
0	 1.037037e+00	 5.481481e+00	 9.559617e+00
0	 1.037037e+00	 5.555556e+00	 9.574526e+00
0	 1.111111e+00	 5.185185e+00	 9.517358e+00
0	 1.111111e+00	 5.259259e+00	 9.533066e+00
0	 1.111111e+00	 5.333333e+00	 9.548361e+00
0	 1.111111e+00	 5.407407e+00	 9.563235e+00
0	 1.111111e+00	 5.481481e+00	 9.577677e+00
0	 1.111111e+00	 5.555556e+00	 9.591679e+00
0	 7.407407e-01	 5.555556e+00	 9.514296e+00
0	 7.407407e-01	 5.629630e+00	 9.531768e+00
0	 7.407407e-01	 5.703704e+00	 9.548818e+00
0	 7.407407e-01	 5.777778e+00	 9.565450e+00
0	 7.407407e-01	 5.851852e+00	 9.581671e+00
0	 7.407407e-01	 5.925926e+00	 9.597484e+00
0	 8.148148e-01	 5.555556e+00	 9.527860e+00
0	 8.148148e-01	 5.629630e+00	 9.544657e+00
0	 8.148148e-01	 5.703704e+00	 9.561050e+00
0	 8.148148e-01	 5.777778e+00	 9.577047e+00
0	 8.148148e-01	 5.851852e+00	 9.592655e+00
0	 8.148148e-01	 5.925926e+00	 9.607882e+00
0	 8.888889e-01	 5.555556e+00	 9.542498e+00
0	 8.888889e-01	 5.629630e+00	 9.558564e+00
0	 8.888889e-01	 5.703704e+00	 9.574250e+00
0	 8.888889e-01	 5.777778e+00	 9.589564e+00
0	 8.888889e-01	 5.851852e+00	 9.604517e+00
0	 8.888889e-01	 5.925926e+00	 9.619118e+00
0	 9.629630e-01	 5.555556e+00	 9.558093e+00
0	 9.629630e-01	 5.629630e+00	 9.573382e+00
0	 9.629630e-01	 5.703704e+00	 9.588316e+00
0	 9.629630e-01	 5.777778e+00	 9.602909e+00
0	 9.629630e-01	 5.851852e+00	 9.617169e+00
0	 9.629630e-01	 5.925926e+00	 9.631109e+00
0	 1.037037e+00	 5.555556e+00	 9.574526e+00
0	 1.037037e+00	 5.629630e+00	 9.588999e+00
0	 1.037037e+00	 5.703704e+00	 9.603149e+00
0	 1.037037e+00	 5.777778e+00	 9.616986e+00
0	 1.037037e+00	 5.851852e+00	 9.630524e+00
0	 1.037037e+00	 5.925926e+00	 9.643772e+00
0	 1.111111e+00	 5.555556e+00	 9.591679e+00
0	 1.111111e+00	 5.629630e+00	 9.605308e+00
0	 1.111111e+00	 5.703704e+00	 9.618646e+00
0	 1.111111e+00	 5.777778e+00	 9.631703e+00
0	 1.111111e+00	 5.851852e+00	 9.644493e+00
0	 1.111111e+00	 5.925926e+00	 9.657026e+00
0	 7.407407e-01	 5.925926e+00	 9.597484e+00
0	 7.407407e-01	 6.000000e+00	 9.612862e+00
0	 7.407407e-01	 6.074074e+00	 9.627771e+00
0	 7.407407e-01	 6.148148e+00	 9.642207e+00
0	 7.407407e-01	 6.222222e+00	 9.656167e+00
0	 7.407407e-01	 6.296296e+00	 9.669648e+00
0	 8.148148e-01	 5.925926e+00	 9.607882e+00
0	 8.148148e-01	 6.000000e+00	 9.622704e+00
0	 8.148148e-01	 6.074074e+00	 9.637090e+00
0	 8.148148e-01	 6.148148e+00	 9.651035e+00
0	 8.148148e-01	 6.222222e+00	 9.664537e+00
0	 8.148148e-01	 6.296296e+00	 9.677592e+00
0	 8.888889e-01	 5.925926e+00	 9.619118e+00
0	 8.888889e-01	 6.000000e+00	 9.633345e+00
0	 8.888889e-01	 6.074074e+00	 9.647169e+00
0	 8.888889e-01	 6.148148e+00	 9.660586e+00
0	 8.888889e-01	 6.222222e+00	 9.673594e+00
0	 8.888889e-01	 6.296296e+00	 9.686187e+00
0	 9.629630e-01	 5.925926e+00	 9.631109e+00
0	 9.629630e-01	 6.000000e+00	 9.644707e+00
0	 9.629630e-01	 6.074074e+00	 9.657936e+00
0	 9.629630e-01	 6.148148e+00	 9.670792e+00
0	 9.629630e-01	 6.222222e+00	 9.683273e+00
0	 9.629630e-01	 6.296296e+00	 9.695374e+00
0	 1.037037e+00	 5.925926e+00	 9.643772e+00
0	 1.037037e+00	 6.000000e+00	 9.656713e+00
0	 1.037037e+00	 6.074074e+00	 9.669318e+00
0	 1.037037e+00	 6.148148e+00	 9.681585e+00
0	 1.037037e+00	 6.222222e+00	 9.693511e+00
0	 1.037037e+00	 6.296296e+00	 9.705095e+00
0	 1.111111e+00	 5.925926e+00	 9.657026e+00
0	 1.111111e+00	 6.000000e+00	 9.669285e+00
0	 1.111111e+00	 6.074074e+00	 9.681242e+00
0	 1.111111e+00	 6.148148e+00	 9.692895e+00
0	 1.111111e+00	 6.222222e+00	 9.704245e+00
0	 1.111111e+00	 6.296296e+00	 9.715290e+00
0	 7.407407e-01	 6.296296e+00	 9.669648e+00
0	 7.407407e-01	 6.370370e+00	 9.682724e+00
0	 7.407407e-01	 6.444444e+00	 9.695470e+00
0	 7.407407e-01	 6.518519e+00	 9.707885e+00
0	 7.407407e-01	 6.592593e+00	 9.719969e+00
0	 7.407407e-01	 6.666667e+00	 9.731722e+00
0	 8.148148e-01	 6.296296e+00	 9.677592e+00
0	 8.148148e-01	 6.370370e+00	 9.690263e+00
0	 8.148148e-01	 6.444444e+00	 9.702619e+00
0	 8.148148e-01	 6.518519e+00	 9.714661e+00
0	 8.148148e-01	 6.592593e+00	 9.726389e+00
0	 8.148148e-01	 6.666667e+00	 9.737804e+00
0	 8.888889e-01	 6.296296e+00	 9.686187e+00
0	 8.888889e-01	 6.370370e+00	 9.698421e+00
0	 8.888889e-01	 6.444444e+00	 9.710357e+00
0	 8.888889e-01	 6.518519e+00	 9.721996e+00
0	 8.888889e-01	 6.592593e+00	 9.733340e+00
0	 8.888889e-01	 6.666667e+00	 9.744391e+00
0	 9.629630e-01	 6.296296e+00	 9.695374e+00
0	 9.629630e-01	 6.370370e+00	 9.707143e+00
0	 9.629630e-01	 6.444444e+00	 9.718632e+00
0	 9.629630e-01	 6.518519e+00	 9.729843e+00
0	 9.629630e-01	 6.592593e+00	 9.740778e+00
0	 9.629630e-01	 6.666667e+00	 9.751442e+00
0	 1.037037e+00	 6.296296e+00	 9.705095e+00
0	 1.037037e+00	 6.370370e+00	 9.716374e+00
0	 1.037037e+00	 6.444444e+00	 9.727393e+00
0	 1.037037e+00	 6.518519e+00	 9.738153e+00
0	 1.037037e+00	 6.592593e+00	 9.748659e+00
0	 1.037037e+00	 6.666667e+00	 9.758915e+00
0	 1.111111e+00	 6.296296e+00	 9.715290e+00
0	 1.111111e+00	 6.370370e+00	 9.726060e+00
0	 1.111111e+00	 6.444444e+00	 9.736589e+00
0	 1.111111e+00	 6.518519e+00	 9.746880e+00
0	 1.111111e+00	 6.592593e+00	 9.756939e+00
0	 1.111111e+00	 6.666667e+00	 9.766768e+00
0	 7.407407e-01	 6.666667e+00	 9.731722e+00
0	 7.407407e-01	 6.740741e+00	 9.743155e+00
0	 7.407407e-01	 6.814815e+00	 9.754280e+00
0	 7.407407e-01	 6.888889e+00	 9.765098e+00
0	 7.407407e-01	 6.962963e+00	 9.775609e+00
0	 7.407407e-01	 7.037037e+00	 9.785813e+00
0	 8.148148e-01	 6.666667e+00	 9.737804e+00
0	 8.148148e-01	 6.740741e+00	 9.748916e+00
0	 8.148148e-01	 6.814815e+00	 9.759735e+00
0	 8.148148e-01	 6.888889e+00	 9.770261e+00
0	 8.148148e-01	 6.962963e+00	 9.780494e+00
0	 8.148148e-01	 7.037037e+00	 9.790435e+00
0	 8.888889e-01	 6.666667e+00	 9.744391e+00
0	 8.888889e-01	 6.740741e+00	 9.755157e+00
0	 8.888889e-01	 6.814815e+00	 9.765645e+00
0	 8.888889e-01	 6.888889e+00	 9.775856e+00
0	 8.888889e-01	 6.962963e+00	 9.785789e+00
0	 8.888889e-01	 7.037037e+00	 9.795446e+00
0	 9.629630e-01	 6.666667e+00	 9.751442e+00
0	 9.629630e-01	 6.740741e+00	 9.761839e+00
0	 9.629630e-01	 6.814815e+00	 9.771975e+00
0	 9.629630e-01	 6.888889e+00	 9.781848e+00
0	 9.629630e-01	 6.962963e+00	 9.791461e+00
0	 9.629630e-01	 7.037037e+00	 9.800814e+00
0	 1.037037e+00	 6.666667e+00	 9.758915e+00
0	 1.037037e+00	 6.740741e+00	 9.768923e+00
0	 1.037037e+00	 6.814815e+00	 9.778686e+00
0	 1.037037e+00	 6.888889e+00	 9.788204e+00
0	 1.037037e+00	 6.962963e+00	 9.797478e+00
0	 1.037037e+00	 7.037037e+00	 9.806510e+00
0	 1.111111e+00	 6.666667e+00	 9.766768e+00
0	 1.111111e+00	 6.740741e+00	 9.776369e+00
0	 1.111111e+00	 6.814815e+00	 9.785742e+00
0	 1.111111e+00	 6.888889e+00	 9.794887e+00
0	 1.111111e+00	 6.962963e+00	 9.803807e+00
0	 1.111111e+00	 7.037037e+00	 9.812502e+00
0	 7.407407e-01	 7.037037e+00	 9.785813e+00
0	 7.407407e-01	 7.111111e+00	 9.795736e+00
0	 7.407407e-01	 7.185185e+00	 9.805404e+00
0	 7.407407e-01	 7.259259e+00	 9.814818e+00
0	 7.407407e-01	 7.333333e+00	 9.823980e+00
0	 7.407407e-01	 7.407407e+00	 9.832890e+00
0	 8.148148e-01	 7.037037e+00	 9.790435e+00
0	 8.148148e-01	 7.111111e+00	 9.800107e+00
0	 8.148148e-01	 7.185185e+00	 9.809534e+00
0	 8.148148e-01	 7.259259e+00	 9.818716e+00
0	 8.148148e-01	 7.333333e+00	 9.827656e+00
0	 8.148148e-01	 7.407407e+00	 9.836356e+00
0	 8.888889e-01	 7.037037e+00	 9.795446e+00
0	 8.888889e-01	 7.111111e+00	 9.804846e+00
0	 8.888889e-01	 7.185185e+00	 9.814011e+00
0	 8.888889e-01	 7.259259e+00	 9.822943e+00
0	 8.888889e-01	 7.333333e+00	 9.831644e+00
0	 8.888889e-01	 7.407407e+00	 9.840115e+00
0	 9.629630e-01	 7.037037e+00	 9.800814e+00
0	 9.629630e-01	 7.111111e+00	 9.809924e+00
0	 9.629630e-01	 7.185185e+00	 9.818810e+00
0	 9.629630e-01	 7.259259e+00	 9.827474e+00
0	 9.629630e-01	 7.333333e+00	 9.835919e+00
0	 9.629630e-01	 7.407407e+00	 9.844147e+00
0	 1.037037e+00	 7.037037e+00	 9.806510e+00
0	 1.037037e+00	 7.111111e+00	 9.815313e+00
0	 1.037037e+00	 7.185185e+00	 9.823904e+00
0	 1.037037e+00	 7.259259e+00	 9.832285e+00
0	 1.037037e+00	 7.333333e+00	 9.840459e+00
0	 1.037037e+00	 7.407407e+00	 9.848429e+00
0	 1.111111e+00	 7.037037e+00	 9.812502e+00
0	 1.111111e+00	 7.111111e+00	 9.820984e+00
0	 1.111111e+00	 7.185185e+00	 9.829266e+00
0	 1.111111e+00	 7.259259e+00	 9.837351e+00
0	 1.111111e+00	 7.333333e+00	 9.845241e+00
0	 1.111111e+00	 7.407407e+00	 9.852940e+00
0	 7.407407e-01	 7.407407e+00	 9.832890e+00
0	 7.407407e-01	 7.481481e+00	 9.841556e+00
0	 7.407407e-01	 7.555556e+00	 9.849987e+00
0	 7.407407e-01	 7.629630e+00	 9.858184e+00
0	 7.407407e-01	 7.703704e+00	 9.866152e+00
0	 7.407407e-01	 7.777778e+00	 9.873893e+00
0	 8.148148e-01	 7.407407e+00	 9.836356e+00
0	 8.148148e-01	 7.481481e+00	 9.844821e+00
0	 8.148148e-01	 7.555556e+00	 9.853058e+00
0	 8.148148e-01	 7.629630e+00	 9.861070e+00
0	 8.148148e-01	 7.703704e+00	 9.868860e+00
0	 8.148148e-01	 7.777778e+00	 9.876431e+00
0	 8.888889e-01	 7.407407e+00	 9.840115e+00
0	 8.888889e-01	 7.481481e+00	 9.848363e+00
0	 8.888889e-01	 7.555556e+00	 9.856390e+00
0	 8.888889e-01	 7.629630e+00	 9.864202e+00
0	 8.888889e-01	 7.703704e+00	 9.871799e+00
0	 8.888889e-01	 7.777778e+00	 9.879186e+00
0	 9.629630e-01	 7.407407e+00	 9.844147e+00
0	 9.629630e-01	 7.481481e+00	 9.852161e+00
0	 9.629630e-01	 7.555556e+00	 9.859965e+00
0	 9.629630e-01	 7.629630e+00	 9.867561e+00
0	 9.629630e-01	 7.703704e+00	 9.874952e+00
0	 9.629630e-01	 7.777778e+00	 9.882142e+00
0	 1.037037e+00	 7.407407e+00	 9.848429e+00
0	 1.037037e+00	 7.481481e+00	 9.856196e+00
0	 1.037037e+00	 7.555556e+00	 9.863762e+00
0	 1.037037e+00	 7.629630e+00	 9.871130e+00
0	 1.037037e+00	 7.703704e+00	 9.878302e+00
0	 1.037037e+00	 7.777778e+00	 9.885283e+00
0	 1.111111e+00	 7.407407e+00	 9.852940e+00
0	 1.111111e+00	 7.481481e+00	 9.860447e+00
0	 1.111111e+00	 7.555556e+00	 9.867763e+00
0	 1.111111e+00	 7.629630e+00	 9.874890e+00
0	 1.111111e+00	 7.703704e+00	 9.881833e+00
0	 1.111111e+00	 7.777778e+00	 9.888593e+00
0	 7.407407e-01	 7.777778e+00	 9.873893e+00
0	 7.407407e-01	 7.851852e+00	 9.881410e+00
0	 7.407407e-01	 7.925926e+00	 9.888707e+00
0	 7.407407e-01	 8.000000e+00	 9.895789e+00
0	 7.407407e-01	 8.074074e+00	 9.902659e+00
0	 7.407407e-01	 8.148148e+00	 9.909322e+00
0	 8.148148e-01	 7.777778e+00	 9.876431e+00
0	 8.148148e-01	 7.851852e+00	 9.883785e+00
0	 8.148148e-01	 7.925926e+00	 9.890925e+00
0	 8.148148e-01	 8.000000e+00	 9.897856e+00
0	 8.148148e-01	 8.074074e+00	 9.904582e+00
0	 8.148148e-01	 8.148148e+00	 9.911108e+00
0	 8.888889e-01	 7.777778e+00	 9.879186e+00
0	 8.888889e-01	 7.851852e+00	 9.886363e+00
0	 8.888889e-01	 7.925926e+00	 9.893334e+00
0	 8.888889e-01	 8.000000e+00	 9.900102e+00
0	 8.888889e-01	 8.074074e+00	 9.906672e+00
0	 8.888889e-01	 8.148148e+00	 9.913047e+00
0	 9.629630e-01	 7.777778e+00	 9.882142e+00
0	 9.629630e-01	 7.851852e+00	 9.889130e+00
0	 9.629630e-01	 7.925926e+00	 9.895919e+00
0	 9.629630e-01	 8.000000e+00	 9.902512e+00
0	 9.629630e-01	 8.074074e+00	 9.908914e+00
0	 9.629630e-01	 8.148148e+00	 9.915130e+00
0	 1.037037e+00	 7.777778e+00	 9.885283e+00
0	 1.037037e+00	 7.851852e+00	 9.892071e+00
0	 1.037037e+00	 7.925926e+00	 9.898667e+00
0	 1.037037e+00	 8.000000e+00	 9.905074e+00
0	 1.037037e+00	 8.074074e+00	 9.911299e+00
0	 1.037037e+00	 8.148148e+00	 9.917344e+00
0	 1.111111e+00	 7.777778e+00	 9.888593e+00
0	 1.111111e+00	 7.851852e+00	 9.895171e+00
0	 1.111111e+00	 7.925926e+00	 9.901563e+00
0	 1.111111e+00	 8.000000e+00	 9.907776e+00
0	 1.111111e+00	 8.074074e+00	 9.913813e+00
0	 1.111111e+00	 8.148148e+00	 9.919679e+00
0	 7.407407e-01	 8.148148e+00	 9.909322e+00
0	 7.407407e-01	 8.222222e+00	 9.915771e+00
0	 7.407407e-01	 8.296296e+00	 9.922001e+00
0	 7.407407e-01	 8.370370e+00	 9.928018e+00
0	 7.407407e-01	 8.444444e+00	 9.933827e+00
0	 7.407407e-01	 8.518519e+00	 9.939436e+00
0	 8.148148e-01	 8.148148e+00	 9.911108e+00
0	 8.148148e-01	 8.222222e+00	 9.917425e+00
0	 8.148148e-01	 8.296296e+00	 9.923528e+00
0	 8.148148e-01	 8.370370e+00	 9.929423e+00
0	 8.148148e-01	 8.444444e+00	 9.935116e+00
0	 8.148148e-01	 8.518519e+00	 9.940613e+00
0	 8.888889e-01	 8.148148e+00	 9.913047e+00
0	 8.888889e-01	 8.222222e+00	 9.919222e+00
0	 8.888889e-01	 8.296296e+00	 9.925187e+00
0	 8.888889e-01	 8.370370e+00	 9.930950e+00
0	 8.888889e-01	 8.444444e+00	 9.936517e+00
0	 8.888889e-01	 8.518519e+00	 9.941893e+00
0	 9.629630e-01	 8.148148e+00	 9.915130e+00
0	 9.629630e-01	 8.222222e+00	 9.921151e+00
0	 9.629630e-01	 8.296296e+00	 9.926969e+00
0	 9.629630e-01	 8.370370e+00	 9.932591e+00
0	 9.629630e-01	 8.444444e+00	 9.938022e+00
0	 9.629630e-01	 8.518519e+00	 9.943268e+00
0	 1.037037e+00	 8.148148e+00	 9.917344e+00
0	 1.037037e+00	 8.222222e+00	 9.923202e+00
0	 1.037037e+00	 8.296296e+00	 9.928863e+00
0	 1.037037e+00	 8.370370e+00	 9.934334e+00
0	 1.037037e+00	 8.444444e+00	 9.939621e+00
0	 1.037037e+00	 8.518519e+00	 9.944730e+00
0	 1.111111e+00	 8.148148e+00	 9.919679e+00
0	 1.111111e+00	 8.222222e+00	 9.925364e+00
0	 1.111111e+00	 8.296296e+00	 9.930860e+00
0	 1.111111e+00	 8.370370e+00	 9.936172e+00
0	 1.111111e+00	 8.444444e+00	 9.941307e+00
0	 1.111111e+00	 8.518519e+00	 9.946270e+00
0	 7.407407e-01	 8.518519e+00	 9.939436e+00
0	 7.407407e-01	 8.592593e+00	 9.944827e+00
0	 7.407407e-01	 8.666667e+00	 9.949987e+00
0	 7.407407e-01	 8.740741e+00	 9.954925e+00
0	 7.407407e-01	 8.814815e+00	 9.959648e+00
0	 7.407407e-01	 8.888889e+00	 9.964164e+00
0	 8.148148e-01	 8.518519e+00	 9.940613e+00
0	 8.148148e-01	 8.592593e+00	 9.945898e+00
0	 8.148148e-01	 8.666667e+00	 9.950956e+00
0	 8.148148e-01	 8.740741e+00	 9.955797e+00
0	 8.148148e-01	 8.814815e+00	 9.960428e+00
0	 8.148148e-01	 8.888889e+00	 9.964857e+00
0	 8.888889e-01	 8.518519e+00	 9.941893e+00
0	 8.888889e-01	 8.592593e+00	 9.947063e+00
0	 8.888889e-01	 8.666667e+00	 9.952011e+00
0	 8.888889e-01	 8.740741e+00	 9.956747e+00
0	 8.888889e-01	 8.814815e+00	 9.961278e+00
0	 8.888889e-01	 8.888889e+00	 9.965612e+00
0	 9.629630e-01	 8.518519e+00	 9.943268e+00
0	 9.629630e-01	 8.592593e+00	 9.948314e+00
0	 9.629630e-01	 8.666667e+00	 9.953144e+00
0	 9.629630e-01	 8.740741e+00	 9.957767e+00
0	 9.629630e-01	 8.814815e+00	 9.962191e+00
0	 9.629630e-01	 8.888889e+00	 9.966423e+00
0	 1.037037e+00	 8.518519e+00	 9.944730e+00
0	 1.037037e+00	 8.592593e+00	 9.949644e+00
0	 1.037037e+00	 8.666667e+00	 9.954349e+00
0	 1.037037e+00	 8.740741e+00	 9.958852e+00
0	 1.037037e+00	 8.814815e+00	 9.963161e+00
0	 1.037037e+00	 8.888889e+00	 9.967285e+00
0	 1.111111e+00	 8.518519e+00	 9.946270e+00
0	 1.111111e+00	 8.592593e+00	 9.951045e+00
0	 1.111111e+00	 8.666667e+00	 9.955617e+00
0	 1.111111e+00	 8.740741e+00	 9.959994e+00
0	 1.111111e+00	 8.814815e+00	 9.964183e+00
0	 1.111111e+00	 8.888889e+00	 9.968192e+00
0	 7.407407e-01	 8.888889e+00	 9.964164e+00
0	 7.407407e-01	 8.962963e+00	 9.968448e+00
0	 7.407407e-01	 9.037037e+00	 9.972474e+00
0	 7.407407e-01	 9.111111e+00	 9.976254e+00
0	 7.407407e-01	 9.185185e+00	 9.979798e+00
0	 7.407407e-01	 9.259259e+00	 9.983118e+00
0	 8.148148e-01	 8.888889e+00	 9.964857e+00
0	 8.148148e-01	 8.962963e+00	 9.969058e+00
0	 8.148148e-01	 9.037037e+00	 9.973006e+00
0	 8.148148e-01	 9.111111e+00	 9.976713e+00
0	 8.148148e-01	 9.185185e+00	 9.980188e+00
0	 8.148148e-01	 9.259259e+00	 9.983444e+00
0	 8.888889e-01	 8.888889e+00	 9.965612e+00
0	 8.888889e-01	 8.962963e+00	 9.969723e+00
0	 8.888889e-01	 9.037037e+00	 9.973587e+00
0	 8.888889e-01	 9.111111e+00	 9.977214e+00
0	 8.888889e-01	 9.185185e+00	 9.980616e+00
0	 8.888889e-01	 9.259259e+00	 9.983802e+00
0	 9.629630e-01	 8.888889e+00	 9.966423e+00
0	 9.629630e-01	 8.962963e+00	 9.970438e+00
0	 9.629630e-01	 9.037037e+00	 9.974211e+00
0	 9.629630e-01	 9.111111e+00	 9.977754e+00
0	 9.629630e-01	 9.185185e+00	 9.981075e+00
0	 9.629630e-01	 9.259259e+00	 9.984188e+00
0	 1.037037e+00	 8.888889e+00	 9.967285e+00
0	 1.037037e+00	 8.962963e+00	 9.971197e+00
0	 1.037037e+00	 9.037037e+00	 9.974874e+00
0	 1.037037e+00	 9.111111e+00	 9.978326e+00
0	 1.037037e+00	 9.185185e+00	 9.981563e+00
0	 1.037037e+00	 9.259259e+00	 9.984596e+00
0	 1.111111e+00	 8.888889e+00	 9.968192e+00
0	 1.111111e+00	 8.962963e+00	 9.971995e+00
0	 1.111111e+00	 9.037037e+00	 9.975570e+00
0	 1.111111e+00	 9.111111e+00	 9.978926e+00
0	 1.111111e+00	 9.185185e+00	 9.982073e+00
0	 1.111111e+00	 9.259259e+00	 9.985022e+00
0	 7.407407e-01	 9.259259e+00	 9.983118e+00
0	 7.407407e-01	 9.333333e+00	 9.986172e+00
0	 7.407407e-01	 9.407407e+00	 9.988921e+00
0	 7.407407e-01	 9.481481e+00	 9.991380e+00
0	 7.407407e-01	 9.555556e+00	 9.993564e+00
0	 7.407407e-01	 9.629630e+00	 9.995488e+00
0	 8.148148e-01	 9.259259e+00	 9.983444e+00
0	 8.148148e-01	 9.333333e+00	 9.986440e+00
0	 8.148148e-01	 9.407407e+00	 9.989135e+00
0	 8.148148e-01	 9.481481e+00	 9.991546e+00
0	 8.148148e-01	 9.555556e+00	 9.993688e+00
0	 8.148148e-01	 9.629630e+00	 9.995574e+00
0	 8.888889e-01	 9.259259e+00	 9.983802e+00
0	 8.888889e-01	 9.333333e+00	 9.986734e+00
0	 8.888889e-01	 9.407407e+00	 9.989372e+00
0	 8.888889e-01	 9.481481e+00	 9.991732e+00
0	 8.888889e-01	 9.555556e+00	 9.993827e+00
0	 8.888889e-01	 9.629630e+00	 9.995673e+00
0	 9.629630e-01	 9.259259e+00	 9.984188e+00
0	 9.629630e-01	 9.333333e+00	 9.987050e+00
0	 9.629630e-01	 9.407407e+00	 9.989627e+00
0	 9.629630e-01	 9.481481e+00	 9.991931e+00
0	 9.629630e-01	 9.555556e+00	 9.993978e+00
0	 9.629630e-01	 9.629630e+00	 9.995780e+00
0	 1.037037e+00	 9.259259e+00	 9.984596e+00
0	 1.037037e+00	 9.333333e+00	 9.987386e+00
0	 1.037037e+00	 9.407407e+00	 9.989896e+00
0	 1.037037e+00	 9.481481e+00	 9.992142e+00
0	 1.037037e+00	 9.555556e+00	 9.994135e+00
0	 1.037037e+00	 9.629630e+00	 9.995891e+00
0	 1.111111e+00	 9.259259e+00	 9.985022e+00
0	 1.111111e+00	 9.333333e+00	 9.987735e+00
0	 1.111111e+00	 9.407407e+00	 9.990176e+00
0	 1.111111e+00	 9.481481e+00	 9.992359e+00
0	 1.111111e+00	 9.555556e+00	 9.994296e+00
0	 1.111111e+00	 9.629630e+00	 9.996002e+00
0	 7.407407e-01	 9.629630e+00	 9.995488e+00
0	 7.407407e-01	 9.703704e+00	 9.997096e+00
0	 7.407407e-01	 9.777778e+00	 9.998336e+00
0	 7.407407e-01	 9.851852e+00	 9.999228e+00
0	 7.407407e-01	 9.925926e+00	 9.999791e+00
0	 7.407407e-01	 1.000000e+01	 1.000005e+01
0	 8.148148e-01	 9.629630e+00	 9.995574e+00
0	 8.148148e-01	 9.703704e+00	 9.997151e+00
0	 8.148148e-01	 9.777778e+00	 9.998366e+00
0	 8.148148e-01	 9.851852e+00	 9.999240e+00
0	 8.148148e-01	 9.925926e+00	 9.999792e+00
0	 8.148148e-01	 1.000000e+01	 1.000004e+01
0	 8.888889e-01	 9.629630e+00	 9.995673e+00
0	 8.888889e-01	 9.703704e+00	 9.997215e+00
0	 8.888889e-01	 9.777778e+00	 9.998405e+00
0	 8.888889e-01	 9.851852e+00	 9.999260e+00
0	 8.888889e-01	 9.925926e+00	 9.999800e+00
0	 8.888889e-01	 1.000000e+01	 1.000004e+01
0	 9.629630e-01	 9.629630e+00	 9.995780e+00
0	 9.629630e-01	 9.703704e+00	 9.997286e+00
0	 9.629630e-01	 9.777778e+00	 9.998447e+00
0	 9.629630e-01	 9.851852e+00	 9.999282e+00
0	 9.629630e-01	 9.925926e+00	 9.999809e+00
0	 9.629630e-01	 1.000000e+01	 1.000005e+01
0	 1.037037e+00	 9.629630e+00	 9.995891e+00
0	 1.037037e+00	 9.703704e+00	 9.997358e+00
0	 1.037037e+00	 9.777778e+00	 9.998489e+00
0	 1.037037e+00	 9.851852e+00	 9.999303e+00
0	 1.037037e+00	 9.925926e+00	 9.999816e+00
0	 1.037037e+00	 1.000000e+01	 1.000005e+01
0	 1.111111e+00	 9.629630e+00	 9.996002e+00
0	 1.111111e+00	 9.703704e+00	 9.997428e+00
0	 1.111111e+00	 9.777778e+00	 9.998528e+00
0	 1.111111e+00	 9.851852e+00	 9.999318e+00
0	 1.111111e+00	 9.925926e+00	 9.999816e+00
0	 1.111111e+00	 1.000000e+01	 1.000004e+01
0	 1.111111e+00	 0.000000e+00	-2.986767e-01
0	 1.111111e+00	 7.407407e-02	-1.175620e+00
0	 1.111111e+00	 1.481481e-01	-2.179919e+00
0	 1.111111e+00	 2.222222e-01	-3.198770e+00
0	 1.111111e+00	 2.962963e-01	-4.119372e+00
0	 1.111111e+00	 3.703704e-01	-4.828923e+00
0	 1.185185e+00	 0.000000e+00	 2.971083e-01
0	 1.185185e+00	 7.407407e-02	-1.120136e+00
0	 1.185185e+00	 1.481481e-01	-2.594575e+00
0	 1.185185e+00	 2.222222e-01	-3.958826e+00
0	 1.185185e+00	 2.962963e-01	-5.045506e+00
0	 1.185185e+00	 3.703704e-01	-5.687233e+00
0	 1.259259e+00	 0.000000e+00	 1.067527e+00
0	 1.259259e+00	 7.407407e-02	-6.617935e-01
0	 1.259259e+00	 1.481481e-01	-2.327305e+00
0	 1.259259e+00	 2.222222e-01	-3.744669e+00
0	 1.259259e+00	 2.962963e-01	-4.729548e+00
0	 1.259259e+00	 3.703704e-01	-5.097601e+00
0	 1.333333e+00	 0.000000e+00	 1.729463e+00
0	 1.333333e+00	 7.407407e-02	-4.314135e-02
0	 1.333333e+00	 1.481481e-01	-1.599216e+00
0	 1.333333e+00	 2.222222e-01	-2.775090e+00
0	 1.333333e+00	 2.962963e-01	-3.407094e+00
0	 1.333333e+00	 3.703704e-01	-3.331557e+00
0	 1.407407e+00	 0.000000e+00	 1.999803e+00
0	 1.407407e+00	 7.407407e-02	 4.932717e-01
0	 1.407407e+00	 1.481481e-01	-6.314145e-01
0	 1.407407e+00	 2.222222e-01	-1.268878e+00
0	 1.407407e+00	 2.962963e-01	-1.313741e+00
0	 1.407407e+00	 3.703704e-01	-6.606264e-01
0	 1.481481e+00	 0.000000e+00	 1.595430e+00
0	 1.481481e+00	 7.407407e-02	 7.048968e-01
0	 1.481481e+00	 1.481481e-01	 3.549926e-01
0	 1.481481e+00	 2.222222e-01	 5.551784e-01
0	 1.481481e+00	 2.962963e-01	 1.314915e+00
0	 1.481481e+00	 3.703704e-01	 2.643662e+00
0	 1.111111e+00	 3.703704e-01	-4.828923e+00
0	 1.111111e+00	 4.444444e-01	-4.444378e+00
0	 1.111111e+00	 5.185185e-01	-2.190613e+00
0	 1.111111e+00	 5.925926e-01	 1.883287e+00
0	 1.111111e+00	 6.666667e-01	 7.728239e+00
0	 1.111111e+00	 7.407407e-01	 1.529516e+01
0	 1.185185e+00	 3.703704e-01	-5.687233e+00
0	 1.185185e+00	 4.444444e-01	-5.111658e+00
0	 1.185185e+00	 5.185185e-01	-2.710522e+00
0	 1.185185e+00	 5.925926e-01	 1.437426e+00
0	 1.185185e+00	 6.666667e-01	 7.253433e+00
0	 1.185185e+00	 7.407407e-01	 1.465875e+01
0	 1.259259e+00	 3.703704e-01	-5.097601e+00
0	 1.259259e+00	 4.444444e-01	-4.285706e+00
0	 1.259259e+00	 5.185185e-01	-1.912996e+00
0	 1.259259e+00	 5.925926e-01	 1.931483e+00
0	 1.259259e+00	 6.666667e-01	 7.158680e+00
0	 1.259259e+00	 7.407407e-01	 1.367955e+01
0	 1.333333e+00	 3.703704e-01	-3.331557e+00
0	 1.333333e+00	 4.444444e-01	-2.249103e+00
0	 1.333333e+00	 5.185185e-01	-2.278831e-02
0	 1.333333e+00	 5.925926e-01	 3.267412e+00
0	 1.333333e+00	 6.666667e-01	 7.541524e+00
0	 1.333333e+00	 7.407407e-01	 1.271957e+01
0	 1.407407e+00	 3.703704e-01	-6.606264e-01
0	 1.407407e+00	 4.444444e-01	 7.155706e-01
0	 1.407407e+00	 5.185185e-01	 2.735347e+00
0	 1.407407e+00	 5.925926e-01	 5.347170e+00
0	 1.407407e+00	 6.666667e-01	 8.499509e+00
0	 1.407407e+00	 7.407407e-01	 1.214083e+01
0	 1.481481e+00	 3.703704e-01	 2.643662e+00
0	 1.481481e+00	 4.444444e-01	 4.325734e+00
0	 1.481481e+00	 5.185185e-01	 6.136657e+00
0	 1.481481e+00	 5.925926e-01	 8.072712e+00
0	 1.481481e+00	 6.666667e-01	 1.013018e+01
0	 1.481481e+00	 7.407407e-01	 1.230534e+01
0	 1.111111e+00	 7.407407e-01	 1.529516e+01
0	 1.111111e+00	 8.148148e-01	 2.266037e+01
0	 1.111111e+00	 8.888889e-01	 2.792007e+01
0	 1.111111e+00	 9.629630e-01	 3.105497e+01
0	 1.111111e+00	 1.037037e+00	 3.204581e+01
0	 1.111111e+00	 1.111111e+00	 3.087332e+01
0	 1.185185e+00	 7.407407e-01	 1.465875e+01
0	 1.185185e+00	 8.148148e-01	 2.173917e+01
0	 1.185185e+00	 8.888889e-01	 2.660466e+01
0	 1.185185e+00	 9.629630e-01	 2.921270e+01
0	 1.185185e+00	 1.037037e+00	 2.952081e+01
0	 1.185185e+00	 1.111111e+00	 2.748647e+01
0	 1.259259e+00	 7.407407e-01	 1.367955e+01
0	 1.259259e+00	 8.148148e-01	 1.983785e+01
0	 1.259259e+00	 8.888889e-01	 2.399913e+01
0	 1.259259e+00	 9.629630e-01	 2.610698e+01
0	 1.259259e+00	 1.037037e+00	 2.610502e+01
0	 1.259259e+00	 1.111111e+00	 2.393685e+01
0	 1.333333e+00	 7.407407e-01	 1.271957e+01
0	 1.333333e+00	 8.148148e-01	 1.755528e+01
0	 1.333333e+00	 8.888889e-01	 2.081505e+01
0	 1.333333e+00	 9.629630e-01	 2.243795e+01
0	 1.333333e+00	 1.037037e+00	 2.236302e+01
0	 1.333333e+00	 1.111111e+00	 2.052933e+01
0	 1.407407e+00	 7.407407e-01	 1.214083e+01
0	 1.407407e+00	 8.148148e-01	 1.549029e+01
0	 1.407407e+00	 8.888889e-01	 1.776398e+01
0	 1.407407e+00	 9.629630e-01	 1.890572e+01
0	 1.407407e+00	 1.037037e+00	 1.885937e+01
0	 1.407407e+00	 1.111111e+00	 1.756876e+01
0	 1.481481e+00	 7.407407e-01	 1.230534e+01
0	 1.481481e+00	 8.148148e-01	 1.424177e+01
0	 1.481481e+00	 8.888889e-01	 1.555748e+01
0	 1.481481e+00	 9.629630e-01	 1.621045e+01
0	 1.481481e+00	 1.037037e+00	 1.615864e+01
0	 1.481481e+00	 1.111111e+00	 1.536003e+01
0	 1.111111e+00	 1.111111e+00	 3.087332e+01
0	 1.111111e+00	 1.185185e+00	 2.851602e+01
0	 1.111111e+00	 1.259259e+00	 2.596201e+01
0	 1.111111e+00	 1.333333e+00	 2.320632e+01
0	 1.111111e+00	 1.407407e+00	 2.024401e+01
0	 1.111111e+00	 1.481481e+00	 1.707012e+01
0	 1.185185e+00	 1.111111e+00	 2.748647e+01
0	 1.185185e+00	 1.185185e+00	 2.437648e+01
0	 1.185185e+00	 1.259259e+00	 2.149564e+01
0	 1.185185e+00	 1.333333e+00	 1.885842e+01
0	 1.185185e+00	 1.407407e+00	 1.647930e+01
0	 1.185185e+00	 1.481481e+00	 1.437274e+01
0	 1.259259e+00	 1.111111e+00	 2.393685e+01
0	 1.259259e+00	 1.185185e+00	 2.085505e+01
0	 1.259259e+00	 1.259259e+00	 1.816802e+01
0	 1.259259e+00	 1.333333e+00	 1.590311e+01
0	 1.259259e+00	 1.407407e+00	 1.408765e+01
0	 1.259259e+00	 1.481481e+00	 1.274897e+01
0	 1.333333e+00	 1.111111e+00	 2.052933e+01
0	 1.333333e+00	 1.185185e+00	 1.797649e+01
0	 1.333333e+00	 1.259259e+00	 1.580718e+01
0	 1.333333e+00	 1.333333e+00	 1.405504e+01
0	 1.333333e+00	 1.407407e+00	 1.275370e+01
0	 1.333333e+00	 1.481481e+00	 1.193679e+01
0	 1.407407e+00	 1.111111e+00	 1.756876e+01
0	 1.407407e+00	 1.185185e+00	 1.576557e+01
0	 1.407407e+00	 1.259259e+00	 1.424115e+01
0	 1.407407e+00	 1.333333e+00	 1.302887e+01
0	 1.407407e+00	 1.407407e+00	 1.216208e+01
0	 1.407407e+00	 1.481481e+00	 1.167416e+01
0	 1.481481e+00	 1.111111e+00	 1.536003e+01
0	 1.481481e+00	 1.185185e+00	 1.424708e+01
0	 1.481481e+00	 1.259259e+00	 1.329798e+01
0	 1.481481e+00	 1.333333e+00	 1.253926e+01
0	 1.481481e+00	 1.407407e+00	 1.199744e+01
0	 1.481481e+00	 1.481481e+00	 1.169905e+01
0	 1.111111e+00	 1.481481e+00	 1.707012e+01
0	 1.111111e+00	 1.555556e+00	 1.412572e+01
0	 1.111111e+00	 1.629630e+00	 1.185895e+01
0	 1.111111e+00	 1.703704e+00	 1.027545e+01
0	 1.111111e+00	 1.777778e+00	 9.380884e+00
0	 1.111111e+00	 1.851852e+00	 9.180894e+00
0	 1.185185e+00	 1.481481e+00	 1.437274e+01
0	 1.185185e+00	 1.555556e+00	 1.260437e+01
0	 1.185185e+00	 1.629630e+00	 1.123465e+01
0	 1.185185e+00	 1.703704e+00	 1.027031e+01
0	 1.185185e+00	 1.777778e+00	 9.718076e+00
0	 1.185185e+00	 1.851852e+00	 9.584694e+00
0	 1.259259e+00	 1.481481e+00	 1.274897e+01
0	 1.259259e+00	 1.555556e+00	 1.175976e+01
0	 1.259259e+00	 1.629630e+00	 1.097919e+01
0	 1.259259e+00	 1.703704e+00	 1.041437e+01
0	 1.259259e+00	 1.777778e+00	 1.007241e+01
0	 1.259259e+00	 1.851852e+00	 9.960423e+00
0	 1.333333e+00	 1.481481e+00	 1.193679e+01
0	 1.333333e+00	 1.555556e+00	 1.141603e+01
0	 1.333333e+00	 1.629630e+00	 1.098522e+01
0	 1.333333e+00	 1.703704e+00	 1.065115e+01
0	 1.333333e+00	 1.777778e+00	 1.042057e+01
0	 1.333333e+00	 1.851852e+00	 1.030025e+01
0	 1.407407e+00	 1.481481e+00	 1.167416e+01
0	 1.407407e+00	 1.555556e+00	 1.139733e+01
0	 1.407407e+00	 1.629630e+00	 1.114542e+01
0	 1.407407e+00	 1.703704e+00	 1.092414e+01
0	 1.407407e+00	 1.777778e+00	 1.073921e+01
0	 1.407407e+00	 1.851852e+00	 1.059636e+01
0	 1.481481e+00	 1.481481e+00	 1.169905e+01
0	 1.481481e+00	 1.555556e+00	 1.152782e+01
0	 1.481481e+00	 1.629630e+00	 1.135244e+01
0	 1.481481e+00	 1.703704e+00	 1.117685e+01
0	 1.481481e+00	 1.777778e+00	 1.100502e+01
0	 1.481481e+00	 1.851852e+00	 1.084092e+01
0	 1.111111e+00	 1.851852e+00	 9.180894e+00
0	 1.111111e+00	 1.925926e+00	 9.297199e+00
0	 1.111111e+00	 2.000000e+00	 9.350620e+00
0	 1.111111e+00	 2.074074e+00	 9.345465e+00
0	 1.111111e+00	 2.148148e+00	 9.286040e+00
0	 1.111111e+00	 2.222222e+00	 9.176652e+00
0	 1.185185e+00	 1.851852e+00	 9.584694e+00
0	 1.185185e+00	 1.925926e+00	 9.639444e+00
0	 1.185185e+00	 2.000000e+00	 9.648532e+00
0	 1.185185e+00	 2.074074e+00	 9.614082e+00
0	 1.185185e+00	 2.148148e+00	 9.538217e+00
0	 1.185185e+00	 2.222222e+00	 9.423062e+00
0	 1.259259e+00	 1.851852e+00	 9.960423e+00
0	 1.259259e+00	 1.925926e+00	 9.951967e+00
0	 1.259259e+00	 2.000000e+00	 9.916100e+00
0	 1.259259e+00	 2.074074e+00	 9.853170e+00
0	 1.259259e+00	 2.148148e+00	 9.763525e+00
0	 1.259259e+00	 2.222222e+00	 9.647512e+00
0	 1.333333e+00	 1.851852e+00	 1.030025e+01
0	 1.333333e+00	 1.925926e+00	 1.023267e+01
0	 1.333333e+00	 2.000000e+00	 1.015509e+01
0	 1.333333e+00	 2.074074e+00	 1.006649e+01
0	 1.333333e+00	 2.148148e+00	 9.965856e+00
0	 1.333333e+00	 2.222222e+00	 9.852157e+00
0	 1.407407e+00	 1.851852e+00	 1.059636e+01
0	 1.407407e+00	 1.925926e+00	 1.047947e+01
0	 1.407407e+00	 2.000000e+00	 1.036728e+01
0	 1.407407e+00	 2.074074e+00	 1.025782e+01
0	 1.407407e+00	 2.148148e+00	 1.014910e+01
0	 1.407407e+00	 2.222222e+00	 1.003915e+01
0	 1.481481e+00	 1.851852e+00	 1.084092e+01
0	 1.481481e+00	 1.925926e+00	 1.069026e+01
0	 1.481481e+00	 2.000000e+00	 1.055444e+01
0	 1.481481e+00	 2.074074e+00	 1.043092e+01
0	 1.481481e+00	 2.148148e+00	 1.031716e+01
0	 1.481481e+00	 2.222222e+00	 1.021065e+01
0	 1.111111e+00	 2.222222e+00	 9.176652e+00
0	 1.111111e+00	 2.296296e+00	 9.061996e+00
0	 1.111111e+00	 2.370370e+00	 8.982278e+00
0	 1.111111e+00	 2.444444e+00	 8.935077e+00
0	 1.111111e+00	 2.518519e+00	 8.917972e+00
0	 1.111111e+00	 2.592593e+00	 8.928542e+00
0	 1.185185e+00	 2.222222e+00	 9.423062e+00
0	 1.185185e+00	 2.296296e+00	 9.304687e+00
0	 1.185185e+00	 2.370370e+00	 9.216760e+00
0	 1.185185e+00	 2.444444e+00	 9.157795e+00
0	 1.185185e+00	 2.518519e+00	 9.126305e+00
0	 1.185185e+00	 2.592593e+00	 9.120804e+00
0	 1.259259e+00	 2.222222e+00	 9.647512e+00
0	 1.259259e+00	 2.296296e+00	 9.531133e+00
0	 1.259259e+00	 2.370370e+00	 9.439693e+00
0	 1.259259e+00	 2.444444e+00	 9.372494e+00
0	 1.259259e+00	 2.518519e+00	 9.328840e+00
0	 1.259259e+00	 2.592593e+00	 9.308032e+00
0	 1.333333e+00	 2.222222e+00	 9.852157e+00
0	 1.333333e+00	 2.296296e+00	 9.741165e+00
0	 1.333333e+00	 2.370370e+00	 9.649288e+00
0	 1.333333e+00	 2.444444e+00	 9.576472e+00
0	 1.333333e+00	 2.518519e+00	 9.522662e+00
0	 1.333333e+00	 2.592593e+00	 9.487804e+00
0	 1.407407e+00	 2.222222e+00	 1.003915e+01
0	 1.407407e+00	 2.296296e+00	 9.934616e+00
0	 1.407407e+00	 2.370370e+00	 9.843760e+00
0	 1.407407e+00	 2.444444e+00	 9.767027e+00
0	 1.407407e+00	 2.518519e+00	 9.704858e+00
0	 1.407407e+00	 2.592593e+00	 9.657696e+00
0	 1.481481e+00	 2.222222e+00	 1.021065e+01
0	 1.481481e+00	 2.296296e+00	 1.011132e+01
0	 1.481481e+00	 2.370370e+00	 1.002132e+01
0	 1.481481e+00	 2.444444e+00	 9.941456e+00
0	 1.481481e+00	 2.518519e+00	 9.872513e+00
0	 1.481481e+00	 2.592593e+00	 9.815285e+00
0	 1.111111e+00	 2.592593e+00	 8.928542e+00
0	 1.111111e+00	 2.666667e+00	 8.947696e+00
0	 1.111111e+00	 2.740741e+00	 8.959370e+00
0	 1.111111e+00	 2.814815e+00	 8.965684e+00
0	 1.111111e+00	 2.888889e+00	 8.968758e+00
0	 1.111111e+00	 2.962963e+00	 8.970712e+00
0	 1.185185e+00	 2.592593e+00	 9.120804e+00
0	 1.185185e+00	 2.666667e+00	 9.124898e+00
0	 1.185185e+00	 2.740741e+00	 9.124176e+00
0	 1.185185e+00	 2.814815e+00	 9.120129e+00
0	 1.185185e+00	 2.888889e+00	 9.114246e+00
0	 1.185185e+00	 2.962963e+00	 9.108018e+00
0	 1.259259e+00	 2.592593e+00	 9.308032e+00
0	 1.259259e+00	 2.666667e+00	 9.297092e+00
0	 1.259259e+00	 2.740741e+00	 9.284129e+00
0	 1.259259e+00	 2.814815e+00	 9.270078e+00
0	 1.259259e+00	 2.888889e+00	 9.255877e+00
0	 1.259259e+00	 2.962963e+00	 9.242461e+00
0	 1.333333e+00	 2.592593e+00	 9.487804e+00
0	 1.333333e+00	 2.666667e+00	 9.462591e+00
0	 1.333333e+00	 2.740741e+00	 9.438057e+00
0	 1.333333e+00	 2.814815e+00	 9.414662e+00
0	 1.333333e+00	 2.888889e+00	 9.392865e+00
0	 1.333333e+00	 2.962963e+00	 9.373126e+00
0	 1.407407e+00	 2.592593e+00	 9.657696e+00
0	 1.407407e+00	 2.666667e+00	 9.619704e+00
0	 1.407407e+00	 2.740741e+00	 9.584789e+00
0	 1.407407e+00	 2.814815e+00	 9.553011e+00
0	 1.407407e+00	 2.888889e+00	 9.524428e+00
0	 1.407407e+00	 2.962963e+00	 9.499099e+00
0	 1.481481e+00	 2.592593e+00	 9.815285e+00
0	 1.481481e+00	 2.666667e+00	 9.766743e+00
0	 1.481481e+00	 2.740741e+00	 9.723155e+00
0	 1.481481e+00	 2.814815e+00	 9.684256e+00
0	 1.481481e+00	 2.888889e+00	 9.649781e+00
0	 1.481481e+00	 2.962963e+00	 9.619466e+00
0	 1.111111e+00	 2.962963e+00	 8.970712e+00
0	 1.111111e+00	 3.037037e+00	 8.975586e+00
0	 1.111111e+00	 3.111111e+00	 8.985456e+00
0	 1.111111e+00	 3.185185e+00	 8.999503e+00
0	 1.111111e+00	 3.259259e+00	 9.016904e+00
0	 1.111111e+00	 3.333333e+00	 9.036840e+00
0	 1.185185e+00	 2.962963e+00	 9.108018e+00
0	 1.185185e+00	 3.037037e+00	 9.104744e+00
0	 1.185185e+00	 3.111111e+00	 9.106404e+00
0	 1.185185e+00	 3.185185e+00	 9.112504e+00
0	 1.185185e+00	 3.259259e+00	 9.122551e+00
0	 1.185185e+00	 3.333333e+00	 9.136053e+00
0	 1.259259e+00	 2.962963e+00	 9.242461e+00
0	 1.259259e+00	 3.037037e+00	 9.232160e+00
0	 1.259259e+00	 3.111111e+00	 9.226539e+00
0	 1.259259e+00	 3.185185e+00	 9.225387e+00
0	 1.259259e+00	 3.259259e+00	 9.228492e+00
0	 1.259259e+00	 3.333333e+00	 9.235644e+00
0	 1.333333e+00	 2.962963e+00	 9.373126e+00
0	 1.333333e+00	 3.037037e+00	 9.356719e+00
0	 1.333333e+00	 3.111111e+00	 9.344630e+00
0	 1.333333e+00	 3.185185e+00	 9.336881e+00
0	 1.333333e+00	 3.259259e+00	 9.333498e+00
0	 1.333333e+00	 3.333333e+00	 9.334503e+00
0	 1.407407e+00	 2.962963e+00	 9.499099e+00
0	 1.407407e+00	 3.037037e+00	 9.477309e+00
0	 1.407407e+00	 3.111111e+00	 9.459444e+00
0	 1.407407e+00	 3.185185e+00	 9.445716e+00
0	 1.407407e+00	 3.259259e+00	 9.436338e+00
0	 1.407407e+00	 3.333333e+00	 9.431524e+00
0	 1.481481e+00	 2.962963e+00	 9.619466e+00
0	 1.481481e+00	 3.037037e+00	 9.592816e+00
0	 1.481481e+00	 3.111111e+00	 9.569748e+00
0	 1.481481e+00	 3.185185e+00	 9.550619e+00
0	 1.481481e+00	 3.259259e+00	 9.535783e+00
0	 1.481481e+00	 3.333333e+00	 9.525596e+00
0	 1.111111e+00	 3.333333e+00	 9.036840e+00
0	 1.111111e+00	 3.407407e+00	 9.057134e+00
0	 1.111111e+00	 3.481481e+00	 9.076591e+00
0	 1.111111e+00	 3.555556e+00	 9.095868e+00
0	 1.111111e+00	 3.629630e+00	 9.115618e+00
0	 1.111111e+00	 3.703704e+00	 9.136495e+00
0	 1.185185e+00	 3.333333e+00	 9.136053e+00
0	 1.185185e+00	 3.407407e+00	 9.150739e+00
0	 1.185185e+00	 3.481481e+00	 9.164999e+00
0	 1.185185e+00	 3.555556e+00	 9.179332e+00
0	 1.185185e+00	 3.629630e+00	 9.194237e+00
0	 1.185185e+00	 3.703704e+00	 9.210213e+00
0	 1.259259e+00	 3.333333e+00	 9.235644e+00
0	 1.259259e+00	 3.407407e+00	 9.244645e+00
0	 1.259259e+00	 3.481481e+00	 9.253681e+00
0	 1.259259e+00	 3.555556e+00	 9.263112e+00
0	 1.259259e+00	 3.629630e+00	 9.273295e+00
0	 1.259259e+00	 3.703704e+00	 9.284591e+00
0	 1.333333e+00	 3.333333e+00	 9.334503e+00
0	 1.333333e+00	 3.407407e+00	 9.337890e+00
0	 1.333333e+00	 3.481481e+00	 9.341793e+00
0	 1.333333e+00	 3.555556e+00	 9.346447e+00
0	 1.333333e+00	 3.629630e+00	 9.352088e+00
0	 1.333333e+00	 3.703704e+00	 9.358953e+00
0	 1.407407e+00	 3.333333e+00	 9.431524e+00
0	 1.407407e+00	 3.407407e+00	 9.429512e+00
0	 1.407407e+00	 3.481481e+00	 9.428487e+00
0	 1.407407e+00	 3.555556e+00	 9.428578e+00
0	 1.407407e+00	 3.629630e+00	 9.429913e+00
0	 1.407407e+00	 3.703704e+00	 9.432620e+00
0	 1.481481e+00	 3.333333e+00	 9.525596e+00
0	 1.481481e+00	 3.407407e+00	 9.518549e+00
0	 1.481481e+00	 3.481481e+00	 9.512919e+00
0	 1.481481e+00	 3.555556e+00	 9.508746e+00
0	 1.481481e+00	 3.629630e+00	 9.506066e+00
0	 1.481481e+00	 3.703704e+00	 9.504917e+00
0	 1.111111e+00	 3.703704e+00	 9.136495e+00
0	 1.111111e+00	 3.777778e+00	 9.158221e+00
0	 1.111111e+00	 3.851852e+00	 9.179948e+00
0	 1.111111e+00	 3.925926e+00	 9.201477e+00
0	 1.111111e+00	 4.000000e+00	 9.222608e+00
0	 1.111111e+00	 4.074074e+00	 9.243143e+00
0	 1.185185e+00	 3.703704e+00	 9.210213e+00
0	 1.185185e+00	 3.777778e+00	 9.227096e+00
0	 1.185185e+00	 3.851852e+00	 9.244312e+00
0	 1.185185e+00	 3.925926e+00	 9.261739e+00
0	 1.185185e+00	 4.000000e+00	 9.279258e+00
0	 1.185185e+00	 4.074074e+00	 9.296748e+00
0	 1.259259e+00	 3.703704e+00	 9.284591e+00
0	 1.259259e+00	 3.777778e+00	 9.296881e+00
0	 1.259259e+00	 3.851852e+00	 9.309772e+00
0	 1.259259e+00	 3.925926e+00	 9.323215e+00
0	 1.259259e+00	 4.000000e+00	 9.337158e+00
0	 1.259259e+00	 4.074074e+00	 9.351552e+00
0	 1.333333e+00	 3.703704e+00	 9.358953e+00
0	 1.333333e+00	 3.777778e+00	 9.366912e+00
0	 1.333333e+00	 3.851852e+00	 9.375689e+00
0	 1.333333e+00	 3.925926e+00	 9.385293e+00
0	 1.333333e+00	 4.000000e+00	 9.395735e+00
0	 1.333333e+00	 4.074074e+00	 9.407025e+00
0	 1.407407e+00	 3.703704e+00	 9.432620e+00
0	 1.407407e+00	 3.777778e+00	 9.436529e+00
0	 1.407407e+00	 3.851852e+00	 9.441422e+00
0	 1.407407e+00	 3.925926e+00	 9.447363e+00
0	 1.407407e+00	 4.000000e+00	 9.454415e+00
0	 1.407407e+00	 4.074074e+00	 9.462640e+00
0	 1.481481e+00	 3.703704e+00	 9.504917e+00
0	 1.481481e+00	 3.777778e+00	 9.505068e+00
0	 1.481481e+00	 3.851852e+00	 9.506332e+00
0	 1.481481e+00	 3.925926e+00	 9.508816e+00
0	 1.481481e+00	 4.000000e+00	 9.512626e+00
0	 1.481481e+00	 4.074074e+00	 9.517868e+00
0	 1.111111e+00	 4.074074e+00	 9.243143e+00
0	 1.111111e+00	 4.148148e+00	 9.263111e+00
0	 1.111111e+00	 4.222222e+00	 9.282788e+00
0	 1.111111e+00	 4.296296e+00	 9.302345e+00
0	 1.111111e+00	 4.370370e+00	 9.321955e+00
0	 1.111111e+00	 4.444444e+00	 9.341789e+00
0	 1.185185e+00	 4.074074e+00	 9.296748e+00
0	 1.185185e+00	 4.148148e+00	 9.314030e+00
0	 1.185185e+00	 4.222222e+00	 9.331102e+00
0	 1.185185e+00	 4.296296e+00	 9.348109e+00
0	 1.185185e+00	 4.370370e+00	 9.365194e+00
0	 1.185185e+00	 4.444444e+00	 9.382502e+00
0	 1.259259e+00	 4.074074e+00	 9.351552e+00
0	 1.259259e+00	 4.148148e+00	 9.366061e+00
0	 1.259259e+00	 4.222222e+00	 9.380466e+00
0	 1.259259e+00	 4.296296e+00	 9.394885e+00
0	 1.259259e+00	 4.370370e+00	 9.409438e+00
0	 1.259259e+00	 4.444444e+00	 9.424242e+00
0	 1.333333e+00	 4.074074e+00	 9.407025e+00
0	 1.333333e+00	 4.148148e+00	 9.418721e+00
0	 1.333333e+00	 4.222222e+00	 9.430438e+00
0	 1.333333e+00	 4.296296e+00	 9.442269e+00
0	 1.333333e+00	 4.370370e+00	 9.454310e+00
0	 1.333333e+00	 4.444444e+00	 9.466656e+00
0	 1.407407e+00	 4.074074e+00	 9.462640e+00
0	 1.407407e+00	 4.148148e+00	 9.471528e+00
0	 1.407407e+00	 4.222222e+00	 9.480574e+00
0	 1.407407e+00	 4.296296e+00	 9.489852e+00
0	 1.407407e+00	 4.370370e+00	 9.499434e+00
0	 1.407407e+00	 4.444444e+00	 9.509392e+00
0	 1.481481e+00	 4.074074e+00	 9.517868e+00
0	 1.481481e+00	 4.148148e+00	 9.523998e+00
0	 1.481481e+00	 4.222222e+00	 9.530434e+00
0	 1.481481e+00	 4.296296e+00	 9.537228e+00
0	 1.481481e+00	 4.370370e+00	 9.544433e+00
0	 1.481481e+00	 4.444444e+00	 9.552099e+00
0	 1.111111e+00	 4.444444e+00	 9.341789e+00
0	 1.111111e+00	 4.518519e+00	 9.361554e+00
0	 1.111111e+00	 4.592593e+00	 9.380816e+00
0	 1.111111e+00	 4.666667e+00	 9.399531e+00
0	 1.111111e+00	 4.740741e+00	 9.417656e+00
0	 1.111111e+00	 4.814815e+00	 9.435146e+00
0	 1.185185e+00	 4.444444e+00	 9.382502e+00
0	 1.185185e+00	 4.518519e+00	 9.399816e+00
0	 1.185185e+00	 4.592593e+00	 9.416805e+00
0	 1.185185e+00	 4.666667e+00	 9.433443e+00
0	 1.185185e+00	 4.740741e+00	 9.449702e+00
0	 1.185185e+00	 4.814815e+00	 9.465557e+00
0	 1.259259e+00	 4.444444e+00	 9.424242e+00
0	 1.259259e+00	 4.518519e+00	 9.439133e+00
0	 1.259259e+00	 4.592593e+00	 9.453863e+00
0	 1.259259e+00	 4.666667e+00	 9.468419e+00
0	 1.259259e+00	 4.740741e+00	 9.482792e+00
0	 1.259259e+00	 4.814815e+00	 9.496970e+00
0	 1.333333e+00	 4.444444e+00	 9.466656e+00
0	 1.333333e+00	 4.518519e+00	 9.479176e+00
0	 1.333333e+00	 4.592593e+00	 9.491679e+00
0	 1.333333e+00	 4.666667e+00	 9.504169e+00
0	 1.333333e+00	 4.740741e+00	 9.516651e+00
0	 1.333333e+00	 4.814815e+00	 9.529129e+00
0	 1.407407e+00	 4.444444e+00	 9.509392e+00
0	 1.407407e+00	 4.518519e+00	 9.519613e+00
0	 1.407407e+00	 4.592593e+00	 9.529944e+00
0	 1.407407e+00	 4.666667e+00	 9.540403e+00
0	 1.407407e+00	 4.740741e+00	 9.551009e+00
0	 1.407407e+00	 4.814815e+00	 9.561779e+00
0	 1.481481e+00	 4.444444e+00	 9.552099e+00
0	 1.481481e+00	 4.518519e+00	 9.560113e+00
0	 1.481481e+00	 4.592593e+00	 9.568347e+00
0	 1.481481e+00	 4.666667e+00	 9.576830e+00
0	 1.481481e+00	 4.740741e+00	 9.585592e+00
0	 1.481481e+00	 4.814815e+00	 9.594664e+00
0	 1.111111e+00	 4.814815e+00	 9.435146e+00
0	 1.111111e+00	 4.888889e+00	 9.452131e+00
0	 1.111111e+00	 4.962963e+00	 9.468801e+00
0	 1.111111e+00	 5.037037e+00	 9.485198e+00
0	 1.111111e+00	 5.111111e+00	 9.501369e+00
0	 1.111111e+00	 5.185185e+00	 9.517358e+00
0	 1.185185e+00	 4.814815e+00	 9.465557e+00
0	 1.185185e+00	 4.888889e+00	 9.481053e+00
0	 1.185185e+00	 4.962963e+00	 9.496279e+00
0	 1.185185e+00	 5.037037e+00	 9.511277e+00
0	 1.185185e+00	 5.111111e+00	 9.526089e+00
0	 1.185185e+00	 5.185185e+00	 9.540755e+00
0	 1.259259e+00	 4.814815e+00	 9.496970e+00
0	 1.259259e+00	 4.888889e+00	 9.510927e+00
0	 1.259259e+00	 4.962963e+00	 9.524669e+00
0	 1.259259e+00	 5.037037e+00	 9.538232e+00
0	 1.259259e+00	 5.111111e+00	 9.551654e+00
0	 1.259259e+00	 5.185185e+00	 9.564975e+00
0	 1.333333e+00	 4.814815e+00	 9.529129e+00
0	 1.333333e+00	 4.888889e+00	 9.541516e+00
0	 1.333333e+00	 4.962963e+00	 9.553746e+00
0	 1.333333e+00	 5.037037e+00	 9.565854e+00
0	 1.333333e+00	 5.111111e+00	 9.577874e+00
0	 1.333333e+00	 5.185185e+00	 9.589841e+00
0	 1.407407e+00	 4.814815e+00	 9.561779e+00
0	 1.407407e+00	 4.888889e+00	 9.572580e+00
0	 1.407407e+00	 4.962963e+00	 9.583289e+00
0	 1.407407e+00	 5.037037e+00	 9.593936e+00
0	 1.407407e+00	 5.111111e+00	 9.604554e+00
0	 1.407407e+00	 5.185185e+00	 9.615172e+00
0	 1.481481e+00	 4.814815e+00	 9.594664e+00
0	 1.481481e+00	 4.888889e+00	 9.603880e+00
0	 1.481481e+00	 4.962963e+00	 9.613073e+00
0	 1.481481e+00	 5.037037e+00	 9.622271e+00
0	 1.481481e+00	 5.111111e+00	 9.631500e+00
0	 1.481481e+00	 5.185185e+00	 9.640790e+00
0	 1.111111e+00	 5.185185e+00	 9.517358e+00
0	 1.111111e+00	 5.259259e+00	 9.533066e+00
0	 1.111111e+00	 5.333333e+00	 9.548361e+00
0	 1.111111e+00	 5.407407e+00	 9.563235e+00
0	 1.111111e+00	 5.481481e+00	 9.577677e+00
0	 1.111111e+00	 5.555556e+00	 9.591679e+00
0	 1.185185e+00	 5.185185e+00	 9.540755e+00
0	 1.185185e+00	 5.259259e+00	 9.555195e+00
0	 1.185185e+00	 5.333333e+00	 9.569299e+00
0	 1.185185e+00	 5.407407e+00	 9.583062e+00
0	 1.185185e+00	 5.481481e+00	 9.596480e+00
0	 1.185185e+00	 5.555556e+00	 9.609548e+00
0	 1.259259e+00	 5.185185e+00	 9.564975e+00
0	 1.259259e+00	 5.259259e+00	 9.578127e+00
0	 1.259259e+00	 5.333333e+00	 9.591018e+00
0	 1.259259e+00	 5.407407e+00	 9.603648e+00
0	 1.259259e+00	 5.481481e+00	 9.616015e+00
0	 1.259259e+00	 5.555556e+00	 9.628121e+00
0	 1.333333e+00	 5.185185e+00	 9.589841e+00
0	 1.333333e+00	 5.259259e+00	 9.601697e+00
0	 1.333333e+00	 5.333333e+00	 9.613365e+00
0	 1.333333e+00	 5.407407e+00	 9.624847e+00
0	 1.333333e+00	 5.481481e+00	 9.636148e+00
0	 1.333333e+00	 5.555556e+00	 9.647271e+00
0	 1.407407e+00	 5.185185e+00	 9.615172e+00
0	 1.407407e+00	 5.259259e+00	 9.625739e+00
0	 1.407407e+00	 5.333333e+00	 9.636184e+00
0	 1.407407e+00	 5.407407e+00	 9.646517e+00
0	 1.407407e+00	 5.481481e+00	 9.656743e+00
0	 1.407407e+00	 5.555556e+00	 9.666871e+00
0	 1.481481e+00	 5.185185e+00	 9.640790e+00
0	 1.481481e+00	 5.259259e+00	 9.650086e+00
0	 1.481481e+00	 5.333333e+00	 9.659323e+00
0	 1.481481e+00	 5.407407e+00	 9.668512e+00
0	 1.481481e+00	 5.481481e+00	 9.677665e+00
0	 1.481481e+00	 5.555556e+00	 9.686792e+00
0	 1.111111e+00	 5.555556e+00	 9.591679e+00
0	 1.111111e+00	 5.629630e+00	 9.605308e+00
0	 1.111111e+00	 5.703704e+00	 9.618646e+00
0	 1.111111e+00	 5.777778e+00	 9.631703e+00
0	 1.111111e+00	 5.851852e+00	 9.644493e+00
0	 1.111111e+00	 5.925926e+00	 9.657026e+00
0	 1.185185e+00	 5.555556e+00	 9.609548e+00
0	 1.185185e+00	 5.629630e+00	 9.622305e+00
0	 1.185185e+00	 5.703704e+00	 9.634804e+00
0	 1.185185e+00	 5.777778e+00	 9.647056e+00
0	 1.185185e+00	 5.851852e+00	 9.659072e+00
0	 1.185185e+00	 5.925926e+00	 9.670866e+00
0	 1.259259e+00	 5.555556e+00	 9.628121e+00
0	 1.259259e+00	 5.629630e+00	 9.639979e+00
0	 1.259259e+00	 5.703704e+00	 9.651611e+00
0	 1.259259e+00	 5.777778e+00	 9.663031e+00
0	 1.259259e+00	 5.851852e+00	 9.674249e+00
0	 1.259259e+00	 5.925926e+00	 9.685279e+00
0	 1.333333e+00	 5.555556e+00	 9.647271e+00
0	 1.333333e+00	 5.629630e+00	 9.658208e+00
0	 1.333333e+00	 5.703704e+00	 9.668954e+00
0	 1.333333e+00	 5.777778e+00	 9.679522e+00
0	 1.333333e+00	 5.851852e+00	 9.689924e+00
0	 1.333333e+00	 5.925926e+00	 9.700173e+00
0	 1.407407e+00	 5.555556e+00	 9.666871e+00
0	 1.407407e+00	 5.629630e+00	 9.676871e+00
0	 1.407407e+00	 5.703704e+00	 9.686717e+00
0	 1.407407e+00	 5.777778e+00	 9.696421e+00
0	 1.407407e+00	 5.851852e+00	 9.705996e+00
0	 1.407407e+00	 5.925926e+00	 9.715454e+00
0	 1.481481e+00	 5.555556e+00	 9.686792e+00
0	 1.481481e+00	 5.629630e+00	 9.695847e+00
0	 1.481481e+00	 5.703704e+00	 9.704787e+00
0	 1.481481e+00	 5.777778e+00	 9.713622e+00
0	 1.481481e+00	 5.851852e+00	 9.722366e+00
0	 1.481481e+00	 5.925926e+00	 9.731031e+00
0	 1.111111e+00	 5.925926e+00	 9.657026e+00
0	 1.111111e+00	 6.000000e+00	 9.669285e+00
0	 1.111111e+00	 6.074074e+00	 9.681242e+00
0	 1.111111e+00	 6.148148e+00	 9.692895e+00
0	 1.111111e+00	 6.222222e+00	 9.704245e+00
0	 1.111111e+00	 6.296296e+00	 9.715290e+00
0	 1.185185e+00	 5.925926e+00	 9.670866e+00
0	 1.185185e+00	 6.000000e+00	 9.682418e+00
0	 1.185185e+00	 6.074074e+00	 9.693703e+00
0	 1.185185e+00	 6.148148e+00	 9.704721e+00
0	 1.185185e+00	 6.222222e+00	 9.715472e+00
0	 1.185185e+00	 6.296296e+00	 9.725958e+00
0	 1.259259e+00	 5.925926e+00	 9.685279e+00
0	 1.259259e+00	 6.000000e+00	 9.696102e+00
0	 1.259259e+00	 6.074074e+00	 9.706693e+00
0	 1.259259e+00	 6.148148e+00	 9.717054e+00
0	 1.259259e+00	 6.222222e+00	 9.727186e+00
0	 1.259259e+00	 6.296296e+00	 9.737093e+00
0	 1.333333e+00	 5.925926e+00	 9.700173e+00
0	 1.333333e+00	 6.000000e+00	 9.710250e+00
0	 1.333333e+00	 6.074074e+00	 9.720131e+00
0	 1.333333e+00	 6.148148e+00	 9.729819e+00
0	 1.333333e+00	 6.222222e+00	 9.739317e+00
0	 1.333333e+00	 6.296296e+00	 9.748628e+00
0	 1.407407e+00	 5.925926e+00	 9.715454e+00
0	 1.407407e+00	 6.000000e+00	 9.724776e+00
0	 1.407407e+00	 6.074074e+00	 9.733937e+00
0	 1.407407e+00	 6.148148e+00	 9.742941e+00
0	 1.407407e+00	 6.222222e+00	 9.751793e+00
0	 1.407407e+00	 6.296296e+00	 9.760497e+00
0	 1.481481e+00	 5.925926e+00	 9.731031e+00
0	 1.481481e+00	 6.000000e+00	 9.739594e+00
0	 1.481481e+00	 6.074074e+00	 9.748031e+00
0	 1.481481e+00	 6.148148e+00	 9.756346e+00
0	 1.481481e+00	 6.222222e+00	 9.764545e+00
0	 1.481481e+00	 6.296296e+00	 9.772634e+00
0	 1.111111e+00	 6.296296e+00	 9.715290e+00
0	 1.111111e+00	 6.370370e+00	 9.726060e+00
0	 1.111111e+00	 6.444444e+00	 9.736589e+00
0	 1.111111e+00	 6.518519e+00	 9.746880e+00
0	 1.111111e+00	 6.592593e+00	 9.756939e+00
0	 1.111111e+00	 6.666667e+00	 9.766768e+00
0	 1.185185e+00	 6.296296e+00	 9.725958e+00
0	 1.185185e+00	 6.370370e+00	 9.736199e+00
0	 1.185185e+00	 6.444444e+00	 9.746219e+00
0	 1.185185e+00	 6.518519e+00	 9.756023e+00
0	 1.185185e+00	 6.592593e+00	 9.765616e+00
0	 1.185185e+00	 6.666667e+00	 9.775001e+00
0	 1.259259e+00	 6.296296e+00	 9.737093e+00
0	 1.259259e+00	 6.370370e+00	 9.746786e+00
0	 1.259259e+00	 6.444444e+00	 9.756279e+00
0	 1.259259e+00	 6.518519e+00	 9.765577e+00
0	 1.259259e+00	 6.592593e+00	 9.774684e+00
0	 1.259259e+00	 6.666667e+00	 9.783607e+00
0	 1.333333e+00	 6.296296e+00	 9.748628e+00
0	 1.333333e+00	 6.370370e+00	 9.757757e+00
0	 1.333333e+00	 6.444444e+00	 9.766707e+00
0	 1.333333e+00	 6.518519e+00	 9.775483e+00
0	 1.333333e+00	 6.592593e+00	 9.784092e+00
0	 1.333333e+00	 6.666667e+00	 9.792537e+00
0	 1.407407e+00	 6.296296e+00	 9.760497e+00
0	 1.407407e+00	 6.370370e+00	 9.769049e+00
0	 1.407407e+00	 6.444444e+00	 9.777444e+00
0	 1.407407e+00	 6.518519e+00	 9.785687e+00
0	 1.407407e+00	 6.592593e+00	 9.793785e+00
0	 1.407407e+00	 6.666667e+00	 9.801742e+00
0	 1.481481e+00	 6.296296e+00	 9.772634e+00
0	 1.481481e+00	 6.370370e+00	 9.780599e+00
0	 1.481481e+00	 6.444444e+00	 9.788430e+00
0	 1.481481e+00	 6.518519e+00	 9.796132e+00
0	 1.481481e+00	 6.592593e+00	 9.803710e+00
0	 1.481481e+00	 6.666667e+00	 9.811172e+00
0	 1.111111e+00	 6.666667e+00	 9.766768e+00
0	 1.111111e+00	 6.740741e+00	 9.776369e+00
0	 1.111111e+00	 6.814815e+00	 9.785742e+00
0	 1.111111e+00	 6.888889e+00	 9.794887e+00
0	 1.111111e+00	 6.962963e+00	 9.803807e+00
0	 1.111111e+00	 7.037037e+00	 9.812502e+00
0	 1.185185e+00	 6.666667e+00	 9.775001e+00
0	 1.185185e+00	 6.740741e+00	 9.784177e+00
0	 1.185185e+00	 6.814815e+00	 9.793142e+00
0	 1.185185e+00	 6.888889e+00	 9.801898e+00
0	 1.185185e+00	 6.962963e+00	 9.810447e+00
0	 1.185185e+00	 7.037037e+00	 9.818791e+00
0	 1.259259e+00	 6.666667e+00	 9.783607e+00
0	 1.259259e+00	 6.740741e+00	 9.792341e+00
0	 1.259259e+00	 6.814815e+00	 9.800882e+00
0	 1.259259e+00	 6.888889e+00	 9.809233e+00
0	 1.259259e+00	 6.962963e+00	 9.817396e+00
0	 1.259259e+00	 7.037037e+00	 9.825375e+00
0	 1.333333e+00	 6.666667e+00	 9.792537e+00
0	 1.333333e+00	 6.740741e+00	 9.800815e+00
0	 1.333333e+00	 6.814815e+00	 9.808918e+00
0	 1.333333e+00	 6.888889e+00	 9.816851e+00
0	 1.333333e+00	 6.962963e+00	 9.824616e+00
0	 1.333333e+00	 7.037037e+00	 9.832216e+00
0	 1.407407e+00	 6.666667e+00	 9.801742e+00
0	 1.407407e+00	 6.740741e+00	 9.809552e+00
0	 1.407407e+00	 6.814815e+00	 9.817208e+00
0	 1.407407e+00	 6.888889e+00	 9.824712e+00
0	 1.407407e+00	 6.962963e+00	 9.832068e+00
0	 1.407407e+00	 7.037037e+00	 9.839280e+00
0	 1.481481e+00	 6.666667e+00	 9.811172e+00
0	 1.481481e+00	 6.740741e+00	 9.818508e+00
0	 1.481481e+00	 6.814815e+00	 9.825708e+00
0	 1.481481e+00	 6.888889e+00	 9.832776e+00
0	 1.481481e+00	 6.962963e+00	 9.839716e+00
0	 1.481481e+00	 7.037037e+00	 9.846531e+00
0	 1.111111e+00	 7.037037e+00	 9.812502e+00
0	 1.111111e+00	 7.111111e+00	 9.820984e+00
0	 1.111111e+00	 7.185185e+00	 9.829266e+00
0	 1.111111e+00	 7.259259e+00	 9.837351e+00
0	 1.111111e+00	 7.333333e+00	 9.845241e+00
0	 1.111111e+00	 7.407407e+00	 9.852940e+00
0	 1.185185e+00	 7.037037e+00	 9.818791e+00
0	 1.185185e+00	 7.111111e+00	 9.826939e+00
0	 1.185185e+00	 7.185185e+00	 9.834898e+00
0	 1.185185e+00	 7.259259e+00	 9.842672e+00
0	 1.185185e+00	 7.333333e+00	 9.850265e+00
0	 1.185185e+00	 7.407407e+00	 9.857680e+00
0	 1.259259e+00	 7.037037e+00	 9.825375e+00
0	 1.259259e+00	 7.111111e+00	 9.833173e+00
0	 1.259259e+00	 7.185185e+00	 9.840795e+00
0	 1.259259e+00	 7.259259e+00	 9.848246e+00
0	 1.259259e+00	 7.333333e+00	 9.855529e+00
0	 1.259259e+00	 7.407407e+00	 9.862647e+00
0	 1.333333e+00	 7.037037e+00	 9.832216e+00
0	 1.333333e+00	 7.111111e+00	 9.839653e+00
0	 1.333333e+00	 7.185185e+00	 9.846927e+00
0	 1.333333e+00	 7.259259e+00	 9.854043e+00
0	 1.333333e+00	 7.333333e+00	 9.861005e+00
0	 1.333333e+00	 7.407407e+00	 9.867815e+00
0	 1.407407e+00	 7.037037e+00	 9.839280e+00
0	 1.407407e+00	 7.111111e+00	 9.846346e+00
0	 1.407407e+00	 7.185185e+00	 9.853262e+00
0	 1.407407e+00	 7.259259e+00	 9.860033e+00
0	 1.407407e+00	 7.333333e+00	 9.866663e+00
0	 1.407407e+00	 7.407407e+00	 9.873157e+00
0	 1.481481e+00	 7.037037e+00	 9.846531e+00
0	 1.481481e+00	 7.111111e+00	 9.853217e+00
0	 1.481481e+00	 7.185185e+00	 9.859767e+00
0	 1.481481e+00	 7.259259e+00	 9.866185e+00
0	 1.481481e+00	 7.333333e+00	 9.872477e+00
0	 1.481481e+00	 7.407407e+00	 9.878646e+00
0	 1.111111e+00	 7.407407e+00	 9.852940e+00
0	 1.111111e+00	 7.481481e+00	 9.860447e+00
0	 1.111111e+00	 7.555556e+00	 9.867763e+00
0	 1.111111e+00	 7.629630e+00	 9.874890e+00
0	 1.111111e+00	 7.703704e+00	 9.881833e+00
0	 1.111111e+00	 7.777778e+00	 9.888593e+00
0	 1.185185e+00	 7.407407e+00	 9.857680e+00
0	 1.185185e+00	 7.481481e+00	 9.864915e+00
0	 1.185185e+00	 7.555556e+00	 9.871968e+00
0	 1.185185e+00	 7.629630e+00	 9.878844e+00
0	 1.185185e+00	 7.703704e+00	 9.885545e+00
0	 1.185185e+00	 7.777778e+00	 9.892075e+00
0	 1.259259e+00	 7.407407e+00	 9.862647e+00
0	 1.259259e+00	 7.481481e+00	 9.869597e+00
0	 1.259259e+00	 7.555556e+00	 9.876377e+00
0	 1.259259e+00	 7.629630e+00	 9.882989e+00
0	 1.259259e+00	 7.703704e+00	 9.889438e+00
0	 1.259259e+00	 7.777778e+00	 9.895726e+00
0	 1.333333e+00	 7.407407e+00	 9.867815e+00
0	 1.333333e+00	 7.481481e+00	 9.874470e+00
0	 1.333333e+00	 7.555556e+00	 9.880965e+00
0	 1.333333e+00	 7.629630e+00	 9.887304e+00
0	 1.333333e+00	 7.703704e+00	 9.893490e+00
0	 1.333333e+00	 7.777778e+00	 9.899529e+00
0	 1.407407e+00	 7.407407e+00	 9.873157e+00
0	 1.407407e+00	 7.481481e+00	 9.879507e+00
0	 1.407407e+00	 7.555556e+00	 9.885709e+00
0	 1.407407e+00	 7.629630e+00	 9.891767e+00
0	 1.407407e+00	 7.703704e+00	 9.897683e+00
0	 1.407407e+00	 7.777778e+00	 9.903463e+00
0	 1.481481e+00	 7.407407e+00	 9.878646e+00
0	 1.481481e+00	 7.481481e+00	 9.884685e+00
0	 1.481481e+00	 7.555556e+00	 9.890587e+00
0	 1.481481e+00	 7.629630e+00	 9.896356e+00
0	 1.481481e+00	 7.703704e+00	 9.901995e+00
0	 1.481481e+00	 7.777778e+00	 9.907510e+00
0	 1.111111e+00	 7.777778e+00	 9.888593e+00
0	 1.111111e+00	 7.851852e+00	 9.895171e+00
0	 1.111111e+00	 7.925926e+00	 9.901563e+00
0	 1.111111e+00	 8.000000e+00	 9.907776e+00
0	 1.111111e+00	 8.074074e+00	 9.913813e+00
0	 1.111111e+00	 8.148148e+00	 9.919679e+00
0	 1.185185e+00	 7.777778e+00	 9.892075e+00
0	 1.185185e+00	 7.851852e+00	 9.898431e+00
0	 1.185185e+00	 7.925926e+00	 9.904610e+00
0	 1.185185e+00	 8.000000e+00	 9.910618e+00
0	 1.185185e+00	 8.074074e+00	 9.916458e+00
0	 1.185185e+00	 8.148148e+00	 9.922135e+00
0	 1.259259e+00	 7.777778e+00	 9.895726e+00
0	 1.259259e+00	 7.851852e+00	 9.901851e+00
0	 1.259259e+00	 7.925926e+00	 9.907807e+00
0	 1.259259e+00	 8.000000e+00	 9.913600e+00
0	 1.259259e+00	 8.074074e+00	 9.919234e+00
0	 1.259259e+00	 8.148148e+00	 9.924714e+00
0	 1.333333e+00	 7.777778e+00	 9.899529e+00
0	 1.333333e+00	 7.851852e+00	 9.905413e+00
0	 1.333333e+00	 7.925926e+00	 9.911138e+00
0	 1.333333e+00	 8.000000e+00	 9.916708e+00
0	 1.333333e+00	 8.074074e+00	 9.922127e+00
0	 1.333333e+00	 8.148148e+00	 9.927402e+00
0	 1.407407e+00	 7.777778e+00	 9.903463e+00
0	 1.407407e+00	 7.851852e+00	 9.909099e+00
0	 1.407407e+00	 7.925926e+00	 9.914584e+00
0	 1.407407e+00	 8.000000e+00	 9.919924e+00
0	 1.407407e+00	 8.074074e+00	 9.925122e+00
0	 1.407407e+00	 8.148148e+00	 9.930184e+00
0	 1.481481e+00	 7.777778e+00	 9.907510e+00
0	 1.481481e+00	 7.851852e+00	 9.912891e+00
0	 1.481481e+00	 7.925926e+00	 9.918130e+00
0	 1.481481e+00	 8.000000e+00	 9.923233e+00
0	 1.481481e+00	 8.074074e+00	 9.928204e+00
0	 1.481481e+00	 8.148148e+00	 9.933047e+00
0	 1.111111e+00	 8.148148e+00	 9.919679e+00
0	 1.111111e+00	 8.222222e+00	 9.925364e+00
0	 1.111111e+00	 8.296296e+00	 9.930860e+00
0	 1.111111e+00	 8.370370e+00	 9.936172e+00
0	 1.111111e+00	 8.444444e+00	 9.941307e+00
0	 1.111111e+00	 8.518519e+00	 9.946270e+00
0	 1.185185e+00	 8.148148e+00	 9.922135e+00
0	 1.185185e+00	 8.222222e+00	 9.927639e+00
0	 1.185185e+00	 8.296296e+00	 9.932961e+00
0	 1.185185e+00	 8.370370e+00	 9.938107e+00
0	 1.185185e+00	 8.444444e+00	 9.943082e+00
0	 1.185185e+00	 8.518519e+00	 9.947892e+00
0	 1.259259e+00	 8.148148e+00	 9.924714e+00
0	 1.259259e+00	 8.222222e+00	 9.930029e+00
0	 1.259259e+00	 8.296296e+00	 9.935169e+00
0	 1.259259e+00	 8.370370e+00	 9.940140e+00
0	 1.259259e+00	 8.444444e+00	 9.944947e+00
0	 1.259259e+00	 8.518519e+00	 9.949597e+00
0	 1.333333e+00	 8.148148e+00	 9.927402e+00
0	 1.333333e+00	 8.222222e+00	 9.932519e+00
0	 1.333333e+00	 8.296296e+00	 9.937470e+00
0	 1.333333e+00	 8.370370e+00	 9.942259e+00
0	 1.333333e+00	 8.444444e+00	 9.946892e+00
0	 1.333333e+00	 8.518519e+00	 9.951375e+00
0	 1.407407e+00	 8.148148e+00	 9.930184e+00
0	 1.407407e+00	 8.222222e+00	 9.935098e+00
0	 1.407407e+00	 8.296296e+00	 9.939852e+00
0	 1.407407e+00	 8.370370e+00	 9.944452e+00
0	 1.407407e+00	 8.444444e+00	 9.948905e+00
0	 1.407407e+00	 8.518519e+00	 9.953215e+00
0	 1.481481e+00	 8.148148e+00	 9.933047e+00
0	 1.481481e+00	 8.222222e+00	 9.937751e+00
0	 1.481481e+00	 8.296296e+00	 9.942303e+00
0	 1.481481e+00	 8.370370e+00	 9.946710e+00
0	 1.481481e+00	 8.444444e+00	 9.950976e+00
0	 1.481481e+00	 8.518519e+00	 9.955108e+00
0	 1.111111e+00	 8.518519e+00	 9.946270e+00
0	 1.111111e+00	 8.592593e+00	 9.951045e+00
0	 1.111111e+00	 8.666667e+00	 9.955617e+00
0	 1.111111e+00	 8.740741e+00	 9.959994e+00
0	 1.111111e+00	 8.814815e+00	 9.964183e+00
0	 1.111111e+00	 8.888889e+00	 9.968192e+00
0	 1.185185e+00	 8.518519e+00	 9.947892e+00
0	 1.185185e+00	 8.592593e+00	 9.952521e+00
0	 1.185185e+00	 8.666667e+00	 9.956953e+00
0	 1.185185e+00	 8.740741e+00	 9.961197e+00
0	 1.185185e+00	 8.814815e+00	 9.965259e+00
0	 1.185185e+00	 8.888889e+00	 9.969147e+00
0	 1.259259e+00	 8.518519e+00	 9.949597e+00
0	 1.259259e+00	 8.592593e+00	 9.954073e+00
0	 1.259259e+00	 8.666667e+00	 9.958359e+00
0	 1.259259e+00	 8.740741e+00	 9.962463e+00
0	 1.259259e+00	 8.814815e+00	 9.966391e+00
0	 1.259259e+00	 8.888889e+00	 9.970153e+00
0	 1.333333e+00	 8.518519e+00	 9.951375e+00
0	 1.333333e+00	 8.592593e+00	 9.955691e+00
0	 1.333333e+00	 8.666667e+00	 9.959824e+00
0	 1.333333e+00	 8.740741e+00	 9.963783e+00
0	 1.333333e+00	 8.814815e+00	 9.967573e+00
0	 1.333333e+00	 8.888889e+00	 9.971203e+00
0	 1.407407e+00	 8.518519e+00	 9.953215e+00
0	 1.407407e+00	 8.592593e+00	 9.957366e+00
0	 1.407407e+00	 8.666667e+00	 9.961342e+00
0	 1.407407e+00	 8.740741e+00	 9.965150e+00
0	 1.407407e+00	 8.814815e+00	 9.968796e+00
0	 1.407407e+00	 8.888889e+00	 9.972290e+00
0	 1.481481e+00	 8.518519e+00	 9.955108e+00
0	 1.481481e+00	 8.592593e+00	 9.959089e+00
0	 1.481481e+00	 8.666667e+00	 9.962902e+00
0	 1.481481e+00	 8.740741e+00	 9.966554e+00
0	 1.481481e+00	 8.814815e+00	 9.970053e+00
0	 1.481481e+00	 8.888889e+00	 9.973405e+00
0	 1.111111e+00	 8.888889e+00	 9.968192e+00
0	 1.111111e+00	 8.962963e+00	 9.971995e+00
0	 1.111111e+00	 9.037037e+00	 9.975570e+00
0	 1.111111e+00	 9.111111e+00	 9.978926e+00
0	 1.111111e+00	 9.185185e+00	 9.982073e+00
0	 1.111111e+00	 9.259259e+00	 9.985022e+00
0	 1.185185e+00	 8.888889e+00	 9.969147e+00
0	 1.185185e+00	 8.962963e+00	 9.972836e+00
0	 1.185185e+00	 9.037037e+00	 9.976304e+00
0	 1.185185e+00	 9.111111e+00	 9.979559e+00
0	 1.185185e+00	 9.185185e+00	 9.982612e+00
0	 1.185185e+00	 9.259259e+00	 9.985472e+00
0	 1.259259e+00	 8.888889e+00	 9.970153e+00
0	 1.259259e+00	 8.962963e+00	 9.973723e+00
0	 1.259259e+00	 9.037037e+00	 9.977078e+00
0	 1.259259e+00	 9.111111e+00	 9.980228e+00
0	 1.259259e+00	 9.185185e+00	 9.983181e+00
0	 1.259259e+00	 9.259259e+00	 9.985949e+00
0	 1.333333e+00	 8.888889e+00	 9.971203e+00
0	 1.333333e+00	 8.962963e+00	 9.974648e+00
0	 1.333333e+00	 9.037037e+00	 9.977886e+00
0	 1.333333e+00	 9.111111e+00	 9.980926e+00
0	 1.333333e+00	 9.185185e+00	 9.983777e+00
0	 1.333333e+00	 9.259259e+00	 9.986448e+00
0	 1.407407e+00	 8.888889e+00	 9.972290e+00
0	 1.407407e+00	 8.962963e+00	 9.975605e+00
0	 1.407407e+00	 9.037037e+00	 9.978722e+00
0	 1.407407e+00	 9.111111e+00	 9.981647e+00
0	 1.407407e+00	 9.185185e+00	 9.984391e+00
0	 1.407407e+00	 9.259259e+00	 9.986963e+00
0	 1.481481e+00	 8.888889e+00	 9.973405e+00
0	 1.481481e+00	 8.962963e+00	 9.976588e+00
0	 1.481481e+00	 9.037037e+00	 9.979578e+00
0	 1.481481e+00	 9.111111e+00	 9.982386e+00
0	 1.481481e+00	 9.185185e+00	 9.985020e+00
0	 1.481481e+00	 9.259259e+00	 9.987488e+00
0	 1.111111e+00	 9.259259e+00	 9.985022e+00
0	 1.111111e+00	 9.333333e+00	 9.987735e+00
0	 1.111111e+00	 9.407407e+00	 9.990176e+00
0	 1.111111e+00	 9.481481e+00	 9.992359e+00
0	 1.111111e+00	 9.555556e+00	 9.994296e+00
0	 1.111111e+00	 9.629630e+00	 9.996002e+00
0	 1.185185e+00	 9.259259e+00	 9.985472e+00
0	 1.185185e+00	 9.333333e+00	 9.988103e+00
0	 1.185185e+00	 9.407407e+00	 9.990471e+00
0	 1.185185e+00	 9.481481e+00	 9.992588e+00
0	 1.185185e+00	 9.555556e+00	 9.994467e+00
0	 1.185185e+00	 9.629630e+00	 9.996121e+00
0	 1.259259e+00	 9.259259e+00	 9.985949e+00
0	 1.259259e+00	 9.333333e+00	 9.988495e+00
0	 1.259259e+00	 9.407407e+00	 9.990786e+00
0	 1.259259e+00	 9.481481e+00	 9.992834e+00
0	 1.259259e+00	 9.555556e+00	 9.994652e+00
0	 1.259259e+00	 9.629630e+00	 9.996252e+00
0	 1.333333e+00	 9.259259e+00	 9.986448e+00
0	 1.333333e+00	 9.333333e+00	 9.988905e+00
0	 1.333333e+00	 9.407407e+00	 9.991116e+00
0	 1.333333e+00	 9.481481e+00	 9.993093e+00
0	 1.333333e+00	 9.555556e+00	 9.994847e+00
0	 1.333333e+00	 9.629630e+00	 9.996390e+00
0	 1.407407e+00	 9.259259e+00	 9.986963e+00
0	 1.407407e+00	 9.333333e+00	 9.989328e+00
0	 1.407407e+00	 9.407407e+00	 9.991456e+00
0	 1.407407e+00	 9.481481e+00	 9.993358e+00
0	 1.407407e+00	 9.555556e+00	 9.995046e+00
0	 1.407407e+00	 9.629630e+00	 9.996531e+00
0	 1.481481e+00	 9.259259e+00	 9.987488e+00
0	 1.481481e+00	 9.333333e+00	 9.989758e+00
0	 1.481481e+00	 9.407407e+00	 9.991800e+00
0	 1.481481e+00	 9.481481e+00	 9.993625e+00
0	 1.481481e+00	 9.555556e+00	 9.995244e+00
0	 1.481481e+00	 9.629630e+00	 9.996668e+00
0	 1.111111e+00	 9.629630e+00	 9.996002e+00
0	 1.111111e+00	 9.703704e+00	 9.997428e+00
0	 1.111111e+00	 9.777778e+00	 9.998528e+00
0	 1.111111e+00	 9.851852e+00	 9.999318e+00
0	 1.111111e+00	 9.925926e+00	 9.999816e+00
0	 1.111111e+00	 1.000000e+01	 1.000004e+01
0	 1.185185e+00	 9.629630e+00	 9.996121e+00
0	 1.185185e+00	 9.703704e+00	 9.997503e+00
0	 1.185185e+00	 9.777778e+00	 9.998569e+00
0	 1.185185e+00	 9.851852e+00	 9.999335e+00
0	 1.185185e+00	 9.925926e+00	 9.999817e+00
0	 1.185185e+00	 1.000000e+01	 1.000003e+01
0	 1.259259e+00	 9.629630e+00	 9.996252e+00
0	 1.259259e+00	 9.703704e+00	 9.997588e+00
0	 1.259259e+00	 9.777778e+00	 9.998619e+00
0	 1.259259e+00	 9.851852e+00	 9.999360e+00
0	 1.259259e+00	 9.925926e+00	 9.999827e+00
0	 1.259259e+00	 1.000000e+01	 1.000003e+01
0	 1.333333e+00	 9.629630e+00	 9.996390e+00
0	 1.333333e+00	 9.703704e+00	 9.997680e+00
0	 1.333333e+00	 9.777778e+00	 9.998674e+00
0	 1.333333e+00	 9.851852e+00	 9.999389e+00
0	 1.333333e+00	 9.925926e+00	 9.999839e+00
0	 1.333333e+00	 1.000000e+01	 1.000004e+01
0	 1.407407e+00	 9.629630e+00	 9.996531e+00
0	 1.407407e+00	 9.703704e+00	 9.997771e+00
0	 1.407407e+00	 9.777778e+00	 9.998728e+00
0	 1.407407e+00	 9.851852e+00	 9.999415e+00
0	 1.407407e+00	 9.925926e+00	 9.999848e+00
0	 1.407407e+00	 1.000000e+01	 1.000004e+01
0	 1.481481e+00	 9.629630e+00	 9.996668e+00
0	 1.481481e+00	 9.703704e+00	 9.997857e+00
0	 1.481481e+00	 9.777778e+00	 9.998775e+00
0	 1.481481e+00	 9.851852e+00	 9.999434e+00
0	 1.481481e+00	 9.925926e+00	 9.999848e+00
0	 1.481481e+00	 1.000000e+01	 1.000003e+01
0	 1.481481e+00	 0.000000e+00	 1.595430e+00
0	 1.481481e+00	 7.407407e-02	 7.048968e-01
0	 1.481481e+00	 1.481481e-01	 3.549926e-01
0	 1.481481e+00	 2.222222e-01	 5.551784e-01
0	 1.481481e+00	 2.962963e-01	 1.314915e+00
0	 1.481481e+00	 3.703704e-01	 2.643662e+00
0	 1.555556e+00	 0.000000e+00	 1.014961e+00
0	 1.555556e+00	 7.407407e-02	 8.591606e-01
0	 1.555556e+00	 1.481481e-01	 1.339221e+00
0	 1.555556e+00	 2.222222e-01	 2.367515e+00
0	 1.555556e+00	 2.962963e-01	 3.856416e+00
0	 1.555556e+00	 3.703704e-01	 5.718298e+00
0	 1.629630e+00	 0.000000e+00	 1.035243e+00
0	 1.629630e+00	 7.407407e-02	 1.449386e+00
0	 1.629630e+00	 1.481481e-01	 2.500335e+00
0	 1.629630e+00	 2.222222e-01	 4.038659e+00
0	 1.629630e+00	 2.962963e-01	 5.914929e+00
0	 1.629630e+00	 3.703704e-01	 7.979712e+00
0	 1.703704e+00	 0.000000e+00	 1.790508e+00
0	 1.703704e+00	 7.407407e-02	 2.571868e+00
0	 1.703704e+00	 1.481481e-01	 3.917003e+00
0	 1.703704e+00	 2.222222e-01	 5.649961e+00
0	 1.703704e+00	 2.962963e-01	 7.594790e+00
0	 1.703704e+00	 3.703704e-01	 9.575540e+00
0	 1.777778e+00	 0.000000e+00	 3.414986e+00
0	 1.777778e+00	 7.407407e-02	 4.322903e+00
0	 1.777778e+00	 1.481481e-01	 5.667893e+00
0	 1.777778e+00	 2.222222e-01	 7.282768e+00
0	 1.777778e+00	 2.962963e-01	 9.000339e+00
0	 1.777778e+00	 3.703704e-01	 1.065342e+01
0	 1.851852e+00	 0.000000e+00	 6.042911e+00
0	 1.851852e+00	 7.407407e-02	 6.798787e+00
0	 1.851852e+00	 1.481481e-01	 7.831673e+00
0	 1.851852e+00	 2.222222e-01	 9.018429e+00
0	 1.851852e+00	 2.962963e-01	 1.023591e+01
0	 1.851852e+00	 3.703704e-01	 1.136099e+01
0	 1.481481e+00	 3.703704e-01	 2.643662e+00
0	 1.481481e+00	 4.444444e-01	 4.325734e+00
0	 1.481481e+00	 5.185185e-01	 6.136657e+00
0	 1.481481e+00	 5.925926e-01	 8.072712e+00
0	 1.481481e+00	 6.666667e-01	 1.013018e+01
0	 1.481481e+00	 7.407407e-01	 1.230534e+01
0	 1.555556e+00	 3.703704e-01	 5.718298e+00
0	 1.555556e+00	 4.444444e-01	 7.589603e+00
0	 1.555556e+00	 5.185185e-01	 9.195260e+00
0	 1.555556e+00	 5.925926e-01	 1.058037e+01
0	 1.555556e+00	 6.666667e-01	 1.179003e+01
0	 1.555556e+00	 7.407407e-01	 1.286934e+01
0	 1.629630e+00	 3.703704e-01	 7.979712e+00
0	 1.629630e+00	 4.444444e-01	 9.826423e+00
0	 1.629630e+00	 5.185185e-01	 1.119914e+01
0	 1.629630e+00	 5.925926e-01	 1.217442e+01
0	 1.629630e+00	 6.666667e-01	 1.282883e+01
0	 1.629630e+00	 7.407407e-01	 1.323892e+01
0	 1.703704e+00	 3.703704e-01	 9.575540e+00
0	 1.703704e+00	 4.444444e-01	 1.122016e+01
0	 1.703704e+00	 5.185185e-01	 1.233434e+01
0	 1.703704e+00	 5.925926e-01	 1.300874e+01
0	 1.703704e+00	 6.666667e-01	 1.333404e+01
0	 1.703704e+00	 7.407407e-01	 1.340089e+01
0	 1.777778e+00	 3.703704e-01	 1.065342e+01
0	 1.777778e+00	 4.444444e-01	 1.195478e+01
0	 1.777778e+00	 5.185185e-01	 1.278691e+01
0	 1.777778e+00	 5.925926e-01	 1.323722e+01
0	 1.777778e+00	 6.666667e-01	 1.339314e+01
0	 1.777778e+00	 7.407407e-01	 1.334206e+01
0	 1.851852e+00	 3.703704e-01	 1.136099e+01
0	 1.851852e+00	 4.444444e-01	 1.221424e+01
0	 1.851852e+00	 5.185185e-01	 1.274289e+01
0	 1.851852e+00	 5.925926e-01	 1.301374e+01
0	 1.851852e+00	 6.666667e-01	 1.309358e+01
0	 1.851852e+00	 7.407407e-01	 1.304922e+01
0	 1.481481e+00	 7.407407e-01	 1.230534e+01
0	 1.481481e+00	 8.148148e-01	 1.424177e+01
0	 1.481481e+00	 8.888889e-01	 1.555748e+01
0	 1.481481e+00	 9.629630e-01	 1.621045e+01
0	 1.481481e+00	 1.037037e+00	 1.615864e+01
0	 1.481481e+00	 1.111111e+00	 1.536003e+01
0	 1.555556e+00	 7.407407e-01	 1.286934e+01
0	 1.555556e+00	 8.148148e-01	 1.375409e+01
0	 1.555556e+00	 8.888889e-01	 1.433321e+01
0	 1.555556e+00	 9.629630e-01	 1.458151e+01
0	 1.555556e+00	 1.037037e+00	 1.447380e+01
0	 1.555556e+00	 1.111111e+00	 1.398490e+01
0	 1.629630e+00	 7.407407e-01	 1.323892e+01
0	 1.629630e+00	 8.148148e-01	 1.349639e+01
0	 1.629630e+00	 8.888889e-01	 1.363370e+01
0	 1.629630e+00	 9.629630e-01	 1.363861e+01
0	 1.629630e+00	 1.037037e+00	 1.349887e+01
0	 1.629630e+00	 1.111111e+00	 1.320224e+01
0	 1.703704e+00	 7.407407e-01	 1.340089e+01
0	 1.703704e+00	 8.148148e-01	 1.335458e+01
0	 1.703704e+00	 8.888889e-01	 1.327780e+01
0	 1.703704e+00	 9.629630e-01	 1.316735e+01
0	 1.703704e+00	 1.037037e+00	 1.302000e+01
0	 1.703704e+00	 1.111111e+00	 1.283256e+01
0	 1.777778e+00	 7.407407e-01	 1.334206e+01
0	 1.777778e+00	 8.148148e-01	 1.321459e+01
0	 1.777778e+00	 8.888889e-01	 1.308437e+01
0	 1.777778e+00	 9.629630e-01	 1.295331e+01
0	 1.777778e+00	 1.037037e+00	 1.282333e+01
0	 1.777778e+00	 1.111111e+00	 1.269636e+01
0	 1.851852e+00	 7.407407e-01	 1.304922e+01
0	 1.851852e+00	 8.148148e-01	 1.296236e+01
0	 1.851852e+00	 8.888889e-01	 1.287227e+01
0	 1.851852e+00	 9.629630e-01	 1.278210e+01
0	 1.851852e+00	 1.037037e+00	 1.269501e+01
0	 1.851852e+00	 1.111111e+00	 1.261413e+01
0	 1.481481e+00	 1.111111e+00	 1.536003e+01
0	 1.481481e+00	 1.185185e+00	 1.424708e+01
0	 1.481481e+00	 1.259259e+00	 1.329798e+01
0	 1.481481e+00	 1.333333e+00	 1.253926e+01
0	 1.481481e+00	 1.407407e+00	 1.199744e+01
0	 1.481481e+00	 1.481481e+00	 1.169905e+01
0	 1.555556e+00	 1.111111e+00	 1.398490e+01
0	 1.555556e+00	 1.185185e+00	 1.333506e+01
0	 1.555556e+00	 1.259259e+00	 1.277293e+01
0	 1.555556e+00	 1.333333e+00	 1.231589e+01
0	 1.555556e+00	 1.407407e+00	 1.198133e+01
0	 1.555556e+00	 1.481481e+00	 1.178661e+01
0	 1.629630e+00	 1.111111e+00	 1.320224e+01
0	 1.629630e+00	 1.185185e+00	 1.283917e+01
0	 1.629630e+00	 1.259259e+00	 1.251507e+01
0	 1.629630e+00	 1.333333e+00	 1.224012e+01
0	 1.629630e+00	 1.407407e+00	 1.202448e+01
0	 1.629630e+00	 1.481481e+00	 1.187834e+01
0	 1.703704e+00	 1.111111e+00	 1.283256e+01
0	 1.703704e+00	 1.185185e+00	 1.262761e+01
0	 1.703704e+00	 1.259259e+00	 1.243314e+01
0	 1.703704e+00	 1.333333e+00	 1.225406e+01
0	 1.703704e+00	 1.407407e+00	 1.209529e+01
0	 1.703704e+00	 1.481481e+00	 1.196174e+01
0	 1.777778e+00	 1.111111e+00	 1.269636e+01
0	 1.777778e+00	 1.185185e+00	 1.256856e+01
0	 1.777778e+00	 1.259259e+00	 1.243586e+01
0	 1.777778e+00	 1.333333e+00	 1.229986e+01
0	 1.777778e+00	 1.407407e+00	 1.216216e+01
0	 1.777778e+00	 1.481481e+00	 1.202433e+01
0	 1.851852e+00	 1.111111e+00	 1.261413e+01
0	 1.851852e+00	 1.185185e+00	 1.253020e+01
0	 1.851852e+00	 1.259259e+00	 1.243198e+01
0	 1.851852e+00	 1.333333e+00	 1.231966e+01
0	 1.851852e+00	 1.407407e+00	 1.219347e+01
0	 1.851852e+00	 1.481481e+00	 1.205361e+01
0	 1.481481e+00	 1.481481e+00	 1.169905e+01
0	 1.481481e+00	 1.555556e+00	 1.152782e+01
0	 1.481481e+00	 1.629630e+00	 1.135244e+01
0	 1.481481e+00	 1.703704e+00	 1.117685e+01
0	 1.481481e+00	 1.777778e+00	 1.100502e+01
0	 1.481481e+00	 1.851852e+00	 1.084092e+01
0	 1.555556e+00	 1.481481e+00	 1.178661e+01
0	 1.555556e+00	 1.555556e+00	 1.165971e+01
0	 1.555556e+00	 1.629630e+00	 1.151835e+01
0	 1.555556e+00	 1.703704e+00	 1.136455e+01
0	 1.555556e+00	 1.777778e+00	 1.120037e+01
0	 1.555556e+00	 1.851852e+00	 1.102784e+01
0	 1.629630e+00	 1.481481e+00	 1.187834e+01
0	 1.629630e+00	 1.555556e+00	 1.176304e+01
0	 1.629630e+00	 1.629630e+00	 1.163348e+01
0	 1.629630e+00	 1.703704e+00	 1.149016e+01
0	 1.629630e+00	 1.777778e+00	 1.133356e+01
0	 1.629630e+00	 1.851852e+00	 1.116418e+01
0	 1.703704e+00	 1.481481e+00	 1.196174e+01
0	 1.703704e+00	 1.555556e+00	 1.183874e+01
0	 1.703704e+00	 1.629630e+00	 1.170791e+01
0	 1.703704e+00	 1.703704e+00	 1.156859e+01
0	 1.703704e+00	 1.777778e+00	 1.142010e+01
0	 1.703704e+00	 1.851852e+00	 1.126180e+01
0	 1.777778e+00	 1.481481e+00	 1.202433e+01
0	 1.777778e+00	 1.555556e+00	 1.188773e+01
0	 1.777778e+00	 1.629630e+00	 1.175170e+01
0	 1.777778e+00	 1.703704e+00	 1.161478e+01
0	 1.777778e+00	 1.777778e+00	 1.147556e+01
0	 1.777778e+00	 1.851852e+00	 1.133257e+01
0	 1.851852e+00	 1.481481e+00	 1.205361e+01
0	 1.851852e+00	 1.555556e+00	 1.191093e+01
0	 1.851852e+00	 1.629630e+00	 1.177490e+01
0	 1.851852e+00	 1.703704e+00	 1.164368e+01
0	 1.851852e+00	 1.777778e+00	 1.151545e+01
0	 1.851852e+00	 1.851852e+00	 1.138837e+01
0	 1.481481e+00	 1.851852e+00	 1.084092e+01
0	 1.481481e+00	 1.925926e+00	 1.069026e+01
0	 1.481481e+00	 2.000000e+00	 1.055444e+01
0	 1.481481e+00	 2.074074e+00	 1.043092e+01
0	 1.481481e+00	 2.148148e+00	 1.031716e+01
0	 1.481481e+00	 2.222222e+00	 1.021065e+01
0	 1.555556e+00	 1.851852e+00	 1.102784e+01
0	 1.555556e+00	 1.925926e+00	 1.086244e+01
0	 1.555556e+00	 2.000000e+00	 1.071642e+01
0	 1.555556e+00	 2.074074e+00	 1.058705e+01
0	 1.555556e+00	 2.148148e+00	 1.047154e+01
0	 1.555556e+00	 2.222222e+00	 1.036714e+01
0	 1.629630e+00	 1.851852e+00	 1.116418e+01
0	 1.629630e+00	 1.925926e+00	 1.099928e+01
0	 1.629630e+00	 2.000000e+00	 1.085394e+01
0	 1.629630e+00	 2.074074e+00	 1.072541e+01
0	 1.629630e+00	 2.148148e+00	 1.061092e+01
0	 1.629630e+00	 2.222222e+00	 1.050771e+01
0	 1.703704e+00	 1.851852e+00	 1.126180e+01
0	 1.703704e+00	 1.925926e+00	 1.110756e+01
0	 1.703704e+00	 2.000000e+00	 1.097002e+01
0	 1.703704e+00	 2.074074e+00	 1.084667e+01
0	 1.703704e+00	 2.148148e+00	 1.073499e+01
0	 1.703704e+00	 2.222222e+00	 1.063245e+01
0	 1.777778e+00	 1.851852e+00	 1.133257e+01
0	 1.777778e+00	 1.925926e+00	 1.119402e+01
0	 1.777778e+00	 2.000000e+00	 1.106768e+01
0	 1.777778e+00	 2.074074e+00	 1.095151e+01
0	 1.777778e+00	 2.148148e+00	 1.084345e+01
0	 1.777778e+00	 2.222222e+00	 1.074145e+01
0	 1.851852e+00	 1.851852e+00	 1.138837e+01
0	 1.851852e+00	 1.925926e+00	 1.126543e+01
0	 1.851852e+00	 2.000000e+00	 1.114995e+01
0	 1.851852e+00	 2.074074e+00	 1.104057e+01
0	 1.851852e+00	 2.148148e+00	 1.093597e+01
0	 1.851852e+00	 2.222222e+00	 1.083479e+01
0	 1.481481e+00	 2.222222e+00	 1.021065e+01
0	 1.481481e+00	 2.296296e+00	 1.011132e+01
0	 1.481481e+00	 2.370370e+00	 1.002132e+01
0	 1.481481e+00	 2.444444e+00	 9.941456e+00
0	 1.481481e+00	 2.518519e+00	 9.872513e+00
0	 1.481481e+00	 2.592593e+00	 9.815285e+00
0	 1.555556e+00	 2.222222e+00	 1.036714e+01
0	 1.555556e+00	 2.296296e+00	 1.027033e+01
0	 1.555556e+00	 2.370370e+00	 1.018012e+01
0	 1.555556e+00	 2.444444e+00	 1.009749e+01
0	 1.555556e+00	 2.518519e+00	 1.002341e+01
0	 1.555556e+00	 2.592593e+00	 9.958876e+00
0	 1.629630e+00	 2.222222e+00	 1.050771e+01
0	 1.629630e+00	 2.296296e+00	 1.041151e+01
0	 1.629630e+00	 2.370370e+00	 1.032054e+01
0	 1.629630e+00	 2.444444e+00	 1.023582e+01
0	 1.629630e+00	 2.518519e+00	 1.015835e+01
0	 1.629630e+00	 2.592593e+00	 1.008914e+01
0	 1.703704e+00	 2.222222e+00	 1.063245e+01
0	 1.703704e+00	 2.296296e+00	 1.053582e+01
0	 1.703704e+00	 2.370370e+00	 1.044412e+01
0	 1.703704e+00	 2.444444e+00	 1.035821e+01
0	 1.703704e+00	 2.518519e+00	 1.027895e+01
0	 1.703704e+00	 2.592593e+00	 1.020719e+01
0	 1.777778e+00	 2.222222e+00	 1.074145e+01
0	 1.777778e+00	 2.296296e+00	 1.064428e+01
0	 1.777778e+00	 2.370370e+00	 1.055242e+01
0	 1.777778e+00	 2.444444e+00	 1.046642e+01
0	 1.777778e+00	 2.518519e+00	 1.038682e+01
0	 1.777778e+00	 2.592593e+00	 1.031416e+01
0	 1.851852e+00	 2.222222e+00	 1.083479e+01
0	 1.851852e+00	 2.296296e+00	 1.073787e+01
0	 1.851852e+00	 2.370370e+00	 1.064700e+01
0	 1.851852e+00	 2.444444e+00	 1.056221e+01
0	 1.851852e+00	 2.518519e+00	 1.048359e+01
0	 1.851852e+00	 2.592593e+00	 1.041117e+01
0	 1.481481e+00	 2.592593e+00	 9.815285e+00
0	 1.481481e+00	 2.666667e+00	 9.766743e+00
0	 1.481481e+00	 2.740741e+00	 9.723155e+00
0	 1.481481e+00	 2.814815e+00	 9.684256e+00
0	 1.481481e+00	 2.888889e+00	 9.649781e+00
0	 1.481481e+00	 2.962963e+00	 9.619466e+00
0	 1.555556e+00	 2.592593e+00	 9.958876e+00
0	 1.555556e+00	 2.666667e+00	 9.902657e+00
0	 1.555556e+00	 2.740741e+00	 9.852537e+00
0	 1.555556e+00	 2.814815e+00	 9.808021e+00
0	 1.555556e+00	 2.888889e+00	 9.768614e+00
0	 1.555556e+00	 2.962963e+00	 9.733822e+00
0	 1.629630e+00	 2.592593e+00	 1.008914e+01
0	 1.629630e+00	 2.666667e+00	 1.002787e+01
0	 1.629630e+00	 2.740741e+00	 9.973147e+00
0	 1.629630e+00	 2.814815e+00	 9.924353e+00
0	 1.629630e+00	 2.888889e+00	 9.880876e+00
0	 1.629630e+00	 2.962963e+00	 9.842102e+00
0	 1.703704e+00	 2.592593e+00	 1.020719e+01
0	 1.703704e+00	 2.666667e+00	 1.014291e+01
0	 1.703704e+00	 2.740741e+00	 1.008506e+01
0	 1.703704e+00	 2.814815e+00	 1.003302e+01
0	 1.703704e+00	 2.888889e+00	 9.986177e+00
0	 1.703704e+00	 2.962963e+00	 9.943904e+00
0	 1.777778e+00	 2.592593e+00	 1.031416e+01
0	 1.777778e+00	 2.666667e+00	 1.024830e+01
0	 1.777778e+00	 2.740741e+00	 1.018834e+01
0	 1.777778e+00	 2.814815e+00	 1.013379e+01
0	 1.777778e+00	 2.888889e+00	 1.008413e+01
0	 1.777778e+00	 2.962963e+00	 1.003882e+01
0	 1.851852e+00	 2.592593e+00	 1.041117e+01
0	 1.851852e+00	 2.666667e+00	 1.034456e+01
0	 1.851852e+00	 2.740741e+00	 1.028308e+01
0	 1.851852e+00	 2.814815e+00	 1.022644e+01
0	 1.851852e+00	 2.888889e+00	 1.017433e+01
0	 1.851852e+00	 2.962963e+00	 1.012646e+01
0	 1.481481e+00	 2.962963e+00	 9.619466e+00
0	 1.481481e+00	 3.037037e+00	 9.592816e+00
0	 1.481481e+00	 3.111111e+00	 9.569748e+00
0	 1.481481e+00	 3.185185e+00	 9.550619e+00
0	 1.481481e+00	 3.259259e+00	 9.535783e+00
0	 1.481481e+00	 3.333333e+00	 9.525596e+00
0	 1.555556e+00	 2.962963e+00	 9.733822e+00
0	 1.555556e+00	 3.037037e+00	 9.702706e+00
0	 1.555556e+00	 3.111111e+00	 9.674952e+00
0	 1.555556e+00	 3.185185e+00	 9.651005e+00
0	 1.555556e+00	 3.259259e+00	 9.631308e+00
0	 1.555556e+00	 3.333333e+00	 9.616306e+00
0	 1.629630e+00	 2.962963e+00	 9.842102e+00
0	 1.629630e+00	 3.037037e+00	 9.806953e+00
0	 1.629630e+00	 3.111111e+00	 9.775074e+00
0	 1.629630e+00	 3.185185e+00	 9.746935e+00
0	 1.629630e+00	 3.259259e+00	 9.723009e+00
0	 1.629630e+00	 3.333333e+00	 9.703765e+00
0	 1.703704e+00	 2.962963e+00	 9.943904e+00
0	 1.703704e+00	 3.037037e+00	 9.905206e+00
0	 1.703704e+00	 3.111111e+00	 9.869795e+00
0	 1.703704e+00	 3.185185e+00	 9.838109e+00
0	 1.703704e+00	 3.259259e+00	 9.810584e+00
0	 1.703704e+00	 3.333333e+00	 9.787657e+00
0	 1.777778e+00	 2.962963e+00	 1.003882e+01
0	 1.777778e+00	 3.037037e+00	 9.997113e+00
0	 1.777778e+00	 3.111111e+00	 9.958800e+00
0	 1.777778e+00	 3.185185e+00	 9.924227e+00
0	 1.777778e+00	 3.259259e+00	 9.893734e+00
0	 1.777778e+00	 3.333333e+00	 9.867664e+00
0	 1.851852e+00	 2.962963e+00	 1.012646e+01
0	 1.851852e+00	 3.037037e+00	 1.008232e+01
0	 1.851852e+00	 3.111111e+00	 1.004177e+01
0	 1.851852e+00	 3.185185e+00	 1.000499e+01
0	 1.851852e+00	 3.259259e+00	 9.972159e+00
0	 1.851852e+00	 3.333333e+00	 9.943468e+00
0	 1.481481e+00	 3.333333e+00	 9.525596e+00
0	 1.481481e+00	 3.407407e+00	 9.518549e+00
0	 1.481481e+00	 3.481481e+00	 9.512919e+00
0	 1.481481e+00	 3.555556e+00	 9.508746e+00
0	 1.481481e+00	 3.629630e+00	 9.506066e+00
0	 1.481481e+00	 3.703704e+00	 9.504917e+00
0	 1.555556e+00	 3.333333e+00	 9.616306e+00
0	 1.555556e+00	 3.407407e+00	 9.604694e+00
0	 1.555556e+00	 3.481481e+00	 9.594851e+00
0	 1.555556e+00	 3.555556e+00	 9.586749e+00
0	 1.555556e+00	 3.629630e+00	 9.580356e+00
0	 1.555556e+00	 3.703704e+00	 9.575643e+00
0	 1.629630e+00	 3.333333e+00	 9.703765e+00
0	 1.629630e+00	 3.407407e+00	 9.688056e+00
0	 1.629630e+00	 3.481481e+00	 9.674371e+00
0	 1.629630e+00	 3.555556e+00	 9.662643e+00
0	 1.629630e+00	 3.629630e+00	 9.652805e+00
0	 1.629630e+00	 3.703704e+00	 9.644789e+00
0	 1.703704e+00	 3.333333e+00	 9.787657e+00
0	 1.703704e+00	 3.407407e+00	 9.768294e+00
0	 1.703704e+00	 3.481481e+00	 9.751118e+00
0	 1.703704e+00	 3.555556e+00	 9.736055e+00
0	 1.703704e+00	 3.629630e+00	 9.723030e+00
0	 1.703704e+00	 3.703704e+00	 9.711968e+00
0	 1.777778e+00	 3.333333e+00	 9.867664e+00
0	 1.777778e+00	 3.407407e+00	 9.845067e+00
0	 1.777778e+00	 3.481481e+00	 9.824734e+00
0	 1.777778e+00	 3.555556e+00	 9.806610e+00
0	 1.777778e+00	 3.629630e+00	 9.790647e+00
0	 1.777778e+00	 3.703704e+00	 9.776790e+00
0	 1.851852e+00	 3.333333e+00	 9.943468e+00
0	 1.851852e+00	 3.407407e+00	 9.918035e+00
0	 1.851852e+00	 3.481481e+00	 9.894857e+00
0	 1.851852e+00	 3.555556e+00	 9.873935e+00
0	 1.851852e+00	 3.629630e+00	 9.855272e+00
0	 1.851852e+00	 3.703704e+00	 9.838868e+00
0	 1.481481e+00	 3.703704e+00	 9.504917e+00
0	 1.481481e+00	 3.777778e+00	 9.505068e+00
0	 1.481481e+00	 3.851852e+00	 9.506332e+00
0	 1.481481e+00	 3.925926e+00	 9.508816e+00
0	 1.481481e+00	 4.000000e+00	 9.512626e+00
0	 1.481481e+00	 4.074074e+00	 9.517868e+00
0	 1.555556e+00	 3.703704e+00	 9.575643e+00
0	 1.555556e+00	 3.777778e+00	 9.572322e+00
0	 1.555556e+00	 3.851852e+00	 9.570219e+00
0	 1.555556e+00	 3.925926e+00	 9.569471e+00
0	 1.555556e+00	 4.000000e+00	 9.570214e+00
0	 1.555556e+00	 4.074074e+00	 9.572587e+00
0	 1.629630e+00	 3.703704e+00	 9.644789e+00
0	 1.629630e+00	 3.777778e+00	 9.638267e+00
0	 1.629630e+00	 3.851852e+00	 9.633055e+00
0	 1.629630e+00	 3.925926e+00	 9.629307e+00
0	 1.629630e+00	 4.000000e+00	 9.627173e+00
0	 1.629630e+00	 4.074074e+00	 9.626804e+00
0	 1.703704e+00	 3.703704e+00	 9.711968e+00
0	 1.703704e+00	 3.777778e+00	 9.702513e+00
0	 1.703704e+00	 3.851852e+00	 9.694458e+00
0	 1.703704e+00	 3.925926e+00	 9.687953e+00
0	 1.703704e+00	 4.000000e+00	 9.683147e+00
0	 1.703704e+00	 4.074074e+00	 9.680188e+00
0	 1.777778e+00	 3.703704e+00	 9.776790e+00
0	 1.777778e+00	 3.777778e+00	 9.764672e+00
0	 1.777778e+00	 3.851852e+00	 9.754045e+00
0	 1.777778e+00	 3.925926e+00	 9.745038e+00
0	 1.777778e+00	 4.000000e+00	 9.737782e+00
0	 1.777778e+00	 4.074074e+00	 9.732405e+00
0	 1.851852e+00	 3.703704e+00	 9.838868e+00
0	 1.851852e+00	 3.777778e+00	 9.824356e+00
0	 1.851852e+00	 3.851852e+00	 9.811432e+00
0	 1.851852e+00	 3.925926e+00	 9.800190e+00
0	 1.851852e+00	 4.000000e+00	 9.790722e+00
0	 1.851852e+00	 4.074074e+00	 9.783124e+00
0	 1.481481e+00	 4.074074e+00	 9.517868e+00
0	 1.481481e+00	 4.148148e+00	 9.523998e+00
0	 1.481481e+00	 4.222222e+00	 9.530434e+00
0	 1.481481e+00	 4.296296e+00	 9.537228e+00
0	 1.481481e+00	 4.370370e+00	 9.544433e+00
0	 1.481481e+00	 4.444444e+00	 9.552099e+00
0	 1.555556e+00	 4.074074e+00	 9.572587e+00
0	 1.555556e+00	 4.148148e+00	 9.576034e+00
0	 1.555556e+00	 4.222222e+00	 9.579934e+00
0	 1.555556e+00	 4.296296e+00	 9.584322e+00
0	 1.555556e+00	 4.370370e+00	 9.589233e+00
0	 1.555556e+00	 4.444444e+00	 9.594704e+00
0	 1.629630e+00	 4.074074e+00	 9.626804e+00
0	 1.629630e+00	 4.148148e+00	 9.627655e+00
0	 1.629630e+00	 4.222222e+00	 9.629093e+00
0	 1.629630e+00	 4.296296e+00	 9.631146e+00
0	 1.629630e+00	 4.370370e+00	 9.633838e+00
0	 1.629630e+00	 4.444444e+00	 9.637196e+00
0	 1.703704e+00	 4.074074e+00	 9.680188e+00
0	 1.703704e+00	 4.148148e+00	 9.678550e+00
0	 1.703704e+00	 4.222222e+00	 9.677621e+00
0	 1.703704e+00	 4.296296e+00	 9.677424e+00
0	 1.703704e+00	 4.370370e+00	 9.677983e+00
0	 1.703704e+00	 4.444444e+00	 9.679320e+00
0	 1.777778e+00	 4.074074e+00	 9.732405e+00
0	 1.777778e+00	 4.148148e+00	 9.728410e+00
0	 1.777778e+00	 4.222222e+00	 9.725226e+00
0	 1.777778e+00	 4.296296e+00	 9.722882e+00
0	 1.777778e+00	 4.370370e+00	 9.721402e+00
0	 1.777778e+00	 4.444444e+00	 9.720815e+00
0	 1.851852e+00	 4.074074e+00	 9.783124e+00
0	 1.851852e+00	 4.148148e+00	 9.776926e+00
0	 1.851852e+00	 4.222222e+00	 9.771620e+00
0	 1.851852e+00	 4.296296e+00	 9.767243e+00
0	 1.851852e+00	 4.370370e+00	 9.763832e+00
0	 1.851852e+00	 4.444444e+00	 9.761425e+00
0	 1.481481e+00	 4.444444e+00	 9.552099e+00
0	 1.481481e+00	 4.518519e+00	 9.560113e+00
0	 1.481481e+00	 4.592593e+00	 9.568347e+00
0	 1.481481e+00	 4.666667e+00	 9.576830e+00
0	 1.481481e+00	 4.740741e+00	 9.585592e+00
0	 1.481481e+00	 4.814815e+00	 9.594664e+00
0	 1.555556e+00	 4.444444e+00	 9.594704e+00
0	 1.555556e+00	 4.518519e+00	 9.600608e+00
0	 1.555556e+00	 4.592593e+00	 9.606824e+00
0	 1.555556e+00	 4.666667e+00	 9.613391e+00
0	 1.555556e+00	 4.740741e+00	 9.620351e+00
0	 1.555556e+00	 4.814815e+00	 9.627743e+00
0	 1.629630e+00	 4.444444e+00	 9.637196e+00
0	 1.629630e+00	 4.518519e+00	 9.641078e+00
0	 1.629630e+00	 4.592593e+00	 9.645353e+00
0	 1.629630e+00	 4.666667e+00	 9.650069e+00
0	 1.629630e+00	 4.740741e+00	 9.655272e+00
0	 1.629630e+00	 4.814815e+00	 9.661007e+00
0	 1.703704e+00	 4.444444e+00	 9.679320e+00
0	 1.703704e+00	 4.518519e+00	 9.681271e+00
0	 1.703704e+00	 4.592593e+00	 9.683692e+00
0	 1.703704e+00	 4.666667e+00	 9.686629e+00
0	 1.703704e+00	 4.740741e+00	 9.690133e+00
0	 1.703704e+00	 4.814815e+00	 9.694250e+00
0	 1.777778e+00	 4.444444e+00	 9.720815e+00
0	 1.777778e+00	 4.518519e+00	 9.720936e+00
0	 1.777778e+00	 4.592593e+00	 9.721595e+00
0	 1.777778e+00	 4.666667e+00	 9.722838e+00
0	 1.777778e+00	 4.740741e+00	 9.724713e+00
0	 1.777778e+00	 4.814815e+00	 9.727265e+00
0	 1.851852e+00	 4.444444e+00	 9.761425e+00
0	 1.851852e+00	 4.518519e+00	 9.759820e+00
0	 1.851852e+00	 4.592593e+00	 9.758818e+00
0	 1.851852e+00	 4.666667e+00	 9.758462e+00
0	 1.851852e+00	 4.740741e+00	 9.758791e+00
0	 1.851852e+00	 4.814815e+00	 9.759847e+00
0	 1.481481e+00	 4.814815e+00	 9.594664e+00
0	 1.481481e+00	 4.888889e+00	 9.603880e+00
0	 1.481481e+00	 4.962963e+00	 9.613073e+00
0	 1.481481e+00	 5.037037e+00	 9.622271e+00
0	 1.481481e+00	 5.111111e+00	 9.631500e+00
0	 1.481481e+00	 5.185185e+00	 9.640790e+00
0	 1.555556e+00	 4.814815e+00	 9.627743e+00
0	 1.555556e+00	 4.888889e+00	 9.635381e+00
0	 1.555556e+00	 4.962963e+00	 9.643068e+00
0	 1.555556e+00	 5.037037e+00	 9.650828e+00
0	 1.555556e+00	 5.111111e+00	 9.658687e+00
0	 1.555556e+00	 5.185185e+00	 9.666669e+00
0	 1.629630e+00	 4.814815e+00	 9.661007e+00
0	 1.629630e+00	 4.888889e+00	 9.667077e+00
0	 1.629630e+00	 4.962963e+00	 9.673269e+00
0	 1.629630e+00	 5.037037e+00	 9.679604e+00
0	 1.629630e+00	 5.111111e+00	 9.686107e+00
0	 1.629630e+00	 5.185185e+00	 9.692800e+00
0	 1.703704e+00	 4.814815e+00	 9.694250e+00
0	 1.703704e+00	 4.888889e+00	 9.698778e+00
0	 1.703704e+00	 4.962963e+00	 9.703498e+00
0	 1.703704e+00	 5.037037e+00	 9.708432e+00
0	 1.703704e+00	 5.111111e+00	 9.713602e+00
0	 1.703704e+00	 5.185185e+00	 9.719031e+00
0	 1.777778e+00	 4.814815e+00	 9.727265e+00
0	 1.777778e+00	 4.888889e+00	 9.730293e+00
0	 1.777778e+00	 4.962963e+00	 9.733578e+00
0	 1.777778e+00	 5.037037e+00	 9.737144e+00
0	 1.777778e+00	 5.111111e+00	 9.741014e+00
0	 1.777778e+00	 5.185185e+00	 9.745211e+00
0	 1.851852e+00	 4.814815e+00	 9.759847e+00
0	 1.851852e+00	 4.888889e+00	 9.761430e+00
0	 1.851852e+00	 4.962963e+00	 9.763330e+00
0	 1.851852e+00	 5.037037e+00	 9.765573e+00
0	 1.851852e+00	 5.111111e+00	 9.768183e+00
0	 1.851852e+00	 5.185185e+00	 9.771186e+00
0	 1.481481e+00	 5.185185e+00	 9.640790e+00
0	 1.481481e+00	 5.259259e+00	 9.650086e+00
0	 1.481481e+00	 5.333333e+00	 9.659323e+00
0	 1.481481e+00	 5.407407e+00	 9.668512e+00
0	 1.481481e+00	 5.481481e+00	 9.677665e+00
0	 1.481481e+00	 5.555556e+00	 9.686792e+00
0	 1.555556e+00	 5.185185e+00	 9.666669e+00
0	 1.555556e+00	 5.259259e+00	 9.674715e+00
0	 1.555556e+00	 5.333333e+00	 9.682759e+00
0	 1.555556e+00	 5.407407e+00	 9.690815e+00
0	 1.555556e+00	 5.481481e+00	 9.698897e+00
0	 1.555556e+00	 5.555556e+00	 9.707019e+00
0	 1.629630e+00	 5.185185e+00	 9.692800e+00
0	 1.629630e+00	 5.259259e+00	 9.699615e+00
0	 1.629630e+00	 5.333333e+00	 9.706481e+00
0	 1.629630e+00	 5.407407e+00	 9.713414e+00
0	 1.629630e+00	 5.481481e+00	 9.720429e+00
0	 1.629630e+00	 5.555556e+00	 9.727544e+00
0	 1.703704e+00	 5.185185e+00	 9.719031e+00
0	 1.703704e+00	 5.259259e+00	 9.724641e+00
0	 1.703704e+00	 5.333333e+00	 9.730350e+00
0	 1.703704e+00	 5.407407e+00	 9.736175e+00
0	 1.703704e+00	 5.481481e+00	 9.742136e+00
0	 1.703704e+00	 5.555556e+00	 9.748248e+00
0	 1.777778e+00	 5.185185e+00	 9.745211e+00
0	 1.777778e+00	 5.259259e+00	 9.749645e+00
0	 1.777778e+00	 5.333333e+00	 9.754224e+00
0	 1.777778e+00	 5.407407e+00	 9.758966e+00
0	 1.777778e+00	 5.481481e+00	 9.763891e+00
0	 1.777778e+00	 5.555556e+00	 9.769016e+00
0	 1.851852e+00	 5.185185e+00	 9.771186e+00
0	 1.851852e+00	 5.259259e+00	 9.774481e+00
0	 1.851852e+00	 5.333333e+00	 9.777964e+00
0	 1.851852e+00	 5.407407e+00	 9.781654e+00
0	 1.851852e+00	 5.481481e+00	 9.785569e+00
0	 1.851852e+00	 5.555556e+00	 9.789728e+00
0	 1.481481e+00	 5.555556e+00	 9.686792e+00
0	 1.481481e+00	 5.629630e+00	 9.695847e+00
0	 1.481481e+00	 5.703704e+00	 9.704787e+00
0	 1.481481e+00	 5.777778e+00	 9.713622e+00
0	 1.481481e+00	 5.851852e+00	 9.722366e+00
0	 1.481481e+00	 5.925926e+00	 9.731031e+00
0	 1.555556e+00	 5.555556e+00	 9.707019e+00
0	 1.555556e+00	 5.629630e+00	 9.715123e+00
0	 1.555556e+00	 5.703704e+00	 9.723150e+00
0	 1.555556e+00	 5.777778e+00	 9.731112e+00
0	 1.555556e+00	 5.851852e+00	 9.739022e+00
0	 1.555556e+00	 5.925926e+00	 9.746892e+00
0	 1.629630e+00	 5.555556e+00	 9.727544e+00
0	 1.629630e+00	 5.629630e+00	 9.734690e+00
0	 1.629630e+00	 5.703704e+00	 9.741800e+00
0	 1.629630e+00	 5.777778e+00	 9.748885e+00
0	 1.629630e+00	 5.851852e+00	 9.755958e+00
0	 1.629630e+00	 5.925926e+00	 9.763032e+00
0	 1.703704e+00	 5.555556e+00	 9.748248e+00
0	 1.703704e+00	 5.629630e+00	 9.754440e+00
0	 1.703704e+00	 5.703704e+00	 9.760635e+00
0	 1.703704e+00	 5.777778e+00	 9.766845e+00
0	 1.703704e+00	 5.851852e+00	 9.773084e+00
0	 1.703704e+00	 5.925926e+00	 9.779364e+00
0	 1.777778e+00	 5.555556e+00	 9.769016e+00
0	 1.777778e+00	 5.629630e+00	 9.774263e+00
0	 1.777778e+00	 5.703704e+00	 9.779553e+00
0	 1.777778e+00	 5.777778e+00	 9.784897e+00
0	 1.777778e+00	 5.851852e+00	 9.790309e+00
0	 1.777778e+00	 5.925926e+00	 9.795803e+00
0	 1.851852e+00	 5.555556e+00	 9.789728e+00
0	 1.851852e+00	 5.629630e+00	 9.794050e+00
0	 1.851852e+00	 5.703704e+00	 9.798450e+00
0	 1.851852e+00	 5.777778e+00	 9.802943e+00
0	 1.851852e+00	 5.851852e+00	 9.807542e+00
0	 1.851852e+00	 5.925926e+00	 9.812260e+00
0	 1.481481e+00	 5.925926e+00	 9.731031e+00
0	 1.481481e+00	 6.000000e+00	 9.739594e+00
0	 1.481481e+00	 6.074074e+00	 9.748031e+00
0	 1.481481e+00	 6.148148e+00	 9.756346e+00
0	 1.481481e+00	 6.222222e+00	 9.764545e+00
0	 1.481481e+00	 6.296296e+00	 9.772634e+00
0	 1.555556e+00	 5.925926e+00	 9.746892e+00
0	 1.555556e+00	 6.000000e+00	 9.754696e+00
0	 1.555556e+00	 6.074074e+00	 9.762406e+00
0	 1.555556e+00	 6.148148e+00	 9.770027e+00
0	 1.555556e+00	 6.222222e+00	 9.777567e+00
0	 1.555556e+00	 6.296296e+00	 9.785031e+00
0	 1.629630e+00	 5.925926e+00	 9.763032e+00
0	 1.629630e+00	 6.000000e+00	 9.770076e+00
0	 1.629630e+00	 6.074074e+00	 9.777055e+00
0	 1.629630e+00	 6.148148e+00	 9.783979e+00
0	 1.629630e+00	 6.222222e+00	 9.790853e+00
0	 1.629630e+00	 6.296296e+00	 9.797685e+00
0	 1.703704e+00	 5.925926e+00	 9.779364e+00
0	 1.703704e+00	 6.000000e+00	 9.785650e+00
0	 1.703704e+00	 6.074074e+00	 9.791900e+00
0	 1.703704e+00	 6.148148e+00	 9.798125e+00
0	 1.703704e+00	 6.222222e+00	 9.804332e+00
0	 1.703704e+00	 6.296296e+00	 9.810528e+00
0	 1.777778e+00	 5.925926e+00	 9.795803e+00
0	 1.777778e+00	 6.000000e+00	 9.801336e+00
0	 1.777778e+00	 6.074074e+00	 9.806863e+00
0	 1.777778e+00	 6.148148e+00	 9.812392e+00
0	 1.777778e+00	 6.222222e+00	 9.817934e+00
0	 1.777778e+00	 6.296296e+00	 9.823496e+00
0	 1.851852e+00	 5.925926e+00	 9.812260e+00
0	 1.851852e+00	 6.000000e+00	 9.817051e+00
0	 1.851852e+00	 6.074074e+00	 9.821863e+00
0	 1.851852e+00	 6.148148e+00	 9.826705e+00
0	 1.851852e+00	 6.222222e+00	 9.831588e+00
0	 1.851852e+00	 6.296296e+00	 9.836520e+00
0	 1.481481e+00	 6.296296e+00	 9.772634e+00
0	 1.481481e+00	 6.370370e+00	 9.780599e+00
0	 1.481481e+00	 6.444444e+00	 9.788430e+00
0	 1.481481e+00	 6.518519e+00	 9.796132e+00
0	 1.481481e+00	 6.592593e+00	 9.803710e+00
0	 1.481481e+00	 6.666667e+00	 9.811172e+00
0	 1.555556e+00	 6.296296e+00	 9.785031e+00
0	 1.555556e+00	 6.370370e+00	 9.792402e+00
0	 1.555556e+00	 6.444444e+00	 9.799660e+00
0	 1.555556e+00	 6.518519e+00	 9.806812e+00
0	 1.555556e+00	 6.592593e+00	 9.813865e+00
0	 1.555556e+00	 6.666667e+00	 9.820824e+00
0	 1.629630e+00	 6.296296e+00	 9.797685e+00
0	 1.629630e+00	 6.370370e+00	 9.804452e+00
0	 1.629630e+00	 6.444444e+00	 9.811130e+00
0	 1.629630e+00	 6.518519e+00	 9.817725e+00
0	 1.629630e+00	 6.592593e+00	 9.824244e+00
0	 1.629630e+00	 6.666667e+00	 9.830695e+00
0	 1.703704e+00	 6.296296e+00	 9.810528e+00
0	 1.703704e+00	 6.370370e+00	 9.816688e+00
0	 1.703704e+00	 6.444444e+00	 9.822781e+00
0	 1.703704e+00	 6.518519e+00	 9.828815e+00
0	 1.703704e+00	 6.592593e+00	 9.834798e+00
0	 1.703704e+00	 6.666667e+00	 9.840735e+00
0	 1.777778e+00	 6.296296e+00	 9.823496e+00
0	 1.777778e+00	 6.370370e+00	 9.829047e+00
0	 1.777778e+00	 6.444444e+00	 9.834555e+00
0	 1.777778e+00	 6.518519e+00	 9.840028e+00
0	 1.777778e+00	 6.592593e+00	 9.845473e+00
0	 1.777778e+00	 6.666667e+00	 9.850896e+00
0	 1.851852e+00	 6.296296e+00	 9.836520e+00
0	 1.851852e+00	 6.370370e+00	 9.841468e+00
0	 1.851852e+00	 6.444444e+00	 9.846395e+00
0	 1.851852e+00	 6.518519e+00	 9.851309e+00
0	 1.851852e+00	 6.592593e+00	 9.856218e+00
0	 1.851852e+00	 6.666667e+00	 9.861129e+00
0	 1.481481e+00	 6.666667e+00	 9.811172e+00
0	 1.481481e+00	 6.740741e+00	 9.818508e+00
0	 1.481481e+00	 6.814815e+00	 9.825708e+00
0	 1.481481e+00	 6.888889e+00	 9.832776e+00
0	 1.481481e+00	 6.962963e+00	 9.839716e+00
0	 1.481481e+00	 7.037037e+00	 9.846531e+00
0	 1.555556e+00	 6.666667e+00	 9.820824e+00
0	 1.555556e+00	 6.740741e+00	 9.827679e+00
0	 1.555556e+00	 6.814815e+00	 9.834417e+00
0	 1.555556e+00	 6.888889e+00	 9.841041e+00
0	 1.555556e+00	 6.962963e+00	 9.847556e+00
0	 1.555556e+00	 7.037037e+00	 9.853967e+00
0	 1.629630e+00	 6.666667e+00	 9.830695e+00
0	 1.629630e+00	 6.740741e+00	 9.837062e+00
0	 1.629630e+00	 6.814815e+00	 9.843330e+00
0	 1.629630e+00	 6.888889e+00	 9.849504e+00
0	 1.629630e+00	 6.962963e+00	 9.855587e+00
0	 1.629630e+00	 7.037037e+00	 9.861586e+00
0	 1.703704e+00	 6.666667e+00	 9.840735e+00
0	 1.703704e+00	 6.740741e+00	 9.846611e+00
0	 1.703704e+00	 6.814815e+00	 9.852405e+00
0	 1.703704e+00	 6.888889e+00	 9.858123e+00
0	 1.703704e+00	 6.962963e+00	 9.863770e+00
0	 1.703704e+00	 7.037037e+00	 9.869351e+00
0	 1.777778e+00	 6.666667e+00	 9.850896e+00
0	 1.777778e+00	 6.740741e+00	 9.856279e+00
0	 1.777778e+00	 6.814815e+00	 9.861597e+00
0	 1.777778e+00	 6.888889e+00	 9.866857e+00
0	 1.777778e+00	 6.962963e+00	 9.872064e+00
0	 1.777778e+00	 7.037037e+00	 9.877224e+00
0	 1.851852e+00	 6.666667e+00	 9.861129e+00
0	 1.851852e+00	 6.740741e+00	 9.866018e+00
0	 1.851852e+00	 6.814815e+00	 9.870861e+00
0	 1.851852e+00	 6.888889e+00	 9.875663e+00
0	 1.851852e+00	 6.962963e+00	 9.880430e+00
0	 1.851852e+00	 7.037037e+00	 9.885168e+00
0	 1.481481e+00	 7.037037e+00	 9.846531e+00
0	 1.481481e+00	 7.111111e+00	 9.853217e+00
0	 1.481481e+00	 7.185185e+00	 9.859767e+00
0	 1.481481e+00	 7.259259e+00	 9.866185e+00
0	 1.481481e+00	 7.333333e+00	 9.872477e+00
0	 1.481481e+00	 7.407407e+00	 9.878646e+00
0	 1.555556e+00	 7.037037e+00	 9.853967e+00
0	 1.555556e+00	 7.111111e+00	 9.860265e+00
0	 1.555556e+00	 7.185185e+00	 9.866441e+00
0	 1.555556e+00	 7.259259e+00	 9.872499e+00
0	 1.555556e+00	 7.333333e+00	 9.878445e+00
0	 1.555556e+00	 7.407407e+00	 9.884283e+00
0	 1.629630e+00	 7.037037e+00	 9.861586e+00
0	 1.629630e+00	 7.111111e+00	 9.867488e+00
0	 1.629630e+00	 7.185185e+00	 9.873282e+00
0	 1.629630e+00	 7.259259e+00	 9.878974e+00
0	 1.629630e+00	 7.333333e+00	 9.884567e+00
0	 1.629630e+00	 7.407407e+00	 9.890067e+00
0	 1.703704e+00	 7.037037e+00	 9.869351e+00
0	 1.703704e+00	 7.111111e+00	 9.874851e+00
0	 1.703704e+00	 7.185185e+00	 9.880259e+00
0	 1.703704e+00	 7.259259e+00	 9.885577e+00
0	 1.703704e+00	 7.333333e+00	 9.890813e+00
0	 1.703704e+00	 7.407407e+00	 9.895969e+00
0	 1.777778e+00	 7.037037e+00	 9.877224e+00
0	 1.777778e+00	 7.111111e+00	 9.882320e+00
0	 1.777778e+00	 7.185185e+00	 9.887337e+00
0	 1.777778e+00	 7.259259e+00	 9.892280e+00
0	 1.777778e+00	 7.333333e+00	 9.897153e+00
0	 1.777778e+00	 7.407407e+00	 9.901962e+00
0	 1.851852e+00	 7.037037e+00	 9.885168e+00
0	 1.851852e+00	 7.111111e+00	 9.889859e+00
0	 1.851852e+00	 7.185185e+00	 9.894484e+00
0	 1.851852e+00	 7.259259e+00	 9.899049e+00
0	 1.851852e+00	 7.333333e+00	 9.903559e+00
0	 1.851852e+00	 7.407407e+00	 9.908020e+00
0	 1.481481e+00	 7.407407e+00	 9.878646e+00
0	 1.481481e+00	 7.481481e+00	 9.884685e+00
0	 1.481481e+00	 7.555556e+00	 9.890587e+00
0	 1.481481e+00	 7.629630e+00	 9.896356e+00
0	 1.481481e+00	 7.703704e+00	 9.901995e+00
0	 1.481481e+00	 7.777778e+00	 9.907510e+00
0	 1.555556e+00	 7.407407e+00	 9.884283e+00
0	 1.555556e+00	 7.481481e+00	 9.890004e+00
0	 1.555556e+00	 7.555556e+00	 9.895599e+00
0	 1.555556e+00	 7.629630e+00	 9.901072e+00
0	 1.555556e+00	 7.703704e+00	 9.906428e+00
0	 1.555556e+00	 7.777778e+00	 9.911670e+00
0	 1.629630e+00	 7.407407e+00	 9.890067e+00
0	 1.629630e+00	 7.481481e+00	 9.895462e+00
0	 1.629630e+00	 7.555556e+00	 9.900744e+00
0	 1.629630e+00	 7.629630e+00	 9.905915e+00
0	 1.629630e+00	 7.703704e+00	 9.910980e+00
0	 1.629630e+00	 7.777778e+00	 9.915944e+00
0	 1.703704e+00	 7.407407e+00	 9.895969e+00
0	 1.703704e+00	 7.481481e+00	 9.901034e+00
0	 1.703704e+00	 7.555556e+00	 9.905997e+00
0	 1.703704e+00	 7.629630e+00	 9.910861e+00
0	 1.703704e+00	 7.703704e+00	 9.915631e+00
0	 1.703704e+00	 7.777778e+00	 9.920311e+00
0	 1.777778e+00	 7.407407e+00	 9.901962e+00
0	 1.777778e+00	 7.481481e+00	 9.906694e+00
0	 1.777778e+00	 7.555556e+00	 9.911334e+00
0	 1.777778e+00	 7.629630e+00	 9.915887e+00
0	 1.777778e+00	 7.703704e+00	 9.920357e+00
0	 1.777778e+00	 7.777778e+00	 9.924750e+00
0	 1.851852e+00	 7.407407e+00	 9.908020e+00
0	 1.851852e+00	 7.481481e+00	 9.912415e+00
0	 1.851852e+00	 7.555556e+00	 9.916730e+00
0	 1.851852e+00	 7.629630e+00	 9.920970e+00
0	 1.851852e+00	 7.703704e+00	 9.925138e+00
0	 1.851852e+00	 7.777778e+00	 9.929241e+00
0	 1.481481e+00	 7.777778e+00	 9.907510e+00
0	 1.481481e+00	 7.851852e+00	 9.912891e+00
0	 1.481481e+00	 7.925926e+00	 9.918130e+00
0	 1.481481e+00	 8.000000e+00	 9.923233e+00
0	 1.481481e+00	 8.074074e+00	 9.928204e+00
0	 1.481481e+00	 8.148148e+00	 9.933047e+00
0	 1.555556e+00	 7.777778e+00	 9.911670e+00
0	 1.555556e+00	 7.851852e+00	 9.916790e+00
0	 1.555556e+00	 7.925926e+00	 9.921777e+00
0	 1.555556e+00	 8.000000e+00	 9.926636e+00
0	 1.555556e+00	 8.074074e+00	 9.931373e+00
0	 1.555556e+00	 8.148148e+00	 9.935992e+00
0	 1.629630e+00	 7.777778e+00	 9.915944e+00
0	 1.629630e+00	 7.851852e+00	 9.920796e+00
0	 1.629630e+00	 7.925926e+00	 9.925524e+00
0	 1.629630e+00	 8.000000e+00	 9.930135e+00
0	 1.629630e+00	 8.074074e+00	 9.934632e+00
0	 1.629630e+00	 8.148148e+00	 9.939021e+00
0	 1.703704e+00	 7.777778e+00	 9.920311e+00
0	 1.703704e+00	 7.851852e+00	 9.924889e+00
0	 1.703704e+00	 7.925926e+00	 9.929355e+00
0	 1.703704e+00	 8.000000e+00	 9.933711e+00
0	 1.703704e+00	 8.074074e+00	 9.937964e+00
0	 1.703704e+00	 8.148148e+00	 9.942119e+00
0	 1.777778e+00	 7.777778e+00	 9.924750e+00
0	 1.777778e+00	 7.851852e+00	 9.929052e+00
0	 1.777778e+00	 7.925926e+00	 9.933250e+00
0	 1.777778e+00	 8.000000e+00	 9.937349e+00
0	 1.777778e+00	 8.074074e+00	 9.941354e+00
0	 1.777778e+00	 8.148148e+00	 9.945270e+00
0	 1.851852e+00	 7.777778e+00	 9.929241e+00
0	 1.851852e+00	 7.851852e+00	 9.933263e+00
0	 1.851852e+00	 7.925926e+00	 9.937191e+00
0	 1.851852e+00	 8.000000e+00	 9.941030e+00
0	 1.851852e+00	 8.074074e+00	 9.944784e+00
0	 1.851852e+00	 8.148148e+00	 9.948459e+00
0	 1.481481e+00	 8.148148e+00	 9.933047e+00
0	 1.481481e+00	 8.222222e+00	 9.937751e+00
0	 1.481481e+00	 8.296296e+00	 9.942303e+00
0	 1.481481e+00	 8.370370e+00	 9.946710e+00
0	 1.481481e+00	 8.444444e+00	 9.950976e+00
0	 1.481481e+00	 8.518519e+00	 9.955108e+00
0	 1.555556e+00	 8.148148e+00	 9.935992e+00
0	 1.555556e+00	 8.222222e+00	 9.940480e+00
0	 1.555556e+00	 8.296296e+00	 9.944825e+00
0	 1.555556e+00	 8.370370e+00	 9.949033e+00
0	 1.555556e+00	 8.444444e+00	 9.953108e+00
0	 1.555556e+00	 8.518519e+00	 9.957057e+00
0	 1.629630e+00	 8.148148e+00	 9.939021e+00
0	 1.629630e+00	 8.222222e+00	 9.943288e+00
0	 1.629630e+00	 8.296296e+00	 9.947421e+00
0	 1.629630e+00	 8.370370e+00	 9.951424e+00
0	 1.629630e+00	 8.444444e+00	 9.955303e+00
0	 1.629630e+00	 8.518519e+00	 9.959064e+00
0	 1.703704e+00	 8.148148e+00	 9.942119e+00
0	 1.703704e+00	 8.222222e+00	 9.946160e+00
0	 1.703704e+00	 8.296296e+00	 9.950076e+00
0	 1.703704e+00	 8.370370e+00	 9.953870e+00
0	 1.703704e+00	 8.444444e+00	 9.957549e+00
0	 1.703704e+00	 8.518519e+00	 9.961118e+00
0	 1.777778e+00	 8.148148e+00	 9.945270e+00
0	 1.777778e+00	 8.222222e+00	 9.949082e+00
0	 1.777778e+00	 8.296296e+00	 9.952777e+00
0	 1.777778e+00	 8.370370e+00	 9.956359e+00
0	 1.777778e+00	 8.444444e+00	 9.959834e+00
0	 1.777778e+00	 8.518519e+00	 9.963208e+00
0	 1.851852e+00	 8.148148e+00	 9.948459e+00
0	 1.851852e+00	 8.222222e+00	 9.952040e+00
0	 1.851852e+00	 8.296296e+00	 9.955511e+00
0	 1.851852e+00	 8.370370e+00	 9.958879e+00
0	 1.851852e+00	 8.444444e+00	 9.962148e+00
0	 1.851852e+00	 8.518519e+00	 9.965323e+00
0	 1.481481e+00	 8.518519e+00	 9.955108e+00
0	 1.481481e+00	 8.592593e+00	 9.959089e+00
0	 1.481481e+00	 8.666667e+00	 9.962902e+00
0	 1.481481e+00	 8.740741e+00	 9.966554e+00
0	 1.481481e+00	 8.814815e+00	 9.970053e+00
0	 1.481481e+00	 8.888889e+00	 9.973405e+00
0	 1.555556e+00	 8.518519e+00	 9.957057e+00
0	 1.555556e+00	 8.592593e+00	 9.960862e+00
0	 1.555556e+00	 8.666667e+00	 9.964508e+00
0	 1.555556e+00	 8.740741e+00	 9.968001e+00
0	 1.555556e+00	 8.814815e+00	 9.971347e+00
0	 1.555556e+00	 8.888889e+00	 9.974554e+00
0	 1.629630e+00	 8.518519e+00	 9.959064e+00
0	 1.629630e+00	 8.592593e+00	 9.962690e+00
0	 1.629630e+00	 8.666667e+00	 9.966163e+00
0	 1.629630e+00	 8.740741e+00	 9.969492e+00
0	 1.629630e+00	 8.814815e+00	 9.972682e+00
0	 1.629630e+00	 8.888889e+00	 9.975740e+00
0	 1.703704e+00	 8.518519e+00	 9.961118e+00
0	 1.703704e+00	 8.592593e+00	 9.964560e+00
0	 1.703704e+00	 8.666667e+00	 9.967858e+00
0	 1.703704e+00	 8.740741e+00	 9.971019e+00
0	 1.703704e+00	 8.814815e+00	 9.974049e+00
0	 1.703704e+00	 8.888889e+00	 9.976955e+00
0	 1.777778e+00	 8.518519e+00	 9.963208e+00
0	 1.777778e+00	 8.592593e+00	 9.966463e+00
0	 1.777778e+00	 8.666667e+00	 9.969582e+00
0	 1.777778e+00	 8.740741e+00	 9.972573e+00
0	 1.777778e+00	 8.814815e+00	 9.975440e+00
0	 1.777778e+00	 8.888889e+00	 9.978191e+00
0	 1.851852e+00	 8.518519e+00	 9.965323e+00
0	 1.851852e+00	 8.592593e+00	 9.968388e+00
0	 1.851852e+00	 8.666667e+00	 9.971326e+00
0	 1.851852e+00	 8.740741e+00	 9.974143e+00
0	 1.851852e+00	 8.814815e+00	 9.976846e+00
0	 1.851852e+00	 8.888889e+00	 9.979439e+00
0	 1.481481e+00	 8.888889e+00	 9.973405e+00
0	 1.481481e+00	 8.962963e+00	 9.976588e+00
0	 1.481481e+00	 9.037037e+00	 9.979578e+00
0	 1.481481e+00	 9.111111e+00	 9.982386e+00
0	 1.481481e+00	 9.185185e+00	 9.985020e+00
0	 1.481481e+00	 9.259259e+00	 9.987488e+00
0	 1.555556e+00	 8.888889e+00	 9.974554e+00
0	 1.555556e+00	 8.962963e+00	 9.977599e+00
0	 1.555556e+00	 9.037037e+00	 9.980461e+00
0	 1.555556e+00	 9.111111e+00	 9.983148e+00
0	 1.555556e+00	 9.185185e+00	 9.985667e+00
0	 1.555556e+00	 9.259259e+00	 9.988029e+00
0	 1.629630e+00	 8.888889e+00	 9.975740e+00
0	 1.629630e+00	 8.962963e+00	 9.978644e+00
0	 1.629630e+00	 9.037037e+00	 9.981373e+00
0	 1.629630e+00	 9.111111e+00	 9.983936e+00
0	 1.629630e+00	 9.185185e+00	 9.986339e+00
0	 1.629630e+00	 9.259259e+00	 9.988591e+00
0	 1.703704e+00	 8.888889e+00	 9.976955e+00
0	 1.703704e+00	 8.962963e+00	 9.979715e+00
0	 1.703704e+00	 9.037037e+00	 9.982309e+00
0	 1.703704e+00	 9.111111e+00	 9.984744e+00
0	 1.703704e+00	 9.185185e+00	 9.987028e+00
0	 1.703704e+00	 9.259259e+00	 9.989168e+00
0	 1.777778e+00	 8.888889e+00	 9.978191e+00
0	 1.777778e+00	 8.962963e+00	 9.980804e+00
0	 1.777778e+00	 9.037037e+00	 9.983259e+00
0	 1.777778e+00	 9.111111e+00	 9.985565e+00
0	 1.777778e+00	 9.185185e+00	 9.987727e+00
0	 1.777778e+00	 9.259259e+00	 9.989754e+00
0	 1.851852e+00	 8.888889e+00	 9.979439e+00
0	 1.851852e+00	 8.962963e+00	 9.981903e+00
0	 1.851852e+00	 9.037037e+00	 9.984218e+00
0	 1.851852e+00	 9.111111e+00	 9.986392e+00
0	 1.851852e+00	 9.185185e+00	 9.988430e+00
0	 1.851852e+00	 9.259259e+00	 9.990341e+00
0	 1.481481e+00	 9.259259e+00	 9.987488e+00
0	 1.481481e+00	 9.333333e+00	 9.989758e+00
0	 1.481481e+00	 9.407407e+00	 9.991800e+00
0	 1.481481e+00	 9.481481e+00	 9.993625e+00
0	 1.481481e+00	 9.555556e+00	 9.995244e+00
0	 1.481481e+00	 9.629630e+00	 9.996668e+00
0	 1.555556e+00	 9.259259e+00	 9.988029e+00
0	 1.555556e+00	 9.333333e+00	 9.990201e+00
0	 1.555556e+00	 9.407407e+00	 9.992155e+00
0	 1.555556e+00	 9.481481e+00	 9.993900e+00
0	 1.555556e+00	 9.555556e+00	 9.995449e+00
0	 1.555556e+00	 9.629630e+00	 9.996810e+00
0	 1.629630e+00	 9.259259e+00	 9.988591e+00
0	 1.629630e+00	 9.333333e+00	 9.990663e+00
0	 1.629630e+00	 9.407407e+00	 9.992526e+00
0	 1.629630e+00	 9.481481e+00	 9.994191e+00
0	 1.629630e+00	 9.555556e+00	 9.995667e+00
0	 1.629630e+00	 9.629630e+00	 9.996964e+00
0	 1.703704e+00	 9.259259e+00	 9.989168e+00
0	 1.703704e+00	 9.333333e+00	 9.991137e+00
0	 1.703704e+00	 9.407407e+00	 9.992908e+00
0	 1.703704e+00	 9.481481e+00	 9.994490e+00
0	 1.703704e+00	 9.555556e+00	 9.995892e+00
0	 1.703704e+00	 9.629630e+00	 9.997124e+00
0	 1.777778e+00	 9.259259e+00	 9.989754e+00
0	 1.777778e+00	 9.333333e+00	 9.991618e+00
0	 1.777778e+00	 9.407407e+00	 9.993294e+00
0	 1.777778e+00	 9.481481e+00	 9.994792e+00
0	 1.777778e+00	 9.555556e+00	 9.996119e+00
0	 1.777778e+00	 9.629630e+00	 9.997284e+00
0	 1.851852e+00	 9.259259e+00	 9.990341e+00
0	 1.851852e+00	 9.333333e+00	 9.992099e+00
0	 1.851852e+00	 9.407407e+00	 9.993679e+00
0	 1.851852e+00	 9.481481e+00	 9.995090e+00
0	 1.851852e+00	 9.555556e+00	 9.996341e+00
0	 1.851852e+00	 9.629630e+00	 9.997438e+00
0	 1.481481e+00	 9.629630e+00	 9.996668e+00
0	 1.481481e+00	 9.703704e+00	 9.997857e+00
0	 1.481481e+00	 9.777778e+00	 9.998775e+00
0	 1.481481e+00	 9.851852e+00	 9.999434e+00
0	 1.481481e+00	 9.925926e+00	 9.999848e+00
0	 1.481481e+00	 1.000000e+01	 1.000003e+01
0	 1.555556e+00	 9.629630e+00	 9.996810e+00
0	 1.555556e+00	 9.703704e+00	 9.997947e+00
0	 1.555556e+00	 9.777778e+00	 9.998824e+00
0	 1.555556e+00	 9.851852e+00	 9.999453e+00
0	 1.555556e+00	 9.925926e+00	 9.999849e+00
0	 1.555556e+00	 1.000000e+01	 1.000002e+01
0	 1.629630e+00	 9.629630e+00	 9.996964e+00
0	 1.629630e+00	 9.703704e+00	 9.998047e+00
0	 1.629630e+00	 9.777778e+00	 9.998883e+00
0	 1.629630e+00	 9.851852e+00	 9.999483e+00
0	 1.629630e+00	 9.925926e+00	 9.999860e+00
0	 1.629630e+00	 1.000000e+01	 1.000002e+01
0	 1.703704e+00	 9.629630e+00	 9.997124e+00
0	 1.703704e+00	 9.703704e+00	 9.998153e+00
0	 1.703704e+00	 9.777778e+00	 9.998946e+00
0	 1.703704e+00	 9.851852e+00	 9.999516e+00
0	 1.703704e+00	 9.925926e+00	 9.999874e+00
0	 1.703704e+00	 1.000000e+01	 1.000003e+01
0	 1.777778e+00	 9.629630e+00	 9.997284e+00
0	 1.777778e+00	 9.703704e+00	 9.998257e+00
0	 1.777778e+00	 9.777778e+00	 9.999008e+00
0	 1.777778e+00	 9.851852e+00	 9.999547e+00
0	 1.777778e+00	 9.925926e+00	 9.999884e+00
0	 1.777778e+00	 1.000000e+01	 1.000003e+01
0	 1.851852e+00	 9.629630e+00	 9.997438e+00
0	 1.851852e+00	 9.703704e+00	 9.998354e+00
0	 1.851852e+00	 9.777778e+00	 9.999060e+00
0	 1.851852e+00	 9.851852e+00	 9.999567e+00
0	 1.851852e+00	 9.925926e+00	 9.999885e+00
0	 1.851852e+00	 1.000000e+01	 1.000002e+01
0	 1.851852e+00	 0.000000e+00	 6.042911e+00
0	 1.851852e+00	 7.407407e-02	 6.798787e+00
0	 1.851852e+00	 1.481481e-01	 7.831673e+00
0	 1.851852e+00	 2.222222e-01	 9.018429e+00
0	 1.851852e+00	 2.962963e-01	 1.023591e+01
0	 1.851852e+00	 3.703704e-01	 1.136099e+01
0	 1.925926e+00	 0.000000e+00	 8.813614e+00
0	 1.925926e+00	 7.407407e-02	 9.289024e+00
0	 1.925926e+00	 1.481481e-01	 9.898523e+00
0	 1.925926e+00	 2.222222e-01	 1.057371e+01
0	 1.925926e+00	 2.962963e-01	 1.124618e+01
0	 1.925926e+00	 3.703704e-01	 1.184754e+01
0	 2.000000e+00	 0.000000e+00	 1.079409e+01
0	 2.000000e+00	 7.407407e-02	 1.104244e+01
0	 2.000000e+00	 1.481481e-01	 1.133115e+01
0	 2.000000e+00	 2.222222e-01	 1.163268e+01
0	 2.000000e+00	 2.962963e-01	 1.191947e+01
0	 2.000000e+00	 3.703704e-01	 1.216395e+01
0	 2.074074e+00	 0.000000e+00	 1.201008e+01
0	 2.074074e+00	 7.407407e-02	 1.209430e+01
0	 2.074074e+00	 1.481481e-01	 1.216703e+01
0	 2.074074e+00	 2.222222e-01	 1.222767e+01
0	 2.074074e+00	 2.962963e-01	 1.227559e+01
0	 2.074074e+00	 3.703704e-01	 1.231018e+01
0	 2.148148e+00	 0.000000e+00	 1.248731e+01
0	 2.148148e+00	 7.407407e-02	 1.247988e+01
0	 2.148148e+00	 1.481481e-01	 1.244362e+01
0	 2.148148e+00	 2.222222e-01	 1.239097e+01
0	 2.148148e+00	 2.962963e-01	 1.233434e+01
0	 2.148148e+00	 3.703704e-01	 1.228618e+01
0	 2.222222e+00	 0.000000e+00	 1.225152e+01
0	 2.222222e+00	 7.407407e-02	 1.223446e+01
0	 2.222222e+00	 1.481481e-01	 1.219839e+01
0	 2.222222e+00	 2.222222e-01	 1.215490e+01
0	 2.222222e+00	 2.962963e-01	 1.211555e+01
0	 2.222222e+00	 3.703704e-01	 1.209194e+01
0	 1.851852e+00	 3.703704e-01	 1.136099e+01
0	 1.851852e+00	 4.444444e-01	 1.221424e+01
0	 1.851852e+00	 5.185185e-01	 1.274289e+01
0	 1.851852e+00	 5.925926e-01	 1.301374e+01
0	 1.851852e+00	 6.666667e-01	 1.309358e+01
0	 1.851852e+00	 7.407407e-01	 1.304922e+01
0	 1.925926e+00	 3.703704e-01	 1.184754e+01
0	 1.925926e+00	 4.444444e-01	 1.228912e+01
0	 1.925926e+00	 5.185185e-01	 1.255495e+01
0	 1.925926e+00	 5.925926e-01	 1.268571e+01
0	 1.925926e+00	 6.666667e-01	 1.272207e+01
0	 1.925926e+00	 7.407407e-01	 1.270472e+01
0	 2.000000e+00	 3.703704e-01	 1.216395e+01
0	 2.000000e+00	 4.444444e-01	 1.233379e+01
0	 2.000000e+00	 5.185185e-01	 1.242894e+01
0	 2.000000e+00	 5.925926e-01	 1.247028e+01
0	 2.000000e+00	 6.666667e-01	 1.247870e+01
0	 2.000000e+00	 7.407407e-01	 1.247510e+01
0	 2.074074e+00	 3.703704e-01	 1.231018e+01
0	 2.074074e+00	 4.444444e-01	 1.232793e+01
0	 2.074074e+00	 5.185185e-01	 1.233072e+01
0	 2.074074e+00	 5.925926e-01	 1.232595e+01
0	 2.074074e+00	 6.666667e-01	 1.232107e+01
0	 2.074074e+00	 7.407407e-01	 1.232351e+01
0	 2.148148e+00	 3.703704e-01	 1.228618e+01
0	 2.148148e+00	 4.444444e-01	 1.225123e+01
0	 2.148148e+00	 5.185185e-01	 1.222613e+01
0	 2.148148e+00	 5.925926e-01	 1.221120e+01
0	 2.148148e+00	 6.666667e-01	 1.220676e+01
0	 2.148148e+00	 7.407407e-01	 1.221310e+01
0	 2.222222e+00	 3.703704e-01	 1.209194e+01
0	 2.222222e+00	 4.444444e-01	 1.208335e+01
0	 2.222222e+00	 5.185185e-01	 1.208104e+01
0	 2.222222e+00	 5.925926e-01	 1.208453e+01
0	 2.222222e+00	 6.666667e-01	 1.209335e+01
0	 2.222222e+00	 7.407407e-01	 1.210703e+01
0	 1.851852e+00	 7.407407e-01	 1.304922e+01
0	 1.851852e+00	 8.148148e-01	 1.296236e+01
0	 1.851852e+00	 8.888889e-01	 1.287227e+01
0	 1.851852e+00	 9.629630e-01	 1.278210e+01
0	 1.851852e+00	 1.037037e+00	 1.269501e+01
0	 1.851852e+00	 1.111111e+00	 1.261413e+01
0	 1.925926e+00	 7.407407e-01	 1.270472e+01
0	 1.925926e+00	 8.148148e-01	 1.267021e+01
0	 1.925926e+00	 8.888889e-01	 1.262965e+01
0	 1.925926e+00	 9.629630e-01	 1.258554e+01
0	 1.925926e+00	 1.037037e+00	 1.254037e+01
0	 1.925926e+00	 1.111111e+00	 1.249665e+01
0	 2.000000e+00	 7.407407e-01	 1.247510e+01
0	 2.000000e+00	 8.148148e-01	 1.246773e+01
0	 2.000000e+00	 8.888889e-01	 1.245226e+01
0	 2.000000e+00	 9.629630e-01	 1.243068e+01
0	 2.000000e+00	 1.037037e+00	 1.240496e+01
0	 2.000000e+00	 1.111111e+00	 1.237707e+01
0	 2.074074e+00	 7.407407e-01	 1.232351e+01
0	 2.074074e+00	 8.148148e-01	 1.232674e+01
0	 2.074074e+00	 8.888889e-01	 1.232036e+01
0	 2.074074e+00	 9.629630e-01	 1.230596e+01
0	 2.074074e+00	 1.037037e+00	 1.228515e+01
0	 2.074074e+00	 1.111111e+00	 1.225951e+01
0	 2.148148e+00	 7.407407e-01	 1.221310e+01
0	 2.148148e+00	 8.148148e-01	 1.221907e+01
0	 2.148148e+00	 8.888889e-01	 1.221420e+01
0	 2.148148e+00	 9.629630e-01	 1.219984e+01
0	 2.148148e+00	 1.037037e+00	 1.217735e+01
0	 2.148148e+00	 1.111111e+00	 1.214806e+01
0	 2.222222e+00	 7.407407e-01	 1.210703e+01
0	 2.222222e+00	 8.148148e-01	 1.211654e+01
0	 2.222222e+00	 8.888889e-01	 1.211404e+01
0	 2.222222e+00	 9.629630e-01	 1.210077e+01
0	 2.222222e+00	 1.037037e+00	 1.207795e+01
0	 2.222222e+00	 1.111111e+00	 1.204684e+01
0	 1.851852e+00	 1.111111e+00	 1.261413e+01
0	 1.851852e+00	 1.185185e+00	 1.253020e+01
0	 1.851852e+00	 1.259259e+00	 1.243198e+01
0	 1.851852e+00	 1.333333e+00	 1.231966e+01
0	 1.851852e+00	 1.407407e+00	 1.219347e+01
0	 1.851852e+00	 1.481481e+00	 1.205361e+01
0	 1.925926e+00	 1.111111e+00	 1.249665e+01
0	 1.925926e+00	 1.185185e+00	 1.244489e+01
0	 1.925926e+00	 1.259259e+00	 1.237390e+01
0	 1.925926e+00	 1.333333e+00	 1.228353e+01
0	 1.925926e+00	 1.407407e+00	 1.217365e+01
0	 1.925926e+00	 1.481481e+00	 1.204413e+01
0	 2.000000e+00	 1.111111e+00	 1.237707e+01
0	 2.000000e+00	 1.185185e+00	 1.233980e+01
0	 2.000000e+00	 1.259259e+00	 1.228439e+01
0	 2.000000e+00	 1.333333e+00	 1.221048e+01
0	 2.000000e+00	 1.407407e+00	 1.211773e+01
0	 2.000000e+00	 1.481481e+00	 1.200578e+01
0	 2.074074e+00	 1.111111e+00	 1.225951e+01
0	 2.074074e+00	 1.185185e+00	 1.222536e+01
0	 2.074074e+00	 1.259259e+00	 1.217768e+01
0	 2.074074e+00	 1.333333e+00	 1.211604e+01
0	 2.074074e+00	 1.407407e+00	 1.204000e+01
0	 2.074074e+00	 1.481481e+00	 1.194914e+01
0	 2.148148e+00	 1.111111e+00	 1.214806e+01
0	 2.148148e+00	 1.185185e+00	 1.211200e+01
0	 2.148148e+00	 1.259259e+00	 1.206802e+01
0	 2.148148e+00	 1.333333e+00	 1.201574e+01
0	 2.148148e+00	 1.407407e+00	 1.195478e+01
0	 2.148148e+00	 1.481481e+00	 1.188475e+01
0	 2.222222e+00	 1.111111e+00	 1.204684e+01
0	 2.222222e+00	 1.185185e+00	 1.201016e+01
0	 2.222222e+00	 1.259259e+00	 1.196965e+01
0	 2.222222e+00	 1.333333e+00	 1.192512e+01
0	 2.222222e+00	 1.407407e+00	 1.187637e+01
0	 2.222222e+00	 1.481481e+00	 1.182318e+01
0	 1.851852e+00	 1.481481e+00	 1.205361e+01
0	 1.851852e+00	 1.555556e+00	 1.191093e+01
0	 1.851852e+00	 1.629630e+00	 1.177490e+01
0	 1.851852e+00	 1.703704e+00	 1.164368e+01
0	 1.851852e+00	 1.777778e+00	 1.151545e+01
0	 1.851852e+00	 1.851852e+00	 1.138837e+01
0	 1.925926e+00	 1.481481e+00	 1.204413e+01
0	 1.925926e+00	 1.555556e+00	 1.190950e+01
0	 1.925926e+00	 1.629630e+00	 1.178308e+01
0	 1.925926e+00	 1.703704e+00	 1.166290e+01
0	 1.925926e+00	 1.777778e+00	 1.154701e+01
0	 1.925926e+00	 1.851852e+00	 1.143345e+01
0	 2.000000e+00	 1.481481e+00	 1.200578e+01
0	 2.000000e+00	 1.555556e+00	 1.188812e+01
0	 2.000000e+00	 1.629630e+00	 1.177713e+01
0	 2.000000e+00	 1.703704e+00	 1.167089e+01
0	 2.000000e+00	 1.777778e+00	 1.156745e+01
0	 2.000000e+00	 1.851852e+00	 1.146486e+01
0	 2.074074e+00	 1.481481e+00	 1.194914e+01
0	 2.074074e+00	 1.555556e+00	 1.185296e+01
0	 2.074074e+00	 1.629630e+00	 1.176011e+01
0	 2.074074e+00	 1.703704e+00	 1.166879e+01
0	 2.074074e+00	 1.777778e+00	 1.157725e+01
0	 2.074074e+00	 1.851852e+00	 1.148370e+01
0	 2.148148e+00	 1.481481e+00	 1.188475e+01
0	 2.148148e+00	 1.555556e+00	 1.181022e+01
0	 2.148148e+00	 1.629630e+00	 1.173504e+01
0	 2.148148e+00	 1.703704e+00	 1.165775e+01
0	 2.148148e+00	 1.777778e+00	 1.157690e+01
0	 2.148148e+00	 1.851852e+00	 1.149103e+01
0	 2.222222e+00	 1.481481e+00	 1.182318e+01
0	 2.222222e+00	 1.555556e+00	 1.176606e+01
0	 2.222222e+00	 1.629630e+00	 1.170496e+01
0	 2.222222e+00	 1.703704e+00	 1.163890e+01
0	 2.222222e+00	 1.777778e+00	 1.156689e+01
0	 2.222222e+00	 1.851852e+00	 1.148793e+01
0	 1.851852e+00	 1.851852e+00	 1.138837e+01
0	 1.851852e+00	 1.925926e+00	 1.126543e+01
0	 1.851852e+00	 2.000000e+00	 1.114995e+01
0	 1.851852e+00	 2.074074e+00	 1.104057e+01
0	 1.851852e+00	 2.148148e+00	 1.093597e+01
0	 1.851852e+00	 2.222222e+00	 1.083479e+01
0	 1.925926e+00	 1.851852e+00	 1.143345e+01
0	 1.925926e+00	 1.925926e+00	 1.132257e+01
0	 1.925926e+00	 2.000000e+00	 1.121562e+01
0	 1.925926e+00	 2.074074e+00	 1.111196e+01
0	 1.925926e+00	 2.148148e+00	 1.101094e+01
0	 1.925926e+00	 2.222222e+00	 1.091191e+01
0	 2.000000e+00	 1.851852e+00	 1.146486e+01
0	 2.000000e+00	 1.925926e+00	 1.136311e+01
0	 2.000000e+00	 2.000000e+00	 1.126333e+01
0	 2.000000e+00	 2.074074e+00	 1.116533e+01
0	 2.000000e+00	 2.148148e+00	 1.106890e+01
0	 2.000000e+00	 2.222222e+00	 1.097385e+01
0	 2.074074e+00	 1.851852e+00	 1.148370e+01
0	 2.074074e+00	 1.925926e+00	 1.138916e+01
0	 2.074074e+00	 2.000000e+00	 1.129582e+01
0	 2.074074e+00	 2.074074e+00	 1.120369e+01
0	 2.074074e+00	 2.148148e+00	 1.111275e+01
0	 2.074074e+00	 2.222222e+00	 1.102302e+01
0	 2.148148e+00	 1.851852e+00	 1.149103e+01
0	 2.148148e+00	 1.925926e+00	 1.140281e+01
0	 2.148148e+00	 2.000000e+00	 1.131583e+01
0	 2.148148e+00	 2.074074e+00	 1.123005e+01
0	 2.148148e+00	 2.148148e+00	 1.114541e+01
0	 2.148148e+00	 2.222222e+00	 1.106186e+01
0	 2.222222e+00	 1.851852e+00	 1.148793e+01
0	 2.222222e+00	 1.925926e+00	 1.140615e+01
0	 2.222222e+00	 2.000000e+00	 1.132610e+01
0	 2.222222e+00	 2.074074e+00	 1.124742e+01
0	 2.222222e+00	 2.148148e+00	 1.116977e+01
0	 2.222222e+00	 2.222222e+00	 1.109279e+01
0	 1.851852e+00	 2.222222e+00	 1.083479e+01
0	 1.851852e+00	 2.296296e+00	 1.073787e+01
0	 1.851852e+00	 2.370370e+00	 1.064700e+01
0	 1.851852e+00	 2.444444e+00	 1.056221e+01
0	 1.851852e+00	 2.518519e+00	 1.048359e+01
0	 1.851852e+00	 2.592593e+00	 1.041117e+01
0	 1.925926e+00	 2.222222e+00	 1.091191e+01
0	 1.925926e+00	 2.296296e+00	 1.081704e+01
0	 1.925926e+00	 2.370370e+00	 1.072862e+01
0	 1.925926e+00	 2.444444e+00	 1.064622e+01
0	 1.925926e+00	 2.518519e+00	 1.056943e+01
0	 1.925926e+00	 2.592593e+00	 1.049781e+01
0	 2.000000e+00	 2.222222e+00	 1.097385e+01
0	 2.000000e+00	 2.296296e+00	 1.088279e+01
0	 2.000000e+00	 2.370370e+00	 1.079796e+01
0	 2.000000e+00	 2.444444e+00	 1.071863e+01
0	 2.000000e+00	 2.518519e+00	 1.064405e+01
0	 2.000000e+00	 2.592593e+00	 1.057351e+01
0	 2.074074e+00	 2.222222e+00	 1.102302e+01
0	 2.074074e+00	 2.296296e+00	 1.093695e+01
0	 2.074074e+00	 2.370370e+00	 1.085639e+01
0	 2.074074e+00	 2.444444e+00	 1.078048e+01
0	 2.074074e+00	 2.518519e+00	 1.070836e+01
0	 2.074074e+00	 2.592593e+00	 1.063915e+01
0	 2.148148e+00	 2.222222e+00	 1.106186e+01
0	 2.148148e+00	 2.296296e+00	 1.098135e+01
0	 2.148148e+00	 2.370370e+00	 1.090529e+01
0	 2.148148e+00	 2.444444e+00	 1.083286e+01
0	 2.148148e+00	 2.518519e+00	 1.076323e+01
0	 2.148148e+00	 2.592593e+00	 1.069558e+01
0	 2.222222e+00	 2.222222e+00	 1.109279e+01
0	 2.222222e+00	 2.296296e+00	 1.101782e+01
0	 2.222222e+00	 2.370370e+00	 1.094604e+01
0	 2.222222e+00	 2.444444e+00	 1.087683e+01
0	 2.222222e+00	 2.518519e+00	 1.080958e+01
0	 2.222222e+00	 2.592593e+00	 1.074370e+01
0	 1.851852e+00	 2.592593e+00	 1.041117e+01
0	 1.851852e+00	 2.666667e+00	 1.034456e+01
0	 1.851852e+00	 2.740741e+00	 1.028308e+01
0	 1.851852e+00	 2.814815e+00	 1.022644e+01
0	 1.851852e+00	 2.888889e+00	 1.017433e+01
0	 1.851852e+00	 2.962963e+00	 1.012646e+01
0	 1.925926e+00	 2.592593e+00	 1.049781e+01
0	 1.925926e+00	 2.666667e+00	 1.043088e+01
0	 1.925926e+00	 2.740741e+00	 1.036836e+01
0	 1.925926e+00	 2.814815e+00	 1.031019e+01
0	 1.925926e+00	 2.888889e+00	 1.025629e+01
0	 1.925926e+00	 2.962963e+00	 1.020656e+01
0	 2.000000e+00	 2.592593e+00	 1.057351e+01
0	 2.000000e+00	 2.666667e+00	 1.050670e+01
0	 2.000000e+00	 2.740741e+00	 1.044383e+01
0	 2.000000e+00	 2.814815e+00	 1.038498e+01
0	 2.000000e+00	 2.888889e+00	 1.033018e+01
0	 2.000000e+00	 2.962963e+00	 1.027950e+01
0	 2.074074e+00	 2.592593e+00	 1.063915e+01
0	 2.074074e+00	 2.666667e+00	 1.057291e+01
0	 2.074074e+00	 2.740741e+00	 1.051035e+01
0	 2.074074e+00	 2.814815e+00	 1.045158e+01
0	 2.074074e+00	 2.888889e+00	 1.039669e+01
0	 2.074074e+00	 2.962963e+00	 1.034578e+01
0	 2.148148e+00	 2.592593e+00	 1.069558e+01
0	 2.148148e+00	 2.666667e+00	 1.063041e+01
0	 2.148148e+00	 2.740741e+00	 1.056879e+01
0	 2.148148e+00	 2.814815e+00	 1.051080e+01
0	 2.148148e+00	 2.888889e+00	 1.045648e+01
0	 2.148148e+00	 2.962963e+00	 1.040591e+01
0	 2.222222e+00	 2.592593e+00	 1.074370e+01
0	 2.222222e+00	 2.666667e+00	 1.068008e+01
0	 2.222222e+00	 2.740741e+00	 1.062001e+01
0	 2.222222e+00	 2.814815e+00	 1.056342e+01
0	 2.222222e+00	 2.888889e+00	 1.051024e+01
0	 2.222222e+00	 2.962963e+00	 1.046038e+01
0	 1.851852e+00	 2.962963e+00	 1.012646e+01
0	 1.851852e+00	 3.037037e+00	 1.008232e+01
0	 1.851852e+00	 3.111111e+00	 1.004177e+01
0	 1.851852e+00	 3.185185e+00	 1.000499e+01
0	 1.851852e+00	 3.259259e+00	 9.972159e+00
0	 1.851852e+00	 3.333333e+00	 9.943468e+00
0	 1.925926e+00	 2.962963e+00	 1.020656e+01
0	 1.925926e+00	 3.037037e+00	 1.016075e+01
0	 1.925926e+00	 3.111111e+00	 1.011863e+01
0	 1.925926e+00	 3.185185e+00	 1.008023e+01
0	 1.925926e+00	 3.259259e+00	 1.004558e+01
0	 1.925926e+00	 3.333333e+00	 1.001470e+01
0	 2.000000e+00	 2.962963e+00	 1.027950e+01
0	 2.000000e+00	 3.037037e+00	 1.023275e+01
0	 2.000000e+00	 3.111111e+00	 1.018964e+01
0	 2.000000e+00	 3.185185e+00	 1.015007e+01
0	 2.000000e+00	 3.259259e+00	 1.011396e+01
0	 2.000000e+00	 3.333333e+00	 1.008124e+01
0	 2.074074e+00	 2.962963e+00	 1.034578e+01
0	 2.074074e+00	 3.037037e+00	 1.029867e+01
0	 2.074074e+00	 3.111111e+00	 1.025499e+01
0	 2.074074e+00	 3.185185e+00	 1.021460e+01
0	 2.074074e+00	 3.259259e+00	 1.017736e+01
0	 2.074074e+00	 3.333333e+00	 1.014311e+01
0	 2.148148e+00	 2.962963e+00	 1.040591e+01
0	 2.148148e+00	 3.037037e+00	 1.035884e+01
0	 2.148148e+00	 3.111111e+00	 1.031490e+01
0	 2.148148e+00	 3.185185e+00	 1.027394e+01
0	 2.148148e+00	 3.259259e+00	 1.023581e+01
0	 2.148148e+00	 3.333333e+00	 1.020036e+01
0	 2.222222e+00	 2.962963e+00	 1.046038e+01
0	 2.222222e+00	 3.037037e+00	 1.041358e+01
0	 2.222222e+00	 3.111111e+00	 1.036955e+01
0	 2.222222e+00	 3.185185e+00	 1.032819e+01
0	 2.222222e+00	 3.259259e+00	 1.028938e+01
0	 2.222222e+00	 3.333333e+00	 1.025304e+01
0	 1.851852e+00	 3.333333e+00	 9.943468e+00
0	 1.851852e+00	 3.407407e+00	 9.918035e+00
0	 1.851852e+00	 3.481481e+00	 9.894857e+00
0	 1.851852e+00	 3.555556e+00	 9.873935e+00
0	 1.851852e+00	 3.629630e+00	 9.855272e+00
0	 1.851852e+00	 3.703704e+00	 9.838868e+00
0	 1.925926e+00	 3.333333e+00	 1.001470e+01
0	 1.925926e+00	 3.407407e+00	 9.986808e+00
0	 1.925926e+00	 3.481481e+00	 9.961142e+00
0	 1.925926e+00	 3.555556e+00	 9.937759e+00
0	 1.925926e+00	 3.629630e+00	 9.916719e+00
0	 1.925926e+00	 3.703704e+00	 9.898078e+00
0	 2.000000e+00	 3.333333e+00	 1.008124e+01
0	 2.000000e+00	 3.407407e+00	 1.005125e+01
0	 2.000000e+00	 3.481481e+00	 1.002350e+01
0	 2.000000e+00	 3.555556e+00	 9.998072e+00
0	 2.000000e+00	 3.629630e+00	 9.975048e+00
0	 2.000000e+00	 3.703704e+00	 9.954519e+00
0	 2.074074e+00	 3.333333e+00	 1.014311e+01
0	 2.074074e+00	 3.407407e+00	 1.011141e+01
0	 2.074074e+00	 3.481481e+00	 1.008198e+01
0	 2.074074e+00	 3.555556e+00	 1.005489e+01
0	 2.074074e+00	 3.629630e+00	 1.003024e+01
0	 2.074074e+00	 3.703704e+00	 1.000814e+01
0	 2.148148e+00	 3.333333e+00	 1.020036e+01
0	 2.148148e+00	 3.407407e+00	 1.016733e+01
0	 2.148148e+00	 3.481481e+00	 1.013659e+01
0	 2.148148e+00	 3.555556e+00	 1.010822e+01
0	 2.148148e+00	 3.629630e+00	 1.008229e+01
0	 2.148148e+00	 3.703704e+00	 1.005887e+01
0	 2.222222e+00	 3.333333e+00	 1.025304e+01
0	 2.222222e+00	 3.407407e+00	 1.021905e+01
0	 2.222222e+00	 3.481481e+00	 1.018738e+01
0	 2.222222e+00	 3.555556e+00	 1.015808e+01
0	 2.222222e+00	 3.629630e+00	 1.013116e+01
0	 2.222222e+00	 3.703704e+00	 1.010667e+01
0	 1.851852e+00	 3.703704e+00	 9.838868e+00
0	 1.851852e+00	 3.777778e+00	 9.824356e+00
0	 1.851852e+00	 3.851852e+00	 9.811432e+00
0	 1.851852e+00	 3.925926e+00	 9.800190e+00
0	 1.851852e+00	 4.000000e+00	 9.790722e+00
0	 1.851852e+00	 4.074074e+00	 9.783124e+00
0	 1.925926e+00	 3.703704e+00	 9.898078e+00
0	 1.925926e+00	 3.777778e+00	 9.881467e+00
0	 1.925926e+00	 3.851852e+00	 9.866518e+00
0	 1.925926e+00	 3.925926e+00	 9.853284e+00
0	 1.925926e+00	 4.000000e+00	 9.841823e+00
0	 1.925926e+00	 4.074074e+00	 9.832190e+00
0	 2.000000e+00	 3.703704e+00	 9.954519e+00
0	 2.000000e+00	 3.777778e+00	 9.936101e+00
0	 2.000000e+00	 3.851852e+00	 9.919368e+00
0	 2.000000e+00	 3.925926e+00	 9.904350e+00
0	 2.000000e+00	 4.000000e+00	 9.891074e+00
0	 2.000000e+00	 4.074074e+00	 9.879571e+00
0	 2.074074e+00	 3.703704e+00	 1.000814e+01
0	 2.074074e+00	 3.777778e+00	 9.988163e+00
0	 2.074074e+00	 3.851852e+00	 9.969860e+00
0	 2.074074e+00	 3.925926e+00	 9.953243e+00
0	 2.074074e+00	 4.000000e+00	 9.938325e+00
0	 2.074074e+00	 4.074074e+00	 9.925122e+00
0	 2.148148e+00	 3.703704e+00	 1.005887e+01
0	 2.148148e+00	 3.777778e+00	 1.003755e+01
0	 2.148148e+00	 3.851852e+00	 1.001787e+01
0	 2.148148e+00	 3.925926e+00	 9.999821e+00
0	 2.148148e+00	 4.000000e+00	 9.983428e+00
0	 2.148148e+00	 4.074074e+00	 9.968699e+00
0	 2.222222e+00	 3.703704e+00	 1.010667e+01
0	 2.222222e+00	 3.777778e+00	 1.008418e+01
0	 2.222222e+00	 3.851852e+00	 1.006327e+01
0	 2.222222e+00	 3.925926e+00	 1.004394e+01
0	 2.222222e+00	 4.000000e+00	 1.002623e+01
0	 2.222222e+00	 4.074074e+00	 1.001015e+01
0	 1.851852e+00	 4.074074e+00	 9.783124e+00
0	 1.851852e+00	 4.148148e+00	 9.776926e+00
0	 1.851852e+00	 4.222222e+00	 9.771620e+00
0	 1.851852e+00	 4.296296e+00	 9.767243e+00
0	 1.851852e+00	 4.370370e+00	 9.763832e+00
0	 1.851852e+00	 4.444444e+00	 9.761425e+00
0	 1.925926e+00	 4.074074e+00	 9.832190e+00
0	 1.925926e+00	 4.148148e+00	 9.823953e+00
0	 1.925926e+00	 4.222222e+00	 9.816676e+00
0	 1.925926e+00	 4.296296e+00	 9.810407e+00
0	 1.925926e+00	 4.370370e+00	 9.805195e+00
0	 1.925926e+00	 4.444444e+00	 9.801086e+00
0	 2.000000e+00	 4.074074e+00	 9.879571e+00
0	 2.000000e+00	 4.148148e+00	 9.869460e+00
0	 2.000000e+00	 4.222222e+00	 9.860376e+00
0	 2.000000e+00	 4.296296e+00	 9.852372e+00
0	 2.000000e+00	 4.370370e+00	 9.845502e+00
0	 2.000000e+00	 4.444444e+00	 9.839820e+00
0	 2.074074e+00	 4.074074e+00	 9.925122e+00
0	 2.074074e+00	 4.148148e+00	 9.913309e+00
0	 2.074074e+00	 4.222222e+00	 9.902586e+00
0	 2.074074e+00	 4.296296e+00	 9.893006e+00
0	 2.074074e+00	 4.370370e+00	 9.884623e+00
0	 2.074074e+00	 4.444444e+00	 9.877489e+00
0	 2.148148e+00	 4.074074e+00	 9.968699e+00
0	 2.148148e+00	 4.148148e+00	 9.955363e+00
0	 2.148148e+00	 4.222222e+00	 9.943175e+00
0	 2.148148e+00	 4.296296e+00	 9.932181e+00
0	 2.148148e+00	 4.370370e+00	 9.922426e+00
0	 2.148148e+00	 4.444444e+00	 9.913959e+00
0	 2.222222e+00	 4.074074e+00	 1.001015e+01
0	 2.222222e+00	 4.148148e+00	 9.995485e+00
0	 2.222222e+00	 4.222222e+00	 9.982010e+00
0	 2.222222e+00	 4.296296e+00	 9.969764e+00
0	 2.222222e+00	 4.370370e+00	 9.958780e+00
0	 2.222222e+00	 4.444444e+00	 9.949093e+00
0	 1.851852e+00	 4.444444e+00	 9.761425e+00
0	 1.851852e+00	 4.518519e+00	 9.759820e+00
0	 1.851852e+00	 4.592593e+00	 9.758818e+00
0	 1.851852e+00	 4.666667e+00	 9.758462e+00
0	 1.851852e+00	 4.740741e+00	 9.758791e+00
0	 1.851852e+00	 4.814815e+00	 9.759847e+00
0	 1.925926e+00	 4.444444e+00	 9.801086e+00
0	 1.925926e+00	 4.518519e+00	 9.797866e+00
0	 1.925926e+00	 4.592593e+00	 9.795306e+00
0	 1.925926e+00	 4.666667e+00	 9.793441e+00
0	 1.925926e+00	 4.740741e+00	 9.792306e+00
0	 1.925926e+00	 4.814815e+00	 9.791936e+00
0	 2.000000e+00	 4.444444e+00	 9.839820e+00
0	 2.000000e+00	 4.518519e+00	 9.835091e+00
0	 2.000000e+00	 4.592593e+00	 9.831067e+00
0	 2.000000e+00	 4.666667e+00	 9.827778e+00
0	 2.000000e+00	 4.740741e+00	 9.825253e+00
0	 2.000000e+00	 4.814815e+00	 9.823523e+00
0	 2.074074e+00	 4.444444e+00	 9.877489e+00
0	 2.074074e+00	 4.518519e+00	 9.871357e+00
0	 2.074074e+00	 4.592593e+00	 9.865962e+00
0	 2.074074e+00	 4.666667e+00	 9.861332e+00
0	 2.074074e+00	 4.740741e+00	 9.857494e+00
0	 2.074074e+00	 4.814815e+00	 9.854477e+00
0	 2.148148e+00	 4.444444e+00	 9.913959e+00
0	 2.148148e+00	 4.518519e+00	 9.906522e+00
0	 2.148148e+00	 4.592593e+00	 9.899848e+00
0	 2.148148e+00	 4.666667e+00	 9.893961e+00
0	 2.148148e+00	 4.740741e+00	 9.888891e+00
0	 2.148148e+00	 4.814815e+00	 9.884663e+00
0	 2.222222e+00	 4.444444e+00	 9.949093e+00
0	 2.222222e+00	 4.518519e+00	 9.940448e+00
0	 2.222222e+00	 4.592593e+00	 9.932582e+00
0	 2.222222e+00	 4.666667e+00	 9.925525e+00
0	 2.222222e+00	 4.740741e+00	 9.919305e+00
0	 2.222222e+00	 4.814815e+00	 9.913950e+00
0	 1.851852e+00	 4.814815e+00	 9.759847e+00
0	 1.851852e+00	 4.888889e+00	 9.761430e+00
0	 1.851852e+00	 4.962963e+00	 9.763330e+00
0	 1.851852e+00	 5.037037e+00	 9.765573e+00
0	 1.851852e+00	 5.111111e+00	 9.768183e+00
0	 1.851852e+00	 5.185185e+00	 9.771186e+00
0	 1.925926e+00	 4.814815e+00	 9.791936e+00
0	 1.925926e+00	 4.888889e+00	 9.792137e+00
0	 1.925926e+00	 4.962963e+00	 9.792709e+00
0	 1.925926e+00	 5.037037e+00	 9.793681e+00
0	 1.925926e+00	 5.111111e+00	 9.795078e+00
0	 1.925926e+00	 5.185185e+00	 9.796928e+00
0	 2.000000e+00	 4.814815e+00	 9.823523e+00
0	 2.000000e+00	 4.888889e+00	 9.822403e+00
0	 2.000000e+00	 4.962963e+00	 9.821707e+00
0	 2.000000e+00	 5.037037e+00	 9.821462e+00
0	 2.000000e+00	 5.111111e+00	 9.821696e+00
0	 2.000000e+00	 5.185185e+00	 9.822437e+00
0	 2.074074e+00	 4.814815e+00	 9.854477e+00
0	 2.074074e+00	 4.888889e+00	 9.852104e+00
0	 2.074074e+00	 4.962963e+00	 9.850204e+00
0	 2.074074e+00	 5.037037e+00	 9.848802e+00
0	 2.074074e+00	 5.111111e+00	 9.847926e+00
0	 2.074074e+00	 5.185185e+00	 9.847603e+00
0	 2.148148e+00	 4.814815e+00	 9.884663e+00
0	 2.148148e+00	 4.888889e+00	 9.881114e+00
0	 2.148148e+00	 4.962963e+00	 9.878080e+00
0	 2.148148e+00	 5.037037e+00	 9.875585e+00
0	 2.148148e+00	 5.111111e+00	 9.873657e+00
0	 2.148148e+00	 5.185185e+00	 9.872320e+00
0	 2.222222e+00	 4.814815e+00	 9.913950e+00
0	 2.222222e+00	 4.888889e+00	 9.909306e+00
0	 2.222222e+00	 4.962963e+00	 9.905214e+00
0	 2.222222e+00	 5.037037e+00	 9.901697e+00
0	 2.222222e+00	 5.111111e+00	 9.898778e+00
0	 2.222222e+00	 5.185185e+00	 9.896479e+00
0	 1.851852e+00	 5.185185e+00	 9.771186e+00
0	 1.851852e+00	 5.259259e+00	 9.774481e+00
0	 1.851852e+00	 5.333333e+00	 9.777964e+00
0	 1.851852e+00	 5.407407e+00	 9.781654e+00
0	 1.851852e+00	 5.481481e+00	 9.785569e+00
0	 1.851852e+00	 5.555556e+00	 9.789728e+00
0	 1.925926e+00	 5.185185e+00	 9.796928e+00
0	 1.925926e+00	 5.259259e+00	 9.799122e+00
0	 1.925926e+00	 5.333333e+00	 9.801544e+00
0	 1.925926e+00	 5.407407e+00	 9.804212e+00
0	 1.925926e+00	 5.481481e+00	 9.807146e+00
0	 1.925926e+00	 5.555556e+00	 9.810362e+00
0	 2.000000e+00	 5.185185e+00	 9.822437e+00
0	 2.000000e+00	 5.259259e+00	 9.823566e+00
0	 2.000000e+00	 5.333333e+00	 9.824960e+00
0	 2.000000e+00	 5.407407e+00	 9.826638e+00
0	 2.000000e+00	 5.481481e+00	 9.828616e+00
0	 2.000000e+00	 5.555556e+00	 9.830914e+00
0	 2.074074e+00	 5.185185e+00	 9.847603e+00
0	 2.074074e+00	 5.259259e+00	 9.847709e+00
0	 2.074074e+00	 5.333333e+00	 9.848112e+00
0	 2.074074e+00	 5.407407e+00	 9.848832e+00
0	 2.074074e+00	 5.481481e+00	 9.849886e+00
0	 2.074074e+00	 5.555556e+00	 9.851293e+00
0	 2.148148e+00	 5.185185e+00	 9.872320e+00
0	 2.148148e+00	 5.259259e+00	 9.871445e+00
0	 2.148148e+00	 5.333333e+00	 9.870898e+00
0	 2.148148e+00	 5.407407e+00	 9.870698e+00
0	 2.148148e+00	 5.481481e+00	 9.870862e+00
0	 2.148148e+00	 5.555556e+00	 9.871410e+00
0	 2.222222e+00	 5.185185e+00	 9.896479e+00
0	 2.222222e+00	 5.259259e+00	 9.894670e+00
0	 2.222222e+00	 5.333333e+00	 9.893216e+00
0	 2.222222e+00	 5.407407e+00	 9.892136e+00
0	 2.222222e+00	 5.481481e+00	 9.891449e+00
0	 2.222222e+00	 5.555556e+00	 9.891173e+00
0	 1.851852e+00	 5.555556e+00	 9.789728e+00
0	 1.851852e+00	 5.629630e+00	 9.794050e+00
0	 1.851852e+00	 5.703704e+00	 9.798450e+00
0	 1.851852e+00	 5.777778e+00	 9.802943e+00
0	 1.851852e+00	 5.851852e+00	 9.807542e+00
0	 1.851852e+00	 5.925926e+00	 9.812260e+00
0	 1.925926e+00	 5.555556e+00	 9.810362e+00
0	 1.925926e+00	 5.629630e+00	 9.813779e+00
0	 1.925926e+00	 5.703704e+00	 9.817309e+00
0	 1.925926e+00	 5.777778e+00	 9.820967e+00
0	 1.925926e+00	 5.851852e+00	 9.824767e+00
0	 1.925926e+00	 5.925926e+00	 9.828723e+00
0	 2.000000e+00	 5.555556e+00	 9.830914e+00
0	 2.000000e+00	 5.629630e+00	 9.833447e+00
0	 2.000000e+00	 5.703704e+00	 9.836126e+00
0	 2.000000e+00	 5.777778e+00	 9.838967e+00
0	 2.000000e+00	 5.851852e+00	 9.841983e+00
0	 2.000000e+00	 5.925926e+00	 9.845189e+00
0	 2.074074e+00	 5.555556e+00	 9.851293e+00
0	 2.074074e+00	 5.629630e+00	 9.852967e+00
0	 2.074074e+00	 5.703704e+00	 9.854819e+00
0	 2.074074e+00	 5.777778e+00	 9.856863e+00
0	 2.074074e+00	 5.851852e+00	 9.859114e+00
0	 2.074074e+00	 5.925926e+00	 9.861585e+00
0	 2.148148e+00	 5.555556e+00	 9.871410e+00
0	 2.148148e+00	 5.629630e+00	 9.872254e+00
0	 2.148148e+00	 5.703704e+00	 9.873305e+00
0	 2.148148e+00	 5.777778e+00	 9.874577e+00
0	 2.148148e+00	 5.851852e+00	 9.876085e+00
0	 2.148148e+00	 5.925926e+00	 9.877842e+00
0	 2.222222e+00	 5.555556e+00	 9.891173e+00
0	 2.222222e+00	 5.629630e+00	 9.891221e+00
0	 2.222222e+00	 5.703704e+00	 9.891503e+00
0	 2.222222e+00	 5.777778e+00	 9.892032e+00
0	 2.222222e+00	 5.851852e+00	 9.892822e+00
0	 2.222222e+00	 5.925926e+00	 9.893887e+00
0	 1.851852e+00	 5.925926e+00	 9.812260e+00
0	 1.851852e+00	 6.000000e+00	 9.817051e+00
0	 1.851852e+00	 6.074074e+00	 9.821863e+00
0	 1.851852e+00	 6.148148e+00	 9.826705e+00
0	 1.851852e+00	 6.222222e+00	 9.831588e+00
0	 1.851852e+00	 6.296296e+00	 9.836520e+00
0	 1.925926e+00	 5.925926e+00	 9.828723e+00
0	 1.925926e+00	 6.000000e+00	 9.832782e+00
0	 1.925926e+00	 6.074074e+00	 9.836889e+00
0	 1.925926e+00	 6.148148e+00	 9.841053e+00
0	 1.925926e+00	 6.222222e+00	 9.845285e+00
0	 1.925926e+00	 6.296296e+00	 9.849594e+00
0	 2.000000e+00	 5.925926e+00	 9.845189e+00
0	 2.000000e+00	 6.000000e+00	 9.848527e+00
0	 2.000000e+00	 6.074074e+00	 9.851938e+00
0	 2.000000e+00	 6.148148e+00	 9.855433e+00
0	 2.000000e+00	 6.222222e+00	 9.859021e+00
0	 2.000000e+00	 6.296296e+00	 9.862712e+00
0	 2.074074e+00	 5.925926e+00	 9.861585e+00
0	 2.074074e+00	 6.000000e+00	 9.864217e+00
0	 2.074074e+00	 6.074074e+00	 9.866946e+00
0	 2.074074e+00	 6.148148e+00	 9.869782e+00
0	 2.074074e+00	 6.222222e+00	 9.872737e+00
0	 2.074074e+00	 6.296296e+00	 9.875820e+00
0	 2.148148e+00	 5.925926e+00	 9.877842e+00
0	 2.148148e+00	 6.000000e+00	 9.879784e+00
0	 2.148148e+00	 6.074074e+00	 9.881846e+00
0	 2.148148e+00	 6.148148e+00	 9.884039e+00
0	 2.148148e+00	 6.222222e+00	 9.886374e+00
0	 2.148148e+00	 6.296296e+00	 9.888861e+00
0	 2.222222e+00	 5.925926e+00	 9.893887e+00
0	 2.222222e+00	 6.000000e+00	 9.895160e+00
0	 2.222222e+00	 6.074074e+00	 9.896575e+00
0	 2.222222e+00	 6.148148e+00	 9.898142e+00
0	 2.222222e+00	 6.222222e+00	 9.899873e+00
0	 2.222222e+00	 6.296296e+00	 9.901779e+00
0	 1.851852e+00	 6.296296e+00	 9.836520e+00
0	 1.851852e+00	 6.370370e+00	 9.841468e+00
0	 1.851852e+00	 6.444444e+00	 9.846395e+00
0	 1.851852e+00	 6.518519e+00	 9.851309e+00
0	 1.851852e+00	 6.592593e+00	 9.856218e+00
0	 1.851852e+00	 6.666667e+00	 9.861129e+00
0	 1.925926e+00	 6.296296e+00	 9.849594e+00
0	 1.925926e+00	 6.370370e+00	 9.853942e+00
0	 1.925926e+00	 6.444444e+00	 9.858292e+00
0	 1.925926e+00	 6.518519e+00	 9.862651e+00
0	 1.925926e+00	 6.592593e+00	 9.867027e+00
0	 1.925926e+00	 6.666667e+00	 9.871427e+00
0	 2.000000e+00	 6.296296e+00	 9.862712e+00
0	 2.000000e+00	 6.370370e+00	 9.866468e+00
0	 2.000000e+00	 6.444444e+00	 9.870245e+00
0	 2.000000e+00	 6.518519e+00	 9.874052e+00
0	 2.000000e+00	 6.592593e+00	 9.877897e+00
0	 2.000000e+00	 6.666667e+00	 9.881789e+00
0	 2.074074e+00	 6.296296e+00	 9.875820e+00
0	 2.074074e+00	 6.370370e+00	 9.878990e+00
0	 2.074074e+00	 6.444444e+00	 9.882202e+00
0	 2.074074e+00	 6.518519e+00	 9.885464e+00
0	 2.074074e+00	 6.592593e+00	 9.888784e+00
0	 2.074074e+00	 6.666667e+00	 9.892170e+00
0	 2.148148e+00	 6.296296e+00	 9.888861e+00
0	 2.148148e+00	 6.370370e+00	 9.891456e+00
0	 2.148148e+00	 6.444444e+00	 9.894112e+00
0	 2.148148e+00	 6.518519e+00	 9.896837e+00
0	 2.148148e+00	 6.592593e+00	 9.899640e+00
0	 2.148148e+00	 6.666667e+00	 9.902528e+00
0	 2.222222e+00	 6.296296e+00	 9.901779e+00
0	 2.222222e+00	 6.370370e+00	 9.903812e+00
0	 2.222222e+00	 6.444444e+00	 9.905924e+00
0	 2.222222e+00	 6.518519e+00	 9.908124e+00
0	 2.222222e+00	 6.592593e+00	 9.910419e+00
0	 2.222222e+00	 6.666667e+00	 9.912817e+00
0	 1.851852e+00	 6.666667e+00	 9.861129e+00
0	 1.851852e+00	 6.740741e+00	 9.866018e+00
0	 1.851852e+00	 6.814815e+00	 9.870861e+00
0	 1.851852e+00	 6.888889e+00	 9.875663e+00
0	 1.851852e+00	 6.962963e+00	 9.880430e+00
0	 1.851852e+00	 7.037037e+00	 9.885168e+00
0	 1.925926e+00	 6.666667e+00	 9.871427e+00
0	 1.925926e+00	 6.740741e+00	 9.875825e+00
0	 1.925926e+00	 6.814815e+00	 9.880193e+00
0	 1.925926e+00	 6.888889e+00	 9.884538e+00
0	 1.925926e+00	 6.962963e+00	 9.888865e+00
0	 1.925926e+00	 7.037037e+00	 9.893181e+00
0	 2.000000e+00	 6.666667e+00	 9.881789e+00
0	 2.000000e+00	 6.740741e+00	 9.885697e+00
0	 2.000000e+00	 6.814815e+00	 9.889591e+00
0	 2.000000e+00	 6.888889e+00	 9.893479e+00
0	 2.000000e+00	 6.962963e+00	 9.897367e+00
0	 2.000000e+00	 7.037037e+00	 9.901260e+00
0	 2.074074e+00	 6.666667e+00	 9.892170e+00
0	 2.074074e+00	 6.740741e+00	 9.895592e+00
0	 2.074074e+00	 6.814815e+00	 9.899016e+00
0	 2.074074e+00	 6.888889e+00	 9.902450e+00
0	 2.074074e+00	 6.962963e+00	 9.905900e+00
0	 2.074074e+00	 7.037037e+00	 9.909373e+00
0	 2.148148e+00	 6.666667e+00	 9.902528e+00
0	 2.148148e+00	 6.740741e+00	 9.905469e+00
0	 2.148148e+00	 6.814815e+00	 9.908428e+00
0	 2.148148e+00	 6.888889e+00	 9.911413e+00
0	 2.148148e+00	 6.962963e+00	 9.914430e+00
0	 2.148148e+00	 7.037037e+00	 9.917486e+00
0	 2.222222e+00	 6.666667e+00	 9.912817e+00
0	 2.222222e+00	 6.740741e+00	 9.915286e+00
0	 2.222222e+00	 6.814815e+00	 9.917788e+00
0	 2.222222e+00	 6.888889e+00	 9.920330e+00
0	 2.222222e+00	 6.962963e+00	 9.922920e+00
0	 2.222222e+00	 7.037037e+00	 9.925564e+00
0	 1.851852e+00	 7.037037e+00	 9.885168e+00
0	 1.851852e+00	 7.111111e+00	 9.889859e+00
0	 1.851852e+00	 7.185185e+00	 9.894484e+00
0	 1.851852e+00	 7.259259e+00	 9.899049e+00
0	 1.851852e+00	 7.333333e+00	 9.903559e+00
0	 1.851852e+00	 7.407407e+00	 9.908020e+00
0	 1.925926e+00	 7.037037e+00	 9.893181e+00
0	 1.925926e+00	 7.111111e+00	 9.897465e+00
0	 1.925926e+00	 7.185185e+00	 9.901698e+00
0	 1.925926e+00	 7.259259e+00	 9.905884e+00
0	 1.925926e+00	 7.333333e+00	 9.910030e+00
0	 1.925926e+00	 7.407407e+00	 9.914139e+00
0	 2.000000e+00	 7.037037e+00	 9.901260e+00
0	 2.000000e+00	 7.111111e+00	 9.905138e+00
0	 2.000000e+00	 7.185185e+00	 9.908978e+00
0	 2.000000e+00	 7.259259e+00	 9.912784e+00
0	 2.000000e+00	 7.333333e+00	 9.916564e+00
0	 2.000000e+00	 7.407407e+00	 9.920321e+00
0	 2.074074e+00	 7.037037e+00	 9.909373e+00
0	 2.074074e+00	 7.111111e+00	 9.912846e+00
0	 2.074074e+00	 7.185185e+00	 9.916293e+00
0	 2.074074e+00	 7.259259e+00	 9.919720e+00
0	 2.074074e+00	 7.333333e+00	 9.923134e+00
0	 2.074074e+00	 7.407407e+00	 9.926539e+00
0	 2.148148e+00	 7.037037e+00	 9.917486e+00
0	 2.148148e+00	 7.111111e+00	 9.920555e+00
0	 2.148148e+00	 7.185185e+00	 9.923613e+00
0	 2.148148e+00	 7.259259e+00	 9.926664e+00
0	 2.148148e+00	 7.333333e+00	 9.929713e+00
0	 2.148148e+00	 7.407407e+00	 9.932768e+00
0	 2.222222e+00	 7.037037e+00	 9.925564e+00
0	 2.222222e+00	 7.111111e+00	 9.928235e+00
0	 2.222222e+00	 7.185185e+00	 9.930907e+00
0	 2.222222e+00	 7.259259e+00	 9.933585e+00
0	 2.222222e+00	 7.333333e+00	 9.936274e+00
0	 2.222222e+00	 7.407407e+00	 9.938980e+00
0	 1.851852e+00	 7.407407e+00	 9.908020e+00
0	 1.851852e+00	 7.481481e+00	 9.912415e+00
0	 1.851852e+00	 7.555556e+00	 9.916730e+00
0	 1.851852e+00	 7.629630e+00	 9.920970e+00
0	 1.851852e+00	 7.703704e+00	 9.925138e+00
0	 1.851852e+00	 7.777778e+00	 9.929241e+00
0	 1.925926e+00	 7.407407e+00	 9.914139e+00
0	 1.925926e+00	 7.481481e+00	 9.918197e+00
0	 1.925926e+00	 7.555556e+00	 9.922185e+00
0	 1.925926e+00	 7.629630e+00	 9.926109e+00
0	 1.925926e+00	 7.703704e+00	 9.929974e+00
0	 1.925926e+00	 7.777778e+00	 9.933784e+00
0	 2.000000e+00	 7.407407e+00	 9.920321e+00
0	 2.000000e+00	 7.481481e+00	 9.924039e+00
0	 2.000000e+00	 7.555556e+00	 9.927699e+00
0	 2.000000e+00	 7.629630e+00	 9.931306e+00
0	 2.000000e+00	 7.703704e+00	 9.934864e+00
0	 2.000000e+00	 7.777778e+00	 9.938380e+00
0	 2.074074e+00	 7.407407e+00	 9.926539e+00
0	 2.074074e+00	 7.481481e+00	 9.929917e+00
0	 2.074074e+00	 7.555556e+00	 9.933248e+00
0	 2.074074e+00	 7.629630e+00	 9.936537e+00
0	 2.074074e+00	 7.703704e+00	 9.939789e+00
0	 2.074074e+00	 7.777778e+00	 9.943009e+00
0	 2.148148e+00	 7.407407e+00	 9.932768e+00
0	 2.148148e+00	 7.481481e+00	 9.935807e+00
0	 2.148148e+00	 7.555556e+00	 9.938809e+00
0	 2.148148e+00	 7.629630e+00	 9.941781e+00
0	 2.148148e+00	 7.703704e+00	 9.944727e+00
0	 2.148148e+00	 7.777778e+00	 9.947652e+00
0	 2.222222e+00	 7.407407e+00	 9.938980e+00
0	 2.222222e+00	 7.481481e+00	 9.941683e+00
0	 2.222222e+00	 7.555556e+00	 9.944360e+00
0	 2.222222e+00	 7.629630e+00	 9.947016e+00
0	 2.222222e+00	 7.703704e+00	 9.949658e+00
0	 2.222222e+00	 7.777778e+00	 9.952288e+00
0	 1.851852e+00	 7.777778e+00	 9.929241e+00
0	 1.851852e+00	 7.851852e+00	 9.933263e+00
0	 1.851852e+00	 7.925926e+00	 9.937191e+00
0	 1.851852e+00	 8.000000e+00	 9.941030e+00
0	 1.851852e+00	 8.074074e+00	 9.944784e+00
0	 1.851852e+00	 8.148148e+00	 9.948459e+00
0	 1.925926e+00	 7.777778e+00	 9.933784e+00
0	 1.925926e+00	 7.851852e+00	 9.937524e+00
0	 1.925926e+00	 7.925926e+00	 9.941180e+00
0	 1.925926e+00	 8.000000e+00	 9.944756e+00
0	 1.925926e+00	 8.074074e+00	 9.948258e+00
0	 1.925926e+00	 8.148148e+00	 9.951689e+00
0	 2.000000e+00	 7.777778e+00	 9.938380e+00
0	 2.000000e+00	 7.851852e+00	 9.941836e+00
0	 2.000000e+00	 7.925926e+00	 9.945218e+00
0	 2.000000e+00	 8.000000e+00	 9.948529e+00
0	 2.000000e+00	 8.074074e+00	 9.951775e+00
0	 2.000000e+00	 8.148148e+00	 9.954960e+00
0	 2.074074e+00	 7.777778e+00	 9.943009e+00
0	 2.074074e+00	 7.851852e+00	 9.946180e+00
0	 2.074074e+00	 7.925926e+00	 9.949286e+00
0	 2.074074e+00	 8.000000e+00	 9.952332e+00
0	 2.074074e+00	 8.074074e+00	 9.955321e+00
0	 2.074074e+00	 8.148148e+00	 9.958259e+00
0	 2.148148e+00	 7.777778e+00	 9.947652e+00
0	 2.148148e+00	 7.851852e+00	 9.950538e+00
0	 2.148148e+00	 7.925926e+00	 9.953368e+00
0	 2.148148e+00	 8.000000e+00	 9.956147e+00
0	 2.148148e+00	 8.074074e+00	 9.958880e+00
0	 2.148148e+00	 8.148148e+00	 9.961570e+00
0	 2.222222e+00	 7.777778e+00	 9.952288e+00
0	 2.222222e+00	 7.851852e+00	 9.954891e+00
0	 2.222222e+00	 7.925926e+00	 9.957446e+00
0	 2.222222e+00	 8.000000e+00	 9.959960e+00
0	 2.222222e+00	 8.074074e+00	 9.962436e+00
0	 2.222222e+00	 8.148148e+00	 9.964879e+00
0	 1.851852e+00	 8.148148e+00	 9.948459e+00
0	 1.851852e+00	 8.222222e+00	 9.952040e+00
0	 1.851852e+00	 8.296296e+00	 9.955511e+00
0	 1.851852e+00	 8.370370e+00	 9.958879e+00
0	 1.851852e+00	 8.444444e+00	 9.962148e+00
0	 1.851852e+00	 8.518519e+00	 9.965323e+00
0	 1.925926e+00	 8.148148e+00	 9.951689e+00
0	 1.925926e+00	 8.222222e+00	 9.955035e+00
0	 1.925926e+00	 8.296296e+00	 9.958281e+00
0	 1.925926e+00	 8.370370e+00	 9.961431e+00
0	 1.925926e+00	 8.444444e+00	 9.964491e+00
0	 1.925926e+00	 8.518519e+00	 9.967466e+00
0	 2.000000e+00	 8.148148e+00	 9.954960e+00
0	 2.000000e+00	 8.222222e+00	 9.958070e+00
0	 2.000000e+00	 8.296296e+00	 9.961087e+00
0	 2.000000e+00	 8.370370e+00	 9.964018e+00
0	 2.000000e+00	 8.444444e+00	 9.966867e+00
0	 2.000000e+00	 8.518519e+00	 9.969640e+00
0	 2.074074e+00	 8.148148e+00	 9.958259e+00
0	 2.074074e+00	 8.222222e+00	 9.961130e+00
0	 2.074074e+00	 8.296296e+00	 9.963918e+00
0	 2.074074e+00	 8.370370e+00	 9.966628e+00
0	 2.074074e+00	 8.444444e+00	 9.969265e+00
0	 2.074074e+00	 8.518519e+00	 9.971833e+00
0	 2.148148e+00	 8.148148e+00	 9.961570e+00
0	 2.148148e+00	 8.222222e+00	 9.964203e+00
0	 2.148148e+00	 8.296296e+00	 9.966761e+00
0	 2.148148e+00	 8.370370e+00	 9.969249e+00
0	 2.148148e+00	 8.444444e+00	 9.971673e+00
0	 2.148148e+00	 8.518519e+00	 9.974036e+00
0	 2.222222e+00	 8.148148e+00	 9.964879e+00
0	 2.222222e+00	 8.222222e+00	 9.967273e+00
0	 2.222222e+00	 8.296296e+00	 9.969601e+00
0	 2.222222e+00	 8.370370e+00	 9.971868e+00
0	 2.222222e+00	 8.444444e+00	 9.974079e+00
0	 2.222222e+00	 8.518519e+00	 9.976237e+00
0	 1.851852e+00	 8.518519e+00	 9.965323e+00
0	 1.851852e+00	 8.592593e+00	 9.968388e+00
0	 1.851852e+00	 8.666667e+00	 9.971326e+00
0	 1.851852e+00	 8.740741e+00	 9.974143e+00
0	 1.851852e+00	 8.814815e+00	 9.976846e+00
0	 1.851852e+00	 8.888889e+00	 9.979439e+00
0	 1.925926e+00	 8.518519e+00	 9.967466e+00
0	 1.925926e+00	 8.592593e+00	 9.970339e+00
0	 1.925926e+00	 8.666667e+00	 9.973094e+00
0	 1.925926e+00	 8.740741e+00	 9.975735e+00
0	 1.925926e+00	 8.814815e+00	 9.978270e+00
0	 1.925926e+00	 8.888889e+00	 9.980704e+00
0	 2.000000e+00	 8.518519e+00	 9.969640e+00
0	 2.000000e+00	 8.592593e+00	 9.972319e+00
0	 2.000000e+00	 8.666667e+00	 9.974888e+00
0	 2.000000e+00	 8.740741e+00	 9.977352e+00
0	 2.000000e+00	 8.814815e+00	 9.979718e+00
0	 2.000000e+00	 8.888889e+00	 9.981990e+00
0	 2.074074e+00	 8.518519e+00	 9.971833e+00
0	 2.074074e+00	 8.592593e+00	 9.974317e+00
0	 2.074074e+00	 8.666667e+00	 9.976699e+00
0	 2.074074e+00	 8.740741e+00	 9.978985e+00
0	 2.074074e+00	 8.814815e+00	 9.981180e+00
0	 2.074074e+00	 8.888889e+00	 9.983290e+00
0	 2.148148e+00	 8.518519e+00	 9.974036e+00
0	 2.148148e+00	 8.592593e+00	 9.976323e+00
0	 2.148148e+00	 8.666667e+00	 9.978518e+00
0	 2.148148e+00	 8.740741e+00	 9.980624e+00
0	 2.148148e+00	 8.814815e+00	 9.982648e+00
0	 2.148148e+00	 8.888889e+00	 9.984594e+00
0	 2.222222e+00	 8.518519e+00	 9.976237e+00
0	 2.222222e+00	 8.592593e+00	 9.978328e+00
0	 2.222222e+00	 8.666667e+00	 9.980334e+00
0	 2.222222e+00	 8.740741e+00	 9.982261e+00
0	 2.222222e+00	 8.814815e+00	 9.984113e+00
0	 2.222222e+00	 8.888889e+00	 9.985895e+00
0	 1.851852e+00	 8.888889e+00	 9.979439e+00
0	 1.851852e+00	 8.962963e+00	 9.981903e+00
0	 1.851852e+00	 9.037037e+00	 9.984218e+00
0	 1.851852e+00	 9.111111e+00	 9.986392e+00
0	 1.851852e+00	 9.185185e+00	 9.988430e+00
0	 1.851852e+00	 9.259259e+00	 9.990341e+00
0	 1.925926e+00	 8.888889e+00	 9.980704e+00
0	 1.925926e+00	 8.962963e+00	 9.983016e+00
0	 1.925926e+00	 9.037037e+00	 9.985190e+00
0	 1.925926e+00	 9.111111e+00	 9.987230e+00
0	 1.925926e+00	 9.185185e+00	 9.989143e+00
0	 1.925926e+00	 9.259259e+00	 9.990937e+00
0	 2.000000e+00	 8.888889e+00	 9.981990e+00
0	 2.000000e+00	 8.962963e+00	 9.984150e+00
0	 2.000000e+00	 9.037037e+00	 9.986180e+00
0	 2.000000e+00	 9.111111e+00	 9.988085e+00
0	 2.000000e+00	 9.185185e+00	 9.989872e+00
0	 2.000000e+00	 9.259259e+00	 9.991547e+00
0	 2.074074e+00	 8.888889e+00	 9.983290e+00
0	 2.074074e+00	 8.962963e+00	 9.985296e+00
0	 2.074074e+00	 9.037037e+00	 9.987180e+00
0	 2.074074e+00	 9.111111e+00	 9.988949e+00
0	 2.074074e+00	 9.185185e+00	 9.990609e+00
0	 2.074074e+00	 9.259259e+00	 9.992164e+00
0	 2.148148e+00	 8.888889e+00	 9.984594e+00
0	 2.148148e+00	 8.962963e+00	 9.986445e+00
0	 2.148148e+00	 9.037037e+00	 9.988184e+00
0	 2.148148e+00	 9.111111e+00	 9.989816e+00
0	 2.148148e+00	 9.185185e+00	 9.991347e+00
0	 2.148148e+00	 9.259259e+00	 9.992783e+00
0	 2.222222e+00	 8.888889e+00	 9.985895e+00
0	 2.222222e+00	 8.962963e+00	 9.987590e+00
0	 2.222222e+00	 9.037037e+00	 9.989183e+00
0	 2.222222e+00	 9.111111e+00	 9.990678e+00
0	 2.222222e+00	 9.185185e+00	 9.992081e+00
0	 2.222222e+00	 9.259259e+00	 9.993395e+00
0	 1.851852e+00	 9.259259e+00	 9.990341e+00
0	 1.851852e+00	 9.333333e+00	 9.992099e+00
0	 1.851852e+00	 9.407407e+00	 9.993679e+00
0	 1.851852e+00	 9.481481e+00	 9.995090e+00
0	 1.851852e+00	 9.555556e+00	 9.996341e+00
0	 1.851852e+00	 9.629630e+00	 9.997438e+00
0	 1.925926e+00	 9.259259e+00	 9.990937e+00
0	 1.925926e+00	 9.333333e+00	 9.992586e+00
0	 1.925926e+00	 9.407407e+00	 9.994069e+00
0	 1.925926e+00	 9.481481e+00	 9.995393e+00
0	 1.925926e+00	 9.555556e+00	 9.996566e+00
0	 1.925926e+00	 9.629630e+00	 9.997594e+00
0	 2.000000e+00	 9.259259e+00	 9.991547e+00
0	 2.000000e+00	 9.333333e+00	 9.993087e+00
0	 2.000000e+00	 9.407407e+00	 9.994472e+00
0	 2.000000e+00	 9.481481e+00	 9.995708e+00
0	 2.000000e+00	 9.555556e+00	 9.996802e+00
0	 2.000000e+00	 9.629630e+00	 9.997761e+00
0	 2.074074e+00	 9.259259e+00	 9.992164e+00
0	 2.074074e+00	 9.333333e+00	 9.993595e+00
0	 2.074074e+00	 9.407407e+00	 9.994881e+00
0	 2.074074e+00	 9.481481e+00	 9.996028e+00
0	 2.074074e+00	 9.555556e+00	 9.997043e+00
0	 2.074074e+00	 9.629630e+00	 9.997932e+00
0	 2.148148e+00	 9.259259e+00	 9.992783e+00
0	 2.148148e+00	 9.333333e+00	 9.994102e+00
0	 2.148148e+00	 9.407407e+00	 9.995289e+00
0	 2.148148e+00	 9.481481e+00	 9.996346e+00
0	 2.148148e+00	 9.555556e+00	 9.997282e+00
0	 2.148148e+00	 9.629630e+00	 9.998101e+00
0	 2.222222e+00	 9.259259e+00	 9.993395e+00
0	 2.222222e+00	 9.333333e+00	 9.994604e+00
0	 2.222222e+00	 9.407407e+00	 9.995690e+00
0	 2.222222e+00	 9.481481e+00	 9.996658e+00
0	 2.222222e+00	 9.555556e+00	 9.997513e+00
0	 2.222222e+00	 9.629630e+00	 9.998261e+00
0	 1.851852e+00	 9.629630e+00	 9.997438e+00
0	 1.851852e+00	 9.703704e+00	 9.998354e+00
0	 1.851852e+00	 9.777778e+00	 9.999060e+00
0	 1.851852e+00	 9.851852e+00	 9.999567e+00
0	 1.851852e+00	 9.925926e+00	 9.999885e+00
0	 1.851852e+00	 1.000000e+01	 1.000002e+01
0	 1.925926e+00	 9.629630e+00	 9.997594e+00
0	 1.925926e+00	 9.703704e+00	 9.998452e+00
0	 1.925926e+00	 9.777778e+00	 9.999114e+00
0	 1.925926e+00	 9.851852e+00	 9.999589e+00
0	 1.925926e+00	 9.925926e+00	 9.999885e+00
0	 1.925926e+00	 1.000000e+01	 1.000001e+01
0	 2.000000e+00	 9.629630e+00	 9.997761e+00
0	 2.000000e+00	 9.703704e+00	 9.998561e+00
0	 2.000000e+00	 9.777778e+00	 9.999178e+00
0	 2.000000e+00	 9.851852e+00	 9.999621e+00
0	 2.000000e+00	 9.925926e+00	 9.999897e+00
0	 2.000000e+00	 1.000000e+01	 1.000001e+01
0	 2.074074e+00	 9.629630e+00	 9.997932e+00
0	 2.074074e+00	 9.703704e+00	 9.998673e+00
0	 2.074074e+00	 9.777778e+00	 9.999246e+00
0	 2.074074e+00	 9.851852e+00	 9.999656e+00
0	 2.074074e+00	 9.925926e+00	 9.999912e+00
0	 2.074074e+00	 1.000000e+01	 1.000002e+01
0	 2.148148e+00	 9.629630e+00	 9.998101e+00
0	 2.148148e+00	 9.703704e+00	 9.998783e+00
0	 2.148148e+00	 9.777778e+00	 9.999310e+00
0	 2.148148e+00	 9.851852e+00	 9.999688e+00
0	 2.148148e+00	 9.925926e+00	 9.999923e+00
0	 2.148148e+00	 1.000000e+01	 1.000002e+01
0	 2.222222e+00	 9.629630e+00	 9.998261e+00
0	 2.222222e+00	 9.703704e+00	 9.998884e+00
0	 2.222222e+00	 9.777778e+00	 9.999365e+00
0	 2.222222e+00	 9.851852e+00	 9.999710e+00
0	 2.222222e+00	 9.925926e+00	 9.999924e+00
0	 2.222222e+00	 1.000000e+01	 1.000001e+01
0	 2.222222e+00	 0.000000e+00	 1.225152e+01
0	 2.222222e+00	 7.407407e-02	 1.223446e+01
0	 2.222222e+00	 1.481481e-01	 1.219839e+01
0	 2.222222e+00	 2.222222e-01	 1.215490e+01
0	 2.222222e+00	 2.962963e-01	 1.211555e+01
0	 2.222222e+00	 3.703704e-01	 1.209194e+01
0	 2.296296e+00	 0.000000e+00	 1.176228e+01
0	 2.296296e+00	 7.407407e-02	 1.177072e+01
0	 2.296296e+00	 1.481481e-01	 1.177779e+01
0	 2.296296e+00	 2.222222e-01	 1.178828e+01
0	 2.296296e+00	 2.962963e-01	 1.180698e+01
0	 2.296296e+00	 3.703704e-01	 1.183868e+01
0	 2.370370e+00	 0.000000e+00	 1.144412e+01
0	 2.370370e+00	 7.407407e-02	 1.146248e+01
0	 2.370370e+00	 1.481481e-01	 1.149083e+01
0	 2.370370e+00	 2.222222e-01	 1.152919e+01
0	 2.370370e+00	 2.962963e-01	 1.157761e+01
0	 2.370370e+00	 3.703704e-01	 1.163612e+01
0	 2.444444e+00	 0.000000e+00	 1.127018e+01
0	 2.444444e+00	 7.407407e-02	 1.128666e+01
0	 2.444444e+00	 1.481481e-01	 1.131878e+01
0	 2.444444e+00	 2.222222e-01	 1.136383e+01
0	 2.444444e+00	 2.962963e-01	 1.141912e+01
0	 2.444444e+00	 3.703704e-01	 1.148195e+01
0	 2.518519e+00	 0.000000e+00	 1.121358e+01
0	 2.518519e+00	 7.407407e-02	 1.122020e+01
0	 2.518519e+00	 1.481481e-01	 1.124294e+01
0	 2.518519e+00	 2.222222e-01	 1.127840e+01
0	 2.518519e+00	 2.962963e-01	 1.132318e+01
0	 2.518519e+00	 3.703704e-01	 1.137388e+01
0	 2.592593e+00	 0.000000e+00	 1.124747e+01
0	 2.592593e+00	 7.407407e-02	 1.124003e+01
0	 2.592593e+00	 1.481481e-01	 1.124459e+01
0	 2.592593e+00	 2.222222e-01	 1.125909e+01
0	 2.592593e+00	 2.962963e-01	 1.128144e+01
0	 2.592593e+00	 3.703704e-01	 1.130958e+01
0	 2.222222e+00	 3.703704e-01	 1.209194e+01
0	 2.222222e+00	 4.444444e-01	 1.208335e+01
0	 2.222222e+00	 5.185185e-01	 1.208104e+01
0	 2.222222e+00	 5.925926e-01	 1.208453e+01
0	 2.222222e+00	 6.666667e-01	 1.209335e+01
0	 2.222222e+00	 7.407407e-01	 1.210703e+01
0	 2.296296e+00	 3.703704e-01	 1.183868e+01
0	 2.296296e+00	 4.444444e-01	 1.187517e+01
0	 2.296296e+00	 5.185185e-01	 1.190610e+01
0	 2.296296e+00	 5.925926e-01	 1.193301e+01
0	 2.296296e+00	 6.666667e-01	 1.195744e+01
0	 2.296296e+00	 7.407407e-01	 1.198095e+01
0	 2.370370e+00	 3.703704e-01	 1.163612e+01
0	 2.370370e+00	 4.444444e-01	 1.169330e+01
0	 2.370370e+00	 5.185185e-01	 1.173965e+01
0	 2.370370e+00	 5.925926e-01	 1.177801e+01
0	 2.370370e+00	 6.666667e-01	 1.181125e+01
0	 2.370370e+00	 7.407407e-01	 1.184222e+01
0	 2.444444e+00	 3.703704e-01	 1.148195e+01
0	 2.444444e+00	 4.444444e-01	 1.154099e+01
0	 2.444444e+00	 5.185185e-01	 1.158902e+01
0	 2.444444e+00	 5.925926e-01	 1.162948e+01
0	 2.444444e+00	 6.666667e-01	 1.166585e+01
0	 2.444444e+00	 7.407407e-01	 1.170157e+01
0	 2.518519e+00	 3.703704e-01	 1.137388e+01
0	 2.518519e+00	 4.444444e-01	 1.142150e+01
0	 2.518519e+00	 5.185185e-01	 1.146155e+01
0	 2.518519e+00	 5.925926e-01	 1.149737e+01
0	 2.518519e+00	 6.666667e-01	 1.153230e+01
0	 2.518519e+00	 7.407407e-01	 1.156969e+01
0	 2.592593e+00	 3.703704e-01	 1.130958e+01
0	 2.592593e+00	 4.444444e-01	 1.133808e+01
0	 2.592593e+00	 5.185185e-01	 1.136458e+01
0	 2.592593e+00	 5.925926e-01	 1.139161e+01
0	 2.592593e+00	 6.666667e-01	 1.142168e+01
0	 2.592593e+00	 7.407407e-01	 1.145731e+01
0	 2.222222e+00	 7.407407e-01	 1.210703e+01
0	 2.222222e+00	 8.148148e-01	 1.211654e+01
0	 2.222222e+00	 8.888889e-01	 1.211404e+01
0	 2.222222e+00	 9.629630e-01	 1.210077e+01
0	 2.222222e+00	 1.037037e+00	 1.207795e+01
0	 2.222222e+00	 1.111111e+00	 1.204684e+01
0	 2.296296e+00	 7.407407e-01	 1.198095e+01
0	 2.296296e+00	 8.148148e-01	 1.199783e+01
0	 2.296296e+00	 8.888889e-01	 1.200214e+01
0	 2.296296e+00	 9.629630e-01	 1.199511e+01
0	 2.296296e+00	 1.037037e+00	 1.197793e+01
0	 2.296296e+00	 1.111111e+00	 1.195181e+01
0	 2.370370e+00	 7.407407e-01	 1.184222e+01
0	 2.370370e+00	 8.148148e-01	 1.186664e+01
0	 2.370370e+00	 8.888889e-01	 1.187911e+01
0	 2.370370e+00	 9.629630e-01	 1.188081e+01
0	 2.370370e+00	 1.037037e+00	 1.187294e+01
0	 2.370370e+00	 1.111111e+00	 1.185669e+01
0	 2.444444e+00	 7.407407e-01	 1.170157e+01
0	 2.444444e+00	 8.148148e-01	 1.173244e+01
0	 2.444444e+00	 8.888889e-01	 1.175274e+01
0	 2.444444e+00	 9.629630e-01	 1.176367e+01
0	 2.444444e+00	 1.037037e+00	 1.176643e+01
0	 2.444444e+00	 1.111111e+00	 1.176221e+01
0	 2.518519e+00	 7.407407e-01	 1.156969e+01
0	 2.518519e+00	 8.148148e-01	 1.160465e+01
0	 2.518519e+00	 8.888889e-01	 1.163085e+01
0	 2.518519e+00	 9.629630e-01	 1.164951e+01
0	 2.518519e+00	 1.037037e+00	 1.166186e+01
0	 2.518519e+00	 1.111111e+00	 1.166910e+01
0	 2.592593e+00	 7.407407e-01	 1.145731e+01
0	 2.592593e+00	 8.148148e-01	 1.149270e+01
0	 2.592593e+00	 8.888889e-01	 1.152122e+01
0	 2.592593e+00	 9.629630e-01	 1.154412e+01
0	 2.592593e+00	 1.037037e+00	 1.156267e+01
0	 2.592593e+00	 1.111111e+00	 1.157810e+01
0	 2.222222e+00	 1.111111e+00	 1.204684e+01
0	 2.222222e+00	 1.185185e+00	 1.201016e+01
0	 2.222222e+00	 1.259259e+00	 1.196965e+01
0	 2.222222e+00	 1.333333e+00	 1.192512e+01
0	 2.222222e+00	 1.407407e+00	 1.187637e+01
0	 2.222222e+00	 1.481481e+00	 1.182318e+01
0	 2.296296e+00	 1.111111e+00	 1.195181e+01
0	 2.296296e+00	 1.185185e+00	 1.192030e+01
0	 2.296296e+00	 1.259259e+00	 1.188614e+01
0	 2.296296e+00	 1.333333e+00	 1.184934e+01
0	 2.296296e+00	 1.407407e+00	 1.180991e+01
0	 2.296296e+00	 1.481481e+00	 1.176787e+01
0	 2.370370e+00	 1.111111e+00	 1.185669e+01
0	 2.370370e+00	 1.185185e+00	 1.183484e+01
0	 2.370370e+00	 1.259259e+00	 1.180948e+01
0	 2.370370e+00	 1.333333e+00	 1.178078e+01
0	 2.370370e+00	 1.407407e+00	 1.174892e+01
0	 2.370370e+00	 1.481481e+00	 1.171407e+01
0	 2.444444e+00	 1.111111e+00	 1.176221e+01
0	 2.444444e+00	 1.185185e+00	 1.175209e+01
0	 2.444444e+00	 1.259259e+00	 1.173654e+01
0	 2.444444e+00	 1.333333e+00	 1.171583e+01
0	 2.444444e+00	 1.407407e+00	 1.169026e+01
0	 2.444444e+00	 1.481481e+00	 1.166009e+01
0	 2.518519e+00	 1.111111e+00	 1.166910e+01
0	 2.518519e+00	 1.185185e+00	 1.167037e+01
0	 2.518519e+00	 1.259259e+00	 1.166419e+01
0	 2.518519e+00	 1.333333e+00	 1.165089e+01
0	 2.518519e+00	 1.407407e+00	 1.163079e+01
0	 2.518519e+00	 1.481481e+00	 1.160424e+01
0	 2.592593e+00	 1.111111e+00	 1.157810e+01
0	 2.592593e+00	 1.185185e+00	 1.158800e+01
0	 2.592593e+00	 1.259259e+00	 1.158930e+01
0	 2.592593e+00	 1.333333e+00	 1.158232e+01
0	 2.592593e+00	 1.407407e+00	 1.156739e+01
0	 2.592593e+00	 1.481481e+00	 1.154484e+01
0	 2.222222e+00	 1.481481e+00	 1.182318e+01
0	 2.222222e+00	 1.555556e+00	 1.176606e+01
0	 2.222222e+00	 1.629630e+00	 1.170496e+01
0	 2.222222e+00	 1.703704e+00	 1.163890e+01
0	 2.222222e+00	 1.777778e+00	 1.156689e+01
0	 2.222222e+00	 1.851852e+00	 1.148793e+01
0	 2.296296e+00	 1.481481e+00	 1.176787e+01
0	 2.296296e+00	 1.555556e+00	 1.172185e+01
0	 2.296296e+00	 1.629630e+00	 1.167014e+01
0	 2.296296e+00	 1.703704e+00	 1.161222e+01
0	 2.296296e+00	 1.777778e+00	 1.154755e+01
0	 2.296296e+00	 1.851852e+00	 1.147562e+01
0	 2.370370e+00	 1.481481e+00	 1.171407e+01
0	 2.370370e+00	 1.555556e+00	 1.167484e+01
0	 2.370370e+00	 1.629630e+00	 1.162961e+01
0	 2.370370e+00	 1.703704e+00	 1.157817e+01
0	 2.370370e+00	 1.777778e+00	 1.152033e+01
0	 2.370370e+00	 1.851852e+00	 1.145589e+01
0	 2.444444e+00	 1.481481e+00	 1.166009e+01
0	 2.444444e+00	 1.555556e+00	 1.162502e+01
0	 2.444444e+00	 1.629630e+00	 1.158455e+01
0	 2.444444e+00	 1.703704e+00	 1.153867e+01
0	 2.444444e+00	 1.777778e+00	 1.148736e+01
0	 2.444444e+00	 1.851852e+00	 1.143061e+01
0	 2.518519e+00	 1.481481e+00	 1.160424e+01
0	 2.518519e+00	 1.555556e+00	 1.157238e+01
0	 2.518519e+00	 1.629630e+00	 1.153617e+01
0	 2.518519e+00	 1.703704e+00	 1.149563e+01
0	 2.518519e+00	 1.777778e+00	 1.145079e+01
0	 2.518519e+00	 1.851852e+00	 1.140167e+01
0	 2.592593e+00	 1.481481e+00	 1.154484e+01
0	 2.592593e+00	 1.555556e+00	 1.151692e+01
0	 2.592593e+00	 1.629630e+00	 1.148566e+01
0	 2.592593e+00	 1.703704e+00	 1.145096e+01
0	 2.592593e+00	 1.777778e+00	 1.141276e+01
0	 2.592593e+00	 1.851852e+00	 1.137097e+01
0	 2.222222e+00	 1.851852e+00	 1.148793e+01
0	 2.222222e+00	 1.925926e+00	 1.140615e+01
0	 2.222222e+00	 2.000000e+00	 1.132610e+01
0	 2.222222e+00	 2.074074e+00	 1.124742e+01
0	 2.222222e+00	 2.148148e+00	 1.116977e+01
0	 2.222222e+00	 2.222222e+00	 1.109279e+01
0	 2.296296e+00	 1.851852e+00	 1.147562e+01
0	 2.296296e+00	 1.925926e+00	 1.140112e+01
0	 2.296296e+00	 2.000000e+00	 1.132860e+01
0	 2.296296e+00	 2.074074e+00	 1.125737e+01
0	 2.296296e+00	 2.148148e+00	 1.118671e+01
0	 2.296296e+00	 2.222222e+00	 1.111592e+01
0	 2.370370e+00	 1.851852e+00	 1.145589e+01
0	 2.370370e+00	 1.925926e+00	 1.138923e+01
0	 2.370370e+00	 2.000000e+00	 1.132428e+01
0	 2.370370e+00	 2.074074e+00	 1.126012e+01
0	 2.370370e+00	 2.148148e+00	 1.119584e+01
0	 2.370370e+00	 2.222222e+00	 1.113052e+01
0	 2.444444e+00	 1.851852e+00	 1.143061e+01
0	 2.444444e+00	 1.925926e+00	 1.137196e+01
0	 2.444444e+00	 2.000000e+00	 1.131431e+01
0	 2.444444e+00	 2.074074e+00	 1.125671e+01
0	 2.444444e+00	 2.148148e+00	 1.119819e+01
0	 2.444444e+00	 2.222222e+00	 1.113777e+01
0	 2.518519e+00	 1.851852e+00	 1.140167e+01
0	 2.518519e+00	 1.925926e+00	 1.135075e+01
0	 2.518519e+00	 2.000000e+00	 1.129987e+01
0	 2.518519e+00	 2.074074e+00	 1.124818e+01
0	 2.518519e+00	 2.148148e+00	 1.119479e+01
0	 2.518519e+00	 2.222222e+00	 1.113885e+01
0	 2.592593e+00	 1.851852e+00	 1.137097e+01
0	 2.592593e+00	 1.925926e+00	 1.132706e+01
0	 2.592593e+00	 2.000000e+00	 1.128213e+01
0	 2.592593e+00	 2.074074e+00	 1.123555e+01
0	 2.592593e+00	 2.148148e+00	 1.118670e+01
0	 2.592593e+00	 2.222222e+00	 1.113494e+01
0	 2.222222e+00	 2.222222e+00	 1.109279e+01
0	 2.222222e+00	 2.296296e+00	 1.101782e+01
0	 2.222222e+00	 2.370370e+00	 1.094604e+01
0	 2.222222e+00	 2.444444e+00	 1.087683e+01
0	 2.222222e+00	 2.518519e+00	 1.080958e+01
0	 2.222222e+00	 2.592593e+00	 1.074370e+01
0	 2.296296e+00	 2.222222e+00	 1.111592e+01
0	 2.296296e+00	 2.296296e+00	 1.104599e+01
0	 2.296296e+00	 2.370370e+00	 1.097816e+01
0	 2.296296e+00	 2.444444e+00	 1.091209e+01
0	 2.296296e+00	 2.518519e+00	 1.084742e+01
0	 2.296296e+00	 2.592593e+00	 1.078379e+01
0	 2.370370e+00	 2.222222e+00	 1.113052e+01
0	 2.370370e+00	 2.296296e+00	 1.106516e+01
0	 2.370370e+00	 2.370370e+00	 1.100124e+01
0	 2.370370e+00	 2.444444e+00	 1.093858e+01
0	 2.370370e+00	 2.518519e+00	 1.087700e+01
0	 2.370370e+00	 2.592593e+00	 1.081631e+01
0	 2.444444e+00	 2.222222e+00	 1.113777e+01
0	 2.444444e+00	 2.296296e+00	 1.107667e+01
0	 2.444444e+00	 2.370370e+00	 1.101667e+01
0	 2.444444e+00	 2.444444e+00	 1.095768e+01
0	 2.444444e+00	 2.518519e+00	 1.089959e+01
0	 2.444444e+00	 2.592593e+00	 1.084230e+01
0	 2.518519e+00	 2.222222e+00	 1.113885e+01
0	 2.518519e+00	 2.296296e+00	 1.108187e+01
0	 2.518519e+00	 2.370370e+00	 1.102588e+01
0	 2.518519e+00	 2.444444e+00	 1.097078e+01
0	 2.518519e+00	 2.518519e+00	 1.091646e+01
0	 2.518519e+00	 2.592593e+00	 1.086280e+01
0	 2.592593e+00	 2.222222e+00	 1.113494e+01
0	 2.592593e+00	 2.296296e+00	 1.108210e+01
0	 2.592593e+00	 2.370370e+00	 1.103029e+01
0	 2.592593e+00	 2.444444e+00	 1.097928e+01
0	 2.592593e+00	 2.518519e+00	 1.092888e+01
0	 2.592593e+00	 2.592593e+00	 1.087889e+01
0	 2.222222e+00	 2.592593e+00	 1.074370e+01
0	 2.222222e+00	 2.666667e+00	 1.068008e+01
0	 2.222222e+00	 2.740741e+00	 1.062001e+01
0	 2.222222e+00	 2.814815e+00	 1.056342e+01
0	 2.222222e+00	 2.888889e+00	 1.051024e+01
0	 2.222222e+00	 2.962963e+00	 1.046038e+01
0	 2.296296e+00	 2.592593e+00	 1.078379e+01
0	 2.296296e+00	 2.666667e+00	 1.072238e+01
0	 2.296296e+00	 2.740741e+00	 1.066440e+01
0	 2.296296e+00	 2.814815e+00	 1.060966e+01
0	 2.296296e+00	 2.888889e+00	 1.055791e+01
0	 2.296296e+00	 2.962963e+00	 1.050895e+01
0	 2.370370e+00	 2.592593e+00	 1.081631e+01
0	 2.370370e+00	 2.666667e+00	 1.075769e+01
0	 2.370370e+00	 2.740741e+00	 1.070220e+01
0	 2.370370e+00	 2.814815e+00	 1.064953e+01
0	 2.370370e+00	 2.888889e+00	 1.059937e+01
0	 2.370370e+00	 2.962963e+00	 1.055138e+01
0	 2.444444e+00	 2.592593e+00	 1.084230e+01
0	 2.444444e+00	 2.666667e+00	 1.078683e+01
0	 2.444444e+00	 2.740741e+00	 1.073405e+01
0	 2.444444e+00	 2.814815e+00	 1.068359e+01
0	 2.444444e+00	 2.888889e+00	 1.063508e+01
0	 2.444444e+00	 2.962963e+00	 1.058819e+01
0	 2.518519e+00	 2.592593e+00	 1.086280e+01
0	 2.518519e+00	 2.666667e+00	 1.081063e+01
0	 2.518519e+00	 2.740741e+00	 1.076060e+01
0	 2.518519e+00	 2.814815e+00	 1.071236e+01
0	 2.518519e+00	 2.888889e+00	 1.066557e+01
0	 2.518519e+00	 2.962963e+00	 1.061988e+01
0	 2.592593e+00	 2.592593e+00	 1.087889e+01
0	 2.592593e+00	 2.666667e+00	 1.082990e+01
0	 2.592593e+00	 2.740741e+00	 1.078249e+01
0	 2.592593e+00	 2.814815e+00	 1.073638e+01
0	 2.592593e+00	 2.888889e+00	 1.069130e+01
0	 2.592593e+00	 2.962963e+00	 1.064698e+01
0	 2.222222e+00	 2.962963e+00	 1.046038e+01
0	 2.222222e+00	 3.037037e+00	 1.041358e+01
0	 2.222222e+00	 3.111111e+00	 1.036955e+01
0	 2.222222e+00	 3.185185e+00	 1.032819e+01
0	 2.222222e+00	 3.259259e+00	 1.028938e+01
0	 2.222222e+00	 3.333333e+00	 1.025304e+01
0	 2.296296e+00	 2.962963e+00	 1.050895e+01
0	 2.296296e+00	 3.037037e+00	 1.046254e+01
0	 2.296296e+00	 3.111111e+00	 1.041860e+01
0	 2.296296e+00	 3.185185e+00	 1.037707e+01
0	 2.296296e+00	 3.259259e+00	 1.033791e+01
0	 2.296296e+00	 3.333333e+00	 1.030107e+01
0	 2.370370e+00	 2.962963e+00	 1.055138e+01
0	 2.370370e+00	 3.037037e+00	 1.050552e+01
0	 2.370370e+00	 3.111111e+00	 1.046192e+01
0	 2.370370e+00	 3.185185e+00	 1.042058e+01
0	 2.370370e+00	 3.259259e+00	 1.038148e+01
0	 2.370370e+00	 3.333333e+00	 1.034460e+01
0	 2.444444e+00	 2.962963e+00	 1.058819e+01
0	 2.444444e+00	 3.037037e+00	 1.054305e+01
0	 2.444444e+00	 3.111111e+00	 1.050007e+01
0	 2.444444e+00	 3.185185e+00	 1.045923e+01
0	 2.444444e+00	 3.259259e+00	 1.042053e+01
0	 2.444444e+00	 3.333333e+00	 1.038397e+01
0	 2.518519e+00	 2.962963e+00	 1.061988e+01
0	 2.518519e+00	 3.037037e+00	 1.057569e+01
0	 2.518519e+00	 3.111111e+00	 1.053358e+01
0	 2.518519e+00	 3.185185e+00	 1.049353e+01
0	 2.518519e+00	 3.259259e+00	 1.045552e+01
0	 2.518519e+00	 3.333333e+00	 1.041952e+01
0	 2.592593e+00	 2.962963e+00	 1.064698e+01
0	 2.592593e+00	 3.037037e+00	 1.060398e+01
0	 2.592593e+00	 3.111111e+00	 1.056301e+01
0	 2.592593e+00	 3.185185e+00	 1.052400e+01
0	 2.592593e+00	 3.259259e+00	 1.048688e+01
0	 2.592593e+00	 3.333333e+00	 1.045158e+01
0	 2.222222e+00	 3.333333e+00	 1.025304e+01
0	 2.222222e+00	 3.407407e+00	 1.021905e+01
0	 2.222222e+00	 3.481481e+00	 1.018738e+01
0	 2.222222e+00	 3.555556e+00	 1.015808e+01
0	 2.222222e+00	 3.629630e+00	 1.013116e+01
0	 2.222222e+00	 3.703704e+00	 1.010667e+01
0	 2.296296e+00	 3.333333e+00	 1.030107e+01
0	 2.296296e+00	 3.407407e+00	 1.026655e+01
0	 2.296296e+00	 3.481481e+00	 1.023434e+01
0	 2.296296e+00	 3.555556e+00	 1.020441e+01
0	 2.296296e+00	 3.629630e+00	 1.017677e+01
0	 2.296296e+00	 3.703704e+00	 1.015138e+01
0	 2.370370e+00	 3.333333e+00	 1.034460e+01
0	 2.370370e+00	 3.407407e+00	 1.030996e+01
0	 2.370370e+00	 3.481481e+00	 1.027753e+01
0	 2.370370e+00	 3.555556e+00	 1.024725e+01
0	 2.370370e+00	 3.629630e+00	 1.021907e+01
0	 2.370370e+00	 3.703704e+00	 1.019295e+01
0	 2.444444e+00	 3.333333e+00	 1.038397e+01
0	 2.444444e+00	 3.407407e+00	 1.034952e+01
0	 2.444444e+00	 3.481481e+00	 1.031711e+01
0	 2.444444e+00	 3.555556e+00	 1.028667e+01
0	 2.444444e+00	 3.629630e+00	 1.025814e+01
0	 2.444444e+00	 3.703704e+00	 1.023145e+01
0	 2.518519e+00	 3.333333e+00	 1.041952e+01
0	 2.518519e+00	 3.407407e+00	 1.038546e+01
0	 2.518519e+00	 3.481481e+00	 1.035325e+01
0	 2.518519e+00	 3.555556e+00	 1.032281e+01
0	 2.518519e+00	 3.629630e+00	 1.029407e+01
0	 2.518519e+00	 3.703704e+00	 1.026698e+01
0	 2.592593e+00	 3.333333e+00	 1.045158e+01
0	 2.592593e+00	 3.407407e+00	 1.041801e+01
0	 2.592593e+00	 3.481481e+00	 1.038609e+01
0	 2.592593e+00	 3.555556e+00	 1.035575e+01
0	 2.592593e+00	 3.629630e+00	 1.032694e+01
0	 2.592593e+00	 3.703704e+00	 1.029961e+01
0	 2.222222e+00	 3.703704e+00	 1.010667e+01
0	 2.222222e+00	 3.777778e+00	 1.008418e+01
0	 2.222222e+00	 3.851852e+00	 1.006327e+01
0	 2.222222e+00	 3.925926e+00	 1.004394e+01
0	 2.222222e+00	 4.000000e+00	 1.002623e+01
0	 2.222222e+00	 4.074074e+00	 1.001015e+01
0	 2.296296e+00	 3.703704e+00	 1.015138e+01
0	 2.296296e+00	 3.777778e+00	 1.012787e+01
0	 2.296296e+00	 3.851852e+00	 1.010589e+01
0	 2.296296e+00	 3.925926e+00	 1.008546e+01
0	 2.296296e+00	 4.000000e+00	 1.006663e+01
0	 2.296296e+00	 4.074074e+00	 1.004941e+01
0	 2.370370e+00	 3.703704e+00	 1.019295e+01
0	 2.370370e+00	 3.777778e+00	 1.016858e+01
0	 2.370370e+00	 3.851852e+00	 1.014571e+01
0	 2.370370e+00	 3.925926e+00	 1.012439e+01
0	 2.370370e+00	 4.000000e+00	 1.010464e+01
0	 2.370370e+00	 4.074074e+00	 1.008651e+01
0	 2.444444e+00	 3.703704e+00	 1.023145e+01
0	 2.444444e+00	 3.777778e+00	 1.020640e+01
0	 2.444444e+00	 3.851852e+00	 1.018284e+01
0	 2.444444e+00	 3.925926e+00	 1.016081e+01
0	 2.444444e+00	 4.000000e+00	 1.014035e+01
0	 2.444444e+00	 4.074074e+00	 1.012148e+01
0	 2.518519e+00	 3.703704e+00	 1.026698e+01
0	 2.518519e+00	 3.777778e+00	 1.024142e+01
0	 2.518519e+00	 3.851852e+00	 1.021736e+01
0	 2.518519e+00	 3.925926e+00	 1.019481e+01
0	 2.518519e+00	 4.000000e+00	 1.017380e+01
0	 2.518519e+00	 4.074074e+00	 1.015435e+01
0	 2.592593e+00	 3.703704e+00	 1.029961e+01
0	 2.592593e+00	 3.777778e+00	 1.027374e+01
0	 2.592593e+00	 3.851852e+00	 1.024936e+01
0	 2.592593e+00	 3.925926e+00	 1.022647e+01
0	 2.592593e+00	 4.000000e+00	 1.020507e+01
0	 2.592593e+00	 4.074074e+00	 1.018516e+01
0	 2.222222e+00	 4.074074e+00	 1.001015e+01
0	 2.222222e+00	 4.148148e+00	 9.995485e+00
0	 2.222222e+00	 4.222222e+00	 9.982010e+00
0	 2.222222e+00	 4.296296e+00	 9.969764e+00
0	 2.222222e+00	 4.370370e+00	 9.958780e+00
0	 2.222222e+00	 4.444444e+00	 9.949093e+00
0	 2.296296e+00	 4.074074e+00	 1.004941e+01
0	 2.296296e+00	 4.148148e+00	 1.003362e+01
0	 2.296296e+00	 4.222222e+00	 1.001904e+01
0	 2.296296e+00	 4.296296e+00	 1.000570e+01
0	 2.296296e+00	 4.370370e+00	 9.993619e+00
0	 2.296296e+00	 4.444444e+00	 9.982820e+00
0	 2.370370e+00	 4.074074e+00	 1.008651e+01
0	 2.370370e+00	 4.148148e+00	 1.006979e+01
0	 2.370370e+00	 4.222222e+00	 1.005428e+01
0	 2.370370e+00	 4.296296e+00	 1.003999e+01
0	 2.370370e+00	 4.370370e+00	 1.002694e+01
0	 2.370370e+00	 4.444444e+00	 1.001513e+01
0	 2.444444e+00	 4.074074e+00	 1.012148e+01
0	 2.444444e+00	 4.148148e+00	 1.010400e+01
0	 2.444444e+00	 4.222222e+00	 1.008771e+01
0	 2.444444e+00	 4.296296e+00	 1.007260e+01
0	 2.444444e+00	 4.370370e+00	 1.005868e+01
0	 2.444444e+00	 4.444444e+00	 1.004596e+01
0	 2.518519e+00	 4.074074e+00	 1.015435e+01
0	 2.518519e+00	 4.148148e+00	 1.013625e+01
0	 2.518519e+00	 4.222222e+00	 1.011929e+01
0	 2.518519e+00	 4.296296e+00	 1.010348e+01
0	 2.518519e+00	 4.370370e+00	 1.008881e+01
0	 2.518519e+00	 4.444444e+00	 1.007529e+01
0	 2.592593e+00	 4.074074e+00	 1.018516e+01
0	 2.592593e+00	 4.148148e+00	 1.016654e+01
0	 2.592593e+00	 4.222222e+00	 1.014902e+01
0	 2.592593e+00	 4.296296e+00	 1.013259e+01
0	 2.592593e+00	 4.370370e+00	 1.011727e+01
0	 2.592593e+00	 4.444444e+00	 1.010305e+01
0	 2.222222e+00	 4.444444e+00	 9.949093e+00
0	 2.222222e+00	 4.518519e+00	 9.940448e+00
0	 2.222222e+00	 4.592593e+00	 9.932582e+00
0	 2.222222e+00	 4.666667e+00	 9.925525e+00
0	 2.222222e+00	 4.740741e+00	 9.919305e+00
0	 2.222222e+00	 4.814815e+00	 9.913950e+00
0	 2.296296e+00	 4.444444e+00	 9.982820e+00
0	 2.296296e+00	 4.518519e+00	 9.973057e+00
0	 2.296296e+00	 4.592593e+00	 9.964093e+00
0	 2.296296e+00	 4.666667e+00	 9.955958e+00
0	 2.296296e+00	 4.740741e+00	 9.948681e+00
0	 2.296296e+00	 4.814815e+00	 9.942292e+00
0	 2.370370e+00	 4.444444e+00	 1.001513e+01
0	 2.370370e+00	 4.518519e+00	 1.000434e+01
0	 2.370370e+00	 4.592593e+00	 9.994379e+00
0	 2.370370e+00	 4.666667e+00	 9.985264e+00
0	 2.370370e+00	 4.740741e+00	 9.977027e+00
0	 2.370370e+00	 4.814815e+00	 9.969698e+00
0	 2.444444e+00	 4.444444e+00	 1.004596e+01
0	 2.444444e+00	 4.518519e+00	 1.003426e+01
0	 2.444444e+00	 4.592593e+00	 1.002340e+01
0	 2.444444e+00	 4.666667e+00	 1.001340e+01
0	 2.444444e+00	 4.740741e+00	 1.000430e+01
0	 2.444444e+00	 4.814815e+00	 9.996116e+00
0	 2.518519e+00	 4.444444e+00	 1.007529e+01
0	 2.518519e+00	 4.518519e+00	 1.006277e+01
0	 2.518519e+00	 4.592593e+00	 1.005111e+01
0	 2.518519e+00	 4.666667e+00	 1.004033e+01
0	 2.518519e+00	 4.740741e+00	 1.003045e+01
0	 2.518519e+00	 4.814815e+00	 1.002150e+01
0	 2.592593e+00	 4.444444e+00	 1.010305e+01
0	 2.592593e+00	 4.518519e+00	 1.008983e+01
0	 2.592593e+00	 4.592593e+00	 1.007747e+01
0	 2.592593e+00	 4.666667e+00	 1.006600e+01
0	 2.592593e+00	 4.740741e+00	 1.005544e+01
0	 2.592593e+00	 4.814815e+00	 1.004579e+01
0	 2.222222e+00	 4.814815e+00	 9.913950e+00
0	 2.222222e+00	 4.888889e+00	 9.909306e+00
0	 2.222222e+00	 4.962963e+00	 9.905214e+00
0	 2.222222e+00	 5.037037e+00	 9.901697e+00
0	 2.222222e+00	 5.111111e+00	 9.898778e+00
0	 2.222222e+00	 5.185185e+00	 9.896479e+00
0	 2.296296e+00	 4.814815e+00	 9.942292e+00
0	 2.296296e+00	 4.888889e+00	 9.936642e+00
0	 2.296296e+00	 4.962963e+00	 9.931572e+00
0	 2.296296e+00	 5.037037e+00	 9.927103e+00
0	 2.296296e+00	 5.111111e+00	 9.923255e+00
0	 2.296296e+00	 5.185185e+00	 9.920047e+00
0	 2.370370e+00	 4.814815e+00	 9.969698e+00
0	 2.370370e+00	 4.888889e+00	 9.963127e+00
0	 2.370370e+00	 4.962963e+00	 9.957156e+00
0	 2.370370e+00	 5.037037e+00	 9.951803e+00
0	 2.370370e+00	 5.111111e+00	 9.947085e+00
0	 2.370370e+00	 5.185185e+00	 9.943021e+00
0	 2.444444e+00	 4.814815e+00	 9.996116e+00
0	 2.444444e+00	 4.888889e+00	 9.988705e+00
0	 2.444444e+00	 4.962963e+00	 9.981904e+00
0	 2.444444e+00	 5.037037e+00	 9.975732e+00
0	 2.444444e+00	 5.111111e+00	 9.970204e+00
0	 2.444444e+00	 5.185185e+00	 9.965336e+00
0	 2.518519e+00	 4.814815e+00	 1.002150e+01
0	 2.518519e+00	 4.888889e+00	 1.001332e+01
0	 2.518519e+00	 4.962963e+00	 1.000575e+01
0	 2.518519e+00	 5.037037e+00	 9.998826e+00
0	 2.518519e+00	 5.111111e+00	 9.992546e+00
0	 2.518519e+00	 5.185185e+00	 9.986930e+00
0	 2.592593e+00	 4.814815e+00	 1.004579e+01
0	 2.592593e+00	 4.888889e+00	 1.003690e+01
0	 2.592593e+00	 4.962963e+00	 1.002864e+01
0	 2.592593e+00	 5.037037e+00	 1.002102e+01
0	 2.592593e+00	 5.111111e+00	 1.001405e+01
0	 2.592593e+00	 5.185185e+00	 1.000774e+01
0	 2.222222e+00	 5.185185e+00	 9.896479e+00
0	 2.222222e+00	 5.259259e+00	 9.894670e+00
0	 2.222222e+00	 5.333333e+00	 9.893216e+00
0	 2.222222e+00	 5.407407e+00	 9.892136e+00
0	 2.222222e+00	 5.481481e+00	 9.891449e+00
0	 2.222222e+00	 5.555556e+00	 9.891173e+00
0	 2.296296e+00	 5.185185e+00	 9.920047e+00
0	 2.296296e+00	 5.259259e+00	 9.917351e+00
0	 2.296296e+00	 5.333333e+00	 9.915035e+00
0	 2.296296e+00	 5.407407e+00	 9.913119e+00
0	 2.296296e+00	 5.481481e+00	 9.911621e+00
0	 2.296296e+00	 5.555556e+00	 9.910560e+00
0	 2.370370e+00	 5.185185e+00	 9.943021e+00
0	 2.370370e+00	 5.259259e+00	 9.939485e+00
0	 2.370370e+00	 5.333333e+00	 9.936353e+00
0	 2.370370e+00	 5.407407e+00	 9.933645e+00
0	 2.370370e+00	 5.481481e+00	 9.931378e+00
0	 2.370370e+00	 5.555556e+00	 9.929571e+00
0	 2.444444e+00	 5.185185e+00	 9.965336e+00
0	 2.444444e+00	 5.259259e+00	 9.961011e+00
0	 2.444444e+00	 5.333333e+00	 9.957112e+00
0	 2.444444e+00	 5.407407e+00	 9.953658e+00
0	 2.444444e+00	 5.481481e+00	 9.950665e+00
0	 2.444444e+00	 5.555556e+00	 9.948151e+00
0	 2.518519e+00	 5.185185e+00	 9.986930e+00
0	 2.518519e+00	 5.259259e+00	 9.981869e+00
0	 2.518519e+00	 5.333333e+00	 9.977254e+00
0	 2.518519e+00	 5.407407e+00	 9.973100e+00
0	 2.518519e+00	 5.481481e+00	 9.969425e+00
0	 2.518519e+00	 5.555556e+00	 9.966244e+00
0	 2.592593e+00	 5.185185e+00	 1.000774e+01
0	 2.592593e+00	 5.259259e+00	 1.000200e+01
0	 2.592593e+00	 5.333333e+00	 9.996719e+00
0	 2.592593e+00	 5.407407e+00	 9.991915e+00
0	 2.592593e+00	 5.481481e+00	 9.987602e+00
0	 2.592593e+00	 5.555556e+00	 9.983794e+00
0	 2.222222e+00	 5.555556e+00	 9.891173e+00
0	 2.222222e+00	 5.629630e+00	 9.891221e+00
0	 2.222222e+00	 5.703704e+00	 9.891503e+00
0	 2.222222e+00	 5.777778e+00	 9.892032e+00
0	 2.222222e+00	 5.851852e+00	 9.892822e+00
0	 2.222222e+00	 5.925926e+00	 9.893887e+00
0	 2.296296e+00	 5.555556e+00	 9.910560e+00
0	 2.296296e+00	 5.629630e+00	 9.909848e+00
0	 2.296296e+00	 5.703704e+00	 9.909394e+00
0	 2.296296e+00	 5.777778e+00	 9.909210e+00
0	 2.296296e+00	 5.851852e+00	 9.909309e+00
0	 2.296296e+00	 5.925926e+00	 9.909705e+00
0	 2.370370e+00	 5.555556e+00	 9.929571e+00
0	 2.370370e+00	 5.629630e+00	 9.928135e+00
0	 2.370370e+00	 5.703704e+00	 9.926977e+00
0	 2.370370e+00	 5.777778e+00	 9.926109e+00
0	 2.370370e+00	 5.851852e+00	 9.925544e+00
0	 2.370370e+00	 5.925926e+00	 9.925295e+00
0	 2.444444e+00	 5.555556e+00	 9.948151e+00
0	 2.444444e+00	 5.629630e+00	 9.946026e+00
0	 2.444444e+00	 5.703704e+00	 9.944197e+00
0	 2.444444e+00	 5.777778e+00	 9.942675e+00
0	 2.444444e+00	 5.851852e+00	 9.941474e+00
0	 2.444444e+00	 5.925926e+00	 9.940606e+00
0	 2.518519e+00	 5.555556e+00	 9.966244e+00
0	 2.518519e+00	 5.629630e+00	 9.963467e+00
0	 2.518519e+00	 5.703704e+00	 9.961000e+00
0	 2.518519e+00	 5.777778e+00	 9.958856e+00
0	 2.518519e+00	 5.851852e+00	 9.957048e+00
0	 2.518519e+00	 5.925926e+00	 9.955587e+00
0	 2.592593e+00	 5.555556e+00	 9.983794e+00
0	 2.592593e+00	 5.629630e+00	 9.980401e+00
0	 2.592593e+00	 5.703704e+00	 9.977331e+00
0	 2.592593e+00	 5.777778e+00	 9.974598e+00
0	 2.592593e+00	 5.851852e+00	 9.972213e+00
0	 2.592593e+00	 5.925926e+00	 9.970188e+00
0	 2.222222e+00	 5.925926e+00	 9.893887e+00
0	 2.222222e+00	 6.000000e+00	 9.895160e+00
0	 2.222222e+00	 6.074074e+00	 9.896575e+00
0	 2.222222e+00	 6.148148e+00	 9.898142e+00
0	 2.222222e+00	 6.222222e+00	 9.899873e+00
0	 2.222222e+00	 6.296296e+00	 9.901779e+00
0	 2.296296e+00	 5.925926e+00	 9.909705e+00
0	 2.296296e+00	 6.000000e+00	 9.910331e+00
0	 2.296296e+00	 6.074074e+00	 9.911119e+00
0	 2.296296e+00	 6.148148e+00	 9.912079e+00
0	 2.296296e+00	 6.222222e+00	 9.913223e+00
0	 2.296296e+00	 6.296296e+00	 9.914562e+00
0	 2.370370e+00	 5.925926e+00	 9.925295e+00
0	 2.370370e+00	 6.000000e+00	 9.925295e+00
0	 2.370370e+00	 6.074074e+00	 9.925476e+00
0	 2.370370e+00	 6.148148e+00	 9.925848e+00
0	 2.370370e+00	 6.222222e+00	 9.926422e+00
0	 2.370370e+00	 6.296296e+00	 9.927210e+00
0	 2.444444e+00	 5.925926e+00	 9.940606e+00
0	 2.444444e+00	 6.000000e+00	 9.940003e+00
0	 2.444444e+00	 6.074074e+00	 9.939599e+00
0	 2.444444e+00	 6.148148e+00	 9.939403e+00
0	 2.444444e+00	 6.222222e+00	 9.939427e+00
0	 2.444444e+00	 6.296296e+00	 9.939681e+00
0	 2.518519e+00	 5.925926e+00	 9.955587e+00
0	 2.518519e+00	 6.000000e+00	 9.954408e+00
0	 2.518519e+00	 6.074074e+00	 9.953442e+00
0	 2.518519e+00	 6.148148e+00	 9.952701e+00
0	 2.518519e+00	 6.222222e+00	 9.952194e+00
0	 2.518519e+00	 6.296296e+00	 9.951933e+00
0	 2.592593e+00	 5.925926e+00	 9.970188e+00
0	 2.592593e+00	 6.000000e+00	 9.968459e+00
0	 2.592593e+00	 6.074074e+00	 9.966958e+00
0	 2.592593e+00	 6.148148e+00	 9.965695e+00
0	 2.592593e+00	 6.222222e+00	 9.964680e+00
0	 2.592593e+00	 6.296296e+00	 9.963924e+00
0	 2.222222e+00	 6.296296e+00	 9.901779e+00
0	 2.222222e+00	 6.370370e+00	 9.903812e+00
0	 2.222222e+00	 6.444444e+00	 9.905924e+00
0	 2.222222e+00	 6.518519e+00	 9.908124e+00
0	 2.222222e+00	 6.592593e+00	 9.910419e+00
0	 2.222222e+00	 6.666667e+00	 9.912817e+00
0	 2.296296e+00	 6.296296e+00	 9.914562e+00
0	 2.296296e+00	 6.370370e+00	 9.916048e+00
0	 2.296296e+00	 6.444444e+00	 9.917629e+00
0	 2.296296e+00	 6.518519e+00	 9.919315e+00
0	 2.296296e+00	 6.592593e+00	 9.921113e+00
0	 2.296296e+00	 6.666667e+00	 9.923032e+00
0	 2.370370e+00	 6.296296e+00	 9.927210e+00
0	 2.370370e+00	 6.370370e+00	 9.928162e+00
0	 2.370370e+00	 6.444444e+00	 9.929226e+00
0	 2.370370e+00	 6.518519e+00	 9.930410e+00
0	 2.370370e+00	 6.592593e+00	 9.931722e+00
0	 2.370370e+00	 6.666667e+00	 9.933171e+00
0	 2.444444e+00	 6.296296e+00	 9.939681e+00
0	 2.444444e+00	 6.370370e+00	 9.940115e+00
0	 2.444444e+00	 6.444444e+00	 9.940675e+00
0	 2.444444e+00	 6.518519e+00	 9.941371e+00
0	 2.444444e+00	 6.592593e+00	 9.942210e+00
0	 2.444444e+00	 6.666667e+00	 9.943200e+00
0	 2.518519e+00	 6.296296e+00	 9.951933e+00
0	 2.518519e+00	 6.370370e+00	 9.951866e+00
0	 2.518519e+00	 6.444444e+00	 9.951939e+00
0	 2.518519e+00	 6.518519e+00	 9.952161e+00
0	 2.518519e+00	 6.592593e+00	 9.952540e+00
0	 2.518519e+00	 6.666667e+00	 9.953085e+00
0	 2.592593e+00	 6.296296e+00	 9.963924e+00
0	 2.592593e+00	 6.370370e+00	 9.963374e+00
0	 2.592593e+00	 6.444444e+00	 9.962978e+00
0	 2.592593e+00	 6.518519e+00	 9.962742e+00
0	 2.592593e+00	 6.592593e+00	 9.962677e+00
0	 2.592593e+00	 6.666667e+00	 9.962789e+00
0	 2.222222e+00	 6.666667e+00	 9.912817e+00
0	 2.222222e+00	 6.740741e+00	 9.915286e+00
0	 2.222222e+00	 6.814815e+00	 9.917788e+00
0	 2.222222e+00	 6.888889e+00	 9.920330e+00
0	 2.222222e+00	 6.962963e+00	 9.922920e+00
0	 2.222222e+00	 7.037037e+00	 9.925564e+00
0	 2.296296e+00	 6.666667e+00	 9.923032e+00
0	 2.296296e+00	 6.740741e+00	 9.925037e+00
0	 2.296296e+00	 6.814815e+00	 9.927089e+00
0	 2.296296e+00	 6.888889e+00	 9.929196e+00
0	 2.296296e+00	 6.962963e+00	 9.931365e+00
0	 2.296296e+00	 7.037037e+00	 9.933603e+00
0	 2.370370e+00	 6.666667e+00	 9.933171e+00
0	 2.370370e+00	 6.740741e+00	 9.934721e+00
0	 2.370370e+00	 6.814815e+00	 9.936332e+00
0	 2.370370e+00	 6.888889e+00	 9.938011e+00
0	 2.370370e+00	 6.962963e+00	 9.939766e+00
0	 2.370370e+00	 7.037037e+00	 9.941603e+00
0	 2.444444e+00	 6.666667e+00	 9.943200e+00
0	 2.444444e+00	 6.740741e+00	 9.944305e+00
0	 2.444444e+00	 6.814815e+00	 9.945484e+00
0	 2.444444e+00	 6.888889e+00	 9.946744e+00
0	 2.444444e+00	 6.962963e+00	 9.948093e+00
0	 2.444444e+00	 7.037037e+00	 9.949537e+00
0	 2.518519e+00	 6.666667e+00	 9.953085e+00
0	 2.518519e+00	 6.740741e+00	 9.953756e+00
0	 2.518519e+00	 6.814815e+00	 9.954514e+00
0	 2.518519e+00	 6.888889e+00	 9.955365e+00
0	 2.518519e+00	 6.962963e+00	 9.956317e+00
0	 2.518519e+00	 7.037037e+00	 9.957376e+00
0	 2.592593e+00	 6.666667e+00	 9.962789e+00
0	 2.592593e+00	 6.740741e+00	 9.963040e+00
0	 2.592593e+00	 6.814815e+00	 9.963389e+00
0	 2.592593e+00	 6.888889e+00	 9.963843e+00
0	 2.592593e+00	 6.962963e+00	 9.964409e+00
0	 2.592593e+00	 7.037037e+00	 9.965093e+00
0	 2.222222e+00	 7.037037e+00	 9.925564e+00
0	 2.222222e+00	 7.111111e+00	 9.928235e+00
0	 2.222222e+00	 7.185185e+00	 9.930907e+00
0	 2.222222e+00	 7.259259e+00	 9.933585e+00
0	 2.222222e+00	 7.333333e+00	 9.936274e+00
0	 2.222222e+00	 7.407407e+00	 9.938980e+00
0	 2.296296e+00	 7.037037e+00	 9.933603e+00
0	 2.296296e+00	 7.111111e+00	 9.935882e+00
0	 2.296296e+00	 7.185185e+00	 9.938172e+00
0	 2.296296e+00	 7.259259e+00	 9.940481e+00
0	 2.296296e+00	 7.333333e+00	 9.942814e+00
0	 2.296296e+00	 7.407407e+00	 9.945175e+00
0	 2.370370e+00	 7.037037e+00	 9.941603e+00
0	 2.370370e+00	 7.111111e+00	 9.943494e+00
0	 2.370370e+00	 7.185185e+00	 9.945409e+00
0	 2.370370e+00	 7.259259e+00	 9.947353e+00
0	 2.370370e+00	 7.333333e+00	 9.949332e+00
0	 2.370370e+00	 7.407407e+00	 9.951353e+00
0	 2.444444e+00	 7.037037e+00	 9.949537e+00
0	 2.444444e+00	 7.111111e+00	 9.951047e+00
0	 2.444444e+00	 7.185185e+00	 9.952591e+00
0	 2.444444e+00	 7.259259e+00	 9.954176e+00
0	 2.444444e+00	 7.333333e+00	 9.955807e+00
0	 2.444444e+00	 7.407407e+00	 9.957491e+00
0	 2.518519e+00	 7.037037e+00	 9.957376e+00
0	 2.518519e+00	 7.111111e+00	 9.958512e+00
0	 2.518519e+00	 7.185185e+00	 9.959693e+00
0	 2.518519e+00	 7.259259e+00	 9.960926e+00
0	 2.518519e+00	 7.333333e+00	 9.962216e+00
0	 2.518519e+00	 7.407407e+00	 9.963568e+00
0	 2.592593e+00	 7.037037e+00	 9.965093e+00
0	 2.592593e+00	 7.111111e+00	 9.965864e+00
0	 2.592593e+00	 7.185185e+00	 9.966691e+00
0	 2.592593e+00	 7.259259e+00	 9.967579e+00
0	 2.592593e+00	 7.333333e+00	 9.968534e+00
0	 2.592593e+00	 7.407407e+00	 9.969562e+00
0	 2.222222e+00	 7.407407e+00	 9.938980e+00
0	 2.222222e+00	 7.481481e+00	 9.941683e+00
0	 2.222222e+00	 7.555556e+00	 9.944360e+00
0	 2.222222e+00	 7.629630e+00	 9.947016e+00
0	 2.222222e+00	 7.703704e+00	 9.949658e+00
0	 2.222222e+00	 7.777778e+00	 9.952288e+00
0	 2.296296e+00	 7.407407e+00	 9.945175e+00
0	 2.296296e+00	 7.481481e+00	 9.947544e+00
0	 2.296296e+00	 7.555556e+00	 9.949898e+00
0	 2.296296e+00	 7.629630e+00	 9.952242e+00
0	 2.296296e+00	 7.703704e+00	 9.954580e+00
0	 2.296296e+00	 7.777778e+00	 9.956919e+00
0	 2.370370e+00	 7.407407e+00	 9.951353e+00
0	 2.370370e+00	 7.481481e+00	 9.953391e+00
0	 2.370370e+00	 7.555556e+00	 9.955425e+00
0	 2.370370e+00	 7.629630e+00	 9.957458e+00
0	 2.370370e+00	 7.703704e+00	 9.959496e+00
0	 2.370370e+00	 7.777778e+00	 9.961544e+00
0	 2.444444e+00	 7.407407e+00	 9.957491e+00
0	 2.444444e+00	 7.481481e+00	 9.959203e+00
0	 2.444444e+00	 7.555556e+00	 9.960920e+00
0	 2.444444e+00	 7.629630e+00	 9.962647e+00
0	 2.444444e+00	 7.703704e+00	 9.964387e+00
0	 2.444444e+00	 7.777778e+00	 9.966148e+00
0	 2.518519e+00	 7.407407e+00	 9.963568e+00
0	 2.518519e+00	 7.481481e+00	 9.964959e+00
0	 2.518519e+00	 7.555556e+00	 9.966364e+00
0	 2.518519e+00	 7.629630e+00	 9.967788e+00
0	 2.518519e+00	 7.703704e+00	 9.969236e+00
0	 2.518519e+00	 7.777778e+00	 9.970712e+00
0	 2.592593e+00	 7.407407e+00	 9.969562e+00
0	 2.592593e+00	 7.481481e+00	 9.970638e+00
0	 2.592593e+00	 7.555556e+00	 9.971737e+00
0	 2.592593e+00	 7.629630e+00	 9.972864e+00
0	 2.592593e+00	 7.703704e+00	 9.974023e+00
0	 2.592593e+00	 7.777778e+00	 9.975219e+00
0	 2.222222e+00	 7.777778e+00	 9.952288e+00
0	 2.222222e+00	 7.851852e+00	 9.954891e+00
0	 2.222222e+00	 7.925926e+00	 9.957446e+00
0	 2.222222e+00	 8.000000e+00	 9.959960e+00
0	 2.222222e+00	 8.074074e+00	 9.962436e+00
0	 2.222222e+00	 8.148148e+00	 9.964879e+00
0	 2.296296e+00	 7.777778e+00	 9.956919e+00
0	 2.296296e+00	 7.851852e+00	 9.959239e+00
0	 2.296296e+00	 7.925926e+00	 9.961521e+00
0	 2.296296e+00	 8.000000e+00	 9.963770e+00
0	 2.296296e+00	 8.074074e+00	 9.965990e+00
0	 2.296296e+00	 8.148148e+00	 9.968187e+00
0	 2.370370e+00	 7.777778e+00	 9.961544e+00
0	 2.370370e+00	 7.851852e+00	 9.963583e+00
0	 2.370370e+00	 7.925926e+00	 9.965593e+00
0	 2.370370e+00	 8.000000e+00	 9.967579e+00
0	 2.370370e+00	 8.074074e+00	 9.969545e+00
0	 2.370370e+00	 8.148148e+00	 9.971496e+00
0	 2.444444e+00	 7.777778e+00	 9.966148e+00
0	 2.444444e+00	 7.851852e+00	 9.967908e+00
0	 2.444444e+00	 7.925926e+00	 9.969648e+00
0	 2.444444e+00	 8.000000e+00	 9.971373e+00
0	 2.444444e+00	 8.074074e+00	 9.973086e+00
0	 2.444444e+00	 8.148148e+00	 9.974793e+00
0	 2.518519e+00	 7.777778e+00	 9.970712e+00
0	 2.518519e+00	 7.851852e+00	 9.972197e+00
0	 2.518519e+00	 7.925926e+00	 9.973670e+00
0	 2.518519e+00	 8.000000e+00	 9.975136e+00
0	 2.518519e+00	 8.074074e+00	 9.976600e+00
0	 2.518519e+00	 8.148148e+00	 9.978065e+00
0	 2.592593e+00	 7.777778e+00	 9.975219e+00
0	 2.592593e+00	 7.851852e+00	 9.976433e+00
0	 2.592593e+00	 7.925926e+00	 9.977644e+00
0	 2.592593e+00	 8.000000e+00	 9.978855e+00
0	 2.592593e+00	 8.074074e+00	 9.980073e+00
0	 2.592593e+00	 8.148148e+00	 9.981299e+00
0	 2.222222e+00	 8.148148e+00	 9.964879e+00
0	 2.222222e+00	 8.222222e+00	 9.967273e+00
0	 2.222222e+00	 8.296296e+00	 9.969601e+00
0	 2.222222e+00	 8.370370e+00	 9.971868e+00
0	 2.222222e+00	 8.444444e+00	 9.974079e+00
0	 2.222222e+00	 8.518519e+00	 9.976237e+00
0	 2.296296e+00	 8.148148e+00	 9.968187e+00
0	 2.296296e+00	 8.222222e+00	 9.970343e+00
0	 2.296296e+00	 8.296296e+00	 9.972441e+00
0	 2.296296e+00	 8.370370e+00	 9.974487e+00
0	 2.296296e+00	 8.444444e+00	 9.976485e+00
0	 2.296296e+00	 8.518519e+00	 9.978439e+00
0	 2.370370e+00	 8.148148e+00	 9.971496e+00
0	 2.370370e+00	 8.222222e+00	 9.973415e+00
0	 2.370370e+00	 8.296296e+00	 9.975285e+00
0	 2.370370e+00	 8.370370e+00	 9.977110e+00
0	 2.370370e+00	 8.444444e+00	 9.978896e+00
0	 2.370370e+00	 8.518519e+00	 9.980645e+00
0	 2.444444e+00	 8.148148e+00	 9.974793e+00
0	 2.444444e+00	 8.222222e+00	 9.976476e+00
0	 2.444444e+00	 8.296296e+00	 9.978119e+00
0	 2.444444e+00	 8.370370e+00	 9.979725e+00
0	 2.444444e+00	 8.444444e+00	 9.981300e+00
0	 2.444444e+00	 8.518519e+00	 9.982845e+00
0	 2.518519e+00	 8.148148e+00	 9.978065e+00
0	 2.518519e+00	 8.222222e+00	 9.979515e+00
0	 2.518519e+00	 8.296296e+00	 9.980932e+00
0	 2.518519e+00	 8.370370e+00	 9.982322e+00
0	 2.518519e+00	 8.444444e+00	 9.983686e+00
0	 2.518519e+00	 8.518519e+00	 9.985030e+00
0	 2.592593e+00	 8.148148e+00	 9.981299e+00
0	 2.592593e+00	 8.222222e+00	 9.982518e+00
0	 2.592593e+00	 8.296296e+00	 9.983713e+00
0	 2.592593e+00	 8.370370e+00	 9.984887e+00
0	 2.592593e+00	 8.444444e+00	 9.986045e+00
0	 2.592593e+00	 8.518519e+00	 9.987189e+00
0	 2.222222e+00	 8.518519e+00	 9.976237e+00
0	 2.222222e+00	 8.592593e+00	 9.978328e+00
0	 2.222222e+00	 8.666667e+00	 9.980334e+00
0	 2.222222e+00	 8.740741e+00	 9.982261e+00
0	 2.222222e+00	 8.814815e+00	 9.984113e+00
0	 2.222222e+00	 8.888889e+00	 9.985895e+00
0	 2.296296e+00	 8.518519e+00	 9.978439e+00
0	 2.296296e+00	 8.592593e+00	 9.980333e+00
0	 2.296296e+00	 8.666667e+00	 9.982151e+00
0	 2.296296e+00	 8.740741e+00	 9.983898e+00
0	 2.296296e+00	 8.814815e+00	 9.985579e+00
0	 2.296296e+00	 8.888889e+00	 9.987197e+00
0	 2.370370e+00	 8.518519e+00	 9.980645e+00
0	 2.370370e+00	 8.592593e+00	 9.982343e+00
0	 2.370370e+00	 8.666667e+00	 9.983973e+00
0	 2.370370e+00	 8.740741e+00	 9.985541e+00
0	 2.370370e+00	 8.814815e+00	 9.987050e+00
0	 2.370370e+00	 8.888889e+00	 9.988504e+00
0	 2.444444e+00	 8.518519e+00	 9.982845e+00
0	 2.444444e+00	 8.592593e+00	 9.984348e+00
0	 2.444444e+00	 8.666667e+00	 9.985792e+00
0	 2.444444e+00	 8.740741e+00	 9.987181e+00
0	 2.444444e+00	 8.814815e+00	 9.988519e+00
0	 2.444444e+00	 8.888889e+00	 9.989810e+00
0	 2.518519e+00	 8.518519e+00	 9.985030e+00
0	 2.518519e+00	 8.592593e+00	 9.986338e+00
0	 2.518519e+00	 8.666667e+00	 9.987597e+00
0	 2.518519e+00	 8.740741e+00	 9.988808e+00
0	 2.518519e+00	 8.814815e+00	 9.989977e+00
0	 2.518519e+00	 8.888889e+00	 9.991106e+00
0	 2.592593e+00	 8.518519e+00	 9.987189e+00
0	 2.592593e+00	 8.592593e+00	 9.988305e+00
0	 2.592593e+00	 8.666667e+00	 9.989380e+00
0	 2.592593e+00	 8.740741e+00	 9.990415e+00
0	 2.592593e+00	 8.814815e+00	 9.991416e+00
0	 2.592593e+00	 8.888889e+00	 9.992384e+00
0	 2.222222e+00	 8.888889e+00	 9.985895e+00
0	 2.222222e+00	 8.962963e+00	 9.987590e+00
0	 2.222222e+00	 9.037037e+00	 9.989183e+00
0	 2.222222e+00	 9.111111e+00	 9.990678e+00
0	 2.222222e+00	 9.185185e+00	 9.992081e+00
0	 2.222222e+00	 9.259259e+00	 9.993395e+00
0	 2.296296e+00	 8.888889e+00	 9.987197e+00
0	 2.296296e+00	 8.962963e+00	 9.988737e+00
0	 2.296296e+00	 9.037037e+00	 9.990183e+00
0	 2.296296e+00	 9.111111e+00	 9.991541e+00
0	 2.296296e+00	 9.185185e+00	 9.992814e+00
0	 2.296296e+00	 9.259259e+00	 9.994008e+00
0	 2.370370e+00	 8.888889e+00	 9.988504e+00
0	 2.370370e+00	 8.962963e+00	 9.989889e+00
0	 2.370370e+00	 9.037037e+00	 9.991190e+00
0	 2.370370e+00	 9.111111e+00	 9.992410e+00
0	 2.370370e+00	 9.185185e+00	 9.993555e+00
0	 2.370370e+00	 9.259259e+00	 9.994628e+00
0	 2.444444e+00	 8.888889e+00	 9.989810e+00
0	 2.444444e+00	 8.962963e+00	 9.991040e+00
0	 2.444444e+00	 9.037037e+00	 9.992195e+00
0	 2.444444e+00	 9.111111e+00	 9.993279e+00
0	 2.444444e+00	 9.185185e+00	 9.994296e+00
0	 2.444444e+00	 9.259259e+00	 9.995248e+00
0	 2.518519e+00	 8.888889e+00	 9.991106e+00
0	 2.518519e+00	 8.962963e+00	 9.992182e+00
0	 2.518519e+00	 9.037037e+00	 9.993192e+00
0	 2.518519e+00	 9.111111e+00	 9.994141e+00
0	 2.518519e+00	 9.185185e+00	 9.995030e+00
0	 2.518519e+00	 9.259259e+00	 9.995863e+00
0	 2.592593e+00	 8.888889e+00	 9.992384e+00
0	 2.592593e+00	 8.962963e+00	 9.993307e+00
0	 2.592593e+00	 9.037037e+00	 9.994174e+00
0	 2.592593e+00	 9.111111e+00	 9.994988e+00
0	 2.592593e+00	 9.185185e+00	 9.995750e+00
0	 2.592593e+00	 9.259259e+00	 9.996465e+00
0	 2.222222e+00	 9.259259e+00	 9.993395e+00
0	 2.222222e+00	 9.333333e+00	 9.994604e+00
0	 2.222222e+00	 9.407407e+00	 9.995690e+00
0	 2.222222e+00	 9.481481e+00	 9.996658e+00
0	 2.222222e+00	 9.555556e+00	 9.997513e+00
0	 2.222222e+00	 9.629630e+00	 9.998261e+00
0	 2.296296e+00	 9.259259e+00	 9.994008e+00
0	 2.296296e+00	 9.333333e+00	 9.995105e+00
0	 2.296296e+00	 9.407407e+00	 9.996091e+00
0	 2.296296e+00	 9.481481e+00	 9.996969e+00
0	 2.296296e+00	 9.555556e+00	 9.997744e+00
0	 2.296296e+00	 9.629630e+00	 9.998421e+00
0	 2.370370e+00	 9.259259e+00	 9.994628e+00
0	 2.370370e+00	 9.333333e+00	 9.995614e+00
0	 2.370370e+00	 9.407407e+00	 9.996500e+00
0	 2.370370e+00	 9.481481e+00	 9.997288e+00
0	 2.370370e+00	 9.555556e+00	 9.997984e+00
0	 2.370370e+00	 9.629630e+00	 9.998590e+00
0	 2.444444e+00	 9.259259e+00	 9.995248e+00
0	 2.444444e+00	 9.333333e+00	 9.996124e+00
0	 2.444444e+00	 9.407407e+00	 9.996910e+00
0	 2.444444e+00	 9.481481e+00	 9.997609e+00
0	 2.444444e+00	 9.555556e+00	 9.998226e+00
0	 2.444444e+00	 9.629630e+00	 9.998762e+00
0	 2.518519e+00	 9.259259e+00	 9.995863e+00
0	 2.518519e+00	 9.333333e+00	 9.996629e+00
0	 2.518519e+00	 9.407407e+00	 9.997315e+00
0	 2.518519e+00	 9.481481e+00	 9.997926e+00
0	 2.518519e+00	 9.555556e+00	 9.998463e+00
0	 2.518519e+00	 9.629630e+00	 9.998930e+00
0	 2.592593e+00	 9.259259e+00	 9.996465e+00
0	 2.592593e+00	 9.333333e+00	 9.997121e+00
0	 2.592593e+00	 9.407407e+00	 9.997709e+00
0	 2.592593e+00	 9.481481e+00	 9.998231e+00
0	 2.592593e+00	 9.555556e+00	 9.998690e+00
0	 2.592593e+00	 9.629630e+00	 9.999087e+00
0	 2.222222e+00	 9.629630e+00	 9.998261e+00
0	 2.222222e+00	 9.703704e+00	 9.998884e+00
0	 2.222222e+00	 9.777778e+00	 9.999365e+00
0	 2.222222e+00	 9.851852e+00	 9.999710e+00
0	 2.222222e+00	 9.925926e+00	 9.999924e+00
0	 2.222222e+00	 1.000000e+01	 1.000001e+01
0	 2.296296e+00	 9.629630e+00	 9.998421e+00
0	 2.296296e+00	 9.703704e+00	 9.998985e+00
0	 2.296296e+00	 9.777778e+00	 9.999420e+00
0	 2.296296e+00	 9.851852e+00	 9.999732e+00
0	 2.296296e+00	 9.925926e+00	 9.999924e+00
0	 2.296296e+00	 1.000000e+01	 1.000000e+01
0	 2.370370e+00	 9.629630e+00	 9.998590e+00
0	 2.370370e+00	 9.703704e+00	 9.999095e+00
0	 2.370370e+00	 9.777778e+00	 9.999485e+00
0	 2.370370e+00	 9.851852e+00	 9.999764e+00
0	 2.370370e+00	 9.925926e+00	 9.999935e+00
0	 2.370370e+00	 1.000000e+01	 1.000000e+01
0	 2.444444e+00	 9.629630e+00	 9.998762e+00
0	 2.444444e+00	 9.703704e+00	 9.999208e+00
0	 2.444444e+00	 9.777778e+00	 9.999553e+00
0	 2.444444e+00	 9.851852e+00	 9.999799e+00
0	 2.444444e+00	 9.925926e+00	 9.999950e+00
0	 2.444444e+00	 1.000000e+01	 1.000001e+01
0	 2.518519e+00	 9.629630e+00	 9.998930e+00
0	 2.518519e+00	 9.703704e+00	 9.999317e+00
0	 2.518519e+00	 9.777778e+00	 9.999617e+00
0	 2.518519e+00	 9.851852e+00	 9.999831e+00
0	 2.518519e+00	 9.925926e+00	 9.999962e+00
0	 2.518519e+00	 1.000000e+01	 1.000001e+01
0	 2.592593e+00	 9.629630e+00	 9.999087e+00
0	 2.592593e+00	 9.703704e+00	 9.999416e+00
0	 2.592593e+00	 9.777778e+00	 9.999671e+00
0	 2.592593e+00	 9.851852e+00	 9.999853e+00
0	 2.592593e+00	 9.925926e+00	 9.999962e+00
0	 2.592593e+00	 1.000000e+01	 1.000000e+01
0	 2.592593e+00	 0.000000e+00	 1.124747e+01
0	 2.592593e+00	 7.407407e-02	 1.124003e+01
0	 2.592593e+00	 1.481481e-01	 1.124459e+01
0	 2.592593e+00	 2.222222e-01	 1.125909e+01
0	 2.592593e+00	 2.962963e-01	 1.128144e+01
0	 2.592593e+00	 3.703704e-01	 1.130958e+01
0	 2.666667e+00	 0.000000e+00	 1.128118e+01
0	 2.666667e+00	 7.407407e-02	 1.126518e+01
0	 2.666667e+00	 1.481481e-01	 1.125561e+01
0	 2.666667e+00	 2.222222e-01	 1.125242e+01
0	 2.666667e+00	 2.962963e-01	 1.125555e+01
0	 2.666667e+00	 3.703704e-01	 1.126493e+01
0	 2.740741e+00	 0.000000e+00	 1.125265e+01
0	 2.740741e+00	 7.407407e-02	 1.123829e+01
0	 2.740741e+00	 1.481481e-01	 1.122618e+01
0	 2.740741e+00	 2.222222e-01	 1.121762e+01
0	 2.740741e+00	 2.962963e-01	 1.121394e+01
0	 2.740741e+00	 3.703704e-01	 1.121644e+01
0	 2.814815e+00	 0.000000e+00	 1.117797e+01
0	 2.814815e+00	 7.407407e-02	 1.117173e+01
0	 2.814815e+00	 1.481481e-01	 1.116505e+01
0	 2.814815e+00	 2.222222e-01	 1.115995e+01
0	 2.814815e+00	 2.962963e-01	 1.115849e+01
0	 2.814815e+00	 3.703704e-01	 1.116270e+01
0	 2.888889e+00	 0.000000e+00	 1.107318e+01
0	 2.888889e+00	 7.407407e-02	 1.107785e+01
0	 2.888889e+00	 1.481481e-01	 1.108098e+01
0	 2.888889e+00	 2.222222e-01	 1.108468e+01
0	 2.888889e+00	 2.962963e-01	 1.109109e+01
0	 2.888889e+00	 3.703704e-01	 1.110234e+01
0	 2.962963e+00	 0.000000e+00	 1.095435e+01
0	 2.962963e+00	 7.407407e-02	 1.096899e+01
0	 2.962963e+00	 1.481481e-01	 1.098271e+01
0	 2.962963e+00	 2.222222e-01	 1.099707e+01
0	 2.962963e+00	 2.962963e-01	 1.101362e+01
0	 2.962963e+00	 3.703704e-01	 1.103394e+01
0	 2.592593e+00	 3.703704e-01	 1.130958e+01
0	 2.592593e+00	 4.444444e-01	 1.133808e+01
0	 2.592593e+00	 5.185185e-01	 1.136458e+01
0	 2.592593e+00	 5.925926e-01	 1.139161e+01
0	 2.592593e+00	 6.666667e-01	 1.142168e+01
0	 2.592593e+00	 7.407407e-01	 1.145731e+01
0	 2.666667e+00	 3.703704e-01	 1.126493e+01
0	 2.666667e+00	 4.444444e-01	 1.127816e+01
0	 2.666667e+00	 5.185185e-01	 1.129384e+01
0	 2.666667e+00	 5.925926e-01	 1.131345e+01
0	 2.666667e+00	 6.666667e-01	 1.133848e+01
0	 2.666667e+00	 7.407407e-01	 1.137042e+01
0	 2.740741e+00	 3.703704e-01	 1.121644e+01
0	 2.740741e+00	 4.444444e-01	 1.122422e+01
0	 2.740741e+00	 5.185185e-01	 1.123601e+01
0	 2.740741e+00	 5.925926e-01	 1.125255e+01
0	 2.740741e+00	 6.666667e-01	 1.127461e+01
0	 2.740741e+00	 7.407407e-01	 1.130294e+01
0	 2.814815e+00	 3.703704e-01	 1.116270e+01
0	 2.814815e+00	 4.444444e-01	 1.117206e+01
0	 2.814815e+00	 5.185185e-01	 1.118488e+01
0	 2.814815e+00	 5.925926e-01	 1.120150e+01
0	 2.814815e+00	 6.666667e-01	 1.122226e+01
0	 2.814815e+00	 7.407407e-01	 1.124748e+01
0	 2.888889e+00	 3.703704e-01	 1.110234e+01
0	 2.888889e+00	 4.444444e-01	 1.111746e+01
0	 2.888889e+00	 5.185185e-01	 1.113424e+01
0	 2.888889e+00	 5.925926e-01	 1.115289e+01
0	 2.888889e+00	 6.666667e-01	 1.117362e+01
0	 2.888889e+00	 7.407407e-01	 1.119664e+01
0	 2.962963e+00	 3.703704e-01	 1.103394e+01
0	 2.962963e+00	 4.444444e-01	 1.105623e+01
0	 2.962963e+00	 5.185185e-01	 1.107788e+01
0	 2.962963e+00	 5.925926e-01	 1.109930e+01
0	 2.962963e+00	 6.666667e-01	 1.112088e+01
0	 2.962963e+00	 7.407407e-01	 1.114301e+01
0	 2.592593e+00	 7.407407e-01	 1.145731e+01
0	 2.592593e+00	 8.148148e-01	 1.149270e+01
0	 2.592593e+00	 8.888889e-01	 1.152122e+01
0	 2.592593e+00	 9.629630e-01	 1.154412e+01
0	 2.592593e+00	 1.037037e+00	 1.156267e+01
0	 2.592593e+00	 1.111111e+00	 1.157810e+01
0	 2.666667e+00	 7.407407e-01	 1.137042e+01
0	 2.666667e+00	 8.148148e-01	 1.140319e+01
0	 2.666667e+00	 8.888889e-01	 1.143057e+01
0	 2.666667e+00	 9.629630e-01	 1.145385e+01
0	 2.666667e+00	 1.037037e+00	 1.147430e+01
0	 2.666667e+00	 1.111111e+00	 1.149319e+01
0	 2.740741e+00	 7.407407e-01	 1.130294e+01
0	 2.740741e+00	 8.148148e-01	 1.133205e+01
0	 2.740741e+00	 8.888889e-01	 1.135675e+01
0	 2.740741e+00	 9.629630e-01	 1.137829e+01
0	 2.740741e+00	 1.037037e+00	 1.139791e+01
0	 2.740741e+00	 1.111111e+00	 1.141685e+01
0	 2.814815e+00	 7.407407e-01	 1.124748e+01
0	 2.814815e+00	 8.148148e-01	 1.127277e+01
0	 2.814815e+00	 8.888889e-01	 1.129428e+01
0	 2.814815e+00	 9.629630e-01	 1.131314e+01
0	 2.814815e+00	 1.037037e+00	 1.133053e+01
0	 2.814815e+00	 1.111111e+00	 1.134760e+01
0	 2.888889e+00	 7.407407e-01	 1.119664e+01
0	 2.888889e+00	 8.148148e-01	 1.121885e+01
0	 2.888889e+00	 8.888889e-01	 1.123767e+01
0	 2.888889e+00	 9.629630e-01	 1.125412e+01
0	 2.888889e+00	 1.037037e+00	 1.126920e+01
0	 2.888889e+00	 1.111111e+00	 1.128393e+01
0	 2.962963e+00	 7.407407e-01	 1.114301e+01
0	 2.962963e+00	 8.148148e-01	 1.116375e+01
0	 2.962963e+00	 8.888889e-01	 1.118145e+01
0	 2.962963e+00	 9.629630e-01	 1.119691e+01
0	 2.962963e+00	 1.037037e+00	 1.121094e+01
0	 2.962963e+00	 1.111111e+00	 1.122436e+01
0	 2.592593e+00	 1.111111e+00	 1.157810e+01
0	 2.592593e+00	 1.185185e+00	 1.158800e+01
0	 2.592593e+00	 1.259259e+00	 1.158930e+01
0	 2.592593e+00	 1.333333e+00	 1.158232e+01
0	 2.592593e+00	 1.407407e+00	 1.156739e+01
0	 2.592593e+00	 1.481481e+00	 1.154484e+01
0	 2.666667e+00	 1.111111e+00	 1.149319e+01
0	 2.666667e+00	 1.185185e+00	 1.150741e+01
0	 2.666667e+00	 1.259259e+00	 1.151320e+01
0	 2.666667e+00	 1.333333e+00	 1.151084e+01
0	 2.666667e+00	 1.407407e+00	 1.150065e+01
0	 2.666667e+00	 1.481481e+00	 1.148292e+01
0	 2.740741e+00	 1.111111e+00	 1.141685e+01
0	 2.740741e+00	 1.185185e+00	 1.143205e+01
0	 2.740741e+00	 1.259259e+00	 1.143982e+01
0	 2.740741e+00	 1.333333e+00	 1.144043e+01
0	 2.740741e+00	 1.407407e+00	 1.143419e+01
0	 2.740741e+00	 1.481481e+00	 1.142138e+01
0	 2.814815e+00	 1.111111e+00	 1.134760e+01
0	 2.814815e+00	 1.185185e+00	 1.136177e+01
0	 2.814815e+00	 1.259259e+00	 1.136994e+01
0	 2.814815e+00	 1.333333e+00	 1.137238e+01
0	 2.814815e+00	 1.407407e+00	 1.136939e+01
0	 2.814815e+00	 1.481481e+00	 1.136126e+01
0	 2.888889e+00	 1.111111e+00	 1.128393e+01
0	 2.888889e+00	 1.185185e+00	 1.129642e+01
0	 2.888889e+00	 1.259259e+00	 1.130433e+01
0	 2.888889e+00	 1.333333e+00	 1.130796e+01
0	 2.888889e+00	 1.407407e+00	 1.130763e+01
0	 2.888889e+00	 1.481481e+00	 1.130364e+01
0	 2.962963e+00	 1.111111e+00	 1.122436e+01
0	 2.962963e+00	 1.185185e+00	 1.123585e+01
0	 2.962963e+00	 1.259259e+00	 1.124377e+01
0	 2.962963e+00	 1.333333e+00	 1.124847e+01
0	 2.962963e+00	 1.407407e+00	 1.125029e+01
0	 2.962963e+00	 1.481481e+00	 1.124958e+01
0	 2.592593e+00	 1.481481e+00	 1.154484e+01
0	 2.592593e+00	 1.555556e+00	 1.151692e+01
0	 2.592593e+00	 1.629630e+00	 1.148566e+01
0	 2.592593e+00	 1.703704e+00	 1.145096e+01
0	 2.592593e+00	 1.777778e+00	 1.141276e+01
0	 2.592593e+00	 1.851852e+00	 1.137097e+01
0	 2.666667e+00	 1.481481e+00	 1.148292e+01
0	 2.666667e+00	 1.555556e+00	 1.146018e+01
0	 2.666667e+00	 1.629630e+00	 1.143461e+01
0	 2.666667e+00	 1.703704e+00	 1.140600e+01
0	 2.666667e+00	 1.777778e+00	 1.137412e+01
0	 2.666667e+00	 1.851852e+00	 1.133876e+01
0	 2.740741e+00	 1.481481e+00	 1.142138e+01
0	 2.740741e+00	 1.555556e+00	 1.140409e+01
0	 2.740741e+00	 1.629630e+00	 1.138404e+01
0	 2.740741e+00	 1.703704e+00	 1.136094e+01
0	 2.740741e+00	 1.777778e+00	 1.133449e+01
0	 2.740741e+00	 1.851852e+00	 1.130440e+01
0	 2.814815e+00	 1.481481e+00	 1.136126e+01
0	 2.814815e+00	 1.555556e+00	 1.134927e+01
0	 2.814815e+00	 1.629630e+00	 1.133429e+01
0	 2.814815e+00	 1.703704e+00	 1.131601e+01
0	 2.814815e+00	 1.777778e+00	 1.129415e+01
0	 2.814815e+00	 1.851852e+00	 1.126839e+01
0	 2.888889e+00	 1.481481e+00	 1.130364e+01
0	 2.888889e+00	 1.555556e+00	 1.129634e+01
0	 2.888889e+00	 1.629630e+00	 1.128570e+01
0	 2.888889e+00	 1.703704e+00	 1.127146e+01
0	 2.888889e+00	 1.777778e+00	 1.125338e+01
0	 2.888889e+00	 1.851852e+00	 1.123123e+01
0	 2.962963e+00	 1.481481e+00	 1.124958e+01
0	 2.962963e+00	 1.555556e+00	 1.124592e+01
0	 2.962963e+00	 1.629630e+00	 1.123860e+01
0	 2.962963e+00	 1.703704e+00	 1.122750e+01
0	 2.962963e+00	 1.777778e+00	 1.121248e+01
0	 2.962963e+00	 1.851852e+00	 1.119344e+01
0	 2.592593e+00	 1.851852e+00	 1.137097e+01
0	 2.592593e+00	 1.925926e+00	 1.132706e+01
0	 2.592593e+00	 2.000000e+00	 1.128213e+01
0	 2.592593e+00	 2.074074e+00	 1.123555e+01
0	 2.592593e+00	 2.148148e+00	 1.118670e+01
0	 2.592593e+00	 2.222222e+00	 1.113494e+01
0	 2.666667e+00	 1.851852e+00	 1.133876e+01
0	 2.666667e+00	 1.925926e+00	 1.130078e+01
0	 2.666667e+00	 2.000000e+00	 1.126093e+01
0	 2.666667e+00	 2.074074e+00	 1.121888e+01
0	 2.666667e+00	 2.148148e+00	 1.117427e+01
0	 2.666667e+00	 2.222222e+00	 1.112674e+01
0	 2.740741e+00	 1.851852e+00	 1.130440e+01
0	 2.740741e+00	 1.925926e+00	 1.127131e+01
0	 2.740741e+00	 2.000000e+00	 1.123595e+01
0	 2.740741e+00	 2.074074e+00	 1.119816e+01
0	 2.740741e+00	 2.148148e+00	 1.115779e+01
0	 2.740741e+00	 2.222222e+00	 1.111468e+01
0	 2.814815e+00	 1.851852e+00	 1.126839e+01
0	 2.814815e+00	 1.925926e+00	 1.123942e+01
0	 2.814815e+00	 2.000000e+00	 1.120809e+01
0	 2.814815e+00	 2.074074e+00	 1.117437e+01
0	 2.814815e+00	 2.148148e+00	 1.113821e+01
0	 2.814815e+00	 2.222222e+00	 1.109955e+01
0	 2.888889e+00	 1.851852e+00	 1.123123e+01
0	 2.888889e+00	 1.925926e+00	 1.120586e+01
0	 2.888889e+00	 2.000000e+00	 1.117828e+01
0	 2.888889e+00	 2.074074e+00	 1.114849e+01
0	 2.888889e+00	 2.148148e+00	 1.111644e+01
0	 2.888889e+00	 2.222222e+00	 1.108214e+01
0	 2.962963e+00	 1.851852e+00	 1.119344e+01
0	 2.962963e+00	 1.925926e+00	 1.117140e+01
0	 2.962963e+00	 2.000000e+00	 1.114744e+01
0	 2.962963e+00	 2.074074e+00	 1.112147e+01
0	 2.962963e+00	 2.148148e+00	 1.109343e+01
0	 2.962963e+00	 2.222222e+00	 1.106323e+01
0	 2.592593e+00	 2.222222e+00	 1.113494e+01
0	 2.592593e+00	 2.296296e+00	 1.108210e+01
0	 2.592593e+00	 2.370370e+00	 1.103029e+01
0	 2.592593e+00	 2.444444e+00	 1.097928e+01
0	 2.592593e+00	 2.518519e+00	 1.092888e+01
0	 2.592593e+00	 2.592593e+00	 1.087889e+01
0	 2.666667e+00	 2.222222e+00	 1.112674e+01
0	 2.666667e+00	 2.296296e+00	 1.107823e+01
0	 2.666667e+00	 2.370370e+00	 1.103069e+01
0	 2.666667e+00	 2.444444e+00	 1.098378e+01
0	 2.666667e+00	 2.518519e+00	 1.093719e+01
0	 2.666667e+00	 2.592593e+00	 1.089059e+01
0	 2.740741e+00	 2.222222e+00	 1.111468e+01
0	 2.740741e+00	 2.296296e+00	 1.107063e+01
0	 2.740741e+00	 2.370370e+00	 1.102730e+01
0	 2.740741e+00	 2.444444e+00	 1.098429e+01
0	 2.740741e+00	 2.518519e+00	 1.094122e+01
0	 2.740741e+00	 2.592593e+00	 1.089768e+01
0	 2.814815e+00	 2.222222e+00	 1.109955e+01
0	 2.814815e+00	 2.296296e+00	 1.105993e+01
0	 2.814815e+00	 2.370370e+00	 1.102065e+01
0	 2.814815e+00	 2.444444e+00	 1.098130e+01
0	 2.814815e+00	 2.518519e+00	 1.094146e+01
0	 2.814815e+00	 2.592593e+00	 1.090073e+01
0	 2.888889e+00	 2.222222e+00	 1.108214e+01
0	 2.888889e+00	 2.296296e+00	 1.104676e+01
0	 2.888889e+00	 2.370370e+00	 1.101127e+01
0	 2.888889e+00	 2.444444e+00	 1.097529e+01
0	 2.888889e+00	 2.518519e+00	 1.093845e+01
0	 2.888889e+00	 2.592593e+00	 1.090036e+01
0	 2.962963e+00	 2.222222e+00	 1.106323e+01
0	 2.962963e+00	 2.296296e+00	 1.103174e+01
0	 2.962963e+00	 2.370370e+00	 1.099968e+01
0	 2.962963e+00	 2.444444e+00	 1.096676e+01
0	 2.962963e+00	 2.518519e+00	 1.093268e+01
0	 2.962963e+00	 2.592593e+00	 1.089716e+01
0	 2.592593e+00	 2.592593e+00	 1.087889e+01
0	 2.592593e+00	 2.666667e+00	 1.082990e+01
0	 2.592593e+00	 2.740741e+00	 1.078249e+01
0	 2.592593e+00	 2.814815e+00	 1.073638e+01
0	 2.592593e+00	 2.888889e+00	 1.069130e+01
0	 2.592593e+00	 2.962963e+00	 1.064698e+01
0	 2.666667e+00	 2.592593e+00	 1.089059e+01
0	 2.666667e+00	 2.666667e+00	 1.084451e+01
0	 2.666667e+00	 2.740741e+00	 1.079956e+01
0	 2.666667e+00	 2.814815e+00	 1.075555e+01
0	 2.666667e+00	 2.888889e+00	 1.071229e+01
0	 2.666667e+00	 2.962963e+00	 1.066959e+01
0	 2.740741e+00	 2.592593e+00	 1.089768e+01
0	 2.740741e+00	 2.666667e+00	 1.085426e+01
0	 2.740741e+00	 2.740741e+00	 1.081170e+01
0	 2.740741e+00	 2.814815e+00	 1.076987e+01
0	 2.740741e+00	 2.888889e+00	 1.072863e+01
0	 2.740741e+00	 2.962963e+00	 1.068785e+01
0	 2.814815e+00	 2.592593e+00	 1.090073e+01
0	 2.814815e+00	 2.666667e+00	 1.085982e+01
0	 2.814815e+00	 2.740741e+00	 1.081964e+01
0	 2.814815e+00	 2.814815e+00	 1.078006e+01
0	 2.814815e+00	 2.888889e+00	 1.074099e+01
0	 2.814815e+00	 2.962963e+00	 1.070232e+01
0	 2.888889e+00	 2.592593e+00	 1.090036e+01
0	 2.888889e+00	 2.666667e+00	 1.086190e+01
0	 2.888889e+00	 2.740741e+00	 1.082410e+01
0	 2.888889e+00	 2.814815e+00	 1.078684e+01
0	 2.888889e+00	 2.888889e+00	 1.075003e+01
0	 2.888889e+00	 2.962963e+00	 1.071355e+01
0	 2.962963e+00	 2.592593e+00	 1.089716e+01
0	 2.962963e+00	 2.666667e+00	 1.086118e+01
0	 2.962963e+00	 2.740741e+00	 1.082581e+01
0	 2.962963e+00	 2.814815e+00	 1.079094e+01
0	 2.962963e+00	 2.888889e+00	 1.075641e+01
0	 2.962963e+00	 2.962963e+00	 1.072210e+01
0	 2.592593e+00	 2.962963e+00	 1.064698e+01
0	 2.592593e+00	 3.037037e+00	 1.060398e+01
0	 2.592593e+00	 3.111111e+00	 1.056301e+01
0	 2.592593e+00	 3.185185e+00	 1.052400e+01
0	 2.592593e+00	 3.259259e+00	 1.048688e+01
0	 2.592593e+00	 3.333333e+00	 1.045158e+01
0	 2.666667e+00	 2.962963e+00	 1.066959e+01
0	 2.666667e+00	 3.037037e+00	 1.062810e+01
0	 2.666667e+00	 3.111111e+00	 1.058852e+01
0	 2.666667e+00	 3.185185e+00	 1.055074e+01
0	 2.666667e+00	 3.259259e+00	 1.051465e+01
0	 2.666667e+00	 3.333333e+00	 1.048011e+01
0	 2.740741e+00	 2.962963e+00	 1.068785e+01
0	 2.740741e+00	 3.037037e+00	 1.064815e+01
0	 2.740741e+00	 3.111111e+00	 1.061017e+01
0	 2.740741e+00	 3.185185e+00	 1.057375e+01
0	 2.740741e+00	 3.259259e+00	 1.053875e+01
0	 2.740741e+00	 3.333333e+00	 1.050501e+01
0	 2.814815e+00	 2.962963e+00	 1.070232e+01
0	 2.814815e+00	 3.037037e+00	 1.066459e+01
0	 2.814815e+00	 3.111111e+00	 1.062831e+01
0	 2.814815e+00	 3.185185e+00	 1.059333e+01
0	 2.814815e+00	 3.259259e+00	 1.055947e+01
0	 2.814815e+00	 3.333333e+00	 1.052658e+01
0	 2.888889e+00	 2.962963e+00	 1.071355e+01
0	 2.888889e+00	 3.037037e+00	 1.067784e+01
0	 2.888889e+00	 3.111111e+00	 1.064330e+01
0	 2.888889e+00	 3.185185e+00	 1.060976e+01
0	 2.888889e+00	 3.259259e+00	 1.057709e+01
0	 2.888889e+00	 3.333333e+00	 1.054511e+01
0	 2.962963e+00	 2.962963e+00	 1.072210e+01
0	 2.962963e+00	 3.037037e+00	 1.068834e+01
0	 2.962963e+00	 3.111111e+00	 1.065547e+01
0	 2.962963e+00	 3.185185e+00	 1.062336e+01
0	 2.962963e+00	 3.259259e+00	 1.059188e+01
0	 2.962963e+00	 3.333333e+00	 1.056089e+01
0	 2.592593e+00	 3.333333e+00	 1.045158e+01
0	 2.592593e+00	 3.407407e+00	 1.041801e+01
0	 2.592593e+00	 3.481481e+00	 1.038609e+01
0	 2.592593e+00	 3.555556e+00	 1.035575e+01
0	 2.592593e+00	 3.629630e+00	 1.032694e+01
0	 2.592593e+00	 3.703704e+00	 1.029961e+01
0	 2.666667e+00	 3.333333e+00	 1.048011e+01
0	 2.666667e+00	 3.407407e+00	 1.044707e+01
0	 2.666667e+00	 3.481481e+00	 1.041550e+01
0	 2.666667e+00	 3.555556e+00	 1.038538e+01
0	 2.666667e+00	 3.629630e+00	 1.035666e+01
0	 2.666667e+00	 3.703704e+00	 1.032931e+01
0	 2.740741e+00	 3.333333e+00	 1.050501e+01
0	 2.740741e+00	 3.407407e+00	 1.047255e+01
0	 2.740741e+00	 3.481481e+00	 1.044146e+01
0	 2.740741e+00	 3.555556e+00	 1.041170e+01
0	 2.740741e+00	 3.629630e+00	 1.038327e+01
0	 2.740741e+00	 3.703704e+00	 1.035611e+01
0	 2.814815e+00	 3.333333e+00	 1.052658e+01
0	 2.814815e+00	 3.407407e+00	 1.049477e+01
0	 2.814815e+00	 3.481481e+00	 1.046427e+01
0	 2.814815e+00	 3.555556e+00	 1.043503e+01
0	 2.814815e+00	 3.629630e+00	 1.040703e+01
0	 2.814815e+00	 3.703704e+00	 1.038025e+01
0	 2.888889e+00	 3.333333e+00	 1.054511e+01
0	 2.888889e+00	 3.407407e+00	 1.051406e+01
0	 2.888889e+00	 3.481481e+00	 1.048426e+01
0	 2.888889e+00	 3.555556e+00	 1.045566e+01
0	 2.888889e+00	 3.629630e+00	 1.042823e+01
0	 2.888889e+00	 3.703704e+00	 1.040194e+01
0	 2.962963e+00	 3.333333e+00	 1.056089e+01
0	 2.962963e+00	 3.407407e+00	 1.053072e+01
0	 2.962963e+00	 3.481481e+00	 1.050174e+01
0	 2.962963e+00	 3.555556e+00	 1.047389e+01
0	 2.962963e+00	 3.629630e+00	 1.044713e+01
0	 2.962963e+00	 3.703704e+00	 1.042140e+01
0	 2.592593e+00	 3.703704e+00	 1.029961e+01
0	 2.592593e+00	 3.777778e+00	 1.027374e+01
0	 2.592593e+00	 3.851852e+00	 1.024936e+01
0	 2.592593e+00	 3.925926e+00	 1.022647e+01
0	 2.592593e+00	 4.000000e+00	 1.020507e+01
0	 2.592593e+00	 4.074074e+00	 1.018516e+01
0	 2.666667e+00	 3.703704e+00	 1.032931e+01
0	 2.666667e+00	 3.777778e+00	 1.030335e+01
0	 2.666667e+00	 3.851852e+00	 1.027885e+01
0	 2.666667e+00	 3.925926e+00	 1.025577e+01
0	 2.666667e+00	 4.000000e+00	 1.023411e+01
0	 2.666667e+00	 4.074074e+00	 1.021385e+01
0	 2.740741e+00	 3.703704e+00	 1.035611e+01
0	 2.740741e+00	 3.777778e+00	 1.033029e+01
0	 2.740741e+00	 3.851852e+00	 1.030583e+01
0	 2.740741e+00	 3.925926e+00	 1.028272e+01
0	 2.740741e+00	 4.000000e+00	 1.026091e+01
0	 2.740741e+00	 4.074074e+00	 1.024038e+01
0	 2.814815e+00	 3.703704e+00	 1.038025e+01
0	 2.814815e+00	 3.777778e+00	 1.035472e+01
0	 2.814815e+00	 3.851852e+00	 1.033044e+01
0	 2.814815e+00	 3.925926e+00	 1.030740e+01
0	 2.814815e+00	 4.000000e+00	 1.028555e+01
0	 2.814815e+00	 4.074074e+00	 1.026485e+01
0	 2.888889e+00	 3.703704e+00	 1.040194e+01
0	 2.888889e+00	 3.777778e+00	 1.037680e+01
0	 2.888889e+00	 3.851852e+00	 1.035280e+01
0	 2.888889e+00	 3.925926e+00	 1.032992e+01
0	 2.888889e+00	 4.000000e+00	 1.030811e+01
0	 2.888889e+00	 4.074074e+00	 1.028734e+01
0	 2.962963e+00	 3.703704e+00	 1.042140e+01
0	 2.962963e+00	 3.777778e+00	 1.039670e+01
0	 2.962963e+00	 3.851852e+00	 1.037303e+01
0	 2.962963e+00	 3.925926e+00	 1.035037e+01
0	 2.962963e+00	 4.000000e+00	 1.032868e+01
0	 2.962963e+00	 4.074074e+00	 1.030792e+01
0	 2.592593e+00	 4.074074e+00	 1.018516e+01
0	 2.592593e+00	 4.148148e+00	 1.016654e+01
0	 2.592593e+00	 4.222222e+00	 1.014902e+01
0	 2.592593e+00	 4.296296e+00	 1.013259e+01
0	 2.592593e+00	 4.370370e+00	 1.011727e+01
0	 2.592593e+00	 4.444444e+00	 1.010305e+01
0	 2.666667e+00	 4.074074e+00	 1.021385e+01
0	 2.666667e+00	 4.148148e+00	 1.019480e+01
0	 2.666667e+00	 4.222222e+00	 1.017680e+01
0	 2.666667e+00	 4.296296e+00	 1.015986e+01
0	 2.666667e+00	 4.370370e+00	 1.014400e+01
0	 2.666667e+00	 4.444444e+00	 1.012921e+01
0	 2.740741e+00	 4.074074e+00	 1.024038e+01
0	 2.740741e+00	 4.148148e+00	 1.022099e+01
0	 2.740741e+00	 4.222222e+00	 1.020263e+01
0	 2.740741e+00	 4.296296e+00	 1.018530e+01
0	 2.740741e+00	 4.370370e+00	 1.016901e+01
0	 2.740741e+00	 4.444444e+00	 1.015378e+01
0	 2.814815e+00	 4.074074e+00	 1.026485e+01
0	 2.814815e+00	 4.148148e+00	 1.024522e+01
0	 2.814815e+00	 4.222222e+00	 1.022659e+01
0	 2.814815e+00	 4.296296e+00	 1.020898e+01
0	 2.814815e+00	 4.370370e+00	 1.019238e+01
0	 2.814815e+00	 4.444444e+00	 1.017680e+01
0	 2.888889e+00	 4.074074e+00	 1.028734e+01
0	 2.888889e+00	 4.148148e+00	 1.026756e+01
0	 2.888889e+00	 4.222222e+00	 1.024877e+01
0	 2.888889e+00	 4.296296e+00	 1.023097e+01
0	 2.888889e+00	 4.370370e+00	 1.021415e+01
0	 2.888889e+00	 4.444444e+00	 1.019832e+01
0	 2.962963e+00	 4.074074e+00	 1.030792e+01
0	 2.962963e+00	 4.148148e+00	 1.028810e+01
0	 2.962963e+00	 4.222222e+00	 1.026925e+01
0	 2.962963e+00	 4.296296e+00	 1.025135e+01
0	 2.962963e+00	 4.370370e+00	 1.023439e+01
0	 2.962963e+00	 4.444444e+00	 1.021839e+01
0	 2.592593e+00	 4.444444e+00	 1.010305e+01
0	 2.592593e+00	 4.518519e+00	 1.008983e+01
0	 2.592593e+00	 4.592593e+00	 1.007747e+01
0	 2.592593e+00	 4.666667e+00	 1.006600e+01
0	 2.592593e+00	 4.740741e+00	 1.005544e+01
0	 2.592593e+00	 4.814815e+00	 1.004579e+01
0	 2.666667e+00	 4.444444e+00	 1.012921e+01
0	 2.666667e+00	 4.518519e+00	 1.011540e+01
0	 2.666667e+00	 4.592593e+00	 1.010246e+01
0	 2.666667e+00	 4.666667e+00	 1.009040e+01
0	 2.666667e+00	 4.740741e+00	 1.007922e+01
0	 2.666667e+00	 4.814815e+00	 1.006895e+01
0	 2.740741e+00	 4.444444e+00	 1.015378e+01
0	 2.740741e+00	 4.518519e+00	 1.013950e+01
0	 2.740741e+00	 4.592593e+00	 1.012608e+01
0	 2.740741e+00	 4.666667e+00	 1.011351e+01
0	 2.740741e+00	 4.740741e+00	 1.010181e+01
0	 2.740741e+00	 4.814815e+00	 1.009098e+01
0	 2.814815e+00	 4.444444e+00	 1.017680e+01
0	 2.814815e+00	 4.518519e+00	 1.016216e+01
0	 2.814815e+00	 4.592593e+00	 1.014834e+01
0	 2.814815e+00	 4.666667e+00	 1.013535e+01
0	 2.814815e+00	 4.740741e+00	 1.012319e+01
0	 2.814815e+00	 4.814815e+00	 1.011187e+01
0	 2.888889e+00	 4.444444e+00	 1.019832e+01
0	 2.888889e+00	 4.518519e+00	 1.018339e+01
0	 2.888889e+00	 4.592593e+00	 1.016925e+01
0	 2.888889e+00	 4.666667e+00	 1.015591e+01
0	 2.888889e+00	 4.740741e+00	 1.014337e+01
0	 2.888889e+00	 4.814815e+00	 1.013162e+01
0	 2.962963e+00	 4.444444e+00	 1.021839e+01
0	 2.962963e+00	 4.518519e+00	 1.020323e+01
0	 2.962963e+00	 4.592593e+00	 1.018883e+01
0	 2.962963e+00	 4.666667e+00	 1.017520e+01
0	 2.962963e+00	 4.740741e+00	 1.016233e+01
0	 2.962963e+00	 4.814815e+00	 1.015022e+01
0	 2.592593e+00	 4.814815e+00	 1.004579e+01
0	 2.592593e+00	 4.888889e+00	 1.003690e+01
0	 2.592593e+00	 4.962963e+00	 1.002864e+01
0	 2.592593e+00	 5.037037e+00	 1.002102e+01
0	 2.592593e+00	 5.111111e+00	 1.001405e+01
0	 2.592593e+00	 5.185185e+00	 1.000774e+01
0	 2.666667e+00	 4.814815e+00	 1.006895e+01
0	 2.666667e+00	 4.888889e+00	 1.005943e+01
0	 2.666667e+00	 4.962963e+00	 1.005053e+01
0	 2.666667e+00	 5.037037e+00	 1.004228e+01
0	 2.666667e+00	 5.111111e+00	 1.003467e+01
0	 2.666667e+00	 5.185185e+00	 1.002774e+01
0	 2.740741e+00	 4.814815e+00	 1.009098e+01
0	 2.740741e+00	 4.888889e+00	 1.008089e+01
0	 2.740741e+00	 4.962963e+00	 1.007142e+01
0	 2.740741e+00	 5.037037e+00	 1.006260e+01
0	 2.740741e+00	 5.111111e+00	 1.005443e+01
0	 2.740741e+00	 5.185185e+00	 1.004693e+01
0	 2.814815e+00	 4.814815e+00	 1.011187e+01
0	 2.814815e+00	 4.888889e+00	 1.010127e+01
0	 2.814815e+00	 4.962963e+00	 1.009130e+01
0	 2.814815e+00	 5.037037e+00	 1.008197e+01
0	 2.814815e+00	 5.111111e+00	 1.007330e+01
0	 2.814815e+00	 5.185185e+00	 1.006529e+01
0	 2.888889e+00	 4.814815e+00	 1.013162e+01
0	 2.888889e+00	 4.888889e+00	 1.012058e+01
0	 2.888889e+00	 4.962963e+00	 1.011017e+01
0	 2.888889e+00	 5.037037e+00	 1.010040e+01
0	 2.888889e+00	 5.111111e+00	 1.009128e+01
0	 2.888889e+00	 5.185185e+00	 1.008282e+01
0	 2.962963e+00	 4.814815e+00	 1.015022e+01
0	 2.962963e+00	 4.888889e+00	 1.013881e+01
0	 2.962963e+00	 4.962963e+00	 1.012802e+01
0	 2.962963e+00	 5.037037e+00	 1.011787e+01
0	 2.962963e+00	 5.111111e+00	 1.010835e+01
0	 2.962963e+00	 5.185185e+00	 1.009949e+01
0	 2.592593e+00	 5.185185e+00	 1.000774e+01
0	 2.592593e+00	 5.259259e+00	 1.000200e+01
0	 2.592593e+00	 5.333333e+00	 9.996719e+00
0	 2.592593e+00	 5.407407e+00	 9.991915e+00
0	 2.592593e+00	 5.481481e+00	 9.987602e+00
0	 2.592593e+00	 5.555556e+00	 9.983794e+00
0	 2.666667e+00	 5.185185e+00	 1.002774e+01
0	 2.666667e+00	 5.259259e+00	 1.002138e+01
0	 2.666667e+00	 5.333333e+00	 1.001549e+01
0	 2.666667e+00	 5.407407e+00	 1.001008e+01
0	 2.666667e+00	 5.481481e+00	 1.000518e+01
0	 2.666667e+00	 5.555556e+00	 1.000078e+01
0	 2.740741e+00	 5.185185e+00	 1.004693e+01
0	 2.740741e+00	 5.259259e+00	 1.004000e+01
0	 2.740741e+00	 5.333333e+00	 1.003356e+01
0	 2.740741e+00	 5.407407e+00	 1.002760e+01
0	 2.740741e+00	 5.481481e+00	 1.002214e+01
0	 2.740741e+00	 5.555556e+00	 1.001720e+01
0	 2.814815e+00	 5.185185e+00	 1.006529e+01
0	 2.814815e+00	 5.259259e+00	 1.005786e+01
0	 2.814815e+00	 5.333333e+00	 1.005090e+01
0	 2.814815e+00	 5.407407e+00	 1.004444e+01
0	 2.814815e+00	 5.481481e+00	 1.003848e+01
0	 2.814815e+00	 5.555556e+00	 1.003303e+01
0	 2.888889e+00	 5.185185e+00	 1.008282e+01
0	 2.888889e+00	 5.259259e+00	 1.007492e+01
0	 2.888889e+00	 5.333333e+00	 1.006751e+01
0	 2.888889e+00	 5.407407e+00	 1.006059e+01
0	 2.888889e+00	 5.481481e+00	 1.005416e+01
0	 2.888889e+00	 5.555556e+00	 1.004824e+01
0	 2.962963e+00	 5.185185e+00	 1.009949e+01
0	 2.962963e+00	 5.259259e+00	 1.009118e+01
0	 2.962963e+00	 5.333333e+00	 1.008335e+01
0	 2.962963e+00	 5.407407e+00	 1.007600e+01
0	 2.962963e+00	 5.481481e+00	 1.006915e+01
0	 2.962963e+00	 5.555556e+00	 1.006280e+01
0	 2.592593e+00	 5.555556e+00	 9.983794e+00
0	 2.592593e+00	 5.629630e+00	 9.980401e+00
0	 2.592593e+00	 5.703704e+00	 9.977331e+00
0	 2.592593e+00	 5.777778e+00	 9.974598e+00
0	 2.592593e+00	 5.851852e+00	 9.972213e+00
0	 2.592593e+00	 5.925926e+00	 9.970188e+00
0	 2.666667e+00	 5.555556e+00	 1.000078e+01
0	 2.666667e+00	 5.629630e+00	 9.996808e+00
0	 2.666667e+00	 5.703704e+00	 9.993171e+00
0	 2.666667e+00	 5.777778e+00	 9.989882e+00
0	 2.666667e+00	 5.851852e+00	 9.986952e+00
0	 2.666667e+00	 5.925926e+00	 9.984394e+00
0	 2.740741e+00	 5.555556e+00	 1.001720e+01
0	 2.740741e+00	 5.629630e+00	 1.001269e+01
0	 2.740741e+00	 5.703704e+00	 1.000852e+01
0	 2.740741e+00	 5.777778e+00	 1.000471e+01
0	 2.740741e+00	 5.851852e+00	 1.000127e+01
0	 2.740741e+00	 5.925926e+00	 9.998206e+00
0	 2.814815e+00	 5.555556e+00	 1.003303e+01
0	 2.814815e+00	 5.629630e+00	 1.002801e+01
0	 2.814815e+00	 5.703704e+00	 1.002335e+01
0	 2.814815e+00	 5.777778e+00	 1.001905e+01
0	 2.814815e+00	 5.851852e+00	 1.001513e+01
0	 2.814815e+00	 5.925926e+00	 1.001160e+01
0	 2.888889e+00	 5.555556e+00	 1.004824e+01
0	 2.888889e+00	 5.629630e+00	 1.004276e+01
0	 2.888889e+00	 5.703704e+00	 1.003763e+01
0	 2.888889e+00	 5.777778e+00	 1.003288e+01
0	 2.888889e+00	 5.851852e+00	 1.002851e+01
0	 2.888889e+00	 5.925926e+00	 1.002454e+01
0	 2.962963e+00	 5.555556e+00	 1.006280e+01
0	 2.962963e+00	 5.629630e+00	 1.005689e+01
0	 2.962963e+00	 5.703704e+00	 1.005135e+01
0	 2.962963e+00	 5.777778e+00	 1.004618e+01
0	 2.962963e+00	 5.851852e+00	 1.004139e+01
0	 2.962963e+00	 5.925926e+00	 1.003700e+01
0	 2.592593e+00	 5.925926e+00	 9.970188e+00
0	 2.592593e+00	 6.000000e+00	 9.968459e+00
0	 2.592593e+00	 6.074074e+00	 9.966958e+00
0	 2.592593e+00	 6.148148e+00	 9.965695e+00
0	 2.592593e+00	 6.222222e+00	 9.964680e+00
0	 2.592593e+00	 6.296296e+00	 9.963924e+00
0	 2.666667e+00	 5.925926e+00	 9.984394e+00
0	 2.666667e+00	 6.000000e+00	 9.982144e+00
0	 2.666667e+00	 6.074074e+00	 9.980134e+00
0	 2.666667e+00	 6.148148e+00	 9.978374e+00
0	 2.666667e+00	 6.222222e+00	 9.976874e+00
0	 2.666667e+00	 6.296296e+00	 9.975643e+00
0	 2.740741e+00	 5.925926e+00	 9.998206e+00
0	 2.740741e+00	 6.000000e+00	 9.995462e+00
0	 2.740741e+00	 6.074074e+00	 9.992970e+00
0	 2.740741e+00	 6.148148e+00	 9.990738e+00
0	 2.740741e+00	 6.222222e+00	 9.988775e+00
0	 2.740741e+00	 6.296296e+00	 9.987090e+00
0	 2.814815e+00	 5.925926e+00	 1.001160e+01
0	 2.814815e+00	 6.000000e+00	 1.000839e+01
0	 2.814815e+00	 6.074074e+00	 1.000544e+01
0	 2.814815e+00	 6.148148e+00	 1.000276e+01
0	 2.814815e+00	 6.222222e+00	 1.000036e+01
0	 2.814815e+00	 6.296296e+00	 9.998239e+00
0	 2.888889e+00	 5.925926e+00	 1.002454e+01
0	 2.888889e+00	 6.000000e+00	 1.002089e+01
0	 2.888889e+00	 6.074074e+00	 1.001751e+01
0	 2.888889e+00	 6.148148e+00	 1.001441e+01
0	 2.888889e+00	 6.222222e+00	 1.001159e+01
0	 2.888889e+00	 6.296296e+00	 1.000906e+01
0	 2.962963e+00	 5.925926e+00	 1.003700e+01
0	 2.962963e+00	 6.000000e+00	 1.003295e+01
0	 2.962963e+00	 6.074074e+00	 1.002916e+01
0	 2.962963e+00	 6.148148e+00	 1.002566e+01
0	 2.962963e+00	 6.222222e+00	 1.002245e+01
0	 2.962963e+00	 6.296296e+00	 1.001953e+01
0	 2.592593e+00	 6.296296e+00	 9.963924e+00
0	 2.592593e+00	 6.370370e+00	 9.963374e+00
0	 2.592593e+00	 6.444444e+00	 9.962978e+00
0	 2.592593e+00	 6.518519e+00	 9.962742e+00
0	 2.592593e+00	 6.592593e+00	 9.962677e+00
0	 2.592593e+00	 6.666667e+00	 9.962789e+00
0	 2.666667e+00	 6.296296e+00	 9.975643e+00
0	 2.666667e+00	 6.370370e+00	 9.974630e+00
0	 2.666667e+00	 6.444444e+00	 9.973782e+00
0	 2.666667e+00	 6.518519e+00	 9.973106e+00
0	 2.666667e+00	 6.592593e+00	 9.972612e+00
0	 2.666667e+00	 6.666667e+00	 9.972307e+00
0	 2.740741e+00	 6.296296e+00	 9.987090e+00
0	 2.740741e+00	 6.370370e+00	 9.985633e+00
0	 2.740741e+00	 6.444444e+00	 9.984351e+00
0	 2.740741e+00	 6.518519e+00	 9.983253e+00
0	 2.740741e+00	 6.592593e+00	 9.982346e+00
0	 2.740741e+00	 6.666667e+00	 9.981638e+00
0	 2.814815e+00	 6.296296e+00	 9.998239e+00
0	 2.814815e+00	 6.370370e+00	 9.996357e+00
0	 2.814815e+00	 6.444444e+00	 9.994661e+00
0	 2.814815e+00	 6.518519e+00	 9.993157e+00
0	 2.814815e+00	 6.592593e+00	 9.991854e+00
0	 2.814815e+00	 6.666667e+00	 9.990759e+00
0	 2.888889e+00	 6.296296e+00	 1.000906e+01
0	 2.888889e+00	 6.370370e+00	 1.000678e+01
0	 2.888889e+00	 6.444444e+00	 1.000469e+01
0	 2.888889e+00	 6.518519e+00	 1.000280e+01
0	 2.888889e+00	 6.592593e+00	 1.000111e+01
0	 2.888889e+00	 6.666667e+00	 9.999647e+00
0	 2.962963e+00	 6.296296e+00	 1.001953e+01
0	 2.962963e+00	 6.370370e+00	 1.001686e+01
0	 2.962963e+00	 6.444444e+00	 1.001440e+01
0	 2.962963e+00	 6.518519e+00	 1.001214e+01
0	 2.962963e+00	 6.592593e+00	 1.001010e+01
0	 2.962963e+00	 6.666667e+00	 1.000828e+01
0	 2.592593e+00	 6.666667e+00	 9.962789e+00
0	 2.592593e+00	 6.740741e+00	 9.963040e+00
0	 2.592593e+00	 6.814815e+00	 9.963389e+00
0	 2.592593e+00	 6.888889e+00	 9.963843e+00
0	 2.592593e+00	 6.962963e+00	 9.964409e+00
0	 2.592593e+00	 7.037037e+00	 9.965093e+00
0	 2.666667e+00	 6.666667e+00	 9.972307e+00
0	 2.666667e+00	 6.740741e+00	 9.972151e+00
0	 2.666667e+00	 6.814815e+00	 9.972104e+00
0	 2.666667e+00	 6.888889e+00	 9.972173e+00
0	 2.666667e+00	 6.962963e+00	 9.972363e+00
0	 2.666667e+00	 7.037037e+00	 9.972682e+00
0	 2.740741e+00	 6.666667e+00	 9.981638e+00
0	 2.740741e+00	 6.740741e+00	 9.981090e+00
0	 2.740741e+00	 6.814815e+00	 9.980660e+00
0	 2.740741e+00	 6.888889e+00	 9.980355e+00
0	 2.740741e+00	 6.962963e+00	 9.980181e+00
0	 2.740741e+00	 7.037037e+00	 9.980145e+00
0	 2.814815e+00	 6.666667e+00	 9.990759e+00
0	 2.814815e+00	 6.740741e+00	 9.989832e+00
0	 2.814815e+00	 6.814815e+00	 9.989033e+00
0	 2.814815e+00	 6.888889e+00	 9.988367e+00
0	 2.814815e+00	 6.962963e+00	 9.987841e+00
0	 2.814815e+00	 7.037037e+00	 9.987461e+00
0	 2.888889e+00	 6.666667e+00	 9.999647e+00
0	 2.888889e+00	 6.740741e+00	 9.998356e+00
0	 2.888889e+00	 6.814815e+00	 9.997201e+00
0	 2.888889e+00	 6.888889e+00	 9.996188e+00
0	 2.888889e+00	 6.962963e+00	 9.995322e+00
0	 2.888889e+00	 7.037037e+00	 9.994610e+00
0	 2.962963e+00	 6.666667e+00	 1.000828e+01
0	 2.962963e+00	 6.740741e+00	 1.000664e+01
0	 2.962963e+00	 6.814815e+00	 1.000514e+01
0	 2.962963e+00	 6.888889e+00	 1.000380e+01
0	 2.962963e+00	 6.962963e+00	 1.000260e+01
0	 2.962963e+00	 7.037037e+00	 1.000157e+01
0	 2.592593e+00	 7.037037e+00	 9.965093e+00
0	 2.592593e+00	 7.111111e+00	 9.965864e+00
0	 2.592593e+00	 7.185185e+00	 9.966691e+00
0	 2.592593e+00	 7.259259e+00	 9.967579e+00
0	 2.592593e+00	 7.333333e+00	 9.968534e+00
0	 2.592593e+00	 7.407407e+00	 9.969562e+00
0	 2.666667e+00	 7.037037e+00	 9.972682e+00
0	 2.666667e+00	 7.111111e+00	 9.973098e+00
0	 2.666667e+00	 7.185185e+00	 9.973579e+00
0	 2.666667e+00	 7.259259e+00	 9.974131e+00
0	 2.666667e+00	 7.333333e+00	 9.974760e+00
0	 2.666667e+00	 7.407407e+00	 9.975470e+00
0	 2.740741e+00	 7.037037e+00	 9.980145e+00
0	 2.740741e+00	 7.111111e+00	 9.980215e+00
0	 2.740741e+00	 7.185185e+00	 9.980360e+00
0	 2.740741e+00	 7.259259e+00	 9.980584e+00
0	 2.740741e+00	 7.333333e+00	 9.980894e+00
0	 2.740741e+00	 7.407407e+00	 9.981294e+00
0	 2.814815e+00	 7.037037e+00	 9.987461e+00
0	 2.814815e+00	 7.111111e+00	 9.987196e+00
0	 2.814815e+00	 7.185185e+00	 9.987014e+00
0	 2.814815e+00	 7.259259e+00	 9.986919e+00
0	 2.814815e+00	 7.333333e+00	 9.986918e+00
0	 2.814815e+00	 7.407407e+00	 9.987016e+00
0	 2.888889e+00	 7.037037e+00	 9.994610e+00
0	 2.888889e+00	 7.111111e+00	 9.994021e+00
0	 2.888889e+00	 7.185185e+00	 9.993522e+00
0	 2.888889e+00	 7.259259e+00	 9.993119e+00
0	 2.888889e+00	 7.333333e+00	 9.992816e+00
0	 2.888889e+00	 7.407407e+00	 9.992620e+00
0	 2.962963e+00	 7.037037e+00	 1.000157e+01
0	 2.962963e+00	 7.111111e+00	 1.000067e+01
0	 2.962963e+00	 7.185185e+00	 9.999866e+00
0	 2.962963e+00	 7.259259e+00	 9.999164e+00
0	 2.962963e+00	 7.333333e+00	 9.998570e+00
0	 2.962963e+00	 7.407407e+00	 9.998089e+00
0	 2.592593e+00	 7.407407e+00	 9.969562e+00
0	 2.592593e+00	 7.481481e+00	 9.970638e+00
0	 2.592593e+00	 7.555556e+00	 9.971737e+00
0	 2.592593e+00	 7.629630e+00	 9.972864e+00
0	 2.592593e+00	 7.703704e+00	 9.974023e+00
0	 2.592593e+00	 7.777778e+00	 9.975219e+00
0	 2.666667e+00	 7.407407e+00	 9.975470e+00
0	 2.666667e+00	 7.481481e+00	 9.976238e+00
0	 2.666667e+00	 7.555556e+00	 9.977037e+00
0	 2.666667e+00	 7.629630e+00	 9.977872e+00
0	 2.666667e+00	 7.703704e+00	 9.978748e+00
0	 2.666667e+00	 7.777778e+00	 9.979670e+00
0	 2.740741e+00	 7.407407e+00	 9.981294e+00
0	 2.740741e+00	 7.481481e+00	 9.981759e+00
0	 2.740741e+00	 7.555556e+00	 9.982265e+00
0	 2.740741e+00	 7.629630e+00	 9.982814e+00
0	 2.740741e+00	 7.703704e+00	 9.983413e+00
0	 2.740741e+00	 7.777778e+00	 9.984065e+00
0	 2.814815e+00	 7.407407e+00	 9.987016e+00
0	 2.814815e+00	 7.481481e+00	 9.987187e+00
0	 2.814815e+00	 7.555556e+00	 9.987405e+00
0	 2.814815e+00	 7.629630e+00	 9.987676e+00
0	 2.814815e+00	 7.703704e+00	 9.988003e+00
0	 2.814815e+00	 7.777778e+00	 9.988391e+00
0	 2.888889e+00	 7.407407e+00	 9.992620e+00
0	 2.888889e+00	 7.481481e+00	 9.992504e+00
0	 2.888889e+00	 7.555556e+00	 9.992444e+00
0	 2.888889e+00	 7.629630e+00	 9.992442e+00
0	 2.888889e+00	 7.703704e+00	 9.992505e+00
0	 2.888889e+00	 7.777778e+00	 9.992635e+00
0	 2.962963e+00	 7.407407e+00	 9.998089e+00
0	 2.962963e+00	 7.481481e+00	 9.997696e+00
0	 2.962963e+00	 7.555556e+00	 9.997364e+00
0	 2.962963e+00	 7.629630e+00	 9.997099e+00
0	 2.962963e+00	 7.703704e+00	 9.996904e+00
0	 2.962963e+00	 7.777778e+00	 9.996783e+00
0	 2.592593e+00	 7.777778e+00	 9.975219e+00
0	 2.592593e+00	 7.851852e+00	 9.976433e+00
0	 2.592593e+00	 7.925926e+00	 9.977644e+00
0	 2.592593e+00	 8.000000e+00	 9.978855e+00
0	 2.592593e+00	 8.074074e+00	 9.980073e+00
0	 2.592593e+00	 8.148148e+00	 9.981299e+00
0	 2.666667e+00	 7.777778e+00	 9.979670e+00
0	 2.666667e+00	 7.851852e+00	 9.980617e+00
0	 2.666667e+00	 7.925926e+00	 9.981569e+00
0	 2.666667e+00	 8.000000e+00	 9.982530e+00
0	 2.666667e+00	 8.074074e+00	 9.983505e+00
0	 2.666667e+00	 8.148148e+00	 9.984496e+00
0	 2.740741e+00	 7.777778e+00	 9.984065e+00
0	 2.740741e+00	 7.851852e+00	 9.984750e+00
0	 2.740741e+00	 7.925926e+00	 9.985449e+00
0	 2.740741e+00	 8.000000e+00	 9.986163e+00
0	 2.740741e+00	 8.074074e+00	 9.986899e+00
0	 2.740741e+00	 8.148148e+00	 9.987658e+00
0	 2.814815e+00	 7.777778e+00	 9.988391e+00
0	 2.814815e+00	 7.851852e+00	 9.988820e+00
0	 2.814815e+00	 7.925926e+00	 9.989270e+00
0	 2.814815e+00	 8.000000e+00	 9.989743e+00
0	 2.814815e+00	 8.074074e+00	 9.990243e+00
0	 2.814815e+00	 8.148148e+00	 9.990776e+00
0	 2.888889e+00	 7.777778e+00	 9.992635e+00
0	 2.888889e+00	 7.851852e+00	 9.992814e+00
0	 2.888889e+00	 7.925926e+00	 9.993020e+00
0	 2.888889e+00	 8.000000e+00	 9.993256e+00
0	 2.888889e+00	 8.074074e+00	 9.993527e+00
0	 2.888889e+00	 8.148148e+00	 9.993837e+00
0	 2.962963e+00	 7.777778e+00	 9.996783e+00
0	 2.962963e+00	 7.851852e+00	 9.996718e+00
0	 2.962963e+00	 7.925926e+00	 9.996686e+00
0	 2.962963e+00	 8.000000e+00	 9.996692e+00
0	 2.962963e+00	 8.074074e+00	 9.996739e+00
0	 2.962963e+00	 8.148148e+00	 9.996831e+00
0	 2.592593e+00	 8.148148e+00	 9.981299e+00
0	 2.592593e+00	 8.222222e+00	 9.982518e+00
0	 2.592593e+00	 8.296296e+00	 9.983713e+00
0	 2.592593e+00	 8.370370e+00	 9.984887e+00
0	 2.592593e+00	 8.444444e+00	 9.986045e+00
0	 2.592593e+00	 8.518519e+00	 9.987189e+00
0	 2.666667e+00	 8.148148e+00	 9.984496e+00
0	 2.666667e+00	 8.222222e+00	 9.985488e+00
0	 2.666667e+00	 8.296296e+00	 9.986463e+00
0	 2.666667e+00	 8.370370e+00	 9.987425e+00
0	 2.666667e+00	 8.444444e+00	 9.988378e+00
0	 2.666667e+00	 8.518519e+00	 9.989324e+00
0	 2.740741e+00	 8.148148e+00	 9.987658e+00
0	 2.740741e+00	 8.222222e+00	 9.988426e+00
0	 2.740741e+00	 8.296296e+00	 9.989185e+00
0	 2.740741e+00	 8.370370e+00	 9.989938e+00
0	 2.740741e+00	 8.444444e+00	 9.990688e+00
0	 2.740741e+00	 8.518519e+00	 9.991440e+00
0	 2.814815e+00	 8.148148e+00	 9.990776e+00
0	 2.814815e+00	 8.222222e+00	 9.991323e+00
0	 2.814815e+00	 8.296296e+00	 9.991869e+00
0	 2.814815e+00	 8.370370e+00	 9.992416e+00
0	 2.814815e+00	 8.444444e+00	 9.992968e+00
0	 2.814815e+00	 8.518519e+00	 9.993528e+00
0	 2.888889e+00	 8.148148e+00	 9.993837e+00
0	 2.888889e+00	 8.222222e+00	 9.994168e+00
0	 2.888889e+00	 8.296296e+00	 9.994505e+00
0	 2.888889e+00	 8.370370e+00	 9.994851e+00
0	 2.888889e+00	 8.444444e+00	 9.995208e+00
0	 2.888889e+00	 8.518519e+00	 9.995580e+00
0	 2.962963e+00	 8.148148e+00	 9.996831e+00
0	 2.962963e+00	 8.222222e+00	 9.996951e+00
0	 2.962963e+00	 8.296296e+00	 9.997084e+00
0	 2.962963e+00	 8.370370e+00	 9.997233e+00
0	 2.962963e+00	 8.444444e+00	 9.997399e+00
0	 2.962963e+00	 8.518519e+00	 9.997586e+00
0	 2.592593e+00	 8.518519e+00	 9.987189e+00
0	 2.592593e+00	 8.592593e+00	 9.988305e+00
0	 2.592593e+00	 8.666667e+00	 9.989380e+00
0	 2.592593e+00	 8.740741e+00	 9.990415e+00
0	 2.592593e+00	 8.814815e+00	 9.991416e+00
0	 2.592593e+00	 8.888889e+00	 9.992384e+00
0	 2.666667e+00	 8.518519e+00	 9.989324e+00
0	 2.666667e+00	 8.592593e+00	 9.990251e+00
0	 2.666667e+00	 8.666667e+00	 9.991144e+00
0	 2.666667e+00	 8.740741e+00	 9.992005e+00
0	 2.666667e+00	 8.814815e+00	 9.992839e+00
0	 2.666667e+00	 8.888889e+00	 9.993648e+00
0	 2.740741e+00	 8.518519e+00	 9.991440e+00
0	 2.740741e+00	 8.592593e+00	 9.992180e+00
0	 2.740741e+00	 8.666667e+00	 9.992893e+00
0	 2.740741e+00	 8.740741e+00	 9.993583e+00
0	 2.740741e+00	 8.814815e+00	 9.994253e+00
0	 2.740741e+00	 8.888889e+00	 9.994905e+00
0	 2.814815e+00	 8.518519e+00	 9.993528e+00
0	 2.814815e+00	 8.592593e+00	 9.994083e+00
0	 2.814815e+00	 8.666667e+00	 9.994620e+00
0	 2.814815e+00	 8.740741e+00	 9.995141e+00
0	 2.814815e+00	 8.814815e+00	 9.995649e+00
0	 2.814815e+00	 8.888889e+00	 9.996146e+00
0	 2.888889e+00	 8.518519e+00	 9.995580e+00
0	 2.888889e+00	 8.592593e+00	 9.995953e+00
0	 2.888889e+00	 8.666667e+00	 9.996317e+00
0	 2.888889e+00	 8.740741e+00	 9.996672e+00
0	 2.888889e+00	 8.814815e+00	 9.997020e+00
0	 2.888889e+00	 8.888889e+00	 9.997365e+00
0	 2.962963e+00	 8.518519e+00	 9.997586e+00
0	 2.962963e+00	 8.592593e+00	 9.997782e+00
0	 2.962963e+00	 8.666667e+00	 9.997975e+00
0	 2.962963e+00	 8.740741e+00	 9.998167e+00
0	 2.962963e+00	 8.814815e+00	 9.998360e+00
0	 2.962963e+00	 8.888889e+00	 9.998555e+00
0	 2.592593e+00	 8.888889e+00	 9.992384e+00
0	 2.592593e+00	 8.962963e+00	 9.993307e+00
0	 2.592593e+00	 9.037037e+00	 9.994174e+00
0	 2.592593e+00	 9.111111e+00	 9.994988e+00
0	 2.592593e+00	 9.185185e+00	 9.995750e+00
0	 2.592593e+00	 9.259259e+00	 9.996465e+00
0	 2.666667e+00	 8.888889e+00	 9.993648e+00
0	 2.666667e+00	 8.962963e+00	 9.994421e+00
0	 2.666667e+00	 9.037037e+00	 9.995146e+00
0	 2.666667e+00	 9.111111e+00	 9.995826e+00
0	 2.666667e+00	 9.185185e+00	 9.996463e+00
0	 2.666667e+00	 9.259259e+00	 9.997060e+00
0	 2.740741e+00	 8.888889e+00	 9.994905e+00
0	 2.740741e+00	 8.962963e+00	 9.995528e+00
0	 2.740741e+00	 9.037037e+00	 9.996113e+00
0	 2.740741e+00	 9.111111e+00	 9.996661e+00
0	 2.740741e+00	 9.185185e+00	 9.997175e+00
0	 2.740741e+00	 9.259259e+00	 9.997656e+00
0	 2.814815e+00	 8.888889e+00	 9.996146e+00
0	 2.814815e+00	 8.962963e+00	 9.996622e+00
0	 2.814815e+00	 9.037037e+00	 9.997069e+00
0	 2.814815e+00	 9.111111e+00	 9.997488e+00
0	 2.814815e+00	 9.185185e+00	 9.997879e+00
0	 2.814815e+00	 9.259259e+00	 9.998245e+00
0	 2.888889e+00	 8.888889e+00	 9.997365e+00
0	 2.888889e+00	 8.962963e+00	 9.997697e+00
0	 2.888889e+00	 9.037037e+00	 9.998008e+00
0	 2.888889e+00	 9.111111e+00	 9.998298e+00
0	 2.888889e+00	 9.185185e+00	 9.998570e+00
0	 2.888889e+00	 9.259259e+00	 9.998823e+00
0	 2.962963e+00	 8.888889e+00	 9.998555e+00
0	 2.962963e+00	 8.962963e+00	 9.998745e+00
0	 2.962963e+00	 9.037037e+00	 9.998922e+00
0	 2.962963e+00	 9.111111e+00	 9.999087e+00
0	 2.962963e+00	 9.185185e+00	 9.999241e+00
0	 2.962963e+00	 9.259259e+00	 9.999384e+00
0	 2.592593e+00	 9.259259e+00	 9.996465e+00
0	 2.592593e+00	 9.333333e+00	 9.997121e+00
0	 2.592593e+00	 9.407407e+00	 9.997709e+00
0	 2.592593e+00	 9.481481e+00	 9.998231e+00
0	 2.592593e+00	 9.555556e+00	 9.998690e+00
0	 2.592593e+00	 9.629630e+00	 9.999087e+00
0	 2.666667e+00	 9.259259e+00	 9.997060e+00
0	 2.666667e+00	 9.333333e+00	 9.997608e+00
0	 2.666667e+00	 9.407407e+00	 9.998099e+00
0	 2.666667e+00	 9.481481e+00	 9.998534e+00
0	 2.666667e+00	 9.555556e+00	 9.998914e+00
0	 2.666667e+00	 9.629630e+00	 9.999242e+00
0	 2.740741e+00	 9.259259e+00	 9.997656e+00
0	 2.740741e+00	 9.333333e+00	 9.998097e+00
0	 2.740741e+00	 9.407407e+00	 9.998491e+00
0	 2.740741e+00	 9.481481e+00	 9.998840e+00
0	 2.740741e+00	 9.555556e+00	 9.999144e+00
0	 2.740741e+00	 9.629630e+00	 9.999404e+00
0	 2.814815e+00	 9.259259e+00	 9.998245e+00
0	 2.814815e+00	 9.333333e+00	 9.998581e+00
0	 2.814815e+00	 9.407407e+00	 9.998881e+00
0	 2.814815e+00	 9.481481e+00	 9.999145e+00
0	 2.814815e+00	 9.555556e+00	 9.999374e+00
0	 2.814815e+00	 9.629630e+00	 9.999567e+00
0	 2.888889e+00	 9.259259e+00	 9.998823e+00
0	 2.888889e+00	 9.333333e+00	 9.999056e+00
0	 2.888889e+00	 9.407407e+00	 9.999262e+00
0	 2.888889e+00	 9.481481e+00	 9.999442e+00
0	 2.888889e+00	 9.555556e+00	 9.999597e+00
0	 2.888889e+00	 9.629630e+00	 9.999725e+00
0	 2.962963e+00	 9.259259e+00	 9.999384e+00
0	 2.962963e+00	 9.333333e+00	 9.999514e+00
0	 2.962963e+00	 9.407407e+00	 9.999629e+00
0	 2.962963e+00	 9.481481e+00	 9.999727e+00
0	 2.962963e+00	 9.555556e+00	 9.999808e+00
0	 2.962963e+00	 9.629630e+00	 9.999871e+00
0	 2.592593e+00	 9.629630e+00	 9.999087e+00
0	 2.592593e+00	 9.703704e+00	 9.999416e+00
0	 2.592593e+00	 9.777778e+00	 9.999671e+00
0	 2.592593e+00	 9.851852e+00	 9.999853e+00
0	 2.592593e+00	 9.925926e+00	 9.999962e+00
0	 2.592593e+00	 1.000000e+01	 1.000000e+01
0	 2.666667e+00	 9.629630e+00	 9.999242e+00
0	 2.666667e+00	 9.703704e+00	 9.999514e+00
0	 2.666667e+00	 9.777778e+00	 9.999724e+00
0	 2.666667e+00	 9.851852e+00	 9.999873e+00
0	 2.666667e+00	 9.925926e+00	 9.999963e+00
0	 2.666667e+00	 1.000000e+01	 9.999992e+00
0	 2.740741e+00	 9.629630e+00	 9.999404e+00
0	 2.740741e+00	 9.703704e+00	 9.999619e+00
0	 2.740741e+00	 9.777778e+00	 9.999786e+00
0	 2.740741e+00	 9.851852e+00	 9.999904e+00
0	 2.740741e+00	 9.925926e+00	 9.999973e+00
0	 2.740741e+00	 1.000000e+01	 9.999994e+00
0	 2.814815e+00	 9.629630e+00	 9.999567e+00
0	 2.814815e+00	 9.703704e+00	 9.999726e+00
0	 2.814815e+00	 9.777778e+00	 9.999850e+00
0	 2.814815e+00	 9.851852e+00	 9.999937e+00
0	 2.814815e+00	 9.925926e+00	 9.999987e+00
0	 2.814815e+00	 1.000000e+01	 9.999999e+00
0	 2.888889e+00	 9.629630e+00	 9.999725e+00
0	 2.888889e+00	 9.703704e+00	 9.999829e+00
0	 2.888889e+00	 9.777778e+00	 9.999910e+00
0	 2.888889e+00	 9.851852e+00	 9.999968e+00
0	 2.888889e+00	 9.925926e+00	 9.999998e+00
0	 2.888889e+00	 1.000000e+01	 1.000000e+01
0	 2.962963e+00	 9.629630e+00	 9.999871e+00
0	 2.962963e+00	 9.703704e+00	 9.999921e+00
0	 2.962963e+00	 9.777778e+00	 9.999961e+00
0	 2.962963e+00	 9.851852e+00	 9.999987e+00
0	 2.962963e+00	 9.925926e+00	 9.999999e+00
0	 2.962963e+00	 1.000000e+01	 9.999993e+00
0	 2.962963e+00	 0.000000e+00	 1.095435e+01
0	 2.962963e+00	 7.407407e-02	 1.096899e+01
0	 2.962963e+00	 1.481481e-01	 1.098271e+01
0	 2.962963e+00	 2.222222e-01	 1.099707e+01
0	 2.962963e+00	 2.962963e-01	 1.101362e+01
0	 2.962963e+00	 3.703704e-01	 1.103394e+01
0	 3.037037e+00	 0.000000e+00	 1.085797e+01
0	 3.037037e+00	 7.407407e-02	 1.087653e+01
0	 3.037037e+00	 1.481481e-01	 1.089576e+01
0	 3.037037e+00	 2.222222e-01	 1.091645e+01
0	 3.037037e+00	 2.962963e-01	 1.093938e+01
0	 3.037037e+00	 3.703704e-01	 1.096535e+01
0	 3.111111e+00	 0.000000e+00	 1.080228e+01
0	 3.111111e+00	 7.407407e-02	 1.081791e+01
0	 3.111111e+00	 1.481481e-01	 1.083581e+01
0	 3.111111e+00	 2.222222e-01	 1.085620e+01
0	 3.111111e+00	 2.962963e-01	 1.087931e+01
0	 3.111111e+00	 3.703704e-01	 1.090536e+01
0	 3.185185e+00	 0.000000e+00	 1.077600e+01
0	 3.185185e+00	 7.407407e-02	 1.078461e+01
0	 3.185185e+00	 1.481481e-01	 1.079685e+01
0	 3.185185e+00	 2.222222e-01	 1.081260e+01
0	 3.185185e+00	 2.962963e-01	 1.083172e+01
0	 3.185185e+00	 3.703704e-01	 1.085410e+01
0	 3.259259e+00	 0.000000e+00	 1.076785e+01
0	 3.259259e+00	 7.407407e-02	 1.076811e+01
0	 3.259259e+00	 1.481481e-01	 1.077289e+01
0	 3.259259e+00	 2.222222e-01	 1.078192e+01
0	 3.259259e+00	 2.962963e-01	 1.079495e+01
0	 3.259259e+00	 3.703704e-01	 1.081169e+01
0	 3.333333e+00	 0.000000e+00	 1.076655e+01
0	 3.333333e+00	 7.407407e-02	 1.075990e+01
0	 3.333333e+00	 1.481481e-01	 1.075793e+01
0	 3.333333e+00	 2.222222e-01	 1.076046e+01
0	 3.333333e+00	 2.962963e-01	 1.076729e+01
0	 3.333333e+00	 3.703704e-01	 1.077824e+01
0	 2.962963e+00	 3.703704e-01	 1.103394e+01
0	 2.962963e+00	 4.444444e-01	 1.105623e+01
0	 2.962963e+00	 5.185185e-01	 1.107788e+01
0	 2.962963e+00	 5.925926e-01	 1.109930e+01
0	 2.962963e+00	 6.666667e-01	 1.112088e+01
0	 2.962963e+00	 7.407407e-01	 1.114301e+01
0	 3.037037e+00	 3.703704e-01	 1.096535e+01
0	 3.037037e+00	 4.444444e-01	 1.099183e+01
0	 3.037037e+00	 5.185185e-01	 1.101624e+01
0	 3.037037e+00	 5.925926e-01	 1.103926e+01
0	 3.037037e+00	 6.666667e-01	 1.106156e+01
0	 3.037037e+00	 7.407407e-01	 1.108381e+01
0	 3.111111e+00	 3.703704e-01	 1.090536e+01
0	 3.111111e+00	 4.444444e-01	 1.093158e+01
0	 3.111111e+00	 5.185185e-01	 1.095564e+01
0	 3.111111e+00	 5.925926e-01	 1.097836e+01
0	 3.111111e+00	 6.666667e-01	 1.100059e+01
0	 3.111111e+00	 7.407407e-01	 1.102318e+01
0	 3.185185e+00	 3.703704e-01	 1.085410e+01
0	 3.185185e+00	 4.444444e-01	 1.087707e+01
0	 3.185185e+00	 5.185185e-01	 1.089865e+01
0	 3.185185e+00	 5.925926e-01	 1.091975e+01
0	 3.185185e+00	 6.666667e-01	 1.094125e+01
0	 3.185185e+00	 7.407407e-01	 1.096408e+01
0	 3.259259e+00	 3.703704e-01	 1.081169e+01
0	 3.259259e+00	 4.444444e-01	 1.082985e+01
0	 3.259259e+00	 5.185185e-01	 1.084787e+01
0	 3.259259e+00	 5.925926e-01	 1.086658e+01
0	 3.259259e+00	 6.666667e-01	 1.088684e+01
0	 3.259259e+00	 7.407407e-01	 1.090949e+01
0	 3.333333e+00	 3.703704e-01	 1.077824e+01
0	 3.333333e+00	 4.444444e-01	 1.079151e+01
0	 3.333333e+00	 5.185185e-01	 1.080587e+01
0	 3.333333e+00	 5.925926e-01	 1.082202e+01
0	 3.333333e+00	 6.666667e-01	 1.084063e+01
0	 3.333333e+00	 7.407407e-01	 1.086238e+01
0	 2.962963e+00	 7.407407e-01	 1.114301e+01
0	 2.962963e+00	 8.148148e-01	 1.116375e+01
0	 2.962963e+00	 8.888889e-01	 1.118145e+01
0	 2.962963e+00	 9.629630e-01	 1.119691e+01
0	 2.962963e+00	 1.037037e+00	 1.121094e+01
0	 2.962963e+00	 1.111111e+00	 1.122436e+01
0	 3.037037e+00	 7.407407e-01	 1.108381e+01
0	 3.037037e+00	 8.148148e-01	 1.110470e+01
0	 3.037037e+00	 8.888889e-01	 1.112288e+01
0	 3.037037e+00	 9.629630e-01	 1.113896e+01
0	 3.037037e+00	 1.037037e+00	 1.115356e+01
0	 3.037037e+00	 1.111111e+00	 1.116731e+01
0	 3.111111e+00	 7.407407e-01	 1.102318e+01
0	 3.111111e+00	 8.148148e-01	 1.104485e+01
0	 3.111111e+00	 8.888889e-01	 1.106413e+01
0	 3.111111e+00	 9.629630e-01	 1.108148e+01
0	 3.111111e+00	 1.037037e+00	 1.109739e+01
0	 3.111111e+00	 1.111111e+00	 1.111234e+01
0	 3.185185e+00	 7.407407e-01	 1.096408e+01
0	 3.185185e+00	 8.148148e-01	 1.098665e+01
0	 3.185185e+00	 8.888889e-01	 1.100710e+01
0	 3.185185e+00	 9.629630e-01	 1.102581e+01
0	 3.185185e+00	 1.037037e+00	 1.104320e+01
0	 3.185185e+00	 1.111111e+00	 1.105967e+01
0	 3.259259e+00	 7.407407e-01	 1.090949e+01
0	 3.259259e+00	 8.148148e-01	 1.093253e+01
0	 3.259259e+00	 8.888889e-01	 1.095368e+01
0	 3.259259e+00	 9.629630e-01	 1.097331e+01
0	 3.259259e+00	 1.037037e+00	 1.099180e+01
0	 3.259259e+00	 1.111111e+00	 1.100954e+01
0	 3.333333e+00	 7.407407e-01	 1.086238e+01
0	 3.333333e+00	 8.148148e-01	 1.088494e+01
0	 3.333333e+00	 8.888889e-01	 1.090577e+01
0	 3.333333e+00	 9.629630e-01	 1.092530e+01
0	 3.333333e+00	 1.037037e+00	 1.094396e+01
0	 3.333333e+00	 1.111111e+00	 1.096216e+01
0	 2.962963e+00	 1.111111e+00	 1.122436e+01
0	 2.962963e+00	 1.185185e+00	 1.123585e+01
0	 2.962963e+00	 1.259259e+00	 1.124377e+01
0	 2.962963e+00	 1.333333e+00	 1.124847e+01
0	 2.962963e+00	 1.407407e+00	 1.125029e+01
0	 2.962963e+00	 1.481481e+00	 1.124958e+01
0	 3.037037e+00	 1.111111e+00	 1.116731e+01
0	 3.037037e+00	 1.185185e+00	 1.117915e+01
0	 3.037037e+00	 1.259259e+00	 1.118787e+01
0	 3.037037e+00	 1.333333e+00	 1.119385e+01
0	 3.037037e+00	 1.407407e+00	 1.119746e+01
0	 3.037037e+00	 1.481481e+00	 1.119909e+01
0	 3.111111e+00	 1.111111e+00	 1.111234e+01
0	 3.111111e+00	 1.185185e+00	 1.112533e+01
0	 3.111111e+00	 1.259259e+00	 1.113532e+01
0	 3.111111e+00	 1.333333e+00	 1.114270e+01
0	 3.111111e+00	 1.407407e+00	 1.114784e+01
0	 3.111111e+00	 1.481481e+00	 1.115116e+01
0	 3.185185e+00	 1.111111e+00	 1.105967e+01
0	 3.185185e+00	 1.185185e+00	 1.107415e+01
0	 3.185185e+00	 1.259259e+00	 1.108557e+01
0	 3.185185e+00	 1.333333e+00	 1.109430e+01
0	 3.185185e+00	 1.407407e+00	 1.110074e+01
0	 3.185185e+00	 1.481481e+00	 1.110527e+01
0	 3.259259e+00	 1.111111e+00	 1.100954e+01
0	 3.259259e+00	 1.185185e+00	 1.102534e+01
0	 3.259259e+00	 1.259259e+00	 1.103803e+01
0	 3.259259e+00	 1.333333e+00	 1.104795e+01
0	 3.259259e+00	 1.407407e+00	 1.105546e+01
0	 3.259259e+00	 1.481481e+00	 1.106094e+01
0	 3.333333e+00	 1.111111e+00	 1.096216e+01
0	 3.333333e+00	 1.185185e+00	 1.097865e+01
0	 3.333333e+00	 1.259259e+00	 1.099213e+01
0	 3.333333e+00	 1.333333e+00	 1.100291e+01
0	 3.333333e+00	 1.407407e+00	 1.101131e+01
0	 3.333333e+00	 1.481481e+00	 1.101765e+01
0	 2.962963e+00	 1.481481e+00	 1.124958e+01
0	 2.962963e+00	 1.555556e+00	 1.124592e+01
0	 2.962963e+00	 1.629630e+00	 1.123860e+01
0	 2.962963e+00	 1.703704e+00	 1.122750e+01
0	 2.962963e+00	 1.777778e+00	 1.121248e+01
0	 2.962963e+00	 1.851852e+00	 1.119344e+01
0	 3.037037e+00	 1.481481e+00	 1.119909e+01
0	 3.037037e+00	 1.555556e+00	 1.119796e+01
0	 3.037037e+00	 1.629630e+00	 1.119305e+01
0	 3.037037e+00	 1.703704e+00	 1.118438e+01
0	 3.037037e+00	 1.777778e+00	 1.117195e+01
0	 3.037037e+00	 1.851852e+00	 1.115578e+01
0	 3.111111e+00	 1.481481e+00	 1.115116e+01
0	 3.111111e+00	 1.555556e+00	 1.115181e+01
0	 3.111111e+00	 1.629630e+00	 1.114879e+01
0	 3.111111e+00	 1.703704e+00	 1.114220e+01
0	 3.111111e+00	 1.777778e+00	 1.113215e+01
0	 3.111111e+00	 1.851852e+00	 1.111875e+01
0	 3.185185e+00	 1.481481e+00	 1.110527e+01
0	 3.185185e+00	 1.555556e+00	 1.110722e+01
0	 3.185185e+00	 1.629630e+00	 1.110574e+01
0	 3.185185e+00	 1.703704e+00	 1.110100e+01
0	 3.185185e+00	 1.777778e+00	 1.109316e+01
0	 3.185185e+00	 1.851852e+00	 1.108237e+01
0	 3.259259e+00	 1.481481e+00	 1.106094e+01
0	 3.259259e+00	 1.555556e+00	 1.106392e+01
0	 3.259259e+00	 1.629630e+00	 1.106381e+01
0	 3.259259e+00	 1.703704e+00	 1.106079e+01
0	 3.259259e+00	 1.777778e+00	 1.105504e+01
0	 3.259259e+00	 1.851852e+00	 1.104671e+01
0	 3.333333e+00	 1.481481e+00	 1.101765e+01
0	 3.333333e+00	 1.555556e+00	 1.102165e+01
0	 3.333333e+00	 1.629630e+00	 1.102293e+01
0	 3.333333e+00	 1.703704e+00	 1.102162e+01
0	 3.333333e+00	 1.777778e+00	 1.101786e+01
0	 3.333333e+00	 1.851852e+00	 1.101181e+01
0	 2.962963e+00	 1.851852e+00	 1.119344e+01
0	 2.962963e+00	 1.925926e+00	 1.117140e+01
0	 2.962963e+00	 2.000000e+00	 1.114744e+01
0	 2.962963e+00	 2.074074e+00	 1.112147e+01
0	 2.962963e+00	 2.148148e+00	 1.109343e+01
0	 2.962963e+00	 2.222222e+00	 1.106323e+01
0	 3.037037e+00	 1.851852e+00	 1.115578e+01
0	 3.037037e+00	 1.925926e+00	 1.113695e+01
0	 3.037037e+00	 2.000000e+00	 1.111642e+01
0	 3.037037e+00	 2.074074e+00	 1.109403e+01
0	 3.037037e+00	 2.148148e+00	 1.106961e+01
0	 3.037037e+00	 2.222222e+00	 1.104302e+01
0	 3.111111e+00	 1.851852e+00	 1.111875e+01
0	 3.111111e+00	 1.925926e+00	 1.110295e+01
0	 3.111111e+00	 2.000000e+00	 1.108552e+01
0	 3.111111e+00	 2.074074e+00	 1.106625e+01
0	 3.111111e+00	 2.148148e+00	 1.104493e+01
0	 3.111111e+00	 2.222222e+00	 1.102136e+01
0	 3.185185e+00	 1.851852e+00	 1.108237e+01
0	 3.185185e+00	 1.925926e+00	 1.106940e+01
0	 3.185185e+00	 2.000000e+00	 1.105475e+01
0	 3.185185e+00	 2.074074e+00	 1.103820e+01
0	 3.185185e+00	 2.148148e+00	 1.101953e+01
0	 3.185185e+00	 2.222222e+00	 1.099854e+01
0	 3.259259e+00	 1.851852e+00	 1.104671e+01
0	 3.259259e+00	 1.925926e+00	 1.103632e+01
0	 3.259259e+00	 2.000000e+00	 1.102413e+01
0	 3.259259e+00	 2.074074e+00	 1.100994e+01
0	 3.259259e+00	 2.148148e+00	 1.099358e+01
0	 3.259259e+00	 2.222222e+00	 1.097485e+01
0	 3.333333e+00	 1.851852e+00	 1.101181e+01
0	 3.333333e+00	 1.925926e+00	 1.100371e+01
0	 3.333333e+00	 2.000000e+00	 1.099367e+01
0	 3.333333e+00	 2.074074e+00	 1.098155e+01
0	 3.333333e+00	 2.148148e+00	 1.096723e+01
0	 3.333333e+00	 2.222222e+00	 1.095058e+01
0	 2.962963e+00	 2.222222e+00	 1.106323e+01
0	 2.962963e+00	 2.296296e+00	 1.103174e+01
0	 2.962963e+00	 2.370370e+00	 1.099968e+01
0	 2.962963e+00	 2.444444e+00	 1.096676e+01
0	 2.962963e+00	 2.518519e+00	 1.093268e+01
0	 2.962963e+00	 2.592593e+00	 1.089716e+01
0	 3.037037e+00	 2.222222e+00	 1.104302e+01
0	 3.037037e+00	 2.296296e+00	 1.101489e+01
0	 3.037037e+00	 2.370370e+00	 1.098587e+01
0	 3.037037e+00	 2.444444e+00	 1.095575e+01
0	 3.037037e+00	 2.518519e+00	 1.092433e+01
0	 3.037037e+00	 2.592593e+00	 1.089141e+01
0	 3.111111e+00	 2.222222e+00	 1.102136e+01
0	 3.111111e+00	 2.296296e+00	 1.099611e+01
0	 3.111111e+00	 2.370370e+00	 1.096981e+01
0	 3.111111e+00	 2.444444e+00	 1.094232e+01
0	 3.111111e+00	 2.518519e+00	 1.091352e+01
0	 3.111111e+00	 2.592593e+00	 1.088328e+01
0	 3.185185e+00	 2.222222e+00	 1.099854e+01
0	 3.185185e+00	 2.296296e+00	 1.097580e+01
0	 3.185185e+00	 2.370370e+00	 1.095199e+01
0	 3.185185e+00	 2.444444e+00	 1.092701e+01
0	 3.185185e+00	 2.518519e+00	 1.090077e+01
0	 3.185185e+00	 2.592593e+00	 1.087318e+01
0	 3.259259e+00	 2.222222e+00	 1.097485e+01
0	 3.259259e+00	 2.296296e+00	 1.095439e+01
0	 3.259259e+00	 2.370370e+00	 1.093290e+01
0	 3.259259e+00	 2.444444e+00	 1.091032e+01
0	 3.259259e+00	 2.518519e+00	 1.088656e+01
0	 3.259259e+00	 2.592593e+00	 1.086155e+01
0	 3.333333e+00	 2.222222e+00	 1.095058e+01
0	 3.333333e+00	 2.296296e+00	 1.093228e+01
0	 3.333333e+00	 2.370370e+00	 1.091305e+01
0	 3.333333e+00	 2.444444e+00	 1.089278e+01
0	 3.333333e+00	 2.518519e+00	 1.087140e+01
0	 3.333333e+00	 2.592593e+00	 1.084882e+01
0	 2.962963e+00	 2.592593e+00	 1.089716e+01
0	 2.962963e+00	 2.666667e+00	 1.086118e+01
0	 2.962963e+00	 2.740741e+00	 1.082581e+01
0	 2.962963e+00	 2.814815e+00	 1.079094e+01
0	 2.962963e+00	 2.888889e+00	 1.075641e+01
0	 2.962963e+00	 2.962963e+00	 1.072210e+01
0	 3.037037e+00	 2.592593e+00	 1.089141e+01
0	 3.037037e+00	 2.666667e+00	 1.085800e+01
0	 3.037037e+00	 2.740741e+00	 1.082513e+01
0	 3.037037e+00	 2.814815e+00	 1.079263e+01
0	 3.037037e+00	 2.888889e+00	 1.076032e+01
0	 3.037037e+00	 2.962963e+00	 1.072803e+01
0	 3.111111e+00	 2.592593e+00	 1.088328e+01
0	 3.111111e+00	 2.666667e+00	 1.085251e+01
0	 3.111111e+00	 2.740741e+00	 1.082211e+01
0	 3.111111e+00	 2.814815e+00	 1.079189e+01
0	 3.111111e+00	 2.888889e+00	 1.076167e+01
0	 3.111111e+00	 2.962963e+00	 1.073125e+01
0	 3.185185e+00	 2.592593e+00	 1.087318e+01
0	 3.185185e+00	 2.666667e+00	 1.084503e+01
0	 3.185185e+00	 2.740741e+00	 1.081704e+01
0	 3.185185e+00	 2.814815e+00	 1.078901e+01
0	 3.185185e+00	 2.888889e+00	 1.076075e+01
0	 3.185185e+00	 2.962963e+00	 1.073208e+01
0	 3.259259e+00	 2.592593e+00	 1.086155e+01
0	 3.259259e+00	 2.666667e+00	 1.083591e+01
0	 3.259259e+00	 2.740741e+00	 1.081020e+01
0	 3.259259e+00	 2.814815e+00	 1.078424e+01
0	 3.259259e+00	 2.888889e+00	 1.075785e+01
0	 3.259259e+00	 2.962963e+00	 1.073085e+01
0	 3.333333e+00	 2.592593e+00	 1.084882e+01
0	 3.333333e+00	 2.666667e+00	 1.082551e+01
0	 3.333333e+00	 2.740741e+00	 1.080190e+01
0	 3.333333e+00	 2.814815e+00	 1.077786e+01
0	 3.333333e+00	 2.888889e+00	 1.075324e+01
0	 3.333333e+00	 2.962963e+00	 1.072788e+01
0	 2.962963e+00	 2.962963e+00	 1.072210e+01
0	 2.962963e+00	 3.037037e+00	 1.068834e+01
0	 2.962963e+00	 3.111111e+00	 1.065547e+01
0	 2.962963e+00	 3.185185e+00	 1.062336e+01
0	 2.962963e+00	 3.259259e+00	 1.059188e+01
0	 2.962963e+00	 3.333333e+00	 1.056089e+01
0	 3.037037e+00	 2.962963e+00	 1.072803e+01
0	 3.037037e+00	 3.037037e+00	 1.069607e+01
0	 3.037037e+00	 3.111111e+00	 1.066479e+01
0	 3.037037e+00	 3.185185e+00	 1.063408e+01
0	 3.037037e+00	 3.259259e+00	 1.060385e+01
0	 3.037037e+00	 3.333333e+00	 1.057398e+01
0	 3.111111e+00	 2.962963e+00	 1.073125e+01
0	 3.111111e+00	 3.037037e+00	 1.070096e+01
0	 3.111111e+00	 3.111111e+00	 1.067122e+01
0	 3.111111e+00	 3.185185e+00	 1.064194e+01
0	 3.111111e+00	 3.259259e+00	 1.061304e+01
0	 3.111111e+00	 3.333333e+00	 1.058441e+01
0	 3.185185e+00	 2.962963e+00	 1.073208e+01
0	 3.185185e+00	 3.037037e+00	 1.070339e+01
0	 3.185185e+00	 3.111111e+00	 1.067517e+01
0	 3.185185e+00	 3.185185e+00	 1.064733e+01
0	 3.185185e+00	 3.259259e+00	 1.061981e+01
0	 3.185185e+00	 3.333333e+00	 1.059252e+01
0	 3.259259e+00	 2.962963e+00	 1.073085e+01
0	 3.259259e+00	 3.037037e+00	 1.070372e+01
0	 3.259259e+00	 3.111111e+00	 1.067701e+01
0	 3.259259e+00	 3.185185e+00	 1.065063e+01
0	 3.259259e+00	 3.259259e+00	 1.062452e+01
0	 3.259259e+00	 3.333333e+00	 1.059859e+01
0	 3.333333e+00	 2.962963e+00	 1.072788e+01
0	 3.333333e+00	 3.037037e+00	 1.070232e+01
0	 3.333333e+00	 3.111111e+00	 1.067713e+01
0	 3.333333e+00	 3.185185e+00	 1.065223e+01
0	 3.333333e+00	 3.259259e+00	 1.062753e+01
0	 3.333333e+00	 3.333333e+00	 1.060294e+01
0	 2.962963e+00	 3.333333e+00	 1.056089e+01
0	 2.962963e+00	 3.407407e+00	 1.053072e+01
0	 2.962963e+00	 3.481481e+00	 1.050174e+01
0	 2.962963e+00	 3.555556e+00	 1.047389e+01
0	 2.962963e+00	 3.629630e+00	 1.044713e+01
0	 2.962963e+00	 3.703704e+00	 1.042140e+01
0	 3.037037e+00	 3.333333e+00	 1.057398e+01
0	 3.037037e+00	 3.407407e+00	 1.054483e+01
0	 3.037037e+00	 3.481481e+00	 1.051679e+01
0	 3.037037e+00	 3.555556e+00	 1.048979e+01
0	 3.037037e+00	 3.629630e+00	 1.046375e+01
0	 3.037037e+00	 3.703704e+00	 1.043861e+01
0	 3.111111e+00	 3.333333e+00	 1.058441e+01
0	 3.111111e+00	 3.407407e+00	 1.055643e+01
0	 3.111111e+00	 3.481481e+00	 1.052943e+01
0	 3.111111e+00	 3.555556e+00	 1.050333e+01
0	 3.111111e+00	 3.629630e+00	 1.047807e+01
0	 3.111111e+00	 3.703704e+00	 1.045354e+01
0	 3.185185e+00	 3.333333e+00	 1.059252e+01
0	 3.185185e+00	 3.407407e+00	 1.056577e+01
0	 3.185185e+00	 3.481481e+00	 1.053986e+01
0	 3.185185e+00	 3.555556e+00	 1.051472e+01
0	 3.185185e+00	 3.629630e+00	 1.049025e+01
0	 3.185185e+00	 3.703704e+00	 1.046638e+01
0	 3.259259e+00	 3.333333e+00	 1.059859e+01
0	 3.259259e+00	 3.407407e+00	 1.057310e+01
0	 3.259259e+00	 3.481481e+00	 1.054831e+01
0	 3.259259e+00	 3.555556e+00	 1.052413e+01
0	 3.259259e+00	 3.629630e+00	 1.050049e+01
0	 3.259259e+00	 3.703704e+00	 1.047729e+01
0	 3.333333e+00	 3.333333e+00	 1.060294e+01
0	 3.333333e+00	 3.407407e+00	 1.057868e+01
0	 3.333333e+00	 3.481481e+00	 1.055498e+01
0	 3.333333e+00	 3.555556e+00	 1.053176e+01
0	 3.333333e+00	 3.629630e+00	 1.050894e+01
0	 3.333333e+00	 3.703704e+00	 1.048647e+01
0	 2.962963e+00	 3.703704e+00	 1.042140e+01
0	 2.962963e+00	 3.777778e+00	 1.039670e+01
0	 2.962963e+00	 3.851852e+00	 1.037303e+01
0	 2.962963e+00	 3.925926e+00	 1.035037e+01
0	 2.962963e+00	 4.000000e+00	 1.032868e+01
0	 2.962963e+00	 4.074074e+00	 1.030792e+01
0	 3.037037e+00	 3.703704e+00	 1.043861e+01
0	 3.037037e+00	 3.777778e+00	 1.041438e+01
0	 3.037037e+00	 3.851852e+00	 1.039109e+01
0	 3.037037e+00	 3.925926e+00	 1.036871e+01
0	 3.037037e+00	 4.000000e+00	 1.034722e+01
0	 3.037037e+00	 4.074074e+00	 1.032658e+01
0	 3.111111e+00	 3.703704e+00	 1.045354e+01
0	 3.111111e+00	 3.777778e+00	 1.042981e+01
0	 3.111111e+00	 3.851852e+00	 1.040695e+01
0	 3.111111e+00	 3.925926e+00	 1.038493e+01
0	 3.111111e+00	 4.000000e+00	 1.036374e+01
0	 3.111111e+00	 4.074074e+00	 1.034334e+01
0	 3.185185e+00	 3.703704e+00	 1.046638e+01
0	 3.185185e+00	 3.777778e+00	 1.044318e+01
0	 3.185185e+00	 3.851852e+00	 1.042081e+01
0	 3.185185e+00	 3.925926e+00	 1.039923e+01
0	 3.185185e+00	 4.000000e+00	 1.037841e+01
0	 3.185185e+00	 4.074074e+00	 1.035833e+01
0	 3.259259e+00	 3.703704e+00	 1.047729e+01
0	 3.259259e+00	 3.777778e+00	 1.045469e+01
0	 3.259259e+00	 3.851852e+00	 1.043286e+01
0	 3.259259e+00	 3.925926e+00	 1.041177e+01
0	 3.259259e+00	 4.000000e+00	 1.039139e+01
0	 3.259259e+00	 4.074074e+00	 1.037170e+01
0	 3.333333e+00	 3.703704e+00	 1.048647e+01
0	 3.333333e+00	 3.777778e+00	 1.046451e+01
0	 3.333333e+00	 3.851852e+00	 1.044327e+01
0	 3.333333e+00	 3.925926e+00	 1.042273e+01
0	 3.333333e+00	 4.000000e+00	 1.040284e+01
0	 3.333333e+00	 4.074074e+00	 1.038358e+01
0	 2.962963e+00	 4.074074e+00	 1.030792e+01
0	 2.962963e+00	 4.148148e+00	 1.028810e+01
0	 2.962963e+00	 4.222222e+00	 1.026925e+01
0	 2.962963e+00	 4.296296e+00	 1.025135e+01
0	 2.962963e+00	 4.370370e+00	 1.023439e+01
0	 2.962963e+00	 4.444444e+00	 1.021839e+01
0	 3.037037e+00	 4.074074e+00	 1.032658e+01
0	 3.037037e+00	 4.148148e+00	 1.030684e+01
0	 3.037037e+00	 4.222222e+00	 1.028802e+01
0	 3.037037e+00	 4.296296e+00	 1.027011e+01
0	 3.037037e+00	 4.370370e+00	 1.025310e+01
0	 3.037037e+00	 4.444444e+00	 1.023697e+01
0	 3.111111e+00	 4.074074e+00	 1.034334e+01
0	 3.111111e+00	 4.148148e+00	 1.032378e+01
0	 3.111111e+00	 4.222222e+00	 1.030508e+01
0	 3.111111e+00	 4.296296e+00	 1.028725e+01
0	 3.111111e+00	 4.370370e+00	 1.027024e+01
0	 3.111111e+00	 4.444444e+00	 1.025405e+01
0	 3.185185e+00	 4.074074e+00	 1.035833e+01
0	 3.185185e+00	 4.148148e+00	 1.033903e+01
0	 3.185185e+00	 4.222222e+00	 1.032054e+01
0	 3.185185e+00	 4.296296e+00	 1.030284e+01
0	 3.185185e+00	 4.370370e+00	 1.028590e+01
0	 3.185185e+00	 4.444444e+00	 1.026971e+01
0	 3.259259e+00	 4.074074e+00	 1.037170e+01
0	 3.259259e+00	 4.148148e+00	 1.035272e+01
0	 3.259259e+00	 4.222222e+00	 1.033449e+01
0	 3.259259e+00	 4.296296e+00	 1.031697e+01
0	 3.259259e+00	 4.370370e+00	 1.030015e+01
0	 3.259259e+00	 4.444444e+00	 1.028400e+01
0	 3.333333e+00	 4.074074e+00	 1.038358e+01
0	 3.333333e+00	 4.148148e+00	 1.036495e+01
0	 3.333333e+00	 4.222222e+00	 1.034701e+01
0	 3.333333e+00	 4.296296e+00	 1.032971e+01
0	 3.333333e+00	 4.370370e+00	 1.031305e+01
0	 3.333333e+00	 4.444444e+00	 1.029701e+01
0	 2.962963e+00	 4.444444e+00	 1.021839e+01
0	 2.962963e+00	 4.518519e+00	 1.020323e+01
0	 2.962963e+00	 4.592593e+00	 1.018883e+01
0	 2.962963e+00	 4.666667e+00	 1.017520e+01
0	 2.962963e+00	 4.740741e+00	 1.016233e+01
0	 2.962963e+00	 4.814815e+00	 1.015022e+01
0	 3.037037e+00	 4.444444e+00	 1.023697e+01
0	 3.037037e+00	 4.518519e+00	 1.022164e+01
0	 3.037037e+00	 4.592593e+00	 1.020704e+01
0	 3.037037e+00	 4.666667e+00	 1.019318e+01
0	 3.037037e+00	 4.740741e+00	 1.018005e+01
0	 3.037037e+00	 4.814815e+00	 1.016766e+01
0	 3.111111e+00	 4.444444e+00	 1.025405e+01
0	 3.111111e+00	 4.518519e+00	 1.023861e+01
0	 3.111111e+00	 4.592593e+00	 1.022388e+01
0	 3.111111e+00	 4.666667e+00	 1.020985e+01
0	 3.111111e+00	 4.740741e+00	 1.019654e+01
0	 3.111111e+00	 4.814815e+00	 1.018393e+01
0	 3.185185e+00	 4.444444e+00	 1.026971e+01
0	 3.185185e+00	 4.518519e+00	 1.025422e+01
0	 3.185185e+00	 4.592593e+00	 1.023941e+01
0	 3.185185e+00	 4.666667e+00	 1.022528e+01
0	 3.185185e+00	 4.740741e+00	 1.021184e+01
0	 3.185185e+00	 4.814815e+00	 1.019908e+01
0	 3.259259e+00	 4.444444e+00	 1.028400e+01
0	 3.259259e+00	 4.518519e+00	 1.026852e+01
0	 3.259259e+00	 4.592593e+00	 1.025369e+01
0	 3.259259e+00	 4.666667e+00	 1.023952e+01
0	 3.259259e+00	 4.740741e+00	 1.022601e+01
0	 3.259259e+00	 4.814815e+00	 1.021314e+01
0	 3.333333e+00	 4.444444e+00	 1.029701e+01
0	 3.333333e+00	 4.518519e+00	 1.028158e+01
0	 3.333333e+00	 4.592593e+00	 1.026678e+01
0	 3.333333e+00	 4.666667e+00	 1.025262e+01
0	 3.333333e+00	 4.740741e+00	 1.023909e+01
0	 3.333333e+00	 4.814815e+00	 1.022617e+01
0	 2.962963e+00	 4.814815e+00	 1.015022e+01
0	 2.962963e+00	 4.888889e+00	 1.013881e+01
0	 2.962963e+00	 4.962963e+00	 1.012802e+01
0	 2.962963e+00	 5.037037e+00	 1.011787e+01
0	 2.962963e+00	 5.111111e+00	 1.010835e+01
0	 2.962963e+00	 5.185185e+00	 1.009949e+01
0	 3.037037e+00	 4.814815e+00	 1.016766e+01
0	 3.037037e+00	 4.888889e+00	 1.015594e+01
0	 3.037037e+00	 4.962963e+00	 1.014484e+01
0	 3.037037e+00	 5.037037e+00	 1.013436e+01
0	 3.037037e+00	 5.111111e+00	 1.012451e+01
0	 3.037037e+00	 5.185185e+00	 1.011528e+01
0	 3.111111e+00	 4.814815e+00	 1.018393e+01
0	 3.111111e+00	 4.888889e+00	 1.017198e+01
0	 3.111111e+00	 4.962963e+00	 1.016063e+01
0	 3.111111e+00	 5.037037e+00	 1.014988e+01
0	 3.111111e+00	 5.111111e+00	 1.013973e+01
0	 3.111111e+00	 5.185185e+00	 1.013020e+01
0	 3.185185e+00	 4.814815e+00	 1.019908e+01
0	 3.185185e+00	 4.888889e+00	 1.018695e+01
0	 3.185185e+00	 4.962963e+00	 1.017540e+01
0	 3.185185e+00	 5.037037e+00	 1.016443e+01
0	 3.185185e+00	 5.111111e+00	 1.015405e+01
0	 3.185185e+00	 5.185185e+00	 1.014424e+01
0	 3.259259e+00	 4.814815e+00	 1.021314e+01
0	 3.259259e+00	 4.888889e+00	 1.020089e+01
0	 3.259259e+00	 4.962963e+00	 1.018919e+01
0	 3.259259e+00	 5.037037e+00	 1.017805e+01
0	 3.259259e+00	 5.111111e+00	 1.016746e+01
0	 3.259259e+00	 5.185185e+00	 1.015744e+01
0	 3.333333e+00	 4.814815e+00	 1.022617e+01
0	 3.333333e+00	 4.888889e+00	 1.021382e+01
0	 3.333333e+00	 4.962963e+00	 1.020201e+01
0	 3.333333e+00	 5.037037e+00	 1.019074e+01
0	 3.333333e+00	 5.111111e+00	 1.018000e+01
0	 3.333333e+00	 5.185185e+00	 1.016978e+01
0	 2.962963e+00	 5.185185e+00	 1.009949e+01
0	 2.962963e+00	 5.259259e+00	 1.009118e+01
0	 2.962963e+00	 5.333333e+00	 1.008335e+01
0	 2.962963e+00	 5.407407e+00	 1.007600e+01
0	 2.962963e+00	 5.481481e+00	 1.006915e+01
0	 2.962963e+00	 5.555556e+00	 1.006280e+01
0	 3.037037e+00	 5.185185e+00	 1.011528e+01
0	 3.037037e+00	 5.259259e+00	 1.010660e+01
0	 3.037037e+00	 5.333333e+00	 1.009840e+01
0	 3.037037e+00	 5.407407e+00	 1.009068e+01
0	 3.037037e+00	 5.481481e+00	 1.008344e+01
0	 3.037037e+00	 5.555556e+00	 1.007671e+01
0	 3.111111e+00	 5.185185e+00	 1.013020e+01
0	 3.111111e+00	 5.259259e+00	 1.012119e+01
0	 3.111111e+00	 5.333333e+00	 1.011266e+01
0	 3.111111e+00	 5.407407e+00	 1.010460e+01
0	 3.111111e+00	 5.481481e+00	 1.009703e+01
0	 3.111111e+00	 5.555556e+00	 1.008995e+01
0	 3.185185e+00	 5.185185e+00	 1.014424e+01
0	 3.185185e+00	 5.259259e+00	 1.013496e+01
0	 3.185185e+00	 5.333333e+00	 1.012614e+01
0	 3.185185e+00	 5.407407e+00	 1.011779e+01
0	 3.185185e+00	 5.481481e+00	 1.010992e+01
0	 3.185185e+00	 5.555556e+00	 1.010253e+01
0	 3.259259e+00	 5.185185e+00	 1.015744e+01
0	 3.259259e+00	 5.259259e+00	 1.014791e+01
0	 3.259259e+00	 5.333333e+00	 1.013885e+01
0	 3.259259e+00	 5.407407e+00	 1.013024e+01
0	 3.259259e+00	 5.481481e+00	 1.012211e+01
0	 3.259259e+00	 5.555556e+00	 1.011445e+01
0	 3.333333e+00	 5.185185e+00	 1.016978e+01
0	 3.333333e+00	 5.259259e+00	 1.016006e+01
0	 3.333333e+00	 5.333333e+00	 1.015079e+01
0	 3.333333e+00	 5.407407e+00	 1.014197e+01
0	 3.333333e+00	 5.481481e+00	 1.013361e+01
0	 3.333333e+00	 5.555556e+00	 1.012571e+01
0	 2.962963e+00	 5.555556e+00	 1.006280e+01
0	 2.962963e+00	 5.629630e+00	 1.005689e+01
0	 2.962963e+00	 5.703704e+00	 1.005135e+01
0	 2.962963e+00	 5.777778e+00	 1.004618e+01
0	 2.962963e+00	 5.851852e+00	 1.004139e+01
0	 2.962963e+00	 5.925926e+00	 1.003700e+01
0	 3.037037e+00	 5.555556e+00	 1.007671e+01
0	 3.037037e+00	 5.629630e+00	 1.007040e+01
0	 3.037037e+00	 5.703704e+00	 1.006447e+01
0	 3.037037e+00	 5.777778e+00	 1.005892e+01
0	 3.037037e+00	 5.851852e+00	 1.005375e+01
0	 3.037037e+00	 5.925926e+00	 1.004898e+01
0	 3.111111e+00	 5.555556e+00	 1.008995e+01
0	 3.111111e+00	 5.629630e+00	 1.008330e+01
0	 3.111111e+00	 5.703704e+00	 1.007702e+01
0	 3.111111e+00	 5.777778e+00	 1.007111e+01
0	 3.111111e+00	 5.851852e+00	 1.006559e+01
0	 3.111111e+00	 5.925926e+00	 1.006047e+01
0	 3.185185e+00	 5.555556e+00	 1.010253e+01
0	 3.185185e+00	 5.629630e+00	 1.009556e+01
0	 3.185185e+00	 5.703704e+00	 1.008897e+01
0	 3.185185e+00	 5.777778e+00	 1.008275e+01
0	 3.185185e+00	 5.851852e+00	 1.007691e+01
0	 3.185185e+00	 5.925926e+00	 1.007145e+01
0	 3.259259e+00	 5.555556e+00	 1.011445e+01
0	 3.259259e+00	 5.629630e+00	 1.010720e+01
0	 3.259259e+00	 5.703704e+00	 1.010033e+01
0	 3.259259e+00	 5.777778e+00	 1.009382e+01
0	 3.259259e+00	 5.851852e+00	 1.008769e+01
0	 3.259259e+00	 5.925926e+00	 1.008193e+01
0	 3.333333e+00	 5.555556e+00	 1.012571e+01
0	 3.333333e+00	 5.629630e+00	 1.011822e+01
0	 3.333333e+00	 5.703704e+00	 1.011109e+01
0	 3.333333e+00	 5.777778e+00	 1.010432e+01
0	 3.333333e+00	 5.851852e+00	 1.009792e+01
0	 3.333333e+00	 5.925926e+00	 1.009190e+01
0	 2.962963e+00	 5.925926e+00	 1.003700e+01
0	 2.962963e+00	 6.000000e+00	 1.003295e+01
0	 2.962963e+00	 6.074074e+00	 1.002916e+01
0	 2.962963e+00	 6.148148e+00	 1.002566e+01
0	 2.962963e+00	 6.222222e+00	 1.002245e+01
0	 2.962963e+00	 6.296296e+00	 1.001953e+01
0	 3.037037e+00	 5.925926e+00	 1.004898e+01
0	 3.037037e+00	 6.000000e+00	 1.004454e+01
0	 3.037037e+00	 6.074074e+00	 1.004038e+01
0	 3.037037e+00	 6.148148e+00	 1.003650e+01
0	 3.037037e+00	 6.222222e+00	 1.003292e+01
0	 3.037037e+00	 6.296296e+00	 1.002964e+01
0	 3.111111e+00	 5.925926e+00	 1.006047e+01
0	 3.111111e+00	 6.000000e+00	 1.005567e+01
0	 3.111111e+00	 6.074074e+00	 1.005116e+01
0	 3.111111e+00	 6.148148e+00	 1.004694e+01
0	 3.111111e+00	 6.222222e+00	 1.004301e+01
0	 3.111111e+00	 6.296296e+00	 1.003939e+01
0	 3.185185e+00	 5.925926e+00	 1.007145e+01
0	 3.185185e+00	 6.000000e+00	 1.006633e+01
0	 3.185185e+00	 6.074074e+00	 1.006150e+01
0	 3.185185e+00	 6.148148e+00	 1.005695e+01
0	 3.185185e+00	 6.222222e+00	 1.005271e+01
0	 3.185185e+00	 6.296296e+00	 1.004876e+01
0	 3.259259e+00	 5.925926e+00	 1.008193e+01
0	 3.259259e+00	 6.000000e+00	 1.007652e+01
0	 3.259259e+00	 6.074074e+00	 1.007138e+01
0	 3.259259e+00	 6.148148e+00	 1.006654e+01
0	 3.259259e+00	 6.222222e+00	 1.006200e+01
0	 3.259259e+00	 6.296296e+00	 1.005776e+01
0	 3.333333e+00	 5.925926e+00	 1.009190e+01
0	 3.333333e+00	 6.000000e+00	 1.008621e+01
0	 3.333333e+00	 6.074074e+00	 1.008080e+01
0	 3.333333e+00	 6.148148e+00	 1.007569e+01
0	 3.333333e+00	 6.222222e+00	 1.007087e+01
0	 3.333333e+00	 6.296296e+00	 1.006635e+01
0	 2.962963e+00	 6.296296e+00	 1.001953e+01
0	 2.962963e+00	 6.370370e+00	 1.001686e+01
0	 2.962963e+00	 6.444444e+00	 1.001440e+01
0	 2.962963e+00	 6.518519e+00	 1.001214e+01
0	 2.962963e+00	 6.592593e+00	 1.001010e+01
0	 2.962963e+00	 6.666667e+00	 1.000828e+01
0	 3.037037e+00	 6.296296e+00	 1.002964e+01
0	 3.037037e+00	 6.370370e+00	 1.002661e+01
0	 3.037037e+00	 6.444444e+00	 1.002379e+01
0	 3.037037e+00	 6.518519e+00	 1.002119e+01
0	 3.037037e+00	 6.592593e+00	 1.001880e+01
0	 3.037037e+00	 6.666667e+00	 1.001664e+01
0	 3.111111e+00	 6.296296e+00	 1.003939e+01
0	 3.111111e+00	 6.370370e+00	 1.003602e+01
0	 3.111111e+00	 6.444444e+00	 1.003287e+01
0	 3.111111e+00	 6.518519e+00	 1.002994e+01
0	 3.111111e+00	 6.592593e+00	 1.002723e+01
0	 3.111111e+00	 6.666667e+00	 1.002475e+01
0	 3.185185e+00	 6.296296e+00	 1.004876e+01
0	 3.185185e+00	 6.370370e+00	 1.004508e+01
0	 3.185185e+00	 6.444444e+00	 1.004162e+01
0	 3.185185e+00	 6.518519e+00	 1.003837e+01
0	 3.185185e+00	 6.592593e+00	 1.003536e+01
0	 3.185185e+00	 6.666667e+00	 1.003257e+01
0	 3.259259e+00	 6.296296e+00	 1.005776e+01
0	 3.259259e+00	 6.370370e+00	 1.005378e+01
0	 3.259259e+00	 6.444444e+00	 1.005002e+01
0	 3.259259e+00	 6.518519e+00	 1.004648e+01
0	 3.259259e+00	 6.592593e+00	 1.004318e+01
0	 3.259259e+00	 6.666667e+00	 1.004011e+01
0	 3.333333e+00	 6.296296e+00	 1.006635e+01
0	 3.333333e+00	 6.370370e+00	 1.006210e+01
0	 3.333333e+00	 6.444444e+00	 1.005807e+01
0	 3.333333e+00	 6.518519e+00	 1.005426e+01
0	 3.333333e+00	 6.592593e+00	 1.005068e+01
0	 3.333333e+00	 6.666667e+00	 1.004734e+01
0	 2.962963e+00	 6.666667e+00	 1.000828e+01
0	 2.962963e+00	 6.740741e+00	 1.000664e+01
0	 2.962963e+00	 6.814815e+00	 1.000514e+01
0	 2.962963e+00	 6.888889e+00	 1.000380e+01
0	 2.962963e+00	 6.962963e+00	 1.000260e+01
0	 2.962963e+00	 7.037037e+00	 1.000157e+01
0	 3.037037e+00	 6.666667e+00	 1.001664e+01
0	 3.037037e+00	 6.740741e+00	 1.001467e+01
0	 3.037037e+00	 6.814815e+00	 1.001285e+01
0	 3.037037e+00	 6.888889e+00	 1.001119e+01
0	 3.037037e+00	 6.962963e+00	 1.000968e+01
0	 3.037037e+00	 7.037037e+00	 1.000834e+01
0	 3.111111e+00	 6.666667e+00	 1.002475e+01
0	 3.111111e+00	 6.740741e+00	 1.002246e+01
0	 3.111111e+00	 6.814815e+00	 1.002033e+01
0	 3.111111e+00	 6.888889e+00	 1.001836e+01
0	 3.111111e+00	 6.962963e+00	 1.001655e+01
0	 3.111111e+00	 7.037037e+00	 1.001492e+01
0	 3.185185e+00	 6.666667e+00	 1.003257e+01
0	 3.185185e+00	 6.740741e+00	 1.002999e+01
0	 3.185185e+00	 6.814815e+00	 1.002756e+01
0	 3.185185e+00	 6.888889e+00	 1.002530e+01
0	 3.185185e+00	 6.962963e+00	 1.002321e+01
0	 3.185185e+00	 7.037037e+00	 1.002130e+01
0	 3.259259e+00	 6.666667e+00	 1.004011e+01
0	 3.259259e+00	 6.740741e+00	 1.003724e+01
0	 3.259259e+00	 6.814815e+00	 1.003454e+01
0	 3.259259e+00	 6.888889e+00	 1.003200e+01
0	 3.259259e+00	 6.962963e+00	 1.002964e+01
0	 3.259259e+00	 7.037037e+00	 1.002746e+01
0	 3.333333e+00	 6.666667e+00	 1.004734e+01
0	 3.333333e+00	 6.740741e+00	 1.004421e+01
0	 3.333333e+00	 6.814815e+00	 1.004124e+01
0	 3.333333e+00	 6.888889e+00	 1.003845e+01
0	 3.333333e+00	 6.962963e+00	 1.003583e+01
0	 3.333333e+00	 7.037037e+00	 1.003339e+01
0	 2.962963e+00	 7.037037e+00	 1.000157e+01
0	 2.962963e+00	 7.111111e+00	 1.000067e+01
0	 2.962963e+00	 7.185185e+00	 9.999866e+00
0	 2.962963e+00	 7.259259e+00	 9.999164e+00
0	 2.962963e+00	 7.333333e+00	 9.998570e+00
0	 2.962963e+00	 7.407407e+00	 9.998089e+00
0	 3.037037e+00	 7.037037e+00	 1.000834e+01
0	 3.037037e+00	 7.111111e+00	 1.000714e+01
0	 3.037037e+00	 7.185185e+00	 1.000604e+01
0	 3.037037e+00	 7.259259e+00	 1.000505e+01
0	 3.037037e+00	 7.333333e+00	 1.000418e+01
0	 3.037037e+00	 7.407407e+00	 1.000342e+01
0	 3.111111e+00	 7.037037e+00	 1.001492e+01
0	 3.111111e+00	 7.111111e+00	 1.001343e+01
0	 3.111111e+00	 7.185185e+00	 1.001205e+01
0	 3.111111e+00	 7.259259e+00	 1.001078e+01
0	 3.111111e+00	 7.333333e+00	 1.000964e+01
0	 3.111111e+00	 7.407407e+00	 1.000862e+01
0	 3.185185e+00	 7.037037e+00	 1.002130e+01
0	 3.185185e+00	 7.111111e+00	 1.001953e+01
0	 3.185185e+00	 7.185185e+00	 1.001788e+01
0	 3.185185e+00	 7.259259e+00	 1.001635e+01
0	 3.185185e+00	 7.333333e+00	 1.001494e+01
0	 3.185185e+00	 7.407407e+00	 1.001367e+01
0	 3.259259e+00	 7.037037e+00	 1.002746e+01
0	 3.259259e+00	 7.111111e+00	 1.002543e+01
0	 3.259259e+00	 7.185185e+00	 1.002352e+01
0	 3.259259e+00	 7.259259e+00	 1.002174e+01
0	 3.259259e+00	 7.333333e+00	 1.002008e+01
0	 3.259259e+00	 7.407407e+00	 1.001856e+01
0	 3.333333e+00	 7.037037e+00	 1.003339e+01
0	 3.333333e+00	 7.111111e+00	 1.003111e+01
0	 3.333333e+00	 7.185185e+00	 1.002896e+01
0	 3.333333e+00	 7.259259e+00	 1.002693e+01
0	 3.333333e+00	 7.333333e+00	 1.002504e+01
0	 3.333333e+00	 7.407407e+00	 1.002328e+01
0	 2.962963e+00	 7.407407e+00	 9.998089e+00
0	 2.962963e+00	 7.481481e+00	 9.997696e+00
0	 2.962963e+00	 7.555556e+00	 9.997364e+00
0	 2.962963e+00	 7.629630e+00	 9.997099e+00
0	 2.962963e+00	 7.703704e+00	 9.996904e+00
0	 2.962963e+00	 7.777778e+00	 9.996783e+00
0	 3.037037e+00	 7.407407e+00	 1.000342e+01
0	 3.037037e+00	 7.481481e+00	 1.000276e+01
0	 3.037037e+00	 7.555556e+00	 1.000216e+01
0	 3.037037e+00	 7.629630e+00	 1.000164e+01
0	 3.037037e+00	 7.703704e+00	 1.000120e+01
0	 3.037037e+00	 7.777778e+00	 1.000083e+01
0	 3.111111e+00	 7.407407e+00	 1.000862e+01
0	 3.111111e+00	 7.481481e+00	 1.000769e+01
0	 3.111111e+00	 7.555556e+00	 1.000685e+01
0	 3.111111e+00	 7.629630e+00	 1.000608e+01
0	 3.111111e+00	 7.703704e+00	 1.000539e+01
0	 3.111111e+00	 7.777778e+00	 1.000479e+01
0	 3.185185e+00	 7.407407e+00	 1.001367e+01
0	 3.185185e+00	 7.481481e+00	 1.001249e+01
0	 3.185185e+00	 7.555556e+00	 1.001140e+01
0	 3.185185e+00	 7.629630e+00	 1.001039e+01
0	 3.185185e+00	 7.703704e+00	 1.000947e+01
0	 3.185185e+00	 7.777778e+00	 1.000864e+01
0	 3.259259e+00	 7.407407e+00	 1.001856e+01
0	 3.259259e+00	 7.481481e+00	 1.001714e+01
0	 3.259259e+00	 7.555556e+00	 1.001582e+01
0	 3.259259e+00	 7.629630e+00	 1.001458e+01
0	 3.259259e+00	 7.703704e+00	 1.001343e+01
0	 3.259259e+00	 7.777778e+00	 1.001238e+01
0	 3.333333e+00	 7.407407e+00	 1.002328e+01
0	 3.333333e+00	 7.481481e+00	 1.002164e+01
0	 3.333333e+00	 7.555556e+00	 1.002008e+01
0	 3.333333e+00	 7.629630e+00	 1.001862e+01
0	 3.333333e+00	 7.703704e+00	 1.001726e+01
0	 3.333333e+00	 7.777778e+00	 1.001600e+01
0	 2.962963e+00	 7.777778e+00	 9.996783e+00
0	 2.962963e+00	 7.851852e+00	 9.996718e+00
0	 2.962963e+00	 7.925926e+00	 9.996686e+00
0	 2.962963e+00	 8.000000e+00	 9.996692e+00
0	 2.962963e+00	 8.074074e+00	 9.996739e+00
0	 2.962963e+00	 8.148148e+00	 9.996831e+00
0	 3.037037e+00	 7.777778e+00	 1.000083e+01
0	 3.037037e+00	 7.851852e+00	 1.000053e+01
0	 3.037037e+00	 7.925926e+00	 1.000027e+01
0	 3.037037e+00	 8.000000e+00	 1.000005e+01
0	 3.037037e+00	 8.074074e+00	 9.999880e+00
0	 3.037037e+00	 8.148148e+00	 9.999759e+00
0	 3.111111e+00	 7.777778e+00	 1.000479e+01
0	 3.111111e+00	 7.851852e+00	 1.000426e+01
0	 3.111111e+00	 7.925926e+00	 1.000377e+01
0	 3.111111e+00	 8.000000e+00	 1.000334e+01
0	 3.111111e+00	 8.074074e+00	 1.000295e+01
0	 3.111111e+00	 8.148148e+00	 1.000262e+01
0	 3.185185e+00	 7.777778e+00	 1.000864e+01
0	 3.185185e+00	 7.851852e+00	 1.000789e+01
0	 3.185185e+00	 7.925926e+00	 1.000718e+01
0	 3.185185e+00	 8.000000e+00	 1.000654e+01
0	 3.185185e+00	 8.074074e+00	 1.000595e+01
0	 3.185185e+00	 8.148148e+00	 1.000542e+01
0	 3.259259e+00	 7.777778e+00	 1.001238e+01
0	 3.259259e+00	 7.851852e+00	 1.001141e+01
0	 3.259259e+00	 7.925926e+00	 1.001050e+01
0	 3.259259e+00	 8.000000e+00	 1.000965e+01
0	 3.259259e+00	 8.074074e+00	 1.000886e+01
0	 3.259259e+00	 8.148148e+00	 1.000813e+01
0	 3.333333e+00	 7.777778e+00	 1.001600e+01
0	 3.333333e+00	 7.851852e+00	 1.001482e+01
0	 3.333333e+00	 7.925926e+00	 1.001370e+01
0	 3.333333e+00	 8.000000e+00	 1.001265e+01
0	 3.333333e+00	 8.074074e+00	 1.001167e+01
0	 3.333333e+00	 8.148148e+00	 1.001076e+01
0	 2.962963e+00	 8.148148e+00	 9.996831e+00
0	 2.962963e+00	 8.222222e+00	 9.996951e+00
0	 2.962963e+00	 8.296296e+00	 9.997084e+00
0	 2.962963e+00	 8.370370e+00	 9.997233e+00
0	 2.962963e+00	 8.444444e+00	 9.997399e+00
0	 2.962963e+00	 8.518519e+00	 9.997586e+00
0	 3.037037e+00	 8.148148e+00	 9.999759e+00
0	 3.037037e+00	 8.222222e+00	 9.999674e+00
0	 3.037037e+00	 8.296296e+00	 9.999607e+00
0	 3.037037e+00	 8.370370e+00	 9.999563e+00
0	 3.037037e+00	 8.444444e+00	 9.999543e+00
0	 3.037037e+00	 8.518519e+00	 9.999550e+00
0	 3.111111e+00	 8.148148e+00	 1.000262e+01
0	 3.111111e+00	 8.222222e+00	 1.000234e+01
0	 3.111111e+00	 8.296296e+00	 1.000208e+01
0	 3.111111e+00	 8.370370e+00	 1.000185e+01
0	 3.111111e+00	 8.444444e+00	 1.000164e+01
0	 3.111111e+00	 8.518519e+00	 1.000147e+01
0	 3.185185e+00	 8.148148e+00	 1.000542e+01
0	 3.185185e+00	 8.222222e+00	 1.000494e+01
0	 3.185185e+00	 8.296296e+00	 1.000449e+01
0	 3.185185e+00	 8.370370e+00	 1.000407e+01
0	 3.185185e+00	 8.444444e+00	 1.000369e+01
0	 3.185185e+00	 8.518519e+00	 1.000335e+01
0	 3.259259e+00	 8.148148e+00	 1.000813e+01
0	 3.259259e+00	 8.222222e+00	 1.000746e+01
0	 3.259259e+00	 8.296296e+00	 1.000683e+01
0	 3.259259e+00	 8.370370e+00	 1.000624e+01
0	 3.259259e+00	 8.444444e+00	 1.000569e+01
0	 3.259259e+00	 8.518519e+00	 1.000518e+01
0	 3.333333e+00	 8.148148e+00	 1.001076e+01
0	 3.333333e+00	 8.222222e+00	 1.000991e+01
0	 3.333333e+00	 8.296296e+00	 1.000910e+01
0	 3.333333e+00	 8.370370e+00	 1.000833e+01
0	 3.333333e+00	 8.444444e+00	 1.000762e+01
0	 3.333333e+00	 8.518519e+00	 1.000695e+01
0	 2.962963e+00	 8.518519e+00	 9.997586e+00
0	 2.962963e+00	 8.592593e+00	 9.997782e+00
0	 2.962963e+00	 8.666667e+00	 9.997975e+00
0	 2.962963e+00	 8.740741e+00	 9.998167e+00
0	 2.962963e+00	 8.814815e+00	 9.998360e+00
0	 2.962963e+00	 8.888889e+00	 9.998555e+00
0	 3.037037e+00	 8.518519e+00	 9.999550e+00
0	 3.037037e+00	 8.592593e+00	 9.999572e+00
0	 3.037037e+00	 8.666667e+00	 9.999599e+00
0	 3.037037e+00	 8.740741e+00	 9.999631e+00
0	 3.037037e+00	 8.814815e+00	 9.999671e+00
0	 3.037037e+00	 8.888889e+00	 9.999720e+00
0	 3.111111e+00	 8.518519e+00	 1.000147e+01
0	 3.111111e+00	 8.592593e+00	 1.000133e+01
0	 3.111111e+00	 8.666667e+00	 1.000119e+01
0	 3.111111e+00	 8.740741e+00	 1.000107e+01
0	 3.111111e+00	 8.814815e+00	 1.000096e+01
0	 3.111111e+00	 8.888889e+00	 1.000086e+01
0	 3.185185e+00	 8.518519e+00	 1.000335e+01
0	 3.185185e+00	 8.592593e+00	 1.000304e+01
0	 3.185185e+00	 8.666667e+00	 1.000275e+01
0	 3.185185e+00	 8.740741e+00	 1.000247e+01
0	 3.185185e+00	 8.814815e+00	 1.000222e+01
0	 3.185185e+00	 8.888889e+00	 1.000198e+01
0	 3.259259e+00	 8.518519e+00	 1.000518e+01
0	 3.259259e+00	 8.592593e+00	 1.000471e+01
0	 3.259259e+00	 8.666667e+00	 1.000426e+01
0	 3.259259e+00	 8.740741e+00	 1.000384e+01
0	 3.259259e+00	 8.814815e+00	 1.000344e+01
0	 3.259259e+00	 8.888889e+00	 1.000307e+01
0	 3.333333e+00	 8.518519e+00	 1.000695e+01
0	 3.333333e+00	 8.592593e+00	 1.000632e+01
0	 3.333333e+00	 8.666667e+00	 1.000572e+01
0	 3.333333e+00	 8.740741e+00	 1.000516e+01
0	 3.333333e+00	 8.814815e+00	 1.000462e+01
0	 3.333333e+00	 8.888889e+00	 1.000412e+01
0	 2.962963e+00	 8.888889e+00	 9.998555e+00
0	 2.962963e+00	 8.962963e+00	 9.998745e+00
0	 2.962963e+00	 9.037037e+00	 9.998922e+00
0	 2.962963e+00	 9.111111e+00	 9.999087e+00
0	 2.962963e+00	 9.185185e+00	 9.999241e+00
0	 2.962963e+00	 9.259259e+00	 9.999384e+00
0	 3.037037e+00	 8.888889e+00	 9.999720e+00
0	 3.037037e+00	 8.962963e+00	 9.999771e+00
0	 3.037037e+00	 9.037037e+00	 9.999817e+00
0	 3.037037e+00	 9.111111e+00	 9.999859e+00
0	 3.037037e+00	 9.185185e+00	 9.999897e+00
0	 3.037037e+00	 9.259259e+00	 9.999932e+00
0	 3.111111e+00	 8.888889e+00	 1.000086e+01
0	 3.111111e+00	 8.962963e+00	 1.000078e+01
0	 3.111111e+00	 9.037037e+00	 1.000070e+01
0	 3.111111e+00	 9.111111e+00	 1.000062e+01
0	 3.111111e+00	 9.185185e+00	 1.000055e+01
0	 3.111111e+00	 9.259259e+00	 1.000047e+01
0	 3.185185e+00	 8.888889e+00	 1.000198e+01
0	 3.185185e+00	 8.962963e+00	 1.000177e+01
0	 3.185185e+00	 9.037037e+00	 1.000156e+01
0	 3.185185e+00	 9.111111e+00	 1.000137e+01
0	 3.185185e+00	 9.185185e+00	 1.000118e+01
0	 3.185185e+00	 9.259259e+00	 1.000101e+01
0	 3.259259e+00	 8.888889e+00	 1.000307e+01
0	 3.259259e+00	 8.962963e+00	 1.000272e+01
0	 3.259259e+00	 9.037037e+00	 1.000240e+01
0	 3.259259e+00	 9.111111e+00	 1.000209e+01
0	 3.259259e+00	 9.185185e+00	 1.000180e+01
0	 3.259259e+00	 9.259259e+00	 1.000152e+01
0	 3.333333e+00	 8.888889e+00	 1.000412e+01
0	 3.333333e+00	 8.962963e+00	 1.000365e+01
0	 3.333333e+00	 9.037037e+00	 1.000320e+01
0	 3.333333e+00	 9.111111e+00	 1.000278e+01
0	 3.333333e+00	 9.185185e+00	 1.000239e+01
0	 3.333333e+00	 9.259259e+00	 1.000202e+01
0	 2.962963e+00	 9.259259e+00	 9.999384e+00
0	 2.962963e+00	 9.333333e+00	 9.999514e+00
0	 2.962963e+00	 9.407407e+00	 9.999629e+00
0	 2.962963e+00	 9.481481e+00	 9.999727e+00
0	 2.962963e+00	 9.555556e+00	 9.999808e+00
0	 2.962963e+00	 9.629630e+00	 9.999871e+00
0	 3.037037e+00	 9.259259e+00	 9.999932e+00
0	 3.037037e+00	 9.333333e+00	 9.999962e+00
0	 3.037037e+00	 9.407407e+00	 9.999987e+00
0	 3.037037e+00	 9.481481e+00	 1.000000e+01
0	 3.037037e+00	 9.555556e+00	 1.000001e+01
0	 3.037037e+00	 9.629630e+00	 1.000001e+01
0	 3.111111e+00	 9.259259e+00	 1.000047e+01
0	 3.111111e+00	 9.333333e+00	 1.000041e+01
0	 3.111111e+00	 9.407407e+00	 1.000034e+01
0	 3.111111e+00	 9.481481e+00	 1.000028e+01
0	 3.111111e+00	 9.555556e+00	 1.000022e+01
0	 3.111111e+00	 9.629630e+00	 1.000016e+01
0	 3.185185e+00	 9.259259e+00	 1.000101e+01
0	 3.185185e+00	 9.333333e+00	 1.000084e+01
0	 3.185185e+00	 9.407407e+00	 1.000070e+01
0	 3.185185e+00	 9.481481e+00	 1.000056e+01
0	 3.185185e+00	 9.555556e+00	 1.000043e+01
0	 3.185185e+00	 9.629630e+00	 1.000031e+01
0	 3.259259e+00	 9.259259e+00	 1.000152e+01
0	 3.259259e+00	 9.333333e+00	 1.000127e+01
0	 3.259259e+00	 9.407407e+00	 1.000103e+01
0	 3.259259e+00	 9.481481e+00	 1.000082e+01
0	 3.259259e+00	 9.555556e+00	 1.000063e+01
0	 3.259259e+00	 9.629630e+00	 1.000045e+01
0	 3.333333e+00	 9.259259e+00	 1.000202e+01
0	 3.333333e+00	 9.333333e+00	 1.000167e+01
0	 3.333333e+00	 9.407407e+00	 1.000136e+01
0	 3.333333e+00	 9.481481e+00	 1.000107e+01
0	 3.333333e+00	 9.555556e+00	 1.000081e+01
0	 3.333333e+00	 9.629630e+00	 1.000058e+01
0	 2.962963e+00	 9.629630e+00	 9.999871e+00
0	 2.962963e+00	 9.703704e+00	 9.999921e+00
0	 2.962963e+00	 9.777778e+00	 9.999961e+00
0	 2.962963e+00	 9.851852e+00	 9.999987e+00
0	 2.962963e+00	 9.925926e+00	 9.999999e+00
0	 2.962963e+00	 1.000000e+01	 9.999993e+00
0	 3.037037e+00	 9.629630e+00	 1.000001e+01
0	 3.037037e+00	 9.703704e+00	 1.000001e+01
0	 3.037037e+00	 9.777778e+00	 1.000001e+01
0	 3.037037e+00	 9.851852e+00	 1.000001e+01
0	 3.037037e+00	 9.925926e+00	 9.999999e+00
0	 3.037037e+00	 1.000000e+01	 9.999984e+00
0	 3.111111e+00	 9.629630e+00	 1.000016e+01
0	 3.111111e+00	 9.703704e+00	 1.000011e+01
0	 3.111111e+00	 9.777778e+00	 1.000007e+01
0	 3.111111e+00	 9.851852e+00	 1.000003e+01
0	 3.111111e+00	 9.925926e+00	 1.000001e+01
0	 3.111111e+00	 1.000000e+01	 9.999985e+00
0	 3.185185e+00	 9.629630e+00	 1.000031e+01
0	 3.185185e+00	 9.703704e+00	 1.000020e+01
0	 3.185185e+00	 9.777778e+00	 1.000012e+01
0	 3.185185e+00	 9.851852e+00	 1.000006e+01
0	 3.185185e+00	 9.925926e+00	 1.000002e+01
0	 3.185185e+00	 1.000000e+01	 9.999990e+00
0	 3.259259e+00	 9.629630e+00	 1.000045e+01
0	 3.259259e+00	 9.703704e+00	 1.000029e+01
0	 3.259259e+00	 9.777778e+00	 1.000018e+01
0	 3.259259e+00	 9.851852e+00	 1.000009e+01
0	 3.259259e+00	 9.925926e+00	 1.000003e+01
0	 3.259259e+00	 1.000000e+01	 9.999992e+00
0	 3.333333e+00	 9.629630e+00	 1.000058e+01
0	 3.333333e+00	 9.703704e+00	 1.000037e+01
0	 3.333333e+00	 9.777778e+00	 1.000022e+01
0	 3.333333e+00	 9.851852e+00	 1.000011e+01
0	 3.333333e+00	 9.925926e+00	 1.000003e+01
0	 3.333333e+00	 1.000000e+01	 9.999985e+00
0	 3.333333e+00	 0.000000e+00	 1.076655e+01
0	 3.333333e+00	 7.407407e-02	 1.075990e+01
0	 3.333333e+00	 1.481481e-01	 1.075793e+01
0	 3.333333e+00	 2.222222e-01	 1.076046e+01
0	 3.333333e+00	 2.962963e-01	 1.076729e+01
0	 3.333333e+00	 3.703704e-01	 1.077824e+01
0	 3.407407e+00	 0.000000e+00	 1.075447e+01
0	 3.407407e+00	 7.407407e-02	 1.074530e+01
0	 3.407407e+00	 1.481481e-01	 1.074029e+01
0	 3.407407e+00	 2.222222e-01	 1.073943e+01
0	 3.407407e+00	 2.962963e-01	 1.074268e+01
0	 3.407407e+00	 3.703704e-01	 1.075002e+01
0	 3.481481e+00	 0.000000e+00	 1.072568e+01
0	 3.481481e+00	 7.407407e-02	 1.071828e+01
0	 3.481481e+00	 1.481481e-01	 1.071420e+01
0	 3.481481e+00	 2.222222e-01	 1.071352e+01
0	 3.481481e+00	 2.962963e-01	 1.071635e+01
0	 3.481481e+00	 3.703704e-01	 1.072277e+01
0	 3.555556e+00	 0.000000e+00	 1.068639e+01
0	 3.555556e+00	 7.407407e-02	 1.068328e+01
0	 3.555556e+00	 1.481481e-01	 1.068249e+01
0	 3.555556e+00	 2.222222e-01	 1.068421e+01
0	 3.555556e+00	 2.962963e-01	 1.068861e+01
0	 3.555556e+00	 3.703704e-01	 1.069587e+01
0	 3.629630e+00	 0.000000e+00	 1.064283e+01
0	 3.629630e+00	 7.407407e-02	 1.064473e+01
0	 3.629630e+00	 1.481481e-01	 1.064804e+01
0	 3.629630e+00	 2.222222e-01	 1.065299e+01
0	 3.629630e+00	 2.962963e-01	 1.065979e+01
0	 3.629630e+00	 3.703704e-01	 1.066867e+01
0	 3.703704e+00	 0.000000e+00	 1.060121e+01
0	 3.703704e+00	 7.407407e-02	 1.060705e+01
0	 3.703704e+00	 1.481481e-01	 1.061369e+01
0	 3.703704e+00	 2.222222e-01	 1.062133e+01
0	 3.703704e+00	 2.962963e-01	 1.063021e+01
0	 3.703704e+00	 3.703704e-01	 1.064054e+01
0	 3.333333e+00	 3.703704e-01	 1.077824e+01
0	 3.333333e+00	 4.444444e-01	 1.079151e+01
0	 3.333333e+00	 5.185185e-01	 1.080587e+01
0	 3.333333e+00	 5.925926e-01	 1.082202e+01
0	 3.333333e+00	 6.666667e-01	 1.084063e+01
0	 3.333333e+00	 7.407407e-01	 1.086238e+01
0	 3.407407e+00	 3.703704e-01	 1.075002e+01
0	 3.407407e+00	 4.444444e-01	 1.076013e+01
0	 3.407407e+00	 5.185185e-01	 1.077205e+01
0	 3.407407e+00	 5.925926e-01	 1.078625e+01
0	 3.407407e+00	 6.666667e-01	 1.080323e+01
0	 3.407407e+00	 7.407407e-01	 1.082348e+01
0	 3.481481e+00	 3.703704e-01	 1.072277e+01
0	 3.481481e+00	 4.444444e-01	 1.073185e+01
0	 3.481481e+00	 5.185185e-01	 1.074279e+01
0	 3.481481e+00	 5.925926e-01	 1.075592e+01
0	 3.481481e+00	 6.666667e-01	 1.077161e+01
0	 3.481481e+00	 7.407407e-01	 1.079018e+01
0	 3.555556e+00	 3.703704e-01	 1.069587e+01
0	 3.555556e+00	 4.444444e-01	 1.070529e+01
0	 3.555556e+00	 5.185185e-01	 1.071621e+01
0	 3.555556e+00	 5.925926e-01	 1.072889e+01
0	 3.555556e+00	 6.666667e-01	 1.074355e+01
0	 3.555556e+00	 7.407407e-01	 1.076046e+01
0	 3.629630e+00	 3.703704e-01	 1.066867e+01
0	 3.629630e+00	 4.444444e-01	 1.067908e+01
0	 3.629630e+00	 5.185185e-01	 1.069045e+01
0	 3.629630e+00	 5.925926e-01	 1.070298e+01
0	 3.629630e+00	 6.666667e-01	 1.071686e+01
0	 3.629630e+00	 7.407407e-01	 1.073229e+01
0	 3.703704e+00	 3.703704e-01	 1.064054e+01
0	 3.703704e+00	 4.444444e-01	 1.065184e+01
0	 3.703704e+00	 5.185185e-01	 1.066361e+01
0	 3.703704e+00	 5.925926e-01	 1.067604e+01
0	 3.703704e+00	 6.666667e-01	 1.068932e+01
0	 3.703704e+00	 7.407407e-01	 1.070365e+01
0	 3.333333e+00	 7.407407e-01	 1.086238e+01
0	 3.333333e+00	 8.148148e-01	 1.088494e+01
0	 3.333333e+00	 8.888889e-01	 1.090577e+01
0	 3.333333e+00	 9.629630e-01	 1.092530e+01
0	 3.333333e+00	 1.037037e+00	 1.094396e+01
0	 3.333333e+00	 1.111111e+00	 1.096216e+01
0	 3.407407e+00	 7.407407e-01	 1.082348e+01
0	 3.407407e+00	 8.148148e-01	 1.084460e+01
0	 3.407407e+00	 8.888889e-01	 1.086417e+01
0	 3.407407e+00	 9.629630e-01	 1.088266e+01
0	 3.407407e+00	 1.037037e+00	 1.090055e+01
0	 3.407407e+00	 1.111111e+00	 1.091832e+01
0	 3.481481e+00	 7.407407e-01	 1.079018e+01
0	 3.481481e+00	 8.148148e-01	 1.080948e+01
0	 3.481481e+00	 8.888889e-01	 1.082744e+01
0	 3.481481e+00	 9.629630e-01	 1.084455e+01
0	 3.481481e+00	 1.037037e+00	 1.086131e+01
0	 3.481481e+00	 1.111111e+00	 1.087821e+01
0	 3.555556e+00	 7.407407e-01	 1.076046e+01
0	 3.555556e+00	 8.148148e-01	 1.077785e+01
0	 3.555556e+00	 8.888889e-01	 1.079414e+01
0	 3.555556e+00	 9.629630e-01	 1.080979e+01
0	 3.555556e+00	 1.037037e+00	 1.082531e+01
0	 3.555556e+00	 1.111111e+00	 1.084116e+01
0	 3.629630e+00	 7.407407e-01	 1.073229e+01
0	 3.629630e+00	 8.148148e-01	 1.074798e+01
0	 3.629630e+00	 8.888889e-01	 1.076281e+01
0	 3.629630e+00	 9.629630e-01	 1.077721e+01
0	 3.629630e+00	 1.037037e+00	 1.079162e+01
0	 3.629630e+00	 1.111111e+00	 1.080648e+01
0	 3.703704e+00	 7.407407e-01	 1.070365e+01
0	 3.703704e+00	 8.148148e-01	 1.071814e+01
0	 3.703704e+00	 8.888889e-01	 1.073200e+01
0	 3.703704e+00	 9.629630e-01	 1.074561e+01
0	 3.703704e+00	 1.037037e+00	 1.075932e+01
0	 3.703704e+00	 1.111111e+00	 1.077349e+01
0	 3.333333e+00	 1.111111e+00	 1.096216e+01
0	 3.333333e+00	 1.185185e+00	 1.097865e+01
0	 3.333333e+00	 1.259259e+00	 1.099213e+01
0	 3.333333e+00	 1.333333e+00	 1.100291e+01
0	 3.333333e+00	 1.407407e+00	 1.101131e+01
0	 3.333333e+00	 1.481481e+00	 1.101765e+01
0	 3.407407e+00	 1.111111e+00	 1.091832e+01
0	 3.407407e+00	 1.185185e+00	 1.093472e+01
0	 3.407407e+00	 1.259259e+00	 1.094841e+01
0	 3.407407e+00	 1.333333e+00	 1.095963e+01
0	 3.407407e+00	 1.407407e+00	 1.096868e+01
0	 3.407407e+00	 1.481481e+00	 1.097583e+01
0	 3.481481e+00	 1.111111e+00	 1.087821e+01
0	 3.481481e+00	 1.185185e+00	 1.089408e+01
0	 3.481481e+00	 1.259259e+00	 1.090757e+01
0	 3.481481e+00	 1.333333e+00	 1.091892e+01
0	 3.481481e+00	 1.407407e+00	 1.092837e+01
0	 3.481481e+00	 1.481481e+00	 1.093617e+01
0	 3.555556e+00	 1.111111e+00	 1.084116e+01
0	 3.555556e+00	 1.185185e+00	 1.085625e+01
0	 3.555556e+00	 1.259259e+00	 1.086931e+01
0	 3.555556e+00	 1.333333e+00	 1.088057e+01
0	 3.555556e+00	 1.407407e+00	 1.089024e+01
0	 3.555556e+00	 1.481481e+00	 1.089855e+01
0	 3.629630e+00	 1.111111e+00	 1.080648e+01
0	 3.629630e+00	 1.185185e+00	 1.082077e+01
0	 3.629630e+00	 1.259259e+00	 1.083335e+01
0	 3.629630e+00	 1.333333e+00	 1.084441e+01
0	 3.629630e+00	 1.407407e+00	 1.085417e+01
0	 3.629630e+00	 1.481481e+00	 1.086285e+01
0	 3.703704e+00	 1.111111e+00	 1.077349e+01
0	 3.703704e+00	 1.185185e+00	 1.078719e+01
0	 3.703704e+00	 1.259259e+00	 1.079937e+01
0	 3.703704e+00	 1.333333e+00	 1.081024e+01
0	 3.703704e+00	 1.407407e+00	 1.082003e+01
0	 3.703704e+00	 1.481481e+00	 1.082895e+01
0	 3.333333e+00	 1.481481e+00	 1.101765e+01
0	 3.333333e+00	 1.555556e+00	 1.102165e+01
0	 3.333333e+00	 1.629630e+00	 1.102293e+01
0	 3.333333e+00	 1.703704e+00	 1.102162e+01
0	 3.333333e+00	 1.777778e+00	 1.101786e+01
0	 3.333333e+00	 1.851852e+00	 1.101181e+01
0	 3.407407e+00	 1.481481e+00	 1.097583e+01
0	 3.407407e+00	 1.555556e+00	 1.098087e+01
0	 3.407407e+00	 1.629630e+00	 1.098347e+01
0	 3.407407e+00	 1.703704e+00	 1.098373e+01
0	 3.407407e+00	 1.777778e+00	 1.098176e+01
0	 3.407407e+00	 1.851852e+00	 1.097766e+01
0	 3.481481e+00	 1.481481e+00	 1.093617e+01
0	 3.481481e+00	 1.555556e+00	 1.094209e+01
0	 3.481481e+00	 1.629630e+00	 1.094578e+01
0	 3.481481e+00	 1.703704e+00	 1.094733e+01
0	 3.481481e+00	 1.777778e+00	 1.094680e+01
0	 3.481481e+00	 1.851852e+00	 1.094427e+01
0	 3.555556e+00	 1.481481e+00	 1.089855e+01
0	 3.555556e+00	 1.555556e+00	 1.090519e+01
0	 3.555556e+00	 1.629630e+00	 1.090976e+01
0	 3.555556e+00	 1.703704e+00	 1.091233e+01
0	 3.555556e+00	 1.777778e+00	 1.091295e+01
0	 3.555556e+00	 1.851852e+00	 1.091168e+01
0	 3.629630e+00	 1.481481e+00	 1.086285e+01
0	 3.629630e+00	 1.555556e+00	 1.087005e+01
0	 3.629630e+00	 1.629630e+00	 1.087530e+01
0	 3.629630e+00	 1.703704e+00	 1.087865e+01
0	 3.629630e+00	 1.777778e+00	 1.088018e+01
0	 3.629630e+00	 1.851852e+00	 1.087993e+01
0	 3.703704e+00	 1.481481e+00	 1.082895e+01
0	 3.703704e+00	 1.555556e+00	 1.083655e+01
0	 3.703704e+00	 1.629630e+00	 1.084228e+01
0	 3.703704e+00	 1.703704e+00	 1.084623e+01
0	 3.703704e+00	 1.777778e+00	 1.084847e+01
0	 3.703704e+00	 1.851852e+00	 1.084908e+01
0	 3.333333e+00	 1.851852e+00	 1.101181e+01
0	 3.333333e+00	 1.925926e+00	 1.100371e+01
0	 3.333333e+00	 2.000000e+00	 1.099367e+01
0	 3.333333e+00	 2.074074e+00	 1.098155e+01
0	 3.333333e+00	 2.148148e+00	 1.096723e+01
0	 3.333333e+00	 2.222222e+00	 1.095058e+01
0	 3.407407e+00	 1.851852e+00	 1.097766e+01
0	 3.407407e+00	 1.925926e+00	 1.097152e+01
0	 3.407407e+00	 2.000000e+00	 1.096335e+01
0	 3.407407e+00	 2.074074e+00	 1.095308e+01
0	 3.407407e+00	 2.148148e+00	 1.094065e+01
0	 3.407407e+00	 2.222222e+00	 1.092602e+01
0	 3.481481e+00	 1.851852e+00	 1.094427e+01
0	 3.481481e+00	 1.925926e+00	 1.093975e+01
0	 3.481481e+00	 2.000000e+00	 1.093320e+01
0	 3.481481e+00	 2.074074e+00	 1.092462e+01
0	 3.481481e+00	 2.148148e+00	 1.091401e+01
0	 3.481481e+00	 2.222222e+00	 1.090134e+01
0	 3.555556e+00	 1.851852e+00	 1.091168e+01
0	 3.555556e+00	 1.925926e+00	 1.090851e+01
0	 3.555556e+00	 2.000000e+00	 1.090340e+01
0	 3.555556e+00	 2.074074e+00	 1.089637e+01
0	 3.555556e+00	 2.148148e+00	 1.088745e+01
0	 3.555556e+00	 2.222222e+00	 1.087667e+01
0	 3.629630e+00	 1.851852e+00	 1.087993e+01
0	 3.629630e+00	 1.925926e+00	 1.087791e+01
0	 3.629630e+00	 2.000000e+00	 1.087408e+01
0	 3.629630e+00	 2.074074e+00	 1.086849e+01
0	 3.629630e+00	 2.148148e+00	 1.086116e+01
0	 3.629630e+00	 2.222222e+00	 1.085214e+01
0	 3.703704e+00	 1.851852e+00	 1.084908e+01
0	 3.703704e+00	 1.925926e+00	 1.084807e+01
0	 3.703704e+00	 2.000000e+00	 1.084542e+01
0	 3.703704e+00	 2.074074e+00	 1.084114e+01
0	 3.703704e+00	 2.148148e+00	 1.083528e+01
0	 3.703704e+00	 2.222222e+00	 1.082786e+01
0	 3.333333e+00	 2.222222e+00	 1.095058e+01
0	 3.333333e+00	 2.296296e+00	 1.093228e+01
0	 3.333333e+00	 2.370370e+00	 1.091305e+01
0	 3.333333e+00	 2.444444e+00	 1.089278e+01
0	 3.333333e+00	 2.518519e+00	 1.087140e+01
0	 3.333333e+00	 2.592593e+00	 1.084882e+01
0	 3.407407e+00	 2.222222e+00	 1.092602e+01
0	 3.407407e+00	 2.296296e+00	 1.090985e+01
0	 3.407407e+00	 2.370370e+00	 1.089278e+01
0	 3.407407e+00	 2.444444e+00	 1.087471e+01
0	 3.407407e+00	 2.518519e+00	 1.085552e+01
0	 3.407407e+00	 2.592593e+00	 1.083510e+01
0	 3.481481e+00	 2.222222e+00	 1.090134e+01
0	 3.481481e+00	 2.296296e+00	 1.088723e+01
0	 3.481481e+00	 2.370370e+00	 1.087220e+01
0	 3.481481e+00	 2.444444e+00	 1.085612e+01
0	 3.481481e+00	 2.518519e+00	 1.083888e+01
0	 3.481481e+00	 2.592593e+00	 1.082036e+01
0	 3.555556e+00	 2.222222e+00	 1.087667e+01
0	 3.555556e+00	 2.296296e+00	 1.086451e+01
0	 3.555556e+00	 2.370370e+00	 1.085136e+01
0	 3.555556e+00	 2.444444e+00	 1.083709e+01
0	 3.555556e+00	 2.518519e+00	 1.082160e+01
0	 3.555556e+00	 2.592593e+00	 1.080477e+01
0	 3.629630e+00	 2.222222e+00	 1.085214e+01
0	 3.629630e+00	 2.296296e+00	 1.084178e+01
0	 3.629630e+00	 2.370370e+00	 1.083034e+01
0	 3.629630e+00	 2.444444e+00	 1.081771e+01
0	 3.629630e+00	 2.518519e+00	 1.080380e+01
0	 3.629630e+00	 2.592593e+00	 1.078850e+01
0	 3.703704e+00	 2.222222e+00	 1.082786e+01
0	 3.703704e+00	 2.296296e+00	 1.081911e+01
0	 3.703704e+00	 2.370370e+00	 1.080921e+01
0	 3.703704e+00	 2.444444e+00	 1.079807e+01
0	 3.703704e+00	 2.518519e+00	 1.078561e+01
0	 3.703704e+00	 2.592593e+00	 1.077175e+01
0	 3.333333e+00	 2.592593e+00	 1.084882e+01
0	 3.333333e+00	 2.666667e+00	 1.082551e+01
0	 3.333333e+00	 2.740741e+00	 1.080190e+01
0	 3.333333e+00	 2.814815e+00	 1.077786e+01
0	 3.333333e+00	 2.888889e+00	 1.075324e+01
0	 3.333333e+00	 2.962963e+00	 1.072788e+01
0	 3.407407e+00	 2.592593e+00	 1.083510e+01
0	 3.407407e+00	 2.666667e+00	 1.081385e+01
0	 3.407407e+00	 2.740741e+00	 1.079216e+01
0	 3.407407e+00	 2.814815e+00	 1.076991e+01
0	 3.407407e+00	 2.888889e+00	 1.074699e+01
0	 3.407407e+00	 2.962963e+00	 1.072329e+01
0	 3.481481e+00	 2.592593e+00	 1.082036e+01
0	 3.481481e+00	 2.666667e+00	 1.080093e+01
0	 3.481481e+00	 2.740741e+00	 1.078099e+01
0	 3.481481e+00	 2.814815e+00	 1.076043e+01
0	 3.481481e+00	 2.888889e+00	 1.073918e+01
0	 3.481481e+00	 2.962963e+00	 1.071715e+01
0	 3.555556e+00	 2.592593e+00	 1.080477e+01
0	 3.555556e+00	 2.666667e+00	 1.078698e+01
0	 3.555556e+00	 2.740741e+00	 1.076865e+01
0	 3.555556e+00	 2.814815e+00	 1.074971e+01
0	 3.555556e+00	 2.888889e+00	 1.073008e+01
0	 3.555556e+00	 2.962963e+00	 1.070970e+01
0	 3.629630e+00	 2.592593e+00	 1.078850e+01
0	 3.629630e+00	 2.666667e+00	 1.077224e+01
0	 3.629630e+00	 2.740741e+00	 1.075543e+01
0	 3.629630e+00	 2.814815e+00	 1.073804e+01
0	 3.629630e+00	 2.888889e+00	 1.071998e+01
0	 3.629630e+00	 2.962963e+00	 1.070118e+01
0	 3.703704e+00	 2.592593e+00	 1.077175e+01
0	 3.703704e+00	 2.666667e+00	 1.075694e+01
0	 3.703704e+00	 2.740741e+00	 1.074161e+01
0	 3.703704e+00	 2.814815e+00	 1.072570e+01
0	 3.703704e+00	 2.888889e+00	 1.070914e+01
0	 3.703704e+00	 2.962963e+00	 1.069186e+01
0	 3.333333e+00	 2.962963e+00	 1.072788e+01
0	 3.333333e+00	 3.037037e+00	 1.070232e+01
0	 3.333333e+00	 3.111111e+00	 1.067713e+01
0	 3.333333e+00	 3.185185e+00	 1.065223e+01
0	 3.333333e+00	 3.259259e+00	 1.062753e+01
0	 3.333333e+00	 3.333333e+00	 1.060294e+01
0	 3.407407e+00	 2.962963e+00	 1.072329e+01
0	 3.407407e+00	 3.037037e+00	 1.069934e+01
0	 3.407407e+00	 3.111111e+00	 1.067569e+01
0	 3.407407e+00	 3.185185e+00	 1.065225e+01
0	 3.407407e+00	 3.259259e+00	 1.062893e+01
0	 3.407407e+00	 3.333333e+00	 1.060561e+01
0	 3.481481e+00	 2.962963e+00	 1.071715e+01
0	 3.481481e+00	 3.037037e+00	 1.069482e+01
0	 3.481481e+00	 3.111111e+00	 1.067271e+01
0	 3.481481e+00	 3.185185e+00	 1.065070e+01
0	 3.481481e+00	 3.259259e+00	 1.062869e+01
0	 3.481481e+00	 3.333333e+00	 1.060658e+01
0	 3.555556e+00	 2.962963e+00	 1.070970e+01
0	 3.555556e+00	 3.037037e+00	 1.068898e+01
0	 3.555556e+00	 3.111111e+00	 1.066836e+01
0	 3.555556e+00	 3.185185e+00	 1.064773e+01
0	 3.555556e+00	 3.259259e+00	 1.062698e+01
0	 3.555556e+00	 3.333333e+00	 1.060603e+01
0	 3.629630e+00	 2.962963e+00	 1.070118e+01
0	 3.629630e+00	 3.037037e+00	 1.068202e+01
0	 3.629630e+00	 3.111111e+00	 1.066283e+01
0	 3.629630e+00	 3.185185e+00	 1.064352e+01
0	 3.629630e+00	 3.259259e+00	 1.062399e+01
0	 3.629630e+00	 3.333333e+00	 1.060414e+01
0	 3.703704e+00	 2.962963e+00	 1.069186e+01
0	 3.703704e+00	 3.037037e+00	 1.067415e+01
0	 3.703704e+00	 3.111111e+00	 1.065631e+01
0	 3.703704e+00	 3.185185e+00	 1.063824e+01
0	 3.703704e+00	 3.259259e+00	 1.061987e+01
0	 3.703704e+00	 3.333333e+00	 1.060112e+01
0	 3.333333e+00	 3.333333e+00	 1.060294e+01
0	 3.333333e+00	 3.407407e+00	 1.057868e+01
0	 3.333333e+00	 3.481481e+00	 1.055498e+01
0	 3.333333e+00	 3.555556e+00	 1.053176e+01
0	 3.333333e+00	 3.629630e+00	 1.050894e+01
0	 3.333333e+00	 3.703704e+00	 1.048647e+01
0	 3.407407e+00	 3.333333e+00	 1.060561e+01
0	 3.407407e+00	 3.407407e+00	 1.058252e+01
0	 3.407407e+00	 3.481481e+00	 1.055986e+01
0	 3.407407e+00	 3.555556e+00	 1.053759e+01
0	 3.407407e+00	 3.629630e+00	 1.051563e+01
0	 3.407407e+00	 3.703704e+00	 1.049393e+01
0	 3.481481e+00	 3.333333e+00	 1.060658e+01
0	 3.481481e+00	 3.407407e+00	 1.058459e+01
0	 3.481481e+00	 3.481481e+00	 1.056296e+01
0	 3.481481e+00	 3.555556e+00	 1.054164e+01
0	 3.481481e+00	 3.629630e+00	 1.052057e+01
0	 3.481481e+00	 3.703704e+00	 1.049970e+01
0	 3.555556e+00	 3.333333e+00	 1.060603e+01
0	 3.555556e+00	 3.407407e+00	 1.058510e+01
0	 3.555556e+00	 3.481481e+00	 1.056448e+01
0	 3.555556e+00	 3.555556e+00	 1.054412e+01
0	 3.555556e+00	 3.629630e+00	 1.052396e+01
0	 3.555556e+00	 3.703704e+00	 1.050396e+01
0	 3.629630e+00	 3.333333e+00	 1.060414e+01
0	 3.629630e+00	 3.407407e+00	 1.058426e+01
0	 3.629630e+00	 3.481481e+00	 1.056464e+01
0	 3.629630e+00	 3.555556e+00	 1.054524e+01
0	 3.629630e+00	 3.629630e+00	 1.052601e+01
0	 3.629630e+00	 3.703704e+00	 1.050689e+01
0	 3.703704e+00	 3.333333e+00	 1.060112e+01
0	 3.703704e+00	 3.407407e+00	 1.058228e+01
0	 3.703704e+00	 3.481481e+00	 1.056367e+01
0	 3.703704e+00	 3.555556e+00	 1.054523e+01
0	 3.703704e+00	 3.629630e+00	 1.052691e+01
0	 3.703704e+00	 3.703704e+00	 1.050866e+01
0	 3.333333e+00	 3.703704e+00	 1.048647e+01
0	 3.333333e+00	 3.777778e+00	 1.046451e+01
0	 3.333333e+00	 3.851852e+00	 1.044327e+01
0	 3.333333e+00	 3.925926e+00	 1.042273e+01
0	 3.333333e+00	 4.000000e+00	 1.040284e+01
0	 3.333333e+00	 4.074074e+00	 1.038358e+01
0	 3.407407e+00	 3.703704e+00	 1.049393e+01
0	 3.407407e+00	 3.777778e+00	 1.047268e+01
0	 3.407407e+00	 3.851852e+00	 1.045211e+01
0	 3.407407e+00	 3.925926e+00	 1.043216e+01
0	 3.407407e+00	 4.000000e+00	 1.041279e+01
0	 3.407407e+00	 4.074074e+00	 1.039397e+01
0	 3.481481e+00	 3.703704e+00	 1.049970e+01
0	 3.481481e+00	 3.777778e+00	 1.047923e+01
0	 3.481481e+00	 3.851852e+00	 1.045935e+01
0	 3.481481e+00	 3.925926e+00	 1.044003e+01
0	 3.481481e+00	 4.000000e+00	 1.042121e+01
0	 3.481481e+00	 4.074074e+00	 1.040285e+01
0	 3.555556e+00	 3.703704e+00	 1.050396e+01
0	 3.555556e+00	 3.777778e+00	 1.048430e+01
0	 3.555556e+00	 3.851852e+00	 1.046515e+01
0	 3.555556e+00	 3.925926e+00	 1.044648e+01
0	 3.555556e+00	 4.000000e+00	 1.042822e+01
0	 3.555556e+00	 4.074074e+00	 1.041035e+01
0	 3.629630e+00	 3.703704e+00	 1.050689e+01
0	 3.629630e+00	 3.777778e+00	 1.048804e+01
0	 3.629630e+00	 3.851852e+00	 1.046963e+01
0	 3.629630e+00	 3.925926e+00	 1.045162e+01
0	 3.629630e+00	 4.000000e+00	 1.043395e+01
0	 3.629630e+00	 4.074074e+00	 1.041657e+01
0	 3.703704e+00	 3.703704e+00	 1.050866e+01
0	 3.703704e+00	 3.777778e+00	 1.049062e+01
0	 3.703704e+00	 3.851852e+00	 1.047294e+01
0	 3.703704e+00	 3.925926e+00	 1.045558e+01
0	 3.703704e+00	 4.000000e+00	 1.043850e+01
0	 3.703704e+00	 4.074074e+00	 1.042164e+01
0	 3.333333e+00	 4.074074e+00	 1.038358e+01
0	 3.333333e+00	 4.148148e+00	 1.036495e+01
0	 3.333333e+00	 4.222222e+00	 1.034701e+01
0	 3.333333e+00	 4.296296e+00	 1.032971e+01
0	 3.333333e+00	 4.370370e+00	 1.031305e+01
0	 3.333333e+00	 4.444444e+00	 1.029701e+01
0	 3.407407e+00	 4.074074e+00	 1.039397e+01
0	 3.407407e+00	 4.148148e+00	 1.037571e+01
0	 3.407407e+00	 4.222222e+00	 1.035808e+01
0	 3.407407e+00	 4.296296e+00	 1.034105e+01
0	 3.407407e+00	 4.370370e+00	 1.032460e+01
0	 3.407407e+00	 4.444444e+00	 1.030871e+01
0	 3.481481e+00	 4.074074e+00	 1.040285e+01
0	 3.481481e+00	 4.148148e+00	 1.038500e+01
0	 3.481481e+00	 4.222222e+00	 1.036771e+01
0	 3.481481e+00	 4.296296e+00	 1.035099e+01
0	 3.481481e+00	 4.370370e+00	 1.033479e+01
0	 3.481481e+00	 4.444444e+00	 1.031911e+01
0	 3.555556e+00	 4.074074e+00	 1.041035e+01
0	 3.555556e+00	 4.148148e+00	 1.039291e+01
0	 3.555556e+00	 4.222222e+00	 1.037601e+01
0	 3.555556e+00	 4.296296e+00	 1.035963e+01
0	 3.555556e+00	 4.370370e+00	 1.034373e+01
0	 3.555556e+00	 4.444444e+00	 1.032832e+01
0	 3.629630e+00	 4.074074e+00	 1.041657e+01
0	 3.629630e+00	 4.148148e+00	 1.039959e+01
0	 3.629630e+00	 4.222222e+00	 1.038310e+01
0	 3.629630e+00	 4.296296e+00	 1.036709e+01
0	 3.629630e+00	 4.370370e+00	 1.035153e+01
0	 3.629630e+00	 4.444444e+00	 1.033641e+01
0	 3.703704e+00	 4.074074e+00	 1.042164e+01
0	 3.703704e+00	 4.148148e+00	 1.040513e+01
0	 3.703704e+00	 4.222222e+00	 1.038908e+01
0	 3.703704e+00	 4.296296e+00	 1.037347e+01
0	 3.703704e+00	 4.370370e+00	 1.035828e+01
0	 3.703704e+00	 4.444444e+00	 1.034347e+01
0	 3.333333e+00	 4.444444e+00	 1.029701e+01
0	 3.333333e+00	 4.518519e+00	 1.028158e+01
0	 3.333333e+00	 4.592593e+00	 1.026678e+01
0	 3.333333e+00	 4.666667e+00	 1.025262e+01
0	 3.333333e+00	 4.740741e+00	 1.023909e+01
0	 3.333333e+00	 4.814815e+00	 1.022617e+01
0	 3.407407e+00	 4.444444e+00	 1.030871e+01
0	 3.407407e+00	 4.518519e+00	 1.029339e+01
0	 3.407407e+00	 4.592593e+00	 1.027869e+01
0	 3.407407e+00	 4.666667e+00	 1.026459e+01
0	 3.407407e+00	 4.740741e+00	 1.025108e+01
0	 3.407407e+00	 4.814815e+00	 1.023814e+01
0	 3.481481e+00	 4.444444e+00	 1.031911e+01
0	 3.481481e+00	 4.518519e+00	 1.030398e+01
0	 3.481481e+00	 4.592593e+00	 1.028942e+01
0	 3.481481e+00	 4.666667e+00	 1.027542e+01
0	 3.481481e+00	 4.740741e+00	 1.026197e+01
0	 3.481481e+00	 4.814815e+00	 1.024905e+01
0	 3.555556e+00	 4.444444e+00	 1.032832e+01
0	 3.555556e+00	 4.518519e+00	 1.031340e+01
0	 3.555556e+00	 4.592593e+00	 1.029902e+01
0	 3.555556e+00	 4.666667e+00	 1.028517e+01
0	 3.555556e+00	 4.740741e+00	 1.027181e+01
0	 3.555556e+00	 4.814815e+00	 1.025895e+01
0	 3.629630e+00	 4.444444e+00	 1.033641e+01
0	 3.629630e+00	 4.518519e+00	 1.032175e+01
0	 3.629630e+00	 4.592593e+00	 1.030758e+01
0	 3.629630e+00	 4.666667e+00	 1.029389e+01
0	 3.629630e+00	 4.740741e+00	 1.028067e+01
0	 3.629630e+00	 4.814815e+00	 1.026790e+01
0	 3.703704e+00	 4.444444e+00	 1.034347e+01
0	 3.703704e+00	 4.518519e+00	 1.032909e+01
0	 3.703704e+00	 4.592593e+00	 1.031516e+01
0	 3.703704e+00	 4.666667e+00	 1.030166e+01
0	 3.703704e+00	 4.740741e+00	 1.028860e+01
0	 3.703704e+00	 4.814815e+00	 1.027594e+01
0	 3.333333e+00	 4.814815e+00	 1.022617e+01
0	 3.333333e+00	 4.888889e+00	 1.021382e+01
0	 3.333333e+00	 4.962963e+00	 1.020201e+01
0	 3.333333e+00	 5.037037e+00	 1.019074e+01
0	 3.333333e+00	 5.111111e+00	 1.018000e+01
0	 3.333333e+00	 5.185185e+00	 1.016978e+01
0	 3.407407e+00	 4.814815e+00	 1.023814e+01
0	 3.407407e+00	 4.888889e+00	 1.022574e+01
0	 3.407407e+00	 4.962963e+00	 1.021386e+01
0	 3.407407e+00	 5.037037e+00	 1.020249e+01
0	 3.407407e+00	 5.111111e+00	 1.019163e+01
0	 3.407407e+00	 5.185185e+00	 1.018127e+01
0	 3.481481e+00	 4.814815e+00	 1.024905e+01
0	 3.481481e+00	 4.888889e+00	 1.023664e+01
0	 3.481481e+00	 4.962963e+00	 1.022472e+01
0	 3.481481e+00	 5.037037e+00	 1.021330e+01
0	 3.481481e+00	 5.111111e+00	 1.020236e+01
0	 3.481481e+00	 5.185185e+00	 1.019191e+01
0	 3.555556e+00	 4.814815e+00	 1.025895e+01
0	 3.555556e+00	 4.888889e+00	 1.024657e+01
0	 3.555556e+00	 4.962963e+00	 1.023465e+01
0	 3.555556e+00	 5.037037e+00	 1.022321e+01
0	 3.555556e+00	 5.111111e+00	 1.021223e+01
0	 3.555556e+00	 5.185185e+00	 1.020172e+01
0	 3.629630e+00	 4.814815e+00	 1.026790e+01
0	 3.629630e+00	 4.888889e+00	 1.025557e+01
0	 3.629630e+00	 4.962963e+00	 1.024369e+01
0	 3.629630e+00	 5.037037e+00	 1.023227e+01
0	 3.629630e+00	 5.111111e+00	 1.022129e+01
0	 3.629630e+00	 5.185185e+00	 1.021075e+01
0	 3.703704e+00	 4.814815e+00	 1.027594e+01
0	 3.703704e+00	 4.888889e+00	 1.026370e+01
0	 3.703704e+00	 4.962963e+00	 1.025189e+01
0	 3.703704e+00	 5.037037e+00	 1.024051e+01
0	 3.703704e+00	 5.111111e+00	 1.022956e+01
0	 3.703704e+00	 5.185185e+00	 1.021902e+01
0	 3.333333e+00	 5.185185e+00	 1.016978e+01
0	 3.333333e+00	 5.259259e+00	 1.016006e+01
0	 3.333333e+00	 5.333333e+00	 1.015079e+01
0	 3.333333e+00	 5.407407e+00	 1.014197e+01
0	 3.333333e+00	 5.481481e+00	 1.013361e+01
0	 3.333333e+00	 5.555556e+00	 1.012571e+01
0	 3.407407e+00	 5.185185e+00	 1.018127e+01
0	 3.407407e+00	 5.259259e+00	 1.017139e+01
0	 3.407407e+00	 5.333333e+00	 1.016195e+01
0	 3.407407e+00	 5.407407e+00	 1.015296e+01
0	 3.407407e+00	 5.481481e+00	 1.014440e+01
0	 3.407407e+00	 5.555556e+00	 1.013630e+01
0	 3.481481e+00	 5.185185e+00	 1.019191e+01
0	 3.481481e+00	 5.259259e+00	 1.018191e+01
0	 3.481481e+00	 5.333333e+00	 1.017235e+01
0	 3.481481e+00	 5.407407e+00	 1.016321e+01
0	 3.481481e+00	 5.481481e+00	 1.015450e+01
0	 3.481481e+00	 5.555556e+00	 1.014621e+01
0	 3.555556e+00	 5.185185e+00	 1.020172e+01
0	 3.555556e+00	 5.259259e+00	 1.019165e+01
0	 3.555556e+00	 5.333333e+00	 1.018199e+01
0	 3.555556e+00	 5.407407e+00	 1.017274e+01
0	 3.555556e+00	 5.481481e+00	 1.016390e+01
0	 3.555556e+00	 5.555556e+00	 1.015547e+01
0	 3.629630e+00	 5.185185e+00	 1.021075e+01
0	 3.629630e+00	 5.259259e+00	 1.020063e+01
0	 3.629630e+00	 5.333333e+00	 1.019090e+01
0	 3.629630e+00	 5.407407e+00	 1.018157e+01
0	 3.629630e+00	 5.481481e+00	 1.017263e+01
0	 3.629630e+00	 5.555556e+00	 1.016409e+01
0	 3.703704e+00	 5.185185e+00	 1.021902e+01
0	 3.703704e+00	 5.259259e+00	 1.020888e+01
0	 3.703704e+00	 5.333333e+00	 1.019911e+01
0	 3.703704e+00	 5.407407e+00	 1.018973e+01
0	 3.703704e+00	 5.481481e+00	 1.018072e+01
0	 3.703704e+00	 5.555556e+00	 1.017208e+01
0	 3.333333e+00	 5.555556e+00	 1.012571e+01
0	 3.333333e+00	 5.629630e+00	 1.011822e+01
0	 3.333333e+00	 5.703704e+00	 1.011109e+01
0	 3.333333e+00	 5.777778e+00	 1.010432e+01
0	 3.333333e+00	 5.851852e+00	 1.009792e+01
0	 3.333333e+00	 5.925926e+00	 1.009190e+01
0	 3.407407e+00	 5.555556e+00	 1.013630e+01
0	 3.407407e+00	 5.629630e+00	 1.012859e+01
0	 3.407407e+00	 5.703704e+00	 1.012123e+01
0	 3.407407e+00	 5.777778e+00	 1.011424e+01
0	 3.407407e+00	 5.851852e+00	 1.010761e+01
0	 3.407407e+00	 5.925926e+00	 1.010134e+01
0	 3.481481e+00	 5.555556e+00	 1.014621e+01
0	 3.481481e+00	 5.629630e+00	 1.013832e+01
0	 3.481481e+00	 5.703704e+00	 1.013077e+01
0	 3.481481e+00	 5.777778e+00	 1.012357e+01
0	 3.481481e+00	 5.851852e+00	 1.011673e+01
0	 3.481481e+00	 5.925926e+00	 1.011025e+01
0	 3.555556e+00	 5.555556e+00	 1.015547e+01
0	 3.555556e+00	 5.629630e+00	 1.014742e+01
0	 3.555556e+00	 5.703704e+00	 1.013971e+01
0	 3.555556e+00	 5.777778e+00	 1.013234e+01
0	 3.555556e+00	 5.851852e+00	 1.012532e+01
0	 3.555556e+00	 5.925926e+00	 1.011865e+01
0	 3.629630e+00	 5.555556e+00	 1.016409e+01
0	 3.629630e+00	 5.629630e+00	 1.015590e+01
0	 3.629630e+00	 5.703704e+00	 1.014805e+01
0	 3.629630e+00	 5.777778e+00	 1.014054e+01
0	 3.629630e+00	 5.851852e+00	 1.013337e+01
0	 3.629630e+00	 5.925926e+00	 1.012654e+01
0	 3.703704e+00	 5.555556e+00	 1.017208e+01
0	 3.703704e+00	 5.629630e+00	 1.016379e+01
0	 3.703704e+00	 5.703704e+00	 1.015583e+01
0	 3.703704e+00	 5.777778e+00	 1.014820e+01
0	 3.703704e+00	 5.851852e+00	 1.014089e+01
0	 3.703704e+00	 5.925926e+00	 1.013392e+01
0	 3.333333e+00	 5.925926e+00	 1.009190e+01
0	 3.333333e+00	 6.000000e+00	 1.008621e+01
0	 3.333333e+00	 6.074074e+00	 1.008080e+01
0	 3.333333e+00	 6.148148e+00	 1.007569e+01
0	 3.333333e+00	 6.222222e+00	 1.007087e+01
0	 3.333333e+00	 6.296296e+00	 1.006635e+01
0	 3.407407e+00	 5.925926e+00	 1.010134e+01
0	 3.407407e+00	 6.000000e+00	 1.009540e+01
0	 3.407407e+00	 6.074074e+00	 1.008975e+01
0	 3.407407e+00	 6.148148e+00	 1.008438e+01
0	 3.407407e+00	 6.222222e+00	 1.007931e+01
0	 3.407407e+00	 6.296296e+00	 1.007454e+01
0	 3.481481e+00	 5.925926e+00	 1.011025e+01
0	 3.481481e+00	 6.000000e+00	 1.010410e+01
0	 3.481481e+00	 6.074074e+00	 1.009822e+01
0	 3.481481e+00	 6.148148e+00	 1.009263e+01
0	 3.481481e+00	 6.222222e+00	 1.008734e+01
0	 3.481481e+00	 6.296296e+00	 1.008233e+01
0	 3.555556e+00	 5.925926e+00	 1.011865e+01
0	 3.555556e+00	 6.000000e+00	 1.011230e+01
0	 3.555556e+00	 6.074074e+00	 1.010623e+01
0	 3.555556e+00	 6.148148e+00	 1.010044e+01
0	 3.555556e+00	 6.222222e+00	 1.009493e+01
0	 3.555556e+00	 6.296296e+00	 1.008972e+01
0	 3.629630e+00	 5.925926e+00	 1.012654e+01
0	 3.629630e+00	 6.000000e+00	 1.012001e+01
0	 3.629630e+00	 6.074074e+00	 1.011377e+01
0	 3.629630e+00	 6.148148e+00	 1.010780e+01
0	 3.629630e+00	 6.222222e+00	 1.010211e+01
0	 3.629630e+00	 6.296296e+00	 1.009670e+01
0	 3.703704e+00	 5.925926e+00	 1.013392e+01
0	 3.703704e+00	 6.000000e+00	 1.012725e+01
0	 3.703704e+00	 6.074074e+00	 1.012084e+01
0	 3.703704e+00	 6.148148e+00	 1.011471e+01
0	 3.703704e+00	 6.222222e+00	 1.010886e+01
0	 3.703704e+00	 6.296296e+00	 1.010328e+01
0	 3.333333e+00	 6.296296e+00	 1.006635e+01
0	 3.333333e+00	 6.370370e+00	 1.006210e+01
0	 3.333333e+00	 6.444444e+00	 1.005807e+01
0	 3.333333e+00	 6.518519e+00	 1.005426e+01
0	 3.333333e+00	 6.592593e+00	 1.005068e+01
0	 3.333333e+00	 6.666667e+00	 1.004734e+01
0	 3.407407e+00	 6.296296e+00	 1.007454e+01
0	 3.407407e+00	 6.370370e+00	 1.007004e+01
0	 3.407407e+00	 6.444444e+00	 1.006575e+01
0	 3.407407e+00	 6.518519e+00	 1.006169e+01
0	 3.407407e+00	 6.592593e+00	 1.005786e+01
0	 3.407407e+00	 6.666667e+00	 1.005427e+01
0	 3.481481e+00	 6.296296e+00	 1.008233e+01
0	 3.481481e+00	 6.370370e+00	 1.007759e+01
0	 3.481481e+00	 6.444444e+00	 1.007307e+01
0	 3.481481e+00	 6.518519e+00	 1.006878e+01
0	 3.481481e+00	 6.592593e+00	 1.006472e+01
0	 3.481481e+00	 6.666667e+00	 1.006089e+01
0	 3.555556e+00	 6.296296e+00	 1.008972e+01
0	 3.555556e+00	 6.370370e+00	 1.008476e+01
0	 3.555556e+00	 6.444444e+00	 1.008003e+01
0	 3.555556e+00	 6.518519e+00	 1.007552e+01
0	 3.555556e+00	 6.592593e+00	 1.007125e+01
0	 3.555556e+00	 6.666667e+00	 1.006720e+01
0	 3.629630e+00	 6.296296e+00	 1.009670e+01
0	 3.629630e+00	 6.370370e+00	 1.009155e+01
0	 3.629630e+00	 6.444444e+00	 1.008662e+01
0	 3.629630e+00	 6.518519e+00	 1.008192e+01
0	 3.629630e+00	 6.592593e+00	 1.007744e+01
0	 3.629630e+00	 6.666667e+00	 1.007320e+01
0	 3.703704e+00	 6.296296e+00	 1.010328e+01
0	 3.703704e+00	 6.370370e+00	 1.009795e+01
0	 3.703704e+00	 6.444444e+00	 1.009285e+01
0	 3.703704e+00	 6.518519e+00	 1.008796e+01
0	 3.703704e+00	 6.592593e+00	 1.008331e+01
0	 3.703704e+00	 6.666667e+00	 1.007888e+01
0	 3.333333e+00	 6.666667e+00	 1.004734e+01
0	 3.333333e+00	 6.740741e+00	 1.004421e+01
0	 3.333333e+00	 6.814815e+00	 1.004124e+01
0	 3.333333e+00	 6.888889e+00	 1.003845e+01
0	 3.333333e+00	 6.962963e+00	 1.003583e+01
0	 3.333333e+00	 7.037037e+00	 1.003339e+01
0	 3.407407e+00	 6.666667e+00	 1.005427e+01
0	 3.407407e+00	 6.740741e+00	 1.005089e+01
0	 3.407407e+00	 6.814815e+00	 1.004767e+01
0	 3.407407e+00	 6.888889e+00	 1.004463e+01
0	 3.407407e+00	 6.962963e+00	 1.004177e+01
0	 3.407407e+00	 7.037037e+00	 1.003910e+01
0	 3.481481e+00	 6.666667e+00	 1.006089e+01
0	 3.481481e+00	 6.740741e+00	 1.005727e+01
0	 3.481481e+00	 6.814815e+00	 1.005383e+01
0	 3.481481e+00	 6.888889e+00	 1.005056e+01
0	 3.481481e+00	 6.962963e+00	 1.004747e+01
0	 3.481481e+00	 7.037037e+00	 1.004457e+01
0	 3.555556e+00	 6.666667e+00	 1.006720e+01
0	 3.555556e+00	 6.740741e+00	 1.006337e+01
0	 3.555556e+00	 6.814815e+00	 1.005971e+01
0	 3.555556e+00	 6.888889e+00	 1.005622e+01
0	 3.555556e+00	 6.962963e+00	 1.005292e+01
0	 3.555556e+00	 7.037037e+00	 1.004981e+01
0	 3.629630e+00	 6.666667e+00	 1.007320e+01
0	 3.629630e+00	 6.740741e+00	 1.006916e+01
0	 3.629630e+00	 6.814815e+00	 1.006530e+01
0	 3.629630e+00	 6.888889e+00	 1.006162e+01
0	 3.629630e+00	 6.962963e+00	 1.005812e+01
0	 3.629630e+00	 7.037037e+00	 1.005480e+01
0	 3.703704e+00	 6.666667e+00	 1.007888e+01
0	 3.703704e+00	 6.740741e+00	 1.007466e+01
0	 3.703704e+00	 6.814815e+00	 1.007061e+01
0	 3.703704e+00	 6.888889e+00	 1.006674e+01
0	 3.703704e+00	 6.962963e+00	 1.006306e+01
0	 3.703704e+00	 7.037037e+00	 1.005956e+01
0	 3.333333e+00	 7.037037e+00	 1.003339e+01
0	 3.333333e+00	 7.111111e+00	 1.003111e+01
0	 3.333333e+00	 7.185185e+00	 1.002896e+01
0	 3.333333e+00	 7.259259e+00	 1.002693e+01
0	 3.333333e+00	 7.333333e+00	 1.002504e+01
0	 3.333333e+00	 7.407407e+00	 1.002328e+01
0	 3.407407e+00	 7.037037e+00	 1.003910e+01
0	 3.407407e+00	 7.111111e+00	 1.003658e+01
0	 3.407407e+00	 7.185185e+00	 1.003419e+01
0	 3.407407e+00	 7.259259e+00	 1.003193e+01
0	 3.407407e+00	 7.333333e+00	 1.002981e+01
0	 3.407407e+00	 7.407407e+00	 1.002783e+01
0	 3.481481e+00	 7.037037e+00	 1.004457e+01
0	 3.481481e+00	 7.111111e+00	 1.004183e+01
0	 3.481481e+00	 7.185185e+00	 1.003922e+01
0	 3.481481e+00	 7.259259e+00	 1.003674e+01
0	 3.481481e+00	 7.333333e+00	 1.003440e+01
0	 3.481481e+00	 7.407407e+00	 1.003221e+01
0	 3.555556e+00	 7.037037e+00	 1.004981e+01
0	 3.555556e+00	 7.111111e+00	 1.004685e+01
0	 3.555556e+00	 7.185185e+00	 1.004403e+01
0	 3.555556e+00	 7.259259e+00	 1.004135e+01
0	 3.555556e+00	 7.333333e+00	 1.003881e+01
0	 3.555556e+00	 7.407407e+00	 1.003642e+01
0	 3.629630e+00	 7.037037e+00	 1.005480e+01
0	 3.629630e+00	 7.111111e+00	 1.005165e+01
0	 3.629630e+00	 7.185185e+00	 1.004864e+01
0	 3.629630e+00	 7.259259e+00	 1.004576e+01
0	 3.629630e+00	 7.333333e+00	 1.004303e+01
0	 3.629630e+00	 7.407407e+00	 1.004044e+01
0	 3.703704e+00	 7.037037e+00	 1.005956e+01
0	 3.703704e+00	 7.111111e+00	 1.005622e+01
0	 3.703704e+00	 7.185185e+00	 1.005302e+01
0	 3.703704e+00	 7.259259e+00	 1.004996e+01
0	 3.703704e+00	 7.333333e+00	 1.004705e+01
0	 3.703704e+00	 7.407407e+00	 1.004428e+01
0	 3.333333e+00	 7.407407e+00	 1.002328e+01
0	 3.333333e+00	 7.481481e+00	 1.002164e+01
0	 3.333333e+00	 7.555556e+00	 1.002008e+01
0	 3.333333e+00	 7.629630e+00	 1.001862e+01
0	 3.333333e+00	 7.703704e+00	 1.001726e+01
0	 3.333333e+00	 7.777778e+00	 1.001600e+01
0	 3.407407e+00	 7.407407e+00	 1.002783e+01
0	 3.407407e+00	 7.481481e+00	 1.002597e+01
0	 3.407407e+00	 7.555556e+00	 1.002420e+01
0	 3.407407e+00	 7.629630e+00	 1.002253e+01
0	 3.407407e+00	 7.703704e+00	 1.002096e+01
0	 3.407407e+00	 7.777778e+00	 1.001949e+01
0	 3.481481e+00	 7.407407e+00	 1.003221e+01
0	 3.481481e+00	 7.481481e+00	 1.003014e+01
0	 3.481481e+00	 7.555556e+00	 1.002816e+01
0	 3.481481e+00	 7.629630e+00	 1.002629e+01
0	 3.481481e+00	 7.703704e+00	 1.002452e+01
0	 3.481481e+00	 7.777778e+00	 1.002286e+01
0	 3.555556e+00	 7.407407e+00	 1.003642e+01
0	 3.555556e+00	 7.481481e+00	 1.003414e+01
0	 3.555556e+00	 7.555556e+00	 1.003197e+01
0	 3.555556e+00	 7.629630e+00	 1.002991e+01
0	 3.555556e+00	 7.703704e+00	 1.002795e+01
0	 3.555556e+00	 7.777778e+00	 1.002611e+01
0	 3.629630e+00	 7.407407e+00	 1.004044e+01
0	 3.629630e+00	 7.481481e+00	 1.003798e+01
0	 3.629630e+00	 7.555556e+00	 1.003563e+01
0	 3.629630e+00	 7.629630e+00	 1.003338e+01
0	 3.629630e+00	 7.703704e+00	 1.003124e+01
0	 3.629630e+00	 7.777778e+00	 1.002922e+01
0	 3.703704e+00	 7.407407e+00	 1.004428e+01
0	 3.703704e+00	 7.481481e+00	 1.004164e+01
0	 3.703704e+00	 7.555556e+00	 1.003911e+01
0	 3.703704e+00	 7.629630e+00	 1.003669e+01
0	 3.703704e+00	 7.703704e+00	 1.003438e+01
0	 3.703704e+00	 7.777778e+00	 1.003219e+01
0	 3.333333e+00	 7.777778e+00	 1.001600e+01
0	 3.333333e+00	 7.851852e+00	 1.001482e+01
0	 3.333333e+00	 7.925926e+00	 1.001370e+01
0	 3.333333e+00	 8.000000e+00	 1.001265e+01
0	 3.333333e+00	 8.074074e+00	 1.001167e+01
0	 3.333333e+00	 8.148148e+00	 1.001076e+01
0	 3.407407e+00	 7.777778e+00	 1.001949e+01
0	 3.407407e+00	 7.851852e+00	 1.001811e+01
0	 3.407407e+00	 7.925926e+00	 1.001680e+01
0	 3.407407e+00	 8.000000e+00	 1.001556e+01
0	 3.407407e+00	 8.074074e+00	 1.001439e+01
0	 3.407407e+00	 8.148148e+00	 1.001330e+01
0	 3.481481e+00	 7.777778e+00	 1.002286e+01
0	 3.481481e+00	 7.851852e+00	 1.002129e+01
0	 3.481481e+00	 7.925926e+00	 1.001979e+01
0	 3.481481e+00	 8.000000e+00	 1.001837e+01
0	 3.481481e+00	 8.074074e+00	 1.001703e+01
0	 3.481481e+00	 8.148148e+00	 1.001576e+01
0	 3.555556e+00	 7.777778e+00	 1.002611e+01
0	 3.555556e+00	 7.851852e+00	 1.002435e+01
0	 3.555556e+00	 7.925926e+00	 1.002268e+01
0	 3.555556e+00	 8.000000e+00	 1.002108e+01
0	 3.555556e+00	 8.074074e+00	 1.001956e+01
0	 3.555556e+00	 8.148148e+00	 1.001813e+01
0	 3.629630e+00	 7.777778e+00	 1.002922e+01
0	 3.629630e+00	 7.851852e+00	 1.002729e+01
0	 3.629630e+00	 7.925926e+00	 1.002544e+01
0	 3.629630e+00	 8.000000e+00	 1.002368e+01
0	 3.629630e+00	 8.074074e+00	 1.002200e+01
0	 3.629630e+00	 8.148148e+00	 1.002041e+01
0	 3.703704e+00	 7.777778e+00	 1.003219e+01
0	 3.703704e+00	 7.851852e+00	 1.003010e+01
0	 3.703704e+00	 7.925926e+00	 1.002809e+01
0	 3.703704e+00	 8.000000e+00	 1.002617e+01
0	 3.703704e+00	 8.074074e+00	 1.002433e+01
0	 3.703704e+00	 8.148148e+00	 1.002258e+01
0	 3.333333e+00	 8.148148e+00	 1.001076e+01
0	 3.333333e+00	 8.222222e+00	 1.000991e+01
0	 3.333333e+00	 8.296296e+00	 1.000910e+01
0	 3.333333e+00	 8.370370e+00	 1.000833e+01
0	 3.333333e+00	 8.444444e+00	 1.000762e+01
0	 3.333333e+00	 8.518519e+00	 1.000695e+01
0	 3.407407e+00	 8.148148e+00	 1.001330e+01
0	 3.407407e+00	 8.222222e+00	 1.001227e+01
0	 3.407407e+00	 8.296296e+00	 1.001129e+01
0	 3.407407e+00	 8.370370e+00	 1.001036e+01
0	 3.407407e+00	 8.444444e+00	 1.000949e+01
0	 3.407407e+00	 8.518519e+00	 1.000866e+01
0	 3.481481e+00	 8.148148e+00	 1.001576e+01
0	 3.481481e+00	 8.222222e+00	 1.001456e+01
0	 3.481481e+00	 8.296296e+00	 1.001342e+01
0	 3.481481e+00	 8.370370e+00	 1.001233e+01
0	 3.481481e+00	 8.444444e+00	 1.001129e+01
0	 3.481481e+00	 8.518519e+00	 1.001032e+01
0	 3.555556e+00	 8.148148e+00	 1.001813e+01
0	 3.555556e+00	 8.222222e+00	 1.001677e+01
0	 3.555556e+00	 8.296296e+00	 1.001547e+01
0	 3.555556e+00	 8.370370e+00	 1.001422e+01
0	 3.555556e+00	 8.444444e+00	 1.001304e+01
0	 3.555556e+00	 8.518519e+00	 1.001192e+01
0	 3.629630e+00	 8.148148e+00	 1.002041e+01
0	 3.629630e+00	 8.222222e+00	 1.001889e+01
0	 3.629630e+00	 8.296296e+00	 1.001743e+01
0	 3.629630e+00	 8.370370e+00	 1.001604e+01
0	 3.629630e+00	 8.444444e+00	 1.001472e+01
0	 3.629630e+00	 8.518519e+00	 1.001346e+01
0	 3.703704e+00	 8.148148e+00	 1.002258e+01
0	 3.703704e+00	 8.222222e+00	 1.002092e+01
0	 3.703704e+00	 8.296296e+00	 1.001932e+01
0	 3.703704e+00	 8.370370e+00	 1.001779e+01
0	 3.703704e+00	 8.444444e+00	 1.001632e+01
0	 3.703704e+00	 8.518519e+00	 1.001493e+01
0	 3.333333e+00	 8.518519e+00	 1.000695e+01
0	 3.333333e+00	 8.592593e+00	 1.000632e+01
0	 3.333333e+00	 8.666667e+00	 1.000572e+01
0	 3.333333e+00	 8.740741e+00	 1.000516e+01
0	 3.333333e+00	 8.814815e+00	 1.000462e+01
0	 3.333333e+00	 8.888889e+00	 1.000412e+01
0	 3.407407e+00	 8.518519e+00	 1.000866e+01
0	 3.407407e+00	 8.592593e+00	 1.000788e+01
0	 3.407407e+00	 8.666667e+00	 1.000714e+01
0	 3.407407e+00	 8.740741e+00	 1.000643e+01
0	 3.407407e+00	 8.814815e+00	 1.000577e+01
0	 3.407407e+00	 8.888889e+00	 1.000514e+01
0	 3.481481e+00	 8.518519e+00	 1.001032e+01
0	 3.481481e+00	 8.592593e+00	 1.000939e+01
0	 3.481481e+00	 8.666667e+00	 1.000851e+01
0	 3.481481e+00	 8.740741e+00	 1.000767e+01
0	 3.481481e+00	 8.814815e+00	 1.000688e+01
0	 3.481481e+00	 8.888889e+00	 1.000613e+01
0	 3.555556e+00	 8.518519e+00	 1.001192e+01
0	 3.555556e+00	 8.592593e+00	 1.001086e+01
0	 3.555556e+00	 8.666667e+00	 1.000984e+01
0	 3.555556e+00	 8.740741e+00	 1.000887e+01
0	 3.555556e+00	 8.814815e+00	 1.000795e+01
0	 3.555556e+00	 8.888889e+00	 1.000708e+01
0	 3.629630e+00	 8.518519e+00	 1.001346e+01
0	 3.629630e+00	 8.592593e+00	 1.001226e+01
0	 3.629630e+00	 8.666667e+00	 1.001111e+01
0	 3.629630e+00	 8.740741e+00	 1.001002e+01
0	 3.629630e+00	 8.814815e+00	 1.000899e+01
0	 3.629630e+00	 8.888889e+00	 1.000800e+01
0	 3.703704e+00	 8.518519e+00	 1.001493e+01
0	 3.703704e+00	 8.592593e+00	 1.001360e+01
0	 3.703704e+00	 8.666667e+00	 1.001233e+01
0	 3.703704e+00	 8.740741e+00	 1.001112e+01
0	 3.703704e+00	 8.814815e+00	 1.000997e+01
0	 3.703704e+00	 8.888889e+00	 1.000888e+01
0	 3.333333e+00	 8.888889e+00	 1.000412e+01
0	 3.333333e+00	 8.962963e+00	 1.000365e+01
0	 3.333333e+00	 9.037037e+00	 1.000320e+01
0	 3.333333e+00	 9.111111e+00	 1.000278e+01
0	 3.333333e+00	 9.185185e+00	 1.000239e+01
0	 3.333333e+00	 9.259259e+00	 1.000202e+01
0	 3.407407e+00	 8.888889e+00	 1.000514e+01
0	 3.407407e+00	 8.962963e+00	 1.000455e+01
0	 3.407407e+00	 9.037037e+00	 1.000399e+01
0	 3.407407e+00	 9.111111e+00	 1.000346e+01
0	 3.407407e+00	 9.185185e+00	 1.000296e+01
0	 3.407407e+00	 9.259259e+00	 1.000249e+01
0	 3.481481e+00	 8.888889e+00	 1.000613e+01
0	 3.481481e+00	 8.962963e+00	 1.000542e+01
0	 3.481481e+00	 9.037037e+00	 1.000475e+01
0	 3.481481e+00	 9.111111e+00	 1.000412e+01
0	 3.481481e+00	 9.185185e+00	 1.000352e+01
0	 3.481481e+00	 9.259259e+00	 1.000296e+01
0	 3.555556e+00	 8.888889e+00	 1.000708e+01
0	 3.555556e+00	 8.962963e+00	 1.000626e+01
0	 3.555556e+00	 9.037037e+00	 1.000548e+01
0	 3.555556e+00	 9.111111e+00	 1.000475e+01
0	 3.555556e+00	 9.185185e+00	 1.000406e+01
0	 3.555556e+00	 9.259259e+00	 1.000342e+01
0	 3.629630e+00	 8.888889e+00	 1.000800e+01
0	 3.629630e+00	 8.962963e+00	 1.000707e+01
0	 3.629630e+00	 9.037037e+00	 1.000619e+01
0	 3.629630e+00	 9.111111e+00	 1.000536e+01
0	 3.629630e+00	 9.185185e+00	 1.000458e+01
0	 3.629630e+00	 9.259259e+00	 1.000385e+01
0	 3.703704e+00	 8.888889e+00	 1.000888e+01
0	 3.703704e+00	 8.962963e+00	 1.000784e+01
0	 3.703704e+00	 9.037037e+00	 1.000686e+01
0	 3.703704e+00	 9.111111e+00	 1.000594e+01
0	 3.703704e+00	 9.185185e+00	 1.000508e+01
0	 3.703704e+00	 9.259259e+00	 1.000426e+01
0	 3.333333e+00	 9.259259e+00	 1.000202e+01
0	 3.333333e+00	 9.333333e+00	 1.000167e+01
0	 3.333333e+00	 9.407407e+00	 1.000136e+01
0	 3.333333e+00	 9.481481e+00	 1.000107e+01
0	 3.333333e+00	 9.555556e+00	 1.000081e+01
0	 3.333333e+00	 9.629630e+00	 1.000058e+01
0	 3.407407e+00	 9.259259e+00	 1.000249e+01
0	 3.407407e+00	 9.333333e+00	 1.000206e+01
0	 3.407407e+00	 9.407407e+00	 1.000167e+01
0	 3.407407e+00	 9.481481e+00	 1.000131e+01
0	 3.407407e+00	 9.555556e+00	 1.000099e+01
0	 3.407407e+00	 9.629630e+00	 1.000070e+01
0	 3.481481e+00	 9.259259e+00	 1.000296e+01
0	 3.481481e+00	 9.333333e+00	 1.000245e+01
0	 3.481481e+00	 9.407407e+00	 1.000198e+01
0	 3.481481e+00	 9.481481e+00	 1.000155e+01
0	 3.481481e+00	 9.555556e+00	 1.000117e+01
0	 3.481481e+00	 9.629630e+00	 1.000083e+01
0	 3.555556e+00	 9.259259e+00	 1.000342e+01
0	 3.555556e+00	 9.333333e+00	 1.000282e+01
0	 3.555556e+00	 9.407407e+00	 1.000228e+01
0	 3.555556e+00	 9.481481e+00	 1.000179e+01
0	 3.555556e+00	 9.555556e+00	 1.000135e+01
0	 3.555556e+00	 9.629630e+00	 1.000095e+01
0	 3.629630e+00	 9.259259e+00	 1.000385e+01
0	 3.629630e+00	 9.333333e+00	 1.000317e+01
0	 3.629630e+00	 9.407407e+00	 1.000256e+01
0	 3.629630e+00	 9.481481e+00	 1.000201e+01
0	 3.629630e+00	 9.555556e+00	 1.000152e+01
0	 3.629630e+00	 9.629630e+00	 1.000107e+01
0	 3.703704e+00	 9.259259e+00	 1.000426e+01
0	 3.703704e+00	 9.333333e+00	 1.000351e+01
0	 3.703704e+00	 9.407407e+00	 1.000283e+01
0	 3.703704e+00	 9.481481e+00	 1.000222e+01
0	 3.703704e+00	 9.555556e+00	 1.000167e+01
0	 3.703704e+00	 9.629630e+00	 1.000118e+01
0	 3.333333e+00	 9.629630e+00	 1.000058e+01
0	 3.333333e+00	 9.703704e+00	 1.000037e+01
0	 3.333333e+00	 9.777778e+00	 1.000022e+01
0	 3.333333e+00	 9.851852e+00	 1.000011e+01
0	 3.333333e+00	 9.925926e+00	 1.000003e+01
0	 3.333333e+00	 1.000000e+01	 9.999985e+00
0	 3.407407e+00	 9.629630e+00	 1.000070e+01
0	 3.407407e+00	 9.703704e+00	 1.000045e+01
0	 3.407407e+00	 9.777778e+00	 1.000026e+01
0	 3.407407e+00	 9.851852e+00	 1.000012e+01
0	 3.407407e+00	 9.925926e+00	 1.000003e+01
0	 3.407407e+00	 1.000000e+01	 9.999978e+00
0	 3.481481e+00	 9.629630e+00	 1.000083e+01
0	 3.481481e+00	 9.703704e+00	 1.000053e+01
0	 3.481481e+00	 9.777778e+00	 1.000031e+01
0	 3.481481e+00	 9.851852e+00	 1.000015e+01
0	 3.481481e+00	 9.925926e+00	 1.000004e+01
0	 3.481481e+00	 1.000000e+01	 9.999979e+00
0	 3.555556e+00	 9.629630e+00	 1.000095e+01
0	 3.555556e+00	 9.703704e+00	 1.000062e+01
0	 3.555556e+00	 9.777778e+00	 1.000036e+01
0	 3.555556e+00	 9.851852e+00	 1.000017e+01
0	 3.555556e+00	 9.925926e+00	 1.000005e+01
0	 3.555556e+00	 1.000000e+01	 9.999983e+00
0	 3.629630e+00	 9.629630e+00	 1.000107e+01
0	 3.629630e+00	 9.703704e+00	 1.000069e+01
0	 3.629630e+00	 9.777778e+00	 1.000040e+01
0	 3.629630e+00	 9.851852e+00	 1.000020e+01
0	 3.629630e+00	 9.925926e+00	 1.000006e+01
0	 3.629630e+00	 1.000000e+01	 9.999985e+00
0	 3.703704e+00	 9.629630e+00	 1.000118e+01
0	 3.703704e+00	 9.703704e+00	 1.000076e+01
0	 3.703704e+00	 9.777778e+00	 1.000044e+01
0	 3.703704e+00	 9.851852e+00	 1.000021e+01
0	 3.703704e+00	 9.925926e+00	 1.000006e+01
0	 3.703704e+00	 1.000000e+01	 9.999980e+00
0	 3.703704e+00	 0.000000e+00	 1.060121e+01
0	 3.703704e+00	 7.407407e-02	 1.060705e+01
0	 3.703704e+00	 1.481481e-01	 1.061369e+01
0	 3.703704e+00	 2.222222e-01	 1.062133e+01
0	 3.703704e+00	 2.962963e-01	 1.063021e+01
0	 3.703704e+00	 3.703704e-01	 1.064054e+01
0	 3.777778e+00	 0.000000e+00	 1.056907e+01
0	 3.777778e+00	 7.407407e-02	 1.057618e+01
0	 3.777778e+00	 1.481481e-01	 1.058389e+01
0	 3.777778e+00	 2.222222e-01	 1.059239e+01
0	 3.777778e+00	 2.962963e-01	 1.060190e+01
0	 3.777778e+00	 3.703704e-01	 1.061261e+01
0	 3.851852e+00	 0.000000e+00	 1.054747e+01
0	 3.851852e+00	 7.407407e-02	 1.055342e+01
0	 3.851852e+00	 1.481481e-01	 1.056013e+01
0	 3.851852e+00	 2.222222e-01	 1.056777e+01
0	 3.851852e+00	 2.962963e-01	 1.057652e+01
0	 3.851852e+00	 3.703704e-01	 1.058655e+01
0	 3.925926e+00	 0.000000e+00	 1.053291e+01
0	 3.925926e+00	 7.407407e-02	 1.053632e+01
0	 3.925926e+00	 1.481481e-01	 1.054085e+01
0	 3.925926e+00	 2.222222e-01	 1.054663e+01
0	 3.925926e+00	 2.962963e-01	 1.055380e+01
0	 3.925926e+00	 3.703704e-01	 1.056252e+01
0	 4.000000e+00	 0.000000e+00	 1.052193e+01
0	 4.000000e+00	 7.407407e-02	 1.052244e+01
0	 4.000000e+00	 1.481481e-01	 1.052446e+01
0	 4.000000e+00	 2.222222e-01	 1.052811e+01
0	 4.000000e+00	 2.962963e-01	 1.053349e+01
0	 4.000000e+00	 3.703704e-01	 1.054071e+01
0	 4.074074e+00	 0.000000e+00	 1.051103e+01
0	 4.074074e+00	 7.407407e-02	 1.050930e+01
0	 4.074074e+00	 1.481481e-01	 1.050940e+01
0	 4.074074e+00	 2.222222e-01	 1.051139e+01
0	 4.074074e+00	 2.962963e-01	 1.051532e+01
0	 4.074074e+00	 3.703704e-01	 1.052127e+01
0	 3.703704e+00	 3.703704e-01	 1.064054e+01
0	 3.703704e+00	 4.444444e-01	 1.065184e+01
0	 3.703704e+00	 5.185185e-01	 1.066361e+01
0	 3.703704e+00	 5.925926e-01	 1.067604e+01
0	 3.703704e+00	 6.666667e-01	 1.068932e+01
0	 3.703704e+00	 7.407407e-01	 1.070365e+01
0	 3.777778e+00	 3.703704e-01	 1.061261e+01
0	 3.777778e+00	 4.444444e-01	 1.062403e+01
0	 3.777778e+00	 5.185185e-01	 1.063568e+01
0	 3.777778e+00	 5.925926e-01	 1.064778e+01
0	 3.777778e+00	 6.666667e-01	 1.066054e+01
0	 3.777778e+00	 7.407407e-01	 1.067416e+01
0	 3.851852e+00	 3.703704e-01	 1.058655e+01
0	 3.851852e+00	 4.444444e-01	 1.059732e+01
0	 3.851852e+00	 5.185185e-01	 1.060836e+01
0	 3.851852e+00	 5.925926e-01	 1.061987e+01
0	 3.851852e+00	 6.666667e-01	 1.063208e+01
0	 3.851852e+00	 7.407407e-01	 1.064521e+01
0	 3.925926e+00	 3.703704e-01	 1.056252e+01
0	 3.925926e+00	 4.444444e-01	 1.057220e+01
0	 3.925926e+00	 5.185185e-01	 1.058231e+01
0	 3.925926e+00	 5.925926e-01	 1.059307e+01
0	 3.925926e+00	 6.666667e-01	 1.060471e+01
0	 3.925926e+00	 7.407407e-01	 1.061744e+01
0	 4.000000e+00	 3.703704e-01	 1.054071e+01
0	 4.000000e+00	 4.444444e-01	 1.054913e+01
0	 4.000000e+00	 5.185185e-01	 1.055821e+01
0	 4.000000e+00	 5.925926e-01	 1.056816e+01
0	 4.000000e+00	 6.666667e-01	 1.057918e+01
0	 4.000000e+00	 7.407407e-01	 1.059150e+01
0	 4.074074e+00	 3.703704e-01	 1.052127e+01
0	 4.074074e+00	 4.444444e-01	 1.052859e+01
0	 4.074074e+00	 5.185185e-01	 1.053674e+01
0	 4.074074e+00	 5.925926e-01	 1.054589e+01
0	 4.074074e+00	 6.666667e-01	 1.055626e+01
0	 4.074074e+00	 7.407407e-01	 1.056801e+01
0	 3.703704e+00	 7.407407e-01	 1.070365e+01
0	 3.703704e+00	 8.148148e-01	 1.071814e+01
0	 3.703704e+00	 8.888889e-01	 1.073200e+01
0	 3.703704e+00	 9.629630e-01	 1.074561e+01
0	 3.703704e+00	 1.037037e+00	 1.075932e+01
0	 3.703704e+00	 1.111111e+00	 1.077349e+01
0	 3.777778e+00	 7.407407e-01	 1.067416e+01
0	 3.777778e+00	 8.148148e-01	 1.068798e+01
0	 3.777778e+00	 8.888889e-01	 1.070138e+01
0	 3.777778e+00	 9.629630e-01	 1.071463e+01
0	 3.777778e+00	 1.037037e+00	 1.072801e+01
0	 3.777778e+00	 1.111111e+00	 1.074181e+01
0	 3.851852e+00	 7.407407e-01	 1.064521e+01
0	 3.851852e+00	 8.148148e-01	 1.065864e+01
0	 3.851852e+00	 8.888889e-01	 1.067177e+01
0	 3.851852e+00	 9.629630e-01	 1.068481e+01
0	 3.851852e+00	 1.037037e+00	 1.069798e+01
0	 3.851852e+00	 1.111111e+00	 1.071150e+01
0	 3.925926e+00	 7.407407e-01	 1.061744e+01
0	 3.925926e+00	 8.148148e-01	 1.063060e+01
0	 3.925926e+00	 8.888889e-01	 1.064352e+01
0	 3.925926e+00	 9.629630e-01	 1.065637e+01
0	 3.925926e+00	 1.037037e+00	 1.066933e+01
0	 3.925926e+00	 1.111111e+00	 1.068259e+01
0	 4.000000e+00	 7.407407e-01	 1.059150e+01
0	 4.000000e+00	 8.148148e-01	 1.060435e+01
0	 4.000000e+00	 8.888889e-01	 1.061697e+01
0	 4.000000e+00	 9.629630e-01	 1.062953e+01
0	 4.000000e+00	 1.037037e+00	 1.064219e+01
0	 4.000000e+00	 1.111111e+00	 1.065511e+01
0	 4.074074e+00	 7.407407e-01	 1.056801e+01
0	 4.074074e+00	 8.148148e-01	 1.058036e+01
0	 4.074074e+00	 8.888889e-01	 1.059247e+01
0	 4.074074e+00	 9.629630e-01	 1.060451e+01
0	 4.074074e+00	 1.037037e+00	 1.061666e+01
0	 4.074074e+00	 1.111111e+00	 1.062908e+01
0	 3.703704e+00	 1.111111e+00	 1.077349e+01
0	 3.703704e+00	 1.185185e+00	 1.078719e+01
0	 3.703704e+00	 1.259259e+00	 1.079937e+01
0	 3.703704e+00	 1.333333e+00	 1.081024e+01
0	 3.703704e+00	 1.407407e+00	 1.082003e+01
0	 3.703704e+00	 1.481481e+00	 1.082895e+01
0	 3.777778e+00	 1.111111e+00	 1.074181e+01
0	 3.777778e+00	 1.185185e+00	 1.075514e+01
0	 3.777778e+00	 1.259259e+00	 1.076707e+01
0	 3.777778e+00	 1.333333e+00	 1.077783e+01
0	 3.777778e+00	 1.407407e+00	 1.078764e+01
0	 3.777778e+00	 1.481481e+00	 1.079672e+01
0	 3.851852e+00	 1.111111e+00	 1.071150e+01
0	 3.851852e+00	 1.185185e+00	 1.072455e+01
0	 3.851852e+00	 1.259259e+00	 1.073631e+01
0	 3.851852e+00	 1.333333e+00	 1.074699e+01
0	 3.851852e+00	 1.407407e+00	 1.075682e+01
0	 3.851852e+00	 1.481481e+00	 1.076601e+01
0	 3.925926e+00	 1.111111e+00	 1.068259e+01
0	 3.925926e+00	 1.185185e+00	 1.069539e+01
0	 3.925926e+00	 1.259259e+00	 1.070698e+01
0	 3.925926e+00	 1.333333e+00	 1.071758e+01
0	 3.925926e+00	 1.407407e+00	 1.072741e+01
0	 3.925926e+00	 1.481481e+00	 1.073667e+01
0	 4.000000e+00	 1.111111e+00	 1.065511e+01
0	 4.000000e+00	 1.185185e+00	 1.066760e+01
0	 4.000000e+00	 1.259259e+00	 1.067899e+01
0	 4.000000e+00	 1.333333e+00	 1.068948e+01
0	 4.000000e+00	 1.407407e+00	 1.069927e+01
0	 4.000000e+00	 1.481481e+00	 1.070855e+01
0	 4.074074e+00	 1.111111e+00	 1.062908e+01
0	 4.074074e+00	 1.185185e+00	 1.064115e+01
0	 4.074074e+00	 1.259259e+00	 1.065225e+01
0	 4.074074e+00	 1.333333e+00	 1.066256e+01
0	 4.074074e+00	 1.407407e+00	 1.067225e+01
0	 4.074074e+00	 1.481481e+00	 1.068150e+01
0	 3.703704e+00	 1.481481e+00	 1.082895e+01
0	 3.703704e+00	 1.555556e+00	 1.083655e+01
0	 3.703704e+00	 1.629630e+00	 1.084228e+01
0	 3.703704e+00	 1.703704e+00	 1.084623e+01
0	 3.703704e+00	 1.777778e+00	 1.084847e+01
0	 3.703704e+00	 1.851852e+00	 1.084908e+01
0	 3.777778e+00	 1.481481e+00	 1.079672e+01
0	 3.777778e+00	 1.555556e+00	 1.080459e+01
0	 3.777778e+00	 1.629630e+00	 1.081069e+01
0	 3.777778e+00	 1.703704e+00	 1.081511e+01
0	 3.777778e+00	 1.777778e+00	 1.081796e+01
0	 3.777778e+00	 1.851852e+00	 1.081934e+01
0	 3.851852e+00	 1.481481e+00	 1.076601e+01
0	 3.851852e+00	 1.555556e+00	 1.077409e+01
0	 3.851852e+00	 1.629630e+00	 1.078050e+01
0	 3.851852e+00	 1.703704e+00	 1.078535e+01
0	 3.851852e+00	 1.777778e+00	 1.078875e+01
0	 3.851852e+00	 1.851852e+00	 1.079082e+01
0	 3.925926e+00	 1.481481e+00	 1.073667e+01
0	 3.925926e+00	 1.555556e+00	 1.074490e+01
0	 3.925926e+00	 1.629630e+00	 1.075157e+01
0	 3.925926e+00	 1.703704e+00	 1.075680e+01
0	 3.925926e+00	 1.777778e+00	 1.076070e+01
0	 3.925926e+00	 1.851852e+00	 1.076339e+01
0	 4.000000e+00	 1.481481e+00	 1.070855e+01
0	 4.000000e+00	 1.555556e+00	 1.071688e+01
0	 4.000000e+00	 1.629630e+00	 1.072377e+01
0	 4.000000e+00	 1.703704e+00	 1.072932e+01
0	 4.000000e+00	 1.777778e+00	 1.073367e+01
0	 4.000000e+00	 1.851852e+00	 1.073692e+01
0	 4.074074e+00	 1.481481e+00	 1.068150e+01
0	 4.074074e+00	 1.555556e+00	 1.068989e+01
0	 4.074074e+00	 1.629630e+00	 1.069695e+01
0	 4.074074e+00	 1.703704e+00	 1.070279e+01
0	 4.074074e+00	 1.777778e+00	 1.070752e+01
0	 4.074074e+00	 1.851852e+00	 1.071126e+01
0	 3.703704e+00	 1.851852e+00	 1.084908e+01
0	 3.703704e+00	 1.925926e+00	 1.084807e+01
0	 3.703704e+00	 2.000000e+00	 1.084542e+01
0	 3.703704e+00	 2.074074e+00	 1.084114e+01
0	 3.703704e+00	 2.148148e+00	 1.083528e+01
0	 3.703704e+00	 2.222222e+00	 1.082786e+01
0	 3.777778e+00	 1.851852e+00	 1.081934e+01
0	 3.777778e+00	 1.925926e+00	 1.081925e+01
0	 3.777778e+00	 2.000000e+00	 1.081765e+01
0	 3.777778e+00	 2.074074e+00	 1.081455e+01
0	 3.777778e+00	 2.148148e+00	 1.080997e+01
0	 3.777778e+00	 2.222222e+00	 1.080392e+01
0	 3.851852e+00	 1.851852e+00	 1.079082e+01
0	 3.851852e+00	 1.925926e+00	 1.079155e+01
0	 3.851852e+00	 2.000000e+00	 1.079086e+01
0	 3.851852e+00	 2.074074e+00	 1.078876e+01
0	 3.851852e+00	 2.148148e+00	 1.078525e+01
0	 3.851852e+00	 2.222222e+00	 1.078034e+01
0	 3.925926e+00	 1.851852e+00	 1.076339e+01
0	 3.925926e+00	 1.925926e+00	 1.076484e+01
0	 3.925926e+00	 2.000000e+00	 1.076494e+01
0	 3.925926e+00	 2.074074e+00	 1.076368e+01
0	 3.925926e+00	 2.148148e+00	 1.076107e+01
0	 3.925926e+00	 2.222222e+00	 1.075712e+01
0	 4.000000e+00	 1.851852e+00	 1.073692e+01
0	 4.000000e+00	 1.925926e+00	 1.073900e+01
0	 4.000000e+00	 2.000000e+00	 1.073977e+01
0	 4.000000e+00	 2.074074e+00	 1.073923e+01
0	 4.000000e+00	 2.148148e+00	 1.073740e+01
0	 4.000000e+00	 2.222222e+00	 1.073427e+01
0	 4.074074e+00	 1.851852e+00	 1.071126e+01
0	 4.074074e+00	 1.925926e+00	 1.071389e+01
0	 4.074074e+00	 2.000000e+00	 1.071525e+01
0	 4.074074e+00	 2.074074e+00	 1.071534e+01
0	 4.074074e+00	 2.148148e+00	 1.071419e+01
0	 4.074074e+00	 2.222222e+00	 1.071181e+01
0	 3.703704e+00	 2.222222e+00	 1.082786e+01
0	 3.703704e+00	 2.296296e+00	 1.081911e+01
0	 3.703704e+00	 2.370370e+00	 1.080921e+01
0	 3.703704e+00	 2.444444e+00	 1.079807e+01
0	 3.703704e+00	 2.518519e+00	 1.078561e+01
0	 3.703704e+00	 2.592593e+00	 1.077175e+01
0	 3.777778e+00	 2.222222e+00	 1.080392e+01
0	 3.777778e+00	 2.296296e+00	 1.079656e+01
0	 3.777778e+00	 2.370370e+00	 1.078801e+01
0	 3.777778e+00	 2.444444e+00	 1.077820e+01
0	 3.777778e+00	 2.518519e+00	 1.076710e+01
0	 3.777778e+00	 2.592593e+00	 1.075464e+01
0	 3.851852e+00	 2.222222e+00	 1.078034e+01
0	 3.851852e+00	 2.296296e+00	 1.077415e+01
0	 3.851852e+00	 2.370370e+00	 1.076677e+01
0	 3.851852e+00	 2.444444e+00	 1.075819e+01
0	 3.851852e+00	 2.518519e+00	 1.074836e+01
0	 3.851852e+00	 2.592593e+00	 1.073725e+01
0	 3.925926e+00	 2.222222e+00	 1.075712e+01
0	 3.925926e+00	 2.296296e+00	 1.075193e+01
0	 3.925926e+00	 2.370370e+00	 1.074561e+01
0	 3.925926e+00	 2.444444e+00	 1.073814e+01
0	 3.925926e+00	 2.518519e+00	 1.072950e+01
0	 3.925926e+00	 2.592593e+00	 1.071967e+01
0	 4.000000e+00	 2.222222e+00	 1.073427e+01
0	 4.000000e+00	 2.296296e+00	 1.072997e+01
0	 4.000000e+00	 2.370370e+00	 1.072461e+01
0	 4.000000e+00	 2.444444e+00	 1.071817e+01
0	 4.000000e+00	 2.518519e+00	 1.071064e+01
0	 4.000000e+00	 2.592593e+00	 1.070202e+01
0	 4.074074e+00	 2.222222e+00	 1.071181e+01
0	 4.074074e+00	 2.296296e+00	 1.070834e+01
0	 4.074074e+00	 2.370370e+00	 1.070387e+01
0	 4.074074e+00	 2.444444e+00	 1.069839e+01
0	 4.074074e+00	 2.518519e+00	 1.069190e+01
0	 4.074074e+00	 2.592593e+00	 1.068437e+01
0	 3.703704e+00	 2.592593e+00	 1.077175e+01
0	 3.703704e+00	 2.666667e+00	 1.075694e+01
0	 3.703704e+00	 2.740741e+00	 1.074161e+01
0	 3.703704e+00	 2.814815e+00	 1.072570e+01
0	 3.703704e+00	 2.888889e+00	 1.070914e+01
0	 3.703704e+00	 2.962963e+00	 1.069186e+01
0	 3.777778e+00	 2.592593e+00	 1.075464e+01
0	 3.777778e+00	 2.666667e+00	 1.074125e+01
0	 3.777778e+00	 2.740741e+00	 1.072735e+01
0	 3.777778e+00	 2.814815e+00	 1.071285e+01
0	 3.777778e+00	 2.888889e+00	 1.069768e+01
0	 3.777778e+00	 2.962963e+00	 1.068179e+01
0	 3.851852e+00	 2.592593e+00	 1.073725e+01
0	 3.851852e+00	 2.666667e+00	 1.072524e+01
0	 3.851852e+00	 2.740741e+00	 1.071268e+01
0	 3.851852e+00	 2.814815e+00	 1.069949e+01
0	 3.851852e+00	 2.888889e+00	 1.068561e+01
0	 3.851852e+00	 2.962963e+00	 1.067096e+01
0	 3.925926e+00	 2.592593e+00	 1.071967e+01
0	 3.925926e+00	 2.666667e+00	 1.070897e+01
0	 3.925926e+00	 2.740741e+00	 1.069767e+01
0	 3.925926e+00	 2.814815e+00	 1.068570e+01
0	 3.925926e+00	 2.888889e+00	 1.067300e+01
0	 3.925926e+00	 2.962963e+00	 1.065950e+01
0	 4.000000e+00	 2.592593e+00	 1.070202e+01
0	 4.000000e+00	 2.666667e+00	 1.069253e+01
0	 4.000000e+00	 2.740741e+00	 1.068240e+01
0	 4.000000e+00	 2.814815e+00	 1.067157e+01
0	 4.000000e+00	 2.888889e+00	 1.065996e+01
0	 4.000000e+00	 2.962963e+00	 1.064752e+01
0	 4.074074e+00	 2.592593e+00	 1.068437e+01
0	 4.074074e+00	 2.666667e+00	 1.067600e+01
0	 4.074074e+00	 2.740741e+00	 1.066695e+01
0	 4.074074e+00	 2.814815e+00	 1.065715e+01
0	 4.074074e+00	 2.888889e+00	 1.064656e+01
0	 4.074074e+00	 2.962963e+00	 1.063513e+01
0	 3.703704e+00	 2.962963e+00	 1.069186e+01
0	 3.703704e+00	 3.037037e+00	 1.067415e+01
0	 3.703704e+00	 3.111111e+00	 1.065631e+01
0	 3.703704e+00	 3.185185e+00	 1.063824e+01
0	 3.703704e+00	 3.259259e+00	 1.061987e+01
0	 3.703704e+00	 3.333333e+00	 1.060112e+01
0	 3.777778e+00	 2.962963e+00	 1.068179e+01
0	 3.777778e+00	 3.037037e+00	 1.066541e+01
0	 3.777778e+00	 3.111111e+00	 1.064881e+01
0	 3.777778e+00	 3.185185e+00	 1.063193e+01
0	 3.777778e+00	 3.259259e+00	 1.061469e+01
0	 3.777778e+00	 3.333333e+00	 1.059702e+01
0	 3.851852e+00	 2.962963e+00	 1.067096e+01
0	 3.851852e+00	 3.037037e+00	 1.065579e+01
0	 3.851852e+00	 3.111111e+00	 1.064036e+01
0	 3.851852e+00	 3.185185e+00	 1.062460e+01
0	 3.851852e+00	 3.259259e+00	 1.060845e+01
0	 3.851852e+00	 3.333333e+00	 1.059187e+01
0	 3.925926e+00	 2.962963e+00	 1.065950e+01
0	 3.925926e+00	 3.037037e+00	 1.064545e+01
0	 3.925926e+00	 3.111111e+00	 1.063110e+01
0	 3.925926e+00	 3.185185e+00	 1.061642e+01
0	 3.925926e+00	 3.259259e+00	 1.060134e+01
0	 3.925926e+00	 3.333333e+00	 1.058582e+01
0	 4.000000e+00	 2.962963e+00	 1.064752e+01
0	 4.000000e+00	 3.037037e+00	 1.063451e+01
0	 4.000000e+00	 3.111111e+00	 1.062120e+01
0	 4.000000e+00	 3.185185e+00	 1.060755e+01
0	 4.000000e+00	 3.259259e+00	 1.059351e+01
0	 4.000000e+00	 3.333333e+00	 1.057902e+01
0	 4.074074e+00	 2.962963e+00	 1.063513e+01
0	 4.074074e+00	 3.037037e+00	 1.062313e+01
0	 4.074074e+00	 3.111111e+00	 1.061082e+01
0	 4.074074e+00	 3.185185e+00	 1.059817e+01
0	 4.074074e+00	 3.259259e+00	 1.058511e+01
0	 4.074074e+00	 3.333333e+00	 1.057161e+01
0	 3.703704e+00	 3.333333e+00	 1.060112e+01
0	 3.703704e+00	 3.407407e+00	 1.058228e+01
0	 3.703704e+00	 3.481481e+00	 1.056367e+01
0	 3.703704e+00	 3.555556e+00	 1.054523e+01
0	 3.703704e+00	 3.629630e+00	 1.052691e+01
0	 3.703704e+00	 3.703704e+00	 1.050866e+01
0	 3.777778e+00	 3.333333e+00	 1.059702e+01
0	 3.777778e+00	 3.407407e+00	 1.057923e+01
0	 3.777778e+00	 3.481481e+00	 1.056162e+01
0	 3.777778e+00	 3.555556e+00	 1.054414e+01
0	 3.777778e+00	 3.629630e+00	 1.052672e+01
0	 3.777778e+00	 3.703704e+00	 1.050931e+01
0	 3.851852e+00	 3.333333e+00	 1.059187e+01
0	 3.851852e+00	 3.407407e+00	 1.057513e+01
0	 3.851852e+00	 3.481481e+00	 1.055852e+01
0	 3.851852e+00	 3.555556e+00	 1.054196e+01
0	 3.851852e+00	 3.629630e+00	 1.052542e+01
0	 3.851852e+00	 3.703704e+00	 1.050882e+01
0	 3.925926e+00	 3.333333e+00	 1.058582e+01
0	 3.925926e+00	 3.407407e+00	 1.057012e+01
0	 3.925926e+00	 3.481481e+00	 1.055447e+01
0	 3.925926e+00	 3.555556e+00	 1.053883e+01
0	 3.925926e+00	 3.629630e+00	 1.052312e+01
0	 3.925926e+00	 3.703704e+00	 1.050731e+01
0	 4.000000e+00	 3.333333e+00	 1.057902e+01
0	 4.000000e+00	 3.407407e+00	 1.056432e+01
0	 4.000000e+00	 3.481481e+00	 1.054961e+01
0	 4.000000e+00	 3.555556e+00	 1.053484e+01
0	 4.000000e+00	 3.629630e+00	 1.051995e+01
0	 4.000000e+00	 3.703704e+00	 1.050490e+01
0	 4.074074e+00	 3.333333e+00	 1.057161e+01
0	 4.074074e+00	 3.407407e+00	 1.055786e+01
0	 4.074074e+00	 3.481481e+00	 1.054404e+01
0	 4.074074e+00	 3.555556e+00	 1.053011e+01
0	 4.074074e+00	 3.629630e+00	 1.051601e+01
0	 4.074074e+00	 3.703704e+00	 1.050171e+01
0	 3.703704e+00	 3.703704e+00	 1.050866e+01
0	 3.703704e+00	 3.777778e+00	 1.049062e+01
0	 3.703704e+00	 3.851852e+00	 1.047294e+01
0	 3.703704e+00	 3.925926e+00	 1.045558e+01
0	 3.703704e+00	 4.000000e+00	 1.043850e+01
0	 3.703704e+00	 4.074074e+00	 1.042164e+01
0	 3.777778e+00	 3.703704e+00	 1.050931e+01
0	 3.777778e+00	 3.777778e+00	 1.049204e+01
0	 3.777778e+00	 3.851852e+00	 1.047508e+01
0	 3.777778e+00	 3.925926e+00	 1.045837e+01
0	 3.777778e+00	 4.000000e+00	 1.044188e+01
0	 3.777778e+00	 4.074074e+00	 1.042558e+01
0	 3.851852e+00	 3.703704e+00	 1.050882e+01
0	 3.851852e+00	 3.777778e+00	 1.049231e+01
0	 3.851852e+00	 3.851852e+00	 1.047604e+01
0	 3.851852e+00	 3.925926e+00	 1.045999e+01
0	 3.851852e+00	 4.000000e+00	 1.044412e+01
0	 3.851852e+00	 4.074074e+00	 1.042838e+01
0	 3.925926e+00	 3.703704e+00	 1.050731e+01
0	 3.925926e+00	 3.777778e+00	 1.049153e+01
0	 3.925926e+00	 3.851852e+00	 1.047596e+01
0	 3.925926e+00	 3.925926e+00	 1.046057e+01
0	 3.925926e+00	 4.000000e+00	 1.044531e+01
0	 3.925926e+00	 4.074074e+00	 1.043017e+01
0	 4.000000e+00	 3.703704e+00	 1.050490e+01
0	 4.000000e+00	 3.777778e+00	 1.048984e+01
0	 4.000000e+00	 3.851852e+00	 1.047496e+01
0	 4.000000e+00	 3.925926e+00	 1.046022e+01
0	 4.000000e+00	 4.000000e+00	 1.044559e+01
0	 4.000000e+00	 4.074074e+00	 1.043104e+01
0	 4.074074e+00	 3.703704e+00	 1.050171e+01
0	 4.074074e+00	 3.777778e+00	 1.048736e+01
0	 4.074074e+00	 3.851852e+00	 1.047317e+01
0	 4.074074e+00	 3.925926e+00	 1.045909e+01
0	 4.074074e+00	 4.000000e+00	 1.044508e+01
0	 4.074074e+00	 4.074074e+00	 1.043112e+01
0	 3.703704e+00	 4.074074e+00	 1.042164e+01
0	 3.703704e+00	 4.148148e+00	 1.040513e+01
0	 3.703704e+00	 4.222222e+00	 1.038908e+01
0	 3.703704e+00	 4.296296e+00	 1.037347e+01
0	 3.703704e+00	 4.370370e+00	 1.035828e+01
0	 3.703704e+00	 4.444444e+00	 1.034347e+01
0	 3.777778e+00	 4.074074e+00	 1.042558e+01
0	 3.777778e+00	 4.148148e+00	 1.040957e+01
0	 3.777778e+00	 4.222222e+00	 1.039399e+01
0	 3.777778e+00	 4.296296e+00	 1.037880e+01
0	 3.777778e+00	 4.370370e+00	 1.036399e+01
0	 3.777778e+00	 4.444444e+00	 1.034951e+01
0	 3.851852e+00	 4.074074e+00	 1.042838e+01
0	 3.851852e+00	 4.148148e+00	 1.041291e+01
0	 3.851852e+00	 4.222222e+00	 1.039781e+01
0	 3.851852e+00	 4.296296e+00	 1.038307e+01
0	 3.851852e+00	 4.370370e+00	 1.036865e+01
0	 3.851852e+00	 4.444444e+00	 1.035453e+01
0	 3.925926e+00	 4.074074e+00	 1.043017e+01
0	 3.925926e+00	 4.148148e+00	 1.041524e+01
0	 3.925926e+00	 4.222222e+00	 1.040065e+01
0	 3.925926e+00	 4.296296e+00	 1.038637e+01
0	 3.925926e+00	 4.370370e+00	 1.037236e+01
0	 3.925926e+00	 4.444444e+00	 1.035859e+01
0	 4.000000e+00	 4.074074e+00	 1.043104e+01
0	 4.000000e+00	 4.148148e+00	 1.041668e+01
0	 4.000000e+00	 4.222222e+00	 1.040259e+01
0	 4.000000e+00	 4.296296e+00	 1.038877e+01
0	 4.000000e+00	 4.370370e+00	 1.037518e+01
0	 4.000000e+00	 4.444444e+00	 1.036178e+01
0	 4.074074e+00	 4.074074e+00	 1.043112e+01
0	 4.074074e+00	 4.148148e+00	 1.041730e+01
0	 4.074074e+00	 4.222222e+00	 1.040372e+01
0	 4.074074e+00	 4.296296e+00	 1.039036e+01
0	 4.074074e+00	 4.370370e+00	 1.037719e+01
0	 4.074074e+00	 4.444444e+00	 1.036418e+01
0	 3.703704e+00	 4.444444e+00	 1.034347e+01
0	 3.703704e+00	 4.518519e+00	 1.032909e+01
0	 3.703704e+00	 4.592593e+00	 1.031516e+01
0	 3.703704e+00	 4.666667e+00	 1.030166e+01
0	 3.703704e+00	 4.740741e+00	 1.028860e+01
0	 3.703704e+00	 4.814815e+00	 1.027594e+01
0	 3.777778e+00	 4.444444e+00	 1.034951e+01
0	 3.777778e+00	 4.518519e+00	 1.033542e+01
0	 3.777778e+00	 4.592593e+00	 1.032174e+01
0	 3.777778e+00	 4.666667e+00	 1.030847e+01
0	 3.777778e+00	 4.740741e+00	 1.029558e+01
0	 3.777778e+00	 4.814815e+00	 1.028307e+01
0	 3.851852e+00	 4.444444e+00	 1.035453e+01
0	 3.851852e+00	 4.518519e+00	 1.034074e+01
0	 3.851852e+00	 4.592593e+00	 1.032734e+01
0	 3.851852e+00	 4.666667e+00	 1.031431e+01
0	 3.851852e+00	 4.740741e+00	 1.030163e+01
0	 3.851852e+00	 4.814815e+00	 1.028930e+01
0	 3.925926e+00	 4.444444e+00	 1.035859e+01
0	 3.925926e+00	 4.518519e+00	 1.034513e+01
0	 3.925926e+00	 4.592593e+00	 1.033202e+01
0	 3.925926e+00	 4.666667e+00	 1.031925e+01
0	 3.925926e+00	 4.740741e+00	 1.030681e+01
0	 3.925926e+00	 4.814815e+00	 1.029469e+01
0	 4.000000e+00	 4.444444e+00	 1.036178e+01
0	 4.000000e+00	 4.518519e+00	 1.034865e+01
0	 4.000000e+00	 4.592593e+00	 1.033585e+01
0	 4.000000e+00	 4.666667e+00	 1.032337e+01
0	 4.000000e+00	 4.740741e+00	 1.031119e+01
0	 4.000000e+00	 4.814815e+00	 1.029930e+01
0	 4.074074e+00	 4.444444e+00	 1.036418e+01
0	 4.074074e+00	 4.518519e+00	 1.035140e+01
0	 4.074074e+00	 4.592593e+00	 1.033893e+01
0	 4.074074e+00	 4.666667e+00	 1.032674e+01
0	 4.074074e+00	 4.740741e+00	 1.031483e+01
0	 4.074074e+00	 4.814815e+00	 1.030318e+01
0	 3.703704e+00	 4.814815e+00	 1.027594e+01
0	 3.703704e+00	 4.888889e+00	 1.026370e+01
0	 3.703704e+00	 4.962963e+00	 1.025189e+01
0	 3.703704e+00	 5.037037e+00	 1.024051e+01
0	 3.703704e+00	 5.111111e+00	 1.022956e+01
0	 3.703704e+00	 5.185185e+00	 1.021902e+01
0	 3.777778e+00	 4.814815e+00	 1.028307e+01
0	 3.777778e+00	 4.888889e+00	 1.027095e+01
0	 3.777778e+00	 4.962963e+00	 1.025925e+01
0	 3.777778e+00	 5.037037e+00	 1.024795e+01
0	 3.777778e+00	 5.111111e+00	 1.023705e+01
0	 3.777778e+00	 5.185185e+00	 1.022653e+01
0	 3.851852e+00	 4.814815e+00	 1.028930e+01
0	 3.851852e+00	 4.888889e+00	 1.027734e+01
0	 3.851852e+00	 4.962963e+00	 1.026576e+01
0	 3.851852e+00	 5.037037e+00	 1.025457e+01
0	 3.851852e+00	 5.111111e+00	 1.024374e+01
0	 3.851852e+00	 5.185185e+00	 1.023328e+01
0	 3.925926e+00	 4.814815e+00	 1.029469e+01
0	 3.925926e+00	 4.888889e+00	 1.028291e+01
0	 3.925926e+00	 4.962963e+00	 1.027149e+01
0	 3.925926e+00	 5.037037e+00	 1.026042e+01
0	 3.925926e+00	 5.111111e+00	 1.024970e+01
0	 3.925926e+00	 5.185185e+00	 1.023930e+01
0	 4.000000e+00	 4.814815e+00	 1.029930e+01
0	 4.000000e+00	 4.888889e+00	 1.028771e+01
0	 4.000000e+00	 4.962963e+00	 1.027647e+01
0	 4.000000e+00	 5.037037e+00	 1.026555e+01
0	 4.000000e+00	 5.111111e+00	 1.025494e+01
0	 4.000000e+00	 5.185185e+00	 1.024464e+01
0	 4.074074e+00	 4.814815e+00	 1.030318e+01
0	 4.074074e+00	 4.888889e+00	 1.029181e+01
0	 4.074074e+00	 4.962963e+00	 1.028075e+01
0	 4.074074e+00	 5.037037e+00	 1.026999e+01
0	 4.074074e+00	 5.111111e+00	 1.025953e+01
0	 4.074074e+00	 5.185185e+00	 1.024934e+01
0	 3.703704e+00	 5.185185e+00	 1.021902e+01
0	 3.703704e+00	 5.259259e+00	 1.020888e+01
0	 3.703704e+00	 5.333333e+00	 1.019911e+01
0	 3.703704e+00	 5.407407e+00	 1.018973e+01
0	 3.703704e+00	 5.481481e+00	 1.018072e+01
0	 3.703704e+00	 5.555556e+00	 1.017208e+01
0	 3.777778e+00	 5.185185e+00	 1.022653e+01
0	 3.777778e+00	 5.259259e+00	 1.021639e+01
0	 3.777778e+00	 5.333333e+00	 1.020661e+01
0	 3.777778e+00	 5.407407e+00	 1.019720e+01
0	 3.777778e+00	 5.481481e+00	 1.018814e+01
0	 3.777778e+00	 5.555556e+00	 1.017944e+01
0	 3.851852e+00	 5.185185e+00	 1.023328e+01
0	 3.851852e+00	 5.259259e+00	 1.022317e+01
0	 3.851852e+00	 5.333333e+00	 1.021340e+01
0	 3.851852e+00	 5.407407e+00	 1.020398e+01
0	 3.851852e+00	 5.481481e+00	 1.019490e+01
0	 3.851852e+00	 5.555556e+00	 1.018616e+01
0	 3.925926e+00	 5.185185e+00	 1.023930e+01
0	 3.925926e+00	 5.259259e+00	 1.022924e+01
0	 3.925926e+00	 5.333333e+00	 1.021951e+01
0	 3.925926e+00	 5.407407e+00	 1.021011e+01
0	 3.925926e+00	 5.481481e+00	 1.020104e+01
0	 3.925926e+00	 5.555556e+00	 1.019229e+01
0	 4.000000e+00	 5.185185e+00	 1.024464e+01
0	 4.000000e+00	 5.259259e+00	 1.023466e+01
0	 4.000000e+00	 5.333333e+00	 1.022498e+01
0	 4.000000e+00	 5.407407e+00	 1.021562e+01
0	 4.000000e+00	 5.481481e+00	 1.020658e+01
0	 4.000000e+00	 5.555556e+00	 1.019783e+01
0	 4.074074e+00	 5.185185e+00	 1.024934e+01
0	 4.074074e+00	 5.259259e+00	 1.023944e+01
0	 4.074074e+00	 5.333333e+00	 1.022985e+01
0	 4.074074e+00	 5.407407e+00	 1.022055e+01
0	 4.074074e+00	 5.481481e+00	 1.021154e+01
0	 4.074074e+00	 5.555556e+00	 1.020282e+01
0	 3.703704e+00	 5.555556e+00	 1.017208e+01
0	 3.703704e+00	 5.629630e+00	 1.016379e+01
0	 3.703704e+00	 5.703704e+00	 1.015583e+01
0	 3.703704e+00	 5.777778e+00	 1.014820e+01
0	 3.703704e+00	 5.851852e+00	 1.014089e+01
0	 3.703704e+00	 5.925926e+00	 1.013392e+01
0	 3.777778e+00	 5.555556e+00	 1.017944e+01
0	 3.777778e+00	 5.629630e+00	 1.017107e+01
0	 3.777778e+00	 5.703704e+00	 1.016302e+01
0	 3.777778e+00	 5.777778e+00	 1.015529e+01
0	 3.777778e+00	 5.851852e+00	 1.014788e+01
0	 3.777778e+00	 5.925926e+00	 1.014079e+01
0	 3.851852e+00	 5.555556e+00	 1.018616e+01
0	 3.851852e+00	 5.629630e+00	 1.017775e+01
0	 3.851852e+00	 5.703704e+00	 1.016964e+01
0	 3.851852e+00	 5.777778e+00	 1.016184e+01
0	 3.851852e+00	 5.851852e+00	 1.015434e+01
0	 3.851852e+00	 5.925926e+00	 1.014715e+01
0	 3.925926e+00	 5.555556e+00	 1.019229e+01
0	 3.925926e+00	 5.629630e+00	 1.018384e+01
0	 3.925926e+00	 5.703704e+00	 1.017569e+01
0	 3.925926e+00	 5.777778e+00	 1.016784e+01
0	 3.925926e+00	 5.851852e+00	 1.016028e+01
0	 3.925926e+00	 5.925926e+00	 1.015301e+01
0	 4.000000e+00	 5.555556e+00	 1.019783e+01
0	 4.000000e+00	 5.629630e+00	 1.018938e+01
0	 4.000000e+00	 5.703704e+00	 1.018121e+01
0	 4.000000e+00	 5.777778e+00	 1.017333e+01
0	 4.000000e+00	 5.851852e+00	 1.016572e+01
0	 4.000000e+00	 5.925926e+00	 1.015840e+01
0	 4.074074e+00	 5.555556e+00	 1.020282e+01
0	 4.074074e+00	 5.629630e+00	 1.019438e+01
0	 4.074074e+00	 5.703704e+00	 1.018621e+01
0	 4.074074e+00	 5.777778e+00	 1.017832e+01
0	 4.074074e+00	 5.851852e+00	 1.017068e+01
0	 4.074074e+00	 5.925926e+00	 1.016332e+01
0	 3.703704e+00	 5.925926e+00	 1.013392e+01
0	 3.703704e+00	 6.000000e+00	 1.012725e+01
0	 3.703704e+00	 6.074074e+00	 1.012084e+01
0	 3.703704e+00	 6.148148e+00	 1.011471e+01
0	 3.703704e+00	 6.222222e+00	 1.010886e+01
0	 3.703704e+00	 6.296296e+00	 1.010328e+01
0	 3.777778e+00	 5.925926e+00	 1.014079e+01
0	 3.777778e+00	 6.000000e+00	 1.013399e+01
0	 3.777778e+00	 6.074074e+00	 1.012745e+01
0	 3.777778e+00	 6.148148e+00	 1.012118e+01
0	 3.777778e+00	 6.222222e+00	 1.011518e+01
0	 3.777778e+00	 6.296296e+00	 1.010945e+01
0	 3.851852e+00	 5.925926e+00	 1.014715e+01
0	 3.851852e+00	 6.000000e+00	 1.014024e+01
0	 3.851852e+00	 6.074074e+00	 1.013359e+01
0	 3.851852e+00	 6.148148e+00	 1.012720e+01
0	 3.851852e+00	 6.222222e+00	 1.012108e+01
0	 3.851852e+00	 6.296296e+00	 1.011522e+01
0	 3.925926e+00	 5.925926e+00	 1.015301e+01
0	 3.925926e+00	 6.000000e+00	 1.014602e+01
0	 3.925926e+00	 6.074074e+00	 1.013928e+01
0	 3.925926e+00	 6.148148e+00	 1.013279e+01
0	 3.925926e+00	 6.222222e+00	 1.012656e+01
0	 3.925926e+00	 6.296296e+00	 1.012058e+01
0	 4.000000e+00	 5.925926e+00	 1.015840e+01
0	 4.000000e+00	 6.000000e+00	 1.015134e+01
0	 4.000000e+00	 6.074074e+00	 1.014452e+01
0	 4.000000e+00	 6.148148e+00	 1.013795e+01
0	 4.000000e+00	 6.222222e+00	 1.013163e+01
0	 4.000000e+00	 6.296296e+00	 1.012555e+01
0	 4.074074e+00	 5.925926e+00	 1.016332e+01
0	 4.074074e+00	 6.000000e+00	 1.015621e+01
0	 4.074074e+00	 6.074074e+00	 1.014933e+01
0	 4.074074e+00	 6.148148e+00	 1.014270e+01
0	 4.074074e+00	 6.222222e+00	 1.013630e+01
0	 4.074074e+00	 6.296296e+00	 1.013015e+01
0	 3.703704e+00	 6.296296e+00	 1.010328e+01
0	 3.703704e+00	 6.370370e+00	 1.009795e+01
0	 3.703704e+00	 6.444444e+00	 1.009285e+01
0	 3.703704e+00	 6.518519e+00	 1.008796e+01
0	 3.703704e+00	 6.592593e+00	 1.008331e+01
0	 3.703704e+00	 6.666667e+00	 1.007888e+01
0	 3.777778e+00	 6.296296e+00	 1.010945e+01
0	 3.777778e+00	 6.370370e+00	 1.010397e+01
0	 3.777778e+00	 6.444444e+00	 1.009870e+01
0	 3.777778e+00	 6.518519e+00	 1.009366e+01
0	 3.777778e+00	 6.592593e+00	 1.008884e+01
0	 3.777778e+00	 6.666667e+00	 1.008424e+01
0	 3.851852e+00	 6.296296e+00	 1.011522e+01
0	 3.851852e+00	 6.370370e+00	 1.010959e+01
0	 3.851852e+00	 6.444444e+00	 1.010419e+01
0	 3.851852e+00	 6.518519e+00	 1.009900e+01
0	 3.851852e+00	 6.592593e+00	 1.009403e+01
0	 3.851852e+00	 6.666667e+00	 1.008928e+01
0	 3.925926e+00	 6.296296e+00	 1.012058e+01
0	 3.925926e+00	 6.370370e+00	 1.011484e+01
0	 3.925926e+00	 6.444444e+00	 1.010931e+01
0	 3.925926e+00	 6.518519e+00	 1.010399e+01
0	 3.925926e+00	 6.592593e+00	 1.009889e+01
0	 3.925926e+00	 6.666667e+00	 1.009401e+01
0	 4.000000e+00	 6.296296e+00	 1.012555e+01
0	 4.000000e+00	 6.370370e+00	 1.011971e+01
0	 4.000000e+00	 6.444444e+00	 1.011407e+01
0	 4.000000e+00	 6.518519e+00	 1.010864e+01
0	 4.000000e+00	 6.592593e+00	 1.010342e+01
0	 4.000000e+00	 6.666667e+00	 1.009842e+01
0	 4.074074e+00	 6.296296e+00	 1.013015e+01
0	 4.074074e+00	 6.370370e+00	 1.012421e+01
0	 4.074074e+00	 6.444444e+00	 1.011848e+01
0	 4.074074e+00	 6.518519e+00	 1.011296e+01
0	 4.074074e+00	 6.592593e+00	 1.010764e+01
0	 4.074074e+00	 6.666667e+00	 1.010252e+01
0	 3.703704e+00	 6.666667e+00	 1.007888e+01
0	 3.703704e+00	 6.740741e+00	 1.007466e+01
0	 3.703704e+00	 6.814815e+00	 1.007061e+01
0	 3.703704e+00	 6.888889e+00	 1.006674e+01
0	 3.703704e+00	 6.962963e+00	 1.006306e+01
0	 3.703704e+00	 7.037037e+00	 1.005956e+01
0	 3.777778e+00	 6.666667e+00	 1.008424e+01
0	 3.777778e+00	 6.740741e+00	 1.007985e+01
0	 3.777778e+00	 6.814815e+00	 1.007563e+01
0	 3.777778e+00	 6.888889e+00	 1.007159e+01
0	 3.777778e+00	 6.962963e+00	 1.006773e+01
0	 3.777778e+00	 7.037037e+00	 1.006406e+01
0	 3.851852e+00	 6.666667e+00	 1.008928e+01
0	 3.851852e+00	 6.740741e+00	 1.008473e+01
0	 3.851852e+00	 6.814815e+00	 1.008036e+01
0	 3.851852e+00	 6.888889e+00	 1.007617e+01
0	 3.851852e+00	 6.962963e+00	 1.007215e+01
0	 3.851852e+00	 7.037037e+00	 1.006832e+01
0	 3.925926e+00	 6.666667e+00	 1.009401e+01
0	 3.925926e+00	 6.740741e+00	 1.008932e+01
0	 3.925926e+00	 6.814815e+00	 1.008480e+01
0	 3.925926e+00	 6.888889e+00	 1.008047e+01
0	 3.925926e+00	 6.962963e+00	 1.007631e+01
0	 3.925926e+00	 7.037037e+00	 1.007233e+01
0	 4.000000e+00	 6.666667e+00	 1.009842e+01
0	 4.000000e+00	 6.740741e+00	 1.009361e+01
0	 4.000000e+00	 6.814815e+00	 1.008896e+01
0	 4.000000e+00	 6.888889e+00	 1.008450e+01
0	 4.000000e+00	 6.962963e+00	 1.008021e+01
0	 4.000000e+00	 7.037037e+00	 1.007610e+01
0	 4.074074e+00	 6.666667e+00	 1.010252e+01
0	 4.074074e+00	 6.740741e+00	 1.009760e+01
0	 4.074074e+00	 6.814815e+00	 1.009284e+01
0	 4.074074e+00	 6.888889e+00	 1.008826e+01
0	 4.074074e+00	 6.962963e+00	 1.008385e+01
0	 4.074074e+00	 7.037037e+00	 1.007962e+01
0	 3.703704e+00	 7.037037e+00	 1.005956e+01
0	 3.703704e+00	 7.111111e+00	 1.005622e+01
0	 3.703704e+00	 7.185185e+00	 1.005302e+01
0	 3.703704e+00	 7.259259e+00	 1.004996e+01
0	 3.703704e+00	 7.333333e+00	 1.004705e+01
0	 3.703704e+00	 7.407407e+00	 1.004428e+01
0	 3.777778e+00	 7.037037e+00	 1.006406e+01
0	 3.777778e+00	 7.111111e+00	 1.006055e+01
0	 3.777778e+00	 7.185185e+00	 1.005718e+01
0	 3.777778e+00	 7.259259e+00	 1.005395e+01
0	 3.777778e+00	 7.333333e+00	 1.005087e+01
0	 3.777778e+00	 7.407407e+00	 1.004793e+01
0	 3.851852e+00	 7.037037e+00	 1.006832e+01
0	 3.851852e+00	 7.111111e+00	 1.006465e+01
0	 3.851852e+00	 7.185185e+00	 1.006112e+01
0	 3.851852e+00	 7.259259e+00	 1.005773e+01
0	 3.851852e+00	 7.333333e+00	 1.005449e+01
0	 3.851852e+00	 7.407407e+00	 1.005140e+01
0	 3.925926e+00	 7.037037e+00	 1.007233e+01
0	 3.925926e+00	 7.111111e+00	 1.006851e+01
0	 3.925926e+00	 7.185185e+00	 1.006483e+01
0	 3.925926e+00	 7.259259e+00	 1.006130e+01
0	 3.925926e+00	 7.333333e+00	 1.005791e+01
0	 3.925926e+00	 7.407407e+00	 1.005467e+01
0	 4.000000e+00	 7.037037e+00	 1.007610e+01
0	 4.000000e+00	 7.111111e+00	 1.007214e+01
0	 4.000000e+00	 7.185185e+00	 1.006833e+01
0	 4.000000e+00	 7.259259e+00	 1.006466e+01
0	 4.000000e+00	 7.333333e+00	 1.006114e+01
0	 4.000000e+00	 7.407407e+00	 1.005776e+01
0	 4.074074e+00	 7.037037e+00	 1.007962e+01
0	 4.074074e+00	 7.111111e+00	 1.007554e+01
0	 4.074074e+00	 7.185185e+00	 1.007161e+01
0	 4.074074e+00	 7.259259e+00	 1.006781e+01
0	 4.074074e+00	 7.333333e+00	 1.006417e+01
0	 4.074074e+00	 7.407407e+00	 1.006066e+01
0	 3.703704e+00	 7.407407e+00	 1.004428e+01
0	 3.703704e+00	 7.481481e+00	 1.004164e+01
0	 3.703704e+00	 7.555556e+00	 1.003911e+01
0	 3.703704e+00	 7.629630e+00	 1.003669e+01
0	 3.703704e+00	 7.703704e+00	 1.003438e+01
0	 3.703704e+00	 7.777778e+00	 1.003219e+01
0	 3.777778e+00	 7.407407e+00	 1.004793e+01
0	 3.777778e+00	 7.481481e+00	 1.004512e+01
0	 3.777778e+00	 7.555556e+00	 1.004243e+01
0	 3.777778e+00	 7.629630e+00	 1.003985e+01
0	 3.777778e+00	 7.703704e+00	 1.003738e+01
0	 3.777778e+00	 7.777778e+00	 1.003502e+01
0	 3.851852e+00	 7.407407e+00	 1.005140e+01
0	 3.851852e+00	 7.481481e+00	 1.004843e+01
0	 3.851852e+00	 7.555556e+00	 1.004558e+01
0	 3.851852e+00	 7.629630e+00	 1.004285e+01
0	 3.851852e+00	 7.703704e+00	 1.004022e+01
0	 3.851852e+00	 7.777778e+00	 1.003772e+01
0	 3.925926e+00	 7.407407e+00	 1.005467e+01
0	 3.925926e+00	 7.481481e+00	 1.005156e+01
0	 3.925926e+00	 7.555556e+00	 1.004857e+01
0	 3.925926e+00	 7.629630e+00	 1.004569e+01
0	 3.925926e+00	 7.703704e+00	 1.004293e+01
0	 3.925926e+00	 7.777778e+00	 1.004028e+01
0	 4.000000e+00	 7.407407e+00	 1.005776e+01
0	 4.000000e+00	 7.481481e+00	 1.005452e+01
0	 4.000000e+00	 7.555556e+00	 1.005139e+01
0	 4.000000e+00	 7.629630e+00	 1.004837e+01
0	 4.000000e+00	 7.703704e+00	 1.004548e+01
0	 4.000000e+00	 7.777778e+00	 1.004270e+01
0	 4.074074e+00	 7.407407e+00	 1.006066e+01
0	 4.074074e+00	 7.481481e+00	 1.005729e+01
0	 4.074074e+00	 7.555556e+00	 1.005403e+01
0	 4.074074e+00	 7.629630e+00	 1.005090e+01
0	 4.074074e+00	 7.703704e+00	 1.004788e+01
0	 4.074074e+00	 7.777778e+00	 1.004498e+01
0	 3.703704e+00	 7.777778e+00	 1.003219e+01
0	 3.703704e+00	 7.851852e+00	 1.003010e+01
0	 3.703704e+00	 7.925926e+00	 1.002809e+01
0	 3.703704e+00	 8.000000e+00	 1.002617e+01
0	 3.703704e+00	 8.074074e+00	 1.002433e+01
0	 3.703704e+00	 8.148148e+00	 1.002258e+01
0	 3.777778e+00	 7.777778e+00	 1.003502e+01
0	 3.777778e+00	 7.851852e+00	 1.003277e+01
0	 3.777778e+00	 7.925926e+00	 1.003061e+01
0	 3.777778e+00	 8.000000e+00	 1.002854e+01
0	 3.777778e+00	 8.074074e+00	 1.002655e+01
0	 3.777778e+00	 8.148148e+00	 1.002466e+01
0	 3.851852e+00	 7.777778e+00	 1.003772e+01
0	 3.851852e+00	 7.851852e+00	 1.003532e+01
0	 3.851852e+00	 7.925926e+00	 1.003302e+01
0	 3.851852e+00	 8.000000e+00	 1.003080e+01
0	 3.851852e+00	 8.074074e+00	 1.002868e+01
0	 3.851852e+00	 8.148148e+00	 1.002665e+01
0	 3.925926e+00	 7.777778e+00	 1.004028e+01
0	 3.925926e+00	 7.851852e+00	 1.003774e+01
0	 3.925926e+00	 7.925926e+00	 1.003530e+01
0	 3.925926e+00	 8.000000e+00	 1.003295e+01
0	 3.925926e+00	 8.074074e+00	 1.003069e+01
0	 3.925926e+00	 8.148148e+00	 1.002853e+01
0	 4.000000e+00	 7.777778e+00	 1.004270e+01
0	 4.000000e+00	 7.851852e+00	 1.004003e+01
0	 4.000000e+00	 7.925926e+00	 1.003746e+01
0	 4.000000e+00	 8.000000e+00	 1.003498e+01
0	 4.000000e+00	 8.074074e+00	 1.003260e+01
0	 4.000000e+00	 8.148148e+00	 1.003032e+01
0	 4.074074e+00	 7.777778e+00	 1.004498e+01
0	 4.074074e+00	 7.851852e+00	 1.004219e+01
0	 4.074074e+00	 7.925926e+00	 1.003949e+01
0	 4.074074e+00	 8.000000e+00	 1.003690e+01
0	 4.074074e+00	 8.074074e+00	 1.003440e+01
0	 4.074074e+00	 8.148148e+00	 1.003200e+01
0	 3.703704e+00	 8.148148e+00	 1.002258e+01
0	 3.703704e+00	 8.222222e+00	 1.002092e+01
0	 3.703704e+00	 8.296296e+00	 1.001932e+01
0	 3.703704e+00	 8.370370e+00	 1.001779e+01
0	 3.703704e+00	 8.444444e+00	 1.001632e+01
0	 3.703704e+00	 8.518519e+00	 1.001493e+01
0	 3.777778e+00	 8.148148e+00	 1.002466e+01
0	 3.777778e+00	 8.222222e+00	 1.002285e+01
0	 3.777778e+00	 8.296296e+00	 1.002112e+01
0	 3.777778e+00	 8.370370e+00	 1.001945e+01
0	 3.777778e+00	 8.444444e+00	 1.001786e+01
0	 3.777778e+00	 8.518519e+00	 1.001634e+01
0	 3.851852e+00	 8.148148e+00	 1.002665e+01
0	 3.851852e+00	 8.222222e+00	 1.002470e+01
0	 3.851852e+00	 8.296296e+00	 1.002283e+01
0	 3.851852e+00	 8.370370e+00	 1.002104e+01
0	 3.851852e+00	 8.444444e+00	 1.001932e+01
0	 3.851852e+00	 8.518519e+00	 1.001768e+01
0	 3.925926e+00	 8.148148e+00	 1.002853e+01
0	 3.925926e+00	 8.222222e+00	 1.002646e+01
0	 3.925926e+00	 8.296296e+00	 1.002447e+01
0	 3.925926e+00	 8.370370e+00	 1.002255e+01
0	 3.925926e+00	 8.444444e+00	 1.002072e+01
0	 3.925926e+00	 8.518519e+00	 1.001896e+01
0	 4.000000e+00	 8.148148e+00	 1.003032e+01
0	 4.000000e+00	 8.222222e+00	 1.002813e+01
0	 4.000000e+00	 8.296296e+00	 1.002602e+01
0	 4.000000e+00	 8.370370e+00	 1.002399e+01
0	 4.000000e+00	 8.444444e+00	 1.002204e+01
0	 4.000000e+00	 8.518519e+00	 1.002018e+01
0	 4.074074e+00	 8.148148e+00	 1.003200e+01
0	 4.074074e+00	 8.222222e+00	 1.002970e+01
0	 4.074074e+00	 8.296296e+00	 1.002748e+01
0	 4.074074e+00	 8.370370e+00	 1.002534e+01
0	 4.074074e+00	 8.444444e+00	 1.002329e+01
0	 4.074074e+00	 8.518519e+00	 1.002132e+01
0	 3.703704e+00	 8.518519e+00	 1.001493e+01
0	 3.703704e+00	 8.592593e+00	 1.001360e+01
0	 3.703704e+00	 8.666667e+00	 1.001233e+01
0	 3.703704e+00	 8.740741e+00	 1.001112e+01
0	 3.703704e+00	 8.814815e+00	 1.000997e+01
0	 3.703704e+00	 8.888889e+00	 1.000888e+01
0	 3.777778e+00	 8.518519e+00	 1.001634e+01
0	 3.777778e+00	 8.592593e+00	 1.001489e+01
0	 3.777778e+00	 8.666667e+00	 1.001350e+01
0	 3.777778e+00	 8.740741e+00	 1.001218e+01
0	 3.777778e+00	 8.814815e+00	 1.001091e+01
0	 3.777778e+00	 8.888889e+00	 1.000971e+01
0	 3.851852e+00	 8.518519e+00	 1.001768e+01
0	 3.851852e+00	 8.592593e+00	 1.001611e+01
0	 3.851852e+00	 8.666667e+00	 1.001461e+01
0	 3.851852e+00	 8.740741e+00	 1.001318e+01
0	 3.851852e+00	 8.814815e+00	 1.001182e+01
0	 3.851852e+00	 8.888889e+00	 1.001052e+01
0	 3.925926e+00	 8.518519e+00	 1.001896e+01
0	 3.925926e+00	 8.592593e+00	 1.001728e+01
0	 3.925926e+00	 8.666667e+00	 1.001568e+01
0	 3.925926e+00	 8.740741e+00	 1.001414e+01
0	 3.925926e+00	 8.814815e+00	 1.001268e+01
0	 3.925926e+00	 8.888889e+00	 1.001128e+01
0	 4.000000e+00	 8.518519e+00	 1.002018e+01
0	 4.000000e+00	 8.592593e+00	 1.001839e+01
0	 4.000000e+00	 8.666667e+00	 1.001668e+01
0	 4.000000e+00	 8.740741e+00	 1.001505e+01
0	 4.000000e+00	 8.814815e+00	 1.001349e+01
0	 4.000000e+00	 8.888889e+00	 1.001201e+01
0	 4.074074e+00	 8.518519e+00	 1.002132e+01
0	 4.074074e+00	 8.592593e+00	 1.001944e+01
0	 4.074074e+00	 8.666667e+00	 1.001763e+01
0	 4.074074e+00	 8.740741e+00	 1.001591e+01
0	 4.074074e+00	 8.814815e+00	 1.001426e+01
0	 4.074074e+00	 8.888889e+00	 1.001269e+01
0	 3.703704e+00	 8.888889e+00	 1.000888e+01
0	 3.703704e+00	 8.962963e+00	 1.000784e+01
0	 3.703704e+00	 9.037037e+00	 1.000686e+01
0	 3.703704e+00	 9.111111e+00	 1.000594e+01
0	 3.703704e+00	 9.185185e+00	 1.000508e+01
0	 3.703704e+00	 9.259259e+00	 1.000426e+01
0	 3.777778e+00	 8.888889e+00	 1.000971e+01
0	 3.777778e+00	 8.962963e+00	 1.000858e+01
0	 3.777778e+00	 9.037037e+00	 1.000751e+01
0	 3.777778e+00	 9.111111e+00	 1.000650e+01
0	 3.777778e+00	 9.185185e+00	 1.000555e+01
0	 3.777778e+00	 9.259259e+00	 1.000466e+01
0	 3.851852e+00	 8.888889e+00	 1.001052e+01
0	 3.851852e+00	 8.962963e+00	 1.000928e+01
0	 3.851852e+00	 9.037037e+00	 1.000812e+01
0	 3.851852e+00	 9.111111e+00	 1.000703e+01
0	 3.851852e+00	 9.185185e+00	 1.000600e+01
0	 3.851852e+00	 9.259259e+00	 1.000504e+01
0	 3.925926e+00	 8.888889e+00	 1.001128e+01
0	 3.925926e+00	 8.962963e+00	 1.000996e+01
0	 3.925926e+00	 9.037037e+00	 1.000871e+01
0	 3.925926e+00	 9.111111e+00	 1.000754e+01
0	 3.925926e+00	 9.185185e+00	 1.000644e+01
0	 3.925926e+00	 9.259259e+00	 1.000540e+01
0	 4.000000e+00	 8.888889e+00	 1.001201e+01
0	 4.000000e+00	 8.962963e+00	 1.001060e+01
0	 4.000000e+00	 9.037037e+00	 1.000927e+01
0	 4.000000e+00	 9.111111e+00	 1.000802e+01
0	 4.000000e+00	 9.185185e+00	 1.000685e+01
0	 4.000000e+00	 9.259259e+00	 1.000574e+01
0	 4.074074e+00	 8.888889e+00	 1.001269e+01
0	 4.074074e+00	 8.962963e+00	 1.001120e+01
0	 4.074074e+00	 9.037037e+00	 1.000979e+01
0	 4.074074e+00	 9.111111e+00	 1.000847e+01
0	 4.074074e+00	 9.185185e+00	 1.000723e+01
0	 4.074074e+00	 9.259259e+00	 1.000606e+01
0	 3.703704e+00	 9.259259e+00	 1.000426e+01
0	 3.703704e+00	 9.333333e+00	 1.000351e+01
0	 3.703704e+00	 9.407407e+00	 1.000283e+01
0	 3.703704e+00	 9.481481e+00	 1.000222e+01
0	 3.703704e+00	 9.555556e+00	 1.000167e+01
0	 3.703704e+00	 9.629630e+00	 1.000118e+01
0	 3.777778e+00	 9.259259e+00	 1.000466e+01
0	 3.777778e+00	 9.333333e+00	 1.000383e+01
0	 3.777778e+00	 9.407407e+00	 1.000309e+01
0	 3.777778e+00	 9.481481e+00	 1.000242e+01
0	 3.777778e+00	 9.555556e+00	 1.000182e+01
0	 3.777778e+00	 9.629630e+00	 1.000128e+01
0	 3.851852e+00	 9.259259e+00	 1.000504e+01
0	 3.851852e+00	 9.333333e+00	 1.000414e+01
0	 3.851852e+00	 9.407407e+00	 1.000334e+01
0	 3.851852e+00	 9.481481e+00	 1.000261e+01
0	 3.851852e+00	 9.555556e+00	 1.000196e+01
0	 3.851852e+00	 9.629630e+00	 1.000138e+01
0	 3.925926e+00	 9.259259e+00	 1.000540e+01
0	 3.925926e+00	 9.333333e+00	 1.000444e+01
0	 3.925926e+00	 9.407407e+00	 1.000358e+01
0	 3.925926e+00	 9.481481e+00	 1.000280e+01
0	 3.925926e+00	 9.555556e+00	 1.000210e+01
0	 3.925926e+00	 9.629630e+00	 1.000148e+01
0	 4.000000e+00	 9.259259e+00	 1.000574e+01
0	 4.000000e+00	 9.333333e+00	 1.000472e+01
0	 4.000000e+00	 9.407407e+00	 1.000380e+01
0	 4.000000e+00	 9.481481e+00	 1.000297e+01
0	 4.000000e+00	 9.555556e+00	 1.000223e+01
0	 4.000000e+00	 9.629630e+00	 1.000157e+01
0	 4.074074e+00	 9.259259e+00	 1.000606e+01
0	 4.074074e+00	 9.333333e+00	 1.000498e+01
0	 4.074074e+00	 9.407407e+00	 1.000401e+01
0	 4.074074e+00	 9.481481e+00	 1.000314e+01
0	 4.074074e+00	 9.555556e+00	 1.000235e+01
0	 4.074074e+00	 9.629630e+00	 1.000165e+01
0	 3.703704e+00	 9.629630e+00	 1.000118e+01
0	 3.703704e+00	 9.703704e+00	 1.000076e+01
0	 3.703704e+00	 9.777778e+00	 1.000044e+01
0	 3.703704e+00	 9.851852e+00	 1.000021e+01
0	 3.703704e+00	 9.925926e+00	 1.000006e+01
0	 3.703704e+00	 1.000000e+01	 9.999980e+00
0	 3.777778e+00	 9.629630e+00	 1.000128e+01
0	 3.777778e+00	 9.703704e+00	 1.000082e+01
0	 3.777778e+00	 9.777778e+00	 1.000048e+01
0	 3.777778e+00	 9.851852e+00	 1.000022e+01
0	 3.777778e+00	 9.925926e+00	 1.000006e+01
0	 3.777778e+00	 1.000000e+01	 9.999973e+00
0	 3.851852e+00	 9.629630e+00	 1.000138e+01
0	 3.851852e+00	 9.703704e+00	 1.000089e+01
0	 3.851852e+00	 9.777778e+00	 1.000051e+01
0	 3.851852e+00	 9.851852e+00	 1.000024e+01
0	 3.851852e+00	 9.925926e+00	 1.000007e+01
0	 3.851852e+00	 1.000000e+01	 9.999974e+00
0	 3.925926e+00	 9.629630e+00	 1.000148e+01
0	 3.925926e+00	 9.703704e+00	 1.000096e+01
0	 3.925926e+00	 9.777778e+00	 1.000055e+01
0	 3.925926e+00	 9.851852e+00	 1.000026e+01
0	 3.925926e+00	 9.925926e+00	 1.000007e+01
0	 3.925926e+00	 1.000000e+01	 9.999978e+00
0	 4.000000e+00	 9.629630e+00	 1.000157e+01
0	 4.000000e+00	 9.703704e+00	 1.000102e+01
0	 4.000000e+00	 9.777778e+00	 1.000059e+01
0	 4.000000e+00	 9.851852e+00	 1.000028e+01
0	 4.000000e+00	 9.925926e+00	 1.000008e+01
0	 4.000000e+00	 1.000000e+01	 9.999980e+00
0	 4.074074e+00	 9.629630e+00	 1.000165e+01
0	 4.074074e+00	 9.703704e+00	 1.000107e+01
0	 4.074074e+00	 9.777778e+00	 1.000062e+01
0	 4.074074e+00	 9.851852e+00	 1.000029e+01
0	 4.074074e+00	 9.925926e+00	 1.000008e+01
0	 4.074074e+00	 1.000000e+01	 9.999976e+00
0	 4.074074e+00	 0.000000e+00	 1.051103e+01
0	 4.074074e+00	 7.407407e-02	 1.050930e+01
0	 4.074074e+00	 1.481481e-01	 1.050940e+01
0	 4.074074e+00	 2.222222e-01	 1.051139e+01
0	 4.074074e+00	 2.962963e-01	 1.051532e+01
0	 4.074074e+00	 3.703704e-01	 1.052127e+01
0	 4.148148e+00	 0.000000e+00	 1.049670e+01
0	 4.148148e+00	 7.407407e-02	 1.049424e+01
0	 4.148148e+00	 1.481481e-01	 1.049367e+01
0	 4.148148e+00	 2.222222e-01	 1.049501e+01
0	 4.148148e+00	 2.962963e-01	 1.049829e+01
0	 4.148148e+00	 3.703704e-01	 1.050353e+01
0	 4.222222e+00	 0.000000e+00	 1.047887e+01
0	 4.222222e+00	 7.407407e-02	 1.047695e+01
0	 4.222222e+00	 1.481481e-01	 1.047675e+01
0	 4.222222e+00	 2.222222e-01	 1.047828e+01
0	 4.222222e+00	 2.962963e-01	 1.048155e+01
0	 4.222222e+00	 3.703704e-01	 1.048655e+01
0	 4.296296e+00	 0.000000e+00	 1.045920e+01
0	 4.296296e+00	 7.407407e-02	 1.045853e+01
0	 4.296296e+00	 1.481481e-01	 1.045929e+01
0	 4.296296e+00	 2.222222e-01	 1.046148e+01
0	 4.296296e+00	 2.962963e-01	 1.046509e+01
0	 4.296296e+00	 3.703704e-01	 1.047014e+01
0	 4.370370e+00	 0.000000e+00	 1.043935e+01
0	 4.370370e+00	 7.407407e-02	 1.044010e+01
0	 4.370370e+00	 1.481481e-01	 1.044194e+01
0	 4.370370e+00	 2.222222e-01	 1.044488e+01
0	 4.370370e+00	 2.962963e-01	 1.044893e+01
0	 4.370370e+00	 3.703704e-01	 1.045407e+01
0	 4.444444e+00	 0.000000e+00	 1.042098e+01
0	 4.444444e+00	 7.407407e-02	 1.042278e+01
0	 4.444444e+00	 1.481481e-01	 1.042537e+01
0	 4.444444e+00	 2.222222e-01	 1.042878e+01
0	 4.444444e+00	 2.962963e-01	 1.043304e+01
0	 4.444444e+00	 3.703704e-01	 1.043817e+01
0	 4.074074e+00	 3.703704e-01	 1.052127e+01
0	 4.074074e+00	 4.444444e-01	 1.052859e+01
0	 4.074074e+00	 5.185185e-01	 1.053674e+01
0	 4.074074e+00	 5.925926e-01	 1.054589e+01
0	 4.074074e+00	 6.666667e-01	 1.055626e+01
0	 4.074074e+00	 7.407407e-01	 1.056801e+01
0	 4.148148e+00	 3.703704e-01	 1.050353e+01
0	 4.148148e+00	 4.444444e-01	 1.051014e+01
0	 4.148148e+00	 5.185185e-01	 1.051761e+01
0	 4.148148e+00	 5.925926e-01	 1.052612e+01
0	 4.148148e+00	 6.666667e-01	 1.053582e+01
0	 4.148148e+00	 7.407407e-01	 1.054689e+01
0	 4.222222e+00	 3.703704e-01	 1.048655e+01
0	 4.222222e+00	 4.444444e-01	 1.049279e+01
0	 4.222222e+00	 5.185185e-01	 1.049983e+01
0	 4.222222e+00	 5.925926e-01	 1.050784e+01
0	 4.222222e+00	 6.666667e-01	 1.051695e+01
0	 4.222222e+00	 7.407407e-01	 1.052732e+01
0	 4.296296e+00	 3.703704e-01	 1.047014e+01
0	 4.296296e+00	 4.444444e-01	 1.047620e+01
0	 4.296296e+00	 5.185185e-01	 1.048297e+01
0	 4.296296e+00	 5.925926e-01	 1.049058e+01
0	 4.296296e+00	 6.666667e-01	 1.049916e+01
0	 4.296296e+00	 7.407407e-01	 1.050884e+01
0	 4.370370e+00	 3.703704e-01	 1.045407e+01
0	 4.370370e+00	 4.444444e-01	 1.046004e+01
0	 4.370370e+00	 5.185185e-01	 1.046660e+01
0	 4.370370e+00	 5.925926e-01	 1.047388e+01
0	 4.370370e+00	 6.666667e-01	 1.048199e+01
0	 4.370370e+00	 7.407407e-01	 1.049104e+01
0	 4.444444e+00	 3.703704e-01	 1.043817e+01
0	 4.444444e+00	 4.444444e-01	 1.044398e+01
0	 4.444444e+00	 5.185185e-01	 1.045031e+01
0	 4.444444e+00	 5.925926e-01	 1.045728e+01
0	 4.444444e+00	 6.666667e-01	 1.046497e+01
0	 4.444444e+00	 7.407407e-01	 1.047348e+01
0	 4.074074e+00	 7.407407e-01	 1.056801e+01
0	 4.074074e+00	 8.148148e-01	 1.058036e+01
0	 4.074074e+00	 8.888889e-01	 1.059247e+01
0	 4.074074e+00	 9.629630e-01	 1.060451e+01
0	 4.074074e+00	 1.037037e+00	 1.061666e+01
0	 4.074074e+00	 1.111111e+00	 1.062908e+01
0	 4.148148e+00	 7.407407e-01	 1.054689e+01
0	 4.148148e+00	 8.148148e-01	 1.055853e+01
0	 4.148148e+00	 8.888889e-01	 1.056994e+01
0	 4.148148e+00	 9.629630e-01	 1.058130e+01
0	 4.148148e+00	 1.037037e+00	 1.059280e+01
0	 4.148148e+00	 1.111111e+00	 1.060461e+01
0	 4.222222e+00	 7.407407e-01	 1.052732e+01
0	 4.222222e+00	 8.148148e-01	 1.053820e+01
0	 4.222222e+00	 8.888889e-01	 1.054889e+01
0	 4.222222e+00	 9.629630e-01	 1.055957e+01
0	 4.222222e+00	 1.037037e+00	 1.057043e+01
0	 4.222222e+00	 1.111111e+00	 1.058165e+01
0	 4.296296e+00	 7.407407e-01	 1.050884e+01
0	 4.296296e+00	 8.148148e-01	 1.051899e+01
0	 4.296296e+00	 8.888889e-01	 1.052899e+01
0	 4.296296e+00	 9.629630e-01	 1.053903e+01
0	 4.296296e+00	 1.037037e+00	 1.054929e+01
0	 4.296296e+00	 1.111111e+00	 1.055996e+01
0	 4.370370e+00	 7.407407e-01	 1.049104e+01
0	 4.370370e+00	 8.148148e-01	 1.050051e+01
0	 4.370370e+00	 8.888889e-01	 1.050990e+01
0	 4.370370e+00	 9.629630e-01	 1.051938e+01
0	 4.370370e+00	 1.037037e+00	 1.052912e+01
0	 4.370370e+00	 1.111111e+00	 1.053929e+01
0	 4.444444e+00	 7.407407e-01	 1.047348e+01
0	 4.444444e+00	 8.148148e-01	 1.048239e+01
0	 4.444444e+00	 8.888889e-01	 1.049129e+01
0	 4.444444e+00	 9.629630e-01	 1.050033e+01
0	 4.444444e+00	 1.037037e+00	 1.050965e+01
0	 4.444444e+00	 1.111111e+00	 1.051940e+01
0	 4.074074e+00	 1.111111e+00	 1.062908e+01
0	 4.074074e+00	 1.185185e+00	 1.064115e+01
0	 4.074074e+00	 1.259259e+00	 1.065225e+01
0	 4.074074e+00	 1.333333e+00	 1.066256e+01
0	 4.074074e+00	 1.407407e+00	 1.067225e+01
0	 4.074074e+00	 1.481481e+00	 1.068150e+01
0	 4.148148e+00	 1.111111e+00	 1.060461e+01
0	 4.148148e+00	 1.185185e+00	 1.061618e+01
0	 4.148148e+00	 1.259259e+00	 1.062691e+01
0	 4.148148e+00	 1.333333e+00	 1.063696e+01
0	 4.148148e+00	 1.407407e+00	 1.064648e+01
0	 4.148148e+00	 1.481481e+00	 1.065563e+01
0	 4.222222e+00	 1.111111e+00	 1.058165e+01
0	 4.222222e+00	 1.185185e+00	 1.059271e+01
0	 4.222222e+00	 1.259259e+00	 1.060305e+01
0	 4.222222e+00	 1.333333e+00	 1.061280e+01
0	 4.222222e+00	 1.407407e+00	 1.062210e+01
0	 4.222222e+00	 1.481481e+00	 1.063108e+01
0	 4.296296e+00	 1.111111e+00	 1.055996e+01
0	 4.296296e+00	 1.185185e+00	 1.057053e+01
0	 4.296296e+00	 1.259259e+00	 1.058046e+01
0	 4.296296e+00	 1.333333e+00	 1.058989e+01
0	 4.296296e+00	 1.407407e+00	 1.059893e+01
0	 4.296296e+00	 1.481481e+00	 1.060770e+01
0	 4.370370e+00	 1.111111e+00	 1.053929e+01
0	 4.370370e+00	 1.185185e+00	 1.054940e+01
0	 4.370370e+00	 1.259259e+00	 1.055895e+01
0	 4.370370e+00	 1.333333e+00	 1.056805e+01
0	 4.370370e+00	 1.407407e+00	 1.057681e+01
0	 4.370370e+00	 1.481481e+00	 1.058535e+01
0	 4.444444e+00	 1.111111e+00	 1.051940e+01
0	 4.444444e+00	 1.185185e+00	 1.052912e+01
0	 4.444444e+00	 1.259259e+00	 1.053831e+01
0	 4.444444e+00	 1.333333e+00	 1.054710e+01
0	 4.444444e+00	 1.407407e+00	 1.055558e+01
0	 4.444444e+00	 1.481481e+00	 1.056389e+01
0	 4.074074e+00	 1.481481e+00	 1.068150e+01
0	 4.074074e+00	 1.555556e+00	 1.068989e+01
0	 4.074074e+00	 1.629630e+00	 1.069695e+01
0	 4.074074e+00	 1.703704e+00	 1.070279e+01
0	 4.074074e+00	 1.777778e+00	 1.070752e+01
0	 4.074074e+00	 1.851852e+00	 1.071126e+01
0	 4.148148e+00	 1.481481e+00	 1.065563e+01
0	 4.148148e+00	 1.555556e+00	 1.066401e+01
0	 4.148148e+00	 1.629630e+00	 1.067118e+01
0	 4.148148e+00	 1.703704e+00	 1.067724e+01
0	 4.148148e+00	 1.777778e+00	 1.068229e+01
0	 4.148148e+00	 1.851852e+00	 1.068643e+01
0	 4.222222e+00	 1.481481e+00	 1.063108e+01
0	 4.222222e+00	 1.555556e+00	 1.063938e+01
0	 4.222222e+00	 1.629630e+00	 1.064658e+01
0	 4.222222e+00	 1.703704e+00	 1.065276e+01
0	 4.222222e+00	 1.777778e+00	 1.065802e+01
0	 4.222222e+00	 1.851852e+00	 1.066246e+01
0	 4.296296e+00	 1.481481e+00	 1.060770e+01
0	 4.296296e+00	 1.555556e+00	 1.061586e+01
0	 4.296296e+00	 1.629630e+00	 1.062302e+01
0	 4.296296e+00	 1.703704e+00	 1.062926e+01
0	 4.296296e+00	 1.777778e+00	 1.063467e+01
0	 4.296296e+00	 1.851852e+00	 1.063932e+01
0	 4.370370e+00	 1.481481e+00	 1.058535e+01
0	 4.370370e+00	 1.555556e+00	 1.059334e+01
0	 4.370370e+00	 1.629630e+00	 1.060042e+01
0	 4.370370e+00	 1.703704e+00	 1.060666e+01
0	 4.370370e+00	 1.777778e+00	 1.061215e+01
0	 4.370370e+00	 1.851852e+00	 1.061697e+01
0	 4.444444e+00	 1.481481e+00	 1.056389e+01
0	 4.444444e+00	 1.555556e+00	 1.057170e+01
0	 4.444444e+00	 1.629630e+00	 1.057867e+01
0	 4.444444e+00	 1.703704e+00	 1.058488e+01
0	 4.444444e+00	 1.777778e+00	 1.059041e+01
0	 4.444444e+00	 1.851852e+00	 1.059535e+01
0	 4.074074e+00	 1.851852e+00	 1.071126e+01
0	 4.074074e+00	 1.925926e+00	 1.071389e+01
0	 4.074074e+00	 2.000000e+00	 1.071525e+01
0	 4.074074e+00	 2.074074e+00	 1.071534e+01
0	 4.074074e+00	 2.148148e+00	 1.071419e+01
0	 4.074074e+00	 2.222222e+00	 1.071181e+01
0	 4.148148e+00	 1.851852e+00	 1.068643e+01
0	 4.148148e+00	 1.925926e+00	 1.068951e+01
0	 4.148148e+00	 2.000000e+00	 1.069137e+01
0	 4.148148e+00	 2.074074e+00	 1.069202e+01
0	 4.148148e+00	 2.148148e+00	 1.069150e+01
0	 4.148148e+00	 2.222222e+00	 1.068984e+01
0	 4.222222e+00	 1.851852e+00	 1.066246e+01
0	 4.222222e+00	 1.925926e+00	 1.066592e+01
0	 4.222222e+00	 2.000000e+00	 1.066820e+01
0	 4.222222e+00	 2.074074e+00	 1.066936e+01
0	 4.222222e+00	 2.148148e+00	 1.066941e+01
0	 4.222222e+00	 2.222222e+00	 1.066841e+01
0	 4.296296e+00	 1.851852e+00	 1.063932e+01
0	 4.296296e+00	 1.925926e+00	 1.064307e+01
0	 4.296296e+00	 2.000000e+00	 1.064573e+01
0	 4.296296e+00	 2.074074e+00	 1.064732e+01
0	 4.296296e+00	 2.148148e+00	 1.064790e+01
0	 4.296296e+00	 2.222222e+00	 1.064751e+01
0	 4.370370e+00	 1.851852e+00	 1.061697e+01
0	 4.370370e+00	 1.925926e+00	 1.062095e+01
0	 4.370370e+00	 2.000000e+00	 1.062391e+01
0	 4.370370e+00	 2.074074e+00	 1.062590e+01
0	 4.370370e+00	 2.148148e+00	 1.062695e+01
0	 4.370370e+00	 2.222222e+00	 1.062711e+01
0	 4.444444e+00	 1.851852e+00	 1.059535e+01
0	 4.444444e+00	 1.925926e+00	 1.059952e+01
0	 4.444444e+00	 2.000000e+00	 1.060275e+01
0	 4.444444e+00	 2.074074e+00	 1.060507e+01
0	 4.444444e+00	 2.148148e+00	 1.060654e+01
0	 4.444444e+00	 2.222222e+00	 1.060719e+01
0	 4.074074e+00	 2.222222e+00	 1.071181e+01
0	 4.074074e+00	 2.296296e+00	 1.070834e+01
0	 4.074074e+00	 2.370370e+00	 1.070387e+01
0	 4.074074e+00	 2.444444e+00	 1.069839e+01
0	 4.074074e+00	 2.518519e+00	 1.069190e+01
0	 4.074074e+00	 2.592593e+00	 1.068437e+01
0	 4.148148e+00	 2.222222e+00	 1.068984e+01
0	 4.148148e+00	 2.296296e+00	 1.068715e+01
0	 4.148148e+00	 2.370370e+00	 1.068351e+01
0	 4.148148e+00	 2.444444e+00	 1.067891e+01
0	 4.148148e+00	 2.518519e+00	 1.067335e+01
0	 4.148148e+00	 2.592593e+00	 1.066681e+01
0	 4.222222e+00	 2.222222e+00	 1.066841e+01
0	 4.222222e+00	 2.296296e+00	 1.066645e+01
0	 4.222222e+00	 2.370370e+00	 1.066357e+01
0	 4.222222e+00	 2.444444e+00	 1.065976e+01
0	 4.222222e+00	 2.518519e+00	 1.065502e+01
0	 4.222222e+00	 2.592593e+00	 1.064933e+01
0	 4.296296e+00	 2.222222e+00	 1.064751e+01
0	 4.296296e+00	 2.296296e+00	 1.064621e+01
0	 4.296296e+00	 2.370370e+00	 1.064401e+01
0	 4.296296e+00	 2.444444e+00	 1.064092e+01
0	 4.296296e+00	 2.518519e+00	 1.063690e+01
0	 4.296296e+00	 2.592593e+00	 1.063197e+01
0	 4.370370e+00	 2.222222e+00	 1.062711e+01
0	 4.370370e+00	 2.296296e+00	 1.062641e+01
0	 4.370370e+00	 2.370370e+00	 1.062483e+01
0	 4.370370e+00	 2.444444e+00	 1.062236e+01
0	 4.370370e+00	 2.518519e+00	 1.061900e+01
0	 4.370370e+00	 2.592593e+00	 1.061474e+01
0	 4.444444e+00	 2.222222e+00	 1.060719e+01
0	 4.444444e+00	 2.296296e+00	 1.060701e+01
0	 4.444444e+00	 2.370370e+00	 1.060598e+01
0	 4.444444e+00	 2.444444e+00	 1.060408e+01
0	 4.444444e+00	 2.518519e+00	 1.060131e+01
0	 4.444444e+00	 2.592593e+00	 1.059768e+01
0	 4.074074e+00	 2.592593e+00	 1.068437e+01
0	 4.074074e+00	 2.666667e+00	 1.067600e+01
0	 4.074074e+00	 2.740741e+00	 1.066695e+01
0	 4.074074e+00	 2.814815e+00	 1.065715e+01
0	 4.074074e+00	 2.888889e+00	 1.064656e+01
0	 4.074074e+00	 2.962963e+00	 1.063513e+01
0	 4.148148e+00	 2.592593e+00	 1.066681e+01
0	 4.148148e+00	 2.666667e+00	 1.065942e+01
0	 4.148148e+00	 2.740741e+00	 1.065133e+01
0	 4.148148e+00	 2.814815e+00	 1.064250e+01
0	 4.148148e+00	 2.888889e+00	 1.063287e+01
0	 4.148148e+00	 2.962963e+00	 1.062241e+01
0	 4.222222e+00	 2.592593e+00	 1.064933e+01
0	 4.222222e+00	 2.666667e+00	 1.064282e+01
0	 4.222222e+00	 2.740741e+00	 1.063560e+01
0	 4.222222e+00	 2.814815e+00	 1.062764e+01
0	 4.222222e+00	 2.888889e+00	 1.061892e+01
0	 4.222222e+00	 2.962963e+00	 1.060940e+01
0	 4.296296e+00	 2.592593e+00	 1.063197e+01
0	 4.296296e+00	 2.666667e+00	 1.062623e+01
0	 4.296296e+00	 2.740741e+00	 1.061980e+01
0	 4.296296e+00	 2.814815e+00	 1.061266e+01
0	 4.296296e+00	 2.888889e+00	 1.060479e+01
0	 4.296296e+00	 2.962963e+00	 1.059616e+01
0	 4.370370e+00	 2.592593e+00	 1.061474e+01
0	 4.370370e+00	 2.666667e+00	 1.060971e+01
0	 4.370370e+00	 2.740741e+00	 1.060401e+01
0	 4.370370e+00	 2.814815e+00	 1.059764e+01
0	 4.370370e+00	 2.888889e+00	 1.059056e+01
0	 4.370370e+00	 2.962963e+00	 1.058276e+01
0	 4.444444e+00	 2.592593e+00	 1.059768e+01
0	 4.444444e+00	 2.666667e+00	 1.059330e+01
0	 4.444444e+00	 2.740741e+00	 1.058829e+01
0	 4.444444e+00	 2.814815e+00	 1.058263e+01
0	 4.444444e+00	 2.888889e+00	 1.057630e+01
0	 4.444444e+00	 2.962963e+00	 1.056928e+01
0	 4.074074e+00	 2.962963e+00	 1.063513e+01
0	 4.074074e+00	 3.037037e+00	 1.062313e+01
0	 4.074074e+00	 3.111111e+00	 1.061082e+01
0	 4.074074e+00	 3.185185e+00	 1.059817e+01
0	 4.074074e+00	 3.259259e+00	 1.058511e+01
0	 4.074074e+00	 3.333333e+00	 1.057161e+01
0	 4.148148e+00	 2.962963e+00	 1.062241e+01
0	 4.148148e+00	 3.037037e+00	 1.061139e+01
0	 4.148148e+00	 3.111111e+00	 1.060005e+01
0	 4.148148e+00	 3.185185e+00	 1.058834e+01
0	 4.148148e+00	 3.259259e+00	 1.057622e+01
0	 4.148148e+00	 3.333333e+00	 1.056364e+01
0	 4.222222e+00	 2.962963e+00	 1.060940e+01
0	 4.222222e+00	 3.037037e+00	 1.059931e+01
0	 4.222222e+00	 3.111111e+00	 1.058889e+01
0	 4.222222e+00	 3.185185e+00	 1.057807e+01
0	 4.222222e+00	 3.259259e+00	 1.056683e+01
0	 4.222222e+00	 3.333333e+00	 1.055510e+01
0	 4.296296e+00	 2.962963e+00	 1.059616e+01
0	 4.296296e+00	 3.037037e+00	 1.058696e+01
0	 4.296296e+00	 3.111111e+00	 1.057740e+01
0	 4.296296e+00	 3.185185e+00	 1.056743e+01
0	 4.296296e+00	 3.259259e+00	 1.055700e+01
0	 4.296296e+00	 3.333333e+00	 1.054608e+01
0	 4.370370e+00	 2.962963e+00	 1.058276e+01
0	 4.370370e+00	 3.037037e+00	 1.057441e+01
0	 4.370370e+00	 3.111111e+00	 1.056566e+01
0	 4.370370e+00	 3.185185e+00	 1.055648e+01
0	 4.370370e+00	 3.259259e+00	 1.054682e+01
0	 4.370370e+00	 3.333333e+00	 1.053665e+01
0	 4.444444e+00	 2.962963e+00	 1.056928e+01
0	 4.444444e+00	 3.037037e+00	 1.056171e+01
0	 4.444444e+00	 3.111111e+00	 1.055372e+01
0	 4.444444e+00	 3.185185e+00	 1.054528e+01
0	 4.444444e+00	 3.259259e+00	 1.053635e+01
0	 4.444444e+00	 3.333333e+00	 1.052689e+01
0	 4.074074e+00	 3.333333e+00	 1.057161e+01
0	 4.074074e+00	 3.407407e+00	 1.055786e+01
0	 4.074074e+00	 3.481481e+00	 1.054404e+01
0	 4.074074e+00	 3.555556e+00	 1.053011e+01
0	 4.074074e+00	 3.629630e+00	 1.051601e+01
0	 4.074074e+00	 3.703704e+00	 1.050171e+01
0	 4.148148e+00	 3.333333e+00	 1.056364e+01
0	 4.148148e+00	 3.407407e+00	 1.055077e+01
0	 4.148148e+00	 3.481481e+00	 1.053780e+01
0	 4.148148e+00	 3.555556e+00	 1.052467e+01
0	 4.148148e+00	 3.629630e+00	 1.051134e+01
0	 4.148148e+00	 3.703704e+00	 1.049777e+01
0	 4.222222e+00	 3.333333e+00	 1.055510e+01
0	 4.222222e+00	 3.407407e+00	 1.054306e+01
0	 4.222222e+00	 3.481481e+00	 1.053088e+01
0	 4.222222e+00	 3.555556e+00	 1.051852e+01
0	 4.222222e+00	 3.629630e+00	 1.050594e+01
0	 4.222222e+00	 3.703704e+00	 1.049311e+01
0	 4.296296e+00	 3.333333e+00	 1.054608e+01
0	 4.296296e+00	 3.407407e+00	 1.053481e+01
0	 4.296296e+00	 3.481481e+00	 1.052339e+01
0	 4.296296e+00	 3.555556e+00	 1.051177e+01
0	 4.296296e+00	 3.629630e+00	 1.049992e+01
0	 4.296296e+00	 3.703704e+00	 1.048780e+01
0	 4.370370e+00	 3.333333e+00	 1.053665e+01
0	 4.370370e+00	 3.407407e+00	 1.052612e+01
0	 4.370370e+00	 3.481481e+00	 1.051542e+01
0	 4.370370e+00	 3.555556e+00	 1.050452e+01
0	 4.370370e+00	 3.629630e+00	 1.049337e+01
0	 4.370370e+00	 3.703704e+00	 1.048195e+01
0	 4.444444e+00	 3.333333e+00	 1.052689e+01
0	 4.444444e+00	 3.407407e+00	 1.051708e+01
0	 4.444444e+00	 3.481481e+00	 1.050708e+01
0	 4.444444e+00	 3.555556e+00	 1.049686e+01
0	 4.444444e+00	 3.629630e+00	 1.048639e+01
0	 4.444444e+00	 3.703704e+00	 1.047564e+01
0	 4.074074e+00	 3.703704e+00	 1.050171e+01
0	 4.074074e+00	 3.777778e+00	 1.048736e+01
0	 4.074074e+00	 3.851852e+00	 1.047317e+01
0	 4.074074e+00	 3.925926e+00	 1.045909e+01
0	 4.074074e+00	 4.000000e+00	 1.044508e+01
0	 4.074074e+00	 4.074074e+00	 1.043112e+01
0	 4.148148e+00	 3.703704e+00	 1.049777e+01
0	 4.148148e+00	 3.777778e+00	 1.048414e+01
0	 4.148148e+00	 3.851852e+00	 1.047063e+01
0	 4.148148e+00	 3.925926e+00	 1.045719e+01
0	 4.148148e+00	 4.000000e+00	 1.044380e+01
0	 4.148148e+00	 4.074074e+00	 1.043041e+01
0	 4.222222e+00	 3.703704e+00	 1.049311e+01
0	 4.222222e+00	 3.777778e+00	 1.048018e+01
0	 4.222222e+00	 3.851852e+00	 1.046734e+01
0	 4.222222e+00	 3.925926e+00	 1.045454e+01
0	 4.222222e+00	 4.000000e+00	 1.044174e+01
0	 4.222222e+00	 4.074074e+00	 1.042892e+01
0	 4.296296e+00	 3.703704e+00	 1.048780e+01
0	 4.296296e+00	 3.777778e+00	 1.047557e+01
0	 4.296296e+00	 3.851852e+00	 1.046338e+01
0	 4.296296e+00	 3.925926e+00	 1.045120e+01
0	 4.296296e+00	 4.000000e+00	 1.043899e+01
0	 4.296296e+00	 4.074074e+00	 1.042672e+01
0	 4.370370e+00	 3.703704e+00	 1.048195e+01
0	 4.370370e+00	 3.777778e+00	 1.047039e+01
0	 4.370370e+00	 3.851852e+00	 1.045884e+01
0	 4.370370e+00	 3.925926e+00	 1.044726e+01
0	 4.370370e+00	 4.000000e+00	 1.043562e+01
0	 4.370370e+00	 4.074074e+00	 1.042388e+01
0	 4.444444e+00	 3.703704e+00	 1.047564e+01
0	 4.444444e+00	 3.777778e+00	 1.046473e+01
0	 4.444444e+00	 3.851852e+00	 1.045379e+01
0	 4.444444e+00	 3.925926e+00	 1.044280e+01
0	 4.444444e+00	 4.000000e+00	 1.043171e+01
0	 4.444444e+00	 4.074074e+00	 1.042050e+01
0	 4.074074e+00	 4.074074e+00	 1.043112e+01
0	 4.074074e+00	 4.148148e+00	 1.041730e+01
0	 4.074074e+00	 4.222222e+00	 1.040372e+01
0	 4.074074e+00	 4.296296e+00	 1.039036e+01
0	 4.074074e+00	 4.370370e+00	 1.037719e+01
0	 4.074074e+00	 4.444444e+00	 1.036418e+01
0	 4.148148e+00	 4.074074e+00	 1.043041e+01
0	 4.148148e+00	 4.148148e+00	 1.041713e+01
0	 4.148148e+00	 4.222222e+00	 1.040405e+01
0	 4.148148e+00	 4.296296e+00	 1.039115e+01
0	 4.148148e+00	 4.370370e+00	 1.037841e+01
0	 4.148148e+00	 4.444444e+00	 1.036579e+01
0	 4.222222e+00	 4.074074e+00	 1.042892e+01
0	 4.222222e+00	 4.148148e+00	 1.041616e+01
0	 4.222222e+00	 4.222222e+00	 1.040358e+01
0	 4.222222e+00	 4.296296e+00	 1.039114e+01
0	 4.222222e+00	 4.370370e+00	 1.037883e+01
0	 4.222222e+00	 4.444444e+00	 1.036662e+01
0	 4.296296e+00	 4.074074e+00	 1.042672e+01
0	 4.296296e+00	 4.148148e+00	 1.041448e+01
0	 4.296296e+00	 4.222222e+00	 1.040238e+01
0	 4.296296e+00	 4.296296e+00	 1.039041e+01
0	 4.296296e+00	 4.370370e+00	 1.037854e+01
0	 4.296296e+00	 4.444444e+00	 1.036675e+01
0	 4.370370e+00	 4.074074e+00	 1.042388e+01
0	 4.370370e+00	 4.148148e+00	 1.041215e+01
0	 4.370370e+00	 4.222222e+00	 1.040055e+01
0	 4.370370e+00	 4.296296e+00	 1.038904e+01
0	 4.370370e+00	 4.370370e+00	 1.037761e+01
0	 4.370370e+00	 4.444444e+00	 1.036623e+01
0	 4.444444e+00	 4.074074e+00	 1.042050e+01
0	 4.444444e+00	 4.148148e+00	 1.040927e+01
0	 4.444444e+00	 4.222222e+00	 1.039815e+01
0	 4.444444e+00	 4.296296e+00	 1.038710e+01
0	 4.444444e+00	 4.370370e+00	 1.037611e+01
0	 4.444444e+00	 4.444444e+00	 1.036514e+01
0	 4.074074e+00	 4.444444e+00	 1.036418e+01
0	 4.074074e+00	 4.518519e+00	 1.035140e+01
0	 4.074074e+00	 4.592593e+00	 1.033893e+01
0	 4.074074e+00	 4.666667e+00	 1.032674e+01
0	 4.074074e+00	 4.740741e+00	 1.031483e+01
0	 4.074074e+00	 4.814815e+00	 1.030318e+01
0	 4.148148e+00	 4.444444e+00	 1.036579e+01
0	 4.148148e+00	 4.518519e+00	 1.035338e+01
0	 4.148148e+00	 4.592593e+00	 1.034124e+01
0	 4.148148e+00	 4.666667e+00	 1.032937e+01
0	 4.148148e+00	 4.740741e+00	 1.031774e+01
0	 4.148148e+00	 4.814815e+00	 1.030634e+01
0	 4.222222e+00	 4.444444e+00	 1.036662e+01
0	 4.222222e+00	 4.518519e+00	 1.035459e+01
0	 4.222222e+00	 4.592593e+00	 1.034281e+01
0	 4.222222e+00	 4.666667e+00	 1.033126e+01
0	 4.222222e+00	 4.740741e+00	 1.031992e+01
0	 4.222222e+00	 4.814815e+00	 1.030879e+01
0	 4.296296e+00	 4.444444e+00	 1.036675e+01
0	 4.296296e+00	 4.518519e+00	 1.035510e+01
0	 4.296296e+00	 4.592593e+00	 1.034368e+01
0	 4.296296e+00	 4.666667e+00	 1.033246e+01
0	 4.296296e+00	 4.740741e+00	 1.032143e+01
0	 4.296296e+00	 4.814815e+00	 1.031056e+01
0	 4.370370e+00	 4.444444e+00	 1.036623e+01
0	 4.370370e+00	 4.518519e+00	 1.035497e+01
0	 4.370370e+00	 4.592593e+00	 1.034392e+01
0	 4.370370e+00	 4.666667e+00	 1.033303e+01
0	 4.370370e+00	 4.740741e+00	 1.032230e+01
0	 4.370370e+00	 4.814815e+00	 1.031172e+01
0	 4.444444e+00	 4.444444e+00	 1.036514e+01
0	 4.444444e+00	 4.518519e+00	 1.035428e+01
0	 4.444444e+00	 4.592593e+00	 1.034358e+01
0	 4.444444e+00	 4.666667e+00	 1.033303e+01
0	 4.444444e+00	 4.740741e+00	 1.032262e+01
0	 4.444444e+00	 4.814815e+00	 1.031231e+01
0	 4.074074e+00	 4.814815e+00	 1.030318e+01
0	 4.074074e+00	 4.888889e+00	 1.029181e+01
0	 4.074074e+00	 4.962963e+00	 1.028075e+01
0	 4.074074e+00	 5.037037e+00	 1.026999e+01
0	 4.074074e+00	 5.111111e+00	 1.025953e+01
0	 4.074074e+00	 5.185185e+00	 1.024934e+01
0	 4.148148e+00	 4.814815e+00	 1.030634e+01
0	 4.148148e+00	 4.888889e+00	 1.029520e+01
0	 4.148148e+00	 4.962963e+00	 1.028434e+01
0	 4.148148e+00	 5.037037e+00	 1.027376e+01
0	 4.148148e+00	 5.111111e+00	 1.026345e+01
0	 4.148148e+00	 5.185185e+00	 1.025339e+01
0	 4.222222e+00	 4.814815e+00	 1.030879e+01
0	 4.222222e+00	 4.888889e+00	 1.029788e+01
0	 4.222222e+00	 4.962963e+00	 1.028723e+01
0	 4.222222e+00	 5.037037e+00	 1.027684e+01
0	 4.222222e+00	 5.111111e+00	 1.026670e+01
0	 4.222222e+00	 5.185185e+00	 1.025680e+01
0	 4.296296e+00	 4.814815e+00	 1.031056e+01
0	 4.296296e+00	 4.888889e+00	 1.029990e+01
0	 4.296296e+00	 4.962963e+00	 1.028948e+01
0	 4.296296e+00	 5.037037e+00	 1.027930e+01
0	 4.296296e+00	 5.111111e+00	 1.026934e+01
0	 4.296296e+00	 5.185185e+00	 1.025960e+01
0	 4.370370e+00	 4.814815e+00	 1.031172e+01
0	 4.370370e+00	 4.888889e+00	 1.030131e+01
0	 4.370370e+00	 4.962963e+00	 1.029113e+01
0	 4.370370e+00	 5.037037e+00	 1.028117e+01
0	 4.370370e+00	 5.111111e+00	 1.027141e+01
0	 4.370370e+00	 5.185185e+00	 1.026185e+01
0	 4.444444e+00	 4.814815e+00	 1.031231e+01
0	 4.444444e+00	 4.888889e+00	 1.030217e+01
0	 4.444444e+00	 4.962963e+00	 1.029223e+01
0	 4.444444e+00	 5.037037e+00	 1.028250e+01
0	 4.444444e+00	 5.111111e+00	 1.027295e+01
0	 4.444444e+00	 5.185185e+00	 1.026357e+01
0	 4.074074e+00	 5.185185e+00	 1.024934e+01
0	 4.074074e+00	 5.259259e+00	 1.023944e+01
0	 4.074074e+00	 5.333333e+00	 1.022985e+01
0	 4.074074e+00	 5.407407e+00	 1.022055e+01
0	 4.074074e+00	 5.481481e+00	 1.021154e+01
0	 4.074074e+00	 5.555556e+00	 1.020282e+01
0	 4.148148e+00	 5.185185e+00	 1.025339e+01
0	 4.148148e+00	 5.259259e+00	 1.024360e+01
0	 4.148148e+00	 5.333333e+00	 1.023410e+01
0	 4.148148e+00	 5.407407e+00	 1.022488e+01
0	 4.148148e+00	 5.481481e+00	 1.021594e+01
0	 4.148148e+00	 5.555556e+00	 1.020726e+01
0	 4.222222e+00	 5.185185e+00	 1.025680e+01
0	 4.222222e+00	 5.259259e+00	 1.024714e+01
0	 4.222222e+00	 5.333333e+00	 1.023775e+01
0	 4.222222e+00	 5.407407e+00	 1.022863e+01
0	 4.222222e+00	 5.481481e+00	 1.021977e+01
0	 4.222222e+00	 5.555556e+00	 1.021115e+01
0	 4.296296e+00	 5.185185e+00	 1.025960e+01
0	 4.296296e+00	 5.259259e+00	 1.025009e+01
0	 4.296296e+00	 5.333333e+00	 1.024084e+01
0	 4.296296e+00	 5.407407e+00	 1.023182e+01
0	 4.296296e+00	 5.481481e+00	 1.022305e+01
0	 4.296296e+00	 5.555556e+00	 1.021451e+01
0	 4.370370e+00	 5.185185e+00	 1.026185e+01
0	 4.370370e+00	 5.259259e+00	 1.025250e+01
0	 4.370370e+00	 5.333333e+00	 1.024338e+01
0	 4.370370e+00	 5.407407e+00	 1.023450e+01
0	 4.370370e+00	 5.481481e+00	 1.022583e+01
0	 4.370370e+00	 5.555556e+00	 1.021737e+01
0	 4.444444e+00	 5.185185e+00	 1.026357e+01
0	 4.444444e+00	 5.259259e+00	 1.025439e+01
0	 4.444444e+00	 5.333333e+00	 1.024543e+01
0	 4.444444e+00	 5.407407e+00	 1.023668e+01
0	 4.444444e+00	 5.481481e+00	 1.022813e+01
0	 4.444444e+00	 5.555556e+00	 1.021977e+01
0	 4.074074e+00	 5.555556e+00	 1.020282e+01
0	 4.074074e+00	 5.629630e+00	 1.019438e+01
0	 4.074074e+00	 5.703704e+00	 1.018621e+01
0	 4.074074e+00	 5.777778e+00	 1.017832e+01
0	 4.074074e+00	 5.851852e+00	 1.017068e+01
0	 4.074074e+00	 5.925926e+00	 1.016332e+01
0	 4.148148e+00	 5.555556e+00	 1.020726e+01
0	 4.148148e+00	 5.629630e+00	 1.019885e+01
0	 4.148148e+00	 5.703704e+00	 1.019070e+01
0	 4.148148e+00	 5.777778e+00	 1.018280e+01
0	 4.148148e+00	 5.851852e+00	 1.017516e+01
0	 4.148148e+00	 5.925926e+00	 1.016777e+01
0	 4.222222e+00	 5.555556e+00	 1.021115e+01
0	 4.222222e+00	 5.629630e+00	 1.020278e+01
0	 4.222222e+00	 5.703704e+00	 1.019466e+01
0	 4.222222e+00	 5.777778e+00	 1.018678e+01
0	 4.222222e+00	 5.851852e+00	 1.017915e+01
0	 4.222222e+00	 5.925926e+00	 1.017176e+01
0	 4.296296e+00	 5.555556e+00	 1.021451e+01
0	 4.296296e+00	 5.629630e+00	 1.020620e+01
0	 4.296296e+00	 5.703704e+00	 1.019813e+01
0	 4.296296e+00	 5.777778e+00	 1.019029e+01
0	 4.296296e+00	 5.851852e+00	 1.018268e+01
0	 4.296296e+00	 5.925926e+00	 1.017530e+01
0	 4.370370e+00	 5.555556e+00	 1.021737e+01
0	 4.370370e+00	 5.629630e+00	 1.020914e+01
0	 4.370370e+00	 5.703704e+00	 1.020113e+01
0	 4.370370e+00	 5.777778e+00	 1.019334e+01
0	 4.370370e+00	 5.851852e+00	 1.018577e+01
0	 4.370370e+00	 5.925926e+00	 1.017841e+01
0	 4.444444e+00	 5.555556e+00	 1.021977e+01
0	 4.444444e+00	 5.629630e+00	 1.021162e+01
0	 4.444444e+00	 5.703704e+00	 1.020369e+01
0	 4.444444e+00	 5.777778e+00	 1.019596e+01
0	 4.444444e+00	 5.851852e+00	 1.018844e+01
0	 4.444444e+00	 5.925926e+00	 1.018113e+01
0	 4.074074e+00	 5.925926e+00	 1.016332e+01
0	 4.074074e+00	 6.000000e+00	 1.015621e+01
0	 4.074074e+00	 6.074074e+00	 1.014933e+01
0	 4.074074e+00	 6.148148e+00	 1.014270e+01
0	 4.074074e+00	 6.222222e+00	 1.013630e+01
0	 4.074074e+00	 6.296296e+00	 1.013015e+01
0	 4.148148e+00	 5.925926e+00	 1.016777e+01
0	 4.148148e+00	 6.000000e+00	 1.016062e+01
0	 4.148148e+00	 6.074074e+00	 1.015371e+01
0	 4.148148e+00	 6.148148e+00	 1.014703e+01
0	 4.148148e+00	 6.222222e+00	 1.014058e+01
0	 4.148148e+00	 6.296296e+00	 1.013436e+01
0	 4.222222e+00	 5.925926e+00	 1.017176e+01
0	 4.222222e+00	 6.000000e+00	 1.016460e+01
0	 4.222222e+00	 6.074074e+00	 1.015766e+01
0	 4.222222e+00	 6.148148e+00	 1.015094e+01
0	 4.222222e+00	 6.222222e+00	 1.014445e+01
0	 4.222222e+00	 6.296296e+00	 1.013818e+01
0	 4.296296e+00	 5.925926e+00	 1.017530e+01
0	 4.296296e+00	 6.000000e+00	 1.016814e+01
0	 4.296296e+00	 6.074074e+00	 1.016119e+01
0	 4.296296e+00	 6.148148e+00	 1.015446e+01
0	 4.296296e+00	 6.222222e+00	 1.014794e+01
0	 4.296296e+00	 6.296296e+00	 1.014163e+01
0	 4.370370e+00	 5.925926e+00	 1.017841e+01
0	 4.370370e+00	 6.000000e+00	 1.017127e+01
0	 4.370370e+00	 6.074074e+00	 1.016433e+01
0	 4.370370e+00	 6.148148e+00	 1.015759e+01
0	 4.370370e+00	 6.222222e+00	 1.015106e+01
0	 4.370370e+00	 6.296296e+00	 1.014473e+01
0	 4.444444e+00	 5.925926e+00	 1.018113e+01
0	 4.444444e+00	 6.000000e+00	 1.017401e+01
0	 4.444444e+00	 6.074074e+00	 1.016709e+01
0	 4.444444e+00	 6.148148e+00	 1.016036e+01
0	 4.444444e+00	 6.222222e+00	 1.015383e+01
0	 4.444444e+00	 6.296296e+00	 1.014749e+01
0	 4.074074e+00	 6.296296e+00	 1.013015e+01
0	 4.074074e+00	 6.370370e+00	 1.012421e+01
0	 4.074074e+00	 6.444444e+00	 1.011848e+01
0	 4.074074e+00	 6.518519e+00	 1.011296e+01
0	 4.074074e+00	 6.592593e+00	 1.010764e+01
0	 4.074074e+00	 6.666667e+00	 1.010252e+01
0	 4.148148e+00	 6.296296e+00	 1.013436e+01
0	 4.148148e+00	 6.370370e+00	 1.012835e+01
0	 4.148148e+00	 6.444444e+00	 1.012254e+01
0	 4.148148e+00	 6.518519e+00	 1.011693e+01
0	 4.148148e+00	 6.592593e+00	 1.011152e+01
0	 4.148148e+00	 6.666667e+00	 1.010631e+01
0	 4.222222e+00	 6.296296e+00	 1.013818e+01
0	 4.222222e+00	 6.370370e+00	 1.013211e+01
0	 4.222222e+00	 6.444444e+00	 1.012624e+01
0	 4.222222e+00	 6.518519e+00	 1.012057e+01
0	 4.222222e+00	 6.592593e+00	 1.011508e+01
0	 4.222222e+00	 6.666667e+00	 1.010980e+01
0	 4.296296e+00	 6.296296e+00	 1.014163e+01
0	 4.296296e+00	 6.370370e+00	 1.013553e+01
0	 4.296296e+00	 6.444444e+00	 1.012961e+01
0	 4.296296e+00	 6.518519e+00	 1.012388e+01
0	 4.296296e+00	 6.592593e+00	 1.011833e+01
0	 4.296296e+00	 6.666667e+00	 1.011298e+01
0	 4.370370e+00	 6.296296e+00	 1.014473e+01
0	 4.370370e+00	 6.370370e+00	 1.013859e+01
0	 4.370370e+00	 6.444444e+00	 1.013264e+01
0	 4.370370e+00	 6.518519e+00	 1.012687e+01
0	 4.370370e+00	 6.592593e+00	 1.012128e+01
0	 4.370370e+00	 6.666667e+00	 1.011587e+01
0	 4.444444e+00	 6.296296e+00	 1.014749e+01
0	 4.444444e+00	 6.370370e+00	 1.014133e+01
0	 4.444444e+00	 6.444444e+00	 1.013535e+01
0	 4.444444e+00	 6.518519e+00	 1.012955e+01
0	 4.444444e+00	 6.592593e+00	 1.012392e+01
0	 4.444444e+00	 6.666667e+00	 1.011847e+01
0	 4.074074e+00	 6.666667e+00	 1.010252e+01
0	 4.074074e+00	 6.740741e+00	 1.009760e+01
0	 4.074074e+00	 6.814815e+00	 1.009284e+01
0	 4.074074e+00	 6.888889e+00	 1.008826e+01
0	 4.074074e+00	 6.962963e+00	 1.008385e+01
0	 4.074074e+00	 7.037037e+00	 1.007962e+01
0	 4.148148e+00	 6.666667e+00	 1.010631e+01
0	 4.148148e+00	 6.740741e+00	 1.010129e+01
0	 4.148148e+00	 6.814815e+00	 1.009644e+01
0	 4.148148e+00	 6.888889e+00	 1.009175e+01
0	 4.148148e+00	 6.962963e+00	 1.008724e+01
0	 4.148148e+00	 7.037037e+00	 1.008289e+01
0	 4.222222e+00	 6.666667e+00	 1.010980e+01
0	 4.222222e+00	 6.740741e+00	 1.010469e+01
0	 4.222222e+00	 6.814815e+00	 1.009975e+01
0	 4.222222e+00	 6.888889e+00	 1.009497e+01
0	 4.222222e+00	 6.962963e+00	 1.009036e+01
0	 4.222222e+00	 7.037037e+00	 1.008592e+01
0	 4.296296e+00	 6.666667e+00	 1.011298e+01
0	 4.296296e+00	 6.740741e+00	 1.010780e+01
0	 4.296296e+00	 6.814815e+00	 1.010278e+01
0	 4.296296e+00	 6.888889e+00	 1.009793e+01
0	 4.296296e+00	 6.962963e+00	 1.009324e+01
0	 4.296296e+00	 7.037037e+00	 1.008872e+01
0	 4.370370e+00	 6.666667e+00	 1.011587e+01
0	 4.370370e+00	 6.740741e+00	 1.011063e+01
0	 4.370370e+00	 6.814815e+00	 1.010555e+01
0	 4.370370e+00	 6.888889e+00	 1.010063e+01
0	 4.370370e+00	 6.962963e+00	 1.009587e+01
0	 4.370370e+00	 7.037037e+00	 1.009127e+01
0	 4.444444e+00	 6.666667e+00	 1.011847e+01
0	 4.444444e+00	 6.740741e+00	 1.011319e+01
0	 4.444444e+00	 6.814815e+00	 1.010806e+01
0	 4.444444e+00	 6.888889e+00	 1.010308e+01
0	 4.444444e+00	 6.962963e+00	 1.009827e+01
0	 4.444444e+00	 7.037037e+00	 1.009360e+01
0	 4.074074e+00	 7.037037e+00	 1.007962e+01
0	 4.074074e+00	 7.111111e+00	 1.007554e+01
0	 4.074074e+00	 7.185185e+00	 1.007161e+01
0	 4.074074e+00	 7.259259e+00	 1.006781e+01
0	 4.074074e+00	 7.333333e+00	 1.006417e+01
0	 4.074074e+00	 7.407407e+00	 1.006066e+01
0	 4.148148e+00	 7.037037e+00	 1.008289e+01
0	 4.148148e+00	 7.111111e+00	 1.007871e+01
0	 4.148148e+00	 7.185185e+00	 1.007466e+01
0	 4.148148e+00	 7.259259e+00	 1.007075e+01
0	 4.148148e+00	 7.333333e+00	 1.006699e+01
0	 4.148148e+00	 7.407407e+00	 1.006337e+01
0	 4.222222e+00	 7.037037e+00	 1.008592e+01
0	 4.222222e+00	 7.111111e+00	 1.008164e+01
0	 4.222222e+00	 7.185185e+00	 1.007749e+01
0	 4.222222e+00	 7.259259e+00	 1.007348e+01
0	 4.222222e+00	 7.333333e+00	 1.006962e+01
0	 4.222222e+00	 7.407407e+00	 1.006589e+01
0	 4.296296e+00	 7.037037e+00	 1.008872e+01
0	 4.296296e+00	 7.111111e+00	 1.008434e+01
0	 4.296296e+00	 7.185185e+00	 1.008010e+01
0	 4.296296e+00	 7.259259e+00	 1.007601e+01
0	 4.296296e+00	 7.333333e+00	 1.007205e+01
0	 4.296296e+00	 7.407407e+00	 1.006823e+01
0	 4.370370e+00	 7.037037e+00	 1.009127e+01
0	 4.370370e+00	 7.111111e+00	 1.008682e+01
0	 4.370370e+00	 7.185185e+00	 1.008250e+01
0	 4.370370e+00	 7.259259e+00	 1.007833e+01
0	 4.370370e+00	 7.333333e+00	 1.007429e+01
0	 4.370370e+00	 7.407407e+00	 1.007038e+01
0	 4.444444e+00	 7.037037e+00	 1.009360e+01
0	 4.444444e+00	 7.111111e+00	 1.008908e+01
0	 4.444444e+00	 7.185185e+00	 1.008470e+01
0	 4.444444e+00	 7.259259e+00	 1.008045e+01
0	 4.444444e+00	 7.333333e+00	 1.007633e+01
0	 4.444444e+00	 7.407407e+00	 1.007235e+01
0	 4.074074e+00	 7.407407e+00	 1.006066e+01
0	 4.074074e+00	 7.481481e+00	 1.005729e+01
0	 4.074074e+00	 7.555556e+00	 1.005403e+01
0	 4.074074e+00	 7.629630e+00	 1.005090e+01
0	 4.074074e+00	 7.703704e+00	 1.004788e+01
0	 4.074074e+00	 7.777778e+00	 1.004498e+01
0	 4.148148e+00	 7.407407e+00	 1.006337e+01
0	 4.148148e+00	 7.481481e+00	 1.005988e+01
0	 4.148148e+00	 7.555556e+00	 1.005651e+01
0	 4.148148e+00	 7.629630e+00	 1.005326e+01
0	 4.148148e+00	 7.703704e+00	 1.005013e+01
0	 4.148148e+00	 7.777778e+00	 1.004711e+01
0	 4.222222e+00	 7.407407e+00	 1.006589e+01
0	 4.222222e+00	 7.481481e+00	 1.006230e+01
0	 4.222222e+00	 7.555556e+00	 1.005882e+01
0	 4.222222e+00	 7.629630e+00	 1.005547e+01
0	 4.222222e+00	 7.703704e+00	 1.005223e+01
0	 4.222222e+00	 7.777778e+00	 1.004911e+01
0	 4.296296e+00	 7.407407e+00	 1.006823e+01
0	 4.296296e+00	 7.481481e+00	 1.006454e+01
0	 4.296296e+00	 7.555556e+00	 1.006097e+01
0	 4.296296e+00	 7.629630e+00	 1.005751e+01
0	 4.296296e+00	 7.703704e+00	 1.005418e+01
0	 4.296296e+00	 7.777778e+00	 1.005096e+01
0	 4.370370e+00	 7.407407e+00	 1.007038e+01
0	 4.370370e+00	 7.481481e+00	 1.006661e+01
0	 4.370370e+00	 7.555556e+00	 1.006295e+01
0	 4.370370e+00	 7.629630e+00	 1.005941e+01
0	 4.370370e+00	 7.703704e+00	 1.005598e+01
0	 4.370370e+00	 7.777778e+00	 1.005268e+01
0	 4.444444e+00	 7.407407e+00	 1.007235e+01
0	 4.444444e+00	 7.481481e+00	 1.006850e+01
0	 4.444444e+00	 7.555556e+00	 1.006476e+01
0	 4.444444e+00	 7.629630e+00	 1.006115e+01
0	 4.444444e+00	 7.703704e+00	 1.005764e+01
0	 4.444444e+00	 7.777778e+00	 1.005426e+01
0	 4.074074e+00	 7.777778e+00	 1.004498e+01
0	 4.074074e+00	 7.851852e+00	 1.004219e+01
0	 4.074074e+00	 7.925926e+00	 1.003949e+01
0	 4.074074e+00	 8.000000e+00	 1.003690e+01
0	 4.074074e+00	 8.074074e+00	 1.003440e+01
0	 4.074074e+00	 8.148148e+00	 1.003200e+01
0	 4.148148e+00	 7.777778e+00	 1.004711e+01
0	 4.148148e+00	 7.851852e+00	 1.004421e+01
0	 4.148148e+00	 7.925926e+00	 1.004140e+01
0	 4.148148e+00	 8.000000e+00	 1.003870e+01
0	 4.148148e+00	 8.074074e+00	 1.003609e+01
0	 4.148148e+00	 8.148148e+00	 1.003358e+01
0	 4.222222e+00	 7.777778e+00	 1.004911e+01
0	 4.222222e+00	 7.851852e+00	 1.004610e+01
0	 4.222222e+00	 7.925926e+00	 1.004319e+01
0	 4.222222e+00	 8.000000e+00	 1.004038e+01
0	 4.222222e+00	 8.074074e+00	 1.003767e+01
0	 4.222222e+00	 8.148148e+00	 1.003507e+01
0	 4.296296e+00	 7.777778e+00	 1.005096e+01
0	 4.296296e+00	 7.851852e+00	 1.004786e+01
0	 4.296296e+00	 7.925926e+00	 1.004485e+01
0	 4.296296e+00	 8.000000e+00	 1.004195e+01
0	 4.296296e+00	 8.074074e+00	 1.003915e+01
0	 4.296296e+00	 8.148148e+00	 1.003645e+01
0	 4.370370e+00	 7.777778e+00	 1.005268e+01
0	 4.370370e+00	 7.851852e+00	 1.004948e+01
0	 4.370370e+00	 7.925926e+00	 1.004639e+01
0	 4.370370e+00	 8.000000e+00	 1.004340e+01
0	 4.370370e+00	 8.074074e+00	 1.004052e+01
0	 4.370370e+00	 8.148148e+00	 1.003773e+01
0	 4.444444e+00	 7.777778e+00	 1.005426e+01
0	 4.444444e+00	 7.851852e+00	 1.005098e+01
0	 4.444444e+00	 7.925926e+00	 1.004781e+01
0	 4.444444e+00	 8.000000e+00	 1.004474e+01
0	 4.444444e+00	 8.074074e+00	 1.004178e+01
0	 4.444444e+00	 8.148148e+00	 1.003891e+01
0	 4.074074e+00	 8.148148e+00	 1.003200e+01
0	 4.074074e+00	 8.222222e+00	 1.002970e+01
0	 4.074074e+00	 8.296296e+00	 1.002748e+01
0	 4.074074e+00	 8.370370e+00	 1.002534e+01
0	 4.074074e+00	 8.444444e+00	 1.002329e+01
0	 4.074074e+00	 8.518519e+00	 1.002132e+01
0	 4.148148e+00	 8.148148e+00	 1.003358e+01
0	 4.148148e+00	 8.222222e+00	 1.003117e+01
0	 4.148148e+00	 8.296296e+00	 1.002885e+01
0	 4.148148e+00	 8.370370e+00	 1.002661e+01
0	 4.148148e+00	 8.444444e+00	 1.002446e+01
0	 4.148148e+00	 8.518519e+00	 1.002240e+01
0	 4.222222e+00	 8.148148e+00	 1.003507e+01
0	 4.222222e+00	 8.222222e+00	 1.003255e+01
0	 4.222222e+00	 8.296296e+00	 1.003013e+01
0	 4.222222e+00	 8.370370e+00	 1.002780e+01
0	 4.222222e+00	 8.444444e+00	 1.002556e+01
0	 4.222222e+00	 8.518519e+00	 1.002341e+01
0	 4.296296e+00	 8.148148e+00	 1.003645e+01
0	 4.296296e+00	 8.222222e+00	 1.003385e+01
0	 4.296296e+00	 8.296296e+00	 1.003134e+01
0	 4.296296e+00	 8.370370e+00	 1.002892e+01
0	 4.296296e+00	 8.444444e+00	 1.002659e+01
0	 4.296296e+00	 8.518519e+00	 1.002435e+01
0	 4.370370e+00	 8.148148e+00	 1.003773e+01
0	 4.370370e+00	 8.222222e+00	 1.003504e+01
0	 4.370370e+00	 8.296296e+00	 1.003245e+01
0	 4.370370e+00	 8.370370e+00	 1.002995e+01
0	 4.370370e+00	 8.444444e+00	 1.002755e+01
0	 4.370370e+00	 8.518519e+00	 1.002523e+01
0	 4.444444e+00	 8.148148e+00	 1.003891e+01
0	 4.444444e+00	 8.222222e+00	 1.003615e+01
0	 4.444444e+00	 8.296296e+00	 1.003348e+01
0	 4.444444e+00	 8.370370e+00	 1.003091e+01
0	 4.444444e+00	 8.444444e+00	 1.002843e+01
0	 4.444444e+00	 8.518519e+00	 1.002604e+01
0	 4.074074e+00	 8.518519e+00	 1.002132e+01
0	 4.074074e+00	 8.592593e+00	 1.001944e+01
0	 4.074074e+00	 8.666667e+00	 1.001763e+01
0	 4.074074e+00	 8.740741e+00	 1.001591e+01
0	 4.074074e+00	 8.814815e+00	 1.001426e+01
0	 4.074074e+00	 8.888889e+00	 1.001269e+01
0	 4.148148e+00	 8.518519e+00	 1.002240e+01
0	 4.148148e+00	 8.592593e+00	 1.002042e+01
0	 4.148148e+00	 8.666667e+00	 1.001852e+01
0	 4.148148e+00	 8.740741e+00	 1.001671e+01
0	 4.148148e+00	 8.814815e+00	 1.001498e+01
0	 4.148148e+00	 8.888889e+00	 1.001333e+01
0	 4.222222e+00	 8.518519e+00	 1.002341e+01
0	 4.222222e+00	 8.592593e+00	 1.002134e+01
0	 4.222222e+00	 8.666667e+00	 1.001936e+01
0	 4.222222e+00	 8.740741e+00	 1.001747e+01
0	 4.222222e+00	 8.814815e+00	 1.001566e+01
0	 4.222222e+00	 8.888889e+00	 1.001393e+01
0	 4.296296e+00	 8.518519e+00	 1.002435e+01
0	 4.296296e+00	 8.592593e+00	 1.002220e+01
0	 4.296296e+00	 8.666667e+00	 1.002015e+01
0	 4.296296e+00	 8.740741e+00	 1.001818e+01
0	 4.296296e+00	 8.814815e+00	 1.001630e+01
0	 4.296296e+00	 8.888889e+00	 1.001450e+01
0	 4.370370e+00	 8.518519e+00	 1.002523e+01
0	 4.370370e+00	 8.592593e+00	 1.002301e+01
0	 4.370370e+00	 8.666667e+00	 1.002088e+01
0	 4.370370e+00	 8.740741e+00	 1.001884e+01
0	 4.370370e+00	 8.814815e+00	 1.001689e+01
0	 4.370370e+00	 8.888889e+00	 1.001503e+01
0	 4.444444e+00	 8.518519e+00	 1.002604e+01
0	 4.444444e+00	 8.592593e+00	 1.002374e+01
0	 4.444444e+00	 8.666667e+00	 1.002155e+01
0	 4.444444e+00	 8.740741e+00	 1.001945e+01
0	 4.444444e+00	 8.814815e+00	 1.001743e+01
0	 4.444444e+00	 8.888889e+00	 1.001551e+01
0	 4.074074e+00	 8.888889e+00	 1.001269e+01
0	 4.074074e+00	 8.962963e+00	 1.001120e+01
0	 4.074074e+00	 9.037037e+00	 1.000979e+01
0	 4.074074e+00	 9.111111e+00	 1.000847e+01
0	 4.074074e+00	 9.185185e+00	 1.000723e+01
0	 4.074074e+00	 9.259259e+00	 1.000606e+01
0	 4.148148e+00	 8.888889e+00	 1.001333e+01
0	 4.148148e+00	 8.962963e+00	 1.001176e+01
0	 4.148148e+00	 9.037037e+00	 1.001029e+01
0	 4.148148e+00	 9.111111e+00	 1.000890e+01
0	 4.148148e+00	 9.185185e+00	 1.000759e+01
0	 4.148148e+00	 9.259259e+00	 1.000636e+01
0	 4.222222e+00	 8.888889e+00	 1.001393e+01
0	 4.222222e+00	 8.962963e+00	 1.001229e+01
0	 4.222222e+00	 9.037037e+00	 1.001075e+01
0	 4.222222e+00	 9.111111e+00	 1.000930e+01
0	 4.222222e+00	 9.185185e+00	 1.000793e+01
0	 4.222222e+00	 9.259259e+00	 1.000665e+01
0	 4.296296e+00	 8.888889e+00	 1.001450e+01
0	 4.296296e+00	 8.962963e+00	 1.001279e+01
0	 4.296296e+00	 9.037037e+00	 1.001119e+01
0	 4.296296e+00	 9.111111e+00	 1.000967e+01
0	 4.296296e+00	 9.185185e+00	 1.000825e+01
0	 4.296296e+00	 9.259259e+00	 1.000691e+01
0	 4.370370e+00	 8.888889e+00	 1.001503e+01
0	 4.370370e+00	 8.962963e+00	 1.001326e+01
0	 4.370370e+00	 9.037037e+00	 1.001159e+01
0	 4.370370e+00	 9.111111e+00	 1.001002e+01
0	 4.370370e+00	 9.185185e+00	 1.000855e+01
0	 4.370370e+00	 9.259259e+00	 1.000716e+01
0	 4.444444e+00	 8.888889e+00	 1.001551e+01
0	 4.444444e+00	 8.962963e+00	 1.001368e+01
0	 4.444444e+00	 9.037037e+00	 1.001196e+01
0	 4.444444e+00	 9.111111e+00	 1.001034e+01
0	 4.444444e+00	 9.185185e+00	 1.000882e+01
0	 4.444444e+00	 9.259259e+00	 1.000739e+01
0	 4.074074e+00	 9.259259e+00	 1.000606e+01
0	 4.074074e+00	 9.333333e+00	 1.000498e+01
0	 4.074074e+00	 9.407407e+00	 1.000401e+01
0	 4.074074e+00	 9.481481e+00	 1.000314e+01
0	 4.074074e+00	 9.555556e+00	 1.000235e+01
0	 4.074074e+00	 9.629630e+00	 1.000165e+01
0	 4.148148e+00	 9.259259e+00	 1.000636e+01
0	 4.148148e+00	 9.333333e+00	 1.000523e+01
0	 4.148148e+00	 9.407407e+00	 1.000421e+01
0	 4.148148e+00	 9.481481e+00	 1.000329e+01
0	 4.148148e+00	 9.555556e+00	 1.000246e+01
0	 4.148148e+00	 9.629630e+00	 1.000173e+01
0	 4.222222e+00	 9.259259e+00	 1.000665e+01
0	 4.222222e+00	 9.333333e+00	 1.000546e+01
0	 4.222222e+00	 9.407407e+00	 1.000439e+01
0	 4.222222e+00	 9.481481e+00	 1.000343e+01
0	 4.222222e+00	 9.555556e+00	 1.000257e+01
0	 4.222222e+00	 9.629630e+00	 1.000181e+01
0	 4.296296e+00	 9.259259e+00	 1.000691e+01
0	 4.296296e+00	 9.333333e+00	 1.000568e+01
0	 4.296296e+00	 9.407407e+00	 1.000457e+01
0	 4.296296e+00	 9.481481e+00	 1.000357e+01
0	 4.296296e+00	 9.555556e+00	 1.000268e+01
0	 4.296296e+00	 9.629630e+00	 1.000188e+01
0	 4.370370e+00	 9.259259e+00	 1.000716e+01
0	 4.370370e+00	 9.333333e+00	 1.000588e+01
0	 4.370370e+00	 9.407407e+00	 1.000473e+01
0	 4.370370e+00	 9.481481e+00	 1.000369e+01
0	 4.370370e+00	 9.555556e+00	 1.000277e+01
0	 4.370370e+00	 9.629630e+00	 1.000195e+01
0	 4.444444e+00	 9.259259e+00	 1.000739e+01
0	 4.444444e+00	 9.333333e+00	 1.000607e+01
0	 4.444444e+00	 9.407407e+00	 1.000488e+01
0	 4.444444e+00	 9.481481e+00	 1.000381e+01
0	 4.444444e+00	 9.555556e+00	 1.000285e+01
0	 4.444444e+00	 9.629630e+00	 1.000201e+01
0	 4.074074e+00	 9.629630e+00	 1.000165e+01
0	 4.074074e+00	 9.703704e+00	 1.000107e+01
0	 4.074074e+00	 9.777778e+00	 1.000062e+01
0	 4.074074e+00	 9.851852e+00	 1.000029e+01
0	 4.074074e+00	 9.925926e+00	 1.000008e+01
0	 4.074074e+00	 1.000000e+01	 9.999976e+00
0	 4.148148e+00	 9.629630e+00	 1.000173e+01
0	 4.148148e+00	 9.703704e+00	 1.000112e+01
0	 4.148148e+00	 9.777778e+00	 1.000064e+01
0	 4.148148e+00	 9.851852e+00	 1.000030e+01
0	 4.148148e+00	 9.925926e+00	 1.000008e+01
0	 4.148148e+00	 1.000000e+01	 9.999971e+00
0	 4.222222e+00	 9.629630e+00	 1.000181e+01
0	 4.222222e+00	 9.703704e+00	 1.000117e+01
0	 4.222222e+00	 9.777778e+00	 1.000067e+01
0	 4.222222e+00	 9.851852e+00	 1.000031e+01
0	 4.222222e+00	 9.925926e+00	 1.000008e+01
0	 4.222222e+00	 1.000000e+01	 9.999972e+00
0	 4.296296e+00	 9.629630e+00	 1.000188e+01
0	 4.296296e+00	 9.703704e+00	 1.000121e+01
0	 4.296296e+00	 9.777778e+00	 1.000070e+01
0	 4.296296e+00	 9.851852e+00	 1.000033e+01
0	 4.296296e+00	 9.925926e+00	 1.000009e+01
0	 4.296296e+00	 1.000000e+01	 9.999974e+00
0	 4.370370e+00	 9.629630e+00	 1.000195e+01
0	 4.370370e+00	 9.703704e+00	 1.000126e+01
0	 4.370370e+00	 9.777778e+00	 1.000072e+01
0	 4.370370e+00	 9.851852e+00	 1.000034e+01
0	 4.370370e+00	 9.925926e+00	 1.000010e+01
0	 4.370370e+00	 1.000000e+01	 9.999976e+00
0	 4.444444e+00	 9.629630e+00	 1.000201e+01
0	 4.444444e+00	 9.703704e+00	 1.000129e+01
0	 4.444444e+00	 9.777778e+00	 1.000074e+01
0	 4.444444e+00	 9.851852e+00	 1.000035e+01
0	 4.444444e+00	 9.925926e+00	 1.000010e+01
0	 4.444444e+00	 1.000000e+01	 9.999973e+00
0	 4.444444e+00	 0.000000e+00	 1.042098e+01
0	 4.444444e+00	 7.407407e-02	 1.042278e+01
0	 4.444444e+00	 1.481481e-01	 1.042537e+01
0	 4.444444e+00	 2.222222e-01	 1.042878e+01
0	 4.444444e+00	 2.962963e-01	 1.043304e+01
0	 4.444444e+00	 3.703704e-01	 1.043817e+01
0	 4.518519e+00	 0.000000e+00	 1.040537e+01
0	 4.518519e+00	 7.407407e-02	 1.040745e+01
0	 4.518519e+00	 1.481481e-01	 1.041016e+01
0	 4.518519e+00	 2.222222e-01	 1.041356e+01
0	 4.518519e+00	 2.962963e-01	 1.041768e+01
0	 4.518519e+00	 3.703704e-01	 1.042258e+01
0	 4.592593e+00	 0.000000e+00	 1.039215e+01
0	 4.592593e+00	 7.407407e-02	 1.039392e+01
0	 4.592593e+00	 1.481481e-01	 1.039628e+01
0	 4.592593e+00	 2.222222e-01	 1.039931e+01
0	 4.592593e+00	 2.962963e-01	 1.040306e+01
0	 4.592593e+00	 3.703704e-01	 1.040761e+01
0	 4.666667e+00	 0.000000e+00	 1.038053e+01
0	 4.666667e+00	 7.407407e-02	 1.038163e+01
0	 4.666667e+00	 1.481481e-01	 1.038339e+01
0	 4.666667e+00	 2.222222e-01	 1.038588e+01
0	 4.666667e+00	 2.962963e-01	 1.038917e+01
0	 4.666667e+00	 3.703704e-01	 1.039331e+01
0	 4.740741e+00	 0.000000e+00	 1.036968e+01
0	 4.740741e+00	 7.407407e-02	 1.037005e+01
0	 4.740741e+00	 1.481481e-01	 1.037118e+01
0	 4.740741e+00	 2.222222e-01	 1.037313e+01
0	 4.740741e+00	 2.962963e-01	 1.037595e+01
0	 4.740741e+00	 3.703704e-01	 1.037971e+01
0	 4.814815e+00	 0.000000e+00	 1.035879e+01
0	 4.814815e+00	 7.407407e-02	 1.035863e+01
0	 4.814815e+00	 1.481481e-01	 1.035932e+01
0	 4.814815e+00	 2.222222e-01	 1.036089e+01
0	 4.814815e+00	 2.962963e-01	 1.036339e+01
0	 4.814815e+00	 3.703704e-01	 1.036685e+01
0	 4.444444e+00	 3.703704e-01	 1.043817e+01
0	 4.444444e+00	 4.444444e-01	 1.044398e+01
0	 4.444444e+00	 5.185185e-01	 1.045031e+01
0	 4.444444e+00	 5.925926e-01	 1.045728e+01
0	 4.444444e+00	 6.666667e-01	 1.046497e+01
0	 4.444444e+00	 7.407407e-01	 1.047348e+01
0	 4.518519e+00	 3.703704e-01	 1.042258e+01
0	 4.518519e+00	 4.444444e-01	 1.042811e+01
0	 4.518519e+00	 5.185185e-01	 1.043414e+01
0	 4.518519e+00	 5.925926e-01	 1.044078e+01
0	 4.518519e+00	 6.666667e-01	 1.044809e+01
0	 4.518519e+00	 7.407407e-01	 1.045617e+01
0	 4.592593e+00	 3.703704e-01	 1.040761e+01
0	 4.592593e+00	 4.444444e-01	 1.041280e+01
0	 4.592593e+00	 5.185185e-01	 1.041850e+01
0	 4.592593e+00	 5.925926e-01	 1.042480e+01
0	 4.592593e+00	 6.666667e-01	 1.043175e+01
0	 4.592593e+00	 7.407407e-01	 1.043944e+01
0	 4.666667e+00	 3.703704e-01	 1.039331e+01
0	 4.666667e+00	 4.444444e-01	 1.039814e+01
0	 4.666667e+00	 5.185185e-01	 1.040349e+01
0	 4.666667e+00	 5.925926e-01	 1.040944e+01
0	 4.666667e+00	 6.666667e-01	 1.041605e+01
0	 4.666667e+00	 7.407407e-01	 1.042339e+01
0	 4.740741e+00	 3.703704e-01	 1.037971e+01
0	 4.740741e+00	 4.444444e-01	 1.038419e+01
0	 4.740741e+00	 5.185185e-01	 1.038921e+01
0	 4.740741e+00	 5.925926e-01	 1.039482e+01
0	 4.740741e+00	 6.666667e-01	 1.040109e+01
0	 4.740741e+00	 7.407407e-01	 1.040809e+01
0	 4.814815e+00	 3.703704e-01	 1.036685e+01
0	 4.814815e+00	 4.444444e-01	 1.037105e+01
0	 4.814815e+00	 5.185185e-01	 1.037576e+01
0	 4.814815e+00	 5.925926e-01	 1.038105e+01
0	 4.814815e+00	 6.666667e-01	 1.038698e+01
0	 4.814815e+00	 7.407407e-01	 1.039362e+01
0	 4.444444e+00	 7.407407e-01	 1.047348e+01
0	 4.444444e+00	 8.148148e-01	 1.048239e+01
0	 4.444444e+00	 8.888889e-01	 1.049129e+01
0	 4.444444e+00	 9.629630e-01	 1.050033e+01
0	 4.444444e+00	 1.037037e+00	 1.050965e+01
0	 4.444444e+00	 1.111111e+00	 1.051940e+01
0	 4.518519e+00	 7.407407e-01	 1.045617e+01
0	 4.518519e+00	 8.148148e-01	 1.046464e+01
0	 4.518519e+00	 8.888889e-01	 1.047315e+01
0	 4.518519e+00	 9.629630e-01	 1.048183e+01
0	 4.518519e+00	 1.037037e+00	 1.049081e+01
0	 4.518519e+00	 1.111111e+00	 1.050020e+01
0	 4.592593e+00	 7.407407e-01	 1.043944e+01
0	 4.592593e+00	 8.148148e-01	 1.044753e+01
0	 4.592593e+00	 8.888889e-01	 1.045570e+01
0	 4.592593e+00	 9.629630e-01	 1.046405e+01
0	 4.592593e+00	 1.037037e+00	 1.047269e+01
0	 4.592593e+00	 1.111111e+00	 1.048173e+01
0	 4.666667e+00	 7.407407e-01	 1.042339e+01
0	 4.666667e+00	 8.148148e-01	 1.043114e+01
0	 4.666667e+00	 8.888889e-01	 1.043898e+01
0	 4.666667e+00	 9.629630e-01	 1.044700e+01
0	 4.666667e+00	 1.037037e+00	 1.045531e+01
0	 4.666667e+00	 1.111111e+00	 1.046398e+01
0	 4.740741e+00	 7.407407e-01	 1.040809e+01
0	 4.740741e+00	 8.148148e-01	 1.041549e+01
0	 4.740741e+00	 8.888889e-01	 1.042300e+01
0	 4.740741e+00	 9.629630e-01	 1.043068e+01
0	 4.740741e+00	 1.037037e+00	 1.043864e+01
0	 4.740741e+00	 1.111111e+00	 1.044694e+01
0	 4.814815e+00	 7.407407e-01	 1.039362e+01
0	 4.814815e+00	 8.148148e-01	 1.040066e+01
0	 4.814815e+00	 8.888889e-01	 1.040780e+01
0	 4.814815e+00	 9.629630e-01	 1.041511e+01
0	 4.814815e+00	 1.037037e+00	 1.042269e+01
0	 4.814815e+00	 1.111111e+00	 1.043060e+01
0	 4.444444e+00	 1.111111e+00	 1.051940e+01
0	 4.444444e+00	 1.185185e+00	 1.052912e+01
0	 4.444444e+00	 1.259259e+00	 1.053831e+01
0	 4.444444e+00	 1.333333e+00	 1.054710e+01
0	 4.444444e+00	 1.407407e+00	 1.055558e+01
0	 4.444444e+00	 1.481481e+00	 1.056389e+01
0	 4.518519e+00	 1.111111e+00	 1.050020e+01
0	 4.518519e+00	 1.185185e+00	 1.050955e+01
0	 4.518519e+00	 1.259259e+00	 1.051843e+01
0	 4.518519e+00	 1.333333e+00	 1.052692e+01
0	 4.518519e+00	 1.407407e+00	 1.053516e+01
0	 4.518519e+00	 1.481481e+00	 1.054325e+01
0	 4.592593e+00	 1.111111e+00	 1.048173e+01
0	 4.592593e+00	 1.185185e+00	 1.049073e+01
0	 4.592593e+00	 1.259259e+00	 1.049930e+01
0	 4.592593e+00	 1.333333e+00	 1.050753e+01
0	 4.592593e+00	 1.407407e+00	 1.051554e+01
0	 4.592593e+00	 1.481481e+00	 1.052343e+01
0	 4.666667e+00	 1.111111e+00	 1.046398e+01
0	 4.666667e+00	 1.185185e+00	 1.047264e+01
0	 4.666667e+00	 1.259259e+00	 1.048090e+01
0	 4.666667e+00	 1.333333e+00	 1.048888e+01
0	 4.666667e+00	 1.407407e+00	 1.049667e+01
0	 4.666667e+00	 1.481481e+00	 1.050438e+01
0	 4.740741e+00	 1.111111e+00	 1.044694e+01
0	 4.740741e+00	 1.185185e+00	 1.045525e+01
0	 4.740741e+00	 1.259259e+00	 1.046321e+01
0	 4.740741e+00	 1.333333e+00	 1.047093e+01
0	 4.740741e+00	 1.407407e+00	 1.047850e+01
0	 4.740741e+00	 1.481481e+00	 1.048602e+01
0	 4.814815e+00	 1.111111e+00	 1.043060e+01
0	 4.814815e+00	 1.185185e+00	 1.043854e+01
0	 4.814815e+00	 1.259259e+00	 1.044619e+01
0	 4.814815e+00	 1.333333e+00	 1.045365e+01
0	 4.814815e+00	 1.407407e+00	 1.046099e+01
0	 4.814815e+00	 1.481481e+00	 1.046831e+01
0	 4.444444e+00	 1.481481e+00	 1.056389e+01
0	 4.444444e+00	 1.555556e+00	 1.057170e+01
0	 4.444444e+00	 1.629630e+00	 1.057867e+01
0	 4.444444e+00	 1.703704e+00	 1.058488e+01
0	 4.444444e+00	 1.777778e+00	 1.059041e+01
0	 4.444444e+00	 1.851852e+00	 1.059535e+01
0	 4.518519e+00	 1.481481e+00	 1.054325e+01
0	 4.518519e+00	 1.555556e+00	 1.055089e+01
0	 4.518519e+00	 1.629630e+00	 1.055776e+01
0	 4.518519e+00	 1.703704e+00	 1.056393e+01
0	 4.518519e+00	 1.777778e+00	 1.056949e+01
0	 4.518519e+00	 1.851852e+00	 1.057451e+01
0	 4.592593e+00	 1.481481e+00	 1.052343e+01
0	 4.592593e+00	 1.555556e+00	 1.053092e+01
0	 4.592593e+00	 1.629630e+00	 1.053770e+01
0	 4.592593e+00	 1.703704e+00	 1.054383e+01
0	 4.592593e+00	 1.777778e+00	 1.054940e+01
0	 4.592593e+00	 1.851852e+00	 1.055449e+01
0	 4.666667e+00	 1.481481e+00	 1.050438e+01
0	 4.666667e+00	 1.555556e+00	 1.051172e+01
0	 4.666667e+00	 1.629630e+00	 1.051840e+01
0	 4.666667e+00	 1.703704e+00	 1.052449e+01
0	 4.666667e+00	 1.777778e+00	 1.053006e+01
0	 4.666667e+00	 1.851852e+00	 1.053519e+01
0	 4.740741e+00	 1.481481e+00	 1.048602e+01
0	 4.740741e+00	 1.555556e+00	 1.049322e+01
0	 4.740741e+00	 1.629630e+00	 1.049980e+01
0	 4.740741e+00	 1.703704e+00	 1.050583e+01
0	 4.740741e+00	 1.777778e+00	 1.051138e+01
0	 4.740741e+00	 1.851852e+00	 1.051653e+01
0	 4.814815e+00	 1.481481e+00	 1.046831e+01
0	 4.814815e+00	 1.555556e+00	 1.047534e+01
0	 4.814815e+00	 1.629630e+00	 1.048180e+01
0	 4.814815e+00	 1.703704e+00	 1.048776e+01
0	 4.814815e+00	 1.777778e+00	 1.049327e+01
0	 4.814815e+00	 1.851852e+00	 1.049842e+01
0	 4.444444e+00	 1.851852e+00	 1.059535e+01
0	 4.444444e+00	 1.925926e+00	 1.059952e+01
0	 4.444444e+00	 2.000000e+00	 1.060275e+01
0	 4.444444e+00	 2.074074e+00	 1.060507e+01
0	 4.444444e+00	 2.148148e+00	 1.060654e+01
0	 4.444444e+00	 2.222222e+00	 1.060719e+01
0	 4.518519e+00	 1.851852e+00	 1.057451e+01
0	 4.518519e+00	 1.925926e+00	 1.057884e+01
0	 4.518519e+00	 2.000000e+00	 1.058229e+01
0	 4.518519e+00	 2.074074e+00	 1.058490e+01
0	 4.518519e+00	 2.148148e+00	 1.058671e+01
0	 4.518519e+00	 2.222222e+00	 1.058777e+01
0	 4.592593e+00	 1.851852e+00	 1.055449e+01
0	 4.592593e+00	 1.925926e+00	 1.055893e+01
0	 4.592593e+00	 2.000000e+00	 1.056255e+01
0	 4.592593e+00	 2.074074e+00	 1.056539e+01
0	 4.592593e+00	 2.148148e+00	 1.056749e+01
0	 4.592593e+00	 2.222222e+00	 1.056888e+01
0	 4.666667e+00	 1.851852e+00	 1.053519e+01
0	 4.666667e+00	 1.925926e+00	 1.053972e+01
0	 4.666667e+00	 2.000000e+00	 1.054348e+01
0	 4.666667e+00	 2.074074e+00	 1.054650e+01
0	 4.666667e+00	 2.148148e+00	 1.054882e+01
0	 4.666667e+00	 2.222222e+00	 1.055049e+01
0	 4.740741e+00	 1.851852e+00	 1.051653e+01
0	 4.740741e+00	 1.925926e+00	 1.052112e+01
0	 4.740741e+00	 2.000000e+00	 1.052498e+01
0	 4.740741e+00	 2.074074e+00	 1.052815e+01
0	 4.740741e+00	 2.148148e+00	 1.053066e+01
0	 4.740741e+00	 2.222222e+00	 1.053256e+01
0	 4.814815e+00	 1.851852e+00	 1.049842e+01
0	 4.814815e+00	 1.925926e+00	 1.050305e+01
0	 4.814815e+00	 2.000000e+00	 1.050699e+01
0	 4.814815e+00	 2.074074e+00	 1.051028e+01
0	 4.814815e+00	 2.148148e+00	 1.051295e+01
0	 4.814815e+00	 2.222222e+00	 1.051506e+01
0	 4.444444e+00	 2.222222e+00	 1.060719e+01
0	 4.444444e+00	 2.296296e+00	 1.060701e+01
0	 4.444444e+00	 2.370370e+00	 1.060598e+01
0	 4.444444e+00	 2.444444e+00	 1.060408e+01
0	 4.444444e+00	 2.518519e+00	 1.060131e+01
0	 4.444444e+00	 2.592593e+00	 1.059768e+01
0	 4.518519e+00	 2.222222e+00	 1.058777e+01
0	 4.518519e+00	 2.296296e+00	 1.058804e+01
0	 4.518519e+00	 2.370370e+00	 1.058748e+01
0	 4.518519e+00	 2.444444e+00	 1.058609e+01
0	 4.518519e+00	 2.518519e+00	 1.058387e+01
0	 4.518519e+00	 2.592593e+00	 1.058083e+01
0	 4.592593e+00	 2.222222e+00	 1.056888e+01
0	 4.592593e+00	 2.296296e+00	 1.056953e+01
0	 4.592593e+00	 2.370370e+00	 1.056939e+01
0	 4.592593e+00	 2.444444e+00	 1.056845e+01
0	 4.592593e+00	 2.518519e+00	 1.056673e+01
0	 4.592593e+00	 2.592593e+00	 1.056423e+01
0	 4.666667e+00	 2.222222e+00	 1.055049e+01
0	 4.666667e+00	 2.296296e+00	 1.055146e+01
0	 4.666667e+00	 2.370370e+00	 1.055167e+01
0	 4.666667e+00	 2.444444e+00	 1.055114e+01
0	 4.666667e+00	 2.518519e+00	 1.054987e+01
0	 4.666667e+00	 2.592593e+00	 1.054788e+01
0	 4.740741e+00	 2.222222e+00	 1.053256e+01
0	 4.740741e+00	 2.296296e+00	 1.053380e+01
0	 4.740741e+00	 2.370370e+00	 1.053433e+01
0	 4.740741e+00	 2.444444e+00	 1.053417e+01
0	 4.740741e+00	 2.518519e+00	 1.053331e+01
0	 4.740741e+00	 2.592593e+00	 1.053179e+01
0	 4.814815e+00	 2.222222e+00	 1.051506e+01
0	 4.814815e+00	 2.296296e+00	 1.051654e+01
0	 4.814815e+00	 2.370370e+00	 1.051736e+01
0	 4.814815e+00	 2.444444e+00	 1.051752e+01
0	 4.814815e+00	 2.518519e+00	 1.051705e+01
0	 4.814815e+00	 2.592593e+00	 1.051594e+01
0	 4.444444e+00	 2.592593e+00	 1.059768e+01
0	 4.444444e+00	 2.666667e+00	 1.059330e+01
0	 4.444444e+00	 2.740741e+00	 1.058829e+01
0	 4.444444e+00	 2.814815e+00	 1.058263e+01
0	 4.444444e+00	 2.888889e+00	 1.057630e+01
0	 4.444444e+00	 2.962963e+00	 1.056928e+01
0	 4.518519e+00	 2.592593e+00	 1.058083e+01
0	 4.518519e+00	 2.666667e+00	 1.057708e+01
0	 4.518519e+00	 2.740741e+00	 1.057271e+01
0	 4.518519e+00	 2.814815e+00	 1.056771e+01
0	 4.518519e+00	 2.888889e+00	 1.056207e+01
0	 4.518519e+00	 2.962963e+00	 1.055576e+01
0	 4.592593e+00	 2.592593e+00	 1.056423e+01
0	 4.592593e+00	 2.666667e+00	 1.056106e+01
0	 4.592593e+00	 2.740741e+00	 1.055728e+01
0	 4.592593e+00	 2.814815e+00	 1.055290e+01
0	 4.592593e+00	 2.888889e+00	 1.054787e+01
0	 4.592593e+00	 2.962963e+00	 1.054220e+01
0	 4.666667e+00	 2.592593e+00	 1.054788e+01
0	 4.666667e+00	 2.666667e+00	 1.054525e+01
0	 4.666667e+00	 2.740741e+00	 1.054202e+01
0	 4.666667e+00	 2.814815e+00	 1.053819e+01
0	 4.666667e+00	 2.888889e+00	 1.053373e+01
0	 4.666667e+00	 2.962963e+00	 1.052864e+01
0	 4.740741e+00	 2.592593e+00	 1.053179e+01
0	 4.740741e+00	 2.666667e+00	 1.052964e+01
0	 4.740741e+00	 2.740741e+00	 1.052692e+01
0	 4.740741e+00	 2.814815e+00	 1.052359e+01
0	 4.740741e+00	 2.888889e+00	 1.051966e+01
0	 4.740741e+00	 2.962963e+00	 1.051510e+01
0	 4.814815e+00	 2.592593e+00	 1.051594e+01
0	 4.814815e+00	 2.666667e+00	 1.051424e+01
0	 4.814815e+00	 2.740741e+00	 1.051197e+01
0	 4.814815e+00	 2.814815e+00	 1.050911e+01
0	 4.814815e+00	 2.888889e+00	 1.050566e+01
0	 4.814815e+00	 2.962963e+00	 1.050161e+01
0	 4.444444e+00	 2.962963e+00	 1.056928e+01
0	 4.444444e+00	 3.037037e+00	 1.056171e+01
0	 4.444444e+00	 3.111111e+00	 1.055372e+01
0	 4.444444e+00	 3.185185e+00	 1.054528e+01
0	 4.444444e+00	 3.259259e+00	 1.053635e+01
0	 4.444444e+00	 3.333333e+00	 1.052689e+01
0	 4.518519e+00	 2.962963e+00	 1.055576e+01
0	 4.518519e+00	 3.037037e+00	 1.054890e+01
0	 4.518519e+00	 3.111111e+00	 1.054161e+01
0	 4.518519e+00	 3.185185e+00	 1.053386e+01
0	 4.518519e+00	 3.259259e+00	 1.052561e+01
0	 4.518519e+00	 3.333333e+00	 1.051685e+01
0	 4.592593e+00	 2.962963e+00	 1.054220e+01
0	 4.592593e+00	 3.037037e+00	 1.053599e+01
0	 4.592593e+00	 3.111111e+00	 1.052935e+01
0	 4.592593e+00	 3.185185e+00	 1.052224e+01
0	 4.592593e+00	 3.259259e+00	 1.051464e+01
0	 4.592593e+00	 3.333333e+00	 1.050653e+01
0	 4.666667e+00	 2.962963e+00	 1.052864e+01
0	 4.666667e+00	 3.037037e+00	 1.052302e+01
0	 4.666667e+00	 3.111111e+00	 1.051697e+01
0	 4.666667e+00	 3.185185e+00	 1.051046e+01
0	 4.666667e+00	 3.259259e+00	 1.050348e+01
0	 4.666667e+00	 3.333333e+00	 1.049601e+01
0	 4.740741e+00	 2.962963e+00	 1.051510e+01
0	 4.740741e+00	 3.037037e+00	 1.051003e+01
0	 4.740741e+00	 3.111111e+00	 1.050453e+01
0	 4.740741e+00	 3.185185e+00	 1.049859e+01
0	 4.740741e+00	 3.259259e+00	 1.049219e+01
0	 4.740741e+00	 3.333333e+00	 1.048532e+01
0	 4.814815e+00	 2.962963e+00	 1.050161e+01
0	 4.814815e+00	 3.037037e+00	 1.049705e+01
0	 4.814815e+00	 3.111111e+00	 1.049208e+01
0	 4.814815e+00	 3.185185e+00	 1.048667e+01
0	 4.814815e+00	 3.259259e+00	 1.048082e+01
0	 4.814815e+00	 3.333333e+00	 1.047451e+01
0	 4.444444e+00	 3.333333e+00	 1.052689e+01
0	 4.444444e+00	 3.407407e+00	 1.051708e+01
0	 4.444444e+00	 3.481481e+00	 1.050708e+01
0	 4.444444e+00	 3.555556e+00	 1.049686e+01
0	 4.444444e+00	 3.629630e+00	 1.048639e+01
0	 4.444444e+00	 3.703704e+00	 1.047564e+01
0	 4.518519e+00	 3.333333e+00	 1.051685e+01
0	 4.518519e+00	 3.407407e+00	 1.050772e+01
0	 4.518519e+00	 3.481481e+00	 1.049839e+01
0	 4.518519e+00	 3.555556e+00	 1.048884e+01
0	 4.518519e+00	 3.629630e+00	 1.047901e+01
0	 4.518519e+00	 3.703704e+00	 1.046890e+01
0	 4.592593e+00	 3.333333e+00	 1.050653e+01
0	 4.592593e+00	 3.407407e+00	 1.049807e+01
0	 4.592593e+00	 3.481481e+00	 1.048939e+01
0	 4.592593e+00	 3.555556e+00	 1.048046e+01
0	 4.592593e+00	 3.629630e+00	 1.047125e+01
0	 4.592593e+00	 3.703704e+00	 1.046173e+01
0	 4.666667e+00	 3.333333e+00	 1.049601e+01
0	 4.666667e+00	 3.407407e+00	 1.048817e+01
0	 4.666667e+00	 3.481481e+00	 1.048010e+01
0	 4.666667e+00	 3.555556e+00	 1.047177e+01
0	 4.666667e+00	 3.629630e+00	 1.046314e+01
0	 4.666667e+00	 3.703704e+00	 1.045419e+01
0	 4.740741e+00	 3.333333e+00	 1.048532e+01
0	 4.740741e+00	 3.407407e+00	 1.047808e+01
0	 4.740741e+00	 3.481481e+00	 1.047058e+01
0	 4.740741e+00	 3.555556e+00	 1.046282e+01
0	 4.740741e+00	 3.629630e+00	 1.045474e+01
0	 4.740741e+00	 3.703704e+00	 1.044634e+01
0	 4.814815e+00	 3.333333e+00	 1.047451e+01
0	 4.814815e+00	 3.407407e+00	 1.046783e+01
0	 4.814815e+00	 3.481481e+00	 1.046088e+01
0	 4.814815e+00	 3.555556e+00	 1.045365e+01
0	 4.814815e+00	 3.629630e+00	 1.044610e+01
0	 4.814815e+00	 3.703704e+00	 1.043822e+01
0	 4.444444e+00	 3.703704e+00	 1.047564e+01
0	 4.444444e+00	 3.777778e+00	 1.046473e+01
0	 4.444444e+00	 3.851852e+00	 1.045379e+01
0	 4.444444e+00	 3.925926e+00	 1.044280e+01
0	 4.444444e+00	 4.000000e+00	 1.043171e+01
0	 4.444444e+00	 4.074074e+00	 1.042050e+01
0	 4.518519e+00	 3.703704e+00	 1.046890e+01
0	 4.518519e+00	 3.777778e+00	 1.045861e+01
0	 4.518519e+00	 3.851852e+00	 1.044826e+01
0	 4.518519e+00	 3.925926e+00	 1.043782e+01
0	 4.518519e+00	 4.000000e+00	 1.042727e+01
0	 4.518519e+00	 4.074074e+00	 1.041658e+01
0	 4.592593e+00	 3.703704e+00	 1.046173e+01
0	 4.592593e+00	 3.777778e+00	 1.045202e+01
0	 4.592593e+00	 3.851852e+00	 1.044223e+01
0	 4.592593e+00	 3.925926e+00	 1.043234e+01
0	 4.592593e+00	 4.000000e+00	 1.042232e+01
0	 4.592593e+00	 4.074074e+00	 1.041214e+01
0	 4.666667e+00	 3.703704e+00	 1.045419e+01
0	 4.666667e+00	 3.777778e+00	 1.044504e+01
0	 4.666667e+00	 3.851852e+00	 1.043579e+01
0	 4.666667e+00	 3.925926e+00	 1.042642e+01
0	 4.666667e+00	 4.000000e+00	 1.041691e+01
0	 4.666667e+00	 4.074074e+00	 1.040723e+01
0	 4.740741e+00	 3.703704e+00	 1.044634e+01
0	 4.740741e+00	 3.777778e+00	 1.043771e+01
0	 4.740741e+00	 3.851852e+00	 1.042898e+01
0	 4.740741e+00	 3.925926e+00	 1.042012e+01
0	 4.740741e+00	 4.000000e+00	 1.041111e+01
0	 4.740741e+00	 4.074074e+00	 1.040192e+01
0	 4.814815e+00	 3.703704e+00	 1.043822e+01
0	 4.814815e+00	 3.777778e+00	 1.043011e+01
0	 4.814815e+00	 3.851852e+00	 1.042188e+01
0	 4.814815e+00	 3.925926e+00	 1.041351e+01
0	 4.814815e+00	 4.000000e+00	 1.040498e+01
0	 4.814815e+00	 4.074074e+00	 1.039627e+01
0	 4.444444e+00	 4.074074e+00	 1.042050e+01
0	 4.444444e+00	 4.148148e+00	 1.040927e+01
0	 4.444444e+00	 4.222222e+00	 1.039815e+01
0	 4.444444e+00	 4.296296e+00	 1.038710e+01
0	 4.444444e+00	 4.370370e+00	 1.037611e+01
0	 4.444444e+00	 4.444444e+00	 1.036514e+01
0	 4.518519e+00	 4.074074e+00	 1.041658e+01
0	 4.518519e+00	 4.148148e+00	 1.040586e+01
0	 4.518519e+00	 4.222222e+00	 1.039521e+01
0	 4.518519e+00	 4.296296e+00	 1.038462e+01
0	 4.518519e+00	 4.370370e+00	 1.037405e+01
0	 4.518519e+00	 4.444444e+00	 1.036350e+01
0	 4.592593e+00	 4.074074e+00	 1.041214e+01
0	 4.592593e+00	 4.148148e+00	 1.040191e+01
0	 4.592593e+00	 4.222222e+00	 1.039173e+01
0	 4.592593e+00	 4.296296e+00	 1.038159e+01
0	 4.592593e+00	 4.370370e+00	 1.037145e+01
0	 4.592593e+00	 4.444444e+00	 1.036130e+01
0	 4.666667e+00	 4.074074e+00	 1.040723e+01
0	 4.666667e+00	 4.148148e+00	 1.039749e+01
0	 4.666667e+00	 4.222222e+00	 1.038777e+01
0	 4.666667e+00	 4.296296e+00	 1.037807e+01
0	 4.666667e+00	 4.370370e+00	 1.036835e+01
0	 4.666667e+00	 4.444444e+00	 1.035859e+01
0	 4.740741e+00	 4.074074e+00	 1.040192e+01
0	 4.740741e+00	 4.148148e+00	 1.039265e+01
0	 4.740741e+00	 4.222222e+00	 1.038339e+01
0	 4.740741e+00	 4.296296e+00	 1.037411e+01
0	 4.740741e+00	 4.370370e+00	 1.036480e+01
0	 4.740741e+00	 4.444444e+00	 1.035543e+01
0	 4.814815e+00	 4.074074e+00	 1.039627e+01
0	 4.814815e+00	 4.148148e+00	 1.038745e+01
0	 4.814815e+00	 4.222222e+00	 1.037863e+01
0	 4.814815e+00	 4.296296e+00	 1.036977e+01
0	 4.814815e+00	 4.370370e+00	 1.036086e+01
0	 4.814815e+00	 4.444444e+00	 1.035187e+01
0	 4.444444e+00	 4.444444e+00	 1.036514e+01
0	 4.444444e+00	 4.518519e+00	 1.035428e+01
0	 4.444444e+00	 4.592593e+00	 1.034358e+01
0	 4.444444e+00	 4.666667e+00	 1.033303e+01
0	 4.444444e+00	 4.740741e+00	 1.032262e+01
0	 4.444444e+00	 4.814815e+00	 1.031231e+01
0	 4.518519e+00	 4.444444e+00	 1.036350e+01
0	 4.518519e+00	 4.518519e+00	 1.035302e+01
0	 4.518519e+00	 4.592593e+00	 1.034268e+01
0	 4.518519e+00	 4.666667e+00	 1.033247e+01
0	 4.518519e+00	 4.740741e+00	 1.032237e+01
0	 4.518519e+00	 4.814815e+00	 1.031235e+01
0	 4.592593e+00	 4.444444e+00	 1.036130e+01
0	 4.592593e+00	 4.518519e+00	 1.035120e+01
0	 4.592593e+00	 4.592593e+00	 1.034122e+01
0	 4.592593e+00	 4.666667e+00	 1.033134e+01
0	 4.592593e+00	 4.740741e+00	 1.032156e+01
0	 4.592593e+00	 4.814815e+00	 1.031184e+01
0	 4.666667e+00	 4.444444e+00	 1.035859e+01
0	 4.666667e+00	 4.518519e+00	 1.034886e+01
0	 4.666667e+00	 4.592593e+00	 1.033924e+01
0	 4.666667e+00	 4.666667e+00	 1.032970e+01
0	 4.666667e+00	 4.740741e+00	 1.032024e+01
0	 4.666667e+00	 4.814815e+00	 1.031083e+01
0	 4.740741e+00	 4.444444e+00	 1.035543e+01
0	 4.740741e+00	 4.518519e+00	 1.034608e+01
0	 4.740741e+00	 4.592593e+00	 1.033681e+01
0	 4.740741e+00	 4.666667e+00	 1.032761e+01
0	 4.740741e+00	 4.740741e+00	 1.031846e+01
0	 4.740741e+00	 4.814815e+00	 1.030935e+01
0	 4.814815e+00	 4.444444e+00	 1.035187e+01
0	 4.814815e+00	 4.518519e+00	 1.034288e+01
0	 4.814815e+00	 4.592593e+00	 1.033396e+01
0	 4.814815e+00	 4.666667e+00	 1.032510e+01
0	 4.814815e+00	 4.740741e+00	 1.031627e+01
0	 4.814815e+00	 4.814815e+00	 1.030747e+01
0	 4.444444e+00	 4.814815e+00	 1.031231e+01
0	 4.444444e+00	 4.888889e+00	 1.030217e+01
0	 4.444444e+00	 4.962963e+00	 1.029223e+01
0	 4.444444e+00	 5.037037e+00	 1.028250e+01
0	 4.444444e+00	 5.111111e+00	 1.027295e+01
0	 4.444444e+00	 5.185185e+00	 1.026357e+01
0	 4.518519e+00	 4.814815e+00	 1.031235e+01
0	 4.518519e+00	 4.888889e+00	 1.030248e+01
0	 4.518519e+00	 4.962963e+00	 1.029280e+01
0	 4.518519e+00	 5.037037e+00	 1.028330e+01
0	 4.518519e+00	 5.111111e+00	 1.027397e+01
0	 4.518519e+00	 5.185185e+00	 1.026478e+01
0	 4.592593e+00	 4.814815e+00	 1.031184e+01
0	 4.592593e+00	 4.888889e+00	 1.030225e+01
0	 4.592593e+00	 4.962963e+00	 1.029283e+01
0	 4.592593e+00	 5.037037e+00	 1.028357e+01
0	 4.592593e+00	 5.111111e+00	 1.027446e+01
0	 4.592593e+00	 5.185185e+00	 1.026548e+01
0	 4.666667e+00	 4.814815e+00	 1.031083e+01
0	 4.666667e+00	 4.888889e+00	 1.030152e+01
0	 4.666667e+00	 4.962963e+00	 1.029237e+01
0	 4.666667e+00	 5.037037e+00	 1.028335e+01
0	 4.666667e+00	 5.111111e+00	 1.027447e+01
0	 4.666667e+00	 5.185185e+00	 1.026570e+01
0	 4.740741e+00	 4.814815e+00	 1.030935e+01
0	 4.740741e+00	 4.888889e+00	 1.030033e+01
0	 4.740741e+00	 4.962963e+00	 1.029145e+01
0	 4.740741e+00	 5.037037e+00	 1.028269e+01
0	 4.740741e+00	 5.111111e+00	 1.027403e+01
0	 4.740741e+00	 5.185185e+00	 1.026548e+01
0	 4.814815e+00	 4.814815e+00	 1.030747e+01
0	 4.814815e+00	 4.888889e+00	 1.029874e+01
0	 4.814815e+00	 4.962963e+00	 1.029012e+01
0	 4.814815e+00	 5.037037e+00	 1.028161e+01
0	 4.814815e+00	 5.111111e+00	 1.027319e+01
0	 4.814815e+00	 5.185185e+00	 1.026485e+01
0	 4.444444e+00	 5.185185e+00	 1.026357e+01
0	 4.444444e+00	 5.259259e+00	 1.025439e+01
0	 4.444444e+00	 5.333333e+00	 1.024543e+01
0	 4.444444e+00	 5.407407e+00	 1.023668e+01
0	 4.444444e+00	 5.481481e+00	 1.022813e+01
0	 4.444444e+00	 5.555556e+00	 1.021977e+01
0	 4.518519e+00	 5.185185e+00	 1.026478e+01
0	 4.518519e+00	 5.259259e+00	 1.025578e+01
0	 4.518519e+00	 5.333333e+00	 1.024698e+01
0	 4.518519e+00	 5.407407e+00	 1.023837e+01
0	 4.518519e+00	 5.481481e+00	 1.022995e+01
0	 4.518519e+00	 5.555556e+00	 1.022171e+01
0	 4.592593e+00	 5.185185e+00	 1.026548e+01
0	 4.592593e+00	 5.259259e+00	 1.025666e+01
0	 4.592593e+00	 5.333333e+00	 1.024803e+01
0	 4.592593e+00	 5.407407e+00	 1.023958e+01
0	 4.592593e+00	 5.481481e+00	 1.023130e+01
0	 4.592593e+00	 5.555556e+00	 1.022318e+01
0	 4.666667e+00	 5.185185e+00	 1.026570e+01
0	 4.666667e+00	 5.259259e+00	 1.025707e+01
0	 4.666667e+00	 5.333333e+00	 1.024862e+01
0	 4.666667e+00	 5.407407e+00	 1.024033e+01
0	 4.666667e+00	 5.481481e+00	 1.023220e+01
0	 4.666667e+00	 5.555556e+00	 1.022422e+01
0	 4.740741e+00	 5.185185e+00	 1.026548e+01
0	 4.740741e+00	 5.259259e+00	 1.025705e+01
0	 4.740741e+00	 5.333333e+00	 1.024878e+01
0	 4.740741e+00	 5.407407e+00	 1.024067e+01
0	 4.740741e+00	 5.481481e+00	 1.023269e+01
0	 4.740741e+00	 5.555556e+00	 1.022485e+01
0	 4.814815e+00	 5.185185e+00	 1.026485e+01
0	 4.814815e+00	 5.259259e+00	 1.025663e+01
0	 4.814815e+00	 5.333333e+00	 1.024855e+01
0	 4.814815e+00	 5.407407e+00	 1.024061e+01
0	 4.814815e+00	 5.481481e+00	 1.023280e+01
0	 4.814815e+00	 5.555556e+00	 1.022511e+01
0	 4.444444e+00	 5.555556e+00	 1.021977e+01
0	 4.444444e+00	 5.629630e+00	 1.021162e+01
0	 4.444444e+00	 5.703704e+00	 1.020369e+01
0	 4.444444e+00	 5.777778e+00	 1.019596e+01
0	 4.444444e+00	 5.851852e+00	 1.018844e+01
0	 4.444444e+00	 5.925926e+00	 1.018113e+01
0	 4.518519e+00	 5.555556e+00	 1.022171e+01
0	 4.518519e+00	 5.629630e+00	 1.021366e+01
0	 4.518519e+00	 5.703704e+00	 1.020581e+01
0	 4.518519e+00	 5.777778e+00	 1.019816e+01
0	 4.518519e+00	 5.851852e+00	 1.019070e+01
0	 4.518519e+00	 5.925926e+00	 1.018344e+01
0	 4.592593e+00	 5.555556e+00	 1.022318e+01
0	 4.592593e+00	 5.629630e+00	 1.021524e+01
0	 4.592593e+00	 5.703704e+00	 1.020749e+01
0	 4.592593e+00	 5.777778e+00	 1.019993e+01
0	 4.592593e+00	 5.851852e+00	 1.019255e+01
0	 4.592593e+00	 5.925926e+00	 1.018534e+01
0	 4.666667e+00	 5.555556e+00	 1.022422e+01
0	 4.666667e+00	 5.629630e+00	 1.021640e+01
0	 4.666667e+00	 5.703704e+00	 1.020876e+01
0	 4.666667e+00	 5.777778e+00	 1.020130e+01
0	 4.666667e+00	 5.851852e+00	 1.019400e+01
0	 4.666667e+00	 5.925926e+00	 1.018686e+01
0	 4.740741e+00	 5.555556e+00	 1.022485e+01
0	 4.740741e+00	 5.629630e+00	 1.021717e+01
0	 4.740741e+00	 5.703704e+00	 1.020965e+01
0	 4.740741e+00	 5.777778e+00	 1.020229e+01
0	 4.740741e+00	 5.851852e+00	 1.019508e+01
0	 4.740741e+00	 5.925926e+00	 1.018803e+01
0	 4.814815e+00	 5.555556e+00	 1.022511e+01
0	 4.814815e+00	 5.629630e+00	 1.021756e+01
0	 4.814815e+00	 5.703704e+00	 1.021017e+01
0	 4.814815e+00	 5.777778e+00	 1.020292e+01
0	 4.814815e+00	 5.851852e+00	 1.019582e+01
0	 4.814815e+00	 5.925926e+00	 1.018886e+01
0	 4.444444e+00	 5.925926e+00	 1.018113e+01
0	 4.444444e+00	 6.000000e+00	 1.017401e+01
0	 4.444444e+00	 6.074074e+00	 1.016709e+01
0	 4.444444e+00	 6.148148e+00	 1.016036e+01
0	 4.444444e+00	 6.222222e+00	 1.015383e+01
0	 4.444444e+00	 6.296296e+00	 1.014749e+01
0	 4.518519e+00	 5.925926e+00	 1.018344e+01
0	 4.518519e+00	 6.000000e+00	 1.017635e+01
0	 4.518519e+00	 6.074074e+00	 1.016946e+01
0	 4.518519e+00	 6.148148e+00	 1.016276e+01
0	 4.518519e+00	 6.222222e+00	 1.015624e+01
0	 4.518519e+00	 6.296296e+00	 1.014990e+01
0	 4.592593e+00	 5.925926e+00	 1.018534e+01
0	 4.592593e+00	 6.000000e+00	 1.017831e+01
0	 4.592593e+00	 6.074074e+00	 1.017146e+01
0	 4.592593e+00	 6.148148e+00	 1.016479e+01
0	 4.592593e+00	 6.222222e+00	 1.015829e+01
0	 4.592593e+00	 6.296296e+00	 1.015197e+01
0	 4.666667e+00	 5.925926e+00	 1.018686e+01
0	 4.666667e+00	 6.000000e+00	 1.017990e+01
0	 4.666667e+00	 6.074074e+00	 1.017310e+01
0	 4.666667e+00	 6.148148e+00	 1.016647e+01
0	 4.666667e+00	 6.222222e+00	 1.016001e+01
0	 4.666667e+00	 6.296296e+00	 1.015371e+01
0	 4.740741e+00	 5.925926e+00	 1.018803e+01
0	 4.740741e+00	 6.000000e+00	 1.018113e+01
0	 4.740741e+00	 6.074074e+00	 1.017440e+01
0	 4.740741e+00	 6.148148e+00	 1.016783e+01
0	 4.740741e+00	 6.222222e+00	 1.016141e+01
0	 4.740741e+00	 6.296296e+00	 1.015515e+01
0	 4.814815e+00	 5.925926e+00	 1.018886e+01
0	 4.814815e+00	 6.000000e+00	 1.018204e+01
0	 4.814815e+00	 6.074074e+00	 1.017538e+01
0	 4.814815e+00	 6.148148e+00	 1.016887e+01
0	 4.814815e+00	 6.222222e+00	 1.016251e+01
0	 4.814815e+00	 6.296296e+00	 1.015629e+01
0	 4.444444e+00	 6.296296e+00	 1.014749e+01
0	 4.444444e+00	 6.370370e+00	 1.014133e+01
0	 4.444444e+00	 6.444444e+00	 1.013535e+01
0	 4.444444e+00	 6.518519e+00	 1.012955e+01
0	 4.444444e+00	 6.592593e+00	 1.012392e+01
0	 4.444444e+00	 6.666667e+00	 1.011847e+01
0	 4.518519e+00	 6.296296e+00	 1.014990e+01
0	 4.518519e+00	 6.370370e+00	 1.014374e+01
0	 4.518519e+00	 6.444444e+00	 1.013775e+01
0	 4.518519e+00	 6.518519e+00	 1.013193e+01
0	 4.518519e+00	 6.592593e+00	 1.012628e+01
0	 4.518519e+00	 6.666667e+00	 1.012080e+01
0	 4.592593e+00	 6.296296e+00	 1.015197e+01
0	 4.592593e+00	 6.370370e+00	 1.014581e+01
0	 4.592593e+00	 6.444444e+00	 1.013982e+01
0	 4.592593e+00	 6.518519e+00	 1.013400e+01
0	 4.592593e+00	 6.592593e+00	 1.012834e+01
0	 4.592593e+00	 6.666667e+00	 1.012283e+01
0	 4.666667e+00	 6.296296e+00	 1.015371e+01
0	 4.666667e+00	 6.370370e+00	 1.014758e+01
0	 4.666667e+00	 6.444444e+00	 1.014160e+01
0	 4.666667e+00	 6.518519e+00	 1.013578e+01
0	 4.666667e+00	 6.592593e+00	 1.013011e+01
0	 4.666667e+00	 6.666667e+00	 1.012460e+01
0	 4.740741e+00	 6.296296e+00	 1.015515e+01
0	 4.740741e+00	 6.370370e+00	 1.014904e+01
0	 4.740741e+00	 6.444444e+00	 1.014308e+01
0	 4.740741e+00	 6.518519e+00	 1.013727e+01
0	 4.740741e+00	 6.592593e+00	 1.013162e+01
0	 4.740741e+00	 6.666667e+00	 1.012611e+01
0	 4.814815e+00	 6.296296e+00	 1.015629e+01
0	 4.814815e+00	 6.370370e+00	 1.015022e+01
0	 4.814815e+00	 6.444444e+00	 1.014429e+01
0	 4.814815e+00	 6.518519e+00	 1.013851e+01
0	 4.814815e+00	 6.592593e+00	 1.013287e+01
0	 4.814815e+00	 6.666667e+00	 1.012736e+01
0	 4.444444e+00	 6.666667e+00	 1.011847e+01
0	 4.444444e+00	 6.740741e+00	 1.011319e+01
0	 4.444444e+00	 6.814815e+00	 1.010806e+01
0	 4.444444e+00	 6.888889e+00	 1.010308e+01
0	 4.444444e+00	 6.962963e+00	 1.009827e+01
0	 4.444444e+00	 7.037037e+00	 1.009360e+01
0	 4.518519e+00	 6.666667e+00	 1.012080e+01
0	 4.518519e+00	 6.740741e+00	 1.011547e+01
0	 4.518519e+00	 6.814815e+00	 1.011030e+01
0	 4.518519e+00	 6.888889e+00	 1.010528e+01
0	 4.518519e+00	 6.962963e+00	 1.010042e+01
0	 4.518519e+00	 7.037037e+00	 1.009570e+01
0	 4.592593e+00	 6.666667e+00	 1.012283e+01
0	 4.592593e+00	 6.740741e+00	 1.011749e+01
0	 4.592593e+00	 6.814815e+00	 1.011229e+01
0	 4.592593e+00	 6.888889e+00	 1.010723e+01
0	 4.592593e+00	 6.962963e+00	 1.010233e+01
0	 4.592593e+00	 7.037037e+00	 1.009757e+01
0	 4.666667e+00	 6.666667e+00	 1.012460e+01
0	 4.666667e+00	 6.740741e+00	 1.011924e+01
0	 4.666667e+00	 6.814815e+00	 1.011402e+01
0	 4.666667e+00	 6.888889e+00	 1.010894e+01
0	 4.666667e+00	 6.962963e+00	 1.010401e+01
0	 4.666667e+00	 7.037037e+00	 1.009922e+01
0	 4.740741e+00	 6.666667e+00	 1.012611e+01
0	 4.740741e+00	 6.740741e+00	 1.012074e+01
0	 4.740741e+00	 6.814815e+00	 1.011551e+01
0	 4.740741e+00	 6.888889e+00	 1.011042e+01
0	 4.740741e+00	 6.962963e+00	 1.010547e+01
0	 4.740741e+00	 7.037037e+00	 1.010065e+01
0	 4.814815e+00	 6.666667e+00	 1.012736e+01
0	 4.814815e+00	 6.740741e+00	 1.012200e+01
0	 4.814815e+00	 6.814815e+00	 1.011677e+01
0	 4.814815e+00	 6.888889e+00	 1.011168e+01
0	 4.814815e+00	 6.962963e+00	 1.010671e+01
0	 4.814815e+00	 7.037037e+00	 1.010188e+01
0	 4.444444e+00	 7.037037e+00	 1.009360e+01
0	 4.444444e+00	 7.111111e+00	 1.008908e+01
0	 4.444444e+00	 7.185185e+00	 1.008470e+01
0	 4.444444e+00	 7.259259e+00	 1.008045e+01
0	 4.444444e+00	 7.333333e+00	 1.007633e+01
0	 4.444444e+00	 7.407407e+00	 1.007235e+01
0	 4.518519e+00	 7.037037e+00	 1.009570e+01
0	 4.518519e+00	 7.111111e+00	 1.009112e+01
0	 4.518519e+00	 7.185185e+00	 1.008668e+01
0	 4.518519e+00	 7.259259e+00	 1.008237e+01
0	 4.518519e+00	 7.333333e+00	 1.007819e+01
0	 4.518519e+00	 7.407407e+00	 1.007415e+01
0	 4.592593e+00	 7.037037e+00	 1.009757e+01
0	 4.592593e+00	 7.111111e+00	 1.009294e+01
0	 4.592593e+00	 7.185185e+00	 1.008845e+01
0	 4.592593e+00	 7.259259e+00	 1.008409e+01
0	 4.592593e+00	 7.333333e+00	 1.007986e+01
0	 4.592593e+00	 7.407407e+00	 1.007576e+01
0	 4.666667e+00	 7.037037e+00	 1.009922e+01
0	 4.666667e+00	 7.111111e+00	 1.009456e+01
0	 4.666667e+00	 7.185185e+00	 1.009003e+01
0	 4.666667e+00	 7.259259e+00	 1.008562e+01
0	 4.666667e+00	 7.333333e+00	 1.008135e+01
0	 4.666667e+00	 7.407407e+00	 1.007719e+01
0	 4.740741e+00	 7.037037e+00	 1.010065e+01
0	 4.740741e+00	 7.111111e+00	 1.009596e+01
0	 4.740741e+00	 7.185185e+00	 1.009140e+01
0	 4.740741e+00	 7.259259e+00	 1.008697e+01
0	 4.740741e+00	 7.333333e+00	 1.008265e+01
0	 4.740741e+00	 7.407407e+00	 1.007846e+01
0	 4.814815e+00	 7.037037e+00	 1.010188e+01
0	 4.814815e+00	 7.111111e+00	 1.009718e+01
0	 4.814815e+00	 7.185185e+00	 1.009259e+01
0	 4.814815e+00	 7.259259e+00	 1.008813e+01
0	 4.814815e+00	 7.333333e+00	 1.008379e+01
0	 4.814815e+00	 7.407407e+00	 1.007957e+01
0	 4.444444e+00	 7.407407e+00	 1.007235e+01
0	 4.444444e+00	 7.481481e+00	 1.006850e+01
0	 4.444444e+00	 7.555556e+00	 1.006476e+01
0	 4.444444e+00	 7.629630e+00	 1.006115e+01
0	 4.444444e+00	 7.703704e+00	 1.005764e+01
0	 4.444444e+00	 7.777778e+00	 1.005426e+01
0	 4.518519e+00	 7.407407e+00	 1.007415e+01
0	 4.518519e+00	 7.481481e+00	 1.007022e+01
0	 4.518519e+00	 7.555556e+00	 1.006642e+01
0	 4.518519e+00	 7.629630e+00	 1.006273e+01
0	 4.518519e+00	 7.703704e+00	 1.005916e+01
0	 4.518519e+00	 7.777778e+00	 1.005570e+01
0	 4.592593e+00	 7.407407e+00	 1.007576e+01
0	 4.592593e+00	 7.481481e+00	 1.007178e+01
0	 4.592593e+00	 7.555556e+00	 1.006791e+01
0	 4.592593e+00	 7.629630e+00	 1.006416e+01
0	 4.592593e+00	 7.703704e+00	 1.006053e+01
0	 4.592593e+00	 7.777778e+00	 1.005701e+01
0	 4.666667e+00	 7.407407e+00	 1.007719e+01
0	 4.666667e+00	 7.481481e+00	 1.007316e+01
0	 4.666667e+00	 7.555556e+00	 1.006925e+01
0	 4.666667e+00	 7.629630e+00	 1.006545e+01
0	 4.666667e+00	 7.703704e+00	 1.006176e+01
0	 4.666667e+00	 7.777778e+00	 1.005818e+01
0	 4.740741e+00	 7.407407e+00	 1.007846e+01
0	 4.740741e+00	 7.481481e+00	 1.007439e+01
0	 4.740741e+00	 7.555556e+00	 1.007043e+01
0	 4.740741e+00	 7.629630e+00	 1.006659e+01
0	 4.740741e+00	 7.703704e+00	 1.006285e+01
0	 4.740741e+00	 7.777778e+00	 1.005923e+01
0	 4.814815e+00	 7.407407e+00	 1.007957e+01
0	 4.814815e+00	 7.481481e+00	 1.007546e+01
0	 4.814815e+00	 7.555556e+00	 1.007147e+01
0	 4.814815e+00	 7.629630e+00	 1.006759e+01
0	 4.814815e+00	 7.703704e+00	 1.006381e+01
0	 4.814815e+00	 7.777778e+00	 1.006015e+01
0	 4.444444e+00	 7.777778e+00	 1.005426e+01
0	 4.444444e+00	 7.851852e+00	 1.005098e+01
0	 4.444444e+00	 7.925926e+00	 1.004781e+01
0	 4.444444e+00	 8.000000e+00	 1.004474e+01
0	 4.444444e+00	 8.074074e+00	 1.004178e+01
0	 4.444444e+00	 8.148148e+00	 1.003891e+01
0	 4.518519e+00	 7.777778e+00	 1.005570e+01
0	 4.518519e+00	 7.851852e+00	 1.005235e+01
0	 4.518519e+00	 7.925926e+00	 1.004911e+01
0	 4.518519e+00	 8.000000e+00	 1.004597e+01
0	 4.518519e+00	 8.074074e+00	 1.004293e+01
0	 4.518519e+00	 8.148148e+00	 1.004000e+01
0	 4.592593e+00	 7.777778e+00	 1.005701e+01
0	 4.592593e+00	 7.851852e+00	 1.005359e+01
0	 4.592593e+00	 7.925926e+00	 1.005029e+01
0	 4.592593e+00	 8.000000e+00	 1.004708e+01
0	 4.592593e+00	 8.074074e+00	 1.004398e+01
0	 4.592593e+00	 8.148148e+00	 1.004098e+01
0	 4.666667e+00	 7.777778e+00	 1.005818e+01
0	 4.666667e+00	 7.851852e+00	 1.005471e+01
0	 4.666667e+00	 7.925926e+00	 1.005135e+01
0	 4.666667e+00	 8.000000e+00	 1.004809e+01
0	 4.666667e+00	 8.074074e+00	 1.004493e+01
0	 4.666667e+00	 8.148148e+00	 1.004187e+01
0	 4.740741e+00	 7.777778e+00	 1.005923e+01
0	 4.740741e+00	 7.851852e+00	 1.005571e+01
0	 4.740741e+00	 7.925926e+00	 1.005230e+01
0	 4.740741e+00	 8.000000e+00	 1.004899e+01
0	 4.740741e+00	 8.074074e+00	 1.004578e+01
0	 4.740741e+00	 8.148148e+00	 1.004267e+01
0	 4.814815e+00	 7.777778e+00	 1.006015e+01
0	 4.814815e+00	 7.851852e+00	 1.005659e+01
0	 4.814815e+00	 7.925926e+00	 1.005313e+01
0	 4.814815e+00	 8.000000e+00	 1.004978e+01
0	 4.814815e+00	 8.074074e+00	 1.004653e+01
0	 4.814815e+00	 8.148148e+00	 1.004338e+01
0	 4.444444e+00	 8.148148e+00	 1.003891e+01
0	 4.444444e+00	 8.222222e+00	 1.003615e+01
0	 4.444444e+00	 8.296296e+00	 1.003348e+01
0	 4.444444e+00	 8.370370e+00	 1.003091e+01
0	 4.444444e+00	 8.444444e+00	 1.002843e+01
0	 4.444444e+00	 8.518519e+00	 1.002604e+01
0	 4.518519e+00	 8.148148e+00	 1.004000e+01
0	 4.518519e+00	 8.222222e+00	 1.003716e+01
0	 4.518519e+00	 8.296296e+00	 1.003442e+01
0	 4.518519e+00	 8.370370e+00	 1.003178e+01
0	 4.518519e+00	 8.444444e+00	 1.002924e+01
0	 4.518519e+00	 8.518519e+00	 1.002678e+01
0	 4.592593e+00	 8.148148e+00	 1.004098e+01
0	 4.592593e+00	 8.222222e+00	 1.003808e+01
0	 4.592593e+00	 8.296296e+00	 1.003528e+01
0	 4.592593e+00	 8.370370e+00	 1.003258e+01
0	 4.592593e+00	 8.444444e+00	 1.002997e+01
0	 4.592593e+00	 8.518519e+00	 1.002746e+01
0	 4.666667e+00	 8.148148e+00	 1.004187e+01
0	 4.666667e+00	 8.222222e+00	 1.003892e+01
0	 4.666667e+00	 8.296296e+00	 1.003606e+01
0	 4.666667e+00	 8.370370e+00	 1.003330e+01
0	 4.666667e+00	 8.444444e+00	 1.003064e+01
0	 4.666667e+00	 8.518519e+00	 1.002807e+01
0	 4.740741e+00	 8.148148e+00	 1.004267e+01
0	 4.740741e+00	 8.222222e+00	 1.003966e+01
0	 4.740741e+00	 8.296296e+00	 1.003676e+01
0	 4.740741e+00	 8.370370e+00	 1.003395e+01
0	 4.740741e+00	 8.444444e+00	 1.003124e+01
0	 4.740741e+00	 8.518519e+00	 1.002863e+01
0	 4.814815e+00	 8.148148e+00	 1.004338e+01
0	 4.814815e+00	 8.222222e+00	 1.004032e+01
0	 4.814815e+00	 8.296296e+00	 1.003738e+01
0	 4.814815e+00	 8.370370e+00	 1.003453e+01
0	 4.814815e+00	 8.444444e+00	 1.003177e+01
0	 4.814815e+00	 8.518519e+00	 1.002911e+01
0	 4.444444e+00	 8.518519e+00	 1.002604e+01
0	 4.444444e+00	 8.592593e+00	 1.002374e+01
0	 4.444444e+00	 8.666667e+00	 1.002155e+01
0	 4.444444e+00	 8.740741e+00	 1.001945e+01
0	 4.444444e+00	 8.814815e+00	 1.001743e+01
0	 4.444444e+00	 8.888889e+00	 1.001551e+01
0	 4.518519e+00	 8.518519e+00	 1.002678e+01
0	 4.518519e+00	 8.592593e+00	 1.002442e+01
0	 4.518519e+00	 8.666667e+00	 1.002216e+01
0	 4.518519e+00	 8.740741e+00	 1.002000e+01
0	 4.518519e+00	 8.814815e+00	 1.001793e+01
0	 4.518519e+00	 8.888889e+00	 1.001595e+01
0	 4.592593e+00	 8.518519e+00	 1.002746e+01
0	 4.592593e+00	 8.592593e+00	 1.002504e+01
0	 4.592593e+00	 8.666667e+00	 1.002273e+01
0	 4.592593e+00	 8.740741e+00	 1.002051e+01
0	 4.592593e+00	 8.814815e+00	 1.001839e+01
0	 4.592593e+00	 8.888889e+00	 1.001636e+01
0	 4.666667e+00	 8.518519e+00	 1.002807e+01
0	 4.666667e+00	 8.592593e+00	 1.002560e+01
0	 4.666667e+00	 8.666667e+00	 1.002324e+01
0	 4.666667e+00	 8.740741e+00	 1.002097e+01
0	 4.666667e+00	 8.814815e+00	 1.001880e+01
0	 4.666667e+00	 8.888889e+00	 1.001673e+01
0	 4.740741e+00	 8.518519e+00	 1.002863e+01
0	 4.740741e+00	 8.592593e+00	 1.002611e+01
0	 4.740741e+00	 8.666667e+00	 1.002370e+01
0	 4.740741e+00	 8.740741e+00	 1.002139e+01
0	 4.740741e+00	 8.814815e+00	 1.001918e+01
0	 4.740741e+00	 8.888889e+00	 1.001706e+01
0	 4.814815e+00	 8.518519e+00	 1.002911e+01
0	 4.814815e+00	 8.592593e+00	 1.002655e+01
0	 4.814815e+00	 8.666667e+00	 1.002410e+01
0	 4.814815e+00	 8.740741e+00	 1.002175e+01
0	 4.814815e+00	 8.814815e+00	 1.001950e+01
0	 4.814815e+00	 8.888889e+00	 1.001735e+01
0	 4.444444e+00	 8.888889e+00	 1.001551e+01
0	 4.444444e+00	 8.962963e+00	 1.001368e+01
0	 4.444444e+00	 9.037037e+00	 1.001196e+01
0	 4.444444e+00	 9.111111e+00	 1.001034e+01
0	 4.444444e+00	 9.185185e+00	 1.000882e+01
0	 4.444444e+00	 9.259259e+00	 1.000739e+01
0	 4.518519e+00	 8.888889e+00	 1.001595e+01
0	 4.518519e+00	 8.962963e+00	 1.001407e+01
0	 4.518519e+00	 9.037037e+00	 1.001230e+01
0	 4.518519e+00	 9.111111e+00	 1.001063e+01
0	 4.518519e+00	 9.185185e+00	 1.000907e+01
0	 4.518519e+00	 9.259259e+00	 1.000759e+01
0	 4.592593e+00	 8.888889e+00	 1.001636e+01
0	 4.592593e+00	 8.962963e+00	 1.001443e+01
0	 4.592593e+00	 9.037037e+00	 1.001261e+01
0	 4.592593e+00	 9.111111e+00	 1.001090e+01
0	 4.592593e+00	 9.185185e+00	 1.000930e+01
0	 4.592593e+00	 9.259259e+00	 1.000779e+01
0	 4.666667e+00	 8.888889e+00	 1.001673e+01
0	 4.666667e+00	 8.962963e+00	 1.001475e+01
0	 4.666667e+00	 9.037037e+00	 1.001290e+01
0	 4.666667e+00	 9.111111e+00	 1.001115e+01
0	 4.666667e+00	 9.185185e+00	 1.000950e+01
0	 4.666667e+00	 9.259259e+00	 1.000796e+01
0	 4.740741e+00	 8.888889e+00	 1.001706e+01
0	 4.740741e+00	 8.962963e+00	 1.001504e+01
0	 4.740741e+00	 9.037037e+00	 1.001315e+01
0	 4.740741e+00	 9.111111e+00	 1.001137e+01
0	 4.740741e+00	 9.185185e+00	 1.000969e+01
0	 4.740741e+00	 9.259259e+00	 1.000811e+01
0	 4.814815e+00	 8.888889e+00	 1.001735e+01
0	 4.814815e+00	 8.962963e+00	 1.001530e+01
0	 4.814815e+00	 9.037037e+00	 1.001337e+01
0	 4.814815e+00	 9.111111e+00	 1.001156e+01
0	 4.814815e+00	 9.185185e+00	 1.000985e+01
0	 4.814815e+00	 9.259259e+00	 1.000825e+01
0	 4.444444e+00	 9.259259e+00	 1.000739e+01
0	 4.444444e+00	 9.333333e+00	 1.000607e+01
0	 4.444444e+00	 9.407407e+00	 1.000488e+01
0	 4.444444e+00	 9.481481e+00	 1.000381e+01
0	 4.444444e+00	 9.555556e+00	 1.000285e+01
0	 4.444444e+00	 9.629630e+00	 1.000201e+01
0	 4.518519e+00	 9.259259e+00	 1.000759e+01
0	 4.518519e+00	 9.333333e+00	 1.000624e+01
0	 4.518519e+00	 9.407407e+00	 1.000501e+01
0	 4.518519e+00	 9.481481e+00	 1.000391e+01
0	 4.518519e+00	 9.555556e+00	 1.000293e+01
0	 4.518519e+00	 9.629630e+00	 1.000206e+01
0	 4.592593e+00	 9.259259e+00	 1.000779e+01
0	 4.592593e+00	 9.333333e+00	 1.000639e+01
0	 4.592593e+00	 9.407407e+00	 1.000513e+01
0	 4.592593e+00	 9.481481e+00	 1.000401e+01
0	 4.592593e+00	 9.555556e+00	 1.000300e+01
0	 4.592593e+00	 9.629630e+00	 1.000211e+01
0	 4.666667e+00	 9.259259e+00	 1.000796e+01
0	 4.666667e+00	 9.333333e+00	 1.000653e+01
0	 4.666667e+00	 9.407407e+00	 1.000525e+01
0	 4.666667e+00	 9.481481e+00	 1.000410e+01
0	 4.666667e+00	 9.555556e+00	 1.000307e+01
0	 4.666667e+00	 9.629630e+00	 1.000215e+01
0	 4.740741e+00	 9.259259e+00	 1.000811e+01
0	 4.740741e+00	 9.333333e+00	 1.000666e+01
0	 4.740741e+00	 9.407407e+00	 1.000535e+01
0	 4.740741e+00	 9.481481e+00	 1.000417e+01
0	 4.740741e+00	 9.555556e+00	 1.000313e+01
0	 4.740741e+00	 9.629630e+00	 1.000220e+01
0	 4.814815e+00	 9.259259e+00	 1.000825e+01
0	 4.814815e+00	 9.333333e+00	 1.000677e+01
0	 4.814815e+00	 9.407407e+00	 1.000544e+01
0	 4.814815e+00	 9.481481e+00	 1.000424e+01
0	 4.814815e+00	 9.555556e+00	 1.000318e+01
0	 4.814815e+00	 9.629630e+00	 1.000223e+01
0	 4.444444e+00	 9.629630e+00	 1.000201e+01
0	 4.444444e+00	 9.703704e+00	 1.000129e+01
0	 4.444444e+00	 9.777778e+00	 1.000074e+01
0	 4.444444e+00	 9.851852e+00	 1.000035e+01
0	 4.444444e+00	 9.925926e+00	 1.000010e+01
0	 4.444444e+00	 1.000000e+01	 9.999973e+00
0	 4.518519e+00	 9.629630e+00	 1.000206e+01
0	 4.518519e+00	 9.703704e+00	 1.000133e+01
0	 4.518519e+00	 9.777778e+00	 1.000076e+01
0	 4.518519e+00	 9.851852e+00	 1.000036e+01
0	 4.518519e+00	 9.925926e+00	 1.000010e+01
0	 4.518519e+00	 1.000000e+01	 9.999970e+00
0	 4.592593e+00	 9.629630e+00	 1.000211e+01
0	 4.592593e+00	 9.703704e+00	 1.000136e+01
0	 4.592593e+00	 9.777778e+00	 1.000078e+01
0	 4.592593e+00	 9.851852e+00	 1.000036e+01
0	 4.592593e+00	 9.925926e+00	 1.000010e+01
0	 4.592593e+00	 1.000000e+01	 9.999971e+00
0	 4.666667e+00	 9.629630e+00	 1.000215e+01
0	 4.666667e+00	 9.703704e+00	 1.000139e+01
0	 4.666667e+00	 9.777778e+00	 1.000080e+01
0	 4.666667e+00	 9.851852e+00	 1.000037e+01
0	 4.666667e+00	 9.925926e+00	 1.000010e+01
0	 4.666667e+00	 1.000000e+01	 9.999972e+00
0	 4.740741e+00	 9.629630e+00	 1.000220e+01
0	 4.740741e+00	 9.703704e+00	 1.000141e+01
0	 4.740741e+00	 9.777778e+00	 1.000081e+01
0	 4.740741e+00	 9.851852e+00	 1.000038e+01
0	 4.740741e+00	 9.925926e+00	 1.000011e+01
0	 4.740741e+00	 1.000000e+01	 9.999974e+00
0	 4.814815e+00	 9.629630e+00	 1.000223e+01
0	 4.814815e+00	 9.703704e+00	 1.000144e+01
0	 4.814815e+00	 9.777778e+00	 1.000083e+01
0	 4.814815e+00	 9.851852e+00	 1.000039e+01
0	 4.814815e+00	 9.925926e+00	 1.000011e+01
0	 4.814815e+00	 1.000000e+01	 9.999973e+00
0	 4.814815e+00	 0.000000e+00	 1.035879e+01
0	 4.814815e+00	 7.407407e-02	 1.035863e+01
0	 4.814815e+00	 1.481481e-01	 1.035932e+01
0	 4.814815e+00	 2.222222e-01	 1.036089e+01
0	 4.814815e+00	 2.962963e-01	 1.036339e+01
0	 4.814815e+00	 3.703704e-01	 1.036685e+01
0	 4.888889e+00	 0.000000e+00	 1.034728e+01
0	 4.888889e+00	 7.407407e-02	 1.034697e+01
0	 4.888889e+00	 1.481481e-01	 1.034752e+01
0	 4.888889e+00	 2.222222e-01	 1.034895e+01
0	 4.888889e+00	 2.962963e-01	 1.035130e+01
0	 4.888889e+00	 3.703704e-01	 1.035457e+01
0	 4.962963e+00	 0.000000e+00	 1.033533e+01
0	 4.962963e+00	 7.407407e-02	 1.033514e+01
0	 4.962963e+00	 1.481481e-01	 1.033576e+01
0	 4.962963e+00	 2.222222e-01	 1.033721e+01
0	 4.962963e+00	 2.962963e-01	 1.033951e+01
0	 4.962963e+00	 3.703704e-01	 1.034264e+01
0	 5.037037e+00	 0.000000e+00	 1.032328e+01
0	 5.037037e+00	 7.407407e-02	 1.032335e+01
0	 5.037037e+00	 1.481481e-01	 1.032416e+01
0	 5.037037e+00	 2.222222e-01	 1.032571e+01
0	 5.037037e+00	 2.962963e-01	 1.032799e+01
0	 5.037037e+00	 3.703704e-01	 1.033102e+01
0	 5.111111e+00	 0.000000e+00	 1.031147e+01
0	 5.111111e+00	 7.407407e-02	 1.031183e+01
0	 5.111111e+00	 1.481481e-01	 1.031283e+01
0	 5.111111e+00	 2.222222e-01	 1.031447e+01
0	 5.111111e+00	 2.962963e-01	 1.031674e+01
0	 5.111111e+00	 3.703704e-01	 1.031966e+01
0	 5.185185e+00	 0.000000e+00	 1.030022e+01
0	 5.185185e+00	 7.407407e-02	 1.030078e+01
0	 5.185185e+00	 1.481481e-01	 1.030188e+01
0	 5.185185e+00	 2.222222e-01	 1.030353e+01
0	 5.185185e+00	 2.962963e-01	 1.030574e+01
0	 5.185185e+00	 3.703704e-01	 1.030851e+01
0	 4.814815e+00	 3.703704e-01	 1.036685e+01
0	 4.814815e+00	 4.444444e-01	 1.037105e+01
0	 4.814815e+00	 5.185185e-01	 1.037576e+01
0	 4.814815e+00	 5.925926e-01	 1.038105e+01
0	 4.814815e+00	 6.666667e-01	 1.038698e+01
0	 4.814815e+00	 7.407407e-01	 1.039362e+01
0	 4.888889e+00	 3.703704e-01	 1.035457e+01
0	 4.888889e+00	 4.444444e-01	 1.035854e+01
0	 4.888889e+00	 5.185185e-01	 1.036299e+01
0	 4.888889e+00	 5.925926e-01	 1.036798e+01
0	 4.888889e+00	 6.666667e-01	 1.037359e+01
0	 4.888889e+00	 7.407407e-01	 1.037987e+01
0	 4.962963e+00	 3.703704e-01	 1.034264e+01
0	 4.962963e+00	 4.444444e-01	 1.034641e+01
0	 4.962963e+00	 5.185185e-01	 1.035063e+01
0	 4.962963e+00	 5.925926e-01	 1.035537e+01
0	 4.962963e+00	 6.666667e-01	 1.036068e+01
0	 4.962963e+00	 7.407407e-01	 1.036663e+01
0	 5.037037e+00	 3.703704e-01	 1.033102e+01
0	 5.037037e+00	 4.444444e-01	 1.033462e+01
0	 5.037037e+00	 5.185185e-01	 1.033863e+01
0	 5.037037e+00	 5.925926e-01	 1.034313e+01
0	 5.037037e+00	 6.666667e-01	 1.034817e+01
0	 5.037037e+00	 7.407407e-01	 1.035380e+01
0	 5.111111e+00	 3.703704e-01	 1.031966e+01
0	 5.111111e+00	 4.444444e-01	 1.032308e+01
0	 5.111111e+00	 5.185185e-01	 1.032690e+01
0	 5.111111e+00	 5.925926e-01	 1.033118e+01
0	 5.111111e+00	 6.666667e-01	 1.033597e+01
0	 5.111111e+00	 7.407407e-01	 1.034132e+01
0	 5.185185e+00	 3.703704e-01	 1.030851e+01
0	 5.185185e+00	 4.444444e-01	 1.031175e+01
0	 5.185185e+00	 5.185185e-01	 1.031539e+01
0	 5.185185e+00	 5.925926e-01	 1.031946e+01
0	 5.185185e+00	 6.666667e-01	 1.032402e+01
0	 5.185185e+00	 7.407407e-01	 1.032911e+01
0	 4.814815e+00	 7.407407e-01	 1.039362e+01
0	 4.814815e+00	 8.148148e-01	 1.040066e+01
0	 4.814815e+00	 8.888889e-01	 1.040780e+01
0	 4.814815e+00	 9.629630e-01	 1.041511e+01
0	 4.814815e+00	 1.037037e+00	 1.042269e+01
0	 4.814815e+00	 1.111111e+00	 1.043060e+01
0	 4.888889e+00	 7.407407e-01	 1.037987e+01
0	 4.888889e+00	 8.148148e-01	 1.038654e+01
0	 4.888889e+00	 8.888889e-01	 1.039330e+01
0	 4.888889e+00	 9.629630e-01	 1.040024e+01
0	 4.888889e+00	 1.037037e+00	 1.040743e+01
0	 4.888889e+00	 1.111111e+00	 1.041496e+01
0	 4.962963e+00	 7.407407e-01	 1.036663e+01
0	 4.962963e+00	 8.148148e-01	 1.037294e+01
0	 4.962963e+00	 8.888889e-01	 1.037935e+01
0	 4.962963e+00	 9.629630e-01	 1.038595e+01
0	 4.962963e+00	 1.037037e+00	 1.039279e+01
0	 4.962963e+00	 1.111111e+00	 1.039997e+01
0	 5.037037e+00	 7.407407e-01	 1.035380e+01
0	 5.037037e+00	 8.148148e-01	 1.035979e+01
0	 5.037037e+00	 8.888889e-01	 1.036589e+01
0	 5.037037e+00	 9.629630e-01	 1.037216e+01
0	 5.037037e+00	 1.037037e+00	 1.037869e+01
0	 5.037037e+00	 1.111111e+00	 1.038555e+01
0	 5.111111e+00	 7.407407e-01	 1.034132e+01
0	 5.111111e+00	 8.148148e-01	 1.034701e+01
0	 5.111111e+00	 8.888889e-01	 1.035281e+01
0	 5.111111e+00	 9.629630e-01	 1.035880e+01
0	 5.111111e+00	 1.037037e+00	 1.036504e+01
0	 5.111111e+00	 1.111111e+00	 1.037160e+01
0	 5.185185e+00	 7.407407e-01	 1.032911e+01
0	 5.185185e+00	 8.148148e-01	 1.033452e+01
0	 5.185185e+00	 8.888889e-01	 1.034006e+01
0	 5.185185e+00	 9.629630e-01	 1.034578e+01
0	 5.185185e+00	 1.037037e+00	 1.035176e+01
0	 5.185185e+00	 1.111111e+00	 1.035805e+01
0	 4.814815e+00	 1.111111e+00	 1.043060e+01
0	 4.814815e+00	 1.185185e+00	 1.043854e+01
0	 4.814815e+00	 1.259259e+00	 1.044619e+01
0	 4.814815e+00	 1.333333e+00	 1.045365e+01
0	 4.814815e+00	 1.407407e+00	 1.046099e+01
0	 4.814815e+00	 1.481481e+00	 1.046831e+01
0	 4.888889e+00	 1.111111e+00	 1.041496e+01
0	 4.888889e+00	 1.185185e+00	 1.042254e+01
0	 4.888889e+00	 1.259259e+00	 1.042988e+01
0	 4.888889e+00	 1.333333e+00	 1.043706e+01
0	 4.888889e+00	 1.407407e+00	 1.044416e+01
0	 4.888889e+00	 1.481481e+00	 1.045126e+01
0	 4.962963e+00	 1.111111e+00	 1.039997e+01
0	 4.962963e+00	 1.185185e+00	 1.040722e+01
0	 4.962963e+00	 1.259259e+00	 1.041426e+01
0	 4.962963e+00	 1.333333e+00	 1.042117e+01
0	 4.962963e+00	 1.407407e+00	 1.042802e+01
0	 4.962963e+00	 1.481481e+00	 1.043488e+01
0	 5.037037e+00	 1.111111e+00	 1.038555e+01
0	 5.037037e+00	 1.185185e+00	 1.039248e+01
0	 5.037037e+00	 1.259259e+00	 1.039924e+01
0	 5.037037e+00	 1.333333e+00	 1.040588e+01
0	 5.037037e+00	 1.407407e+00	 1.041248e+01
0	 5.037037e+00	 1.481481e+00	 1.041911e+01
0	 5.111111e+00	 1.111111e+00	 1.037160e+01
0	 5.111111e+00	 1.185185e+00	 1.037824e+01
0	 5.111111e+00	 1.259259e+00	 1.038473e+01
0	 5.111111e+00	 1.333333e+00	 1.039112e+01
0	 5.111111e+00	 1.407407e+00	 1.039748e+01
0	 5.111111e+00	 1.481481e+00	 1.040387e+01
0	 5.185185e+00	 1.111111e+00	 1.035805e+01
0	 5.185185e+00	 1.185185e+00	 1.036442e+01
0	 5.185185e+00	 1.259259e+00	 1.037065e+01
0	 5.185185e+00	 1.333333e+00	 1.037680e+01
0	 5.185185e+00	 1.407407e+00	 1.038292e+01
0	 5.185185e+00	 1.481481e+00	 1.038908e+01
0	 4.814815e+00	 1.481481e+00	 1.046831e+01
0	 4.814815e+00	 1.555556e+00	 1.047534e+01
0	 4.814815e+00	 1.629630e+00	 1.048180e+01
0	 4.814815e+00	 1.703704e+00	 1.048776e+01
0	 4.814815e+00	 1.777778e+00	 1.049327e+01
0	 4.814815e+00	 1.851852e+00	 1.049842e+01
0	 4.888889e+00	 1.481481e+00	 1.045126e+01
0	 4.888889e+00	 1.555556e+00	 1.045811e+01
0	 4.888889e+00	 1.629630e+00	 1.046442e+01
0	 4.888889e+00	 1.703704e+00	 1.047028e+01
0	 4.888889e+00	 1.777778e+00	 1.047574e+01
0	 4.888889e+00	 1.851852e+00	 1.048087e+01
0	 4.962963e+00	 1.481481e+00	 1.043488e+01
0	 4.962963e+00	 1.555556e+00	 1.044152e+01
0	 4.962963e+00	 1.629630e+00	 1.044768e+01
0	 4.962963e+00	 1.703704e+00	 1.045343e+01
0	 4.962963e+00	 1.777778e+00	 1.045881e+01
0	 4.962963e+00	 1.851852e+00	 1.046389e+01
0	 5.037037e+00	 1.481481e+00	 1.041911e+01
0	 5.037037e+00	 1.555556e+00	 1.042554e+01
0	 5.037037e+00	 1.629630e+00	 1.043153e+01
0	 5.037037e+00	 1.703704e+00	 1.043714e+01
0	 5.037037e+00	 1.777778e+00	 1.044243e+01
0	 5.037037e+00	 1.851852e+00	 1.044746e+01
0	 5.111111e+00	 1.481481e+00	 1.040387e+01
0	 5.111111e+00	 1.555556e+00	 1.041008e+01
0	 5.111111e+00	 1.629630e+00	 1.041589e+01
0	 5.111111e+00	 1.703704e+00	 1.042137e+01
0	 5.111111e+00	 1.777778e+00	 1.042656e+01
0	 5.111111e+00	 1.851852e+00	 1.043152e+01
0	 5.185185e+00	 1.481481e+00	 1.038908e+01
0	 5.185185e+00	 1.555556e+00	 1.039508e+01
0	 5.185185e+00	 1.629630e+00	 1.040072e+01
0	 5.185185e+00	 1.703704e+00	 1.040606e+01
0	 5.185185e+00	 1.777778e+00	 1.041115e+01
0	 5.185185e+00	 1.851852e+00	 1.041603e+01
0	 4.814815e+00	 1.851852e+00	 1.049842e+01
0	 4.814815e+00	 1.925926e+00	 1.050305e+01
0	 4.814815e+00	 2.000000e+00	 1.050699e+01
0	 4.814815e+00	 2.074074e+00	 1.051028e+01
0	 4.814815e+00	 2.148148e+00	 1.051295e+01
0	 4.814815e+00	 2.222222e+00	 1.051506e+01
0	 4.888889e+00	 1.851852e+00	 1.048087e+01
0	 4.888889e+00	 1.925926e+00	 1.048551e+01
0	 4.888889e+00	 2.000000e+00	 1.048951e+01
0	 4.888889e+00	 2.074074e+00	 1.049290e+01
0	 4.888889e+00	 2.148148e+00	 1.049572e+01
0	 4.888889e+00	 2.222222e+00	 1.049800e+01
0	 4.962963e+00	 1.851852e+00	 1.046389e+01
0	 4.962963e+00	 1.925926e+00	 1.046853e+01
0	 4.962963e+00	 2.000000e+00	 1.047257e+01
0	 4.962963e+00	 2.074074e+00	 1.047604e+01
0	 4.962963e+00	 2.148148e+00	 1.047898e+01
0	 4.962963e+00	 2.222222e+00	 1.048143e+01
0	 5.037037e+00	 1.851852e+00	 1.044746e+01
0	 5.037037e+00	 1.925926e+00	 1.045208e+01
0	 5.037037e+00	 2.000000e+00	 1.045614e+01
0	 5.037037e+00	 2.074074e+00	 1.045967e+01
0	 5.037037e+00	 2.148148e+00	 1.046271e+01
0	 5.037037e+00	 2.222222e+00	 1.046530e+01
0	 5.111111e+00	 1.851852e+00	 1.043152e+01
0	 5.111111e+00	 1.925926e+00	 1.043611e+01
0	 5.111111e+00	 2.000000e+00	 1.044017e+01
0	 5.111111e+00	 2.074074e+00	 1.044375e+01
0	 5.111111e+00	 2.148148e+00	 1.044687e+01
0	 5.111111e+00	 2.222222e+00	 1.044957e+01
0	 5.185185e+00	 1.851852e+00	 1.041603e+01
0	 5.185185e+00	 1.925926e+00	 1.042057e+01
0	 5.185185e+00	 2.000000e+00	 1.042463e+01
0	 5.185185e+00	 2.074074e+00	 1.042823e+01
0	 5.185185e+00	 2.148148e+00	 1.043141e+01
0	 5.185185e+00	 2.222222e+00	 1.043421e+01
0	 4.814815e+00	 2.222222e+00	 1.051506e+01
0	 4.814815e+00	 2.296296e+00	 1.051654e+01
0	 4.814815e+00	 2.370370e+00	 1.051736e+01
0	 4.814815e+00	 2.444444e+00	 1.051752e+01
0	 4.814815e+00	 2.518519e+00	 1.051705e+01
0	 4.814815e+00	 2.592593e+00	 1.051594e+01
0	 4.888889e+00	 2.222222e+00	 1.049800e+01
0	 4.888889e+00	 2.296296e+00	 1.049971e+01
0	 4.888889e+00	 2.370370e+00	 1.050079e+01
0	 4.888889e+00	 2.444444e+00	 1.050125e+01
0	 4.888889e+00	 2.518519e+00	 1.050111e+01
0	 4.888889e+00	 2.592593e+00	 1.050037e+01
0	 4.962963e+00	 2.222222e+00	 1.048143e+01
0	 4.962963e+00	 2.296296e+00	 1.048334e+01
0	 4.962963e+00	 2.370370e+00	 1.048464e+01
0	 4.962963e+00	 2.444444e+00	 1.048536e+01
0	 4.962963e+00	 2.518519e+00	 1.048551e+01
0	 4.962963e+00	 2.592593e+00	 1.048510e+01
0	 5.037037e+00	 2.222222e+00	 1.046530e+01
0	 5.037037e+00	 2.296296e+00	 1.046738e+01
0	 5.037037e+00	 2.370370e+00	 1.046888e+01
0	 5.037037e+00	 2.444444e+00	 1.046983e+01
0	 5.037037e+00	 2.518519e+00	 1.047023e+01
0	 5.037037e+00	 2.592593e+00	 1.047011e+01
0	 5.111111e+00	 2.222222e+00	 1.044957e+01
0	 5.111111e+00	 2.296296e+00	 1.045180e+01
0	 5.111111e+00	 2.370370e+00	 1.045348e+01
0	 5.111111e+00	 2.444444e+00	 1.045462e+01
0	 5.111111e+00	 2.518519e+00	 1.045525e+01
0	 5.111111e+00	 2.592593e+00	 1.045538e+01
0	 5.185185e+00	 2.222222e+00	 1.043421e+01
0	 5.185185e+00	 2.296296e+00	 1.043657e+01
0	 5.185185e+00	 2.370370e+00	 1.043839e+01
0	 5.185185e+00	 2.444444e+00	 1.043971e+01
0	 5.185185e+00	 2.518519e+00	 1.044054e+01
0	 5.185185e+00	 2.592593e+00	 1.044090e+01
0	 4.814815e+00	 2.592593e+00	 1.051594e+01
0	 4.814815e+00	 2.666667e+00	 1.051424e+01
0	 4.814815e+00	 2.740741e+00	 1.051197e+01
0	 4.814815e+00	 2.814815e+00	 1.050911e+01
0	 4.814815e+00	 2.888889e+00	 1.050566e+01
0	 4.814815e+00	 2.962963e+00	 1.050161e+01
0	 4.888889e+00	 2.592593e+00	 1.050037e+01
0	 4.888889e+00	 2.666667e+00	 1.049907e+01
0	 4.888889e+00	 2.740741e+00	 1.049721e+01
0	 4.888889e+00	 2.814815e+00	 1.049477e+01
0	 4.888889e+00	 2.888889e+00	 1.049177e+01
0	 4.888889e+00	 2.962963e+00	 1.048819e+01
0	 4.962963e+00	 2.592593e+00	 1.048510e+01
0	 4.962963e+00	 2.666667e+00	 1.048414e+01
0	 4.962963e+00	 2.740741e+00	 1.048265e+01
0	 4.962963e+00	 2.814815e+00	 1.048060e+01
0	 4.962963e+00	 2.888889e+00	 1.047801e+01
0	 4.962963e+00	 2.962963e+00	 1.047487e+01
0	 5.037037e+00	 2.592593e+00	 1.047011e+01
0	 5.037037e+00	 2.666667e+00	 1.046946e+01
0	 5.037037e+00	 2.740741e+00	 1.046829e+01
0	 5.037037e+00	 2.814815e+00	 1.046660e+01
0	 5.037037e+00	 2.888889e+00	 1.046439e+01
0	 5.037037e+00	 2.962963e+00	 1.046165e+01
0	 5.111111e+00	 2.592593e+00	 1.045538e+01
0	 5.111111e+00	 2.666667e+00	 1.045501e+01
0	 5.111111e+00	 2.740741e+00	 1.045414e+01
0	 5.111111e+00	 2.814815e+00	 1.045277e+01
0	 5.111111e+00	 2.888889e+00	 1.045091e+01
0	 5.111111e+00	 2.962963e+00	 1.044856e+01
0	 5.185185e+00	 2.592593e+00	 1.044090e+01
0	 5.185185e+00	 2.666667e+00	 1.044078e+01
0	 5.185185e+00	 2.740741e+00	 1.044019e+01
0	 5.185185e+00	 2.814815e+00	 1.043912e+01
0	 5.185185e+00	 2.888889e+00	 1.043759e+01
0	 5.185185e+00	 2.962963e+00	 1.043558e+01
0	 4.814815e+00	 2.962963e+00	 1.050161e+01
0	 4.814815e+00	 3.037037e+00	 1.049705e+01
0	 4.814815e+00	 3.111111e+00	 1.049208e+01
0	 4.814815e+00	 3.185185e+00	 1.048667e+01
0	 4.814815e+00	 3.259259e+00	 1.048082e+01
0	 4.814815e+00	 3.333333e+00	 1.047451e+01
0	 4.888889e+00	 2.962963e+00	 1.048819e+01
0	 4.888889e+00	 3.037037e+00	 1.048411e+01
0	 4.888889e+00	 3.111111e+00	 1.047964e+01
0	 4.888889e+00	 3.185185e+00	 1.047474e+01
0	 4.888889e+00	 3.259259e+00	 1.046940e+01
0	 4.888889e+00	 3.333333e+00	 1.046361e+01
0	 4.962963e+00	 2.962963e+00	 1.047487e+01
0	 4.962963e+00	 3.037037e+00	 1.047125e+01
0	 4.962963e+00	 3.111111e+00	 1.046723e+01
0	 4.962963e+00	 3.185185e+00	 1.046280e+01
0	 4.962963e+00	 3.259259e+00	 1.045794e+01
0	 4.962963e+00	 3.333333e+00	 1.045263e+01
0	 5.037037e+00	 2.962963e+00	 1.046165e+01
0	 5.037037e+00	 3.037037e+00	 1.045846e+01
0	 5.037037e+00	 3.111111e+00	 1.045487e+01
0	 5.037037e+00	 3.185185e+00	 1.045088e+01
0	 5.037037e+00	 3.259259e+00	 1.044645e+01
0	 5.037037e+00	 3.333333e+00	 1.044159e+01
0	 5.111111e+00	 2.962963e+00	 1.044856e+01
0	 5.111111e+00	 3.037037e+00	 1.044576e+01
0	 5.111111e+00	 3.111111e+00	 1.044257e+01
0	 5.111111e+00	 3.185185e+00	 1.043897e+01
0	 5.111111e+00	 3.259259e+00	 1.043496e+01
0	 5.111111e+00	 3.333333e+00	 1.043052e+01
0	 5.185185e+00	 2.962963e+00	 1.043558e+01
0	 5.185185e+00	 3.037037e+00	 1.043315e+01
0	 5.185185e+00	 3.111111e+00	 1.043033e+01
0	 5.185185e+00	 3.185185e+00	 1.042711e+01
0	 5.185185e+00	 3.259259e+00	 1.042348e+01
0	 5.185185e+00	 3.333333e+00	 1.041943e+01
0	 4.814815e+00	 3.333333e+00	 1.047451e+01
0	 4.814815e+00	 3.407407e+00	 1.046783e+01
0	 4.814815e+00	 3.481481e+00	 1.046088e+01
0	 4.814815e+00	 3.555556e+00	 1.045365e+01
0	 4.814815e+00	 3.629630e+00	 1.044610e+01
0	 4.814815e+00	 3.703704e+00	 1.043822e+01
0	 4.888889e+00	 3.333333e+00	 1.046361e+01
0	 4.888889e+00	 3.407407e+00	 1.045745e+01
0	 4.888889e+00	 3.481481e+00	 1.045102e+01
0	 4.888889e+00	 3.555556e+00	 1.044429e+01
0	 4.888889e+00	 3.629630e+00	 1.043725e+01
0	 4.888889e+00	 3.703704e+00	 1.042987e+01
0	 4.962963e+00	 3.333333e+00	 1.045263e+01
0	 4.962963e+00	 3.407407e+00	 1.044696e+01
0	 4.962963e+00	 3.481481e+00	 1.044100e+01
0	 4.962963e+00	 3.555556e+00	 1.043475e+01
0	 4.962963e+00	 3.629630e+00	 1.042819e+01
0	 4.962963e+00	 3.703704e+00	 1.042129e+01
0	 5.037037e+00	 3.333333e+00	 1.044159e+01
0	 5.037037e+00	 3.407407e+00	 1.043637e+01
0	 5.037037e+00	 3.481481e+00	 1.043087e+01
0	 5.037037e+00	 3.555556e+00	 1.042507e+01
0	 5.037037e+00	 3.629630e+00	 1.041896e+01
0	 5.037037e+00	 3.703704e+00	 1.041251e+01
0	 5.111111e+00	 3.333333e+00	 1.043052e+01
0	 5.111111e+00	 3.407407e+00	 1.042572e+01
0	 5.111111e+00	 3.481481e+00	 1.042064e+01
0	 5.111111e+00	 3.555556e+00	 1.041527e+01
0	 5.111111e+00	 3.629630e+00	 1.040959e+01
0	 5.111111e+00	 3.703704e+00	 1.040359e+01
0	 5.185185e+00	 3.333333e+00	 1.041943e+01
0	 5.185185e+00	 3.407407e+00	 1.041503e+01
0	 5.185185e+00	 3.481481e+00	 1.041036e+01
0	 5.185185e+00	 3.555556e+00	 1.040540e+01
0	 5.185185e+00	 3.629630e+00	 1.040013e+01
0	 5.185185e+00	 3.703704e+00	 1.039455e+01
0	 4.814815e+00	 3.703704e+00	 1.043822e+01
0	 4.814815e+00	 3.777778e+00	 1.043011e+01
0	 4.814815e+00	 3.851852e+00	 1.042188e+01
0	 4.814815e+00	 3.925926e+00	 1.041351e+01
0	 4.814815e+00	 4.000000e+00	 1.040498e+01
0	 4.814815e+00	 4.074074e+00	 1.039627e+01
0	 4.888889e+00	 3.703704e+00	 1.042987e+01
0	 4.888889e+00	 3.777778e+00	 1.042225e+01
0	 4.888889e+00	 3.851852e+00	 1.041451e+01
0	 4.888889e+00	 3.925926e+00	 1.040661e+01
0	 4.888889e+00	 4.000000e+00	 1.039855e+01
0	 4.888889e+00	 4.074074e+00	 1.039029e+01
0	 4.962963e+00	 3.703704e+00	 1.042129e+01
0	 4.962963e+00	 3.777778e+00	 1.041415e+01
0	 4.962963e+00	 3.851852e+00	 1.040687e+01
0	 4.962963e+00	 3.925926e+00	 1.039943e+01
0	 4.962963e+00	 4.000000e+00	 1.039180e+01
0	 4.962963e+00	 4.074074e+00	 1.038398e+01
0	 5.037037e+00	 3.703704e+00	 1.041251e+01
0	 5.037037e+00	 3.777778e+00	 1.040583e+01
0	 5.037037e+00	 3.851852e+00	 1.039900e+01
0	 5.037037e+00	 3.925926e+00	 1.039199e+01
0	 5.037037e+00	 4.000000e+00	 1.038480e+01
0	 5.037037e+00	 4.074074e+00	 1.037739e+01
0	 5.111111e+00	 3.703704e+00	 1.040359e+01
0	 5.111111e+00	 3.777778e+00	 1.039734e+01
0	 5.111111e+00	 3.851852e+00	 1.039094e+01
0	 5.111111e+00	 3.925926e+00	 1.038435e+01
0	 5.111111e+00	 4.000000e+00	 1.037756e+01
0	 5.111111e+00	 4.074074e+00	 1.037055e+01
0	 5.185185e+00	 3.703704e+00	 1.039455e+01
0	 5.185185e+00	 3.777778e+00	 1.038872e+01
0	 5.185185e+00	 3.851852e+00	 1.038271e+01
0	 5.185185e+00	 3.925926e+00	 1.037652e+01
0	 5.185185e+00	 4.000000e+00	 1.037012e+01
0	 5.185185e+00	 4.074074e+00	 1.036350e+01
0	 4.814815e+00	 4.074074e+00	 1.039627e+01
0	 4.814815e+00	 4.148148e+00	 1.038745e+01
0	 4.814815e+00	 4.222222e+00	 1.037863e+01
0	 4.814815e+00	 4.296296e+00	 1.036977e+01
0	 4.814815e+00	 4.370370e+00	 1.036086e+01
0	 4.814815e+00	 4.444444e+00	 1.035187e+01
0	 4.888889e+00	 4.074074e+00	 1.039029e+01
0	 4.888889e+00	 4.148148e+00	 1.038191e+01
0	 4.888889e+00	 4.222222e+00	 1.037351e+01
0	 4.888889e+00	 4.296296e+00	 1.036506e+01
0	 4.888889e+00	 4.370370e+00	 1.035654e+01
0	 4.888889e+00	 4.444444e+00	 1.034793e+01
0	 4.962963e+00	 4.074074e+00	 1.038398e+01
0	 4.962963e+00	 4.148148e+00	 1.037603e+01
0	 4.962963e+00	 4.222222e+00	 1.036803e+01
0	 4.962963e+00	 4.296296e+00	 1.035997e+01
0	 4.962963e+00	 4.370370e+00	 1.035184e+01
0	 4.962963e+00	 4.444444e+00	 1.034360e+01
0	 5.037037e+00	 4.074074e+00	 1.037739e+01
0	 5.037037e+00	 4.148148e+00	 1.036984e+01
0	 5.037037e+00	 4.222222e+00	 1.036224e+01
0	 5.037037e+00	 4.296296e+00	 1.035457e+01
0	 5.037037e+00	 4.370370e+00	 1.034680e+01
0	 5.037037e+00	 4.444444e+00	 1.033893e+01
0	 5.111111e+00	 4.074074e+00	 1.037055e+01
0	 5.111111e+00	 4.148148e+00	 1.036340e+01
0	 5.111111e+00	 4.222222e+00	 1.035618e+01
0	 5.111111e+00	 4.296296e+00	 1.034888e+01
0	 5.111111e+00	 4.370370e+00	 1.034148e+01
0	 5.111111e+00	 4.444444e+00	 1.033396e+01
0	 5.185185e+00	 4.074074e+00	 1.036350e+01
0	 5.185185e+00	 4.148148e+00	 1.035673e+01
0	 5.185185e+00	 4.222222e+00	 1.034988e+01
0	 5.185185e+00	 4.296296e+00	 1.034294e+01
0	 5.185185e+00	 4.370370e+00	 1.033590e+01
0	 5.185185e+00	 4.444444e+00	 1.032873e+01
0	 4.814815e+00	 4.444444e+00	 1.035187e+01
0	 4.814815e+00	 4.518519e+00	 1.034288e+01
0	 4.814815e+00	 4.592593e+00	 1.033396e+01
0	 4.814815e+00	 4.666667e+00	 1.032510e+01
0	 4.814815e+00	 4.740741e+00	 1.031627e+01
0	 4.814815e+00	 4.814815e+00	 1.030747e+01
0	 4.888889e+00	 4.444444e+00	 1.034793e+01
0	 4.888889e+00	 4.518519e+00	 1.033930e+01
0	 4.888889e+00	 4.592593e+00	 1.033073e+01
0	 4.888889e+00	 4.666667e+00	 1.032220e+01
0	 4.888889e+00	 4.740741e+00	 1.031369e+01
0	 4.888889e+00	 4.814815e+00	 1.030518e+01
0	 4.962963e+00	 4.444444e+00	 1.034360e+01
0	 4.962963e+00	 4.518519e+00	 1.033533e+01
0	 4.962963e+00	 4.592593e+00	 1.032710e+01
0	 4.962963e+00	 4.666667e+00	 1.031890e+01
0	 4.962963e+00	 4.740741e+00	 1.031070e+01
0	 4.962963e+00	 4.814815e+00	 1.030249e+01
0	 5.037037e+00	 4.444444e+00	 1.033893e+01
0	 5.037037e+00	 4.518519e+00	 1.033101e+01
0	 5.037037e+00	 4.592593e+00	 1.032312e+01
0	 5.037037e+00	 4.666667e+00	 1.031524e+01
0	 5.037037e+00	 4.740741e+00	 1.030735e+01
0	 5.037037e+00	 4.814815e+00	 1.029944e+01
0	 5.111111e+00	 4.444444e+00	 1.033396e+01
0	 5.111111e+00	 4.518519e+00	 1.032639e+01
0	 5.111111e+00	 4.592593e+00	 1.031883e+01
0	 5.111111e+00	 4.666667e+00	 1.031126e+01
0	 5.111111e+00	 4.740741e+00	 1.030368e+01
0	 5.111111e+00	 4.814815e+00	 1.029606e+01
0	 5.185185e+00	 4.444444e+00	 1.032873e+01
0	 5.185185e+00	 4.518519e+00	 1.032150e+01
0	 5.185185e+00	 4.592593e+00	 1.031426e+01
0	 5.185185e+00	 4.666667e+00	 1.030701e+01
0	 5.185185e+00	 4.740741e+00	 1.029972e+01
0	 5.185185e+00	 4.814815e+00	 1.029238e+01
0	 4.814815e+00	 4.814815e+00	 1.030747e+01
0	 4.814815e+00	 4.888889e+00	 1.029874e+01
0	 4.814815e+00	 4.962963e+00	 1.029012e+01
0	 4.814815e+00	 5.037037e+00	 1.028161e+01
0	 4.814815e+00	 5.111111e+00	 1.027319e+01
0	 4.814815e+00	 5.185185e+00	 1.026485e+01
0	 4.888889e+00	 4.814815e+00	 1.030518e+01
0	 4.888889e+00	 4.888889e+00	 1.029673e+01
0	 4.888889e+00	 4.962963e+00	 1.028839e+01
0	 4.888889e+00	 5.037037e+00	 1.028013e+01
0	 4.888889e+00	 5.111111e+00	 1.027195e+01
0	 4.888889e+00	 5.185185e+00	 1.026383e+01
0	 4.962963e+00	 4.814815e+00	 1.030249e+01
0	 4.962963e+00	 4.888889e+00	 1.029433e+01
0	 4.962963e+00	 4.962963e+00	 1.028625e+01
0	 4.962963e+00	 5.037037e+00	 1.027824e+01
0	 4.962963e+00	 5.111111e+00	 1.027030e+01
0	 4.962963e+00	 5.185185e+00	 1.026241e+01
0	 5.037037e+00	 4.814815e+00	 1.029944e+01
0	 5.037037e+00	 4.888889e+00	 1.029155e+01
0	 5.037037e+00	 4.962963e+00	 1.028374e+01
0	 5.037037e+00	 5.037037e+00	 1.027599e+01
0	 5.037037e+00	 5.111111e+00	 1.026829e+01
0	 5.037037e+00	 5.185185e+00	 1.026063e+01
0	 5.111111e+00	 4.814815e+00	 1.029606e+01
0	 5.111111e+00	 4.888889e+00	 1.028845e+01
0	 5.111111e+00	 4.962963e+00	 1.028090e+01
0	 5.111111e+00	 5.037037e+00	 1.027341e+01
0	 5.111111e+00	 5.111111e+00	 1.026595e+01
0	 5.111111e+00	 5.185185e+00	 1.025852e+01
0	 5.185185e+00	 4.814815e+00	 1.029238e+01
0	 5.185185e+00	 4.888889e+00	 1.028505e+01
0	 5.185185e+00	 4.962963e+00	 1.027777e+01
0	 5.185185e+00	 5.037037e+00	 1.027053e+01
0	 5.185185e+00	 5.111111e+00	 1.026331e+01
0	 5.185185e+00	 5.185185e+00	 1.025611e+01
0	 4.814815e+00	 5.185185e+00	 1.026485e+01
0	 4.814815e+00	 5.259259e+00	 1.025663e+01
0	 4.814815e+00	 5.333333e+00	 1.024855e+01
0	 4.814815e+00	 5.407407e+00	 1.024061e+01
0	 4.814815e+00	 5.481481e+00	 1.023280e+01
0	 4.814815e+00	 5.555556e+00	 1.022511e+01
0	 4.888889e+00	 5.185185e+00	 1.026383e+01
0	 4.888889e+00	 5.259259e+00	 1.025582e+01
0	 4.888889e+00	 5.333333e+00	 1.024794e+01
0	 4.888889e+00	 5.407407e+00	 1.024018e+01
0	 4.888889e+00	 5.481481e+00	 1.023254e+01
0	 4.888889e+00	 5.555556e+00	 1.022500e+01
0	 4.962963e+00	 5.185185e+00	 1.026241e+01
0	 4.962963e+00	 5.259259e+00	 1.025461e+01
0	 4.962963e+00	 5.333333e+00	 1.024693e+01
0	 4.962963e+00	 5.407407e+00	 1.023936e+01
0	 4.962963e+00	 5.481481e+00	 1.023190e+01
0	 4.962963e+00	 5.555556e+00	 1.022452e+01
0	 5.037037e+00	 5.185185e+00	 1.026063e+01
0	 5.037037e+00	 5.259259e+00	 1.025305e+01
0	 5.037037e+00	 5.333333e+00	 1.024557e+01
0	 5.037037e+00	 5.407407e+00	 1.023819e+01
0	 5.037037e+00	 5.481481e+00	 1.023091e+01
0	 5.037037e+00	 5.555556e+00	 1.022370e+01
0	 5.111111e+00	 5.185185e+00	 1.025852e+01
0	 5.111111e+00	 5.259259e+00	 1.025116e+01
0	 5.111111e+00	 5.333333e+00	 1.024389e+01
0	 5.111111e+00	 5.407407e+00	 1.023670e+01
0	 5.111111e+00	 5.481481e+00	 1.022960e+01
0	 5.111111e+00	 5.555556e+00	 1.022256e+01
0	 5.185185e+00	 5.185185e+00	 1.025611e+01
0	 5.185185e+00	 5.259259e+00	 1.024897e+01
0	 5.185185e+00	 5.333333e+00	 1.024190e+01
0	 5.185185e+00	 5.407407e+00	 1.023491e+01
0	 5.185185e+00	 5.481481e+00	 1.022799e+01
0	 5.185185e+00	 5.555556e+00	 1.022113e+01
0	 4.814815e+00	 5.555556e+00	 1.022511e+01
0	 4.814815e+00	 5.629630e+00	 1.021756e+01
0	 4.814815e+00	 5.703704e+00	 1.021017e+01
0	 4.814815e+00	 5.777778e+00	 1.020292e+01
0	 4.814815e+00	 5.851852e+00	 1.019582e+01
0	 4.814815e+00	 5.925926e+00	 1.018886e+01
0	 4.888889e+00	 5.555556e+00	 1.022500e+01
0	 4.888889e+00	 5.629630e+00	 1.021760e+01
0	 4.888889e+00	 5.703704e+00	 1.021033e+01
0	 4.888889e+00	 5.777778e+00	 1.020321e+01
0	 4.888889e+00	 5.851852e+00	 1.019622e+01
0	 4.888889e+00	 5.925926e+00	 1.018935e+01
0	 4.962963e+00	 5.555556e+00	 1.022452e+01
0	 4.962963e+00	 5.629630e+00	 1.021727e+01
0	 4.962963e+00	 5.703704e+00	 1.021014e+01
0	 4.962963e+00	 5.777778e+00	 1.020315e+01
0	 4.962963e+00	 5.851852e+00	 1.019627e+01
0	 4.962963e+00	 5.925926e+00	 1.018951e+01
0	 5.037037e+00	 5.555556e+00	 1.022370e+01
0	 5.037037e+00	 5.629630e+00	 1.021660e+01
0	 5.037037e+00	 5.703704e+00	 1.020962e+01
0	 5.037037e+00	 5.777778e+00	 1.020276e+01
0	 5.037037e+00	 5.851852e+00	 1.019600e+01
0	 5.037037e+00	 5.925926e+00	 1.018936e+01
0	 5.111111e+00	 5.555556e+00	 1.022256e+01
0	 5.111111e+00	 5.629630e+00	 1.021562e+01
0	 5.111111e+00	 5.703704e+00	 1.020879e+01
0	 5.111111e+00	 5.777778e+00	 1.020206e+01
0	 5.111111e+00	 5.851852e+00	 1.019544e+01
0	 5.111111e+00	 5.925926e+00	 1.018892e+01
0	 5.185185e+00	 5.555556e+00	 1.022113e+01
0	 5.185185e+00	 5.629630e+00	 1.021435e+01
0	 5.185185e+00	 5.703704e+00	 1.020767e+01
0	 5.185185e+00	 5.777778e+00	 1.020109e+01
0	 5.185185e+00	 5.851852e+00	 1.019461e+01
0	 5.185185e+00	 5.925926e+00	 1.018821e+01
0	 4.814815e+00	 5.925926e+00	 1.018886e+01
0	 4.814815e+00	 6.000000e+00	 1.018204e+01
0	 4.814815e+00	 6.074074e+00	 1.017538e+01
0	 4.814815e+00	 6.148148e+00	 1.016887e+01
0	 4.814815e+00	 6.222222e+00	 1.016251e+01
0	 4.814815e+00	 6.296296e+00	 1.015629e+01
0	 4.888889e+00	 5.925926e+00	 1.018935e+01
0	 4.888889e+00	 6.000000e+00	 1.018262e+01
0	 4.888889e+00	 6.074074e+00	 1.017604e+01
0	 4.888889e+00	 6.148148e+00	 1.016960e+01
0	 4.888889e+00	 6.222222e+00	 1.016330e+01
0	 4.888889e+00	 6.296296e+00	 1.015714e+01
0	 4.962963e+00	 5.925926e+00	 1.018951e+01
0	 4.962963e+00	 6.000000e+00	 1.018288e+01
0	 4.962963e+00	 6.074074e+00	 1.017639e+01
0	 4.962963e+00	 6.148148e+00	 1.017003e+01
0	 4.962963e+00	 6.222222e+00	 1.016380e+01
0	 4.962963e+00	 6.296296e+00	 1.015770e+01
0	 5.037037e+00	 5.925926e+00	 1.018936e+01
0	 5.037037e+00	 6.000000e+00	 1.018283e+01
0	 5.037037e+00	 6.074074e+00	 1.017644e+01
0	 5.037037e+00	 6.148148e+00	 1.017016e+01
0	 5.037037e+00	 6.222222e+00	 1.016401e+01
0	 5.037037e+00	 6.296296e+00	 1.015798e+01
0	 5.111111e+00	 5.925926e+00	 1.018892e+01
0	 5.111111e+00	 6.000000e+00	 1.018250e+01
0	 5.111111e+00	 6.074074e+00	 1.017621e+01
0	 5.111111e+00	 6.148148e+00	 1.017003e+01
0	 5.111111e+00	 6.222222e+00	 1.016396e+01
0	 5.111111e+00	 6.296296e+00	 1.015801e+01
0	 5.185185e+00	 5.925926e+00	 1.018821e+01
0	 5.185185e+00	 6.000000e+00	 1.018191e+01
0	 5.185185e+00	 6.074074e+00	 1.017572e+01
0	 5.185185e+00	 6.148148e+00	 1.016964e+01
0	 5.185185e+00	 6.222222e+00	 1.016367e+01
0	 5.185185e+00	 6.296296e+00	 1.015779e+01
0	 4.814815e+00	 6.296296e+00	 1.015629e+01
0	 4.814815e+00	 6.370370e+00	 1.015022e+01
0	 4.814815e+00	 6.444444e+00	 1.014429e+01
0	 4.814815e+00	 6.518519e+00	 1.013851e+01
0	 4.814815e+00	 6.592593e+00	 1.013287e+01
0	 4.814815e+00	 6.666667e+00	 1.012736e+01
0	 4.888889e+00	 6.296296e+00	 1.015714e+01
0	 4.888889e+00	 6.370370e+00	 1.015111e+01
0	 4.888889e+00	 6.444444e+00	 1.014522e+01
0	 4.888889e+00	 6.518519e+00	 1.013947e+01
0	 4.888889e+00	 6.592593e+00	 1.013386e+01
0	 4.888889e+00	 6.666667e+00	 1.012837e+01
0	 4.962963e+00	 6.296296e+00	 1.015770e+01
0	 4.962963e+00	 6.370370e+00	 1.015172e+01
0	 4.962963e+00	 6.444444e+00	 1.014588e+01
0	 4.962963e+00	 6.518519e+00	 1.014017e+01
0	 4.962963e+00	 6.592593e+00	 1.013459e+01
0	 4.962963e+00	 6.666667e+00	 1.012914e+01
0	 5.037037e+00	 6.296296e+00	 1.015798e+01
0	 5.037037e+00	 6.370370e+00	 1.015207e+01
0	 5.037037e+00	 6.444444e+00	 1.014628e+01
0	 5.037037e+00	 6.518519e+00	 1.014062e+01
0	 5.037037e+00	 6.592593e+00	 1.013509e+01
0	 5.037037e+00	 6.666667e+00	 1.012967e+01
0	 5.111111e+00	 6.296296e+00	 1.015801e+01
0	 5.111111e+00	 6.370370e+00	 1.015216e+01
0	 5.111111e+00	 6.444444e+00	 1.014644e+01
0	 5.111111e+00	 6.518519e+00	 1.014084e+01
0	 5.111111e+00	 6.592593e+00	 1.013535e+01
0	 5.111111e+00	 6.666667e+00	 1.012997e+01
0	 5.185185e+00	 6.296296e+00	 1.015779e+01
0	 5.185185e+00	 6.370370e+00	 1.015202e+01
0	 5.185185e+00	 6.444444e+00	 1.014637e+01
0	 5.185185e+00	 6.518519e+00	 1.014083e+01
0	 5.185185e+00	 6.592593e+00	 1.013540e+01
0	 5.185185e+00	 6.666667e+00	 1.013007e+01
0	 4.814815e+00	 6.666667e+00	 1.012736e+01
0	 4.814815e+00	 6.740741e+00	 1.012200e+01
0	 4.814815e+00	 6.814815e+00	 1.011677e+01
0	 4.814815e+00	 6.888889e+00	 1.011168e+01
0	 4.814815e+00	 6.962963e+00	 1.010671e+01
0	 4.814815e+00	 7.037037e+00	 1.010188e+01
0	 4.888889e+00	 6.666667e+00	 1.012837e+01
0	 4.888889e+00	 6.740741e+00	 1.012302e+01
0	 4.888889e+00	 6.814815e+00	 1.011780e+01
0	 4.888889e+00	 6.888889e+00	 1.011271e+01
0	 4.888889e+00	 6.962963e+00	 1.010775e+01
0	 4.888889e+00	 7.037037e+00	 1.010291e+01
0	 4.962963e+00	 6.666667e+00	 1.012914e+01
0	 4.962963e+00	 6.740741e+00	 1.012381e+01
0	 4.962963e+00	 6.814815e+00	 1.011860e+01
0	 4.962963e+00	 6.888889e+00	 1.011353e+01
0	 4.962963e+00	 6.962963e+00	 1.010857e+01
0	 4.962963e+00	 7.037037e+00	 1.010373e+01
0	 5.037037e+00	 6.666667e+00	 1.012967e+01
0	 5.037037e+00	 6.740741e+00	 1.012437e+01
0	 5.037037e+00	 6.814815e+00	 1.011919e+01
0	 5.037037e+00	 6.888889e+00	 1.011413e+01
0	 5.037037e+00	 6.962963e+00	 1.010919e+01
0	 5.037037e+00	 7.037037e+00	 1.010436e+01
0	 5.111111e+00	 6.666667e+00	 1.012997e+01
0	 5.111111e+00	 6.740741e+00	 1.012471e+01
0	 5.111111e+00	 6.814815e+00	 1.011956e+01
0	 5.111111e+00	 6.888889e+00	 1.011453e+01
0	 5.111111e+00	 6.962963e+00	 1.010961e+01
0	 5.111111e+00	 7.037037e+00	 1.010480e+01
0	 5.185185e+00	 6.666667e+00	 1.013007e+01
0	 5.185185e+00	 6.740741e+00	 1.012485e+01
0	 5.185185e+00	 6.814815e+00	 1.011975e+01
0	 5.185185e+00	 6.888889e+00	 1.011475e+01
0	 5.185185e+00	 6.962963e+00	 1.010986e+01
0	 5.185185e+00	 7.037037e+00	 1.010507e+01
0	 4.814815e+00	 7.037037e+00	 1.010188e+01
0	 4.814815e+00	 7.111111e+00	 1.009718e+01
0	 4.814815e+00	 7.185185e+00	 1.009259e+01
0	 4.814815e+00	 7.259259e+00	 1.008813e+01
0	 4.814815e+00	 7.333333e+00	 1.008379e+01
0	 4.814815e+00	 7.407407e+00	 1.007957e+01
0	 4.888889e+00	 7.037037e+00	 1.010291e+01
0	 4.888889e+00	 7.111111e+00	 1.009819e+01
0	 4.888889e+00	 7.185185e+00	 1.009360e+01
0	 4.888889e+00	 7.259259e+00	 1.008912e+01
0	 4.888889e+00	 7.333333e+00	 1.008476e+01
0	 4.888889e+00	 7.407407e+00	 1.008051e+01
0	 4.962963e+00	 7.037037e+00	 1.010373e+01
0	 4.962963e+00	 7.111111e+00	 1.009901e+01
0	 4.962963e+00	 7.185185e+00	 1.009441e+01
0	 4.962963e+00	 7.259259e+00	 1.008992e+01
0	 4.962963e+00	 7.333333e+00	 1.008555e+01
0	 4.962963e+00	 7.407407e+00	 1.008129e+01
0	 5.037037e+00	 7.037037e+00	 1.010436e+01
0	 5.037037e+00	 7.111111e+00	 1.009965e+01
0	 5.037037e+00	 7.185185e+00	 1.009505e+01
0	 5.037037e+00	 7.259259e+00	 1.009056e+01
0	 5.037037e+00	 7.333333e+00	 1.008618e+01
0	 5.037037e+00	 7.407407e+00	 1.008191e+01
0	 5.111111e+00	 7.037037e+00	 1.010480e+01
0	 5.111111e+00	 7.111111e+00	 1.010010e+01
0	 5.111111e+00	 7.185185e+00	 1.009552e+01
0	 5.111111e+00	 7.259259e+00	 1.009103e+01
0	 5.111111e+00	 7.333333e+00	 1.008666e+01
0	 5.111111e+00	 7.407407e+00	 1.008239e+01
0	 5.185185e+00	 7.037037e+00	 1.010507e+01
0	 5.185185e+00	 7.111111e+00	 1.010039e+01
0	 5.185185e+00	 7.185185e+00	 1.009582e+01
0	 5.185185e+00	 7.259259e+00	 1.009135e+01
0	 5.185185e+00	 7.333333e+00	 1.008699e+01
0	 5.185185e+00	 7.407407e+00	 1.008273e+01
0	 4.814815e+00	 7.407407e+00	 1.007957e+01
0	 4.814815e+00	 7.481481e+00	 1.007546e+01
0	 4.814815e+00	 7.555556e+00	 1.007147e+01
0	 4.814815e+00	 7.629630e+00	 1.006759e+01
0	 4.814815e+00	 7.703704e+00	 1.006381e+01
0	 4.814815e+00	 7.777778e+00	 1.006015e+01
0	 4.888889e+00	 7.407407e+00	 1.008051e+01
0	 4.888889e+00	 7.481481e+00	 1.007638e+01
0	 4.888889e+00	 7.555556e+00	 1.007236e+01
0	 4.888889e+00	 7.629630e+00	 1.006844e+01
0	 4.888889e+00	 7.703704e+00	 1.006464e+01
0	 4.888889e+00	 7.777778e+00	 1.006094e+01
0	 4.962963e+00	 7.407407e+00	 1.008129e+01
0	 4.962963e+00	 7.481481e+00	 1.007714e+01
0	 4.962963e+00	 7.555556e+00	 1.007310e+01
0	 4.962963e+00	 7.629630e+00	 1.006916e+01
0	 4.962963e+00	 7.703704e+00	 1.006533e+01
0	 4.962963e+00	 7.777778e+00	 1.006161e+01
0	 5.037037e+00	 7.407407e+00	 1.008191e+01
0	 5.037037e+00	 7.481481e+00	 1.007775e+01
0	 5.037037e+00	 7.555556e+00	 1.007370e+01
0	 5.037037e+00	 7.629630e+00	 1.006975e+01
0	 5.037037e+00	 7.703704e+00	 1.006590e+01
0	 5.037037e+00	 7.777778e+00	 1.006216e+01
0	 5.111111e+00	 7.407407e+00	 1.008239e+01
0	 5.111111e+00	 7.481481e+00	 1.007823e+01
0	 5.111111e+00	 7.555556e+00	 1.007417e+01
0	 5.111111e+00	 7.629630e+00	 1.007021e+01
0	 5.111111e+00	 7.703704e+00	 1.006635e+01
0	 5.111111e+00	 7.777778e+00	 1.006259e+01
0	 5.185185e+00	 7.407407e+00	 1.008273e+01
0	 5.185185e+00	 7.481481e+00	 1.007856e+01
0	 5.185185e+00	 7.555556e+00	 1.007450e+01
0	 5.185185e+00	 7.629630e+00	 1.007054e+01
0	 5.185185e+00	 7.703704e+00	 1.006668e+01
0	 5.185185e+00	 7.777778e+00	 1.006292e+01
0	 4.814815e+00	 7.777778e+00	 1.006015e+01
0	 4.814815e+00	 7.851852e+00	 1.005659e+01
0	 4.814815e+00	 7.925926e+00	 1.005313e+01
0	 4.814815e+00	 8.000000e+00	 1.004978e+01
0	 4.814815e+00	 8.074074e+00	 1.004653e+01
0	 4.814815e+00	 8.148148e+00	 1.004338e+01
0	 4.888889e+00	 7.777778e+00	 1.006094e+01
0	 4.888889e+00	 7.851852e+00	 1.005734e+01
0	 4.888889e+00	 7.925926e+00	 1.005385e+01
0	 4.888889e+00	 8.000000e+00	 1.005047e+01
0	 4.888889e+00	 8.074074e+00	 1.004718e+01
0	 4.888889e+00	 8.148148e+00	 1.004399e+01
0	 4.962963e+00	 7.777778e+00	 1.006161e+01
0	 4.962963e+00	 7.851852e+00	 1.005799e+01
0	 4.962963e+00	 7.925926e+00	 1.005447e+01
0	 4.962963e+00	 8.000000e+00	 1.005105e+01
0	 4.962963e+00	 8.074074e+00	 1.004773e+01
0	 4.962963e+00	 8.148148e+00	 1.004451e+01
0	 5.037037e+00	 7.777778e+00	 1.006216e+01
0	 5.037037e+00	 7.851852e+00	 1.005852e+01
0	 5.037037e+00	 7.925926e+00	 1.005498e+01
0	 5.037037e+00	 8.000000e+00	 1.005154e+01
0	 5.037037e+00	 8.074074e+00	 1.004819e+01
0	 5.037037e+00	 8.148148e+00	 1.004495e+01
0	 5.111111e+00	 7.777778e+00	 1.006259e+01
0	 5.111111e+00	 7.851852e+00	 1.005894e+01
0	 5.111111e+00	 7.925926e+00	 1.005538e+01
0	 5.111111e+00	 8.000000e+00	 1.005192e+01
0	 5.111111e+00	 8.074074e+00	 1.004856e+01
0	 5.111111e+00	 8.148148e+00	 1.004530e+01
0	 5.185185e+00	 7.777778e+00	 1.006292e+01
0	 5.185185e+00	 7.851852e+00	 1.005925e+01
0	 5.185185e+00	 7.925926e+00	 1.005569e+01
0	 5.185185e+00	 8.000000e+00	 1.005222e+01
0	 5.185185e+00	 8.074074e+00	 1.004885e+01
0	 5.185185e+00	 8.148148e+00	 1.004557e+01
0	 4.814815e+00	 8.148148e+00	 1.004338e+01
0	 4.814815e+00	 8.222222e+00	 1.004032e+01
0	 4.814815e+00	 8.296296e+00	 1.003738e+01
0	 4.814815e+00	 8.370370e+00	 1.003453e+01
0	 4.814815e+00	 8.444444e+00	 1.003177e+01
0	 4.814815e+00	 8.518519e+00	 1.002911e+01
0	 4.888889e+00	 8.148148e+00	 1.004399e+01
0	 4.888889e+00	 8.222222e+00	 1.004090e+01
0	 4.888889e+00	 8.296296e+00	 1.003791e+01
0	 4.888889e+00	 8.370370e+00	 1.003503e+01
0	 4.888889e+00	 8.444444e+00	 1.003224e+01
0	 4.888889e+00	 8.518519e+00	 1.002954e+01
0	 4.962963e+00	 8.148148e+00	 1.004451e+01
0	 4.962963e+00	 8.222222e+00	 1.004139e+01
0	 4.962963e+00	 8.296296e+00	 1.003837e+01
0	 4.962963e+00	 8.370370e+00	 1.003545e+01
0	 4.962963e+00	 8.444444e+00	 1.003263e+01
0	 4.962963e+00	 8.518519e+00	 1.002991e+01
0	 5.037037e+00	 8.148148e+00	 1.004495e+01
0	 5.037037e+00	 8.222222e+00	 1.004180e+01
0	 5.037037e+00	 8.296296e+00	 1.003876e+01
0	 5.037037e+00	 8.370370e+00	 1.003581e+01
0	 5.037037e+00	 8.444444e+00	 1.003297e+01
0	 5.037037e+00	 8.518519e+00	 1.003021e+01
0	 5.111111e+00	 8.148148e+00	 1.004530e+01
0	 5.111111e+00	 8.222222e+00	 1.004213e+01
0	 5.111111e+00	 8.296296e+00	 1.003907e+01
0	 5.111111e+00	 8.370370e+00	 1.003611e+01
0	 5.111111e+00	 8.444444e+00	 1.003324e+01
0	 5.111111e+00	 8.518519e+00	 1.003046e+01
0	 5.185185e+00	 8.148148e+00	 1.004557e+01
0	 5.185185e+00	 8.222222e+00	 1.004239e+01
0	 5.185185e+00	 8.296296e+00	 1.003931e+01
0	 5.185185e+00	 8.370370e+00	 1.003633e+01
0	 5.185185e+00	 8.444444e+00	 1.003345e+01
0	 5.185185e+00	 8.518519e+00	 1.003066e+01
0	 4.814815e+00	 8.518519e+00	 1.002911e+01
0	 4.814815e+00	 8.592593e+00	 1.002655e+01
0	 4.814815e+00	 8.666667e+00	 1.002410e+01
0	 4.814815e+00	 8.740741e+00	 1.002175e+01
0	 4.814815e+00	 8.814815e+00	 1.001950e+01
0	 4.814815e+00	 8.888889e+00	 1.001735e+01
0	 4.888889e+00	 8.518519e+00	 1.002954e+01
0	 4.888889e+00	 8.592593e+00	 1.002694e+01
0	 4.888889e+00	 8.666667e+00	 1.002446e+01
0	 4.888889e+00	 8.740741e+00	 1.002207e+01
0	 4.888889e+00	 8.814815e+00	 1.001979e+01
0	 4.888889e+00	 8.888889e+00	 1.001760e+01
0	 4.962963e+00	 8.518519e+00	 1.002991e+01
0	 4.962963e+00	 8.592593e+00	 1.002728e+01
0	 4.962963e+00	 8.666667e+00	 1.002476e+01
0	 4.962963e+00	 8.740741e+00	 1.002235e+01
0	 4.962963e+00	 8.814815e+00	 1.002004e+01
0	 4.962963e+00	 8.888889e+00	 1.001782e+01
0	 5.037037e+00	 8.518519e+00	 1.003021e+01
0	 5.037037e+00	 8.592593e+00	 1.002756e+01
0	 5.037037e+00	 8.666667e+00	 1.002502e+01
0	 5.037037e+00	 8.740741e+00	 1.002258e+01
0	 5.037037e+00	 8.814815e+00	 1.002025e+01
0	 5.037037e+00	 8.888889e+00	 1.001801e+01
0	 5.111111e+00	 8.518519e+00	 1.003046e+01
0	 5.111111e+00	 8.592593e+00	 1.002779e+01
0	 5.111111e+00	 8.666667e+00	 1.002523e+01
0	 5.111111e+00	 8.740741e+00	 1.002277e+01
0	 5.111111e+00	 8.814815e+00	 1.002042e+01
0	 5.111111e+00	 8.888889e+00	 1.001816e+01
0	 5.185185e+00	 8.518519e+00	 1.003066e+01
0	 5.185185e+00	 8.592593e+00	 1.002797e+01
0	 5.185185e+00	 8.666667e+00	 1.002539e+01
0	 5.185185e+00	 8.740741e+00	 1.002292e+01
0	 5.185185e+00	 8.814815e+00	 1.002055e+01
0	 5.185185e+00	 8.888889e+00	 1.001827e+01
0	 4.814815e+00	 8.888889e+00	 1.001735e+01
0	 4.814815e+00	 8.962963e+00	 1.001530e+01
0	 4.814815e+00	 9.037037e+00	 1.001337e+01
0	 4.814815e+00	 9.111111e+00	 1.001156e+01
0	 4.814815e+00	 9.185185e+00	 1.000985e+01
0	 4.814815e+00	 9.259259e+00	 1.000825e+01
0	 4.888889e+00	 8.888889e+00	 1.001760e+01
0	 4.888889e+00	 8.962963e+00	 1.001552e+01
0	 4.888889e+00	 9.037037e+00	 1.001357e+01
0	 4.888889e+00	 9.111111e+00	 1.001173e+01
0	 4.888889e+00	 9.185185e+00	 1.000999e+01
0	 4.888889e+00	 9.259259e+00	 1.000837e+01
0	 4.962963e+00	 8.888889e+00	 1.001782e+01
0	 4.962963e+00	 8.962963e+00	 1.001572e+01
0	 4.962963e+00	 9.037037e+00	 1.001374e+01
0	 4.962963e+00	 9.111111e+00	 1.001187e+01
0	 4.962963e+00	 9.185185e+00	 1.001012e+01
0	 4.962963e+00	 9.259259e+00	 1.000847e+01
0	 5.037037e+00	 8.888889e+00	 1.001801e+01
0	 5.037037e+00	 8.962963e+00	 1.001588e+01
0	 5.037037e+00	 9.037037e+00	 1.001388e+01
0	 5.037037e+00	 9.111111e+00	 1.001199e+01
0	 5.037037e+00	 9.185185e+00	 1.001022e+01
0	 5.037037e+00	 9.259259e+00	 1.000855e+01
0	 5.111111e+00	 8.888889e+00	 1.001816e+01
0	 5.111111e+00	 8.962963e+00	 1.001601e+01
0	 5.111111e+00	 9.037037e+00	 1.001399e+01
0	 5.111111e+00	 9.111111e+00	 1.001209e+01
0	 5.111111e+00	 9.185185e+00	 1.001030e+01
0	 5.111111e+00	 9.259259e+00	 1.000862e+01
0	 5.185185e+00	 8.888889e+00	 1.001827e+01
0	 5.185185e+00	 8.962963e+00	 1.001611e+01
0	 5.185185e+00	 9.037037e+00	 1.001408e+01
0	 5.185185e+00	 9.111111e+00	 1.001217e+01
0	 5.185185e+00	 9.185185e+00	 1.001037e+01
0	 5.185185e+00	 9.259259e+00	 1.000868e+01
0	 4.814815e+00	 9.259259e+00	 1.000825e+01
0	 4.814815e+00	 9.333333e+00	 1.000677e+01
0	 4.814815e+00	 9.407407e+00	 1.000544e+01
0	 4.814815e+00	 9.481481e+00	 1.000424e+01
0	 4.814815e+00	 9.555556e+00	 1.000318e+01
0	 4.814815e+00	 9.629630e+00	 1.000223e+01
0	 4.888889e+00	 9.259259e+00	 1.000837e+01
0	 4.888889e+00	 9.333333e+00	 1.000686e+01
0	 4.888889e+00	 9.407407e+00	 1.000551e+01
0	 4.888889e+00	 9.481481e+00	 1.000430e+01
0	 4.888889e+00	 9.555556e+00	 1.000322e+01
0	 4.888889e+00	 9.629630e+00	 1.000226e+01
0	 4.962963e+00	 9.259259e+00	 1.000847e+01
0	 4.962963e+00	 9.333333e+00	 1.000695e+01
0	 4.962963e+00	 9.407407e+00	 1.000558e+01
0	 4.962963e+00	 9.481481e+00	 1.000435e+01
0	 4.962963e+00	 9.555556e+00	 1.000325e+01
0	 4.962963e+00	 9.629630e+00	 1.000228e+01
0	 5.037037e+00	 9.259259e+00	 1.000855e+01
0	 5.037037e+00	 9.333333e+00	 1.000702e+01
0	 5.037037e+00	 9.407407e+00	 1.000563e+01
0	 5.037037e+00	 9.481481e+00	 1.000439e+01
0	 5.037037e+00	 9.555556e+00	 1.000329e+01
0	 5.037037e+00	 9.629630e+00	 1.000231e+01
0	 5.111111e+00	 9.259259e+00	 1.000862e+01
0	 5.111111e+00	 9.333333e+00	 1.000707e+01
0	 5.111111e+00	 9.407407e+00	 1.000568e+01
0	 5.111111e+00	 9.481481e+00	 1.000443e+01
0	 5.111111e+00	 9.555556e+00	 1.000331e+01
0	 5.111111e+00	 9.629630e+00	 1.000232e+01
0	 5.185185e+00	 9.259259e+00	 1.000868e+01
0	 5.185185e+00	 9.333333e+00	 1.000712e+01
0	 5.185185e+00	 9.407407e+00	 1.000571e+01
0	 5.185185e+00	 9.481481e+00	 1.000445e+01
0	 5.185185e+00	 9.555556e+00	 1.000333e+01
0	 5.185185e+00	 9.629630e+00	 1.000234e+01
0	 4.814815e+00	 9.629630e+00	 1.000223e+01
0	 4.814815e+00	 9.703704e+00	 1.000144e+01
0	 4.814815e+00	 9.777778e+00	 1.000083e+01
0	 4.814815e+00	 9.851852e+00	 1.000039e+01
0	 4.814815e+00	 9.925926e+00	 1.000011e+01
0	 4.814815e+00	 1.000000e+01	 9.999973e+00
0	 4.888889e+00	 9.629630e+00	 1.000226e+01
0	 4.888889e+00	 9.703704e+00	 1.000145e+01
0	 4.888889e+00	 9.777778e+00	 1.000084e+01
0	 4.888889e+00	 9.851852e+00	 1.000039e+01
0	 4.888889e+00	 9.925926e+00	 1.000011e+01
0	 4.888889e+00	 1.000000e+01	 9.999971e+00
0	 4.962963e+00	 9.629630e+00	 1.000228e+01
0	 4.962963e+00	 9.703704e+00	 1.000147e+01
0	 4.962963e+00	 9.777778e+00	 1.000084e+01
0	 4.962963e+00	 9.851852e+00	 1.000039e+01
0	 4.962963e+00	 9.925926e+00	 1.000011e+01
0	 4.962963e+00	 1.000000e+01	 9.999971e+00
0	 5.037037e+00	 9.629630e+00	 1.000231e+01
0	 5.037037e+00	 9.703704e+00	 1.000149e+01
0	 5.037037e+00	 9.777778e+00	 1.000085e+01
0	 5.037037e+00	 9.851852e+00	 1.000040e+01
0	 5.037037e+00	 9.925926e+00	 1.000011e+01
0	 5.037037e+00	 1.000000e+01	 9.999972e+00
0	 5.111111e+00	 9.629630e+00	 1.000232e+01
0	 5.111111e+00	 9.703704e+00	 1.000150e+01
0	 5.111111e+00	 9.777778e+00	 1.000086e+01
0	 5.111111e+00	 9.851852e+00	 1.000040e+01
0	 5.111111e+00	 9.925926e+00	 1.000011e+01
0	 5.111111e+00	 1.000000e+01	 9.999973e+00
0	 5.185185e+00	 9.629630e+00	 1.000234e+01
0	 5.185185e+00	 9.703704e+00	 1.000150e+01
0	 5.185185e+00	 9.777778e+00	 1.000086e+01
0	 5.185185e+00	 9.851852e+00	 1.000040e+01
0	 5.185185e+00	 9.925926e+00	 1.000011e+01
0	 5.185185e+00	 1.000000e+01	 9.999973e+00
0	 5.185185e+00	 0.000000e+00	 1.030022e+01
0	 5.185185e+00	 7.407407e-02	 1.030078e+01
0	 5.185185e+00	 1.481481e-01	 1.030188e+01
0	 5.185185e+00	 2.222222e-01	 1.030353e+01
0	 5.185185e+00	 2.962963e-01	 1.030574e+01
0	 5.185185e+00	 3.703704e-01	 1.030851e+01
0	 5.259259e+00	 0.000000e+00	 1.028968e+01
0	 5.259259e+00	 7.407407e-02	 1.029027e+01
0	 5.259259e+00	 1.481481e-01	 1.029134e+01
0	 5.259259e+00	 2.222222e-01	 1.029291e+01
0	 5.259259e+00	 2.962963e-01	 1.029499e+01
0	 5.259259e+00	 3.703704e-01	 1.029760e+01
0	 5.333333e+00	 0.000000e+00	 1.027965e+01
0	 5.333333e+00	 7.407407e-02	 1.028017e+01
0	 5.333333e+00	 1.481481e-01	 1.028113e+01
0	 5.333333e+00	 2.222222e-01	 1.028258e+01
0	 5.333333e+00	 2.962963e-01	 1.028451e+01
0	 5.333333e+00	 3.703704e-01	 1.028696e+01
0	 5.407407e+00	 0.000000e+00	 1.027000e+01
0	 5.407407e+00	 7.407407e-02	 1.027037e+01
0	 5.407407e+00	 1.481481e-01	 1.027120e+01
0	 5.407407e+00	 2.222222e-01	 1.027250e+01
0	 5.407407e+00	 2.962963e-01	 1.027428e+01
0	 5.407407e+00	 3.703704e-01	 1.027659e+01
0	 5.481481e+00	 0.000000e+00	 1.026056e+01
0	 5.481481e+00	 7.407407e-02	 1.026080e+01
0	 5.481481e+00	 1.481481e-01	 1.026149e+01
0	 5.481481e+00	 2.222222e-01	 1.026265e+01
0	 5.481481e+00	 2.962963e-01	 1.026431e+01
0	 5.481481e+00	 3.703704e-01	 1.026648e+01
0	 5.555556e+00	 0.000000e+00	 1.025120e+01
0	 5.555556e+00	 7.407407e-02	 1.025134e+01
0	 5.555556e+00	 1.481481e-01	 1.025194e+01
0	 5.555556e+00	 2.222222e-01	 1.025301e+01
0	 5.555556e+00	 2.962963e-01	 1.025458e+01
0	 5.555556e+00	 3.703704e-01	 1.025665e+01
0	 5.185185e+00	 3.703704e-01	 1.030851e+01
0	 5.185185e+00	 4.444444e-01	 1.031175e+01
0	 5.185185e+00	 5.185185e-01	 1.031539e+01
0	 5.185185e+00	 5.925926e-01	 1.031946e+01
0	 5.185185e+00	 6.666667e-01	 1.032402e+01
0	 5.185185e+00	 7.407407e-01	 1.032911e+01
0	 5.259259e+00	 3.703704e-01	 1.029760e+01
0	 5.259259e+00	 4.444444e-01	 1.030065e+01
0	 5.259259e+00	 5.185185e-01	 1.030410e+01
0	 5.259259e+00	 5.925926e-01	 1.030797e+01
0	 5.259259e+00	 6.666667e-01	 1.031231e+01
0	 5.259259e+00	 7.407407e-01	 1.031716e+01
0	 5.333333e+00	 3.703704e-01	 1.028696e+01
0	 5.333333e+00	 4.444444e-01	 1.028985e+01
0	 5.333333e+00	 5.185185e-01	 1.029312e+01
0	 5.333333e+00	 5.925926e-01	 1.029680e+01
0	 5.333333e+00	 6.666667e-01	 1.030094e+01
0	 5.333333e+00	 7.407407e-01	 1.030555e+01
0	 5.407407e+00	 3.703704e-01	 1.027659e+01
0	 5.407407e+00	 4.444444e-01	 1.027933e+01
0	 5.407407e+00	 5.185185e-01	 1.028243e+01
0	 5.407407e+00	 5.925926e-01	 1.028594e+01
0	 5.407407e+00	 6.666667e-01	 1.028988e+01
0	 5.407407e+00	 7.407407e-01	 1.029427e+01
0	 5.481481e+00	 3.703704e-01	 1.026648e+01
0	 5.481481e+00	 4.444444e-01	 1.026909e+01
0	 5.481481e+00	 5.185185e-01	 1.027205e+01
0	 5.481481e+00	 5.925926e-01	 1.027538e+01
0	 5.481481e+00	 6.666667e-01	 1.027913e+01
0	 5.481481e+00	 7.407407e-01	 1.028330e+01
0	 5.555556e+00	 3.703704e-01	 1.025665e+01
0	 5.555556e+00	 4.444444e-01	 1.025914e+01
0	 5.555556e+00	 5.185185e-01	 1.026195e+01
0	 5.555556e+00	 5.925926e-01	 1.026512e+01
0	 5.555556e+00	 6.666667e-01	 1.026868e+01
0	 5.555556e+00	 7.407407e-01	 1.027265e+01
0	 5.185185e+00	 7.407407e-01	 1.032911e+01
0	 5.185185e+00	 8.148148e-01	 1.033452e+01
0	 5.185185e+00	 8.888889e-01	 1.034006e+01
0	 5.185185e+00	 9.629630e-01	 1.034578e+01
0	 5.185185e+00	 1.037037e+00	 1.035176e+01
0	 5.185185e+00	 1.111111e+00	 1.035805e+01
0	 5.259259e+00	 7.407407e-01	 1.031716e+01
0	 5.259259e+00	 8.148148e-01	 1.032232e+01
0	 5.259259e+00	 8.888889e-01	 1.032762e+01
0	 5.259259e+00	 9.629630e-01	 1.033310e+01
0	 5.259259e+00	 1.037037e+00	 1.033883e+01
0	 5.259259e+00	 1.111111e+00	 1.034486e+01
0	 5.333333e+00	 7.407407e-01	 1.030555e+01
0	 5.333333e+00	 8.148148e-01	 1.031047e+01
0	 5.333333e+00	 8.888889e-01	 1.031553e+01
0	 5.333333e+00	 9.629630e-01	 1.032077e+01
0	 5.333333e+00	 1.037037e+00	 1.032626e+01
0	 5.333333e+00	 1.111111e+00	 1.033204e+01
0	 5.407407e+00	 7.407407e-01	 1.029427e+01
0	 5.407407e+00	 8.148148e-01	 1.029895e+01
0	 5.407407e+00	 8.888889e-01	 1.030378e+01
0	 5.407407e+00	 9.629630e-01	 1.030880e+01
0	 5.407407e+00	 1.037037e+00	 1.031405e+01
0	 5.407407e+00	 1.111111e+00	 1.031959e+01
0	 5.481481e+00	 7.407407e-01	 1.028330e+01
0	 5.481481e+00	 8.148148e-01	 1.028777e+01
0	 5.481481e+00	 8.888889e-01	 1.029237e+01
0	 5.481481e+00	 9.629630e-01	 1.029716e+01
0	 5.481481e+00	 1.037037e+00	 1.030219e+01
0	 5.481481e+00	 1.111111e+00	 1.030748e+01
0	 5.555556e+00	 7.407407e-01	 1.027265e+01
0	 5.555556e+00	 8.148148e-01	 1.027689e+01
0	 5.555556e+00	 8.888889e-01	 1.028128e+01
0	 5.555556e+00	 9.629630e-01	 1.028585e+01
0	 5.555556e+00	 1.037037e+00	 1.029065e+01
0	 5.555556e+00	 1.111111e+00	 1.029571e+01
0	 5.185185e+00	 1.111111e+00	 1.035805e+01
0	 5.185185e+00	 1.185185e+00	 1.036442e+01
0	 5.185185e+00	 1.259259e+00	 1.037065e+01
0	 5.185185e+00	 1.333333e+00	 1.037680e+01
0	 5.185185e+00	 1.407407e+00	 1.038292e+01
0	 5.185185e+00	 1.481481e+00	 1.038908e+01
0	 5.259259e+00	 1.111111e+00	 1.034486e+01
0	 5.259259e+00	 1.185185e+00	 1.035097e+01
0	 5.259259e+00	 1.259259e+00	 1.035696e+01
0	 5.259259e+00	 1.333333e+00	 1.036288e+01
0	 5.259259e+00	 1.407407e+00	 1.036878e+01
0	 5.259259e+00	 1.481481e+00	 1.037473e+01
0	 5.333333e+00	 1.111111e+00	 1.033204e+01
0	 5.333333e+00	 1.185185e+00	 1.033791e+01
0	 5.333333e+00	 1.259259e+00	 1.034367e+01
0	 5.333333e+00	 1.333333e+00	 1.034937e+01
0	 5.333333e+00	 1.407407e+00	 1.035507e+01
0	 5.333333e+00	 1.481481e+00	 1.036081e+01
0	 5.407407e+00	 1.111111e+00	 1.031959e+01
0	 5.407407e+00	 1.185185e+00	 1.032522e+01
0	 5.407407e+00	 1.259259e+00	 1.033075e+01
0	 5.407407e+00	 1.333333e+00	 1.033624e+01
0	 5.407407e+00	 1.407407e+00	 1.034175e+01
0	 5.407407e+00	 1.481481e+00	 1.034731e+01
0	 5.481481e+00	 1.111111e+00	 1.030748e+01
0	 5.481481e+00	 1.185185e+00	 1.031288e+01
0	 5.481481e+00	 1.259259e+00	 1.031819e+01
0	 5.481481e+00	 1.333333e+00	 1.032349e+01
0	 5.481481e+00	 1.407407e+00	 1.032880e+01
0	 5.481481e+00	 1.481481e+00	 1.033418e+01
0	 5.555556e+00	 1.111111e+00	 1.029571e+01
0	 5.555556e+00	 1.185185e+00	 1.030087e+01
0	 5.555556e+00	 1.259259e+00	 1.030598e+01
0	 5.555556e+00	 1.333333e+00	 1.031107e+01
0	 5.555556e+00	 1.407407e+00	 1.031619e+01
0	 5.555556e+00	 1.481481e+00	 1.032139e+01
0	 5.185185e+00	 1.481481e+00	 1.038908e+01
0	 5.185185e+00	 1.555556e+00	 1.039508e+01
0	 5.185185e+00	 1.629630e+00	 1.040072e+01
0	 5.185185e+00	 1.703704e+00	 1.040606e+01
0	 5.185185e+00	 1.777778e+00	 1.041115e+01
0	 5.185185e+00	 1.851852e+00	 1.041603e+01
0	 5.259259e+00	 1.481481e+00	 1.037473e+01
0	 5.259259e+00	 1.555556e+00	 1.038053e+01
0	 5.259259e+00	 1.629630e+00	 1.038602e+01
0	 5.259259e+00	 1.703704e+00	 1.039122e+01
0	 5.259259e+00	 1.777778e+00	 1.039620e+01
0	 5.259259e+00	 1.851852e+00	 1.040100e+01
0	 5.333333e+00	 1.481481e+00	 1.036081e+01
0	 5.333333e+00	 1.555556e+00	 1.036644e+01
0	 5.333333e+00	 1.629630e+00	 1.037177e+01
0	 5.333333e+00	 1.703704e+00	 1.037685e+01
0	 5.333333e+00	 1.777778e+00	 1.038172e+01
0	 5.333333e+00	 1.851852e+00	 1.038644e+01
0	 5.407407e+00	 1.481481e+00	 1.034731e+01
0	 5.407407e+00	 1.555556e+00	 1.035276e+01
0	 5.407407e+00	 1.629630e+00	 1.035795e+01
0	 5.407407e+00	 1.703704e+00	 1.036290e+01
0	 5.407407e+00	 1.777778e+00	 1.036767e+01
0	 5.407407e+00	 1.851852e+00	 1.037229e+01
0	 5.481481e+00	 1.481481e+00	 1.033418e+01
0	 5.481481e+00	 1.555556e+00	 1.033947e+01
0	 5.481481e+00	 1.629630e+00	 1.034451e+01
0	 5.481481e+00	 1.703704e+00	 1.034933e+01
0	 5.481481e+00	 1.777778e+00	 1.035399e+01
0	 5.481481e+00	 1.851852e+00	 1.035852e+01
0	 5.555556e+00	 1.481481e+00	 1.032139e+01
0	 5.555556e+00	 1.555556e+00	 1.032652e+01
0	 5.555556e+00	 1.629630e+00	 1.033141e+01
0	 5.555556e+00	 1.703704e+00	 1.033611e+01
0	 5.555556e+00	 1.777778e+00	 1.034065e+01
0	 5.555556e+00	 1.851852e+00	 1.034508e+01
0	 5.185185e+00	 1.851852e+00	 1.041603e+01
0	 5.185185e+00	 1.925926e+00	 1.042057e+01
0	 5.185185e+00	 2.000000e+00	 1.042463e+01
0	 5.185185e+00	 2.074074e+00	 1.042823e+01
0	 5.185185e+00	 2.148148e+00	 1.043141e+01
0	 5.185185e+00	 2.222222e+00	 1.043421e+01
0	 5.259259e+00	 1.851852e+00	 1.040100e+01
0	 5.259259e+00	 1.925926e+00	 1.040549e+01
0	 5.259259e+00	 2.000000e+00	 1.040952e+01
0	 5.259259e+00	 2.074074e+00	 1.041313e+01
0	 5.259259e+00	 2.148148e+00	 1.041636e+01
0	 5.259259e+00	 2.222222e+00	 1.041923e+01
0	 5.333333e+00	 1.851852e+00	 1.038644e+01
0	 5.333333e+00	 1.925926e+00	 1.039086e+01
0	 5.333333e+00	 2.000000e+00	 1.039486e+01
0	 5.333333e+00	 2.074074e+00	 1.039847e+01
0	 5.333333e+00	 2.148148e+00	 1.040172e+01
0	 5.333333e+00	 2.222222e+00	 1.040465e+01
0	 5.407407e+00	 1.851852e+00	 1.037229e+01
0	 5.407407e+00	 1.925926e+00	 1.037664e+01
0	 5.407407e+00	 2.000000e+00	 1.038060e+01
0	 5.407407e+00	 2.074074e+00	 1.038420e+01
0	 5.407407e+00	 2.148148e+00	 1.038746e+01
0	 5.407407e+00	 2.222222e+00	 1.039042e+01
0	 5.481481e+00	 1.851852e+00	 1.035852e+01
0	 5.481481e+00	 1.925926e+00	 1.036280e+01
0	 5.481481e+00	 2.000000e+00	 1.036671e+01
0	 5.481481e+00	 2.074074e+00	 1.037028e+01
0	 5.481481e+00	 2.148148e+00	 1.037355e+01
0	 5.481481e+00	 2.222222e+00	 1.037653e+01
0	 5.555556e+00	 1.851852e+00	 1.034508e+01
0	 5.555556e+00	 1.925926e+00	 1.034928e+01
0	 5.555556e+00	 2.000000e+00	 1.035314e+01
0	 5.555556e+00	 2.074074e+00	 1.035668e+01
0	 5.555556e+00	 2.148148e+00	 1.035994e+01
0	 5.555556e+00	 2.222222e+00	 1.036293e+01
0	 5.185185e+00	 2.222222e+00	 1.043421e+01
0	 5.185185e+00	 2.296296e+00	 1.043657e+01
0	 5.185185e+00	 2.370370e+00	 1.043839e+01
0	 5.185185e+00	 2.444444e+00	 1.043971e+01
0	 5.185185e+00	 2.518519e+00	 1.044054e+01
0	 5.185185e+00	 2.592593e+00	 1.044090e+01
0	 5.259259e+00	 2.222222e+00	 1.041923e+01
0	 5.259259e+00	 2.296296e+00	 1.042169e+01
0	 5.259259e+00	 2.370370e+00	 1.042364e+01
0	 5.259259e+00	 2.444444e+00	 1.042512e+01
0	 5.259259e+00	 2.518519e+00	 1.042613e+01
0	 5.259259e+00	 2.592593e+00	 1.042669e+01
0	 5.333333e+00	 2.222222e+00	 1.040465e+01
0	 5.333333e+00	 2.296296e+00	 1.040718e+01
0	 5.333333e+00	 2.370370e+00	 1.040924e+01
0	 5.333333e+00	 2.444444e+00	 1.041085e+01
0	 5.333333e+00	 2.518519e+00	 1.041202e+01
0	 5.333333e+00	 2.592593e+00	 1.041277e+01
0	 5.407407e+00	 2.222222e+00	 1.039042e+01
0	 5.407407e+00	 2.296296e+00	 1.039301e+01
0	 5.407407e+00	 2.370370e+00	 1.039516e+01
0	 5.407407e+00	 2.444444e+00	 1.039689e+01
0	 5.407407e+00	 2.518519e+00	 1.039820e+01
0	 5.407407e+00	 2.592593e+00	 1.039912e+01
0	 5.481481e+00	 2.222222e+00	 1.037653e+01
0	 5.481481e+00	 2.296296e+00	 1.037917e+01
0	 5.481481e+00	 2.370370e+00	 1.038139e+01
0	 5.481481e+00	 2.444444e+00	 1.038321e+01
0	 5.481481e+00	 2.518519e+00	 1.038465e+01
0	 5.481481e+00	 2.592593e+00	 1.038572e+01
0	 5.555556e+00	 2.222222e+00	 1.036293e+01
0	 5.555556e+00	 2.296296e+00	 1.036561e+01
0	 5.555556e+00	 2.370370e+00	 1.036789e+01
0	 5.555556e+00	 2.444444e+00	 1.036980e+01
0	 5.555556e+00	 2.518519e+00	 1.037134e+01
0	 5.555556e+00	 2.592593e+00	 1.037255e+01
0	 5.185185e+00	 2.592593e+00	 1.044090e+01
0	 5.185185e+00	 2.666667e+00	 1.044078e+01
0	 5.185185e+00	 2.740741e+00	 1.044019e+01
0	 5.185185e+00	 2.814815e+00	 1.043912e+01
0	 5.185185e+00	 2.888889e+00	 1.043759e+01
0	 5.185185e+00	 2.962963e+00	 1.043558e+01
0	 5.259259e+00	 2.592593e+00	 1.042669e+01
0	 5.259259e+00	 2.666667e+00	 1.042680e+01
0	 5.259259e+00	 2.740741e+00	 1.042646e+01
0	 5.259259e+00	 2.814815e+00	 1.042567e+01
0	 5.259259e+00	 2.888889e+00	 1.042443e+01
0	 5.259259e+00	 2.962963e+00	 1.042275e+01
0	 5.333333e+00	 2.592593e+00	 1.041277e+01
0	 5.333333e+00	 2.666667e+00	 1.041309e+01
0	 5.333333e+00	 2.740741e+00	 1.041299e+01
0	 5.333333e+00	 2.814815e+00	 1.041244e+01
0	 5.333333e+00	 2.888889e+00	 1.041147e+01
0	 5.333333e+00	 2.962963e+00	 1.041007e+01
0	 5.407407e+00	 2.592593e+00	 1.039912e+01
0	 5.407407e+00	 2.666667e+00	 1.039963e+01
0	 5.407407e+00	 2.740741e+00	 1.039973e+01
0	 5.407407e+00	 2.814815e+00	 1.039941e+01
0	 5.407407e+00	 2.888889e+00	 1.039869e+01
0	 5.407407e+00	 2.962963e+00	 1.039755e+01
0	 5.481481e+00	 2.592593e+00	 1.038572e+01
0	 5.481481e+00	 2.666667e+00	 1.038641e+01
0	 5.481481e+00	 2.740741e+00	 1.038669e+01
0	 5.481481e+00	 2.814815e+00	 1.038658e+01
0	 5.481481e+00	 2.888889e+00	 1.038607e+01
0	 5.481481e+00	 2.962963e+00	 1.038517e+01
0	 5.555556e+00	 2.592593e+00	 1.037255e+01
0	 5.555556e+00	 2.666667e+00	 1.037339e+01
0	 5.555556e+00	 2.740741e+00	 1.037385e+01
0	 5.555556e+00	 2.814815e+00	 1.037392e+01
0	 5.555556e+00	 2.888889e+00	 1.037361e+01
0	 5.555556e+00	 2.962963e+00	 1.037293e+01
0	 5.185185e+00	 2.962963e+00	 1.043558e+01
0	 5.185185e+00	 3.037037e+00	 1.043315e+01
0	 5.185185e+00	 3.111111e+00	 1.043033e+01
0	 5.185185e+00	 3.185185e+00	 1.042711e+01
0	 5.185185e+00	 3.259259e+00	 1.042348e+01
0	 5.185185e+00	 3.333333e+00	 1.041943e+01
0	 5.259259e+00	 2.962963e+00	 1.042275e+01
0	 5.259259e+00	 3.037037e+00	 1.042065e+01
0	 5.259259e+00	 3.111111e+00	 1.041817e+01
0	 5.259259e+00	 3.185185e+00	 1.041530e+01
0	 5.259259e+00	 3.259259e+00	 1.041203e+01
0	 5.259259e+00	 3.333333e+00	 1.040835e+01
0	 5.333333e+00	 2.962963e+00	 1.041007e+01
0	 5.333333e+00	 3.037037e+00	 1.040828e+01
0	 5.333333e+00	 3.111111e+00	 1.040611e+01
0	 5.333333e+00	 3.185185e+00	 1.040356e+01
0	 5.333333e+00	 3.259259e+00	 1.040062e+01
0	 5.333333e+00	 3.333333e+00	 1.039730e+01
0	 5.407407e+00	 2.962963e+00	 1.039755e+01
0	 5.407407e+00	 3.037037e+00	 1.039603e+01
0	 5.407407e+00	 3.111111e+00	 1.039414e+01
0	 5.407407e+00	 3.185185e+00	 1.039189e+01
0	 5.407407e+00	 3.259259e+00	 1.038927e+01
0	 5.407407e+00	 3.333333e+00	 1.038628e+01
0	 5.481481e+00	 2.962963e+00	 1.038517e+01
0	 5.481481e+00	 3.037037e+00	 1.038390e+01
0	 5.481481e+00	 3.111111e+00	 1.038228e+01
0	 5.481481e+00	 3.185185e+00	 1.038031e+01
0	 5.481481e+00	 3.259259e+00	 1.037799e+01
0	 5.481481e+00	 3.333333e+00	 1.037530e+01
0	 5.555556e+00	 2.962963e+00	 1.037293e+01
0	 5.555556e+00	 3.037037e+00	 1.037190e+01
0	 5.555556e+00	 3.111111e+00	 1.037053e+01
0	 5.555556e+00	 3.185185e+00	 1.036882e+01
0	 5.555556e+00	 3.259259e+00	 1.036677e+01
0	 5.555556e+00	 3.333333e+00	 1.036437e+01
0	 5.185185e+00	 3.333333e+00	 1.041943e+01
0	 5.185185e+00	 3.407407e+00	 1.041503e+01
0	 5.185185e+00	 3.481481e+00	 1.041036e+01
0	 5.185185e+00	 3.555556e+00	 1.040540e+01
0	 5.185185e+00	 3.629630e+00	 1.040013e+01
0	 5.185185e+00	 3.703704e+00	 1.039455e+01
0	 5.259259e+00	 3.333333e+00	 1.040835e+01
0	 5.259259e+00	 3.407407e+00	 1.040434e+01
0	 5.259259e+00	 3.481481e+00	 1.040005e+01
0	 5.259259e+00	 3.555556e+00	 1.039547e+01
0	 5.259259e+00	 3.629630e+00	 1.039059e+01
0	 5.259259e+00	 3.703704e+00	 1.038540e+01
0	 5.333333e+00	 3.333333e+00	 1.039730e+01
0	 5.333333e+00	 3.407407e+00	 1.039364e+01
0	 5.333333e+00	 3.481481e+00	 1.038971e+01
0	 5.333333e+00	 3.555556e+00	 1.038550e+01
0	 5.333333e+00	 3.629630e+00	 1.038099e+01
0	 5.333333e+00	 3.703704e+00	 1.037617e+01
0	 5.407407e+00	 3.333333e+00	 1.038628e+01
0	 5.407407e+00	 3.407407e+00	 1.038296e+01
0	 5.407407e+00	 3.481481e+00	 1.037937e+01
0	 5.407407e+00	 3.555556e+00	 1.037550e+01
0	 5.407407e+00	 3.629630e+00	 1.037133e+01
0	 5.407407e+00	 3.703704e+00	 1.036685e+01
0	 5.481481e+00	 3.333333e+00	 1.037530e+01
0	 5.481481e+00	 3.407407e+00	 1.037230e+01
0	 5.481481e+00	 3.481481e+00	 1.036903e+01
0	 5.481481e+00	 3.555556e+00	 1.036547e+01
0	 5.481481e+00	 3.629630e+00	 1.036163e+01
0	 5.481481e+00	 3.703704e+00	 1.035749e+01
0	 5.555556e+00	 3.333333e+00	 1.036437e+01
0	 5.555556e+00	 3.407407e+00	 1.036167e+01
0	 5.555556e+00	 3.481481e+00	 1.035870e+01
0	 5.555556e+00	 3.555556e+00	 1.035545e+01
0	 5.555556e+00	 3.629630e+00	 1.035191e+01
0	 5.555556e+00	 3.703704e+00	 1.034808e+01
0	 5.185185e+00	 3.703704e+00	 1.039455e+01
0	 5.185185e+00	 3.777778e+00	 1.038872e+01
0	 5.185185e+00	 3.851852e+00	 1.038271e+01
0	 5.185185e+00	 3.925926e+00	 1.037652e+01
0	 5.185185e+00	 4.000000e+00	 1.037012e+01
0	 5.185185e+00	 4.074074e+00	 1.036350e+01
0	 5.259259e+00	 3.703704e+00	 1.038540e+01
0	 5.259259e+00	 3.777778e+00	 1.037997e+01
0	 5.259259e+00	 3.851852e+00	 1.037435e+01
0	 5.259259e+00	 3.925926e+00	 1.036854e+01
0	 5.259259e+00	 4.000000e+00	 1.036251e+01
0	 5.259259e+00	 4.074074e+00	 1.035626e+01
0	 5.333333e+00	 3.703704e+00	 1.037617e+01
0	 5.333333e+00	 3.777778e+00	 1.037110e+01
0	 5.333333e+00	 3.851852e+00	 1.036584e+01
0	 5.333333e+00	 3.925926e+00	 1.036039e+01
0	 5.333333e+00	 4.000000e+00	 1.035473e+01
0	 5.333333e+00	 4.074074e+00	 1.034884e+01
0	 5.407407e+00	 3.703704e+00	 1.036685e+01
0	 5.407407e+00	 3.777778e+00	 1.036213e+01
0	 5.407407e+00	 3.851852e+00	 1.035723e+01
0	 5.407407e+00	 3.925926e+00	 1.035212e+01
0	 5.407407e+00	 4.000000e+00	 1.034680e+01
0	 5.407407e+00	 4.074074e+00	 1.034126e+01
0	 5.481481e+00	 3.703704e+00	 1.035749e+01
0	 5.481481e+00	 3.777778e+00	 1.035310e+01
0	 5.481481e+00	 3.851852e+00	 1.034852e+01
0	 5.481481e+00	 3.925926e+00	 1.034374e+01
0	 5.481481e+00	 4.000000e+00	 1.033876e+01
0	 5.481481e+00	 4.074074e+00	 1.033355e+01
0	 5.555556e+00	 3.703704e+00	 1.034808e+01
0	 5.555556e+00	 3.777778e+00	 1.034401e+01
0	 5.555556e+00	 3.851852e+00	 1.033975e+01
0	 5.555556e+00	 3.925926e+00	 1.033529e+01
0	 5.555556e+00	 4.000000e+00	 1.033062e+01
0	 5.555556e+00	 4.074074e+00	 1.032573e+01
0	 5.185185e+00	 4.074074e+00	 1.036350e+01
0	 5.185185e+00	 4.148148e+00	 1.035673e+01
0	 5.185185e+00	 4.222222e+00	 1.034988e+01
0	 5.185185e+00	 4.296296e+00	 1.034294e+01
0	 5.185185e+00	 4.370370e+00	 1.033590e+01
0	 5.185185e+00	 4.444444e+00	 1.032873e+01
0	 5.259259e+00	 4.074074e+00	 1.035626e+01
0	 5.259259e+00	 4.148148e+00	 1.034986e+01
0	 5.259259e+00	 4.222222e+00	 1.034337e+01
0	 5.259259e+00	 4.296296e+00	 1.033679e+01
0	 5.259259e+00	 4.370370e+00	 1.033008e+01
0	 5.259259e+00	 4.444444e+00	 1.032325e+01
0	 5.333333e+00	 4.074074e+00	 1.034884e+01
0	 5.333333e+00	 4.148148e+00	 1.034279e+01
0	 5.333333e+00	 4.222222e+00	 1.033665e+01
0	 5.333333e+00	 4.296296e+00	 1.033040e+01
0	 5.333333e+00	 4.370370e+00	 1.032403e+01
0	 5.333333e+00	 4.444444e+00	 1.031753e+01
0	 5.407407e+00	 4.074074e+00	 1.034126e+01
0	 5.407407e+00	 4.148148e+00	 1.033556e+01
0	 5.407407e+00	 4.222222e+00	 1.032975e+01
0	 5.407407e+00	 4.296296e+00	 1.032383e+01
0	 5.407407e+00	 4.370370e+00	 1.031778e+01
0	 5.407407e+00	 4.444444e+00	 1.031159e+01
0	 5.481481e+00	 4.074074e+00	 1.033355e+01
0	 5.481481e+00	 4.148148e+00	 1.032817e+01
0	 5.481481e+00	 4.222222e+00	 1.032269e+01
0	 5.481481e+00	 4.296296e+00	 1.031708e+01
0	 5.481481e+00	 4.370370e+00	 1.031134e+01
0	 5.481481e+00	 4.444444e+00	 1.030545e+01
0	 5.555556e+00	 4.074074e+00	 1.032573e+01
0	 5.555556e+00	 4.148148e+00	 1.032067e+01
0	 5.555556e+00	 4.222222e+00	 1.031550e+01
0	 5.555556e+00	 4.296296e+00	 1.031020e+01
0	 5.555556e+00	 4.370370e+00	 1.030475e+01
0	 5.555556e+00	 4.444444e+00	 1.029916e+01
0	 5.185185e+00	 4.444444e+00	 1.032873e+01
0	 5.185185e+00	 4.518519e+00	 1.032150e+01
0	 5.185185e+00	 4.592593e+00	 1.031426e+01
0	 5.185185e+00	 4.666667e+00	 1.030701e+01
0	 5.185185e+00	 4.740741e+00	 1.029972e+01
0	 5.185185e+00	 4.814815e+00	 1.029238e+01
0	 5.259259e+00	 4.444444e+00	 1.032325e+01
0	 5.259259e+00	 4.518519e+00	 1.031635e+01
0	 5.259259e+00	 4.592593e+00	 1.030942e+01
0	 5.259259e+00	 4.666667e+00	 1.030247e+01
0	 5.259259e+00	 4.740741e+00	 1.029548e+01
0	 5.259259e+00	 4.814815e+00	 1.028843e+01
0	 5.333333e+00	 4.444444e+00	 1.031753e+01
0	 5.333333e+00	 4.518519e+00	 1.031094e+01
0	 5.333333e+00	 4.592593e+00	 1.030432e+01
0	 5.333333e+00	 4.666667e+00	 1.029767e+01
0	 5.333333e+00	 4.740741e+00	 1.029096e+01
0	 5.333333e+00	 4.814815e+00	 1.028419e+01
0	 5.407407e+00	 4.444444e+00	 1.031159e+01
0	 5.407407e+00	 4.518519e+00	 1.030530e+01
0	 5.407407e+00	 4.592593e+00	 1.029898e+01
0	 5.407407e+00	 4.666667e+00	 1.029262e+01
0	 5.407407e+00	 4.740741e+00	 1.028620e+01
0	 5.407407e+00	 4.814815e+00	 1.027970e+01
0	 5.481481e+00	 4.444444e+00	 1.030545e+01
0	 5.481481e+00	 4.518519e+00	 1.029947e+01
0	 5.481481e+00	 4.592593e+00	 1.029344e+01
0	 5.481481e+00	 4.666667e+00	 1.028736e+01
0	 5.481481e+00	 4.740741e+00	 1.028121e+01
0	 5.481481e+00	 4.814815e+00	 1.027499e+01
0	 5.555556e+00	 4.444444e+00	 1.029916e+01
0	 5.555556e+00	 4.518519e+00	 1.029347e+01
0	 5.555556e+00	 4.592593e+00	 1.028772e+01
0	 5.555556e+00	 4.666667e+00	 1.028192e+01
0	 5.555556e+00	 4.740741e+00	 1.027604e+01
0	 5.555556e+00	 4.814815e+00	 1.027008e+01
0	 5.185185e+00	 4.814815e+00	 1.029238e+01
0	 5.185185e+00	 4.888889e+00	 1.028505e+01
0	 5.185185e+00	 4.962963e+00	 1.027777e+01
0	 5.185185e+00	 5.037037e+00	 1.027053e+01
0	 5.185185e+00	 5.111111e+00	 1.026331e+01
0	 5.185185e+00	 5.185185e+00	 1.025611e+01
0	 5.259259e+00	 4.814815e+00	 1.028843e+01
0	 5.259259e+00	 4.888889e+00	 1.028137e+01
0	 5.259259e+00	 4.962963e+00	 1.027435e+01
0	 5.259259e+00	 5.037037e+00	 1.026735e+01
0	 5.259259e+00	 5.111111e+00	 1.026038e+01
0	 5.259259e+00	 5.185185e+00	 1.025341e+01
0	 5.333333e+00	 4.814815e+00	 1.028419e+01
0	 5.333333e+00	 4.888889e+00	 1.027740e+01
0	 5.333333e+00	 4.962963e+00	 1.027064e+01
0	 5.333333e+00	 5.037037e+00	 1.026390e+01
0	 5.333333e+00	 5.111111e+00	 1.025716e+01
0	 5.333333e+00	 5.185185e+00	 1.025042e+01
0	 5.407407e+00	 4.814815e+00	 1.027970e+01
0	 5.407407e+00	 4.888889e+00	 1.027318e+01
0	 5.407407e+00	 4.962963e+00	 1.026667e+01
0	 5.407407e+00	 5.037037e+00	 1.026018e+01
0	 5.407407e+00	 5.111111e+00	 1.025368e+01
0	 5.407407e+00	 5.185185e+00	 1.024716e+01
0	 5.481481e+00	 4.814815e+00	 1.027499e+01
0	 5.481481e+00	 4.888889e+00	 1.026873e+01
0	 5.481481e+00	 4.962963e+00	 1.026248e+01
0	 5.481481e+00	 5.037037e+00	 1.025622e+01
0	 5.481481e+00	 5.111111e+00	 1.024996e+01
0	 5.481481e+00	 5.185185e+00	 1.024367e+01
0	 5.555556e+00	 4.814815e+00	 1.027008e+01
0	 5.555556e+00	 4.888889e+00	 1.026408e+01
0	 5.555556e+00	 4.962963e+00	 1.025808e+01
0	 5.555556e+00	 5.037037e+00	 1.025206e+01
0	 5.555556e+00	 5.111111e+00	 1.024603e+01
0	 5.555556e+00	 5.185185e+00	 1.023996e+01
0	 5.185185e+00	 5.185185e+00	 1.025611e+01
0	 5.185185e+00	 5.259259e+00	 1.024897e+01
0	 5.185185e+00	 5.333333e+00	 1.024190e+01
0	 5.185185e+00	 5.407407e+00	 1.023491e+01
0	 5.185185e+00	 5.481481e+00	 1.022799e+01
0	 5.185185e+00	 5.555556e+00	 1.022113e+01
0	 5.259259e+00	 5.185185e+00	 1.025341e+01
0	 5.259259e+00	 5.259259e+00	 1.024648e+01
0	 5.259259e+00	 5.333333e+00	 1.023963e+01
0	 5.259259e+00	 5.407407e+00	 1.023284e+01
0	 5.259259e+00	 5.481481e+00	 1.022610e+01
0	 5.259259e+00	 5.555556e+00	 1.021942e+01
0	 5.333333e+00	 5.185185e+00	 1.025042e+01
0	 5.333333e+00	 5.259259e+00	 1.024371e+01
0	 5.333333e+00	 5.333333e+00	 1.023706e+01
0	 5.333333e+00	 5.407407e+00	 1.023047e+01
0	 5.333333e+00	 5.481481e+00	 1.022392e+01
0	 5.333333e+00	 5.555556e+00	 1.021742e+01
0	 5.407407e+00	 5.185185e+00	 1.024716e+01
0	 5.407407e+00	 5.259259e+00	 1.024067e+01
0	 5.407407e+00	 5.333333e+00	 1.023423e+01
0	 5.407407e+00	 5.407407e+00	 1.022784e+01
0	 5.407407e+00	 5.481481e+00	 1.022148e+01
0	 5.407407e+00	 5.555556e+00	 1.021516e+01
0	 5.481481e+00	 5.185185e+00	 1.024367e+01
0	 5.481481e+00	 5.259259e+00	 1.023739e+01
0	 5.481481e+00	 5.333333e+00	 1.023116e+01
0	 5.481481e+00	 5.407407e+00	 1.022497e+01
0	 5.481481e+00	 5.481481e+00	 1.021880e+01
0	 5.481481e+00	 5.555556e+00	 1.021266e+01
0	 5.555556e+00	 5.185185e+00	 1.023996e+01
0	 5.555556e+00	 5.259259e+00	 1.023390e+01
0	 5.555556e+00	 5.333333e+00	 1.022788e+01
0	 5.555556e+00	 5.407407e+00	 1.022188e+01
0	 5.555556e+00	 5.481481e+00	 1.021591e+01
0	 5.555556e+00	 5.555556e+00	 1.020995e+01
0	 5.185185e+00	 5.555556e+00	 1.022113e+01
0	 5.185185e+00	 5.629630e+00	 1.021435e+01
0	 5.185185e+00	 5.703704e+00	 1.020767e+01
0	 5.185185e+00	 5.777778e+00	 1.020109e+01
0	 5.185185e+00	 5.851852e+00	 1.019461e+01
0	 5.185185e+00	 5.925926e+00	 1.018821e+01
0	 5.259259e+00	 5.555556e+00	 1.021942e+01
0	 5.259259e+00	 5.629630e+00	 1.021280e+01
0	 5.259259e+00	 5.703704e+00	 1.020628e+01
0	 5.259259e+00	 5.777778e+00	 1.019985e+01
0	 5.259259e+00	 5.851852e+00	 1.019350e+01
0	 5.259259e+00	 5.925926e+00	 1.018723e+01
0	 5.333333e+00	 5.555556e+00	 1.021742e+01
0	 5.333333e+00	 5.629630e+00	 1.021097e+01
0	 5.333333e+00	 5.703704e+00	 1.020461e+01
0	 5.333333e+00	 5.777778e+00	 1.019833e+01
0	 5.333333e+00	 5.851852e+00	 1.019213e+01
0	 5.333333e+00	 5.925926e+00	 1.018599e+01
0	 5.407407e+00	 5.555556e+00	 1.021516e+01
0	 5.407407e+00	 5.629630e+00	 1.020888e+01
0	 5.407407e+00	 5.703704e+00	 1.020269e+01
0	 5.407407e+00	 5.777778e+00	 1.019656e+01
0	 5.407407e+00	 5.851852e+00	 1.019050e+01
0	 5.407407e+00	 5.925926e+00	 1.018450e+01
0	 5.481481e+00	 5.555556e+00	 1.021266e+01
0	 5.481481e+00	 5.629630e+00	 1.020656e+01
0	 5.481481e+00	 5.703704e+00	 1.020053e+01
0	 5.481481e+00	 5.777778e+00	 1.019456e+01
0	 5.481481e+00	 5.851852e+00	 1.018865e+01
0	 5.481481e+00	 5.925926e+00	 1.018279e+01
0	 5.555556e+00	 5.555556e+00	 1.020995e+01
0	 5.555556e+00	 5.629630e+00	 1.020402e+01
0	 5.555556e+00	 5.703704e+00	 1.019816e+01
0	 5.555556e+00	 5.777778e+00	 1.019235e+01
0	 5.555556e+00	 5.851852e+00	 1.018659e+01
0	 5.555556e+00	 5.925926e+00	 1.018088e+01
0	 5.185185e+00	 5.925926e+00	 1.018821e+01
0	 5.185185e+00	 6.000000e+00	 1.018191e+01
0	 5.185185e+00	 6.074074e+00	 1.017572e+01
0	 5.185185e+00	 6.148148e+00	 1.016964e+01
0	 5.185185e+00	 6.222222e+00	 1.016367e+01
0	 5.185185e+00	 6.296296e+00	 1.015779e+01
0	 5.259259e+00	 5.925926e+00	 1.018723e+01
0	 5.259259e+00	 6.000000e+00	 1.018105e+01
0	 5.259259e+00	 6.074074e+00	 1.017498e+01
0	 5.259259e+00	 6.148148e+00	 1.016900e+01
0	 5.259259e+00	 6.222222e+00	 1.016313e+01
0	 5.259259e+00	 6.296296e+00	 1.015734e+01
0	 5.333333e+00	 5.925926e+00	 1.018599e+01
0	 5.333333e+00	 6.000000e+00	 1.017994e+01
0	 5.333333e+00	 6.074074e+00	 1.017398e+01
0	 5.333333e+00	 6.148148e+00	 1.016811e+01
0	 5.333333e+00	 6.222222e+00	 1.016234e+01
0	 5.333333e+00	 6.296296e+00	 1.015665e+01
0	 5.407407e+00	 5.925926e+00	 1.018450e+01
0	 5.407407e+00	 6.000000e+00	 1.017858e+01
0	 5.407407e+00	 6.074074e+00	 1.017274e+01
0	 5.407407e+00	 6.148148e+00	 1.016699e+01
0	 5.407407e+00	 6.222222e+00	 1.016133e+01
0	 5.407407e+00	 6.296296e+00	 1.015574e+01
0	 5.481481e+00	 5.925926e+00	 1.018279e+01
0	 5.481481e+00	 6.000000e+00	 1.017700e+01
0	 5.481481e+00	 6.074074e+00	 1.017129e+01
0	 5.481481e+00	 6.148148e+00	 1.016566e+01
0	 5.481481e+00	 6.222222e+00	 1.016011e+01
0	 5.481481e+00	 6.296296e+00	 1.015462e+01
0	 5.555556e+00	 5.925926e+00	 1.018088e+01
0	 5.555556e+00	 6.000000e+00	 1.017522e+01
0	 5.555556e+00	 6.074074e+00	 1.016964e+01
0	 5.555556e+00	 6.148148e+00	 1.016413e+01
0	 5.555556e+00	 6.222222e+00	 1.015869e+01
0	 5.555556e+00	 6.296296e+00	 1.015331e+01
0	 5.185185e+00	 6.296296e+00	 1.015779e+01
0	 5.185185e+00	 6.370370e+00	 1.015202e+01
0	 5.185185e+00	 6.444444e+00	 1.014637e+01
0	 5.185185e+00	 6.518519e+00	 1.014083e+01
0	 5.185185e+00	 6.592593e+00	 1.013540e+01
0	 5.185185e+00	 6.666667e+00	 1.013007e+01
0	 5.259259e+00	 6.296296e+00	 1.015734e+01
0	 5.259259e+00	 6.370370e+00	 1.015165e+01
0	 5.259259e+00	 6.444444e+00	 1.014608e+01
0	 5.259259e+00	 6.518519e+00	 1.014060e+01
0	 5.259259e+00	 6.592593e+00	 1.013524e+01
0	 5.259259e+00	 6.666667e+00	 1.012996e+01
0	 5.333333e+00	 6.296296e+00	 1.015665e+01
0	 5.333333e+00	 6.370370e+00	 1.015105e+01
0	 5.333333e+00	 6.444444e+00	 1.014555e+01
0	 5.333333e+00	 6.518519e+00	 1.014016e+01
0	 5.333333e+00	 6.592593e+00	 1.013486e+01
0	 5.333333e+00	 6.666667e+00	 1.012965e+01
0	 5.407407e+00	 6.296296e+00	 1.015574e+01
0	 5.407407e+00	 6.370370e+00	 1.015023e+01
0	 5.407407e+00	 6.444444e+00	 1.014482e+01
0	 5.407407e+00	 6.518519e+00	 1.013951e+01
0	 5.407407e+00	 6.592593e+00	 1.013428e+01
0	 5.407407e+00	 6.666667e+00	 1.012914e+01
0	 5.481481e+00	 6.296296e+00	 1.015462e+01
0	 5.481481e+00	 6.370370e+00	 1.014921e+01
0	 5.481481e+00	 6.444444e+00	 1.014390e+01
0	 5.481481e+00	 6.518519e+00	 1.013867e+01
0	 5.481481e+00	 6.592593e+00	 1.013352e+01
0	 5.481481e+00	 6.666667e+00	 1.012845e+01
0	 5.555556e+00	 6.296296e+00	 1.015331e+01
0	 5.555556e+00	 6.370370e+00	 1.014801e+01
0	 5.555556e+00	 6.444444e+00	 1.014279e+01
0	 5.555556e+00	 6.518519e+00	 1.013765e+01
0	 5.555556e+00	 6.592593e+00	 1.013259e+01
0	 5.555556e+00	 6.666667e+00	 1.012760e+01
0	 5.185185e+00	 6.666667e+00	 1.013007e+01
0	 5.185185e+00	 6.740741e+00	 1.012485e+01
0	 5.185185e+00	 6.814815e+00	 1.011975e+01
0	 5.185185e+00	 6.888889e+00	 1.011475e+01
0	 5.185185e+00	 6.962963e+00	 1.010986e+01
0	 5.185185e+00	 7.037037e+00	 1.010507e+01
0	 5.259259e+00	 6.666667e+00	 1.012996e+01
0	 5.259259e+00	 6.740741e+00	 1.012480e+01
0	 5.259259e+00	 6.814815e+00	 1.011974e+01
0	 5.259259e+00	 6.888889e+00	 1.011478e+01
0	 5.259259e+00	 6.962963e+00	 1.010993e+01
0	 5.259259e+00	 7.037037e+00	 1.010517e+01
0	 5.333333e+00	 6.666667e+00	 1.012965e+01
0	 5.333333e+00	 6.740741e+00	 1.012454e+01
0	 5.333333e+00	 6.814815e+00	 1.011953e+01
0	 5.333333e+00	 6.888889e+00	 1.011462e+01
0	 5.333333e+00	 6.962963e+00	 1.010981e+01
0	 5.333333e+00	 7.037037e+00	 1.010509e+01
0	 5.407407e+00	 6.666667e+00	 1.012914e+01
0	 5.407407e+00	 6.740741e+00	 1.012409e+01
0	 5.407407e+00	 6.814815e+00	 1.011914e+01
0	 5.407407e+00	 6.888889e+00	 1.011429e+01
0	 5.407407e+00	 6.962963e+00	 1.010953e+01
0	 5.407407e+00	 7.037037e+00	 1.010485e+01
0	 5.481481e+00	 6.666667e+00	 1.012845e+01
0	 5.481481e+00	 6.740741e+00	 1.012347e+01
0	 5.481481e+00	 6.814815e+00	 1.011859e+01
0	 5.481481e+00	 6.888889e+00	 1.011379e+01
0	 5.481481e+00	 6.962963e+00	 1.010908e+01
0	 5.481481e+00	 7.037037e+00	 1.010446e+01
0	 5.555556e+00	 6.666667e+00	 1.012760e+01
0	 5.555556e+00	 6.740741e+00	 1.012269e+01
0	 5.555556e+00	 6.814815e+00	 1.011788e+01
0	 5.555556e+00	 6.888889e+00	 1.011314e+01
0	 5.555556e+00	 6.962963e+00	 1.010849e+01
0	 5.555556e+00	 7.037037e+00	 1.010392e+01
0	 5.185185e+00	 7.037037e+00	 1.010507e+01
0	 5.185185e+00	 7.111111e+00	 1.010039e+01
0	 5.185185e+00	 7.185185e+00	 1.009582e+01
0	 5.185185e+00	 7.259259e+00	 1.009135e+01
0	 5.185185e+00	 7.333333e+00	 1.008699e+01
0	 5.185185e+00	 7.407407e+00	 1.008273e+01
0	 5.259259e+00	 7.037037e+00	 1.010517e+01
0	 5.259259e+00	 7.111111e+00	 1.010052e+01
0	 5.259259e+00	 7.185185e+00	 1.009597e+01
0	 5.259259e+00	 7.259259e+00	 1.009152e+01
0	 5.259259e+00	 7.333333e+00	 1.008717e+01
0	 5.259259e+00	 7.407407e+00	 1.008292e+01
0	 5.333333e+00	 7.037037e+00	 1.010509e+01
0	 5.333333e+00	 7.111111e+00	 1.010047e+01
0	 5.333333e+00	 7.185185e+00	 1.009595e+01
0	 5.333333e+00	 7.259259e+00	 1.009153e+01
0	 5.333333e+00	 7.333333e+00	 1.008720e+01
0	 5.333333e+00	 7.407407e+00	 1.008297e+01
0	 5.407407e+00	 7.037037e+00	 1.010485e+01
0	 5.407407e+00	 7.111111e+00	 1.010027e+01
0	 5.407407e+00	 7.185185e+00	 1.009579e+01
0	 5.407407e+00	 7.259259e+00	 1.009140e+01
0	 5.407407e+00	 7.333333e+00	 1.008710e+01
0	 5.407407e+00	 7.407407e+00	 1.008289e+01
0	 5.481481e+00	 7.037037e+00	 1.010446e+01
0	 5.481481e+00	 7.111111e+00	 1.009992e+01
0	 5.481481e+00	 7.185185e+00	 1.009548e+01
0	 5.481481e+00	 7.259259e+00	 1.009113e+01
0	 5.481481e+00	 7.333333e+00	 1.008687e+01
0	 5.481481e+00	 7.407407e+00	 1.008269e+01
0	 5.555556e+00	 7.037037e+00	 1.010392e+01
0	 5.555556e+00	 7.111111e+00	 1.009944e+01
0	 5.555556e+00	 7.185185e+00	 1.009504e+01
0	 5.555556e+00	 7.259259e+00	 1.009073e+01
0	 5.555556e+00	 7.333333e+00	 1.008651e+01
0	 5.555556e+00	 7.407407e+00	 1.008237e+01
0	 5.185185e+00	 7.407407e+00	 1.008273e+01
0	 5.185185e+00	 7.481481e+00	 1.007856e+01
0	 5.185185e+00	 7.555556e+00	 1.007450e+01
0	 5.185185e+00	 7.629630e+00	 1.007054e+01
0	 5.185185e+00	 7.703704e+00	 1.006668e+01
0	 5.185185e+00	 7.777778e+00	 1.006292e+01
0	 5.259259e+00	 7.407407e+00	 1.008292e+01
0	 5.259259e+00	 7.481481e+00	 1.007877e+01
0	 5.259259e+00	 7.555556e+00	 1.007471e+01
0	 5.259259e+00	 7.629630e+00	 1.007076e+01
0	 5.259259e+00	 7.703704e+00	 1.006690e+01
0	 5.259259e+00	 7.777778e+00	 1.006313e+01
0	 5.333333e+00	 7.407407e+00	 1.008297e+01
0	 5.333333e+00	 7.481481e+00	 1.007883e+01
0	 5.333333e+00	 7.555556e+00	 1.007479e+01
0	 5.333333e+00	 7.629630e+00	 1.007085e+01
0	 5.333333e+00	 7.703704e+00	 1.006700e+01
0	 5.333333e+00	 7.777778e+00	 1.006324e+01
0	 5.407407e+00	 7.407407e+00	 1.008289e+01
0	 5.407407e+00	 7.481481e+00	 1.007878e+01
0	 5.407407e+00	 7.555556e+00	 1.007476e+01
0	 5.407407e+00	 7.629630e+00	 1.007083e+01
0	 5.407407e+00	 7.703704e+00	 1.006699e+01
0	 5.407407e+00	 7.777778e+00	 1.006325e+01
0	 5.481481e+00	 7.407407e+00	 1.008269e+01
0	 5.481481e+00	 7.481481e+00	 1.007860e+01
0	 5.481481e+00	 7.555556e+00	 1.007460e+01
0	 5.481481e+00	 7.629630e+00	 1.007070e+01
0	 5.481481e+00	 7.703704e+00	 1.006688e+01
0	 5.481481e+00	 7.777778e+00	 1.006315e+01
0	 5.555556e+00	 7.407407e+00	 1.008237e+01
0	 5.555556e+00	 7.481481e+00	 1.007831e+01
0	 5.555556e+00	 7.555556e+00	 1.007435e+01
0	 5.555556e+00	 7.629630e+00	 1.007047e+01
0	 5.555556e+00	 7.703704e+00	 1.006668e+01
0	 5.555556e+00	 7.777778e+00	 1.006297e+01
0	 5.185185e+00	 7.777778e+00	 1.006292e+01
0	 5.185185e+00	 7.851852e+00	 1.005925e+01
0	 5.185185e+00	 7.925926e+00	 1.005569e+01
0	 5.185185e+00	 8.000000e+00	 1.005222e+01
0	 5.185185e+00	 8.074074e+00	 1.004885e+01
0	 5.185185e+00	 8.148148e+00	 1.004557e+01
0	 5.259259e+00	 7.777778e+00	 1.006313e+01
0	 5.259259e+00	 7.851852e+00	 1.005947e+01
0	 5.259259e+00	 7.925926e+00	 1.005590e+01
0	 5.259259e+00	 8.000000e+00	 1.005243e+01
0	 5.259259e+00	 8.074074e+00	 1.004905e+01
0	 5.259259e+00	 8.148148e+00	 1.004576e+01
0	 5.333333e+00	 7.777778e+00	 1.006324e+01
0	 5.333333e+00	 7.851852e+00	 1.005958e+01
0	 5.333333e+00	 7.925926e+00	 1.005601e+01
0	 5.333333e+00	 8.000000e+00	 1.005254e+01
0	 5.333333e+00	 8.074074e+00	 1.004916e+01
0	 5.333333e+00	 8.148148e+00	 1.004587e+01
0	 5.407407e+00	 7.777778e+00	 1.006325e+01
0	 5.407407e+00	 7.851852e+00	 1.005959e+01
0	 5.407407e+00	 7.925926e+00	 1.005603e+01
0	 5.407407e+00	 8.000000e+00	 1.005257e+01
0	 5.407407e+00	 8.074074e+00	 1.004919e+01
0	 5.407407e+00	 8.148148e+00	 1.004591e+01
0	 5.481481e+00	 7.777778e+00	 1.006315e+01
0	 5.481481e+00	 7.851852e+00	 1.005951e+01
0	 5.481481e+00	 7.925926e+00	 1.005597e+01
0	 5.481481e+00	 8.000000e+00	 1.005251e+01
0	 5.481481e+00	 8.074074e+00	 1.004915e+01
0	 5.481481e+00	 8.148148e+00	 1.004587e+01
0	 5.555556e+00	 7.777778e+00	 1.006297e+01
0	 5.555556e+00	 7.851852e+00	 1.005935e+01
0	 5.555556e+00	 7.925926e+00	 1.005582e+01
0	 5.555556e+00	 8.000000e+00	 1.005238e+01
0	 5.555556e+00	 8.074074e+00	 1.004903e+01
0	 5.555556e+00	 8.148148e+00	 1.004576e+01
0	 5.185185e+00	 8.148148e+00	 1.004557e+01
0	 5.185185e+00	 8.222222e+00	 1.004239e+01
0	 5.185185e+00	 8.296296e+00	 1.003931e+01
0	 5.185185e+00	 8.370370e+00	 1.003633e+01
0	 5.185185e+00	 8.444444e+00	 1.003345e+01
0	 5.185185e+00	 8.518519e+00	 1.003066e+01
0	 5.259259e+00	 8.148148e+00	 1.004576e+01
0	 5.259259e+00	 8.222222e+00	 1.004257e+01
0	 5.259259e+00	 8.296296e+00	 1.003948e+01
0	 5.259259e+00	 8.370370e+00	 1.003649e+01
0	 5.259259e+00	 8.444444e+00	 1.003360e+01
0	 5.259259e+00	 8.518519e+00	 1.003080e+01
0	 5.333333e+00	 8.148148e+00	 1.004587e+01
0	 5.333333e+00	 8.222222e+00	 1.004268e+01
0	 5.333333e+00	 8.296296e+00	 1.003958e+01
0	 5.333333e+00	 8.370370e+00	 1.003659e+01
0	 5.333333e+00	 8.444444e+00	 1.003369e+01
0	 5.333333e+00	 8.518519e+00	 1.003088e+01
0	 5.407407e+00	 8.148148e+00	 1.004591e+01
0	 5.407407e+00	 8.222222e+00	 1.004271e+01
0	 5.407407e+00	 8.296296e+00	 1.003962e+01
0	 5.407407e+00	 8.370370e+00	 1.003663e+01
0	 5.407407e+00	 8.444444e+00	 1.003373e+01
0	 5.407407e+00	 8.518519e+00	 1.003092e+01
0	 5.481481e+00	 8.148148e+00	 1.004587e+01
0	 5.481481e+00	 8.222222e+00	 1.004268e+01
0	 5.481481e+00	 8.296296e+00	 1.003960e+01
0	 5.481481e+00	 8.370370e+00	 1.003661e+01
0	 5.481481e+00	 8.444444e+00	 1.003371e+01
0	 5.481481e+00	 8.518519e+00	 1.003090e+01
0	 5.555556e+00	 8.148148e+00	 1.004576e+01
0	 5.555556e+00	 8.222222e+00	 1.004259e+01
0	 5.555556e+00	 8.296296e+00	 1.003951e+01
0	 5.555556e+00	 8.370370e+00	 1.003653e+01
0	 5.555556e+00	 8.444444e+00	 1.003364e+01
0	 5.555556e+00	 8.518519e+00	 1.003084e+01
0	 5.185185e+00	 8.518519e+00	 1.003066e+01
0	 5.185185e+00	 8.592593e+00	 1.002797e+01
0	 5.185185e+00	 8.666667e+00	 1.002539e+01
0	 5.185185e+00	 8.740741e+00	 1.002292e+01
0	 5.185185e+00	 8.814815e+00	 1.002055e+01
0	 5.185185e+00	 8.888889e+00	 1.001827e+01
0	 5.259259e+00	 8.518519e+00	 1.003080e+01
0	 5.259259e+00	 8.592593e+00	 1.002810e+01
0	 5.259259e+00	 8.666667e+00	 1.002551e+01
0	 5.259259e+00	 8.740741e+00	 1.002302e+01
0	 5.259259e+00	 8.814815e+00	 1.002064e+01
0	 5.259259e+00	 8.888889e+00	 1.001836e+01
0	 5.333333e+00	 8.518519e+00	 1.003088e+01
0	 5.333333e+00	 8.592593e+00	 1.002818e+01
0	 5.333333e+00	 8.666667e+00	 1.002558e+01
0	 5.333333e+00	 8.740741e+00	 1.002309e+01
0	 5.333333e+00	 8.814815e+00	 1.002070e+01
0	 5.333333e+00	 8.888889e+00	 1.001841e+01
0	 5.407407e+00	 8.518519e+00	 1.003092e+01
0	 5.407407e+00	 8.592593e+00	 1.002821e+01
0	 5.407407e+00	 8.666667e+00	 1.002561e+01
0	 5.407407e+00	 8.740741e+00	 1.002312e+01
0	 5.407407e+00	 8.814815e+00	 1.002073e+01
0	 5.407407e+00	 8.888889e+00	 1.001843e+01
0	 5.481481e+00	 8.518519e+00	 1.003090e+01
0	 5.481481e+00	 8.592593e+00	 1.002820e+01
0	 5.481481e+00	 8.666667e+00	 1.002560e+01
0	 5.481481e+00	 8.740741e+00	 1.002311e+01
0	 5.481481e+00	 8.814815e+00	 1.002072e+01
0	 5.481481e+00	 8.888889e+00	 1.001842e+01
0	 5.555556e+00	 8.518519e+00	 1.003084e+01
0	 5.555556e+00	 8.592593e+00	 1.002814e+01
0	 5.555556e+00	 8.666667e+00	 1.002555e+01
0	 5.555556e+00	 8.740741e+00	 1.002306e+01
0	 5.555556e+00	 8.814815e+00	 1.002068e+01
0	 5.555556e+00	 8.888889e+00	 1.001839e+01
0	 5.185185e+00	 8.888889e+00	 1.001827e+01
0	 5.185185e+00	 8.962963e+00	 1.001611e+01
0	 5.185185e+00	 9.037037e+00	 1.001408e+01
0	 5.185185e+00	 9.111111e+00	 1.001217e+01
0	 5.185185e+00	 9.185185e+00	 1.001037e+01
0	 5.185185e+00	 9.259259e+00	 1.000868e+01
0	 5.259259e+00	 8.888889e+00	 1.001836e+01
0	 5.259259e+00	 8.962963e+00	 1.001619e+01
0	 5.259259e+00	 9.037037e+00	 1.001414e+01
0	 5.259259e+00	 9.111111e+00	 1.001222e+01
0	 5.259259e+00	 9.185185e+00	 1.001041e+01
0	 5.259259e+00	 9.259259e+00	 1.000871e+01
0	 5.333333e+00	 8.888889e+00	 1.001841e+01
0	 5.333333e+00	 8.962963e+00	 1.001623e+01
0	 5.333333e+00	 9.037037e+00	 1.001418e+01
0	 5.333333e+00	 9.111111e+00	 1.001225e+01
0	 5.333333e+00	 9.185185e+00	 1.001044e+01
0	 5.333333e+00	 9.259259e+00	 1.000873e+01
0	 5.407407e+00	 8.888889e+00	 1.001843e+01
0	 5.407407e+00	 8.962963e+00	 1.001625e+01
0	 5.407407e+00	 9.037037e+00	 1.001420e+01
0	 5.407407e+00	 9.111111e+00	 1.001227e+01
0	 5.407407e+00	 9.185185e+00	 1.001045e+01
0	 5.407407e+00	 9.259259e+00	 1.000874e+01
0	 5.481481e+00	 8.888889e+00	 1.001842e+01
0	 5.481481e+00	 8.962963e+00	 1.001624e+01
0	 5.481481e+00	 9.037037e+00	 1.001419e+01
0	 5.481481e+00	 9.111111e+00	 1.001226e+01
0	 5.481481e+00	 9.185185e+00	 1.001044e+01
0	 5.481481e+00	 9.259259e+00	 1.000874e+01
0	 5.555556e+00	 8.888889e+00	 1.001839e+01
0	 5.555556e+00	 8.962963e+00	 1.001621e+01
0	 5.555556e+00	 9.037037e+00	 1.001416e+01
0	 5.555556e+00	 9.111111e+00	 1.001223e+01
0	 5.555556e+00	 9.185185e+00	 1.001042e+01
0	 5.555556e+00	 9.259259e+00	 1.000872e+01
0	 5.185185e+00	 9.259259e+00	 1.000868e+01
0	 5.185185e+00	 9.333333e+00	 1.000712e+01
0	 5.185185e+00	 9.407407e+00	 1.000571e+01
0	 5.185185e+00	 9.481481e+00	 1.000445e+01
0	 5.185185e+00	 9.555556e+00	 1.000333e+01
0	 5.185185e+00	 9.629630e+00	 1.000234e+01
0	 5.259259e+00	 9.259259e+00	 1.000871e+01
0	 5.259259e+00	 9.333333e+00	 1.000714e+01
0	 5.259259e+00	 9.407407e+00	 1.000573e+01
0	 5.259259e+00	 9.481481e+00	 1.000447e+01
0	 5.259259e+00	 9.555556e+00	 1.000334e+01
0	 5.259259e+00	 9.629630e+00	 1.000234e+01
0	 5.333333e+00	 9.259259e+00	 1.000873e+01
0	 5.333333e+00	 9.333333e+00	 1.000716e+01
0	 5.333333e+00	 9.407407e+00	 1.000575e+01
0	 5.333333e+00	 9.481481e+00	 1.000448e+01
0	 5.333333e+00	 9.555556e+00	 1.000335e+01
0	 5.333333e+00	 9.629630e+00	 1.000235e+01
0	 5.407407e+00	 9.259259e+00	 1.000874e+01
0	 5.407407e+00	 9.333333e+00	 1.000717e+01
0	 5.407407e+00	 9.407407e+00	 1.000575e+01
0	 5.407407e+00	 9.481481e+00	 1.000448e+01
0	 5.407407e+00	 9.555556e+00	 1.000335e+01
0	 5.407407e+00	 9.629630e+00	 1.000235e+01
0	 5.481481e+00	 9.259259e+00	 1.000874e+01
0	 5.481481e+00	 9.333333e+00	 1.000716e+01
0	 5.481481e+00	 9.407407e+00	 1.000575e+01
0	 5.481481e+00	 9.481481e+00	 1.000448e+01
0	 5.481481e+00	 9.555556e+00	 1.000335e+01
0	 5.481481e+00	 9.629630e+00	 1.000235e+01
0	 5.555556e+00	 9.259259e+00	 1.000872e+01
0	 5.555556e+00	 9.333333e+00	 1.000715e+01
0	 5.555556e+00	 9.407407e+00	 1.000573e+01
0	 5.555556e+00	 9.481481e+00	 1.000446e+01
0	 5.555556e+00	 9.555556e+00	 1.000334e+01
0	 5.555556e+00	 9.629630e+00	 1.000234e+01
0	 5.185185e+00	 9.629630e+00	 1.000234e+01
0	 5.185185e+00	 9.703704e+00	 1.000150e+01
0	 5.185185e+00	 9.777778e+00	 1.000086e+01
0	 5.185185e+00	 9.851852e+00	 1.000040e+01
0	 5.185185e+00	 9.925926e+00	 1.000011e+01
0	 5.185185e+00	 1.000000e+01	 9.999973e+00
0	 5.259259e+00	 9.629630e+00	 1.000234e+01
0	 5.259259e+00	 9.703704e+00	 1.000151e+01
0	 5.259259e+00	 9.777778e+00	 1.000087e+01
0	 5.259259e+00	 9.851852e+00	 1.000040e+01
0	 5.259259e+00	 9.925926e+00	 1.000011e+01
0	 5.259259e+00	 1.000000e+01	 9.999973e+00
0	 5.333333e+00	 9.629630e+00	 1.000235e+01
0	 5.333333e+00	 9.703704e+00	 1.000151e+01
0	 5.333333e+00	 9.777778e+00	 1.000087e+01
0	 5.333333e+00	 9.851852e+00	 1.000040e+01
0	 5.333333e+00	 9.925926e+00	 1.000011e+01
0	 5.333333e+00	 1.000000e+01	 9.999973e+00
0	 5.407407e+00	 9.629630e+00	 1.000235e+01
0	 5.407407e+00	 9.703704e+00	 1.000151e+01
0	 5.407407e+00	 9.777778e+00	 1.000087e+01
0	 5.407407e+00	 9.851852e+00	 1.000040e+01
0	 5.407407e+00	 9.925926e+00	 1.000011e+01
0	 5.407407e+00	 1.000000e+01	 9.999973e+00
0	 5.481481e+00	 9.629630e+00	 1.000235e+01
0	 5.481481e+00	 9.703704e+00	 1.000151e+01
0	 5.481481e+00	 9.777778e+00	 1.000087e+01
0	 5.481481e+00	 9.851852e+00	 1.000040e+01
0	 5.481481e+00	 9.925926e+00	 1.000011e+01
0	 5.481481e+00	 1.000000e+01	 9.999974e+00
0	 5.555556e+00	 9.629630e+00	 1.000234e+01
0	 5.555556e+00	 9.703704e+00	 1.000151e+01
0	 5.555556e+00	 9.777778e+00	 1.000086e+01
0	 5.555556e+00	 9.851852e+00	 1.000040e+01
0	 5.555556e+00	 9.925926e+00	 1.000011e+01
0	 5.555556e+00	 1.000000e+01	 9.999975e+00
0	 5.555556e+00	 0.000000e+00	 1.025120e+01
0	 5.555556e+00	 7.407407e-02	 1.025134e+01
0	 5.555556e+00	 1.481481e-01	 1.025194e+01
0	 5.555556e+00	 2.222222e-01	 1.025301e+01
0	 5.555556e+00	 2.962963e-01	 1.025458e+01
0	 5.555556e+00	 3.703704e-01	 1.025665e+01
0	 5.629630e+00	 0.000000e+00	 1.024183e+01
0	 5.629630e+00	 7.407407e-02	 1.024195e+01
0	 5.629630e+00	 1.481481e-01	 1.024252e+01
0	 5.629630e+00	 2.222222e-01	 1.024355e+01
0	 5.629630e+00	 2.962963e-01	 1.024504e+01
0	 5.629630e+00	 3.703704e-01	 1.024703e+01
0	 5.703704e+00	 0.000000e+00	 1.023252e+01
0	 5.703704e+00	 7.407407e-02	 1.023266e+01
0	 5.703704e+00	 1.481481e-01	 1.023322e+01
0	 5.703704e+00	 2.222222e-01	 1.023422e+01
0	 5.703704e+00	 2.962963e-01	 1.023566e+01
0	 5.703704e+00	 3.703704e-01	 1.023756e+01
0	 5.777778e+00	 0.000000e+00	 1.022331e+01
0	 5.777778e+00	 7.407407e-02	 1.022348e+01
0	 5.777778e+00	 1.481481e-01	 1.022405e+01
0	 5.777778e+00	 2.222222e-01	 1.022503e+01
0	 5.777778e+00	 2.962963e-01	 1.022642e+01
0	 5.777778e+00	 3.703704e-01	 1.022823e+01
0	 5.851852e+00	 0.000000e+00	 1.021425e+01
0	 5.851852e+00	 7.407407e-02	 1.021445e+01
0	 5.851852e+00	 1.481481e-01	 1.021503e+01
0	 5.851852e+00	 2.222222e-01	 1.021598e+01
0	 5.851852e+00	 2.962963e-01	 1.021731e+01
0	 5.851852e+00	 3.703704e-01	 1.021904e+01
0	 5.925926e+00	 0.000000e+00	 1.020537e+01
0	 5.925926e+00	 7.407407e-02	 1.020559e+01
0	 5.925926e+00	 1.481481e-01	 1.020615e+01
0	 5.925926e+00	 2.222222e-01	 1.020707e+01
0	 5.925926e+00	 2.962963e-01	 1.020834e+01
0	 5.925926e+00	 3.703704e-01	 1.020997e+01
0	 5.555556e+00	 3.703704e-01	 1.025665e+01
0	 5.555556e+00	 4.444444e-01	 1.025914e+01
0	 5.555556e+00	 5.185185e-01	 1.026195e+01
0	 5.555556e+00	 5.925926e-01	 1.026512e+01
0	 5.555556e+00	 6.666667e-01	 1.026868e+01
0	 5.555556e+00	 7.407407e-01	 1.027265e+01
0	 5.629630e+00	 3.703704e-01	 1.024703e+01
0	 5.629630e+00	 4.444444e-01	 1.024940e+01
0	 5.629630e+00	 5.185185e-01	 1.025208e+01
0	 5.629630e+00	 5.925926e-01	 1.025510e+01
0	 5.629630e+00	 6.666667e-01	 1.025849e+01
0	 5.629630e+00	 7.407407e-01	 1.026226e+01
0	 5.703704e+00	 3.703704e-01	 1.023756e+01
0	 5.703704e+00	 4.444444e-01	 1.023982e+01
0	 5.703704e+00	 5.185185e-01	 1.024238e+01
0	 5.703704e+00	 5.925926e-01	 1.024525e+01
0	 5.703704e+00	 6.666667e-01	 1.024848e+01
0	 5.703704e+00	 7.407407e-01	 1.025207e+01
0	 5.777778e+00	 3.703704e-01	 1.022823e+01
0	 5.777778e+00	 4.444444e-01	 1.023039e+01
0	 5.777778e+00	 5.185185e-01	 1.023282e+01
0	 5.777778e+00	 5.925926e-01	 1.023556e+01
0	 5.777778e+00	 6.666667e-01	 1.023864e+01
0	 5.777778e+00	 7.407407e-01	 1.024208e+01
0	 5.851852e+00	 3.703704e-01	 1.021904e+01
0	 5.851852e+00	 4.444444e-01	 1.022109e+01
0	 5.851852e+00	 5.185185e-01	 1.022341e+01
0	 5.851852e+00	 5.925926e-01	 1.022603e+01
0	 5.851852e+00	 6.666667e-01	 1.022896e+01
0	 5.851852e+00	 7.407407e-01	 1.023225e+01
0	 5.925926e+00	 3.703704e-01	 1.020997e+01
0	 5.925926e+00	 4.444444e-01	 1.021192e+01
0	 5.925926e+00	 5.185185e-01	 1.021413e+01
0	 5.925926e+00	 5.925926e-01	 1.021663e+01
0	 5.925926e+00	 6.666667e-01	 1.021944e+01
0	 5.925926e+00	 7.407407e-01	 1.022258e+01
0	 5.555556e+00	 7.407407e-01	 1.027265e+01
0	 5.555556e+00	 8.148148e-01	 1.027689e+01
0	 5.555556e+00	 8.888889e-01	 1.028128e+01
0	 5.555556e+00	 9.629630e-01	 1.028585e+01
0	 5.555556e+00	 1.037037e+00	 1.029065e+01
0	 5.555556e+00	 1.111111e+00	 1.029571e+01
0	 5.629630e+00	 7.407407e-01	 1.026226e+01
0	 5.629630e+00	 8.148148e-01	 1.026630e+01
0	 5.629630e+00	 8.888889e-01	 1.027048e+01
0	 5.629630e+00	 9.629630e-01	 1.027484e+01
0	 5.629630e+00	 1.037037e+00	 1.027942e+01
0	 5.629630e+00	 1.111111e+00	 1.028426e+01
0	 5.703704e+00	 7.407407e-01	 1.025207e+01
0	 5.703704e+00	 8.148148e-01	 1.025593e+01
0	 5.703704e+00	 8.888889e-01	 1.025992e+01
0	 5.703704e+00	 9.629630e-01	 1.026409e+01
0	 5.703704e+00	 1.037037e+00	 1.026847e+01
0	 5.703704e+00	 1.111111e+00	 1.027310e+01
0	 5.777778e+00	 7.407407e-01	 1.024208e+01
0	 5.777778e+00	 8.148148e-01	 1.024576e+01
0	 5.777778e+00	 8.888889e-01	 1.024958e+01
0	 5.777778e+00	 9.629630e-01	 1.025357e+01
0	 5.777778e+00	 1.037037e+00	 1.025776e+01
0	 5.777778e+00	 1.111111e+00	 1.026220e+01
0	 5.851852e+00	 7.407407e-01	 1.023225e+01
0	 5.851852e+00	 8.148148e-01	 1.023577e+01
0	 5.851852e+00	 8.888889e-01	 1.023943e+01
0	 5.851852e+00	 9.629630e-01	 1.024326e+01
0	 5.851852e+00	 1.037037e+00	 1.024728e+01
0	 5.851852e+00	 1.111111e+00	 1.025153e+01
0	 5.925926e+00	 7.407407e-01	 1.022258e+01
0	 5.925926e+00	 8.148148e-01	 1.022595e+01
0	 5.925926e+00	 8.888889e-01	 1.022946e+01
0	 5.925926e+00	 9.629630e-01	 1.023312e+01
0	 5.925926e+00	 1.037037e+00	 1.023698e+01
0	 5.925926e+00	 1.111111e+00	 1.024106e+01
0	 5.555556e+00	 1.111111e+00	 1.029571e+01
0	 5.555556e+00	 1.185185e+00	 1.030087e+01
0	 5.555556e+00	 1.259259e+00	 1.030598e+01
0	 5.555556e+00	 1.333333e+00	 1.031107e+01
0	 5.555556e+00	 1.407407e+00	 1.031619e+01
0	 5.555556e+00	 1.481481e+00	 1.032139e+01
0	 5.629630e+00	 1.111111e+00	 1.028426e+01
0	 5.629630e+00	 1.185185e+00	 1.028920e+01
0	 5.629630e+00	 1.259259e+00	 1.029410e+01
0	 5.629630e+00	 1.333333e+00	 1.029899e+01
0	 5.629630e+00	 1.407407e+00	 1.030393e+01
0	 5.629630e+00	 1.481481e+00	 1.030895e+01
0	 5.703704e+00	 1.111111e+00	 1.027310e+01
0	 5.703704e+00	 1.185185e+00	 1.027783e+01
0	 5.703704e+00	 1.259259e+00	 1.028253e+01
0	 5.703704e+00	 1.333333e+00	 1.028725e+01
0	 5.703704e+00	 1.407407e+00	 1.029200e+01
0	 5.703704e+00	 1.481481e+00	 1.029684e+01
0	 5.777778e+00	 1.111111e+00	 1.026220e+01
0	 5.777778e+00	 1.185185e+00	 1.026674e+01
0	 5.777778e+00	 1.259259e+00	 1.027126e+01
0	 5.777778e+00	 1.333333e+00	 1.027579e+01
0	 5.777778e+00	 1.407407e+00	 1.028037e+01
0	 5.777778e+00	 1.481481e+00	 1.028504e+01
0	 5.851852e+00	 1.111111e+00	 1.025153e+01
0	 5.851852e+00	 1.185185e+00	 1.025589e+01
0	 5.851852e+00	 1.259259e+00	 1.026023e+01
0	 5.851852e+00	 1.333333e+00	 1.026459e+01
0	 5.851852e+00	 1.407407e+00	 1.026901e+01
0	 5.851852e+00	 1.481481e+00	 1.027350e+01
0	 5.925926e+00	 1.111111e+00	 1.024106e+01
0	 5.925926e+00	 1.185185e+00	 1.024525e+01
0	 5.925926e+00	 1.259259e+00	 1.024942e+01
0	 5.925926e+00	 1.333333e+00	 1.025362e+01
0	 5.925926e+00	 1.407407e+00	 1.025787e+01
0	 5.925926e+00	 1.481481e+00	 1.026221e+01
0	 5.555556e+00	 1.481481e+00	 1.032139e+01
0	 5.555556e+00	 1.555556e+00	 1.032652e+01
0	 5.555556e+00	 1.629630e+00	 1.033141e+01
0	 5.555556e+00	 1.703704e+00	 1.033611e+01
0	 5.555556e+00	 1.777778e+00	 1.034065e+01
0	 5.555556e+00	 1.851852e+00	 1.034508e+01
0	 5.629630e+00	 1.481481e+00	 1.030895e+01
0	 5.629630e+00	 1.555556e+00	 1.031390e+01
0	 5.629630e+00	 1.629630e+00	 1.031864e+01
0	 5.629630e+00	 1.703704e+00	 1.032321e+01
0	 5.629630e+00	 1.777778e+00	 1.032764e+01
0	 5.629630e+00	 1.851852e+00	 1.033197e+01
0	 5.703704e+00	 1.481481e+00	 1.029684e+01
0	 5.703704e+00	 1.555556e+00	 1.030163e+01
0	 5.703704e+00	 1.629630e+00	 1.030622e+01
0	 5.703704e+00	 1.703704e+00	 1.031066e+01
0	 5.703704e+00	 1.777778e+00	 1.031497e+01
0	 5.703704e+00	 1.851852e+00	 1.031920e+01
0	 5.777778e+00	 1.481481e+00	 1.028504e+01
0	 5.777778e+00	 1.555556e+00	 1.028966e+01
0	 5.777778e+00	 1.629630e+00	 1.029411e+01
0	 5.777778e+00	 1.703704e+00	 1.029842e+01
0	 5.777778e+00	 1.777778e+00	 1.030262e+01
0	 5.777778e+00	 1.851852e+00	 1.030674e+01
0	 5.851852e+00	 1.481481e+00	 1.027350e+01
0	 5.851852e+00	 1.555556e+00	 1.027797e+01
0	 5.851852e+00	 1.629630e+00	 1.028227e+01
0	 5.851852e+00	 1.703704e+00	 1.028645e+01
0	 5.851852e+00	 1.777778e+00	 1.029054e+01
0	 5.851852e+00	 1.851852e+00	 1.029457e+01
0	 5.925926e+00	 1.481481e+00	 1.026221e+01
0	 5.925926e+00	 1.555556e+00	 1.026652e+01
0	 5.925926e+00	 1.629630e+00	 1.027068e+01
0	 5.925926e+00	 1.703704e+00	 1.027474e+01
0	 5.925926e+00	 1.777778e+00	 1.027872e+01
0	 5.925926e+00	 1.851852e+00	 1.028264e+01
0	 5.555556e+00	 1.851852e+00	 1.034508e+01
0	 5.555556e+00	 1.925926e+00	 1.034928e+01
0	 5.555556e+00	 2.000000e+00	 1.035314e+01
0	 5.555556e+00	 2.074074e+00	 1.035668e+01
0	 5.555556e+00	 2.148148e+00	 1.035994e+01
0	 5.555556e+00	 2.222222e+00	 1.036293e+01
0	 5.629630e+00	 1.851852e+00	 1.033197e+01
0	 5.629630e+00	 1.925926e+00	 1.033609e+01
0	 5.629630e+00	 2.000000e+00	 1.033989e+01
0	 5.629630e+00	 2.074074e+00	 1.034340e+01
0	 5.629630e+00	 2.148148e+00	 1.034664e+01
0	 5.629630e+00	 2.222222e+00	 1.034965e+01
0	 5.703704e+00	 1.851852e+00	 1.031920e+01
0	 5.703704e+00	 1.925926e+00	 1.032324e+01
0	 5.703704e+00	 2.000000e+00	 1.032698e+01
0	 5.703704e+00	 2.074074e+00	 1.033045e+01
0	 5.703704e+00	 2.148148e+00	 1.033367e+01
0	 5.703704e+00	 2.222222e+00	 1.033667e+01
0	 5.777778e+00	 1.851852e+00	 1.030674e+01
0	 5.777778e+00	 1.925926e+00	 1.031070e+01
0	 5.777778e+00	 2.000000e+00	 1.031437e+01
0	 5.777778e+00	 2.074074e+00	 1.031780e+01
0	 5.777778e+00	 2.148148e+00	 1.032100e+01
0	 5.777778e+00	 2.222222e+00	 1.032399e+01
0	 5.851852e+00	 1.851852e+00	 1.029457e+01
0	 5.851852e+00	 1.925926e+00	 1.029844e+01
0	 5.851852e+00	 2.000000e+00	 1.030205e+01
0	 5.851852e+00	 2.074074e+00	 1.030542e+01
0	 5.851852e+00	 2.148148e+00	 1.030859e+01
0	 5.851852e+00	 2.222222e+00	 1.031158e+01
0	 5.925926e+00	 1.851852e+00	 1.028264e+01
0	 5.925926e+00	 1.925926e+00	 1.028643e+01
0	 5.925926e+00	 2.000000e+00	 1.028997e+01
0	 5.925926e+00	 2.074074e+00	 1.029330e+01
0	 5.925926e+00	 2.148148e+00	 1.029643e+01
0	 5.925926e+00	 2.222222e+00	 1.029940e+01
0	 5.555556e+00	 2.222222e+00	 1.036293e+01
0	 5.555556e+00	 2.296296e+00	 1.036561e+01
0	 5.555556e+00	 2.370370e+00	 1.036789e+01
0	 5.555556e+00	 2.444444e+00	 1.036980e+01
0	 5.555556e+00	 2.518519e+00	 1.037134e+01
0	 5.555556e+00	 2.592593e+00	 1.037255e+01
0	 5.629630e+00	 2.222222e+00	 1.034965e+01
0	 5.629630e+00	 2.296296e+00	 1.035235e+01
0	 5.629630e+00	 2.370370e+00	 1.035468e+01
0	 5.629630e+00	 2.444444e+00	 1.035666e+01
0	 5.629630e+00	 2.518519e+00	 1.035830e+01
0	 5.629630e+00	 2.592593e+00	 1.035962e+01
0	 5.703704e+00	 2.222222e+00	 1.033667e+01
0	 5.703704e+00	 2.296296e+00	 1.033940e+01
0	 5.703704e+00	 2.370370e+00	 1.034177e+01
0	 5.703704e+00	 2.444444e+00	 1.034381e+01
0	 5.703704e+00	 2.518519e+00	 1.034553e+01
0	 5.703704e+00	 2.592593e+00	 1.034695e+01
0	 5.777778e+00	 2.222222e+00	 1.032399e+01
0	 5.777778e+00	 2.296296e+00	 1.032673e+01
0	 5.777778e+00	 2.370370e+00	 1.032913e+01
0	 5.777778e+00	 2.444444e+00	 1.033122e+01
0	 5.777778e+00	 2.518519e+00	 1.033301e+01
0	 5.777778e+00	 2.592593e+00	 1.033452e+01
0	 5.851852e+00	 2.222222e+00	 1.031158e+01
0	 5.851852e+00	 2.296296e+00	 1.031431e+01
0	 5.851852e+00	 2.370370e+00	 1.031674e+01
0	 5.851852e+00	 2.444444e+00	 1.031887e+01
0	 5.851852e+00	 2.518519e+00	 1.032072e+01
0	 5.851852e+00	 2.592593e+00	 1.032230e+01
0	 5.925926e+00	 2.222222e+00	 1.029940e+01
0	 5.925926e+00	 2.296296e+00	 1.030213e+01
0	 5.925926e+00	 2.370370e+00	 1.030457e+01
0	 5.925926e+00	 2.444444e+00	 1.030673e+01
0	 5.925926e+00	 2.518519e+00	 1.030863e+01
0	 5.925926e+00	 2.592593e+00	 1.031028e+01
0	 5.555556e+00	 2.592593e+00	 1.037255e+01
0	 5.555556e+00	 2.666667e+00	 1.037339e+01
0	 5.555556e+00	 2.740741e+00	 1.037385e+01
0	 5.555556e+00	 2.814815e+00	 1.037392e+01
0	 5.555556e+00	 2.888889e+00	 1.037361e+01
0	 5.555556e+00	 2.962963e+00	 1.037293e+01
0	 5.629630e+00	 2.592593e+00	 1.035962e+01
0	 5.629630e+00	 2.666667e+00	 1.036060e+01
0	 5.629630e+00	 2.740741e+00	 1.036121e+01
0	 5.629630e+00	 2.814815e+00	 1.036145e+01
0	 5.629630e+00	 2.888889e+00	 1.036133e+01
0	 5.629630e+00	 2.962963e+00	 1.036086e+01
0	 5.703704e+00	 2.592593e+00	 1.034695e+01
0	 5.703704e+00	 2.666667e+00	 1.034805e+01
0	 5.703704e+00	 2.740741e+00	 1.034879e+01
0	 5.703704e+00	 2.814815e+00	 1.034918e+01
0	 5.703704e+00	 2.888889e+00	 1.034923e+01
0	 5.703704e+00	 2.962963e+00	 1.034895e+01
0	 5.777778e+00	 2.592593e+00	 1.033452e+01
0	 5.777778e+00	 2.666667e+00	 1.033572e+01
0	 5.777778e+00	 2.740741e+00	 1.033658e+01
0	 5.777778e+00	 2.814815e+00	 1.033711e+01
0	 5.777778e+00	 2.888889e+00	 1.033731e+01
0	 5.777778e+00	 2.962963e+00	 1.033720e+01
0	 5.851852e+00	 2.592593e+00	 1.032230e+01
0	 5.851852e+00	 2.666667e+00	 1.032359e+01
0	 5.851852e+00	 2.740741e+00	 1.032456e+01
0	 5.851852e+00	 2.814815e+00	 1.032521e+01
0	 5.851852e+00	 2.888889e+00	 1.032556e+01
0	 5.851852e+00	 2.962963e+00	 1.032561e+01
0	 5.925926e+00	 2.592593e+00	 1.031028e+01
0	 5.925926e+00	 2.666667e+00	 1.031165e+01
0	 5.925926e+00	 2.740741e+00	 1.031272e+01
0	 5.925926e+00	 2.814815e+00	 1.031349e+01
0	 5.925926e+00	 2.888889e+00	 1.031397e+01
0	 5.925926e+00	 2.962963e+00	 1.031416e+01
0	 5.555556e+00	 2.962963e+00	 1.037293e+01
0	 5.555556e+00	 3.037037e+00	 1.037190e+01
0	 5.555556e+00	 3.111111e+00	 1.037053e+01
0	 5.555556e+00	 3.185185e+00	 1.036882e+01
0	 5.555556e+00	 3.259259e+00	 1.036677e+01
0	 5.555556e+00	 3.333333e+00	 1.036437e+01
0	 5.629630e+00	 2.962963e+00	 1.036086e+01
0	 5.629630e+00	 3.037037e+00	 1.036004e+01
0	 5.629630e+00	 3.111111e+00	 1.035891e+01
0	 5.629630e+00	 3.185185e+00	 1.035744e+01
0	 5.629630e+00	 3.259259e+00	 1.035564e+01
0	 5.629630e+00	 3.333333e+00	 1.035351e+01
0	 5.703704e+00	 2.962963e+00	 1.034895e+01
0	 5.703704e+00	 3.037037e+00	 1.034834e+01
0	 5.703704e+00	 3.111111e+00	 1.034741e+01
0	 5.703704e+00	 3.185185e+00	 1.034617e+01
0	 5.703704e+00	 3.259259e+00	 1.034461e+01
0	 5.703704e+00	 3.333333e+00	 1.034273e+01
0	 5.777778e+00	 2.962963e+00	 1.033720e+01
0	 5.777778e+00	 3.037037e+00	 1.033678e+01
0	 5.777778e+00	 3.111111e+00	 1.033605e+01
0	 5.777778e+00	 3.185185e+00	 1.033502e+01
0	 5.777778e+00	 3.259259e+00	 1.033367e+01
0	 5.777778e+00	 3.333333e+00	 1.033202e+01
0	 5.851852e+00	 2.962963e+00	 1.032561e+01
0	 5.851852e+00	 3.037037e+00	 1.032536e+01
0	 5.851852e+00	 3.111111e+00	 1.032481e+01
0	 5.851852e+00	 3.185185e+00	 1.032397e+01
0	 5.851852e+00	 3.259259e+00	 1.032283e+01
0	 5.851852e+00	 3.333333e+00	 1.032140e+01
0	 5.925926e+00	 2.962963e+00	 1.031416e+01
0	 5.925926e+00	 3.037037e+00	 1.031407e+01
0	 5.925926e+00	 3.111111e+00	 1.031369e+01
0	 5.925926e+00	 3.185185e+00	 1.031303e+01
0	 5.925926e+00	 3.259259e+00	 1.031208e+01
0	 5.925926e+00	 3.333333e+00	 1.031085e+01
0	 5.555556e+00	 3.333333e+00	 1.036437e+01
0	 5.555556e+00	 3.407407e+00	 1.036167e+01
0	 5.555556e+00	 3.481481e+00	 1.035870e+01
0	 5.555556e+00	 3.555556e+00	 1.035545e+01
0	 5.555556e+00	 3.629630e+00	 1.035191e+01
0	 5.555556e+00	 3.703704e+00	 1.034808e+01
0	 5.629630e+00	 3.333333e+00	 1.035351e+01
0	 5.629630e+00	 3.407407e+00	 1.035109e+01
0	 5.629630e+00	 3.481481e+00	 1.034840e+01
0	 5.629630e+00	 3.555556e+00	 1.034543e+01
0	 5.629630e+00	 3.629630e+00	 1.034219e+01
0	 5.629630e+00	 3.703704e+00	 1.033865e+01
0	 5.703704e+00	 3.333333e+00	 1.034273e+01
0	 5.703704e+00	 3.407407e+00	 1.034056e+01
0	 5.703704e+00	 3.481481e+00	 1.033813e+01
0	 5.703704e+00	 3.555556e+00	 1.033544e+01
0	 5.703704e+00	 3.629630e+00	 1.033247e+01
0	 5.703704e+00	 3.703704e+00	 1.032922e+01
0	 5.777778e+00	 3.333333e+00	 1.033202e+01
0	 5.777778e+00	 3.407407e+00	 1.033009e+01
0	 5.777778e+00	 3.481481e+00	 1.032791e+01
0	 5.777778e+00	 3.555556e+00	 1.032547e+01
0	 5.777778e+00	 3.629630e+00	 1.032275e+01
0	 5.777778e+00	 3.703704e+00	 1.031977e+01
0	 5.851852e+00	 3.333333e+00	 1.032140e+01
0	 5.851852e+00	 3.407407e+00	 1.031969e+01
0	 5.851852e+00	 3.481481e+00	 1.031774e+01
0	 5.851852e+00	 3.555556e+00	 1.031553e+01
0	 5.851852e+00	 3.629630e+00	 1.031306e+01
0	 5.851852e+00	 3.703704e+00	 1.031034e+01
0	 5.925926e+00	 3.333333e+00	 1.031085e+01
0	 5.925926e+00	 3.407407e+00	 1.030935e+01
0	 5.925926e+00	 3.481481e+00	 1.030762e+01
0	 5.925926e+00	 3.555556e+00	 1.030564e+01
0	 5.925926e+00	 3.629630e+00	 1.030340e+01
0	 5.925926e+00	 3.703704e+00	 1.030092e+01
0	 5.555556e+00	 3.703704e+00	 1.034808e+01
0	 5.555556e+00	 3.777778e+00	 1.034401e+01
0	 5.555556e+00	 3.851852e+00	 1.033975e+01
0	 5.555556e+00	 3.925926e+00	 1.033529e+01
0	 5.555556e+00	 4.000000e+00	 1.033062e+01
0	 5.555556e+00	 4.074074e+00	 1.032573e+01
0	 5.629630e+00	 3.703704e+00	 1.033865e+01
0	 5.629630e+00	 3.777778e+00	 1.033488e+01
0	 5.629630e+00	 3.851852e+00	 1.033093e+01
0	 5.629630e+00	 3.925926e+00	 1.032677e+01
0	 5.629630e+00	 4.000000e+00	 1.032240e+01
0	 5.629630e+00	 4.074074e+00	 1.031782e+01
0	 5.703704e+00	 3.703704e+00	 1.032922e+01
0	 5.703704e+00	 3.777778e+00	 1.032573e+01
0	 5.703704e+00	 3.851852e+00	 1.032206e+01
0	 5.703704e+00	 3.925926e+00	 1.031819e+01
0	 5.703704e+00	 4.000000e+00	 1.031411e+01
0	 5.703704e+00	 4.074074e+00	 1.030981e+01
0	 5.777778e+00	 3.703704e+00	 1.031977e+01
0	 5.777778e+00	 3.777778e+00	 1.031656e+01
0	 5.777778e+00	 3.851852e+00	 1.031316e+01
0	 5.777778e+00	 3.925926e+00	 1.030956e+01
0	 5.777778e+00	 4.000000e+00	 1.030576e+01
0	 5.777778e+00	 4.074074e+00	 1.030174e+01
0	 5.851852e+00	 3.703704e+00	 1.031034e+01
0	 5.851852e+00	 3.777778e+00	 1.030738e+01
0	 5.851852e+00	 3.851852e+00	 1.030424e+01
0	 5.851852e+00	 3.925926e+00	 1.030091e+01
0	 5.851852e+00	 4.000000e+00	 1.029736e+01
0	 5.851852e+00	 4.074074e+00	 1.029361e+01
0	 5.925926e+00	 3.703704e+00	 1.030092e+01
0	 5.925926e+00	 3.777778e+00	 1.029821e+01
0	 5.925926e+00	 3.851852e+00	 1.029532e+01
0	 5.925926e+00	 3.925926e+00	 1.029223e+01
0	 5.925926e+00	 4.000000e+00	 1.028894e+01
0	 5.925926e+00	 4.074074e+00	 1.028543e+01
0	 5.555556e+00	 4.074074e+00	 1.032573e+01
0	 5.555556e+00	 4.148148e+00	 1.032067e+01
0	 5.555556e+00	 4.222222e+00	 1.031550e+01
0	 5.555556e+00	 4.296296e+00	 1.031020e+01
0	 5.555556e+00	 4.370370e+00	 1.030475e+01
0	 5.555556e+00	 4.444444e+00	 1.029916e+01
0	 5.629630e+00	 4.074074e+00	 1.031782e+01
0	 5.629630e+00	 4.148148e+00	 1.031306e+01
0	 5.629630e+00	 4.222222e+00	 1.030818e+01
0	 5.629630e+00	 4.296296e+00	 1.030318e+01
0	 5.629630e+00	 4.370370e+00	 1.029802e+01
0	 5.629630e+00	 4.444444e+00	 1.029272e+01
0	 5.703704e+00	 4.074074e+00	 1.030981e+01
0	 5.703704e+00	 4.148148e+00	 1.030535e+01
0	 5.703704e+00	 4.222222e+00	 1.030076e+01
0	 5.703704e+00	 4.296296e+00	 1.029603e+01
0	 5.703704e+00	 4.370370e+00	 1.029116e+01
0	 5.703704e+00	 4.444444e+00	 1.028613e+01
0	 5.777778e+00	 4.074074e+00	 1.030174e+01
0	 5.777778e+00	 4.148148e+00	 1.029755e+01
0	 5.777778e+00	 4.222222e+00	 1.029323e+01
0	 5.777778e+00	 4.296296e+00	 1.028877e+01
0	 5.777778e+00	 4.370370e+00	 1.028417e+01
0	 5.777778e+00	 4.444444e+00	 1.027942e+01
0	 5.851852e+00	 4.074074e+00	 1.029361e+01
0	 5.851852e+00	 4.148148e+00	 1.028968e+01
0	 5.851852e+00	 4.222222e+00	 1.028563e+01
0	 5.851852e+00	 4.296296e+00	 1.028143e+01
0	 5.851852e+00	 4.370370e+00	 1.027709e+01
0	 5.851852e+00	 4.444444e+00	 1.027259e+01
0	 5.925926e+00	 4.074074e+00	 1.028543e+01
0	 5.925926e+00	 4.148148e+00	 1.028176e+01
0	 5.925926e+00	 4.222222e+00	 1.027796e+01
0	 5.925926e+00	 4.296296e+00	 1.027402e+01
0	 5.925926e+00	 4.370370e+00	 1.026993e+01
0	 5.925926e+00	 4.444444e+00	 1.026568e+01
0	 5.555556e+00	 4.444444e+00	 1.029916e+01
0	 5.555556e+00	 4.518519e+00	 1.029347e+01
0	 5.555556e+00	 4.592593e+00	 1.028772e+01
0	 5.555556e+00	 4.666667e+00	 1.028192e+01
0	 5.555556e+00	 4.740741e+00	 1.027604e+01
0	 5.555556e+00	 4.814815e+00	 1.027008e+01
0	 5.629630e+00	 4.444444e+00	 1.029272e+01
0	 5.629630e+00	 4.518519e+00	 1.028731e+01
0	 5.629630e+00	 4.592593e+00	 1.028184e+01
0	 5.629630e+00	 4.666667e+00	 1.027631e+01
0	 5.629630e+00	 4.740741e+00	 1.027069e+01
0	 5.629630e+00	 4.814815e+00	 1.026499e+01
0	 5.703704e+00	 4.444444e+00	 1.028613e+01
0	 5.703704e+00	 4.518519e+00	 1.028099e+01
0	 5.703704e+00	 4.592593e+00	 1.027579e+01
0	 5.703704e+00	 4.666667e+00	 1.027052e+01
0	 5.703704e+00	 4.740741e+00	 1.026517e+01
0	 5.703704e+00	 4.814815e+00	 1.025972e+01
0	 5.777778e+00	 4.444444e+00	 1.027942e+01
0	 5.777778e+00	 4.518519e+00	 1.027454e+01
0	 5.777778e+00	 4.592593e+00	 1.026961e+01
0	 5.777778e+00	 4.666667e+00	 1.026459e+01
0	 5.777778e+00	 4.740741e+00	 1.025948e+01
0	 5.777778e+00	 4.814815e+00	 1.025428e+01
0	 5.851852e+00	 4.444444e+00	 1.027259e+01
0	 5.851852e+00	 4.518519e+00	 1.026798e+01
0	 5.851852e+00	 4.592593e+00	 1.026330e+01
0	 5.851852e+00	 4.666667e+00	 1.025853e+01
0	 5.851852e+00	 4.740741e+00	 1.025366e+01
0	 5.851852e+00	 4.814815e+00	 1.024870e+01
0	 5.925926e+00	 4.444444e+00	 1.026568e+01
0	 5.925926e+00	 4.518519e+00	 1.026132e+01
0	 5.925926e+00	 4.592593e+00	 1.025688e+01
0	 5.925926e+00	 4.666667e+00	 1.025235e+01
0	 5.925926e+00	 4.740741e+00	 1.024773e+01
0	 5.925926e+00	 4.814815e+00	 1.024300e+01
0	 5.555556e+00	 4.814815e+00	 1.027008e+01
0	 5.555556e+00	 4.888889e+00	 1.026408e+01
0	 5.555556e+00	 4.962963e+00	 1.025808e+01
0	 5.555556e+00	 5.037037e+00	 1.025206e+01
0	 5.555556e+00	 5.111111e+00	 1.024603e+01
0	 5.555556e+00	 5.185185e+00	 1.023996e+01
0	 5.629630e+00	 4.814815e+00	 1.026499e+01
0	 5.629630e+00	 4.888889e+00	 1.025924e+01
0	 5.629630e+00	 4.962963e+00	 1.025348e+01
0	 5.629630e+00	 5.037037e+00	 1.024770e+01
0	 5.629630e+00	 5.111111e+00	 1.024190e+01
0	 5.629630e+00	 5.185185e+00	 1.023605e+01
0	 5.703704e+00	 4.814815e+00	 1.025972e+01
0	 5.703704e+00	 4.888889e+00	 1.025421e+01
0	 5.703704e+00	 4.962963e+00	 1.024869e+01
0	 5.703704e+00	 5.037037e+00	 1.024314e+01
0	 5.703704e+00	 5.111111e+00	 1.023756e+01
0	 5.703704e+00	 5.185185e+00	 1.023194e+01
0	 5.777778e+00	 4.814815e+00	 1.025428e+01
0	 5.777778e+00	 4.888889e+00	 1.024901e+01
0	 5.777778e+00	 4.962963e+00	 1.024373e+01
0	 5.777778e+00	 5.037037e+00	 1.023841e+01
0	 5.777778e+00	 5.111111e+00	 1.023305e+01
0	 5.777778e+00	 5.185185e+00	 1.022764e+01
0	 5.851852e+00	 4.814815e+00	 1.024870e+01
0	 5.851852e+00	 4.888889e+00	 1.024367e+01
0	 5.851852e+00	 4.962963e+00	 1.023861e+01
0	 5.851852e+00	 5.037037e+00	 1.023352e+01
0	 5.851852e+00	 5.111111e+00	 1.022837e+01
0	 5.851852e+00	 5.185185e+00	 1.022318e+01
0	 5.925926e+00	 4.814815e+00	 1.024300e+01
0	 5.925926e+00	 4.888889e+00	 1.023820e+01
0	 5.925926e+00	 4.962963e+00	 1.023337e+01
0	 5.925926e+00	 5.037037e+00	 1.022849e+01
0	 5.925926e+00	 5.111111e+00	 1.022356e+01
0	 5.925926e+00	 5.185185e+00	 1.021858e+01
0	 5.555556e+00	 5.185185e+00	 1.023996e+01
0	 5.555556e+00	 5.259259e+00	 1.023390e+01
0	 5.555556e+00	 5.333333e+00	 1.022788e+01
0	 5.555556e+00	 5.407407e+00	 1.022188e+01
0	 5.555556e+00	 5.481481e+00	 1.021591e+01
0	 5.555556e+00	 5.555556e+00	 1.020995e+01
0	 5.629630e+00	 5.185185e+00	 1.023605e+01
0	 5.629630e+00	 5.259259e+00	 1.023020e+01
0	 5.629630e+00	 5.333333e+00	 1.022439e+01
0	 5.629630e+00	 5.407407e+00	 1.021859e+01
0	 5.629630e+00	 5.481481e+00	 1.021281e+01
0	 5.629630e+00	 5.555556e+00	 1.020703e+01
0	 5.703704e+00	 5.185185e+00	 1.023194e+01
0	 5.703704e+00	 5.259259e+00	 1.022630e+01
0	 5.703704e+00	 5.333333e+00	 1.022069e+01
0	 5.703704e+00	 5.407407e+00	 1.021509e+01
0	 5.703704e+00	 5.481481e+00	 1.020950e+01
0	 5.703704e+00	 5.555556e+00	 1.020390e+01
0	 5.777778e+00	 5.185185e+00	 1.022764e+01
0	 5.777778e+00	 5.259259e+00	 1.022221e+01
0	 5.777778e+00	 5.333333e+00	 1.021680e+01
0	 5.777778e+00	 5.407407e+00	 1.021140e+01
0	 5.777778e+00	 5.481481e+00	 1.020600e+01
0	 5.777778e+00	 5.555556e+00	 1.020058e+01
0	 5.851852e+00	 5.185185e+00	 1.022318e+01
0	 5.851852e+00	 5.259259e+00	 1.021796e+01
0	 5.851852e+00	 5.333333e+00	 1.021275e+01
0	 5.851852e+00	 5.407407e+00	 1.020755e+01
0	 5.851852e+00	 5.481481e+00	 1.020233e+01
0	 5.851852e+00	 5.555556e+00	 1.019710e+01
0	 5.925926e+00	 5.185185e+00	 1.021858e+01
0	 5.925926e+00	 5.259259e+00	 1.021357e+01
0	 5.925926e+00	 5.333333e+00	 1.020856e+01
0	 5.925926e+00	 5.407407e+00	 1.020354e+01
0	 5.925926e+00	 5.481481e+00	 1.019851e+01
0	 5.925926e+00	 5.555556e+00	 1.019346e+01
0	 5.555556e+00	 5.555556e+00	 1.020995e+01
0	 5.555556e+00	 5.629630e+00	 1.020402e+01
0	 5.555556e+00	 5.703704e+00	 1.019816e+01
0	 5.555556e+00	 5.777778e+00	 1.019235e+01
0	 5.555556e+00	 5.851852e+00	 1.018659e+01
0	 5.555556e+00	 5.925926e+00	 1.018088e+01
0	 5.629630e+00	 5.555556e+00	 1.020703e+01
0	 5.629630e+00	 5.629630e+00	 1.020128e+01
0	 5.629630e+00	 5.703704e+00	 1.019558e+01
0	 5.629630e+00	 5.777778e+00	 1.018994e+01
0	 5.629630e+00	 5.851852e+00	 1.018433e+01
0	 5.629630e+00	 5.925926e+00	 1.017876e+01
0	 5.703704e+00	 5.555556e+00	 1.020390e+01
0	 5.703704e+00	 5.629630e+00	 1.019833e+01
0	 5.703704e+00	 5.703704e+00	 1.019280e+01
0	 5.703704e+00	 5.777778e+00	 1.018731e+01
0	 5.703704e+00	 5.851852e+00	 1.018186e+01
0	 5.703704e+00	 5.925926e+00	 1.017644e+01
0	 5.777778e+00	 5.555556e+00	 1.020058e+01
0	 5.777778e+00	 5.629630e+00	 1.019519e+01
0	 5.777778e+00	 5.703704e+00	 1.018983e+01
0	 5.777778e+00	 5.777778e+00	 1.018450e+01
0	 5.777778e+00	 5.851852e+00	 1.017921e+01
0	 5.777778e+00	 5.925926e+00	 1.017394e+01
0	 5.851852e+00	 5.555556e+00	 1.019710e+01
0	 5.851852e+00	 5.629630e+00	 1.019188e+01
0	 5.851852e+00	 5.703704e+00	 1.018669e+01
0	 5.851852e+00	 5.777778e+00	 1.018153e+01
0	 5.851852e+00	 5.851852e+00	 1.017639e+01
0	 5.851852e+00	 5.925926e+00	 1.017127e+01
0	 5.925926e+00	 5.555556e+00	 1.019346e+01
0	 5.925926e+00	 5.629630e+00	 1.018841e+01
0	 5.925926e+00	 5.703704e+00	 1.018340e+01
0	 5.925926e+00	 5.777778e+00	 1.017840e+01
0	 5.925926e+00	 5.851852e+00	 1.017342e+01
0	 5.925926e+00	 5.925926e+00	 1.016845e+01
0	 5.555556e+00	 5.925926e+00	 1.018088e+01
0	 5.555556e+00	 6.000000e+00	 1.017522e+01
0	 5.555556e+00	 6.074074e+00	 1.016964e+01
0	 5.555556e+00	 6.148148e+00	 1.016413e+01
0	 5.555556e+00	 6.222222e+00	 1.015869e+01
0	 5.555556e+00	 6.296296e+00	 1.015331e+01
0	 5.629630e+00	 5.925926e+00	 1.017876e+01
0	 5.629630e+00	 6.000000e+00	 1.017324e+01
0	 5.629630e+00	 6.074074e+00	 1.016779e+01
0	 5.629630e+00	 6.148148e+00	 1.016241e+01
0	 5.629630e+00	 6.222222e+00	 1.015709e+01
0	 5.629630e+00	 6.296296e+00	 1.015182e+01
0	 5.703704e+00	 5.925926e+00	 1.017644e+01
0	 5.703704e+00	 6.000000e+00	 1.017106e+01
0	 5.703704e+00	 6.074074e+00	 1.016575e+01
0	 5.703704e+00	 6.148148e+00	 1.016049e+01
0	 5.703704e+00	 6.222222e+00	 1.015529e+01
0	 5.703704e+00	 6.296296e+00	 1.015014e+01
0	 5.777778e+00	 5.925926e+00	 1.017394e+01
0	 5.777778e+00	 6.000000e+00	 1.016870e+01
0	 5.777778e+00	 6.074074e+00	 1.016352e+01
0	 5.777778e+00	 6.148148e+00	 1.015840e+01
0	 5.777778e+00	 6.222222e+00	 1.015333e+01
0	 5.777778e+00	 6.296296e+00	 1.014829e+01
0	 5.851852e+00	 5.925926e+00	 1.017127e+01
0	 5.851852e+00	 6.000000e+00	 1.016618e+01
0	 5.851852e+00	 6.074074e+00	 1.016114e+01
0	 5.851852e+00	 6.148148e+00	 1.015615e+01
0	 5.851852e+00	 6.222222e+00	 1.015120e+01
0	 5.851852e+00	 6.296296e+00	 1.014629e+01
0	 5.925926e+00	 5.925926e+00	 1.016845e+01
0	 5.925926e+00	 6.000000e+00	 1.016350e+01
0	 5.925926e+00	 6.074074e+00	 1.015861e+01
0	 5.925926e+00	 6.148148e+00	 1.015375e+01
0	 5.925926e+00	 6.222222e+00	 1.014893e+01
0	 5.925926e+00	 6.296296e+00	 1.014414e+01
0	 5.555556e+00	 6.296296e+00	 1.015331e+01
0	 5.555556e+00	 6.370370e+00	 1.014801e+01
0	 5.555556e+00	 6.444444e+00	 1.014279e+01
0	 5.555556e+00	 6.518519e+00	 1.013765e+01
0	 5.555556e+00	 6.592593e+00	 1.013259e+01
0	 5.555556e+00	 6.666667e+00	 1.012760e+01
0	 5.629630e+00	 6.296296e+00	 1.015182e+01
0	 5.629630e+00	 6.370370e+00	 1.014662e+01
0	 5.629630e+00	 6.444444e+00	 1.014150e+01
0	 5.629630e+00	 6.518519e+00	 1.013646e+01
0	 5.629630e+00	 6.592593e+00	 1.013148e+01
0	 5.629630e+00	 6.666667e+00	 1.012658e+01
0	 5.703704e+00	 6.296296e+00	 1.015014e+01
0	 5.703704e+00	 6.370370e+00	 1.014505e+01
0	 5.703704e+00	 6.444444e+00	 1.014004e+01
0	 5.703704e+00	 6.518519e+00	 1.013509e+01
0	 5.703704e+00	 6.592593e+00	 1.013021e+01
0	 5.703704e+00	 6.666667e+00	 1.012539e+01
0	 5.777778e+00	 6.296296e+00	 1.014829e+01
0	 5.777778e+00	 6.370370e+00	 1.014332e+01
0	 5.777778e+00	 6.444444e+00	 1.013841e+01
0	 5.777778e+00	 6.518519e+00	 1.013356e+01
0	 5.777778e+00	 6.592593e+00	 1.012878e+01
0	 5.777778e+00	 6.666667e+00	 1.012406e+01
0	 5.851852e+00	 6.296296e+00	 1.014629e+01
0	 5.851852e+00	 6.370370e+00	 1.014143e+01
0	 5.851852e+00	 6.444444e+00	 1.013663e+01
0	 5.851852e+00	 6.518519e+00	 1.013189e+01
0	 5.851852e+00	 6.592593e+00	 1.012721e+01
0	 5.851852e+00	 6.666667e+00	 1.012258e+01
0	 5.925926e+00	 6.296296e+00	 1.014414e+01
0	 5.925926e+00	 6.370370e+00	 1.013940e+01
0	 5.925926e+00	 6.444444e+00	 1.013471e+01
0	 5.925926e+00	 6.518519e+00	 1.013009e+01
0	 5.925926e+00	 6.592593e+00	 1.012551e+01
0	 5.925926e+00	 6.666667e+00	 1.012097e+01
0	 5.555556e+00	 6.666667e+00	 1.012760e+01
0	 5.555556e+00	 6.740741e+00	 1.012269e+01
0	 5.555556e+00	 6.814815e+00	 1.011788e+01
0	 5.555556e+00	 6.888889e+00	 1.011314e+01
0	 5.555556e+00	 6.962963e+00	 1.010849e+01
0	 5.555556e+00	 7.037037e+00	 1.010392e+01
0	 5.629630e+00	 6.666667e+00	 1.012658e+01
0	 5.629630e+00	 6.740741e+00	 1.012175e+01
0	 5.629630e+00	 6.814815e+00	 1.011701e+01
0	 5.629630e+00	 6.888889e+00	 1.011234e+01
0	 5.629630e+00	 6.962963e+00	 1.010776e+01
0	 5.629630e+00	 7.037037e+00	 1.010325e+01
0	 5.703704e+00	 6.666667e+00	 1.012539e+01
0	 5.703704e+00	 6.740741e+00	 1.012065e+01
0	 5.703704e+00	 6.814815e+00	 1.011598e+01
0	 5.703704e+00	 6.888889e+00	 1.011139e+01
0	 5.703704e+00	 6.962963e+00	 1.010687e+01
0	 5.703704e+00	 7.037037e+00	 1.010243e+01
0	 5.777778e+00	 6.666667e+00	 1.012406e+01
0	 5.777778e+00	 6.740741e+00	 1.011940e+01
0	 5.777778e+00	 6.814815e+00	 1.011481e+01
0	 5.777778e+00	 6.888889e+00	 1.011030e+01
0	 5.777778e+00	 6.962963e+00	 1.010586e+01
0	 5.777778e+00	 7.037037e+00	 1.010148e+01
0	 5.851852e+00	 6.666667e+00	 1.012258e+01
0	 5.851852e+00	 6.740741e+00	 1.011801e+01
0	 5.851852e+00	 6.814815e+00	 1.011351e+01
0	 5.851852e+00	 6.888889e+00	 1.010908e+01
0	 5.851852e+00	 6.962963e+00	 1.010471e+01
0	 5.851852e+00	 7.037037e+00	 1.010041e+01
0	 5.925926e+00	 6.666667e+00	 1.012097e+01
0	 5.925926e+00	 6.740741e+00	 1.011650e+01
0	 5.925926e+00	 6.814815e+00	 1.011209e+01
0	 5.925926e+00	 6.888889e+00	 1.010774e+01
0	 5.925926e+00	 6.962963e+00	 1.010346e+01
0	 5.925926e+00	 7.037037e+00	 1.009923e+01
0	 5.555556e+00	 7.037037e+00	 1.010392e+01
0	 5.555556e+00	 7.111111e+00	 1.009944e+01
0	 5.555556e+00	 7.185185e+00	 1.009504e+01
0	 5.555556e+00	 7.259259e+00	 1.009073e+01
0	 5.555556e+00	 7.333333e+00	 1.008651e+01
0	 5.555556e+00	 7.407407e+00	 1.008237e+01
0	 5.629630e+00	 7.037037e+00	 1.010325e+01
0	 5.629630e+00	 7.111111e+00	 1.009882e+01
0	 5.629630e+00	 7.185185e+00	 1.009447e+01
0	 5.629630e+00	 7.259259e+00	 1.009021e+01
0	 5.629630e+00	 7.333333e+00	 1.008603e+01
0	 5.629630e+00	 7.407407e+00	 1.008193e+01
0	 5.703704e+00	 7.037037e+00	 1.010243e+01
0	 5.703704e+00	 7.111111e+00	 1.009806e+01
0	 5.703704e+00	 7.185185e+00	 1.009377e+01
0	 5.703704e+00	 7.259259e+00	 1.008956e+01
0	 5.703704e+00	 7.333333e+00	 1.008543e+01
0	 5.703704e+00	 7.407407e+00	 1.008138e+01
0	 5.777778e+00	 7.037037e+00	 1.010148e+01
0	 5.777778e+00	 7.111111e+00	 1.009717e+01
0	 5.777778e+00	 7.185185e+00	 1.009295e+01
0	 5.777778e+00	 7.259259e+00	 1.008880e+01
0	 5.777778e+00	 7.333333e+00	 1.008472e+01
0	 5.777778e+00	 7.407407e+00	 1.008072e+01
0	 5.851852e+00	 7.037037e+00	 1.010041e+01
0	 5.851852e+00	 7.111111e+00	 1.009617e+01
0	 5.851852e+00	 7.185185e+00	 1.009201e+01
0	 5.851852e+00	 7.259259e+00	 1.008792e+01
0	 5.851852e+00	 7.333333e+00	 1.008391e+01
0	 5.851852e+00	 7.407407e+00	 1.007995e+01
0	 5.925926e+00	 7.037037e+00	 1.009923e+01
0	 5.925926e+00	 7.111111e+00	 1.009506e+01
0	 5.925926e+00	 7.185185e+00	 1.009097e+01
0	 5.925926e+00	 7.259259e+00	 1.008695e+01
0	 5.925926e+00	 7.333333e+00	 1.008299e+01
0	 5.925926e+00	 7.407407e+00	 1.007910e+01
0	 5.555556e+00	 7.407407e+00	 1.008237e+01
0	 5.555556e+00	 7.481481e+00	 1.007831e+01
0	 5.555556e+00	 7.555556e+00	 1.007435e+01
0	 5.555556e+00	 7.629630e+00	 1.007047e+01
0	 5.555556e+00	 7.703704e+00	 1.006668e+01
0	 5.555556e+00	 7.777778e+00	 1.006297e+01
0	 5.629630e+00	 7.407407e+00	 1.008193e+01
0	 5.629630e+00	 7.481481e+00	 1.007791e+01
0	 5.629630e+00	 7.555556e+00	 1.007398e+01
0	 5.629630e+00	 7.629630e+00	 1.007014e+01
0	 5.629630e+00	 7.703704e+00	 1.006637e+01
0	 5.629630e+00	 7.777778e+00	 1.006269e+01
0	 5.703704e+00	 7.407407e+00	 1.008138e+01
0	 5.703704e+00	 7.481481e+00	 1.007740e+01
0	 5.703704e+00	 7.555556e+00	 1.007351e+01
0	 5.703704e+00	 7.629630e+00	 1.006970e+01
0	 5.703704e+00	 7.703704e+00	 1.006597e+01
0	 5.703704e+00	 7.777778e+00	 1.006232e+01
0	 5.777778e+00	 7.407407e+00	 1.008072e+01
0	 5.777778e+00	 7.481481e+00	 1.007679e+01
0	 5.777778e+00	 7.555556e+00	 1.007294e+01
0	 5.777778e+00	 7.629630e+00	 1.006918e+01
0	 5.777778e+00	 7.703704e+00	 1.006549e+01
0	 5.777778e+00	 7.777778e+00	 1.006187e+01
0	 5.851852e+00	 7.407407e+00	 1.007995e+01
0	 5.851852e+00	 7.481481e+00	 1.007608e+01
0	 5.851852e+00	 7.555556e+00	 1.007228e+01
0	 5.851852e+00	 7.629630e+00	 1.006856e+01
0	 5.851852e+00	 7.703704e+00	 1.006492e+01
0	 5.851852e+00	 7.777778e+00	 1.006134e+01
0	 5.925926e+00	 7.407407e+00	 1.007910e+01
0	 5.925926e+00	 7.481481e+00	 1.007528e+01
0	 5.925926e+00	 7.555556e+00	 1.007154e+01
0	 5.925926e+00	 7.629630e+00	 1.006787e+01
0	 5.925926e+00	 7.703704e+00	 1.006427e+01
0	 5.925926e+00	 7.777778e+00	 1.006074e+01
0	 5.555556e+00	 7.777778e+00	 1.006297e+01
0	 5.555556e+00	 7.851852e+00	 1.005935e+01
0	 5.555556e+00	 7.925926e+00	 1.005582e+01
0	 5.555556e+00	 8.000000e+00	 1.005238e+01
0	 5.555556e+00	 8.074074e+00	 1.004903e+01
0	 5.555556e+00	 8.148148e+00	 1.004576e+01
0	 5.629630e+00	 7.777778e+00	 1.006269e+01
0	 5.629630e+00	 7.851852e+00	 1.005909e+01
0	 5.629630e+00	 7.925926e+00	 1.005559e+01
0	 5.629630e+00	 8.000000e+00	 1.005217e+01
0	 5.629630e+00	 8.074074e+00	 1.004884e+01
0	 5.629630e+00	 8.148148e+00	 1.004559e+01
0	 5.703704e+00	 7.777778e+00	 1.006232e+01
0	 5.703704e+00	 7.851852e+00	 1.005876e+01
0	 5.703704e+00	 7.925926e+00	 1.005528e+01
0	 5.703704e+00	 8.000000e+00	 1.005189e+01
0	 5.703704e+00	 8.074074e+00	 1.004858e+01
0	 5.703704e+00	 8.148148e+00	 1.004535e+01
0	 5.777778e+00	 7.777778e+00	 1.006187e+01
0	 5.777778e+00	 7.851852e+00	 1.005834e+01
0	 5.777778e+00	 7.925926e+00	 1.005489e+01
0	 5.777778e+00	 8.000000e+00	 1.005153e+01
0	 5.777778e+00	 8.074074e+00	 1.004825e+01
0	 5.777778e+00	 8.148148e+00	 1.004505e+01
0	 5.851852e+00	 7.777778e+00	 1.006134e+01
0	 5.851852e+00	 7.851852e+00	 1.005785e+01
0	 5.851852e+00	 7.925926e+00	 1.005444e+01
0	 5.851852e+00	 8.000000e+00	 1.005111e+01
0	 5.851852e+00	 8.074074e+00	 1.004786e+01
0	 5.851852e+00	 8.148148e+00	 1.004469e+01
0	 5.925926e+00	 7.777778e+00	 1.006074e+01
0	 5.925926e+00	 7.851852e+00	 1.005728e+01
0	 5.925926e+00	 7.925926e+00	 1.005391e+01
0	 5.925926e+00	 8.000000e+00	 1.005063e+01
0	 5.925926e+00	 8.074074e+00	 1.004741e+01
0	 5.925926e+00	 8.148148e+00	 1.004427e+01
0	 5.555556e+00	 8.148148e+00	 1.004576e+01
0	 5.555556e+00	 8.222222e+00	 1.004259e+01
0	 5.555556e+00	 8.296296e+00	 1.003951e+01
0	 5.555556e+00	 8.370370e+00	 1.003653e+01
0	 5.555556e+00	 8.444444e+00	 1.003364e+01
0	 5.555556e+00	 8.518519e+00	 1.003084e+01
0	 5.629630e+00	 8.148148e+00	 1.004559e+01
0	 5.629630e+00	 8.222222e+00	 1.004243e+01
0	 5.629630e+00	 8.296296e+00	 1.003937e+01
0	 5.629630e+00	 8.370370e+00	 1.003640e+01
0	 5.629630e+00	 8.444444e+00	 1.003353e+01
0	 5.629630e+00	 8.518519e+00	 1.003074e+01
0	 5.703704e+00	 8.148148e+00	 1.004535e+01
0	 5.703704e+00	 8.222222e+00	 1.004221e+01
0	 5.703704e+00	 8.296296e+00	 1.003917e+01
0	 5.703704e+00	 8.370370e+00	 1.003622e+01
0	 5.703704e+00	 8.444444e+00	 1.003336e+01
0	 5.703704e+00	 8.518519e+00	 1.003059e+01
0	 5.777778e+00	 8.148148e+00	 1.004505e+01
0	 5.777778e+00	 8.222222e+00	 1.004193e+01
0	 5.777778e+00	 8.296296e+00	 1.003892e+01
0	 5.777778e+00	 8.370370e+00	 1.003599e+01
0	 5.777778e+00	 8.444444e+00	 1.003315e+01
0	 5.777778e+00	 8.518519e+00	 1.003039e+01
0	 5.851852e+00	 8.148148e+00	 1.004469e+01
0	 5.851852e+00	 8.222222e+00	 1.004160e+01
0	 5.851852e+00	 8.296296e+00	 1.003861e+01
0	 5.851852e+00	 8.370370e+00	 1.003571e+01
0	 5.851852e+00	 8.444444e+00	 1.003289e+01
0	 5.851852e+00	 8.518519e+00	 1.003016e+01
0	 5.925926e+00	 8.148148e+00	 1.004427e+01
0	 5.925926e+00	 8.222222e+00	 1.004122e+01
0	 5.925926e+00	 8.296296e+00	 1.003826e+01
0	 5.925926e+00	 8.370370e+00	 1.003538e+01
0	 5.925926e+00	 8.444444e+00	 1.003259e+01
0	 5.925926e+00	 8.518519e+00	 1.002988e+01
0	 5.555556e+00	 8.518519e+00	 1.003084e+01
0	 5.555556e+00	 8.592593e+00	 1.002814e+01
0	 5.555556e+00	 8.666667e+00	 1.002555e+01
0	 5.555556e+00	 8.740741e+00	 1.002306e+01
0	 5.555556e+00	 8.814815e+00	 1.002068e+01
0	 5.555556e+00	 8.888889e+00	 1.001839e+01
0	 5.629630e+00	 8.518519e+00	 1.003074e+01
0	 5.629630e+00	 8.592593e+00	 1.002805e+01
0	 5.629630e+00	 8.666667e+00	 1.002546e+01
0	 5.629630e+00	 8.740741e+00	 1.002299e+01
0	 5.629630e+00	 8.814815e+00	 1.002061e+01
0	 5.629630e+00	 8.888889e+00	 1.001833e+01
0	 5.703704e+00	 8.518519e+00	 1.003059e+01
0	 5.703704e+00	 8.592593e+00	 1.002791e+01
0	 5.703704e+00	 8.666667e+00	 1.002534e+01
0	 5.703704e+00	 8.740741e+00	 1.002287e+01
0	 5.703704e+00	 8.814815e+00	 1.002051e+01
0	 5.703704e+00	 8.888889e+00	 1.001824e+01
0	 5.777778e+00	 8.518519e+00	 1.003039e+01
0	 5.777778e+00	 8.592593e+00	 1.002773e+01
0	 5.777778e+00	 8.666667e+00	 1.002518e+01
0	 5.777778e+00	 8.740741e+00	 1.002273e+01
0	 5.777778e+00	 8.814815e+00	 1.002038e+01
0	 5.777778e+00	 8.888889e+00	 1.001812e+01
0	 5.851852e+00	 8.518519e+00	 1.003016e+01
0	 5.851852e+00	 8.592593e+00	 1.002752e+01
0	 5.851852e+00	 8.666667e+00	 1.002498e+01
0	 5.851852e+00	 8.740741e+00	 1.002255e+01
0	 5.851852e+00	 8.814815e+00	 1.002022e+01
0	 5.851852e+00	 8.888889e+00	 1.001798e+01
0	 5.925926e+00	 8.518519e+00	 1.002988e+01
0	 5.925926e+00	 8.592593e+00	 1.002727e+01
0	 5.925926e+00	 8.666667e+00	 1.002476e+01
0	 5.925926e+00	 8.740741e+00	 1.002235e+01
0	 5.925926e+00	 8.814815e+00	 1.002004e+01
0	 5.925926e+00	 8.888889e+00	 1.001782e+01
0	 5.555556e+00	 8.888889e+00	 1.001839e+01
0	 5.555556e+00	 8.962963e+00	 1.001621e+01
0	 5.555556e+00	 9.037037e+00	 1.001416e+01
0	 5.555556e+00	 9.111111e+00	 1.001223e+01
0	 5.555556e+00	 9.185185e+00	 1.001042e+01
0	 5.555556e+00	 9.259259e+00	 1.000872e+01
0	 5.629630e+00	 8.888889e+00	 1.001833e+01
0	 5.629630e+00	 8.962963e+00	 1.001615e+01
0	 5.629630e+00	 9.037037e+00	 1.001411e+01
0	 5.629630e+00	 9.111111e+00	 1.001219e+01
0	 5.629630e+00	 9.185185e+00	 1.001038e+01
0	 5.629630e+00	 9.259259e+00	 1.000868e+01
0	 5.703704e+00	 8.888889e+00	 1.001824e+01
0	 5.703704e+00	 8.962963e+00	 1.001607e+01
0	 5.703704e+00	 9.037037e+00	 1.001404e+01
0	 5.703704e+00	 9.111111e+00	 1.001213e+01
0	 5.703704e+00	 9.185185e+00	 1.001033e+01
0	 5.703704e+00	 9.259259e+00	 1.000864e+01
0	 5.777778e+00	 8.888889e+00	 1.001812e+01
0	 5.777778e+00	 8.962963e+00	 1.001597e+01
0	 5.777778e+00	 9.037037e+00	 1.001395e+01
0	 5.777778e+00	 9.111111e+00	 1.001205e+01
0	 5.777778e+00	 9.185185e+00	 1.001026e+01
0	 5.777778e+00	 9.259259e+00	 1.000858e+01
0	 5.851852e+00	 8.888889e+00	 1.001798e+01
0	 5.851852e+00	 8.962963e+00	 1.001585e+01
0	 5.851852e+00	 9.037037e+00	 1.001384e+01
0	 5.851852e+00	 9.111111e+00	 1.001195e+01
0	 5.851852e+00	 9.185185e+00	 1.001018e+01
0	 5.851852e+00	 9.259259e+00	 1.000851e+01
0	 5.925926e+00	 8.888889e+00	 1.001782e+01
0	 5.925926e+00	 8.962963e+00	 1.001570e+01
0	 5.925926e+00	 9.037037e+00	 1.001372e+01
0	 5.925926e+00	 9.111111e+00	 1.001185e+01
0	 5.925926e+00	 9.185185e+00	 1.001009e+01
0	 5.925926e+00	 9.259259e+00	 1.000843e+01
0	 5.555556e+00	 9.259259e+00	 1.000872e+01
0	 5.555556e+00	 9.333333e+00	 1.000715e+01
0	 5.555556e+00	 9.407407e+00	 1.000573e+01
0	 5.555556e+00	 9.481481e+00	 1.000446e+01
0	 5.555556e+00	 9.555556e+00	 1.000334e+01
0	 5.555556e+00	 9.629630e+00	 1.000234e+01
0	 5.629630e+00	 9.259259e+00	 1.000868e+01
0	 5.629630e+00	 9.333333e+00	 1.000712e+01
0	 5.629630e+00	 9.407407e+00	 1.000571e+01
0	 5.629630e+00	 9.481481e+00	 1.000445e+01
0	 5.629630e+00	 9.555556e+00	 1.000332e+01
0	 5.629630e+00	 9.629630e+00	 1.000233e+01
0	 5.703704e+00	 9.259259e+00	 1.000864e+01
0	 5.703704e+00	 9.333333e+00	 1.000708e+01
0	 5.703704e+00	 9.407407e+00	 1.000568e+01
0	 5.703704e+00	 9.481481e+00	 1.000442e+01
0	 5.703704e+00	 9.555556e+00	 1.000330e+01
0	 5.703704e+00	 9.629630e+00	 1.000232e+01
0	 5.777778e+00	 9.259259e+00	 1.000858e+01
0	 5.777778e+00	 9.333333e+00	 1.000703e+01
0	 5.777778e+00	 9.407407e+00	 1.000564e+01
0	 5.777778e+00	 9.481481e+00	 1.000439e+01
0	 5.777778e+00	 9.555556e+00	 1.000328e+01
0	 5.777778e+00	 9.629630e+00	 1.000230e+01
0	 5.851852e+00	 9.259259e+00	 1.000851e+01
0	 5.851852e+00	 9.333333e+00	 1.000698e+01
0	 5.851852e+00	 9.407407e+00	 1.000559e+01
0	 5.851852e+00	 9.481481e+00	 1.000435e+01
0	 5.851852e+00	 9.555556e+00	 1.000325e+01
0	 5.851852e+00	 9.629630e+00	 1.000228e+01
0	 5.925926e+00	 9.259259e+00	 1.000843e+01
0	 5.925926e+00	 9.333333e+00	 1.000691e+01
0	 5.925926e+00	 9.407407e+00	 1.000554e+01
0	 5.925926e+00	 9.481481e+00	 1.000431e+01
0	 5.925926e+00	 9.555556e+00	 1.000322e+01
0	 5.925926e+00	 9.629630e+00	 1.000226e+01
0	 5.555556e+00	 9.629630e+00	 1.000234e+01
0	 5.555556e+00	 9.703704e+00	 1.000151e+01
0	 5.555556e+00	 9.777778e+00	 1.000086e+01
0	 5.555556e+00	 9.851852e+00	 1.000040e+01
0	 5.555556e+00	 9.925926e+00	 1.000011e+01
0	 5.555556e+00	 1.000000e+01	 9.999975e+00
0	 5.629630e+00	 9.629630e+00	 1.000233e+01
0	 5.629630e+00	 9.703704e+00	 1.000150e+01
0	 5.629630e+00	 9.777778e+00	 1.000086e+01
0	 5.629630e+00	 9.851852e+00	 1.000040e+01
0	 5.629630e+00	 9.925926e+00	 1.000011e+01
0	 5.629630e+00	 1.000000e+01	 9.999976e+00
0	 5.703704e+00	 9.629630e+00	 1.000232e+01
0	 5.703704e+00	 9.703704e+00	 1.000149e+01
0	 5.703704e+00	 9.777778e+00	 1.000085e+01
0	 5.703704e+00	 9.851852e+00	 1.000040e+01
0	 5.703704e+00	 9.925926e+00	 1.000011e+01
0	 5.703704e+00	 1.000000e+01	 9.999975e+00
0	 5.777778e+00	 9.629630e+00	 1.000230e+01
0	 5.777778e+00	 9.703704e+00	 1.000148e+01
0	 5.777778e+00	 9.777778e+00	 1.000085e+01
0	 5.777778e+00	 9.851852e+00	 1.000039e+01
0	 5.777778e+00	 9.925926e+00	 1.000011e+01
0	 5.777778e+00	 1.000000e+01	 9.999975e+00
0	 5.851852e+00	 9.629630e+00	 1.000228e+01
0	 5.851852e+00	 9.703704e+00	 1.000147e+01
0	 5.851852e+00	 9.777778e+00	 1.000084e+01
0	 5.851852e+00	 9.851852e+00	 1.000039e+01
0	 5.851852e+00	 9.925926e+00	 1.000010e+01
0	 5.851852e+00	 1.000000e+01	 9.999975e+00
0	 5.925926e+00	 9.629630e+00	 1.000226e+01
0	 5.925926e+00	 9.703704e+00	 1.000145e+01
0	 5.925926e+00	 9.777778e+00	 1.000083e+01
0	 5.925926e+00	 9.851852e+00	 1.000039e+01
0	 5.925926e+00	 9.925926e+00	 1.000010e+01
0	 5.925926e+00	 1.000000e+01	 9.999977e+00
0	 5.925926e+00	 0.000000e+00	 1.020537e+01
0	 5.925926e+00	 7.407407e-02	 1.020559e+01
0	 5.925926e+00	 1.481481e-01	 1.020615e+01
0	 5.925926e+00	 2.222222e-01	 1.020707e+01
0	 5.925926e+00	 2.962963e-01	 1.020834e+01
0	 5.925926e+00	 3.703704e-01	 1.020997e+01
0	 6.000000e+00	 0.000000e+00	 1.019667e+01
0	 6.000000e+00	 7.407407e-02	 1.019688e+01
0	 6.000000e+00	 1.481481e-01	 1.019741e+01
0	 6.000000e+00	 2.222222e-01	 1.019828e+01
0	 6.000000e+00	 2.962963e-01	 1.019948e+01
0	 6.000000e+00	 3.703704e-01	 1.020103e+01
0	 6.074074e+00	 0.000000e+00	 1.018808e+01
0	 6.074074e+00	 7.407407e-02	 1.018827e+01
0	 6.074074e+00	 1.481481e-01	 1.018877e+01
0	 6.074074e+00	 2.222222e-01	 1.018959e+01
0	 6.074074e+00	 2.962963e-01	 1.019073e+01
0	 6.074074e+00	 3.703704e-01	 1.019220e+01
0	 6.148148e+00	 0.000000e+00	 1.017958e+01
0	 6.148148e+00	 7.407407e-02	 1.017975e+01
0	 6.148148e+00	 1.481481e-01	 1.018022e+01
0	 6.148148e+00	 2.222222e-01	 1.018099e+01
0	 6.148148e+00	 2.962963e-01	 1.018207e+01
0	 6.148148e+00	 3.703704e-01	 1.018348e+01
0	 6.222222e+00	 0.000000e+00	 1.017116e+01
0	 6.222222e+00	 7.407407e-02	 1.017131e+01
0	 6.222222e+00	 1.481481e-01	 1.017175e+01
0	 6.222222e+00	 2.222222e-01	 1.017248e+01
0	 6.222222e+00	 2.962963e-01	 1.017351e+01
0	 6.222222e+00	 3.703704e-01	 1.017485e+01
0	 6.296296e+00	 0.000000e+00	 1.016279e+01
0	 6.296296e+00	 7.407407e-02	 1.016293e+01
0	 6.296296e+00	 1.481481e-01	 1.016335e+01
0	 6.296296e+00	 2.222222e-01	 1.016405e+01
0	 6.296296e+00	 2.962963e-01	 1.016504e+01
0	 6.296296e+00	 3.703704e-01	 1.016633e+01
0	 5.925926e+00	 3.703704e-01	 1.020997e+01
0	 5.925926e+00	 4.444444e-01	 1.021192e+01
0	 5.925926e+00	 5.185185e-01	 1.021413e+01
0	 5.925926e+00	 5.925926e-01	 1.021663e+01
0	 5.925926e+00	 6.666667e-01	 1.021944e+01
0	 5.925926e+00	 7.407407e-01	 1.022258e+01
0	 6.000000e+00	 3.703704e-01	 1.020103e+01
0	 6.000000e+00	 4.444444e-01	 1.020287e+01
0	 6.000000e+00	 5.185185e-01	 1.020498e+01
0	 6.000000e+00	 5.925926e-01	 1.020737e+01
0	 6.000000e+00	 6.666667e-01	 1.021005e+01
0	 6.000000e+00	 7.407407e-01	 1.021306e+01
0	 6.074074e+00	 3.703704e-01	 1.019220e+01
0	 6.074074e+00	 4.444444e-01	 1.019396e+01
0	 6.074074e+00	 5.185185e-01	 1.019597e+01
0	 6.074074e+00	 5.925926e-01	 1.019825e+01
0	 6.074074e+00	 6.666667e-01	 1.020082e+01
0	 6.074074e+00	 7.407407e-01	 1.020369e+01
0	 6.148148e+00	 3.703704e-01	 1.018348e+01
0	 6.148148e+00	 4.444444e-01	 1.018516e+01
0	 6.148148e+00	 5.185185e-01	 1.018708e+01
0	 6.148148e+00	 5.925926e-01	 1.018926e+01
0	 6.148148e+00	 6.666667e-01	 1.019172e+01
0	 6.148148e+00	 7.407407e-01	 1.019446e+01
0	 6.222222e+00	 3.703704e-01	 1.017485e+01
0	 6.222222e+00	 4.444444e-01	 1.017646e+01
0	 6.222222e+00	 5.185185e-01	 1.017831e+01
0	 6.222222e+00	 5.925926e-01	 1.018039e+01
0	 6.222222e+00	 6.666667e-01	 1.018274e+01
0	 6.222222e+00	 7.407407e-01	 1.018536e+01
0	 6.296296e+00	 3.703704e-01	 1.016633e+01
0	 6.296296e+00	 4.444444e-01	 1.016787e+01
0	 6.296296e+00	 5.185185e-01	 1.016963e+01
0	 6.296296e+00	 5.925926e-01	 1.017163e+01
0	 6.296296e+00	 6.666667e-01	 1.017388e+01
0	 6.296296e+00	 7.407407e-01	 1.017638e+01
0	 5.925926e+00	 7.407407e-01	 1.022258e+01
0	 5.925926e+00	 8.148148e-01	 1.022595e+01
0	 5.925926e+00	 8.888889e-01	 1.022946e+01
0	 5.925926e+00	 9.629630e-01	 1.023312e+01
0	 5.925926e+00	 1.037037e+00	 1.023698e+01
0	 5.925926e+00	 1.111111e+00	 1.024106e+01
0	 6.000000e+00	 7.407407e-01	 1.021306e+01
0	 6.000000e+00	 8.148148e-01	 1.021628e+01
0	 6.000000e+00	 8.888889e-01	 1.021964e+01
0	 6.000000e+00	 9.629630e-01	 1.022316e+01
0	 6.000000e+00	 1.037037e+00	 1.022686e+01
0	 6.000000e+00	 1.111111e+00	 1.023078e+01
0	 6.074074e+00	 7.407407e-01	 1.020369e+01
0	 6.074074e+00	 8.148148e-01	 1.020677e+01
0	 6.074074e+00	 8.888889e-01	 1.020999e+01
0	 6.074074e+00	 9.629630e-01	 1.021336e+01
0	 6.074074e+00	 1.037037e+00	 1.021691e+01
0	 6.074074e+00	 1.111111e+00	 1.022067e+01
0	 6.148148e+00	 7.407407e-01	 1.019446e+01
0	 6.148148e+00	 8.148148e-01	 1.019741e+01
0	 6.148148e+00	 8.888889e-01	 1.020049e+01
0	 6.148148e+00	 9.629630e-01	 1.020372e+01
0	 6.148148e+00	 1.037037e+00	 1.020713e+01
0	 6.148148e+00	 1.111111e+00	 1.021074e+01
0	 6.222222e+00	 7.407407e-01	 1.018536e+01
0	 6.222222e+00	 8.148148e-01	 1.018818e+01
0	 6.222222e+00	 8.888889e-01	 1.019113e+01
0	 6.222222e+00	 9.629630e-01	 1.019423e+01
0	 6.222222e+00	 1.037037e+00	 1.019750e+01
0	 6.222222e+00	 1.111111e+00	 1.020097e+01
0	 6.296296e+00	 7.407407e-01	 1.017638e+01
0	 6.296296e+00	 8.148148e-01	 1.017908e+01
0	 6.296296e+00	 8.888889e-01	 1.018190e+01
0	 6.296296e+00	 9.629630e-01	 1.018487e+01
0	 6.296296e+00	 1.037037e+00	 1.018801e+01
0	 6.296296e+00	 1.111111e+00	 1.019134e+01
0	 5.925926e+00	 1.111111e+00	 1.024106e+01
0	 5.925926e+00	 1.185185e+00	 1.024525e+01
0	 5.925926e+00	 1.259259e+00	 1.024942e+01
0	 5.925926e+00	 1.333333e+00	 1.025362e+01
0	 5.925926e+00	 1.407407e+00	 1.025787e+01
0	 5.925926e+00	 1.481481e+00	 1.026221e+01
0	 6.000000e+00	 1.111111e+00	 1.023078e+01
0	 6.000000e+00	 1.185185e+00	 1.023479e+01
0	 6.000000e+00	 1.259259e+00	 1.023881e+01
0	 6.000000e+00	 1.333333e+00	 1.024285e+01
0	 6.000000e+00	 1.407407e+00	 1.024695e+01
0	 6.000000e+00	 1.481481e+00	 1.025114e+01
0	 6.074074e+00	 1.111111e+00	 1.022067e+01
0	 6.074074e+00	 1.185185e+00	 1.022453e+01
0	 6.074074e+00	 1.259259e+00	 1.022840e+01
0	 6.074074e+00	 1.333333e+00	 1.023230e+01
0	 6.074074e+00	 1.407407e+00	 1.023625e+01
0	 6.074074e+00	 1.481481e+00	 1.024029e+01
0	 6.148148e+00	 1.111111e+00	 1.021074e+01
0	 6.148148e+00	 1.185185e+00	 1.021445e+01
0	 6.148148e+00	 1.259259e+00	 1.021818e+01
0	 6.148148e+00	 1.333333e+00	 1.022193e+01
0	 6.148148e+00	 1.407407e+00	 1.022575e+01
0	 6.148148e+00	 1.481481e+00	 1.022966e+01
0	 6.222222e+00	 1.111111e+00	 1.020097e+01
0	 6.222222e+00	 1.185185e+00	 1.020454e+01
0	 6.222222e+00	 1.259259e+00	 1.020812e+01
0	 6.222222e+00	 1.333333e+00	 1.021175e+01
0	 6.222222e+00	 1.407407e+00	 1.021543e+01
0	 6.222222e+00	 1.481481e+00	 1.021921e+01
0	 6.296296e+00	 1.111111e+00	 1.019134e+01
0	 6.296296e+00	 1.185185e+00	 1.019478e+01
0	 6.296296e+00	 1.259259e+00	 1.019823e+01
0	 6.296296e+00	 1.333333e+00	 1.020172e+01
0	 6.296296e+00	 1.407407e+00	 1.020528e+01
0	 6.296296e+00	 1.481481e+00	 1.020893e+01
0	 5.925926e+00	 1.481481e+00	 1.026221e+01
0	 5.925926e+00	 1.555556e+00	 1.026652e+01
0	 5.925926e+00	 1.629630e+00	 1.027068e+01
0	 5.925926e+00	 1.703704e+00	 1.027474e+01
0	 5.925926e+00	 1.777778e+00	 1.027872e+01
0	 5.925926e+00	 1.851852e+00	 1.028264e+01
0	 6.000000e+00	 1.481481e+00	 1.025114e+01
0	 6.000000e+00	 1.555556e+00	 1.025530e+01
0	 6.000000e+00	 1.629630e+00	 1.025934e+01
0	 6.000000e+00	 1.703704e+00	 1.026328e+01
0	 6.000000e+00	 1.777778e+00	 1.026715e+01
0	 6.000000e+00	 1.851852e+00	 1.027097e+01
0	 6.074074e+00	 1.481481e+00	 1.024029e+01
0	 6.074074e+00	 1.555556e+00	 1.024432e+01
0	 6.074074e+00	 1.629630e+00	 1.024823e+01
0	 6.074074e+00	 1.703704e+00	 1.025206e+01
0	 6.074074e+00	 1.777778e+00	 1.025583e+01
0	 6.074074e+00	 1.851852e+00	 1.025956e+01
0	 6.148148e+00	 1.481481e+00	 1.022966e+01
0	 6.148148e+00	 1.555556e+00	 1.023355e+01
0	 6.148148e+00	 1.629630e+00	 1.023735e+01
0	 6.148148e+00	 1.703704e+00	 1.024107e+01
0	 6.148148e+00	 1.777778e+00	 1.024473e+01
0	 6.148148e+00	 1.851852e+00	 1.024837e+01
0	 6.222222e+00	 1.481481e+00	 1.021921e+01
0	 6.222222e+00	 1.555556e+00	 1.022298e+01
0	 6.222222e+00	 1.629630e+00	 1.022666e+01
0	 6.222222e+00	 1.703704e+00	 1.023028e+01
0	 6.222222e+00	 1.777778e+00	 1.023384e+01
0	 6.222222e+00	 1.851852e+00	 1.023738e+01
0	 6.296296e+00	 1.481481e+00	 1.020893e+01
0	 6.296296e+00	 1.555556e+00	 1.021258e+01
0	 6.296296e+00	 1.629630e+00	 1.021615e+01
0	 6.296296e+00	 1.703704e+00	 1.021966e+01
0	 6.296296e+00	 1.777778e+00	 1.022313e+01
0	 6.296296e+00	 1.851852e+00	 1.022658e+01
0	 5.925926e+00	 1.851852e+00	 1.028264e+01
0	 5.925926e+00	 1.925926e+00	 1.028643e+01
0	 5.925926e+00	 2.000000e+00	 1.028997e+01
0	 5.925926e+00	 2.074074e+00	 1.029330e+01
0	 5.925926e+00	 2.148148e+00	 1.029643e+01
0	 5.925926e+00	 2.222222e+00	 1.029940e+01
0	 6.000000e+00	 1.851852e+00	 1.027097e+01
0	 6.000000e+00	 1.925926e+00	 1.027467e+01
0	 6.000000e+00	 2.000000e+00	 1.027814e+01
0	 6.000000e+00	 2.074074e+00	 1.028142e+01
0	 6.000000e+00	 2.148148e+00	 1.028451e+01
0	 6.000000e+00	 2.222222e+00	 1.028746e+01
0	 6.074074e+00	 1.851852e+00	 1.025956e+01
0	 6.074074e+00	 1.925926e+00	 1.026317e+01
0	 6.074074e+00	 2.000000e+00	 1.026657e+01
0	 6.074074e+00	 2.074074e+00	 1.026979e+01
0	 6.074074e+00	 2.148148e+00	 1.027285e+01
0	 6.074074e+00	 2.222222e+00	 1.027576e+01
0	 6.148148e+00	 1.851852e+00	 1.024837e+01
0	 6.148148e+00	 1.925926e+00	 1.025190e+01
0	 6.148148e+00	 2.000000e+00	 1.025523e+01
0	 6.148148e+00	 2.074074e+00	 1.025839e+01
0	 6.148148e+00	 2.148148e+00	 1.026141e+01
0	 6.148148e+00	 2.222222e+00	 1.026429e+01
0	 6.222222e+00	 1.851852e+00	 1.023738e+01
0	 6.222222e+00	 1.925926e+00	 1.024083e+01
0	 6.222222e+00	 2.000000e+00	 1.024410e+01
0	 6.222222e+00	 2.074074e+00	 1.024720e+01
0	 6.222222e+00	 2.148148e+00	 1.025017e+01
0	 6.222222e+00	 2.222222e+00	 1.025303e+01
0	 6.296296e+00	 1.851852e+00	 1.022658e+01
0	 6.296296e+00	 1.925926e+00	 1.022995e+01
0	 6.296296e+00	 2.000000e+00	 1.023315e+01
0	 6.296296e+00	 2.074074e+00	 1.023620e+01
0	 6.296296e+00	 2.148148e+00	 1.023912e+01
0	 6.296296e+00	 2.222222e+00	 1.024194e+01
0	 5.925926e+00	 2.222222e+00	 1.029940e+01
0	 5.925926e+00	 2.296296e+00	 1.030213e+01
0	 5.925926e+00	 2.370370e+00	 1.030457e+01
0	 5.925926e+00	 2.444444e+00	 1.030673e+01
0	 5.925926e+00	 2.518519e+00	 1.030863e+01
0	 5.925926e+00	 2.592593e+00	 1.031028e+01
0	 6.000000e+00	 2.222222e+00	 1.028746e+01
0	 6.000000e+00	 2.296296e+00	 1.029018e+01
0	 6.000000e+00	 2.370370e+00	 1.029263e+01
0	 6.000000e+00	 2.444444e+00	 1.029482e+01
0	 6.000000e+00	 2.518519e+00	 1.029676e+01
0	 6.000000e+00	 2.592593e+00	 1.029847e+01
0	 6.074074e+00	 2.222222e+00	 1.027576e+01
0	 6.074074e+00	 2.296296e+00	 1.027848e+01
0	 6.074074e+00	 2.370370e+00	 1.028093e+01
0	 6.074074e+00	 2.444444e+00	 1.028314e+01
0	 6.074074e+00	 2.518519e+00	 1.028511e+01
0	 6.074074e+00	 2.592593e+00	 1.028687e+01
0	 6.148148e+00	 2.222222e+00	 1.026429e+01
0	 6.148148e+00	 2.296296e+00	 1.026699e+01
0	 6.148148e+00	 2.370370e+00	 1.026944e+01
0	 6.148148e+00	 2.444444e+00	 1.027166e+01
0	 6.148148e+00	 2.518519e+00	 1.027367e+01
0	 6.148148e+00	 2.592593e+00	 1.027547e+01
0	 6.222222e+00	 2.222222e+00	 1.025303e+01
0	 6.222222e+00	 2.296296e+00	 1.025570e+01
0	 6.222222e+00	 2.370370e+00	 1.025815e+01
0	 6.222222e+00	 2.444444e+00	 1.026038e+01
0	 6.222222e+00	 2.518519e+00	 1.026241e+01
0	 6.222222e+00	 2.592593e+00	 1.026425e+01
0	 6.296296e+00	 2.222222e+00	 1.024194e+01
0	 6.296296e+00	 2.296296e+00	 1.024460e+01
0	 6.296296e+00	 2.370370e+00	 1.024704e+01
0	 6.296296e+00	 2.444444e+00	 1.024928e+01
0	 6.296296e+00	 2.518519e+00	 1.025132e+01
0	 6.296296e+00	 2.592593e+00	 1.025319e+01
0	 5.925926e+00	 2.592593e+00	 1.031028e+01
0	 5.925926e+00	 2.666667e+00	 1.031165e+01
0	 5.925926e+00	 2.740741e+00	 1.031272e+01
0	 5.925926e+00	 2.814815e+00	 1.031349e+01
0	 5.925926e+00	 2.888889e+00	 1.031397e+01
0	 5.925926e+00	 2.962963e+00	 1.031416e+01
0	 6.000000e+00	 2.592593e+00	 1.029847e+01
0	 6.000000e+00	 2.666667e+00	 1.029991e+01
0	 6.000000e+00	 2.740741e+00	 1.030107e+01
0	 6.000000e+00	 2.814815e+00	 1.030194e+01
0	 6.000000e+00	 2.888889e+00	 1.030254e+01
0	 6.000000e+00	 2.962963e+00	 1.030286e+01
0	 6.074074e+00	 2.592593e+00	 1.028687e+01
0	 6.074074e+00	 2.666667e+00	 1.028838e+01
0	 6.074074e+00	 2.740741e+00	 1.028961e+01
0	 6.074074e+00	 2.814815e+00	 1.029058e+01
0	 6.074074e+00	 2.888889e+00	 1.029128e+01
0	 6.074074e+00	 2.962963e+00	 1.029173e+01
0	 6.148148e+00	 2.592593e+00	 1.027547e+01
0	 6.148148e+00	 2.666667e+00	 1.027704e+01
0	 6.148148e+00	 2.740741e+00	 1.027834e+01
0	 6.148148e+00	 2.814815e+00	 1.027939e+01
0	 6.148148e+00	 2.888889e+00	 1.028019e+01
0	 6.148148e+00	 2.962963e+00	 1.028074e+01
0	 6.222222e+00	 2.592593e+00	 1.026425e+01
0	 6.222222e+00	 2.666667e+00	 1.026587e+01
0	 6.222222e+00	 2.740741e+00	 1.026723e+01
0	 6.222222e+00	 2.814815e+00	 1.026836e+01
0	 6.222222e+00	 2.888889e+00	 1.026924e+01
0	 6.222222e+00	 2.962963e+00	 1.026990e+01
0	 6.296296e+00	 2.592593e+00	 1.025319e+01
0	 6.296296e+00	 2.666667e+00	 1.025486e+01
0	 6.296296e+00	 2.740741e+00	 1.025628e+01
0	 6.296296e+00	 2.814815e+00	 1.025747e+01
0	 6.296296e+00	 2.888889e+00	 1.025844e+01
0	 6.296296e+00	 2.962963e+00	 1.025919e+01
0	 5.925926e+00	 2.962963e+00	 1.031416e+01
0	 5.925926e+00	 3.037037e+00	 1.031407e+01
0	 5.925926e+00	 3.111111e+00	 1.031369e+01
0	 5.925926e+00	 3.185185e+00	 1.031303e+01
0	 5.925926e+00	 3.259259e+00	 1.031208e+01
0	 5.925926e+00	 3.333333e+00	 1.031085e+01
0	 6.000000e+00	 2.962963e+00	 1.030286e+01
0	 6.000000e+00	 3.037037e+00	 1.030292e+01
0	 6.000000e+00	 3.111111e+00	 1.030270e+01
0	 6.000000e+00	 3.185185e+00	 1.030220e+01
0	 6.000000e+00	 3.259259e+00	 1.030143e+01
0	 6.000000e+00	 3.333333e+00	 1.030039e+01
0	 6.074074e+00	 2.962963e+00	 1.029173e+01
0	 6.074074e+00	 3.037037e+00	 1.029192e+01
0	 6.074074e+00	 3.111111e+00	 1.029184e+01
0	 6.074074e+00	 3.185185e+00	 1.029150e+01
0	 6.074074e+00	 3.259259e+00	 1.029089e+01
0	 6.074074e+00	 3.333333e+00	 1.029003e+01
0	 6.148148e+00	 2.962963e+00	 1.028074e+01
0	 6.148148e+00	 3.037037e+00	 1.028106e+01
0	 6.148148e+00	 3.111111e+00	 1.028111e+01
0	 6.148148e+00	 3.185185e+00	 1.028091e+01
0	 6.148148e+00	 3.259259e+00	 1.028046e+01
0	 6.148148e+00	 3.333333e+00	 1.027977e+01
0	 6.222222e+00	 2.962963e+00	 1.026990e+01
0	 6.222222e+00	 3.037037e+00	 1.027033e+01
0	 6.222222e+00	 3.111111e+00	 1.027050e+01
0	 6.222222e+00	 3.185185e+00	 1.027044e+01
0	 6.222222e+00	 3.259259e+00	 1.027014e+01
0	 6.222222e+00	 3.333333e+00	 1.026959e+01
0	 6.296296e+00	 2.962963e+00	 1.025919e+01
0	 6.296296e+00	 3.037037e+00	 1.025972e+01
0	 6.296296e+00	 3.111111e+00	 1.026001e+01
0	 6.296296e+00	 3.185185e+00	 1.026008e+01
0	 6.296296e+00	 3.259259e+00	 1.025991e+01
0	 6.296296e+00	 3.333333e+00	 1.025951e+01
0	 5.925926e+00	 3.333333e+00	 1.031085e+01
0	 5.925926e+00	 3.407407e+00	 1.030935e+01
0	 5.925926e+00	 3.481481e+00	 1.030762e+01
0	 5.925926e+00	 3.555556e+00	 1.030564e+01
0	 5.925926e+00	 3.629630e+00	 1.030340e+01
0	 5.925926e+00	 3.703704e+00	 1.030092e+01
0	 6.000000e+00	 3.333333e+00	 1.030039e+01
0	 6.000000e+00	 3.407407e+00	 1.029909e+01
0	 6.000000e+00	 3.481481e+00	 1.029756e+01
0	 6.000000e+00	 3.555556e+00	 1.029579e+01
0	 6.000000e+00	 3.629630e+00	 1.029378e+01
0	 6.000000e+00	 3.703704e+00	 1.029153e+01
0	 6.074074e+00	 3.333333e+00	 1.029003e+01
0	 6.074074e+00	 3.407407e+00	 1.028892e+01
0	 6.074074e+00	 3.481481e+00	 1.028758e+01
0	 6.074074e+00	 3.555556e+00	 1.028601e+01
0	 6.074074e+00	 3.629630e+00	 1.028421e+01
0	 6.074074e+00	 3.703704e+00	 1.028217e+01
0	 6.148148e+00	 3.333333e+00	 1.027977e+01
0	 6.148148e+00	 3.407407e+00	 1.027883e+01
0	 6.148148e+00	 3.481481e+00	 1.027768e+01
0	 6.148148e+00	 3.555556e+00	 1.027630e+01
0	 6.148148e+00	 3.629630e+00	 1.027469e+01
0	 6.148148e+00	 3.703704e+00	 1.027284e+01
0	 6.222222e+00	 3.333333e+00	 1.026959e+01
0	 6.222222e+00	 3.407407e+00	 1.026883e+01
0	 6.222222e+00	 3.481481e+00	 1.026784e+01
0	 6.222222e+00	 3.555556e+00	 1.026664e+01
0	 6.222222e+00	 3.629630e+00	 1.026521e+01
0	 6.222222e+00	 3.703704e+00	 1.026356e+01
0	 6.296296e+00	 3.333333e+00	 1.025951e+01
0	 6.296296e+00	 3.407407e+00	 1.025890e+01
0	 6.296296e+00	 3.481481e+00	 1.025808e+01
0	 6.296296e+00	 3.555556e+00	 1.025704e+01
0	 6.296296e+00	 3.629630e+00	 1.025579e+01
0	 6.296296e+00	 3.703704e+00	 1.025433e+01
0	 5.925926e+00	 3.703704e+00	 1.030092e+01
0	 5.925926e+00	 3.777778e+00	 1.029821e+01
0	 5.925926e+00	 3.851852e+00	 1.029532e+01
0	 5.925926e+00	 3.925926e+00	 1.029223e+01
0	 5.925926e+00	 4.000000e+00	 1.028894e+01
0	 5.925926e+00	 4.074074e+00	 1.028543e+01
0	 6.000000e+00	 3.703704e+00	 1.029153e+01
0	 6.000000e+00	 3.777778e+00	 1.028905e+01
0	 6.000000e+00	 3.851852e+00	 1.028639e+01
0	 6.000000e+00	 3.925926e+00	 1.028354e+01
0	 6.000000e+00	 4.000000e+00	 1.028049e+01
0	 6.000000e+00	 4.074074e+00	 1.027723e+01
0	 6.074074e+00	 3.703704e+00	 1.028217e+01
0	 6.074074e+00	 3.777778e+00	 1.027991e+01
0	 6.074074e+00	 3.851852e+00	 1.027747e+01
0	 6.074074e+00	 3.925926e+00	 1.027485e+01
0	 6.074074e+00	 4.000000e+00	 1.027202e+01
0	 6.074074e+00	 4.074074e+00	 1.026900e+01
0	 6.148148e+00	 3.703704e+00	 1.027284e+01
0	 6.148148e+00	 3.777778e+00	 1.027080e+01
0	 6.148148e+00	 3.851852e+00	 1.026857e+01
0	 6.148148e+00	 3.925926e+00	 1.026616e+01
0	 6.148148e+00	 4.000000e+00	 1.026355e+01
0	 6.148148e+00	 4.074074e+00	 1.026075e+01
0	 6.222222e+00	 3.703704e+00	 1.026356e+01
0	 6.222222e+00	 3.777778e+00	 1.026171e+01
0	 6.222222e+00	 3.851852e+00	 1.025969e+01
0	 6.222222e+00	 3.925926e+00	 1.025748e+01
0	 6.222222e+00	 4.000000e+00	 1.025508e+01
0	 6.222222e+00	 4.074074e+00	 1.025250e+01
0	 6.296296e+00	 3.703704e+00	 1.025433e+01
0	 6.296296e+00	 3.777778e+00	 1.025267e+01
0	 6.296296e+00	 3.851852e+00	 1.025083e+01
0	 6.296296e+00	 3.925926e+00	 1.024882e+01
0	 6.296296e+00	 4.000000e+00	 1.024662e+01
0	 6.296296e+00	 4.074074e+00	 1.024424e+01
0	 5.925926e+00	 4.074074e+00	 1.028543e+01
0	 5.925926e+00	 4.148148e+00	 1.028176e+01
0	 5.925926e+00	 4.222222e+00	 1.027796e+01
0	 5.925926e+00	 4.296296e+00	 1.027402e+01
0	 5.925926e+00	 4.370370e+00	 1.026993e+01
0	 5.925926e+00	 4.444444e+00	 1.026568e+01
0	 6.000000e+00	 4.074074e+00	 1.027723e+01
0	 6.000000e+00	 4.148148e+00	 1.027380e+01
0	 6.000000e+00	 4.222222e+00	 1.027024e+01
0	 6.000000e+00	 4.296296e+00	 1.026655e+01
0	 6.000000e+00	 4.370370e+00	 1.026270e+01
0	 6.000000e+00	 4.444444e+00	 1.025870e+01
0	 6.074074e+00	 4.074074e+00	 1.026900e+01
0	 6.074074e+00	 4.148148e+00	 1.026581e+01
0	 6.074074e+00	 4.222222e+00	 1.026248e+01
0	 6.074074e+00	 4.296296e+00	 1.025902e+01
0	 6.074074e+00	 4.370370e+00	 1.025540e+01
0	 6.074074e+00	 4.444444e+00	 1.025164e+01
0	 6.148148e+00	 4.074074e+00	 1.026075e+01
0	 6.148148e+00	 4.148148e+00	 1.025778e+01
0	 6.148148e+00	 4.222222e+00	 1.025468e+01
0	 6.148148e+00	 4.296296e+00	 1.025144e+01
0	 6.148148e+00	 4.370370e+00	 1.024806e+01
0	 6.148148e+00	 4.444444e+00	 1.024451e+01
0	 6.222222e+00	 4.074074e+00	 1.025250e+01
0	 6.222222e+00	 4.148148e+00	 1.024974e+01
0	 6.222222e+00	 4.222222e+00	 1.024686e+01
0	 6.222222e+00	 4.296296e+00	 1.024384e+01
0	 6.222222e+00	 4.370370e+00	 1.024067e+01
0	 6.222222e+00	 4.444444e+00	 1.023734e+01
0	 6.296296e+00	 4.074074e+00	 1.024424e+01
0	 6.296296e+00	 4.148148e+00	 1.024170e+01
0	 6.296296e+00	 4.222222e+00	 1.023902e+01
0	 6.296296e+00	 4.296296e+00	 1.023621e+01
0	 6.296296e+00	 4.370370e+00	 1.023325e+01
0	 6.296296e+00	 4.444444e+00	 1.023013e+01
0	 5.925926e+00	 4.444444e+00	 1.026568e+01
0	 5.925926e+00	 4.518519e+00	 1.026132e+01
0	 5.925926e+00	 4.592593e+00	 1.025688e+01
0	 5.925926e+00	 4.666667e+00	 1.025235e+01
0	 5.925926e+00	 4.740741e+00	 1.024773e+01
0	 5.925926e+00	 4.814815e+00	 1.024300e+01
0	 6.000000e+00	 4.444444e+00	 1.025870e+01
0	 6.000000e+00	 4.518519e+00	 1.025458e+01
0	 6.000000e+00	 4.592593e+00	 1.025037e+01
0	 6.000000e+00	 4.666667e+00	 1.024608e+01
0	 6.000000e+00	 4.740741e+00	 1.024169e+01
0	 6.000000e+00	 4.814815e+00	 1.023718e+01
0	 6.074074e+00	 4.444444e+00	 1.025164e+01
0	 6.074074e+00	 4.518519e+00	 1.024775e+01
0	 6.074074e+00	 4.592593e+00	 1.024378e+01
0	 6.074074e+00	 4.666667e+00	 1.023971e+01
0	 6.074074e+00	 4.740741e+00	 1.023554e+01
0	 6.074074e+00	 4.814815e+00	 1.023126e+01
0	 6.148148e+00	 4.444444e+00	 1.024451e+01
0	 6.148148e+00	 4.518519e+00	 1.024085e+01
0	 6.148148e+00	 4.592593e+00	 1.023710e+01
0	 6.148148e+00	 4.666667e+00	 1.023325e+01
0	 6.148148e+00	 4.740741e+00	 1.022930e+01
0	 6.148148e+00	 4.814815e+00	 1.022524e+01
0	 6.222222e+00	 4.444444e+00	 1.023734e+01
0	 6.222222e+00	 4.518519e+00	 1.023390e+01
0	 6.222222e+00	 4.592593e+00	 1.023036e+01
0	 6.222222e+00	 4.666667e+00	 1.022673e+01
0	 6.222222e+00	 4.740741e+00	 1.022299e+01
0	 6.222222e+00	 4.814815e+00	 1.021914e+01
0	 6.296296e+00	 4.444444e+00	 1.023013e+01
0	 6.296296e+00	 4.518519e+00	 1.022690e+01
0	 6.296296e+00	 4.592593e+00	 1.022357e+01
0	 6.296296e+00	 4.666667e+00	 1.022015e+01
0	 6.296296e+00	 4.740741e+00	 1.021662e+01
0	 6.296296e+00	 4.814815e+00	 1.021298e+01
0	 5.925926e+00	 4.814815e+00	 1.024300e+01
0	 5.925926e+00	 4.888889e+00	 1.023820e+01
0	 5.925926e+00	 4.962963e+00	 1.023337e+01
0	 5.925926e+00	 5.037037e+00	 1.022849e+01
0	 5.925926e+00	 5.111111e+00	 1.022356e+01
0	 5.925926e+00	 5.185185e+00	 1.021858e+01
0	 6.000000e+00	 4.814815e+00	 1.023718e+01
0	 6.000000e+00	 4.888889e+00	 1.023261e+01
0	 6.000000e+00	 4.962963e+00	 1.022800e+01
0	 6.000000e+00	 5.037037e+00	 1.022334e+01
0	 6.000000e+00	 5.111111e+00	 1.021862e+01
0	 6.000000e+00	 5.185185e+00	 1.021385e+01
0	 6.074074e+00	 4.814815e+00	 1.023126e+01
0	 6.074074e+00	 4.888889e+00	 1.022691e+01
0	 6.074074e+00	 4.962963e+00	 1.022251e+01
0	 6.074074e+00	 5.037037e+00	 1.021806e+01
0	 6.074074e+00	 5.111111e+00	 1.021355e+01
0	 6.074074e+00	 5.185185e+00	 1.020898e+01
0	 6.148148e+00	 4.814815e+00	 1.022524e+01
0	 6.148148e+00	 4.888889e+00	 1.022110e+01
0	 6.148148e+00	 4.962963e+00	 1.021691e+01
0	 6.148148e+00	 5.037037e+00	 1.021267e+01
0	 6.148148e+00	 5.111111e+00	 1.020837e+01
0	 6.148148e+00	 5.185185e+00	 1.020399e+01
0	 6.222222e+00	 4.814815e+00	 1.021914e+01
0	 6.222222e+00	 4.888889e+00	 1.021521e+01
0	 6.222222e+00	 4.962963e+00	 1.021123e+01
0	 6.222222e+00	 5.037037e+00	 1.020719e+01
0	 6.222222e+00	 5.111111e+00	 1.020309e+01
0	 6.222222e+00	 5.185185e+00	 1.019891e+01
0	 6.296296e+00	 4.814815e+00	 1.021298e+01
0	 6.296296e+00	 4.888889e+00	 1.020925e+01
0	 6.296296e+00	 4.962963e+00	 1.020547e+01
0	 6.296296e+00	 5.037037e+00	 1.020163e+01
0	 6.296296e+00	 5.111111e+00	 1.019772e+01
0	 6.296296e+00	 5.185185e+00	 1.019374e+01
0	 5.925926e+00	 5.185185e+00	 1.021858e+01
0	 5.925926e+00	 5.259259e+00	 1.021357e+01
0	 5.925926e+00	 5.333333e+00	 1.020856e+01
0	 5.925926e+00	 5.407407e+00	 1.020354e+01
0	 5.925926e+00	 5.481481e+00	 1.019851e+01
0	 5.925926e+00	 5.555556e+00	 1.019346e+01
0	 6.000000e+00	 5.185185e+00	 1.021385e+01
0	 6.000000e+00	 5.259259e+00	 1.020904e+01
0	 6.000000e+00	 5.333333e+00	 1.020422e+01
0	 6.000000e+00	 5.407407e+00	 1.019940e+01
0	 6.000000e+00	 5.481481e+00	 1.019455e+01
0	 6.000000e+00	 5.555556e+00	 1.018968e+01
0	 6.074074e+00	 5.185185e+00	 1.020898e+01
0	 6.074074e+00	 5.259259e+00	 1.020437e+01
0	 6.074074e+00	 5.333333e+00	 1.019975e+01
0	 6.074074e+00	 5.407407e+00	 1.019511e+01
0	 6.074074e+00	 5.481481e+00	 1.019045e+01
0	 6.074074e+00	 5.555556e+00	 1.018575e+01
0	 6.148148e+00	 5.185185e+00	 1.020399e+01
0	 6.148148e+00	 5.259259e+00	 1.019958e+01
0	 6.148148e+00	 5.333333e+00	 1.019515e+01
0	 6.148148e+00	 5.407407e+00	 1.019070e+01
0	 6.148148e+00	 5.481481e+00	 1.018622e+01
0	 6.148148e+00	 5.555556e+00	 1.018170e+01
0	 6.222222e+00	 5.185185e+00	 1.019891e+01
0	 6.222222e+00	 5.259259e+00	 1.019468e+01
0	 6.222222e+00	 5.333333e+00	 1.019044e+01
0	 6.222222e+00	 5.407407e+00	 1.018617e+01
0	 6.222222e+00	 5.481481e+00	 1.018187e+01
0	 6.222222e+00	 5.555556e+00	 1.017754e+01
0	 6.296296e+00	 5.185185e+00	 1.019374e+01
0	 6.296296e+00	 5.259259e+00	 1.018970e+01
0	 6.296296e+00	 5.333333e+00	 1.018565e+01
0	 6.296296e+00	 5.407407e+00	 1.018156e+01
0	 6.296296e+00	 5.481481e+00	 1.017744e+01
0	 6.296296e+00	 5.555556e+00	 1.017327e+01
0	 5.925926e+00	 5.555556e+00	 1.019346e+01
0	 5.925926e+00	 5.629630e+00	 1.018841e+01
0	 5.925926e+00	 5.703704e+00	 1.018340e+01
0	 5.925926e+00	 5.777778e+00	 1.017840e+01
0	 5.925926e+00	 5.851852e+00	 1.017342e+01
0	 5.925926e+00	 5.925926e+00	 1.016845e+01
0	 6.000000e+00	 5.555556e+00	 1.018968e+01
0	 6.000000e+00	 5.629630e+00	 1.018481e+01
0	 6.000000e+00	 5.703704e+00	 1.017996e+01
0	 6.000000e+00	 5.777778e+00	 1.017512e+01
0	 6.000000e+00	 5.851852e+00	 1.017030e+01
0	 6.000000e+00	 5.925926e+00	 1.016548e+01
0	 6.074074e+00	 5.555556e+00	 1.018575e+01
0	 6.074074e+00	 5.629630e+00	 1.018106e+01
0	 6.074074e+00	 5.703704e+00	 1.017638e+01
0	 6.074074e+00	 5.777778e+00	 1.017170e+01
0	 6.074074e+00	 5.851852e+00	 1.016704e+01
0	 6.074074e+00	 5.925926e+00	 1.016237e+01
0	 6.148148e+00	 5.555556e+00	 1.018170e+01
0	 6.148148e+00	 5.629630e+00	 1.017718e+01
0	 6.148148e+00	 5.703704e+00	 1.017266e+01
0	 6.148148e+00	 5.777778e+00	 1.016816e+01
0	 6.148148e+00	 5.851852e+00	 1.016365e+01
0	 6.148148e+00	 5.925926e+00	 1.015913e+01
0	 6.222222e+00	 5.555556e+00	 1.017754e+01
0	 6.222222e+00	 5.629630e+00	 1.017318e+01
0	 6.222222e+00	 5.703704e+00	 1.016884e+01
0	 6.222222e+00	 5.777778e+00	 1.016449e+01
0	 6.222222e+00	 5.851852e+00	 1.016014e+01
0	 6.222222e+00	 5.925926e+00	 1.015578e+01
0	 6.296296e+00	 5.555556e+00	 1.017327e+01
0	 6.296296e+00	 5.629630e+00	 1.016909e+01
0	 6.296296e+00	 5.703704e+00	 1.016491e+01
0	 6.296296e+00	 5.777778e+00	 1.016073e+01
0	 6.296296e+00	 5.851852e+00	 1.015653e+01
0	 6.296296e+00	 5.925926e+00	 1.015232e+01
0	 5.925926e+00	 5.925926e+00	 1.016845e+01
0	 5.925926e+00	 6.000000e+00	 1.016350e+01
0	 5.925926e+00	 6.074074e+00	 1.015861e+01
0	 5.925926e+00	 6.148148e+00	 1.015375e+01
0	 5.925926e+00	 6.222222e+00	 1.014893e+01
0	 5.925926e+00	 6.296296e+00	 1.014414e+01
0	 6.000000e+00	 5.925926e+00	 1.016548e+01
0	 6.000000e+00	 6.000000e+00	 1.016069e+01
0	 6.000000e+00	 6.074074e+00	 1.015593e+01
0	 6.000000e+00	 6.148148e+00	 1.015121e+01
0	 6.000000e+00	 6.222222e+00	 1.014652e+01
0	 6.000000e+00	 6.296296e+00	 1.014186e+01
0	 6.074074e+00	 5.925926e+00	 1.016237e+01
0	 6.074074e+00	 6.000000e+00	 1.015772e+01
0	 6.074074e+00	 6.074074e+00	 1.015311e+01
0	 6.074074e+00	 6.148148e+00	 1.014853e+01
0	 6.074074e+00	 6.222222e+00	 1.014397e+01
0	 6.074074e+00	 6.296296e+00	 1.013944e+01
0	 6.148148e+00	 5.925926e+00	 1.015913e+01
0	 6.148148e+00	 6.000000e+00	 1.015463e+01
0	 6.148148e+00	 6.074074e+00	 1.015016e+01
0	 6.148148e+00	 6.148148e+00	 1.014572e+01
0	 6.148148e+00	 6.222222e+00	 1.014130e+01
0	 6.148148e+00	 6.296296e+00	 1.013689e+01
0	 6.222222e+00	 5.925926e+00	 1.015578e+01
0	 6.222222e+00	 6.000000e+00	 1.015143e+01
0	 6.222222e+00	 6.074074e+00	 1.014710e+01
0	 6.222222e+00	 6.148148e+00	 1.014280e+01
0	 6.222222e+00	 6.222222e+00	 1.013851e+01
0	 6.222222e+00	 6.296296e+00	 1.013423e+01
0	 6.296296e+00	 5.925926e+00	 1.015232e+01
0	 6.296296e+00	 6.000000e+00	 1.014812e+01
0	 6.296296e+00	 6.074074e+00	 1.014394e+01
0	 6.296296e+00	 6.148148e+00	 1.013977e+01
0	 6.296296e+00	 6.222222e+00	 1.013562e+01
0	 6.296296e+00	 6.296296e+00	 1.013148e+01
0	 5.925926e+00	 6.296296e+00	 1.014414e+01
0	 5.925926e+00	 6.370370e+00	 1.013940e+01
0	 5.925926e+00	 6.444444e+00	 1.013471e+01
0	 5.925926e+00	 6.518519e+00	 1.013009e+01
0	 5.925926e+00	 6.592593e+00	 1.012551e+01
0	 5.925926e+00	 6.666667e+00	 1.012097e+01
0	 6.000000e+00	 6.296296e+00	 1.014186e+01
0	 6.000000e+00	 6.370370e+00	 1.013723e+01
0	 6.000000e+00	 6.444444e+00	 1.013267e+01
0	 6.000000e+00	 6.518519e+00	 1.012815e+01
0	 6.000000e+00	 6.592593e+00	 1.012367e+01
0	 6.000000e+00	 6.666667e+00	 1.011924e+01
0	 6.074074e+00	 6.296296e+00	 1.013944e+01
0	 6.074074e+00	 6.370370e+00	 1.013494e+01
0	 6.074074e+00	 6.444444e+00	 1.013048e+01
0	 6.074074e+00	 6.518519e+00	 1.012608e+01
0	 6.074074e+00	 6.592593e+00	 1.012171e+01
0	 6.074074e+00	 6.666667e+00	 1.011739e+01
0	 6.148148e+00	 6.296296e+00	 1.013689e+01
0	 6.148148e+00	 6.370370e+00	 1.013251e+01
0	 6.148148e+00	 6.444444e+00	 1.012818e+01
0	 6.148148e+00	 6.518519e+00	 1.012389e+01
0	 6.148148e+00	 6.592593e+00	 1.011964e+01
0	 6.148148e+00	 6.666667e+00	 1.011542e+01
0	 6.222222e+00	 6.296296e+00	 1.013423e+01
0	 6.222222e+00	 6.370370e+00	 1.012998e+01
0	 6.222222e+00	 6.444444e+00	 1.012577e+01
0	 6.222222e+00	 6.518519e+00	 1.012160e+01
0	 6.222222e+00	 6.592593e+00	 1.011746e+01
0	 6.222222e+00	 6.666667e+00	 1.011334e+01
0	 6.296296e+00	 6.296296e+00	 1.013148e+01
0	 6.296296e+00	 6.370370e+00	 1.012735e+01
0	 6.296296e+00	 6.444444e+00	 1.012326e+01
0	 6.296296e+00	 6.518519e+00	 1.011921e+01
0	 6.296296e+00	 6.592593e+00	 1.011518e+01
0	 6.296296e+00	 6.666667e+00	 1.011118e+01
0	 5.925926e+00	 6.666667e+00	 1.012097e+01
0	 5.925926e+00	 6.740741e+00	 1.011650e+01
0	 5.925926e+00	 6.814815e+00	 1.011209e+01
0	 5.925926e+00	 6.888889e+00	 1.010774e+01
0	 5.925926e+00	 6.962963e+00	 1.010346e+01
0	 5.925926e+00	 7.037037e+00	 1.009923e+01
0	 6.000000e+00	 6.666667e+00	 1.011924e+01
0	 6.000000e+00	 6.740741e+00	 1.011486e+01
0	 6.000000e+00	 6.814815e+00	 1.011055e+01
0	 6.000000e+00	 6.888889e+00	 1.010629e+01
0	 6.000000e+00	 6.962963e+00	 1.010209e+01
0	 6.000000e+00	 7.037037e+00	 1.009794e+01
0	 6.074074e+00	 6.666667e+00	 1.011739e+01
0	 6.074074e+00	 6.740741e+00	 1.011311e+01
0	 6.074074e+00	 6.814815e+00	 1.010889e+01
0	 6.074074e+00	 6.888889e+00	 1.010472e+01
0	 6.074074e+00	 6.962963e+00	 1.010061e+01
0	 6.074074e+00	 7.037037e+00	 1.009654e+01
0	 6.148148e+00	 6.666667e+00	 1.011542e+01
0	 6.148148e+00	 6.740741e+00	 1.011124e+01
0	 6.148148e+00	 6.814815e+00	 1.010712e+01
0	 6.148148e+00	 6.888889e+00	 1.010304e+01
0	 6.148148e+00	 6.962963e+00	 1.009902e+01
0	 6.148148e+00	 7.037037e+00	 1.009504e+01
0	 6.222222e+00	 6.666667e+00	 1.011334e+01
0	 6.222222e+00	 6.740741e+00	 1.010927e+01
0	 6.222222e+00	 6.814815e+00	 1.010525e+01
0	 6.222222e+00	 6.888889e+00	 1.010127e+01
0	 6.222222e+00	 6.962963e+00	 1.009734e+01
0	 6.222222e+00	 7.037037e+00	 1.009345e+01
0	 6.296296e+00	 6.666667e+00	 1.011118e+01
0	 6.296296e+00	 6.740741e+00	 1.010721e+01
0	 6.296296e+00	 6.814815e+00	 1.010329e+01
0	 6.296296e+00	 6.888889e+00	 1.009942e+01
0	 6.296296e+00	 6.962963e+00	 1.009558e+01
0	 6.296296e+00	 7.037037e+00	 1.009178e+01
0	 5.925926e+00	 7.037037e+00	 1.009923e+01
0	 5.925926e+00	 7.111111e+00	 1.009506e+01
0	 5.925926e+00	 7.185185e+00	 1.009097e+01
0	 5.925926e+00	 7.259259e+00	 1.008695e+01
0	 5.925926e+00	 7.333333e+00	 1.008299e+01
0	 5.925926e+00	 7.407407e+00	 1.007910e+01
0	 6.000000e+00	 7.037037e+00	 1.009794e+01
0	 6.000000e+00	 7.111111e+00	 1.009385e+01
0	 6.000000e+00	 7.185185e+00	 1.008983e+01
0	 6.000000e+00	 7.259259e+00	 1.008588e+01
0	 6.000000e+00	 7.333333e+00	 1.008199e+01
0	 6.000000e+00	 7.407407e+00	 1.007816e+01
0	 6.074074e+00	 7.037037e+00	 1.009654e+01
0	 6.074074e+00	 7.111111e+00	 1.009253e+01
0	 6.074074e+00	 7.185185e+00	 1.008859e+01
0	 6.074074e+00	 7.259259e+00	 1.008471e+01
0	 6.074074e+00	 7.333333e+00	 1.008089e+01
0	 6.074074e+00	 7.407407e+00	 1.007712e+01
0	 6.148148e+00	 7.037037e+00	 1.009504e+01
0	 6.148148e+00	 7.111111e+00	 1.009112e+01
0	 6.148148e+00	 7.185185e+00	 1.008725e+01
0	 6.148148e+00	 7.259259e+00	 1.008345e+01
0	 6.148148e+00	 7.333333e+00	 1.007970e+01
0	 6.148148e+00	 7.407407e+00	 1.007601e+01
0	 6.222222e+00	 7.037037e+00	 1.009345e+01
0	 6.222222e+00	 7.111111e+00	 1.008961e+01
0	 6.222222e+00	 7.185185e+00	 1.008583e+01
0	 6.222222e+00	 7.259259e+00	 1.008211e+01
0	 6.222222e+00	 7.333333e+00	 1.007843e+01
0	 6.222222e+00	 7.407407e+00	 1.007481e+01
0	 6.296296e+00	 7.037037e+00	 1.009178e+01
0	 6.296296e+00	 7.111111e+00	 1.008803e+01
0	 6.296296e+00	 7.185185e+00	 1.008434e+01
0	 6.296296e+00	 7.259259e+00	 1.008069e+01
0	 6.296296e+00	 7.333333e+00	 1.007710e+01
0	 6.296296e+00	 7.407407e+00	 1.007355e+01
0	 5.925926e+00	 7.407407e+00	 1.007910e+01
0	 5.925926e+00	 7.481481e+00	 1.007528e+01
0	 5.925926e+00	 7.555556e+00	 1.007154e+01
0	 5.925926e+00	 7.629630e+00	 1.006787e+01
0	 5.925926e+00	 7.703704e+00	 1.006427e+01
0	 5.925926e+00	 7.777778e+00	 1.006074e+01
0	 6.000000e+00	 7.407407e+00	 1.007816e+01
0	 6.000000e+00	 7.481481e+00	 1.007439e+01
0	 6.000000e+00	 7.555556e+00	 1.007071e+01
0	 6.000000e+00	 7.629630e+00	 1.006709e+01
0	 6.000000e+00	 7.703704e+00	 1.006354e+01
0	 6.000000e+00	 7.777778e+00	 1.006006e+01
0	 6.074074e+00	 7.407407e+00	 1.007712e+01
0	 6.074074e+00	 7.481481e+00	 1.007342e+01
0	 6.074074e+00	 7.555556e+00	 1.006980e+01
0	 6.074074e+00	 7.629630e+00	 1.006624e+01
0	 6.074074e+00	 7.703704e+00	 1.006274e+01
0	 6.074074e+00	 7.777778e+00	 1.005931e+01
0	 6.148148e+00	 7.407407e+00	 1.007601e+01
0	 6.148148e+00	 7.481481e+00	 1.007237e+01
0	 6.148148e+00	 7.555556e+00	 1.006881e+01
0	 6.148148e+00	 7.629630e+00	 1.006531e+01
0	 6.148148e+00	 7.703704e+00	 1.006188e+01
0	 6.148148e+00	 7.777778e+00	 1.005850e+01
0	 6.222222e+00	 7.407407e+00	 1.007481e+01
0	 6.222222e+00	 7.481481e+00	 1.007125e+01
0	 6.222222e+00	 7.555556e+00	 1.006775e+01
0	 6.222222e+00	 7.629630e+00	 1.006432e+01
0	 6.222222e+00	 7.703704e+00	 1.006094e+01
0	 6.222222e+00	 7.777778e+00	 1.005763e+01
0	 6.296296e+00	 7.407407e+00	 1.007355e+01
0	 6.296296e+00	 7.481481e+00	 1.007006e+01
0	 6.296296e+00	 7.555556e+00	 1.006663e+01
0	 6.296296e+00	 7.629630e+00	 1.006326e+01
0	 6.296296e+00	 7.703704e+00	 1.005995e+01
0	 6.296296e+00	 7.777778e+00	 1.005670e+01
0	 5.925926e+00	 7.777778e+00	 1.006074e+01
0	 5.925926e+00	 7.851852e+00	 1.005728e+01
0	 5.925926e+00	 7.925926e+00	 1.005391e+01
0	 5.925926e+00	 8.000000e+00	 1.005063e+01
0	 5.925926e+00	 8.074074e+00	 1.004741e+01
0	 5.925926e+00	 8.148148e+00	 1.004427e+01
0	 6.000000e+00	 7.777778e+00	 1.006006e+01
0	 6.000000e+00	 7.851852e+00	 1.005665e+01
0	 6.000000e+00	 7.925926e+00	 1.005333e+01
0	 6.000000e+00	 8.000000e+00	 1.005008e+01
0	 6.000000e+00	 8.074074e+00	 1.004691e+01
0	 6.000000e+00	 8.148148e+00	 1.004381e+01
0	 6.074074e+00	 7.777778e+00	 1.005931e+01
0	 6.074074e+00	 7.851852e+00	 1.005596e+01
0	 6.074074e+00	 7.925926e+00	 1.005268e+01
0	 6.074074e+00	 8.000000e+00	 1.004947e+01
0	 6.074074e+00	 8.074074e+00	 1.004634e+01
0	 6.074074e+00	 8.148148e+00	 1.004328e+01
0	 6.148148e+00	 7.777778e+00	 1.005850e+01
0	 6.148148e+00	 7.851852e+00	 1.005519e+01
0	 6.148148e+00	 7.925926e+00	 1.005197e+01
0	 6.148148e+00	 8.000000e+00	 1.004881e+01
0	 6.148148e+00	 8.074074e+00	 1.004573e+01
0	 6.148148e+00	 8.148148e+00	 1.004271e+01
0	 6.222222e+00	 7.777778e+00	 1.005763e+01
0	 6.222222e+00	 7.851852e+00	 1.005438e+01
0	 6.222222e+00	 7.925926e+00	 1.005120e+01
0	 6.222222e+00	 8.000000e+00	 1.004810e+01
0	 6.222222e+00	 8.074074e+00	 1.004507e+01
0	 6.222222e+00	 8.148148e+00	 1.004210e+01
0	 6.296296e+00	 7.777778e+00	 1.005670e+01
0	 6.296296e+00	 7.851852e+00	 1.005351e+01
0	 6.296296e+00	 7.925926e+00	 1.005039e+01
0	 6.296296e+00	 8.000000e+00	 1.004734e+01
0	 6.296296e+00	 8.074074e+00	 1.004436e+01
0	 6.296296e+00	 8.148148e+00	 1.004144e+01
0	 5.925926e+00	 8.148148e+00	 1.004427e+01
0	 5.925926e+00	 8.222222e+00	 1.004122e+01
0	 5.925926e+00	 8.296296e+00	 1.003826e+01
0	 5.925926e+00	 8.370370e+00	 1.003538e+01
0	 5.925926e+00	 8.444444e+00	 1.003259e+01
0	 5.925926e+00	 8.518519e+00	 1.002988e+01
0	 6.000000e+00	 8.148148e+00	 1.004381e+01
0	 6.000000e+00	 8.222222e+00	 1.004079e+01
0	 6.000000e+00	 8.296296e+00	 1.003786e+01
0	 6.000000e+00	 8.370370e+00	 1.003502e+01
0	 6.000000e+00	 8.444444e+00	 1.003226e+01
0	 6.000000e+00	 8.518519e+00	 1.002958e+01
0	 6.074074e+00	 8.148148e+00	 1.004328e+01
0	 6.074074e+00	 8.222222e+00	 1.004030e+01
0	 6.074074e+00	 8.296296e+00	 1.003741e+01
0	 6.074074e+00	 8.370370e+00	 1.003460e+01
0	 6.074074e+00	 8.444444e+00	 1.003188e+01
0	 6.074074e+00	 8.518519e+00	 1.002923e+01
0	 6.148148e+00	 8.148148e+00	 1.004271e+01
0	 6.148148e+00	 8.222222e+00	 1.003977e+01
0	 6.148148e+00	 8.296296e+00	 1.003692e+01
0	 6.148148e+00	 8.370370e+00	 1.003415e+01
0	 6.148148e+00	 8.444444e+00	 1.003147e+01
0	 6.148148e+00	 8.518519e+00	 1.002885e+01
0	 6.222222e+00	 8.148148e+00	 1.004210e+01
0	 6.222222e+00	 8.222222e+00	 1.003920e+01
0	 6.222222e+00	 8.296296e+00	 1.003639e+01
0	 6.222222e+00	 8.370370e+00	 1.003367e+01
0	 6.222222e+00	 8.444444e+00	 1.003102e+01
0	 6.222222e+00	 8.518519e+00	 1.002844e+01
0	 6.296296e+00	 8.148148e+00	 1.004144e+01
0	 6.296296e+00	 8.222222e+00	 1.003859e+01
0	 6.296296e+00	 8.296296e+00	 1.003583e+01
0	 6.296296e+00	 8.370370e+00	 1.003315e+01
0	 6.296296e+00	 8.444444e+00	 1.003054e+01
0	 6.296296e+00	 8.518519e+00	 1.002801e+01
0	 5.925926e+00	 8.518519e+00	 1.002988e+01
0	 5.925926e+00	 8.592593e+00	 1.002727e+01
0	 5.925926e+00	 8.666667e+00	 1.002476e+01
0	 5.925926e+00	 8.740741e+00	 1.002235e+01
0	 5.925926e+00	 8.814815e+00	 1.002004e+01
0	 5.925926e+00	 8.888889e+00	 1.001782e+01
0	 6.000000e+00	 8.518519e+00	 1.002958e+01
0	 6.000000e+00	 8.592593e+00	 1.002699e+01
0	 6.000000e+00	 8.666667e+00	 1.002451e+01
0	 6.000000e+00	 8.740741e+00	 1.002212e+01
0	 6.000000e+00	 8.814815e+00	 1.001983e+01
0	 6.000000e+00	 8.888889e+00	 1.001763e+01
0	 6.074074e+00	 8.518519e+00	 1.002923e+01
0	 6.074074e+00	 8.592593e+00	 1.002667e+01
0	 6.074074e+00	 8.666667e+00	 1.002422e+01
0	 6.074074e+00	 8.740741e+00	 1.002186e+01
0	 6.074074e+00	 8.814815e+00	 1.001960e+01
0	 6.074074e+00	 8.888889e+00	 1.001743e+01
0	 6.148148e+00	 8.518519e+00	 1.002885e+01
0	 6.148148e+00	 8.592593e+00	 1.002633e+01
0	 6.148148e+00	 8.666667e+00	 1.002391e+01
0	 6.148148e+00	 8.740741e+00	 1.002158e+01
0	 6.148148e+00	 8.814815e+00	 1.001935e+01
0	 6.148148e+00	 8.888889e+00	 1.001720e+01
0	 6.222222e+00	 8.518519e+00	 1.002844e+01
0	 6.222222e+00	 8.592593e+00	 1.002596e+01
0	 6.222222e+00	 8.666667e+00	 1.002357e+01
0	 6.222222e+00	 8.740741e+00	 1.002128e+01
0	 6.222222e+00	 8.814815e+00	 1.001907e+01
0	 6.222222e+00	 8.888889e+00	 1.001696e+01
0	 6.296296e+00	 8.518519e+00	 1.002801e+01
0	 6.296296e+00	 8.592593e+00	 1.002556e+01
0	 6.296296e+00	 8.666667e+00	 1.002321e+01
0	 6.296296e+00	 8.740741e+00	 1.002095e+01
0	 6.296296e+00	 8.814815e+00	 1.001878e+01
0	 6.296296e+00	 8.888889e+00	 1.001670e+01
0	 5.925926e+00	 8.888889e+00	 1.001782e+01
0	 5.925926e+00	 8.962963e+00	 1.001570e+01
0	 5.925926e+00	 9.037037e+00	 1.001372e+01
0	 5.925926e+00	 9.111111e+00	 1.001185e+01
0	 5.925926e+00	 9.185185e+00	 1.001009e+01
0	 5.925926e+00	 9.259259e+00	 1.000843e+01
0	 6.000000e+00	 8.888889e+00	 1.001763e+01
0	 6.000000e+00	 8.962963e+00	 1.001554e+01
0	 6.000000e+00	 9.037037e+00	 1.001357e+01
0	 6.000000e+00	 9.111111e+00	 1.001172e+01
0	 6.000000e+00	 9.185185e+00	 1.000998e+01
0	 6.000000e+00	 9.259259e+00	 1.000834e+01
0	 6.074074e+00	 8.888889e+00	 1.001743e+01
0	 6.074074e+00	 8.962963e+00	 1.001536e+01
0	 6.074074e+00	 9.037037e+00	 1.001341e+01
0	 6.074074e+00	 9.111111e+00	 1.001158e+01
0	 6.074074e+00	 9.185185e+00	 1.000986e+01
0	 6.074074e+00	 9.259259e+00	 1.000824e+01
0	 6.148148e+00	 8.888889e+00	 1.001720e+01
0	 6.148148e+00	 8.962963e+00	 1.001516e+01
0	 6.148148e+00	 9.037037e+00	 1.001324e+01
0	 6.148148e+00	 9.111111e+00	 1.001143e+01
0	 6.148148e+00	 9.185185e+00	 1.000973e+01
0	 6.148148e+00	 9.259259e+00	 1.000813e+01
0	 6.222222e+00	 8.888889e+00	 1.001696e+01
0	 6.222222e+00	 8.962963e+00	 1.001494e+01
0	 6.222222e+00	 9.037037e+00	 1.001305e+01
0	 6.222222e+00	 9.111111e+00	 1.001127e+01
0	 6.222222e+00	 9.185185e+00	 1.000959e+01
0	 6.222222e+00	 9.259259e+00	 1.000802e+01
0	 6.296296e+00	 8.888889e+00	 1.001670e+01
0	 6.296296e+00	 8.962963e+00	 1.001471e+01
0	 6.296296e+00	 9.037037e+00	 1.001285e+01
0	 6.296296e+00	 9.111111e+00	 1.001109e+01
0	 6.296296e+00	 9.185185e+00	 1.000944e+01
0	 6.296296e+00	 9.259259e+00	 1.000789e+01
0	 5.925926e+00	 9.259259e+00	 1.000843e+01
0	 5.925926e+00	 9.333333e+00	 1.000691e+01
0	 5.925926e+00	 9.407407e+00	 1.000554e+01
0	 5.925926e+00	 9.481481e+00	 1.000431e+01
0	 5.925926e+00	 9.555556e+00	 1.000322e+01
0	 5.925926e+00	 9.629630e+00	 1.000226e+01
0	 6.000000e+00	 9.259259e+00	 1.000834e+01
0	 6.000000e+00	 9.333333e+00	 1.000684e+01
0	 6.000000e+00	 9.407407e+00	 1.000548e+01
0	 6.000000e+00	 9.481481e+00	 1.000427e+01
0	 6.000000e+00	 9.555556e+00	 1.000319e+01
0	 6.000000e+00	 9.629630e+00	 1.000223e+01
0	 6.074074e+00	 9.259259e+00	 1.000824e+01
0	 6.074074e+00	 9.333333e+00	 1.000675e+01
0	 6.074074e+00	 9.407407e+00	 1.000541e+01
0	 6.074074e+00	 9.481481e+00	 1.000421e+01
0	 6.074074e+00	 9.555556e+00	 1.000315e+01
0	 6.074074e+00	 9.629630e+00	 1.000221e+01
0	 6.148148e+00	 9.259259e+00	 1.000813e+01
0	 6.148148e+00	 9.333333e+00	 1.000666e+01
0	 6.148148e+00	 9.407407e+00	 1.000534e+01
0	 6.148148e+00	 9.481481e+00	 1.000415e+01
0	 6.148148e+00	 9.555556e+00	 1.000310e+01
0	 6.148148e+00	 9.629630e+00	 1.000217e+01
0	 6.222222e+00	 9.259259e+00	 1.000802e+01
0	 6.222222e+00	 9.333333e+00	 1.000657e+01
0	 6.222222e+00	 9.407407e+00	 1.000526e+01
0	 6.222222e+00	 9.481481e+00	 1.000409e+01
0	 6.222222e+00	 9.555556e+00	 1.000306e+01
0	 6.222222e+00	 9.629630e+00	 1.000214e+01
0	 6.296296e+00	 9.259259e+00	 1.000789e+01
0	 6.296296e+00	 9.333333e+00	 1.000646e+01
0	 6.296296e+00	 9.407407e+00	 1.000518e+01
0	 6.296296e+00	 9.481481e+00	 1.000403e+01
0	 6.296296e+00	 9.555556e+00	 1.000301e+01
0	 6.296296e+00	 9.629630e+00	 1.000211e+01
0	 5.925926e+00	 9.629630e+00	 1.000226e+01
0	 5.925926e+00	 9.703704e+00	 1.000145e+01
0	 5.925926e+00	 9.777778e+00	 1.000083e+01
0	 5.925926e+00	 9.851852e+00	 1.000039e+01
0	 5.925926e+00	 9.925926e+00	 1.000010e+01
0	 5.925926e+00	 1.000000e+01	 9.999977e+00
0	 6.000000e+00	 9.629630e+00	 1.000223e+01
0	 6.000000e+00	 9.703704e+00	 1.000144e+01
0	 6.000000e+00	 9.777778e+00	 1.000082e+01
0	 6.000000e+00	 9.851852e+00	 1.000038e+01
0	 6.000000e+00	 9.925926e+00	 1.000010e+01
0	 6.000000e+00	 1.000000e+01	 9.999979e+00
0	 6.074074e+00	 9.629630e+00	 1.000221e+01
0	 6.074074e+00	 9.703704e+00	 1.000142e+01
0	 6.074074e+00	 9.777778e+00	 1.000081e+01
0	 6.074074e+00	 9.851852e+00	 1.000038e+01
0	 6.074074e+00	 9.925926e+00	 1.000010e+01
0	 6.074074e+00	 1.000000e+01	 9.999979e+00
0	 6.148148e+00	 9.629630e+00	 1.000217e+01
0	 6.148148e+00	 9.703704e+00	 1.000140e+01
0	 6.148148e+00	 9.777778e+00	 1.000080e+01
0	 6.148148e+00	 9.851852e+00	 1.000037e+01
0	 6.148148e+00	 9.925926e+00	 1.000010e+01
0	 6.148148e+00	 1.000000e+01	 9.999978e+00
0	 6.222222e+00	 9.629630e+00	 1.000214e+01
0	 6.222222e+00	 9.703704e+00	 1.000138e+01
0	 6.222222e+00	 9.777778e+00	 1.000079e+01
0	 6.222222e+00	 9.851852e+00	 1.000036e+01
0	 6.222222e+00	 9.925926e+00	 1.000010e+01
0	 6.222222e+00	 1.000000e+01	 9.999978e+00
0	 6.296296e+00	 9.629630e+00	 1.000211e+01
0	 6.296296e+00	 9.703704e+00	 1.000135e+01
0	 6.296296e+00	 9.777778e+00	 1.000077e+01
0	 6.296296e+00	 9.851852e+00	 1.000036e+01
0	 6.296296e+00	 9.925926e+00	 1.000010e+01
0	 6.296296e+00	 1.000000e+01	 9.999980e+00
0	 6.296296e+00	 0.000000e+00	 1.016279e+01
0	 6.296296e+00	 7.407407e-02	 1.016293e+01
0	 6.296296e+00	 1.481481e-01	 1.016335e+01
0	 6.296296e+00	 2.222222e-01	 1.016405e+01
0	 6.296296e+00	 2.962963e-01	 1.016504e+01
0	 6.296296e+00	 3.703704e-01	 1.016633e+01
0	 6.370370e+00	 0.000000e+00	 1.015447e+01
0	 6.370370e+00	 7.407407e-02	 1.015461e+01
0	 6.370370e+00	 1.481481e-01	 1.015501e+01
0	 6.370370e+00	 2.222222e-01	 1.015568e+01
0	 6.370370e+00	 2.962963e-01	 1.015663e+01
0	 6.370370e+00	 3.703704e-01	 1.015787e+01
0	 6.444444e+00	 0.000000e+00	 1.014620e+01
0	 6.444444e+00	 7.407407e-02	 1.014633e+01
0	 6.444444e+00	 1.481481e-01	 1.014672e+01
0	 6.444444e+00	 2.222222e-01	 1.014737e+01
0	 6.444444e+00	 2.962963e-01	 1.014828e+01
0	 6.444444e+00	 3.703704e-01	 1.014947e+01
0	 6.518519e+00	 0.000000e+00	 1.013797e+01
0	 6.518519e+00	 7.407407e-02	 1.013810e+01
0	 6.518519e+00	 1.481481e-01	 1.013847e+01
0	 6.518519e+00	 2.222222e-01	 1.013910e+01
0	 6.518519e+00	 2.962963e-01	 1.013997e+01
0	 6.518519e+00	 3.703704e-01	 1.014111e+01
0	 6.592593e+00	 0.000000e+00	 1.012979e+01
0	 6.592593e+00	 7.407407e-02	 1.012991e+01
0	 6.592593e+00	 1.481481e-01	 1.013027e+01
0	 6.592593e+00	 2.222222e-01	 1.013087e+01
0	 6.592593e+00	 2.962963e-01	 1.013171e+01
0	 6.592593e+00	 3.703704e-01	 1.013279e+01
0	 6.666667e+00	 0.000000e+00	 1.012165e+01
0	 6.666667e+00	 7.407407e-02	 1.012176e+01
0	 6.666667e+00	 1.481481e-01	 1.012211e+01
0	 6.666667e+00	 2.222222e-01	 1.012268e+01
0	 6.666667e+00	 2.962963e-01	 1.012348e+01
0	 6.666667e+00	 3.703704e-01	 1.012452e+01
0	 6.296296e+00	 3.703704e-01	 1.016633e+01
0	 6.296296e+00	 4.444444e-01	 1.016787e+01
0	 6.296296e+00	 5.185185e-01	 1.016963e+01
0	 6.296296e+00	 5.925926e-01	 1.017163e+01
0	 6.296296e+00	 6.666667e-01	 1.017388e+01
0	 6.296296e+00	 7.407407e-01	 1.017638e+01
0	 6.370370e+00	 3.703704e-01	 1.015787e+01
0	 6.370370e+00	 4.444444e-01	 1.015935e+01
0	 6.370370e+00	 5.185185e-01	 1.016104e+01
0	 6.370370e+00	 5.925926e-01	 1.016295e+01
0	 6.370370e+00	 6.666667e-01	 1.016510e+01
0	 6.370370e+00	 7.407407e-01	 1.016750e+01
0	 6.444444e+00	 3.703704e-01	 1.014947e+01
0	 6.444444e+00	 4.444444e-01	 1.015088e+01
0	 6.444444e+00	 5.185185e-01	 1.015250e+01
0	 6.444444e+00	 5.925926e-01	 1.015434e+01
0	 6.444444e+00	 6.666667e-01	 1.015640e+01
0	 6.444444e+00	 7.407407e-01	 1.015870e+01
0	 6.518519e+00	 3.703704e-01	 1.014111e+01
0	 6.518519e+00	 4.444444e-01	 1.014247e+01
0	 6.518519e+00	 5.185185e-01	 1.014402e+01
0	 6.518519e+00	 5.925926e-01	 1.014578e+01
0	 6.518519e+00	 6.666667e-01	 1.014776e+01
0	 6.518519e+00	 7.407407e-01	 1.014997e+01
0	 6.592593e+00	 3.703704e-01	 1.013279e+01
0	 6.592593e+00	 4.444444e-01	 1.013409e+01
0	 6.592593e+00	 5.185185e-01	 1.013558e+01
0	 6.592593e+00	 5.925926e-01	 1.013727e+01
0	 6.592593e+00	 6.666667e-01	 1.013917e+01
0	 6.592593e+00	 7.407407e-01	 1.014130e+01
0	 6.666667e+00	 3.703704e-01	 1.012452e+01
0	 6.666667e+00	 4.444444e-01	 1.012576e+01
0	 6.666667e+00	 5.185185e-01	 1.012719e+01
0	 6.666667e+00	 5.925926e-01	 1.012882e+01
0	 6.666667e+00	 6.666667e-01	 1.013065e+01
0	 6.666667e+00	 7.407407e-01	 1.013269e+01
0	 6.296296e+00	 7.407407e-01	 1.017638e+01
0	 6.296296e+00	 8.148148e-01	 1.017908e+01
0	 6.296296e+00	 8.888889e-01	 1.018190e+01
0	 6.296296e+00	 9.629630e-01	 1.018487e+01
0	 6.296296e+00	 1.037037e+00	 1.018801e+01
0	 6.296296e+00	 1.111111e+00	 1.019134e+01
0	 6.370370e+00	 7.407407e-01	 1.016750e+01
0	 6.370370e+00	 8.148148e-01	 1.017008e+01
0	 6.370370e+00	 8.888889e-01	 1.017279e+01
0	 6.370370e+00	 9.629630e-01	 1.017564e+01
0	 6.370370e+00	 1.037037e+00	 1.017866e+01
0	 6.370370e+00	 1.111111e+00	 1.018186e+01
0	 6.444444e+00	 7.407407e-01	 1.015870e+01
0	 6.444444e+00	 8.148148e-01	 1.016117e+01
0	 6.444444e+00	 8.888889e-01	 1.016378e+01
0	 6.444444e+00	 9.629630e-01	 1.016652e+01
0	 6.444444e+00	 1.037037e+00	 1.016942e+01
0	 6.444444e+00	 1.111111e+00	 1.017250e+01
0	 6.518519e+00	 7.407407e-01	 1.014997e+01
0	 6.518519e+00	 8.148148e-01	 1.015235e+01
0	 6.518519e+00	 8.888889e-01	 1.015485e+01
0	 6.518519e+00	 9.629630e-01	 1.015749e+01
0	 6.518519e+00	 1.037037e+00	 1.016028e+01
0	 6.518519e+00	 1.111111e+00	 1.016325e+01
0	 6.592593e+00	 7.407407e-01	 1.014130e+01
0	 6.592593e+00	 8.148148e-01	 1.014359e+01
0	 6.592593e+00	 8.888889e-01	 1.014600e+01
0	 6.592593e+00	 9.629630e-01	 1.014854e+01
0	 6.592593e+00	 1.037037e+00	 1.015124e+01
0	 6.592593e+00	 1.111111e+00	 1.015409e+01
0	 6.666667e+00	 7.407407e-01	 1.013269e+01
0	 6.666667e+00	 8.148148e-01	 1.013490e+01
0	 6.666667e+00	 8.888889e-01	 1.013722e+01
0	 6.666667e+00	 9.629630e-01	 1.013967e+01
0	 6.666667e+00	 1.037037e+00	 1.014226e+01
0	 6.666667e+00	 1.111111e+00	 1.014502e+01
0	 6.296296e+00	 1.111111e+00	 1.019134e+01
0	 6.296296e+00	 1.185185e+00	 1.019478e+01
0	 6.296296e+00	 1.259259e+00	 1.019823e+01
0	 6.296296e+00	 1.333333e+00	 1.020172e+01
0	 6.296296e+00	 1.407407e+00	 1.020528e+01
0	 6.296296e+00	 1.481481e+00	 1.020893e+01
0	 6.370370e+00	 1.111111e+00	 1.018186e+01
0	 6.370370e+00	 1.185185e+00	 1.018516e+01
0	 6.370370e+00	 1.259259e+00	 1.018848e+01
0	 6.370370e+00	 1.333333e+00	 1.019185e+01
0	 6.370370e+00	 1.407407e+00	 1.019529e+01
0	 6.370370e+00	 1.481481e+00	 1.019882e+01
0	 6.444444e+00	 1.111111e+00	 1.017250e+01
0	 6.444444e+00	 1.185185e+00	 1.017567e+01
0	 6.444444e+00	 1.259259e+00	 1.017888e+01
0	 6.444444e+00	 1.333333e+00	 1.018213e+01
0	 6.444444e+00	 1.407407e+00	 1.018545e+01
0	 6.444444e+00	 1.481481e+00	 1.018887e+01
0	 6.518519e+00	 1.111111e+00	 1.016325e+01
0	 6.518519e+00	 1.185185e+00	 1.016631e+01
0	 6.518519e+00	 1.259259e+00	 1.016940e+01
0	 6.518519e+00	 1.333333e+00	 1.017254e+01
0	 6.518519e+00	 1.407407e+00	 1.017575e+01
0	 6.518519e+00	 1.481481e+00	 1.017905e+01
0	 6.592593e+00	 1.111111e+00	 1.015409e+01
0	 6.592593e+00	 1.185185e+00	 1.015704e+01
0	 6.592593e+00	 1.259259e+00	 1.016003e+01
0	 6.592593e+00	 1.333333e+00	 1.016307e+01
0	 6.592593e+00	 1.407407e+00	 1.016617e+01
0	 6.592593e+00	 1.481481e+00	 1.016937e+01
0	 6.666667e+00	 1.111111e+00	 1.014502e+01
0	 6.666667e+00	 1.185185e+00	 1.014787e+01
0	 6.666667e+00	 1.259259e+00	 1.015075e+01
0	 6.666667e+00	 1.333333e+00	 1.015369e+01
0	 6.666667e+00	 1.407407e+00	 1.015670e+01
0	 6.666667e+00	 1.481481e+00	 1.015979e+01
0	 6.296296e+00	 1.481481e+00	 1.020893e+01
0	 6.296296e+00	 1.555556e+00	 1.021258e+01
0	 6.296296e+00	 1.629630e+00	 1.021615e+01
0	 6.296296e+00	 1.703704e+00	 1.021966e+01
0	 6.296296e+00	 1.777778e+00	 1.022313e+01
0	 6.296296e+00	 1.851852e+00	 1.022658e+01
0	 6.370370e+00	 1.481481e+00	 1.019882e+01
0	 6.370370e+00	 1.555556e+00	 1.020235e+01
0	 6.370370e+00	 1.629630e+00	 1.020581e+01
0	 6.370370e+00	 1.703704e+00	 1.020922e+01
0	 6.370370e+00	 1.777778e+00	 1.021260e+01
0	 6.370370e+00	 1.851852e+00	 1.021596e+01
0	 6.444444e+00	 1.481481e+00	 1.018887e+01
0	 6.444444e+00	 1.555556e+00	 1.019229e+01
0	 6.444444e+00	 1.629630e+00	 1.019564e+01
0	 6.444444e+00	 1.703704e+00	 1.019896e+01
0	 6.444444e+00	 1.777778e+00	 1.020224e+01
0	 6.444444e+00	 1.851852e+00	 1.020552e+01
0	 6.518519e+00	 1.481481e+00	 1.017905e+01
0	 6.518519e+00	 1.555556e+00	 1.018237e+01
0	 6.518519e+00	 1.629630e+00	 1.018563e+01
0	 6.518519e+00	 1.703704e+00	 1.018885e+01
0	 6.518519e+00	 1.777778e+00	 1.019205e+01
0	 6.518519e+00	 1.851852e+00	 1.019524e+01
0	 6.592593e+00	 1.481481e+00	 1.016937e+01
0	 6.592593e+00	 1.555556e+00	 1.017258e+01
0	 6.592593e+00	 1.629630e+00	 1.017574e+01
0	 6.592593e+00	 1.703704e+00	 1.017888e+01
0	 6.592593e+00	 1.777778e+00	 1.018199e+01
0	 6.592593e+00	 1.851852e+00	 1.018511e+01
0	 6.666667e+00	 1.481481e+00	 1.015979e+01
0	 6.666667e+00	 1.555556e+00	 1.016291e+01
0	 6.666667e+00	 1.629630e+00	 1.016598e+01
0	 6.666667e+00	 1.703704e+00	 1.016903e+01
0	 6.666667e+00	 1.777778e+00	 1.017206e+01
0	 6.666667e+00	 1.851852e+00	 1.017511e+01
0	 6.296296e+00	 1.851852e+00	 1.022658e+01
0	 6.296296e+00	 1.925926e+00	 1.022995e+01
0	 6.296296e+00	 2.000000e+00	 1.023315e+01
0	 6.296296e+00	 2.074074e+00	 1.023620e+01
0	 6.296296e+00	 2.148148e+00	 1.023912e+01
0	 6.296296e+00	 2.222222e+00	 1.024194e+01
0	 6.370370e+00	 1.851852e+00	 1.021596e+01
0	 6.370370e+00	 1.925926e+00	 1.021925e+01
0	 6.370370e+00	 2.000000e+00	 1.022238e+01
0	 6.370370e+00	 2.074074e+00	 1.022538e+01
0	 6.370370e+00	 2.148148e+00	 1.022826e+01
0	 6.370370e+00	 2.222222e+00	 1.023104e+01
0	 6.444444e+00	 1.851852e+00	 1.020552e+01
0	 6.444444e+00	 1.925926e+00	 1.020873e+01
0	 6.444444e+00	 2.000000e+00	 1.021180e+01
0	 6.444444e+00	 2.074074e+00	 1.021474e+01
0	 6.444444e+00	 2.148148e+00	 1.021758e+01
0	 6.444444e+00	 2.222222e+00	 1.022033e+01
0	 6.518519e+00	 1.851852e+00	 1.019524e+01
0	 6.518519e+00	 1.925926e+00	 1.019838e+01
0	 6.518519e+00	 2.000000e+00	 1.020138e+01
0	 6.518519e+00	 2.074074e+00	 1.020428e+01
0	 6.518519e+00	 2.148148e+00	 1.020707e+01
0	 6.518519e+00	 2.222222e+00	 1.020978e+01
0	 6.592593e+00	 1.851852e+00	 1.018511e+01
0	 6.592593e+00	 1.925926e+00	 1.018818e+01
0	 6.592593e+00	 2.000000e+00	 1.019112e+01
0	 6.592593e+00	 2.074074e+00	 1.019396e+01
0	 6.592593e+00	 2.148148e+00	 1.019671e+01
0	 6.592593e+00	 2.222222e+00	 1.019939e+01
0	 6.666667e+00	 1.851852e+00	 1.017511e+01
0	 6.666667e+00	 1.925926e+00	 1.017810e+01
0	 6.666667e+00	 2.000000e+00	 1.018099e+01
0	 6.666667e+00	 2.074074e+00	 1.018378e+01
0	 6.666667e+00	 2.148148e+00	 1.018649e+01
0	 6.666667e+00	 2.222222e+00	 1.018913e+01
0	 6.296296e+00	 2.222222e+00	 1.024194e+01
0	 6.296296e+00	 2.296296e+00	 1.024460e+01
0	 6.296296e+00	 2.370370e+00	 1.024704e+01
0	 6.296296e+00	 2.444444e+00	 1.024928e+01
0	 6.296296e+00	 2.518519e+00	 1.025132e+01
0	 6.296296e+00	 2.592593e+00	 1.025319e+01
0	 6.370370e+00	 2.222222e+00	 1.023104e+01
0	 6.370370e+00	 2.296296e+00	 1.023367e+01
0	 6.370370e+00	 2.370370e+00	 1.023610e+01
0	 6.370370e+00	 2.444444e+00	 1.023834e+01
0	 6.370370e+00	 2.518519e+00	 1.024041e+01
0	 6.370370e+00	 2.592593e+00	 1.024230e+01
0	 6.444444e+00	 2.222222e+00	 1.022033e+01
0	 6.444444e+00	 2.296296e+00	 1.022294e+01
0	 6.444444e+00	 2.370370e+00	 1.022535e+01
0	 6.444444e+00	 2.444444e+00	 1.022759e+01
0	 6.444444e+00	 2.518519e+00	 1.022967e+01
0	 6.444444e+00	 2.592593e+00	 1.023159e+01
0	 6.518519e+00	 2.222222e+00	 1.020978e+01
0	 6.518519e+00	 2.296296e+00	 1.021237e+01
0	 6.518519e+00	 2.370370e+00	 1.021477e+01
0	 6.518519e+00	 2.444444e+00	 1.021701e+01
0	 6.518519e+00	 2.518519e+00	 1.021909e+01
0	 6.518519e+00	 2.592593e+00	 1.022103e+01
0	 6.592593e+00	 2.222222e+00	 1.019939e+01
0	 6.592593e+00	 2.296296e+00	 1.020195e+01
0	 6.592593e+00	 2.370370e+00	 1.020434e+01
0	 6.592593e+00	 2.444444e+00	 1.020657e+01
0	 6.592593e+00	 2.518519e+00	 1.020866e+01
0	 6.592593e+00	 2.592593e+00	 1.021062e+01
0	 6.666667e+00	 2.222222e+00	 1.018913e+01
0	 6.666667e+00	 2.296296e+00	 1.019166e+01
0	 6.666667e+00	 2.370370e+00	 1.019404e+01
0	 6.666667e+00	 2.444444e+00	 1.019627e+01
0	 6.666667e+00	 2.518519e+00	 1.019836e+01
0	 6.666667e+00	 2.592593e+00	 1.020033e+01
0	 6.296296e+00	 2.592593e+00	 1.025319e+01
0	 6.296296e+00	 2.666667e+00	 1.025486e+01
0	 6.296296e+00	 2.740741e+00	 1.025628e+01
0	 6.296296e+00	 2.814815e+00	 1.025747e+01
0	 6.296296e+00	 2.888889e+00	 1.025844e+01
0	 6.296296e+00	 2.962963e+00	 1.025919e+01
0	 6.370370e+00	 2.592593e+00	 1.024230e+01
0	 6.370370e+00	 2.666667e+00	 1.024401e+01
0	 6.370370e+00	 2.740741e+00	 1.024548e+01
0	 6.370370e+00	 2.814815e+00	 1.024674e+01
0	 6.370370e+00	 2.888889e+00	 1.024778e+01
0	 6.370370e+00	 2.962963e+00	 1.024862e+01
0	 6.444444e+00	 2.592593e+00	 1.023159e+01
0	 6.444444e+00	 2.666667e+00	 1.023332e+01
0	 6.444444e+00	 2.740741e+00	 1.023485e+01
0	 6.444444e+00	 2.814815e+00	 1.023616e+01
0	 6.444444e+00	 2.888889e+00	 1.023727e+01
0	 6.444444e+00	 2.962963e+00	 1.023819e+01
0	 6.518519e+00	 2.592593e+00	 1.022103e+01
0	 6.518519e+00	 2.666667e+00	 1.022280e+01
0	 6.518519e+00	 2.740741e+00	 1.022436e+01
0	 6.518519e+00	 2.814815e+00	 1.022573e+01
0	 6.518519e+00	 2.888889e+00	 1.022690e+01
0	 6.518519e+00	 2.962963e+00	 1.022789e+01
0	 6.592593e+00	 2.592593e+00	 1.021062e+01
0	 6.592593e+00	 2.666667e+00	 1.021241e+01
0	 6.592593e+00	 2.740741e+00	 1.021401e+01
0	 6.592593e+00	 2.814815e+00	 1.021542e+01
0	 6.592593e+00	 2.888889e+00	 1.021666e+01
0	 6.592593e+00	 2.962963e+00	 1.021772e+01
0	 6.666667e+00	 2.592593e+00	 1.020033e+01
0	 6.666667e+00	 2.666667e+00	 1.020215e+01
0	 6.666667e+00	 2.740741e+00	 1.020379e+01
0	 6.666667e+00	 2.814815e+00	 1.020525e+01
0	 6.666667e+00	 2.888889e+00	 1.020654e+01
0	 6.666667e+00	 2.962963e+00	 1.020766e+01
0	 6.296296e+00	 2.962963e+00	 1.025919e+01
0	 6.296296e+00	 3.037037e+00	 1.025972e+01
0	 6.296296e+00	 3.111111e+00	 1.026001e+01
0	 6.296296e+00	 3.185185e+00	 1.026008e+01
0	 6.296296e+00	 3.259259e+00	 1.025991e+01
0	 6.296296e+00	 3.333333e+00	 1.025951e+01
0	 6.370370e+00	 2.962963e+00	 1.024862e+01
0	 6.370370e+00	 3.037037e+00	 1.024924e+01
0	 6.370370e+00	 3.111111e+00	 1.024965e+01
0	 6.370370e+00	 3.185185e+00	 1.024982e+01
0	 6.370370e+00	 3.259259e+00	 1.024978e+01
0	 6.370370e+00	 3.333333e+00	 1.024953e+01
0	 6.444444e+00	 2.962963e+00	 1.023819e+01
0	 6.444444e+00	 3.037037e+00	 1.023891e+01
0	 6.444444e+00	 3.111111e+00	 1.023941e+01
0	 6.444444e+00	 3.185185e+00	 1.023970e+01
0	 6.444444e+00	 3.259259e+00	 1.023977e+01
0	 6.444444e+00	 3.333333e+00	 1.023965e+01
0	 6.518519e+00	 2.962963e+00	 1.022789e+01
0	 6.518519e+00	 3.037037e+00	 1.022869e+01
0	 6.518519e+00	 3.111111e+00	 1.022929e+01
0	 6.518519e+00	 3.185185e+00	 1.022968e+01
0	 6.518519e+00	 3.259259e+00	 1.022987e+01
0	 6.518519e+00	 3.333333e+00	 1.022986e+01
0	 6.592593e+00	 2.962963e+00	 1.021772e+01
0	 6.592593e+00	 3.037037e+00	 1.021860e+01
0	 6.592593e+00	 3.111111e+00	 1.021928e+01
0	 6.592593e+00	 3.185185e+00	 1.021977e+01
0	 6.592593e+00	 3.259259e+00	 1.022007e+01
0	 6.592593e+00	 3.333333e+00	 1.022017e+01
0	 6.666667e+00	 2.962963e+00	 1.020766e+01
0	 6.666667e+00	 3.037037e+00	 1.020862e+01
0	 6.666667e+00	 3.111111e+00	 1.020938e+01
0	 6.666667e+00	 3.185185e+00	 1.020996e+01
0	 6.666667e+00	 3.259259e+00	 1.021036e+01
0	 6.666667e+00	 3.333333e+00	 1.021057e+01
0	 6.296296e+00	 3.333333e+00	 1.025951e+01
0	 6.296296e+00	 3.407407e+00	 1.025890e+01
0	 6.296296e+00	 3.481481e+00	 1.025808e+01
0	 6.296296e+00	 3.555556e+00	 1.025704e+01
0	 6.296296e+00	 3.629630e+00	 1.025579e+01
0	 6.296296e+00	 3.703704e+00	 1.025433e+01
0	 6.370370e+00	 3.333333e+00	 1.024953e+01
0	 6.370370e+00	 3.407407e+00	 1.024906e+01
0	 6.370370e+00	 3.481481e+00	 1.024839e+01
0	 6.370370e+00	 3.555556e+00	 1.024752e+01
0	 6.370370e+00	 3.629630e+00	 1.024643e+01
0	 6.370370e+00	 3.703704e+00	 1.024514e+01
0	 6.444444e+00	 3.333333e+00	 1.023965e+01
0	 6.444444e+00	 3.407407e+00	 1.023932e+01
0	 6.444444e+00	 3.481481e+00	 1.023879e+01
0	 6.444444e+00	 3.555556e+00	 1.023807e+01
0	 6.444444e+00	 3.629630e+00	 1.023714e+01
0	 6.444444e+00	 3.703704e+00	 1.023602e+01
0	 6.518519e+00	 3.333333e+00	 1.022986e+01
0	 6.518519e+00	 3.407407e+00	 1.022966e+01
0	 6.518519e+00	 3.481481e+00	 1.022927e+01
0	 6.518519e+00	 3.555556e+00	 1.022869e+01
0	 6.518519e+00	 3.629630e+00	 1.022792e+01
0	 6.518519e+00	 3.703704e+00	 1.022695e+01
0	 6.592593e+00	 3.333333e+00	 1.022017e+01
0	 6.592593e+00	 3.407407e+00	 1.022010e+01
0	 6.592593e+00	 3.481481e+00	 1.021984e+01
0	 6.592593e+00	 3.555556e+00	 1.021939e+01
0	 6.592593e+00	 3.629630e+00	 1.021876e+01
0	 6.592593e+00	 3.703704e+00	 1.021794e+01
0	 6.666667e+00	 3.333333e+00	 1.021057e+01
0	 6.666667e+00	 3.407407e+00	 1.021061e+01
0	 6.666667e+00	 3.481481e+00	 1.021047e+01
0	 6.666667e+00	 3.555556e+00	 1.021016e+01
0	 6.666667e+00	 3.629630e+00	 1.020966e+01
0	 6.666667e+00	 3.703704e+00	 1.020899e+01
0	 6.296296e+00	 3.703704e+00	 1.025433e+01
0	 6.296296e+00	 3.777778e+00	 1.025267e+01
0	 6.296296e+00	 3.851852e+00	 1.025083e+01
0	 6.296296e+00	 3.925926e+00	 1.024882e+01
0	 6.296296e+00	 4.000000e+00	 1.024662e+01
0	 6.296296e+00	 4.074074e+00	 1.024424e+01
0	 6.370370e+00	 3.703704e+00	 1.024514e+01
0	 6.370370e+00	 3.777778e+00	 1.024366e+01
0	 6.370370e+00	 3.851852e+00	 1.024201e+01
0	 6.370370e+00	 3.925926e+00	 1.024019e+01
0	 6.370370e+00	 4.000000e+00	 1.023818e+01
0	 6.370370e+00	 4.074074e+00	 1.023600e+01
0	 6.444444e+00	 3.703704e+00	 1.023602e+01
0	 6.444444e+00	 3.777778e+00	 1.023471e+01
0	 6.444444e+00	 3.851852e+00	 1.023323e+01
0	 6.444444e+00	 3.925926e+00	 1.023159e+01
0	 6.444444e+00	 4.000000e+00	 1.022977e+01
0	 6.444444e+00	 4.074074e+00	 1.022777e+01
0	 6.518519e+00	 3.703704e+00	 1.022695e+01
0	 6.518519e+00	 3.777778e+00	 1.022580e+01
0	 6.518519e+00	 3.851852e+00	 1.022450e+01
0	 6.518519e+00	 3.925926e+00	 1.022302e+01
0	 6.518519e+00	 4.000000e+00	 1.022138e+01
0	 6.518519e+00	 4.074074e+00	 1.021956e+01
0	 6.592593e+00	 3.703704e+00	 1.021794e+01
0	 6.592593e+00	 3.777778e+00	 1.021695e+01
0	 6.592593e+00	 3.851852e+00	 1.021580e+01
0	 6.592593e+00	 3.925926e+00	 1.021449e+01
0	 6.592593e+00	 4.000000e+00	 1.021302e+01
0	 6.592593e+00	 4.074074e+00	 1.021137e+01
0	 6.666667e+00	 3.703704e+00	 1.020899e+01
0	 6.666667e+00	 3.777778e+00	 1.020815e+01
0	 6.666667e+00	 3.851852e+00	 1.020716e+01
0	 6.666667e+00	 3.925926e+00	 1.020600e+01
0	 6.666667e+00	 4.000000e+00	 1.020469e+01
0	 6.666667e+00	 4.074074e+00	 1.020321e+01
0	 6.296296e+00	 4.074074e+00	 1.024424e+01
0	 6.296296e+00	 4.148148e+00	 1.024170e+01
0	 6.296296e+00	 4.222222e+00	 1.023902e+01
0	 6.296296e+00	 4.296296e+00	 1.023621e+01
0	 6.296296e+00	 4.370370e+00	 1.023325e+01
0	 6.296296e+00	 4.444444e+00	 1.023013e+01
0	 6.370370e+00	 4.074074e+00	 1.023600e+01
0	 6.370370e+00	 4.148148e+00	 1.023365e+01
0	 6.370370e+00	 4.222222e+00	 1.023118e+01
0	 6.370370e+00	 4.296296e+00	 1.022856e+01
0	 6.370370e+00	 4.370370e+00	 1.022581e+01
0	 6.370370e+00	 4.444444e+00	 1.022290e+01
0	 6.444444e+00	 4.074074e+00	 1.022777e+01
0	 6.444444e+00	 4.148148e+00	 1.022562e+01
0	 6.444444e+00	 4.222222e+00	 1.022333e+01
0	 6.444444e+00	 4.296296e+00	 1.022091e+01
0	 6.444444e+00	 4.370370e+00	 1.021835e+01
0	 6.444444e+00	 4.444444e+00	 1.021564e+01
0	 6.518519e+00	 4.074074e+00	 1.021956e+01
0	 6.518519e+00	 4.148148e+00	 1.021759e+01
0	 6.518519e+00	 4.222222e+00	 1.021549e+01
0	 6.518519e+00	 4.296296e+00	 1.021326e+01
0	 6.518519e+00	 4.370370e+00	 1.021088e+01
0	 6.518519e+00	 4.444444e+00	 1.020836e+01
0	 6.592593e+00	 4.074074e+00	 1.021137e+01
0	 6.592593e+00	 4.148148e+00	 1.020958e+01
0	 6.592593e+00	 4.222222e+00	 1.020766e+01
0	 6.592593e+00	 4.296296e+00	 1.020560e+01
0	 6.592593e+00	 4.370370e+00	 1.020341e+01
0	 6.592593e+00	 4.444444e+00	 1.020108e+01
0	 6.666667e+00	 4.074074e+00	 1.020321e+01
0	 6.666667e+00	 4.148148e+00	 1.020159e+01
0	 6.666667e+00	 4.222222e+00	 1.019984e+01
0	 6.666667e+00	 4.296296e+00	 1.019796e+01
0	 6.666667e+00	 4.370370e+00	 1.019595e+01
0	 6.666667e+00	 4.444444e+00	 1.019379e+01
0	 6.296296e+00	 4.444444e+00	 1.023013e+01
0	 6.296296e+00	 4.518519e+00	 1.022690e+01
0	 6.296296e+00	 4.592593e+00	 1.022357e+01
0	 6.296296e+00	 4.666667e+00	 1.022015e+01
0	 6.296296e+00	 4.740741e+00	 1.021662e+01
0	 6.296296e+00	 4.814815e+00	 1.021298e+01
0	 6.370370e+00	 4.444444e+00	 1.022290e+01
0	 6.370370e+00	 4.518519e+00	 1.021987e+01
0	 6.370370e+00	 4.592593e+00	 1.021675e+01
0	 6.370370e+00	 4.666667e+00	 1.021352e+01
0	 6.370370e+00	 4.740741e+00	 1.021020e+01
0	 6.370370e+00	 4.814815e+00	 1.020676e+01
0	 6.444444e+00	 4.444444e+00	 1.021564e+01
0	 6.444444e+00	 4.518519e+00	 1.021281e+01
0	 6.444444e+00	 4.592593e+00	 1.020988e+01
0	 6.444444e+00	 4.666667e+00	 1.020686e+01
0	 6.444444e+00	 4.740741e+00	 1.020372e+01
0	 6.444444e+00	 4.814815e+00	 1.020048e+01
0	 6.518519e+00	 4.444444e+00	 1.020836e+01
0	 6.518519e+00	 4.518519e+00	 1.020572e+01
0	 6.518519e+00	 4.592593e+00	 1.020299e+01
0	 6.518519e+00	 4.666667e+00	 1.020015e+01
0	 6.518519e+00	 4.740741e+00	 1.019721e+01
0	 6.518519e+00	 4.814815e+00	 1.019416e+01
0	 6.592593e+00	 4.444444e+00	 1.020108e+01
0	 6.592593e+00	 4.518519e+00	 1.019862e+01
0	 6.592593e+00	 4.592593e+00	 1.019608e+01
0	 6.592593e+00	 4.666667e+00	 1.019343e+01
0	 6.592593e+00	 4.740741e+00	 1.019067e+01
0	 6.592593e+00	 4.814815e+00	 1.018780e+01
0	 6.666667e+00	 4.444444e+00	 1.019379e+01
0	 6.666667e+00	 4.518519e+00	 1.019152e+01
0	 6.666667e+00	 4.592593e+00	 1.018915e+01
0	 6.666667e+00	 4.666667e+00	 1.018668e+01
0	 6.666667e+00	 4.740741e+00	 1.018411e+01
0	 6.666667e+00	 4.814815e+00	 1.018142e+01
0	 6.296296e+00	 4.814815e+00	 1.021298e+01
0	 6.296296e+00	 4.888889e+00	 1.020925e+01
0	 6.296296e+00	 4.962963e+00	 1.020547e+01
0	 6.296296e+00	 5.037037e+00	 1.020163e+01
0	 6.296296e+00	 5.111111e+00	 1.019772e+01
0	 6.296296e+00	 5.185185e+00	 1.019374e+01
0	 6.370370e+00	 4.814815e+00	 1.020676e+01
0	 6.370370e+00	 4.888889e+00	 1.020323e+01
0	 6.370370e+00	 4.962963e+00	 1.019965e+01
0	 6.370370e+00	 5.037037e+00	 1.019600e+01
0	 6.370370e+00	 5.111111e+00	 1.019228e+01
0	 6.370370e+00	 5.185185e+00	 1.018849e+01
0	 6.444444e+00	 4.814815e+00	 1.020048e+01
0	 6.444444e+00	 4.888889e+00	 1.019715e+01
0	 6.444444e+00	 4.962963e+00	 1.019376e+01
0	 6.444444e+00	 5.037037e+00	 1.019030e+01
0	 6.444444e+00	 5.111111e+00	 1.018677e+01
0	 6.444444e+00	 5.185185e+00	 1.018316e+01
0	 6.518519e+00	 4.814815e+00	 1.019416e+01
0	 6.518519e+00	 4.888889e+00	 1.019102e+01
0	 6.518519e+00	 4.962963e+00	 1.018781e+01
0	 6.518519e+00	 5.037037e+00	 1.018454e+01
0	 6.518519e+00	 5.111111e+00	 1.018119e+01
0	 6.518519e+00	 5.185185e+00	 1.017776e+01
0	 6.592593e+00	 4.814815e+00	 1.018780e+01
0	 6.592593e+00	 4.888889e+00	 1.018484e+01
0	 6.592593e+00	 4.962963e+00	 1.018182e+01
0	 6.592593e+00	 5.037037e+00	 1.017873e+01
0	 6.592593e+00	 5.111111e+00	 1.017557e+01
0	 6.592593e+00	 5.185185e+00	 1.017232e+01
0	 6.666667e+00	 4.814815e+00	 1.018142e+01
0	 6.666667e+00	 4.888889e+00	 1.017865e+01
0	 6.666667e+00	 4.962963e+00	 1.017580e+01
0	 6.666667e+00	 5.037037e+00	 1.017289e+01
0	 6.666667e+00	 5.111111e+00	 1.016990e+01
0	 6.666667e+00	 5.185185e+00	 1.016683e+01
0	 6.296296e+00	 5.185185e+00	 1.019374e+01
0	 6.296296e+00	 5.259259e+00	 1.018970e+01
0	 6.296296e+00	 5.333333e+00	 1.018565e+01
0	 6.296296e+00	 5.407407e+00	 1.018156e+01
0	 6.296296e+00	 5.481481e+00	 1.017744e+01
0	 6.296296e+00	 5.555556e+00	 1.017327e+01
0	 6.370370e+00	 5.185185e+00	 1.018849e+01
0	 6.370370e+00	 5.259259e+00	 1.018464e+01
0	 6.370370e+00	 5.333333e+00	 1.018076e+01
0	 6.370370e+00	 5.407407e+00	 1.017686e+01
0	 6.370370e+00	 5.481481e+00	 1.017291e+01
0	 6.370370e+00	 5.555556e+00	 1.016892e+01
0	 6.444444e+00	 5.185185e+00	 1.018316e+01
0	 6.444444e+00	 5.259259e+00	 1.017949e+01
0	 6.444444e+00	 5.333333e+00	 1.017580e+01
0	 6.444444e+00	 5.407407e+00	 1.017207e+01
0	 6.444444e+00	 5.481481e+00	 1.016830e+01
0	 6.444444e+00	 5.555556e+00	 1.016447e+01
0	 6.518519e+00	 5.185185e+00	 1.017776e+01
0	 6.518519e+00	 5.259259e+00	 1.017428e+01
0	 6.518519e+00	 5.333333e+00	 1.017076e+01
0	 6.518519e+00	 5.407407e+00	 1.016721e+01
0	 6.518519e+00	 5.481481e+00	 1.016360e+01
0	 6.518519e+00	 5.555556e+00	 1.015995e+01
0	 6.592593e+00	 5.185185e+00	 1.017232e+01
0	 6.592593e+00	 5.259259e+00	 1.016901e+01
0	 6.592593e+00	 5.333333e+00	 1.016567e+01
0	 6.592593e+00	 5.407407e+00	 1.016228e+01
0	 6.592593e+00	 5.481481e+00	 1.015885e+01
0	 6.592593e+00	 5.555556e+00	 1.015536e+01
0	 6.666667e+00	 5.185185e+00	 1.016683e+01
0	 6.666667e+00	 5.259259e+00	 1.016370e+01
0	 6.666667e+00	 5.333333e+00	 1.016052e+01
0	 6.666667e+00	 5.407407e+00	 1.015731e+01
0	 6.666667e+00	 5.481481e+00	 1.015404e+01
0	 6.666667e+00	 5.555556e+00	 1.015072e+01
0	 6.296296e+00	 5.555556e+00	 1.017327e+01
0	 6.296296e+00	 5.629630e+00	 1.016909e+01
0	 6.296296e+00	 5.703704e+00	 1.016491e+01
0	 6.296296e+00	 5.777778e+00	 1.016073e+01
0	 6.296296e+00	 5.851852e+00	 1.015653e+01
0	 6.296296e+00	 5.925926e+00	 1.015232e+01
0	 6.370370e+00	 5.555556e+00	 1.016892e+01
0	 6.370370e+00	 5.629630e+00	 1.016491e+01
0	 6.370370e+00	 5.703704e+00	 1.016089e+01
0	 6.370370e+00	 5.777778e+00	 1.015686e+01
0	 6.370370e+00	 5.851852e+00	 1.015283e+01
0	 6.370370e+00	 5.925926e+00	 1.014877e+01
0	 6.444444e+00	 5.555556e+00	 1.016447e+01
0	 6.444444e+00	 5.629630e+00	 1.016063e+01
0	 6.444444e+00	 5.703704e+00	 1.015677e+01
0	 6.444444e+00	 5.777778e+00	 1.015291e+01
0	 6.444444e+00	 5.851852e+00	 1.014903e+01
0	 6.444444e+00	 5.925926e+00	 1.014512e+01
0	 6.518519e+00	 5.555556e+00	 1.015995e+01
0	 6.518519e+00	 5.629630e+00	 1.015627e+01
0	 6.518519e+00	 5.703704e+00	 1.015258e+01
0	 6.518519e+00	 5.777778e+00	 1.014887e+01
0	 6.518519e+00	 5.851852e+00	 1.014514e+01
0	 6.518519e+00	 5.925926e+00	 1.014139e+01
0	 6.592593e+00	 5.555556e+00	 1.015536e+01
0	 6.592593e+00	 5.629630e+00	 1.015184e+01
0	 6.592593e+00	 5.703704e+00	 1.014831e+01
0	 6.592593e+00	 5.777778e+00	 1.014476e+01
0	 6.592593e+00	 5.851852e+00	 1.014119e+01
0	 6.592593e+00	 5.925926e+00	 1.013759e+01
0	 6.666667e+00	 5.555556e+00	 1.015072e+01
0	 6.666667e+00	 5.629630e+00	 1.014736e+01
0	 6.666667e+00	 5.703704e+00	 1.014399e+01
0	 6.666667e+00	 5.777778e+00	 1.014059e+01
0	 6.666667e+00	 5.851852e+00	 1.013717e+01
0	 6.666667e+00	 5.925926e+00	 1.013372e+01
0	 6.296296e+00	 5.925926e+00	 1.015232e+01
0	 6.296296e+00	 6.000000e+00	 1.014812e+01
0	 6.296296e+00	 6.074074e+00	 1.014394e+01
0	 6.296296e+00	 6.148148e+00	 1.013977e+01
0	 6.296296e+00	 6.222222e+00	 1.013562e+01
0	 6.296296e+00	 6.296296e+00	 1.013148e+01
0	 6.370370e+00	 5.925926e+00	 1.014877e+01
0	 6.370370e+00	 6.000000e+00	 1.014472e+01
0	 6.370370e+00	 6.074074e+00	 1.014068e+01
0	 6.370370e+00	 6.148148e+00	 1.013665e+01
0	 6.370370e+00	 6.222222e+00	 1.013264e+01
0	 6.370370e+00	 6.296296e+00	 1.012862e+01
0	 6.444444e+00	 5.925926e+00	 1.014512e+01
0	 6.444444e+00	 6.000000e+00	 1.014122e+01
0	 6.444444e+00	 6.074074e+00	 1.013732e+01
0	 6.444444e+00	 6.148148e+00	 1.013344e+01
0	 6.444444e+00	 6.222222e+00	 1.012956e+01
0	 6.444444e+00	 6.296296e+00	 1.012568e+01
0	 6.518519e+00	 5.925926e+00	 1.014139e+01
0	 6.518519e+00	 6.000000e+00	 1.013763e+01
0	 6.518519e+00	 6.074074e+00	 1.013388e+01
0	 6.518519e+00	 6.148148e+00	 1.013014e+01
0	 6.518519e+00	 6.222222e+00	 1.012639e+01
0	 6.518519e+00	 6.296296e+00	 1.012264e+01
0	 6.592593e+00	 5.925926e+00	 1.013759e+01
0	 6.592593e+00	 6.000000e+00	 1.013397e+01
0	 6.592593e+00	 6.074074e+00	 1.013037e+01
0	 6.592593e+00	 6.148148e+00	 1.012676e+01
0	 6.592593e+00	 6.222222e+00	 1.012316e+01
0	 6.592593e+00	 6.296296e+00	 1.011954e+01
0	 6.666667e+00	 5.925926e+00	 1.013372e+01
0	 6.666667e+00	 6.000000e+00	 1.013026e+01
0	 6.666667e+00	 6.074074e+00	 1.012679e+01
0	 6.666667e+00	 6.148148e+00	 1.012333e+01
0	 6.666667e+00	 6.222222e+00	 1.011986e+01
0	 6.666667e+00	 6.296296e+00	 1.011638e+01
0	 6.296296e+00	 6.296296e+00	 1.013148e+01
0	 6.296296e+00	 6.370370e+00	 1.012735e+01
0	 6.296296e+00	 6.444444e+00	 1.012326e+01
0	 6.296296e+00	 6.518519e+00	 1.011921e+01
0	 6.296296e+00	 6.592593e+00	 1.011518e+01
0	 6.296296e+00	 6.666667e+00	 1.011118e+01
0	 6.370370e+00	 6.296296e+00	 1.012862e+01
0	 6.370370e+00	 6.370370e+00	 1.012463e+01
0	 6.370370e+00	 6.444444e+00	 1.012066e+01
0	 6.370370e+00	 6.518519e+00	 1.011673e+01
0	 6.370370e+00	 6.592593e+00	 1.011282e+01
0	 6.370370e+00	 6.666667e+00	 1.010893e+01
0	 6.444444e+00	 6.296296e+00	 1.012568e+01
0	 6.444444e+00	 6.370370e+00	 1.012181e+01
0	 6.444444e+00	 6.444444e+00	 1.011797e+01
0	 6.444444e+00	 6.518519e+00	 1.011416e+01
0	 6.444444e+00	 6.592593e+00	 1.011036e+01
0	 6.444444e+00	 6.666667e+00	 1.010659e+01
0	 6.518519e+00	 6.296296e+00	 1.012264e+01
0	 6.518519e+00	 6.370370e+00	 1.011891e+01
0	 6.518519e+00	 6.444444e+00	 1.011519e+01
0	 6.518519e+00	 6.518519e+00	 1.011150e+01
0	 6.518519e+00	 6.592593e+00	 1.010783e+01
0	 6.518519e+00	 6.666667e+00	 1.010417e+01
0	 6.592593e+00	 6.296296e+00	 1.011954e+01
0	 6.592593e+00	 6.370370e+00	 1.011593e+01
0	 6.592593e+00	 6.444444e+00	 1.011235e+01
0	 6.592593e+00	 6.518519e+00	 1.010878e+01
0	 6.592593e+00	 6.592593e+00	 1.010522e+01
0	 6.592593e+00	 6.666667e+00	 1.010168e+01
0	 6.666667e+00	 6.296296e+00	 1.011638e+01
0	 6.666667e+00	 6.370370e+00	 1.011290e+01
0	 6.666667e+00	 6.444444e+00	 1.010944e+01
0	 6.666667e+00	 6.518519e+00	 1.010599e+01
0	 6.666667e+00	 6.592593e+00	 1.010256e+01
0	 6.666667e+00	 6.666667e+00	 1.009913e+01
0	 6.296296e+00	 6.666667e+00	 1.011118e+01
0	 6.296296e+00	 6.740741e+00	 1.010721e+01
0	 6.296296e+00	 6.814815e+00	 1.010329e+01
0	 6.296296e+00	 6.888889e+00	 1.009942e+01
0	 6.296296e+00	 6.962963e+00	 1.009558e+01
0	 6.296296e+00	 7.037037e+00	 1.009178e+01
0	 6.370370e+00	 6.666667e+00	 1.010893e+01
0	 6.370370e+00	 6.740741e+00	 1.010507e+01
0	 6.370370e+00	 6.814815e+00	 1.010125e+01
0	 6.370370e+00	 6.888889e+00	 1.009748e+01
0	 6.370370e+00	 6.962963e+00	 1.009374e+01
0	 6.370370e+00	 7.037037e+00	 1.009004e+01
0	 6.444444e+00	 6.666667e+00	 1.010659e+01
0	 6.444444e+00	 6.740741e+00	 1.010284e+01
0	 6.444444e+00	 6.814815e+00	 1.009913e+01
0	 6.444444e+00	 6.888889e+00	 1.009546e+01
0	 6.444444e+00	 6.962963e+00	 1.009182e+01
0	 6.444444e+00	 7.037037e+00	 1.008821e+01
0	 6.518519e+00	 6.666667e+00	 1.010417e+01
0	 6.518519e+00	 6.740741e+00	 1.010053e+01
0	 6.518519e+00	 6.814815e+00	 1.009693e+01
0	 6.518519e+00	 6.888889e+00	 1.009336e+01
0	 6.518519e+00	 6.962963e+00	 1.008982e+01
0	 6.518519e+00	 7.037037e+00	 1.008631e+01
0	 6.592593e+00	 6.666667e+00	 1.010168e+01
0	 6.592593e+00	 6.740741e+00	 1.009815e+01
0	 6.592593e+00	 6.814815e+00	 1.009466e+01
0	 6.592593e+00	 6.888889e+00	 1.009120e+01
0	 6.592593e+00	 6.962963e+00	 1.008776e+01
0	 6.592593e+00	 7.037037e+00	 1.008435e+01
0	 6.666667e+00	 6.666667e+00	 1.009913e+01
0	 6.666667e+00	 6.740741e+00	 1.009572e+01
0	 6.666667e+00	 6.814815e+00	 1.009234e+01
0	 6.666667e+00	 6.888889e+00	 1.008898e+01
0	 6.666667e+00	 6.962963e+00	 1.008565e+01
0	 6.666667e+00	 7.037037e+00	 1.008234e+01
0	 6.296296e+00	 7.037037e+00	 1.009178e+01
0	 6.296296e+00	 7.111111e+00	 1.008803e+01
0	 6.296296e+00	 7.185185e+00	 1.008434e+01
0	 6.296296e+00	 7.259259e+00	 1.008069e+01
0	 6.296296e+00	 7.333333e+00	 1.007710e+01
0	 6.296296e+00	 7.407407e+00	 1.007355e+01
0	 6.370370e+00	 7.037037e+00	 1.009004e+01
0	 6.370370e+00	 7.111111e+00	 1.008637e+01
0	 6.370370e+00	 7.185185e+00	 1.008276e+01
0	 6.370370e+00	 7.259259e+00	 1.007921e+01
0	 6.370370e+00	 7.333333e+00	 1.007569e+01
0	 6.370370e+00	 7.407407e+00	 1.007222e+01
0	 6.444444e+00	 7.037037e+00	 1.008821e+01
0	 6.444444e+00	 7.111111e+00	 1.008464e+01
0	 6.444444e+00	 7.185185e+00	 1.008112e+01
0	 6.444444e+00	 7.259259e+00	 1.007765e+01
0	 6.444444e+00	 7.333333e+00	 1.007422e+01
0	 6.444444e+00	 7.407407e+00	 1.007083e+01
0	 6.518519e+00	 7.037037e+00	 1.008631e+01
0	 6.518519e+00	 7.111111e+00	 1.008284e+01
0	 6.518519e+00	 7.185185e+00	 1.007941e+01
0	 6.518519e+00	 7.259259e+00	 1.007602e+01
0	 6.518519e+00	 7.333333e+00	 1.007268e+01
0	 6.518519e+00	 7.407407e+00	 1.006937e+01
0	 6.592593e+00	 7.037037e+00	 1.008435e+01
0	 6.592593e+00	 7.111111e+00	 1.008097e+01
0	 6.592593e+00	 7.185185e+00	 1.007764e+01
0	 6.592593e+00	 7.259259e+00	 1.007435e+01
0	 6.592593e+00	 7.333333e+00	 1.007109e+01
0	 6.592593e+00	 7.407407e+00	 1.006787e+01
0	 6.666667e+00	 7.037037e+00	 1.008234e+01
0	 6.666667e+00	 7.111111e+00	 1.007906e+01
0	 6.666667e+00	 7.185185e+00	 1.007582e+01
0	 6.666667e+00	 7.259259e+00	 1.007262e+01
0	 6.666667e+00	 7.333333e+00	 1.006945e+01
0	 6.666667e+00	 7.407407e+00	 1.006631e+01
0	 6.296296e+00	 7.407407e+00	 1.007355e+01
0	 6.296296e+00	 7.481481e+00	 1.007006e+01
0	 6.296296e+00	 7.555556e+00	 1.006663e+01
0	 6.296296e+00	 7.629630e+00	 1.006326e+01
0	 6.296296e+00	 7.703704e+00	 1.005995e+01
0	 6.296296e+00	 7.777778e+00	 1.005670e+01
0	 6.370370e+00	 7.407407e+00	 1.007222e+01
0	 6.370370e+00	 7.481481e+00	 1.006880e+01
0	 6.370370e+00	 7.555556e+00	 1.006545e+01
0	 6.370370e+00	 7.629630e+00	 1.006215e+01
0	 6.370370e+00	 7.703704e+00	 1.005891e+01
0	 6.370370e+00	 7.777778e+00	 1.005572e+01
0	 6.444444e+00	 7.407407e+00	 1.007083e+01
0	 6.444444e+00	 7.481481e+00	 1.006749e+01
0	 6.444444e+00	 7.555556e+00	 1.006421e+01
0	 6.444444e+00	 7.629630e+00	 1.006098e+01
0	 6.444444e+00	 7.703704e+00	 1.005781e+01
0	 6.444444e+00	 7.777778e+00	 1.005468e+01
0	 6.518519e+00	 7.407407e+00	 1.006937e+01
0	 6.518519e+00	 7.481481e+00	 1.006611e+01
0	 6.518519e+00	 7.555556e+00	 1.006291e+01
0	 6.518519e+00	 7.629630e+00	 1.005976e+01
0	 6.518519e+00	 7.703704e+00	 1.005666e+01
0	 6.518519e+00	 7.777778e+00	 1.005360e+01
0	 6.592593e+00	 7.407407e+00	 1.006787e+01
0	 6.592593e+00	 7.481481e+00	 1.006469e+01
0	 6.592593e+00	 7.555556e+00	 1.006156e+01
0	 6.592593e+00	 7.629630e+00	 1.005849e+01
0	 6.592593e+00	 7.703704e+00	 1.005546e+01
0	 6.592593e+00	 7.777778e+00	 1.005248e+01
0	 6.666667e+00	 7.407407e+00	 1.006631e+01
0	 6.666667e+00	 7.481481e+00	 1.006322e+01
0	 6.666667e+00	 7.555556e+00	 1.006018e+01
0	 6.666667e+00	 7.629630e+00	 1.005718e+01
0	 6.666667e+00	 7.703704e+00	 1.005423e+01
0	 6.666667e+00	 7.777778e+00	 1.005132e+01
0	 6.296296e+00	 7.777778e+00	 1.005670e+01
0	 6.296296e+00	 7.851852e+00	 1.005351e+01
0	 6.296296e+00	 7.925926e+00	 1.005039e+01
0	 6.296296e+00	 8.000000e+00	 1.004734e+01
0	 6.296296e+00	 8.074074e+00	 1.004436e+01
0	 6.296296e+00	 8.148148e+00	 1.004144e+01
0	 6.370370e+00	 7.777778e+00	 1.005572e+01
0	 6.370370e+00	 7.851852e+00	 1.005259e+01
0	 6.370370e+00	 7.925926e+00	 1.004953e+01
0	 6.370370e+00	 8.000000e+00	 1.004654e+01
0	 6.370370e+00	 8.074074e+00	 1.004361e+01
0	 6.370370e+00	 8.148148e+00	 1.004074e+01
0	 6.444444e+00	 7.777778e+00	 1.005468e+01
0	 6.444444e+00	 7.851852e+00	 1.005162e+01
0	 6.444444e+00	 7.925926e+00	 1.004862e+01
0	 6.444444e+00	 8.000000e+00	 1.004569e+01
0	 6.444444e+00	 8.074074e+00	 1.004282e+01
0	 6.444444e+00	 8.148148e+00	 1.004001e+01
0	 6.518519e+00	 7.777778e+00	 1.005360e+01
0	 6.518519e+00	 7.851852e+00	 1.005060e+01
0	 6.518519e+00	 7.925926e+00	 1.004767e+01
0	 6.518519e+00	 8.000000e+00	 1.004480e+01
0	 6.518519e+00	 8.074074e+00	 1.004199e+01
0	 6.518519e+00	 8.148148e+00	 1.003924e+01
0	 6.592593e+00	 7.777778e+00	 1.005248e+01
0	 6.592593e+00	 7.851852e+00	 1.004955e+01
0	 6.592593e+00	 7.925926e+00	 1.004668e+01
0	 6.592593e+00	 8.000000e+00	 1.004388e+01
0	 6.592593e+00	 8.074074e+00	 1.004113e+01
0	 6.592593e+00	 8.148148e+00	 1.003843e+01
0	 6.666667e+00	 7.777778e+00	 1.005132e+01
0	 6.666667e+00	 7.851852e+00	 1.004846e+01
0	 6.666667e+00	 7.925926e+00	 1.004566e+01
0	 6.666667e+00	 8.000000e+00	 1.004292e+01
0	 6.666667e+00	 8.074074e+00	 1.004024e+01
0	 6.666667e+00	 8.148148e+00	 1.003760e+01
0	 6.296296e+00	 8.148148e+00	 1.004144e+01
0	 6.296296e+00	 8.222222e+00	 1.003859e+01
0	 6.296296e+00	 8.296296e+00	 1.003583e+01
0	 6.296296e+00	 8.370370e+00	 1.003315e+01
0	 6.296296e+00	 8.444444e+00	 1.003054e+01
0	 6.296296e+00	 8.518519e+00	 1.002801e+01
0	 6.370370e+00	 8.148148e+00	 1.004074e+01
0	 6.370370e+00	 8.222222e+00	 1.003795e+01
0	 6.370370e+00	 8.296296e+00	 1.003523e+01
0	 6.370370e+00	 8.370370e+00	 1.003260e+01
0	 6.370370e+00	 8.444444e+00	 1.003004e+01
0	 6.370370e+00	 8.518519e+00	 1.002754e+01
0	 6.444444e+00	 8.148148e+00	 1.004001e+01
0	 6.444444e+00	 8.222222e+00	 1.003726e+01
0	 6.444444e+00	 8.296296e+00	 1.003460e+01
0	 6.444444e+00	 8.370370e+00	 1.003202e+01
0	 6.444444e+00	 8.444444e+00	 1.002950e+01
0	 6.444444e+00	 8.518519e+00	 1.002705e+01
0	 6.518519e+00	 8.148148e+00	 1.003924e+01
0	 6.518519e+00	 8.222222e+00	 1.003655e+01
0	 6.518519e+00	 8.296296e+00	 1.003394e+01
0	 6.518519e+00	 8.370370e+00	 1.003140e+01
0	 6.518519e+00	 8.444444e+00	 1.002894e+01
0	 6.518519e+00	 8.518519e+00	 1.002654e+01
0	 6.592593e+00	 8.148148e+00	 1.003843e+01
0	 6.592593e+00	 8.222222e+00	 1.003580e+01
0	 6.592593e+00	 8.296296e+00	 1.003325e+01
0	 6.592593e+00	 8.370370e+00	 1.003077e+01
0	 6.592593e+00	 8.444444e+00	 1.002835e+01
0	 6.592593e+00	 8.518519e+00	 1.002600e+01
0	 6.666667e+00	 8.148148e+00	 1.003760e+01
0	 6.666667e+00	 8.222222e+00	 1.003503e+01
0	 6.666667e+00	 8.296296e+00	 1.003253e+01
0	 6.666667e+00	 8.370370e+00	 1.003011e+01
0	 6.666667e+00	 8.444444e+00	 1.002775e+01
0	 6.666667e+00	 8.518519e+00	 1.002545e+01
0	 6.296296e+00	 8.518519e+00	 1.002801e+01
0	 6.296296e+00	 8.592593e+00	 1.002556e+01
0	 6.296296e+00	 8.666667e+00	 1.002321e+01
0	 6.296296e+00	 8.740741e+00	 1.002095e+01
0	 6.296296e+00	 8.814815e+00	 1.001878e+01
0	 6.296296e+00	 8.888889e+00	 1.001670e+01
0	 6.370370e+00	 8.518519e+00	 1.002754e+01
0	 6.370370e+00	 8.592593e+00	 1.002514e+01
0	 6.370370e+00	 8.666667e+00	 1.002282e+01
0	 6.370370e+00	 8.740741e+00	 1.002060e+01
0	 6.370370e+00	 8.814815e+00	 1.001847e+01
0	 6.370370e+00	 8.888889e+00	 1.001642e+01
0	 6.444444e+00	 8.518519e+00	 1.002705e+01
0	 6.444444e+00	 8.592593e+00	 1.002469e+01
0	 6.444444e+00	 8.666667e+00	 1.002242e+01
0	 6.444444e+00	 8.740741e+00	 1.002024e+01
0	 6.444444e+00	 8.814815e+00	 1.001814e+01
0	 6.444444e+00	 8.888889e+00	 1.001613e+01
0	 6.518519e+00	 8.518519e+00	 1.002654e+01
0	 6.518519e+00	 8.592593e+00	 1.002422e+01
0	 6.518519e+00	 8.666667e+00	 1.002199e+01
0	 6.518519e+00	 8.740741e+00	 1.001985e+01
0	 6.518519e+00	 8.814815e+00	 1.001780e+01
0	 6.518519e+00	 8.888889e+00	 1.001582e+01
0	 6.592593e+00	 8.518519e+00	 1.002600e+01
0	 6.592593e+00	 8.592593e+00	 1.002373e+01
0	 6.592593e+00	 8.666667e+00	 1.002155e+01
0	 6.592593e+00	 8.740741e+00	 1.001945e+01
0	 6.592593e+00	 8.814815e+00	 1.001744e+01
0	 6.592593e+00	 8.888889e+00	 1.001550e+01
0	 6.666667e+00	 8.518519e+00	 1.002545e+01
0	 6.666667e+00	 8.592593e+00	 1.002322e+01
0	 6.666667e+00	 8.666667e+00	 1.002109e+01
0	 6.666667e+00	 8.740741e+00	 1.001904e+01
0	 6.666667e+00	 8.814815e+00	 1.001706e+01
0	 6.666667e+00	 8.888889e+00	 1.001517e+01
0	 6.296296e+00	 8.888889e+00	 1.001670e+01
0	 6.296296e+00	 8.962963e+00	 1.001471e+01
0	 6.296296e+00	 9.037037e+00	 1.001285e+01
0	 6.296296e+00	 9.111111e+00	 1.001109e+01
0	 6.296296e+00	 9.185185e+00	 1.000944e+01
0	 6.296296e+00	 9.259259e+00	 1.000789e+01
0	 6.370370e+00	 8.888889e+00	 1.001642e+01
0	 6.370370e+00	 8.962963e+00	 1.001447e+01
0	 6.370370e+00	 9.037037e+00	 1.001263e+01
0	 6.370370e+00	 9.111111e+00	 1.001091e+01
0	 6.370370e+00	 9.185185e+00	 1.000928e+01
0	 6.370370e+00	 9.259259e+00	 1.000776e+01
0	 6.444444e+00	 8.888889e+00	 1.001613e+01
0	 6.444444e+00	 8.962963e+00	 1.001421e+01
0	 6.444444e+00	 9.037037e+00	 1.001241e+01
0	 6.444444e+00	 9.111111e+00	 1.001071e+01
0	 6.444444e+00	 9.185185e+00	 1.000912e+01
0	 6.444444e+00	 9.259259e+00	 1.000762e+01
0	 6.518519e+00	 8.888889e+00	 1.001582e+01
0	 6.518519e+00	 8.962963e+00	 1.001394e+01
0	 6.518519e+00	 9.037037e+00	 1.001217e+01
0	 6.518519e+00	 9.111111e+00	 1.001050e+01
0	 6.518519e+00	 9.185185e+00	 1.000894e+01
0	 6.518519e+00	 9.259259e+00	 1.000747e+01
0	 6.592593e+00	 8.888889e+00	 1.001550e+01
0	 6.592593e+00	 8.962963e+00	 1.001365e+01
0	 6.592593e+00	 9.037037e+00	 1.001192e+01
0	 6.592593e+00	 9.111111e+00	 1.001029e+01
0	 6.592593e+00	 9.185185e+00	 1.000876e+01
0	 6.592593e+00	 9.259259e+00	 1.000732e+01
0	 6.666667e+00	 8.888889e+00	 1.001517e+01
0	 6.666667e+00	 8.962963e+00	 1.001336e+01
0	 6.666667e+00	 9.037037e+00	 1.001166e+01
0	 6.666667e+00	 9.111111e+00	 1.001007e+01
0	 6.666667e+00	 9.185185e+00	 1.000857e+01
0	 6.666667e+00	 9.259259e+00	 1.000716e+01
0	 6.296296e+00	 9.259259e+00	 1.000789e+01
0	 6.296296e+00	 9.333333e+00	 1.000646e+01
0	 6.296296e+00	 9.407407e+00	 1.000518e+01
0	 6.296296e+00	 9.481481e+00	 1.000403e+01
0	 6.296296e+00	 9.555556e+00	 1.000301e+01
0	 6.296296e+00	 9.629630e+00	 1.000211e+01
0	 6.370370e+00	 9.259259e+00	 1.000776e+01
0	 6.370370e+00	 9.333333e+00	 1.000635e+01
0	 6.370370e+00	 9.407407e+00	 1.000509e+01
0	 6.370370e+00	 9.481481e+00	 1.000396e+01
0	 6.370370e+00	 9.555556e+00	 1.000296e+01
0	 6.370370e+00	 9.629630e+00	 1.000207e+01
0	 6.444444e+00	 9.259259e+00	 1.000762e+01
0	 6.444444e+00	 9.333333e+00	 1.000624e+01
0	 6.444444e+00	 9.407407e+00	 1.000500e+01
0	 6.444444e+00	 9.481481e+00	 1.000389e+01
0	 6.444444e+00	 9.555556e+00	 1.000290e+01
0	 6.444444e+00	 9.629630e+00	 1.000203e+01
0	 6.518519e+00	 9.259259e+00	 1.000747e+01
0	 6.518519e+00	 9.333333e+00	 1.000612e+01
0	 6.518519e+00	 9.407407e+00	 1.000490e+01
0	 6.518519e+00	 9.481481e+00	 1.000381e+01
0	 6.518519e+00	 9.555556e+00	 1.000284e+01
0	 6.518519e+00	 9.629630e+00	 1.000199e+01
0	 6.592593e+00	 9.259259e+00	 1.000732e+01
0	 6.592593e+00	 9.333333e+00	 1.000599e+01
0	 6.592593e+00	 9.407407e+00	 1.000479e+01
0	 6.592593e+00	 9.481481e+00	 1.000373e+01
0	 6.592593e+00	 9.555556e+00	 1.000278e+01
0	 6.592593e+00	 9.629630e+00	 1.000195e+01
0	 6.666667e+00	 9.259259e+00	 1.000716e+01
0	 6.666667e+00	 9.333333e+00	 1.000586e+01
0	 6.666667e+00	 9.407407e+00	 1.000469e+01
0	 6.666667e+00	 9.481481e+00	 1.000365e+01
0	 6.666667e+00	 9.555556e+00	 1.000272e+01
0	 6.666667e+00	 9.629630e+00	 1.000191e+01
0	 6.296296e+00	 9.629630e+00	 1.000211e+01
0	 6.296296e+00	 9.703704e+00	 1.000135e+01
0	 6.296296e+00	 9.777778e+00	 1.000077e+01
0	 6.296296e+00	 9.851852e+00	 1.000036e+01
0	 6.296296e+00	 9.925926e+00	 1.000010e+01
0	 6.296296e+00	 1.000000e+01	 9.999980e+00
0	 6.370370e+00	 9.629630e+00	 1.000207e+01
0	 6.370370e+00	 9.703704e+00	 1.000133e+01
0	 6.370370e+00	 9.777778e+00	 1.000076e+01
0	 6.370370e+00	 9.851852e+00	 1.000035e+01
0	 6.370370e+00	 9.925926e+00	 1.000010e+01
0	 6.370370e+00	 1.000000e+01	 9.999983e+00
0	 6.444444e+00	 9.629630e+00	 1.000203e+01
0	 6.444444e+00	 9.703704e+00	 1.000131e+01
0	 6.444444e+00	 9.777778e+00	 1.000075e+01
0	 6.444444e+00	 9.851852e+00	 1.000034e+01
0	 6.444444e+00	 9.925926e+00	 1.000009e+01
0	 6.444444e+00	 1.000000e+01	 9.999982e+00
0	 6.518519e+00	 9.629630e+00	 1.000199e+01
0	 6.518519e+00	 9.703704e+00	 1.000128e+01
0	 6.518519e+00	 9.777778e+00	 1.000073e+01
0	 6.518519e+00	 9.851852e+00	 1.000034e+01
0	 6.518519e+00	 9.925926e+00	 1.000009e+01
0	 6.518519e+00	 1.000000e+01	 9.999981e+00
0	 6.592593e+00	 9.629630e+00	 1.000195e+01
0	 6.592593e+00	 9.703704e+00	 1.000125e+01
0	 6.592593e+00	 9.777778e+00	 1.000071e+01
0	 6.592593e+00	 9.851852e+00	 1.000033e+01
0	 6.592593e+00	 9.925926e+00	 1.000009e+01
0	 6.592593e+00	 1.000000e+01	 9.999981e+00
0	 6.666667e+00	 9.629630e+00	 1.000191e+01
0	 6.666667e+00	 9.703704e+00	 1.000122e+01
0	 6.666667e+00	 9.777778e+00	 1.000070e+01
0	 6.666667e+00	 9.851852e+00	 1.000032e+01
0	 6.666667e+00	 9.925926e+00	 1.000009e+01
0	 6.666667e+00	 1.000000e+01	 9.999984e+00
0	 6.666667e+00	 0.000000e+00	 1.012165e+01
0	 6.666667e+00	 7.407407e-02	 1.012176e+01
0	 6.666667e+00	 1.481481e-01	 1.012211e+01
0	 6.666667e+00	 2.222222e-01	 1.012268e+01
0	 6.666667e+00	 2.962963e-01	 1.012348e+01
0	 6.666667e+00	 3.703704e-01	 1.012452e+01
0	 6.740741e+00	 0.000000e+00	 1.011353e+01
0	 6.740741e+00	 7.407407e-02	 1.011364e+01
0	 6.740741e+00	 1.481481e-01	 1.011397e+01
0	 6.740741e+00	 2.222222e-01	 1.011451e+01
0	 6.740741e+00	 2.962963e-01	 1.011528e+01
0	 6.740741e+00	 3.703704e-01	 1.011628e+01
0	 6.814815e+00	 0.000000e+00	 1.010542e+01
0	 6.814815e+00	 7.407407e-02	 1.010553e+01
0	 6.814815e+00	 1.481481e-01	 1.010584e+01
0	 6.814815e+00	 2.222222e-01	 1.010636e+01
0	 6.814815e+00	 2.962963e-01	 1.010710e+01
0	 6.814815e+00	 3.703704e-01	 1.010805e+01
0	 6.888889e+00	 0.000000e+00	 1.009731e+01
0	 6.888889e+00	 7.407407e-02	 1.009741e+01
0	 6.888889e+00	 1.481481e-01	 1.009771e+01
0	 6.888889e+00	 2.222222e-01	 1.009822e+01
0	 6.888889e+00	 2.962963e-01	 1.009893e+01
0	 6.888889e+00	 3.703704e-01	 1.009985e+01
0	 6.962963e+00	 0.000000e+00	 1.008920e+01
0	 6.962963e+00	 7.407407e-02	 1.008930e+01
0	 6.962963e+00	 1.481481e-01	 1.008959e+01
0	 6.962963e+00	 2.222222e-01	 1.009008e+01
0	 6.962963e+00	 2.962963e-01	 1.009076e+01
0	 6.962963e+00	 3.703704e-01	 1.009165e+01
0	 7.037037e+00	 0.000000e+00	 1.008108e+01
0	 7.037037e+00	 7.407407e-02	 1.008118e+01
0	 7.037037e+00	 1.481481e-01	 1.008146e+01
0	 7.037037e+00	 2.222222e-01	 1.008193e+01
0	 7.037037e+00	 2.962963e-01	 1.008260e+01
0	 7.037037e+00	 3.703704e-01	 1.008345e+01
0	 6.666667e+00	 3.703704e-01	 1.012452e+01
0	 6.666667e+00	 4.444444e-01	 1.012576e+01
0	 6.666667e+00	 5.185185e-01	 1.012719e+01
0	 6.666667e+00	 5.925926e-01	 1.012882e+01
0	 6.666667e+00	 6.666667e-01	 1.013065e+01
0	 6.666667e+00	 7.407407e-01	 1.013269e+01
0	 6.740741e+00	 3.703704e-01	 1.011628e+01
0	 6.740741e+00	 4.444444e-01	 1.011747e+01
0	 6.740741e+00	 5.185185e-01	 1.011884e+01
0	 6.740741e+00	 5.925926e-01	 1.012041e+01
0	 6.740741e+00	 6.666667e-01	 1.012216e+01
0	 6.740741e+00	 7.407407e-01	 1.012413e+01
0	 6.814815e+00	 3.703704e-01	 1.010805e+01
0	 6.814815e+00	 4.444444e-01	 1.010920e+01
0	 6.814815e+00	 5.185185e-01	 1.011052e+01
0	 6.814815e+00	 5.925926e-01	 1.011203e+01
0	 6.814815e+00	 6.666667e-01	 1.011372e+01
0	 6.814815e+00	 7.407407e-01	 1.011561e+01
0	 6.888889e+00	 3.703704e-01	 1.009985e+01
0	 6.888889e+00	 4.444444e-01	 1.010095e+01
0	 6.888889e+00	 5.185185e-01	 1.010223e+01
0	 6.888889e+00	 5.925926e-01	 1.010368e+01
0	 6.888889e+00	 6.666667e-01	 1.010531e+01
0	 6.888889e+00	 7.407407e-01	 1.010713e+01
0	 6.962963e+00	 3.703704e-01	 1.009165e+01
0	 6.962963e+00	 4.444444e-01	 1.009272e+01
0	 6.962963e+00	 5.185185e-01	 1.009395e+01
0	 6.962963e+00	 5.925926e-01	 1.009534e+01
0	 6.962963e+00	 6.666667e-01	 1.009692e+01
0	 6.962963e+00	 7.407407e-01	 1.009868e+01
0	 7.037037e+00	 3.703704e-01	 1.008345e+01
0	 7.037037e+00	 4.444444e-01	 1.008448e+01
0	 7.037037e+00	 5.185185e-01	 1.008567e+01
0	 7.037037e+00	 5.925926e-01	 1.008702e+01
0	 7.037037e+00	 6.666667e-01	 1.008854e+01
0	 7.037037e+00	 7.407407e-01	 1.009024e+01
0	 6.666667e+00	 7.407407e-01	 1.013269e+01
0	 6.666667e+00	 8.148148e-01	 1.013490e+01
0	 6.666667e+00	 8.888889e-01	 1.013722e+01
0	 6.666667e+00	 9.629630e-01	 1.013967e+01
0	 6.666667e+00	 1.037037e+00	 1.014226e+01
0	 6.666667e+00	 1.111111e+00	 1.014502e+01
0	 6.740741e+00	 7.407407e-01	 1.012413e+01
0	 6.740741e+00	 8.148148e-01	 1.012626e+01
0	 6.740741e+00	 8.888889e-01	 1.012849e+01
0	 6.740741e+00	 9.629630e-01	 1.013086e+01
0	 6.740741e+00	 1.037037e+00	 1.013336e+01
0	 6.740741e+00	 1.111111e+00	 1.013601e+01
0	 6.814815e+00	 7.407407e-01	 1.011561e+01
0	 6.814815e+00	 8.148148e-01	 1.011766e+01
0	 6.814815e+00	 8.888889e-01	 1.011982e+01
0	 6.814815e+00	 9.629630e-01	 1.012210e+01
0	 6.814815e+00	 1.037037e+00	 1.012452e+01
0	 6.814815e+00	 1.111111e+00	 1.012708e+01
0	 6.888889e+00	 7.407407e-01	 1.010713e+01
0	 6.888889e+00	 8.148148e-01	 1.010911e+01
0	 6.888889e+00	 8.888889e-01	 1.011119e+01
0	 6.888889e+00	 9.629630e-01	 1.011339e+01
0	 6.888889e+00	 1.037037e+00	 1.011573e+01
0	 6.888889e+00	 1.111111e+00	 1.011821e+01
0	 6.962963e+00	 7.407407e-01	 1.009868e+01
0	 6.962963e+00	 8.148148e-01	 1.010058e+01
0	 6.962963e+00	 8.888889e-01	 1.010259e+01
0	 6.962963e+00	 9.629630e-01	 1.010472e+01
0	 6.962963e+00	 1.037037e+00	 1.010698e+01
0	 6.962963e+00	 1.111111e+00	 1.010938e+01
0	 7.037037e+00	 7.407407e-01	 1.009024e+01
0	 7.037037e+00	 8.148148e-01	 1.009208e+01
0	 7.037037e+00	 8.888889e-01	 1.009402e+01
0	 7.037037e+00	 9.629630e-01	 1.009608e+01
0	 7.037037e+00	 1.037037e+00	 1.009827e+01
0	 7.037037e+00	 1.111111e+00	 1.010060e+01
0	 6.666667e+00	 1.111111e+00	 1.014502e+01
0	 6.666667e+00	 1.185185e+00	 1.014787e+01
0	 6.666667e+00	 1.259259e+00	 1.015075e+01
0	 6.666667e+00	 1.333333e+00	 1.015369e+01
0	 6.666667e+00	 1.407407e+00	 1.015670e+01
0	 6.666667e+00	 1.481481e+00	 1.015979e+01
0	 6.740741e+00	 1.111111e+00	 1.013601e+01
0	 6.740741e+00	 1.185185e+00	 1.013877e+01
0	 6.740741e+00	 1.259259e+00	 1.014156e+01
0	 6.740741e+00	 1.333333e+00	 1.014440e+01
0	 6.740741e+00	 1.407407e+00	 1.014731e+01
0	 6.740741e+00	 1.481481e+00	 1.015031e+01
0	 6.814815e+00	 1.111111e+00	 1.012708e+01
0	 6.814815e+00	 1.185185e+00	 1.012974e+01
0	 6.814815e+00	 1.259259e+00	 1.013244e+01
0	 6.814815e+00	 1.333333e+00	 1.013520e+01
0	 6.814815e+00	 1.407407e+00	 1.013802e+01
0	 6.814815e+00	 1.481481e+00	 1.014094e+01
0	 6.888889e+00	 1.111111e+00	 1.011821e+01
0	 6.888889e+00	 1.185185e+00	 1.012078e+01
0	 6.888889e+00	 1.259259e+00	 1.012340e+01
0	 6.888889e+00	 1.333333e+00	 1.012607e+01
0	 6.888889e+00	 1.407407e+00	 1.012882e+01
0	 6.888889e+00	 1.481481e+00	 1.013165e+01
0	 6.962963e+00	 1.111111e+00	 1.010938e+01
0	 6.962963e+00	 1.185185e+00	 1.011188e+01
0	 6.962963e+00	 1.259259e+00	 1.011441e+01
0	 6.962963e+00	 1.333333e+00	 1.011701e+01
0	 6.962963e+00	 1.407407e+00	 1.011968e+01
0	 6.962963e+00	 1.481481e+00	 1.012243e+01
0	 7.037037e+00	 1.111111e+00	 1.010060e+01
0	 7.037037e+00	 1.185185e+00	 1.010302e+01
0	 7.037037e+00	 1.259259e+00	 1.010548e+01
0	 7.037037e+00	 1.333333e+00	 1.010800e+01
0	 7.037037e+00	 1.407407e+00	 1.011060e+01
0	 7.037037e+00	 1.481481e+00	 1.011327e+01
0	 6.666667e+00	 1.481481e+00	 1.015979e+01
0	 6.666667e+00	 1.555556e+00	 1.016291e+01
0	 6.666667e+00	 1.629630e+00	 1.016598e+01
0	 6.666667e+00	 1.703704e+00	 1.016903e+01
0	 6.666667e+00	 1.777778e+00	 1.017206e+01
0	 6.666667e+00	 1.851852e+00	 1.017511e+01
0	 6.740741e+00	 1.481481e+00	 1.015031e+01
0	 6.740741e+00	 1.555556e+00	 1.015334e+01
0	 6.740741e+00	 1.629630e+00	 1.015633e+01
0	 6.740741e+00	 1.703704e+00	 1.015929e+01
0	 6.740741e+00	 1.777778e+00	 1.016226e+01
0	 6.740741e+00	 1.851852e+00	 1.016523e+01
0	 6.814815e+00	 1.481481e+00	 1.014094e+01
0	 6.814815e+00	 1.555556e+00	 1.014387e+01
0	 6.814815e+00	 1.629630e+00	 1.014678e+01
0	 6.814815e+00	 1.703704e+00	 1.014968e+01
0	 6.814815e+00	 1.777778e+00	 1.015257e+01
0	 6.814815e+00	 1.851852e+00	 1.015547e+01
0	 6.888889e+00	 1.481481e+00	 1.013165e+01
0	 6.888889e+00	 1.555556e+00	 1.013450e+01
0	 6.888889e+00	 1.629630e+00	 1.013734e+01
0	 6.888889e+00	 1.703704e+00	 1.014016e+01
0	 6.888889e+00	 1.777778e+00	 1.014298e+01
0	 6.888889e+00	 1.851852e+00	 1.014583e+01
0	 6.962963e+00	 1.481481e+00	 1.012243e+01
0	 6.962963e+00	 1.555556e+00	 1.012521e+01
0	 6.962963e+00	 1.629630e+00	 1.012797e+01
0	 6.962963e+00	 1.703704e+00	 1.013073e+01
0	 6.962963e+00	 1.777778e+00	 1.013349e+01
0	 6.962963e+00	 1.851852e+00	 1.013627e+01
0	 7.037037e+00	 1.481481e+00	 1.011327e+01
0	 7.037037e+00	 1.555556e+00	 1.011599e+01
0	 7.037037e+00	 1.629630e+00	 1.011868e+01
0	 7.037037e+00	 1.703704e+00	 1.012137e+01
0	 7.037037e+00	 1.777778e+00	 1.012408e+01
0	 7.037037e+00	 1.851852e+00	 1.012680e+01
0	 6.666667e+00	 1.851852e+00	 1.017511e+01
0	 6.666667e+00	 1.925926e+00	 1.017810e+01
0	 6.666667e+00	 2.000000e+00	 1.018099e+01
0	 6.666667e+00	 2.074074e+00	 1.018378e+01
0	 6.666667e+00	 2.148148e+00	 1.018649e+01
0	 6.666667e+00	 2.222222e+00	 1.018913e+01
0	 6.740741e+00	 1.851852e+00	 1.016523e+01
0	 6.740741e+00	 1.925926e+00	 1.016816e+01
0	 6.740741e+00	 2.000000e+00	 1.017099e+01
0	 6.740741e+00	 2.074074e+00	 1.017373e+01
0	 6.740741e+00	 2.148148e+00	 1.017640e+01
0	 6.740741e+00	 2.222222e+00	 1.017901e+01
0	 6.814815e+00	 1.851852e+00	 1.015547e+01
0	 6.814815e+00	 1.925926e+00	 1.015834e+01
0	 6.814815e+00	 2.000000e+00	 1.016112e+01
0	 6.814815e+00	 2.074074e+00	 1.016381e+01
0	 6.814815e+00	 2.148148e+00	 1.016644e+01
0	 6.814815e+00	 2.222222e+00	 1.016902e+01
0	 6.888889e+00	 1.851852e+00	 1.014583e+01
0	 6.888889e+00	 1.925926e+00	 1.014864e+01
0	 6.888889e+00	 2.000000e+00	 1.015136e+01
0	 6.888889e+00	 2.074074e+00	 1.015401e+01
0	 6.888889e+00	 2.148148e+00	 1.015661e+01
0	 6.888889e+00	 2.222222e+00	 1.015916e+01
0	 6.962963e+00	 1.851852e+00	 1.013627e+01
0	 6.962963e+00	 1.925926e+00	 1.013903e+01
0	 6.962963e+00	 2.000000e+00	 1.014171e+01
0	 6.962963e+00	 2.074074e+00	 1.014432e+01
0	 6.962963e+00	 2.148148e+00	 1.014688e+01
0	 6.962963e+00	 2.222222e+00	 1.014940e+01
0	 7.037037e+00	 1.851852e+00	 1.012680e+01
0	 7.037037e+00	 1.925926e+00	 1.012951e+01
0	 7.037037e+00	 2.000000e+00	 1.013214e+01
0	 7.037037e+00	 2.074074e+00	 1.013471e+01
0	 7.037037e+00	 2.148148e+00	 1.013724e+01
0	 7.037037e+00	 2.222222e+00	 1.013973e+01
0	 6.666667e+00	 2.222222e+00	 1.018913e+01
0	 6.666667e+00	 2.296296e+00	 1.019166e+01
0	 6.666667e+00	 2.370370e+00	 1.019404e+01
0	 6.666667e+00	 2.444444e+00	 1.019627e+01
0	 6.666667e+00	 2.518519e+00	 1.019836e+01
0	 6.666667e+00	 2.592593e+00	 1.020033e+01
0	 6.740741e+00	 2.222222e+00	 1.017901e+01
0	 6.740741e+00	 2.296296e+00	 1.018152e+01
0	 6.740741e+00	 2.370370e+00	 1.018388e+01
0	 6.740741e+00	 2.444444e+00	 1.018610e+01
0	 6.740741e+00	 2.518519e+00	 1.018820e+01
0	 6.740741e+00	 2.592593e+00	 1.019018e+01
0	 6.814815e+00	 2.222222e+00	 1.016902e+01
0	 6.814815e+00	 2.296296e+00	 1.017150e+01
0	 6.814815e+00	 2.370370e+00	 1.017385e+01
0	 6.814815e+00	 2.444444e+00	 1.017607e+01
0	 6.814815e+00	 2.518519e+00	 1.017817e+01
0	 6.814815e+00	 2.592593e+00	 1.018017e+01
0	 6.888889e+00	 2.222222e+00	 1.015916e+01
0	 6.888889e+00	 2.296296e+00	 1.016162e+01
0	 6.888889e+00	 2.370370e+00	 1.016395e+01
0	 6.888889e+00	 2.444444e+00	 1.016616e+01
0	 6.888889e+00	 2.518519e+00	 1.016827e+01
0	 6.888889e+00	 2.592593e+00	 1.017027e+01
0	 6.962963e+00	 2.222222e+00	 1.014940e+01
0	 6.962963e+00	 2.296296e+00	 1.015184e+01
0	 6.962963e+00	 2.370370e+00	 1.015416e+01
0	 6.962963e+00	 2.444444e+00	 1.015637e+01
0	 6.962963e+00	 2.518519e+00	 1.015848e+01
0	 6.962963e+00	 2.592593e+00	 1.016049e+01
0	 7.037037e+00	 2.222222e+00	 1.013973e+01
0	 7.037037e+00	 2.296296e+00	 1.014215e+01
0	 7.037037e+00	 2.370370e+00	 1.014446e+01
0	 7.037037e+00	 2.444444e+00	 1.014667e+01
0	 7.037037e+00	 2.518519e+00	 1.014878e+01
0	 7.037037e+00	 2.592593e+00	 1.015081e+01
0	 6.666667e+00	 2.592593e+00	 1.020033e+01
0	 6.666667e+00	 2.666667e+00	 1.020215e+01
0	 6.666667e+00	 2.740741e+00	 1.020379e+01
0	 6.666667e+00	 2.814815e+00	 1.020525e+01
0	 6.666667e+00	 2.888889e+00	 1.020654e+01
0	 6.666667e+00	 2.962963e+00	 1.020766e+01
0	 6.740741e+00	 2.592593e+00	 1.019018e+01
0	 6.740741e+00	 2.666667e+00	 1.019202e+01
0	 6.740741e+00	 2.740741e+00	 1.019369e+01
0	 6.740741e+00	 2.814815e+00	 1.019519e+01
0	 6.740741e+00	 2.888889e+00	 1.019653e+01
0	 6.740741e+00	 2.962963e+00	 1.019772e+01
0	 6.814815e+00	 2.592593e+00	 1.018017e+01
0	 6.814815e+00	 2.666667e+00	 1.018203e+01
0	 6.814815e+00	 2.740741e+00	 1.018373e+01
0	 6.814815e+00	 2.814815e+00	 1.018527e+01
0	 6.814815e+00	 2.888889e+00	 1.018666e+01
0	 6.814815e+00	 2.962963e+00	 1.018790e+01
0	 6.888889e+00	 2.592593e+00	 1.017027e+01
0	 6.888889e+00	 2.666667e+00	 1.017216e+01
0	 6.888889e+00	 2.740741e+00	 1.017388e+01
0	 6.888889e+00	 2.814815e+00	 1.017546e+01
0	 6.888889e+00	 2.888889e+00	 1.017689e+01
0	 6.888889e+00	 2.962963e+00	 1.017819e+01
0	 6.962963e+00	 2.592593e+00	 1.016049e+01
0	 6.962963e+00	 2.666667e+00	 1.016239e+01
0	 6.962963e+00	 2.740741e+00	 1.016414e+01
0	 6.962963e+00	 2.814815e+00	 1.016576e+01
0	 6.962963e+00	 2.888889e+00	 1.016724e+01
0	 6.962963e+00	 2.962963e+00	 1.016859e+01
0	 7.037037e+00	 2.592593e+00	 1.015081e+01
0	 7.037037e+00	 2.666667e+00	 1.015273e+01
0	 7.037037e+00	 2.740741e+00	 1.015451e+01
0	 7.037037e+00	 2.814815e+00	 1.015615e+01
0	 7.037037e+00	 2.888889e+00	 1.015768e+01
0	 7.037037e+00	 2.962963e+00	 1.015908e+01
0	 6.666667e+00	 2.962963e+00	 1.020766e+01
0	 6.666667e+00	 3.037037e+00	 1.020862e+01
0	 6.666667e+00	 3.111111e+00	 1.020938e+01
0	 6.666667e+00	 3.185185e+00	 1.020996e+01
0	 6.666667e+00	 3.259259e+00	 1.021036e+01
0	 6.666667e+00	 3.333333e+00	 1.021057e+01
0	 6.740741e+00	 2.962963e+00	 1.019772e+01
0	 6.740741e+00	 3.037037e+00	 1.019874e+01
0	 6.740741e+00	 3.111111e+00	 1.019959e+01
0	 6.740741e+00	 3.185185e+00	 1.020025e+01
0	 6.740741e+00	 3.259259e+00	 1.020074e+01
0	 6.740741e+00	 3.333333e+00	 1.020107e+01
0	 6.814815e+00	 2.962963e+00	 1.018790e+01
0	 6.814815e+00	 3.037037e+00	 1.018899e+01
0	 6.814815e+00	 3.111111e+00	 1.018991e+01
0	 6.814815e+00	 3.185185e+00	 1.019066e+01
0	 6.814815e+00	 3.259259e+00	 1.019124e+01
0	 6.814815e+00	 3.333333e+00	 1.019166e+01
0	 6.888889e+00	 2.962963e+00	 1.017819e+01
0	 6.888889e+00	 3.037037e+00	 1.017935e+01
0	 6.888889e+00	 3.111111e+00	 1.018033e+01
0	 6.888889e+00	 3.185185e+00	 1.018116e+01
0	 6.888889e+00	 3.259259e+00	 1.018183e+01
0	 6.888889e+00	 3.333333e+00	 1.018234e+01
0	 6.962963e+00	 2.962963e+00	 1.016859e+01
0	 6.962963e+00	 3.037037e+00	 1.016980e+01
0	 6.962963e+00	 3.111111e+00	 1.017086e+01
0	 6.962963e+00	 3.185185e+00	 1.017176e+01
0	 6.962963e+00	 3.259259e+00	 1.017251e+01
0	 6.962963e+00	 3.333333e+00	 1.017311e+01
0	 7.037037e+00	 2.962963e+00	 1.015908e+01
0	 7.037037e+00	 3.037037e+00	 1.016035e+01
0	 7.037037e+00	 3.111111e+00	 1.016147e+01
0	 7.037037e+00	 3.185185e+00	 1.016244e+01
0	 7.037037e+00	 3.259259e+00	 1.016327e+01
0	 7.037037e+00	 3.333333e+00	 1.016397e+01
0	 6.666667e+00	 3.333333e+00	 1.021057e+01
0	 6.666667e+00	 3.407407e+00	 1.021061e+01
0	 6.666667e+00	 3.481481e+00	 1.021047e+01
0	 6.666667e+00	 3.555556e+00	 1.021016e+01
0	 6.666667e+00	 3.629630e+00	 1.020966e+01
0	 6.666667e+00	 3.703704e+00	 1.020899e+01
0	 6.740741e+00	 3.333333e+00	 1.020107e+01
0	 6.740741e+00	 3.407407e+00	 1.020122e+01
0	 6.740741e+00	 3.481481e+00	 1.020119e+01
0	 6.740741e+00	 3.555556e+00	 1.020100e+01
0	 6.740741e+00	 3.629630e+00	 1.020064e+01
0	 6.740741e+00	 3.703704e+00	 1.020010e+01
0	 6.814815e+00	 3.333333e+00	 1.019166e+01
0	 6.814815e+00	 3.407407e+00	 1.019191e+01
0	 6.814815e+00	 3.481481e+00	 1.019200e+01
0	 6.814815e+00	 3.555556e+00	 1.019193e+01
0	 6.814815e+00	 3.629630e+00	 1.019169e+01
0	 6.814815e+00	 3.703704e+00	 1.019129e+01
0	 6.888889e+00	 3.333333e+00	 1.018234e+01
0	 6.888889e+00	 3.407407e+00	 1.018270e+01
0	 6.888889e+00	 3.481481e+00	 1.018290e+01
0	 6.888889e+00	 3.555556e+00	 1.018294e+01
0	 6.888889e+00	 3.629630e+00	 1.018282e+01
0	 6.888889e+00	 3.703704e+00	 1.018254e+01
0	 6.962963e+00	 3.333333e+00	 1.017311e+01
0	 6.962963e+00	 3.407407e+00	 1.017357e+01
0	 6.962963e+00	 3.481481e+00	 1.017387e+01
0	 6.962963e+00	 3.555556e+00	 1.017402e+01
0	 6.962963e+00	 3.629630e+00	 1.017402e+01
0	 6.962963e+00	 3.703704e+00	 1.017386e+01
0	 7.037037e+00	 3.333333e+00	 1.016397e+01
0	 7.037037e+00	 3.407407e+00	 1.016451e+01
0	 7.037037e+00	 3.481481e+00	 1.016492e+01
0	 7.037037e+00	 3.555556e+00	 1.016517e+01
0	 7.037037e+00	 3.629630e+00	 1.016528e+01
0	 7.037037e+00	 3.703704e+00	 1.016525e+01
0	 6.666667e+00	 3.703704e+00	 1.020899e+01
0	 6.666667e+00	 3.777778e+00	 1.020815e+01
0	 6.666667e+00	 3.851852e+00	 1.020716e+01
0	 6.666667e+00	 3.925926e+00	 1.020600e+01
0	 6.666667e+00	 4.000000e+00	 1.020469e+01
0	 6.666667e+00	 4.074074e+00	 1.020321e+01
0	 6.740741e+00	 3.703704e+00	 1.020010e+01
0	 6.740741e+00	 3.777778e+00	 1.019941e+01
0	 6.740741e+00	 3.851852e+00	 1.019856e+01
0	 6.740741e+00	 3.925926e+00	 1.019756e+01
0	 6.740741e+00	 4.000000e+00	 1.019640e+01
0	 6.740741e+00	 4.074074e+00	 1.019509e+01
0	 6.814815e+00	 3.703704e+00	 1.019129e+01
0	 6.814815e+00	 3.777778e+00	 1.019073e+01
0	 6.814815e+00	 3.851852e+00	 1.019003e+01
0	 6.814815e+00	 3.925926e+00	 1.018917e+01
0	 6.814815e+00	 4.000000e+00	 1.018816e+01
0	 6.814815e+00	 4.074074e+00	 1.018700e+01
0	 6.888889e+00	 3.703704e+00	 1.018254e+01
0	 6.888889e+00	 3.777778e+00	 1.018212e+01
0	 6.888889e+00	 3.851852e+00	 1.018155e+01
0	 6.888889e+00	 3.925926e+00	 1.018083e+01
0	 6.888889e+00	 4.000000e+00	 1.017997e+01
0	 6.888889e+00	 4.074074e+00	 1.017896e+01
0	 6.962963e+00	 3.703704e+00	 1.017386e+01
0	 6.962963e+00	 3.777778e+00	 1.017356e+01
0	 6.962963e+00	 3.851852e+00	 1.017313e+01
0	 6.962963e+00	 3.925926e+00	 1.017255e+01
0	 6.962963e+00	 4.000000e+00	 1.017183e+01
0	 6.962963e+00	 4.074074e+00	 1.017096e+01
0	 7.037037e+00	 3.703704e+00	 1.016525e+01
0	 7.037037e+00	 3.777778e+00	 1.016507e+01
0	 7.037037e+00	 3.851852e+00	 1.016476e+01
0	 7.037037e+00	 3.925926e+00	 1.016432e+01
0	 7.037037e+00	 4.000000e+00	 1.016373e+01
0	 7.037037e+00	 4.074074e+00	 1.016301e+01
0	 6.666667e+00	 4.074074e+00	 1.020321e+01
0	 6.666667e+00	 4.148148e+00	 1.020159e+01
0	 6.666667e+00	 4.222222e+00	 1.019984e+01
0	 6.666667e+00	 4.296296e+00	 1.019796e+01
0	 6.666667e+00	 4.370370e+00	 1.019595e+01
0	 6.666667e+00	 4.444444e+00	 1.019379e+01
0	 6.740741e+00	 4.074074e+00	 1.019509e+01
0	 6.740741e+00	 4.148148e+00	 1.019363e+01
0	 6.740741e+00	 4.222222e+00	 1.019205e+01
0	 6.740741e+00	 4.296296e+00	 1.019034e+01
0	 6.740741e+00	 4.370370e+00	 1.018850e+01
0	 6.740741e+00	 4.444444e+00	 1.018652e+01
0	 6.814815e+00	 4.074074e+00	 1.018700e+01
0	 6.814815e+00	 4.148148e+00	 1.018571e+01
0	 6.814815e+00	 4.222222e+00	 1.018428e+01
0	 6.814815e+00	 4.296296e+00	 1.018274e+01
0	 6.814815e+00	 4.370370e+00	 1.018106e+01
0	 6.814815e+00	 4.444444e+00	 1.017925e+01
0	 6.888889e+00	 4.074074e+00	 1.017896e+01
0	 6.888889e+00	 4.148148e+00	 1.017782e+01
0	 6.888889e+00	 4.222222e+00	 1.017655e+01
0	 6.888889e+00	 4.296296e+00	 1.017516e+01
0	 6.888889e+00	 4.370370e+00	 1.017364e+01
0	 6.888889e+00	 4.444444e+00	 1.017200e+01
0	 6.962963e+00	 4.074074e+00	 1.017096e+01
0	 6.962963e+00	 4.148148e+00	 1.016997e+01
0	 6.962963e+00	 4.222222e+00	 1.016885e+01
0	 6.962963e+00	 4.296296e+00	 1.016762e+01
0	 6.962963e+00	 4.370370e+00	 1.016625e+01
0	 6.962963e+00	 4.444444e+00	 1.016477e+01
0	 7.037037e+00	 4.074074e+00	 1.016301e+01
0	 7.037037e+00	 4.148148e+00	 1.016216e+01
0	 7.037037e+00	 4.222222e+00	 1.016119e+01
0	 7.037037e+00	 4.296296e+00	 1.016010e+01
0	 7.037037e+00	 4.370370e+00	 1.015889e+01
0	 7.037037e+00	 4.444444e+00	 1.015756e+01
0	 6.666667e+00	 4.444444e+00	 1.019379e+01
0	 6.666667e+00	 4.518519e+00	 1.019152e+01
0	 6.666667e+00	 4.592593e+00	 1.018915e+01
0	 6.666667e+00	 4.666667e+00	 1.018668e+01
0	 6.666667e+00	 4.740741e+00	 1.018411e+01
0	 6.666667e+00	 4.814815e+00	 1.018142e+01
0	 6.740741e+00	 4.444444e+00	 1.018652e+01
0	 6.740741e+00	 4.518519e+00	 1.018442e+01
0	 6.740741e+00	 4.592593e+00	 1.018223e+01
0	 6.740741e+00	 4.666667e+00	 1.017993e+01
0	 6.740741e+00	 4.740741e+00	 1.017753e+01
0	 6.740741e+00	 4.814815e+00	 1.017502e+01
0	 6.814815e+00	 4.444444e+00	 1.017925e+01
0	 6.814815e+00	 4.518519e+00	 1.017732e+01
0	 6.814815e+00	 4.592593e+00	 1.017530e+01
0	 6.814815e+00	 4.666667e+00	 1.017318e+01
0	 6.814815e+00	 4.740741e+00	 1.017095e+01
0	 6.814815e+00	 4.814815e+00	 1.016861e+01
0	 6.888889e+00	 4.444444e+00	 1.017200e+01
0	 6.888889e+00	 4.518519e+00	 1.017024e+01
0	 6.888889e+00	 4.592593e+00	 1.016838e+01
0	 6.888889e+00	 4.666667e+00	 1.016642e+01
0	 6.888889e+00	 4.740741e+00	 1.016436e+01
0	 6.888889e+00	 4.814815e+00	 1.016219e+01
0	 6.962963e+00	 4.444444e+00	 1.016477e+01
0	 6.962963e+00	 4.518519e+00	 1.016317e+01
0	 6.962963e+00	 4.592593e+00	 1.016147e+01
0	 6.962963e+00	 4.666667e+00	 1.015968e+01
0	 6.962963e+00	 4.740741e+00	 1.015778e+01
0	 6.962963e+00	 4.814815e+00	 1.015578e+01
0	 7.037037e+00	 4.444444e+00	 1.015756e+01
0	 7.037037e+00	 4.518519e+00	 1.015612e+01
0	 7.037037e+00	 4.592593e+00	 1.015458e+01
0	 7.037037e+00	 4.666667e+00	 1.015295e+01
0	 7.037037e+00	 4.740741e+00	 1.015121e+01
0	 7.037037e+00	 4.814815e+00	 1.014937e+01
0	 6.666667e+00	 4.814815e+00	 1.018142e+01
0	 6.666667e+00	 4.888889e+00	 1.017865e+01
0	 6.666667e+00	 4.962963e+00	 1.017580e+01
0	 6.666667e+00	 5.037037e+00	 1.017289e+01
0	 6.666667e+00	 5.111111e+00	 1.016990e+01
0	 6.666667e+00	 5.185185e+00	 1.016683e+01
0	 6.740741e+00	 4.814815e+00	 1.017502e+01
0	 6.740741e+00	 4.888889e+00	 1.017243e+01
0	 6.740741e+00	 4.962963e+00	 1.016976e+01
0	 6.740741e+00	 5.037037e+00	 1.016702e+01
0	 6.740741e+00	 5.111111e+00	 1.016420e+01
0	 6.740741e+00	 5.185185e+00	 1.016130e+01
0	 6.814815e+00	 4.814815e+00	 1.016861e+01
0	 6.814815e+00	 4.888889e+00	 1.016619e+01
0	 6.814815e+00	 4.962963e+00	 1.016369e+01
0	 6.814815e+00	 5.037037e+00	 1.016112e+01
0	 6.814815e+00	 5.111111e+00	 1.015848e+01
0	 6.814815e+00	 5.185185e+00	 1.015575e+01
0	 6.888889e+00	 4.814815e+00	 1.016219e+01
0	 6.888889e+00	 4.888889e+00	 1.015994e+01
0	 6.888889e+00	 4.962963e+00	 1.015761e+01
0	 6.888889e+00	 5.037037e+00	 1.015521e+01
0	 6.888889e+00	 5.111111e+00	 1.015273e+01
0	 6.888889e+00	 5.185185e+00	 1.015016e+01
0	 6.962963e+00	 4.814815e+00	 1.015578e+01
0	 6.962963e+00	 4.888889e+00	 1.015368e+01
0	 6.962963e+00	 4.962963e+00	 1.015152e+01
0	 6.962963e+00	 5.037037e+00	 1.014928e+01
0	 6.962963e+00	 5.111111e+00	 1.014697e+01
0	 6.962963e+00	 5.185185e+00	 1.014456e+01
0	 7.037037e+00	 4.814815e+00	 1.014937e+01
0	 7.037037e+00	 4.888889e+00	 1.014744e+01
0	 7.037037e+00	 4.962963e+00	 1.014543e+01
0	 7.037037e+00	 5.037037e+00	 1.014336e+01
0	 7.037037e+00	 5.111111e+00	 1.014120e+01
0	 7.037037e+00	 5.185185e+00	 1.013896e+01
0	 6.666667e+00	 5.185185e+00	 1.016683e+01
0	 6.666667e+00	 5.259259e+00	 1.016370e+01
0	 6.666667e+00	 5.333333e+00	 1.016052e+01
0	 6.666667e+00	 5.407407e+00	 1.015731e+01
0	 6.666667e+00	 5.481481e+00	 1.015404e+01
0	 6.666667e+00	 5.555556e+00	 1.015072e+01
0	 6.740741e+00	 5.185185e+00	 1.016130e+01
0	 6.740741e+00	 5.259259e+00	 1.015834e+01
0	 6.740741e+00	 5.333333e+00	 1.015534e+01
0	 6.740741e+00	 5.407407e+00	 1.015229e+01
0	 6.740741e+00	 5.481481e+00	 1.014919e+01
0	 6.740741e+00	 5.555556e+00	 1.014603e+01
0	 6.814815e+00	 5.185185e+00	 1.015575e+01
0	 6.814815e+00	 5.259259e+00	 1.015295e+01
0	 6.814815e+00	 5.333333e+00	 1.015011e+01
0	 6.814815e+00	 5.407407e+00	 1.014723e+01
0	 6.814815e+00	 5.481481e+00	 1.014429e+01
0	 6.814815e+00	 5.555556e+00	 1.014129e+01
0	 6.888889e+00	 5.185185e+00	 1.015016e+01
0	 6.888889e+00	 5.259259e+00	 1.014753e+01
0	 6.888889e+00	 5.333333e+00	 1.014486e+01
0	 6.888889e+00	 5.407407e+00	 1.014213e+01
0	 6.888889e+00	 5.481481e+00	 1.013935e+01
0	 6.888889e+00	 5.555556e+00	 1.013651e+01
0	 6.962963e+00	 5.185185e+00	 1.014456e+01
0	 6.962963e+00	 5.259259e+00	 1.014210e+01
0	 6.962963e+00	 5.333333e+00	 1.013958e+01
0	 6.962963e+00	 5.407407e+00	 1.013702e+01
0	 6.962963e+00	 5.481481e+00	 1.013439e+01
0	 6.962963e+00	 5.555556e+00	 1.013171e+01
0	 7.037037e+00	 5.185185e+00	 1.013896e+01
0	 7.037037e+00	 5.259259e+00	 1.013665e+01
0	 7.037037e+00	 5.333333e+00	 1.013430e+01
0	 7.037037e+00	 5.407407e+00	 1.013188e+01
0	 7.037037e+00	 5.481481e+00	 1.012942e+01
0	 7.037037e+00	 5.555556e+00	 1.012689e+01
0	 6.666667e+00	 5.555556e+00	 1.015072e+01
0	 6.666667e+00	 5.629630e+00	 1.014736e+01
0	 6.666667e+00	 5.703704e+00	 1.014399e+01
0	 6.666667e+00	 5.777778e+00	 1.014059e+01
0	 6.666667e+00	 5.851852e+00	 1.013717e+01
0	 6.666667e+00	 5.925926e+00	 1.013372e+01
0	 6.740741e+00	 5.555556e+00	 1.014603e+01
0	 6.740741e+00	 5.629630e+00	 1.014283e+01
0	 6.740741e+00	 5.703704e+00	 1.013961e+01
0	 6.740741e+00	 5.777778e+00	 1.013637e+01
0	 6.740741e+00	 5.851852e+00	 1.013310e+01
0	 6.740741e+00	 5.925926e+00	 1.012980e+01
0	 6.814815e+00	 5.555556e+00	 1.014129e+01
0	 6.814815e+00	 5.629630e+00	 1.013825e+01
0	 6.814815e+00	 5.703704e+00	 1.013519e+01
0	 6.814815e+00	 5.777778e+00	 1.013210e+01
0	 6.814815e+00	 5.851852e+00	 1.012898e+01
0	 6.814815e+00	 5.925926e+00	 1.012583e+01
0	 6.888889e+00	 5.555556e+00	 1.013651e+01
0	 6.888889e+00	 5.629630e+00	 1.013363e+01
0	 6.888889e+00	 5.703704e+00	 1.013072e+01
0	 6.888889e+00	 5.777778e+00	 1.012778e+01
0	 6.888889e+00	 5.851852e+00	 1.012481e+01
0	 6.888889e+00	 5.925926e+00	 1.012181e+01
0	 6.962963e+00	 5.555556e+00	 1.013171e+01
0	 6.962963e+00	 5.629630e+00	 1.012898e+01
0	 6.962963e+00	 5.703704e+00	 1.012622e+01
0	 6.962963e+00	 5.777778e+00	 1.012344e+01
0	 6.962963e+00	 5.851852e+00	 1.012061e+01
0	 6.962963e+00	 5.925926e+00	 1.011775e+01
0	 7.037037e+00	 5.555556e+00	 1.012689e+01
0	 7.037037e+00	 5.629630e+00	 1.012431e+01
0	 7.037037e+00	 5.703704e+00	 1.012170e+01
0	 7.037037e+00	 5.777778e+00	 1.011907e+01
0	 7.037037e+00	 5.851852e+00	 1.011639e+01
0	 7.037037e+00	 5.925926e+00	 1.011367e+01
0	 6.666667e+00	 5.925926e+00	 1.013372e+01
0	 6.666667e+00	 6.000000e+00	 1.013026e+01
0	 6.666667e+00	 6.074074e+00	 1.012679e+01
0	 6.666667e+00	 6.148148e+00	 1.012333e+01
0	 6.666667e+00	 6.222222e+00	 1.011986e+01
0	 6.666667e+00	 6.296296e+00	 1.011638e+01
0	 6.740741e+00	 5.925926e+00	 1.012980e+01
0	 6.740741e+00	 6.000000e+00	 1.012648e+01
0	 6.740741e+00	 6.074074e+00	 1.012316e+01
0	 6.740741e+00	 6.148148e+00	 1.011984e+01
0	 6.740741e+00	 6.222222e+00	 1.011650e+01
0	 6.740741e+00	 6.296296e+00	 1.011315e+01
0	 6.814815e+00	 5.925926e+00	 1.012583e+01
0	 6.814815e+00	 6.000000e+00	 1.012265e+01
0	 6.814815e+00	 6.074074e+00	 1.011947e+01
0	 6.814815e+00	 6.148148e+00	 1.011629e+01
0	 6.814815e+00	 6.222222e+00	 1.011309e+01
0	 6.814815e+00	 6.296296e+00	 1.010987e+01
0	 6.888889e+00	 5.925926e+00	 1.012181e+01
0	 6.888889e+00	 6.000000e+00	 1.011877e+01
0	 6.888889e+00	 6.074074e+00	 1.011574e+01
0	 6.888889e+00	 6.148148e+00	 1.011269e+01
0	 6.888889e+00	 6.222222e+00	 1.010963e+01
0	 6.888889e+00	 6.296296e+00	 1.010654e+01
0	 6.962963e+00	 5.925926e+00	 1.011775e+01
0	 6.962963e+00	 6.000000e+00	 1.011486e+01
0	 6.962963e+00	 6.074074e+00	 1.011197e+01
0	 6.962963e+00	 6.148148e+00	 1.010905e+01
0	 6.962963e+00	 6.222222e+00	 1.010613e+01
0	 6.962963e+00	 6.296296e+00	 1.010318e+01
0	 7.037037e+00	 5.925926e+00	 1.011367e+01
0	 7.037037e+00	 6.000000e+00	 1.011092e+01
0	 7.037037e+00	 6.074074e+00	 1.010817e+01
0	 7.037037e+00	 6.148148e+00	 1.010539e+01
0	 7.037037e+00	 6.222222e+00	 1.010260e+01
0	 7.037037e+00	 6.296296e+00	 1.009978e+01
0	 6.666667e+00	 6.296296e+00	 1.011638e+01
0	 6.666667e+00	 6.370370e+00	 1.011290e+01
0	 6.666667e+00	 6.444444e+00	 1.010944e+01
0	 6.666667e+00	 6.518519e+00	 1.010599e+01
0	 6.666667e+00	 6.592593e+00	 1.010256e+01
0	 6.666667e+00	 6.666667e+00	 1.009913e+01
0	 6.740741e+00	 6.296296e+00	 1.011315e+01
0	 6.740741e+00	 6.370370e+00	 1.010981e+01
0	 6.740741e+00	 6.444444e+00	 1.010647e+01
0	 6.740741e+00	 6.518519e+00	 1.010315e+01
0	 6.740741e+00	 6.592593e+00	 1.009984e+01
0	 6.740741e+00	 6.666667e+00	 1.009652e+01
0	 6.814815e+00	 6.296296e+00	 1.010987e+01
0	 6.814815e+00	 6.370370e+00	 1.010666e+01
0	 6.814815e+00	 6.444444e+00	 1.010345e+01
0	 6.814815e+00	 6.518519e+00	 1.010025e+01
0	 6.814815e+00	 6.592593e+00	 1.009706e+01
0	 6.814815e+00	 6.666667e+00	 1.009386e+01
0	 6.888889e+00	 6.296296e+00	 1.010654e+01
0	 6.888889e+00	 6.370370e+00	 1.010346e+01
0	 6.888889e+00	 6.444444e+00	 1.010038e+01
0	 6.888889e+00	 6.518519e+00	 1.009730e+01
0	 6.888889e+00	 6.592593e+00	 1.009423e+01
0	 6.888889e+00	 6.666667e+00	 1.009116e+01
0	 6.962963e+00	 6.296296e+00	 1.010318e+01
0	 6.962963e+00	 6.370370e+00	 1.010022e+01
0	 6.962963e+00	 6.444444e+00	 1.009727e+01
0	 6.962963e+00	 6.518519e+00	 1.009432e+01
0	 6.962963e+00	 6.592593e+00	 1.009137e+01
0	 6.962963e+00	 6.666667e+00	 1.008841e+01
0	 7.037037e+00	 6.296296e+00	 1.009978e+01
0	 7.037037e+00	 6.370370e+00	 1.009695e+01
0	 7.037037e+00	 6.444444e+00	 1.009413e+01
0	 7.037037e+00	 6.518519e+00	 1.009130e+01
0	 7.037037e+00	 6.592593e+00	 1.008847e+01
0	 7.037037e+00	 6.666667e+00	 1.008563e+01
0	 6.666667e+00	 6.666667e+00	 1.009913e+01
0	 6.666667e+00	 6.740741e+00	 1.009572e+01
0	 6.666667e+00	 6.814815e+00	 1.009234e+01
0	 6.666667e+00	 6.888889e+00	 1.008898e+01
0	 6.666667e+00	 6.962963e+00	 1.008565e+01
0	 6.666667e+00	 7.037037e+00	 1.008234e+01
0	 6.740741e+00	 6.666667e+00	 1.009652e+01
0	 6.740741e+00	 6.740741e+00	 1.009323e+01
0	 6.740741e+00	 6.814815e+00	 1.008996e+01
0	 6.740741e+00	 6.888889e+00	 1.008671e+01
0	 6.740741e+00	 6.962963e+00	 1.008349e+01
0	 6.740741e+00	 7.037037e+00	 1.008028e+01
0	 6.814815e+00	 6.666667e+00	 1.009386e+01
0	 6.814815e+00	 6.740741e+00	 1.009068e+01
0	 6.814815e+00	 6.814815e+00	 1.008752e+01
0	 6.814815e+00	 6.888889e+00	 1.008439e+01
0	 6.814815e+00	 6.962963e+00	 1.008127e+01
0	 6.814815e+00	 7.037037e+00	 1.007816e+01
0	 6.888889e+00	 6.666667e+00	 1.009116e+01
0	 6.888889e+00	 6.740741e+00	 1.008809e+01
0	 6.888889e+00	 6.814815e+00	 1.008504e+01
0	 6.888889e+00	 6.888889e+00	 1.008202e+01
0	 6.888889e+00	 6.962963e+00	 1.007900e+01
0	 6.888889e+00	 7.037037e+00	 1.007600e+01
0	 6.962963e+00	 6.666667e+00	 1.008841e+01
0	 6.962963e+00	 6.740741e+00	 1.008546e+01
0	 6.962963e+00	 6.814815e+00	 1.008253e+01
0	 6.962963e+00	 6.888889e+00	 1.007961e+01
0	 6.962963e+00	 6.962963e+00	 1.007671e+01
0	 6.962963e+00	 7.037037e+00	 1.007381e+01
0	 7.037037e+00	 6.666667e+00	 1.008563e+01
0	 7.037037e+00	 6.740741e+00	 1.008280e+01
0	 7.037037e+00	 6.814815e+00	 1.007998e+01
0	 7.037037e+00	 6.888889e+00	 1.007717e+01
0	 7.037037e+00	 6.962963e+00	 1.007438e+01
0	 7.037037e+00	 7.037037e+00	 1.007159e+01
0	 6.666667e+00	 7.037037e+00	 1.008234e+01
0	 6.666667e+00	 7.111111e+00	 1.007906e+01
0	 6.666667e+00	 7.185185e+00	 1.007582e+01
0	 6.666667e+00	 7.259259e+00	 1.007262e+01
0	 6.666667e+00	 7.333333e+00	 1.006945e+01
0	 6.666667e+00	 7.407407e+00	 1.006631e+01
0	 6.740741e+00	 7.037037e+00	 1.008028e+01
0	 6.740741e+00	 7.111111e+00	 1.007709e+01
0	 6.740741e+00	 7.185185e+00	 1.007395e+01
0	 6.740741e+00	 7.259259e+00	 1.007084e+01
0	 6.740741e+00	 7.333333e+00	 1.006777e+01
0	 6.740741e+00	 7.407407e+00	 1.006472e+01
0	 6.814815e+00	 7.037037e+00	 1.007816e+01
0	 6.814815e+00	 7.111111e+00	 1.007508e+01
0	 6.814815e+00	 7.185185e+00	 1.007203e+01
0	 6.814815e+00	 7.259259e+00	 1.006902e+01
0	 6.814815e+00	 7.333333e+00	 1.006604e+01
0	 6.814815e+00	 7.407407e+00	 1.006308e+01
0	 6.888889e+00	 7.037037e+00	 1.007600e+01
0	 6.888889e+00	 7.111111e+00	 1.007302e+01
0	 6.888889e+00	 7.185185e+00	 1.007008e+01
0	 6.888889e+00	 7.259259e+00	 1.006716e+01
0	 6.888889e+00	 7.333333e+00	 1.006427e+01
0	 6.888889e+00	 7.407407e+00	 1.006140e+01
0	 6.962963e+00	 7.037037e+00	 1.007381e+01
0	 6.962963e+00	 7.111111e+00	 1.007093e+01
0	 6.962963e+00	 7.185185e+00	 1.006808e+01
0	 6.962963e+00	 7.259259e+00	 1.006526e+01
0	 6.962963e+00	 7.333333e+00	 1.006247e+01
0	 6.962963e+00	 7.407407e+00	 1.005969e+01
0	 7.037037e+00	 7.037037e+00	 1.007159e+01
0	 7.037037e+00	 7.111111e+00	 1.006881e+01
0	 7.037037e+00	 7.185185e+00	 1.006606e+01
0	 7.037037e+00	 7.259259e+00	 1.006334e+01
0	 7.037037e+00	 7.333333e+00	 1.006064e+01
0	 7.037037e+00	 7.407407e+00	 1.005795e+01
0	 6.666667e+00	 7.407407e+00	 1.006631e+01
0	 6.666667e+00	 7.481481e+00	 1.006322e+01
0	 6.666667e+00	 7.555556e+00	 1.006018e+01
0	 6.666667e+00	 7.629630e+00	 1.005718e+01
0	 6.666667e+00	 7.703704e+00	 1.005423e+01
0	 6.666667e+00	 7.777778e+00	 1.005132e+01
0	 6.740741e+00	 7.407407e+00	 1.006472e+01
0	 6.740741e+00	 7.481481e+00	 1.006171e+01
0	 6.740741e+00	 7.555556e+00	 1.005875e+01
0	 6.740741e+00	 7.629630e+00	 1.005583e+01
0	 6.740741e+00	 7.703704e+00	 1.005296e+01
0	 6.740741e+00	 7.777778e+00	 1.005012e+01
0	 6.814815e+00	 7.407407e+00	 1.006308e+01
0	 6.814815e+00	 7.481481e+00	 1.006015e+01
0	 6.814815e+00	 7.555556e+00	 1.005728e+01
0	 6.814815e+00	 7.629630e+00	 1.005444e+01
0	 6.814815e+00	 7.703704e+00	 1.005165e+01
0	 6.814815e+00	 7.777778e+00	 1.004889e+01
0	 6.888889e+00	 7.407407e+00	 1.006140e+01
0	 6.888889e+00	 7.481481e+00	 1.005856e+01
0	 6.888889e+00	 7.555556e+00	 1.005577e+01
0	 6.888889e+00	 7.629630e+00	 1.005302e+01
0	 6.888889e+00	 7.703704e+00	 1.005031e+01
0	 6.888889e+00	 7.777778e+00	 1.004762e+01
0	 6.962963e+00	 7.407407e+00	 1.005969e+01
0	 6.962963e+00	 7.481481e+00	 1.005694e+01
0	 6.962963e+00	 7.555556e+00	 1.005424e+01
0	 6.962963e+00	 7.629630e+00	 1.005157e+01
0	 6.962963e+00	 7.703704e+00	 1.004894e+01
0	 6.962963e+00	 7.777778e+00	 1.004634e+01
0	 7.037037e+00	 7.407407e+00	 1.005795e+01
0	 7.037037e+00	 7.481481e+00	 1.005530e+01
0	 7.037037e+00	 7.555556e+00	 1.005268e+01
0	 7.037037e+00	 7.629630e+00	 1.005010e+01
0	 7.037037e+00	 7.703704e+00	 1.004755e+01
0	 7.037037e+00	 7.777778e+00	 1.004503e+01
0	 6.666667e+00	 7.777778e+00	 1.005132e+01
0	 6.666667e+00	 7.851852e+00	 1.004846e+01
0	 6.666667e+00	 7.925926e+00	 1.004566e+01
0	 6.666667e+00	 8.000000e+00	 1.004292e+01
0	 6.666667e+00	 8.074074e+00	 1.004024e+01
0	 6.666667e+00	 8.148148e+00	 1.003760e+01
0	 6.740741e+00	 7.777778e+00	 1.005012e+01
0	 6.740741e+00	 7.851852e+00	 1.004733e+01
0	 6.740741e+00	 7.925926e+00	 1.004461e+01
0	 6.740741e+00	 8.000000e+00	 1.004193e+01
0	 6.740741e+00	 8.074074e+00	 1.003932e+01
0	 6.740741e+00	 8.148148e+00	 1.003674e+01
0	 6.814815e+00	 7.777778e+00	 1.004889e+01
0	 6.814815e+00	 7.851852e+00	 1.004617e+01
0	 6.814815e+00	 7.925926e+00	 1.004352e+01
0	 6.814815e+00	 8.000000e+00	 1.004092e+01
0	 6.814815e+00	 8.074074e+00	 1.003837e+01
0	 6.814815e+00	 8.148148e+00	 1.003586e+01
0	 6.888889e+00	 7.777778e+00	 1.004762e+01
0	 6.888889e+00	 7.851852e+00	 1.004499e+01
0	 6.888889e+00	 7.925926e+00	 1.004240e+01
0	 6.888889e+00	 8.000000e+00	 1.003987e+01
0	 6.888889e+00	 8.074074e+00	 1.003739e+01
0	 6.888889e+00	 8.148148e+00	 1.003495e+01
0	 6.962963e+00	 7.777778e+00	 1.004634e+01
0	 6.962963e+00	 7.851852e+00	 1.004378e+01
0	 6.962963e+00	 7.925926e+00	 1.004127e+01
0	 6.962963e+00	 8.000000e+00	 1.003881e+01
0	 6.962963e+00	 8.074074e+00	 1.003640e+01
0	 6.962963e+00	 8.148148e+00	 1.003402e+01
0	 7.037037e+00	 7.777778e+00	 1.004503e+01
0	 7.037037e+00	 7.851852e+00	 1.004254e+01
0	 7.037037e+00	 7.925926e+00	 1.004011e+01
0	 7.037037e+00	 8.000000e+00	 1.003773e+01
0	 7.037037e+00	 8.074074e+00	 1.003538e+01
0	 7.037037e+00	 8.148148e+00	 1.003308e+01
0	 6.666667e+00	 8.148148e+00	 1.003760e+01
0	 6.666667e+00	 8.222222e+00	 1.003503e+01
0	 6.666667e+00	 8.296296e+00	 1.003253e+01
0	 6.666667e+00	 8.370370e+00	 1.003011e+01
0	 6.666667e+00	 8.444444e+00	 1.002775e+01
0	 6.666667e+00	 8.518519e+00	 1.002545e+01
0	 6.740741e+00	 8.148148e+00	 1.003674e+01
0	 6.740741e+00	 8.222222e+00	 1.003423e+01
0	 6.740741e+00	 8.296296e+00	 1.003180e+01
0	 6.740741e+00	 8.370370e+00	 1.002943e+01
0	 6.740741e+00	 8.444444e+00	 1.002712e+01
0	 6.740741e+00	 8.518519e+00	 1.002487e+01
0	 6.814815e+00	 8.148148e+00	 1.003586e+01
0	 6.814815e+00	 8.222222e+00	 1.003341e+01
0	 6.814815e+00	 8.296296e+00	 1.003103e+01
0	 6.814815e+00	 8.370370e+00	 1.002872e+01
0	 6.814815e+00	 8.444444e+00	 1.002647e+01
0	 6.814815e+00	 8.518519e+00	 1.002428e+01
0	 6.888889e+00	 8.148148e+00	 1.003495e+01
0	 6.888889e+00	 8.222222e+00	 1.003257e+01
0	 6.888889e+00	 8.296296e+00	 1.003025e+01
0	 6.888889e+00	 8.370370e+00	 1.002800e+01
0	 6.888889e+00	 8.444444e+00	 1.002581e+01
0	 6.888889e+00	 8.518519e+00	 1.002367e+01
0	 6.962963e+00	 8.148148e+00	 1.003402e+01
0	 6.962963e+00	 8.222222e+00	 1.003171e+01
0	 6.962963e+00	 8.296296e+00	 1.002945e+01
0	 6.962963e+00	 8.370370e+00	 1.002726e+01
0	 6.962963e+00	 8.444444e+00	 1.002513e+01
0	 6.962963e+00	 8.518519e+00	 1.002305e+01
0	 7.037037e+00	 8.148148e+00	 1.003308e+01
0	 7.037037e+00	 8.222222e+00	 1.003083e+01
0	 7.037037e+00	 8.296296e+00	 1.002864e+01
0	 7.037037e+00	 8.370370e+00	 1.002651e+01
0	 7.037037e+00	 8.444444e+00	 1.002444e+01
0	 7.037037e+00	 8.518519e+00	 1.002242e+01
0	 6.666667e+00	 8.518519e+00	 1.002545e+01
0	 6.666667e+00	 8.592593e+00	 1.002322e+01
0	 6.666667e+00	 8.666667e+00	 1.002109e+01
0	 6.666667e+00	 8.740741e+00	 1.001904e+01
0	 6.666667e+00	 8.814815e+00	 1.001706e+01
0	 6.666667e+00	 8.888889e+00	 1.001517e+01
0	 6.740741e+00	 8.518519e+00	 1.002487e+01
0	 6.740741e+00	 8.592593e+00	 1.002270e+01
0	 6.740741e+00	 8.666667e+00	 1.002061e+01
0	 6.740741e+00	 8.740741e+00	 1.001861e+01
0	 6.740741e+00	 8.814815e+00	 1.001668e+01
0	 6.740741e+00	 8.888889e+00	 1.001483e+01
0	 6.814815e+00	 8.518519e+00	 1.002428e+01
0	 6.814815e+00	 8.592593e+00	 1.002216e+01
0	 6.814815e+00	 8.666667e+00	 1.002012e+01
0	 6.814815e+00	 8.740741e+00	 1.001816e+01
0	 6.814815e+00	 8.814815e+00	 1.001628e+01
0	 6.814815e+00	 8.888889e+00	 1.001447e+01
0	 6.888889e+00	 8.518519e+00	 1.002367e+01
0	 6.888889e+00	 8.592593e+00	 1.002160e+01
0	 6.888889e+00	 8.666667e+00	 1.001962e+01
0	 6.888889e+00	 8.740741e+00	 1.001771e+01
0	 6.888889e+00	 8.814815e+00	 1.001587e+01
0	 6.888889e+00	 8.888889e+00	 1.001411e+01
0	 6.962963e+00	 8.518519e+00	 1.002305e+01
0	 6.962963e+00	 8.592593e+00	 1.002104e+01
0	 6.962963e+00	 8.666667e+00	 1.001910e+01
0	 6.962963e+00	 8.740741e+00	 1.001724e+01
0	 6.962963e+00	 8.814815e+00	 1.001546e+01
0	 6.962963e+00	 8.888889e+00	 1.001374e+01
0	 7.037037e+00	 8.518519e+00	 1.002242e+01
0	 7.037037e+00	 8.592593e+00	 1.002046e+01
0	 7.037037e+00	 8.666667e+00	 1.001858e+01
0	 7.037037e+00	 8.740741e+00	 1.001677e+01
0	 7.037037e+00	 8.814815e+00	 1.001504e+01
0	 7.037037e+00	 8.888889e+00	 1.001336e+01
0	 6.666667e+00	 8.888889e+00	 1.001517e+01
0	 6.666667e+00	 8.962963e+00	 1.001336e+01
0	 6.666667e+00	 9.037037e+00	 1.001166e+01
0	 6.666667e+00	 9.111111e+00	 1.001007e+01
0	 6.666667e+00	 9.185185e+00	 1.000857e+01
0	 6.666667e+00	 9.259259e+00	 1.000716e+01
0	 6.740741e+00	 8.888889e+00	 1.001483e+01
0	 6.740741e+00	 8.962963e+00	 1.001306e+01
0	 6.740741e+00	 9.037037e+00	 1.001140e+01
0	 6.740741e+00	 9.111111e+00	 1.000984e+01
0	 6.740741e+00	 9.185185e+00	 1.000837e+01
0	 6.740741e+00	 9.259259e+00	 1.000700e+01
0	 6.814815e+00	 8.888889e+00	 1.001447e+01
0	 6.814815e+00	 8.962963e+00	 1.001275e+01
0	 6.814815e+00	 9.037037e+00	 1.001113e+01
0	 6.814815e+00	 9.111111e+00	 1.000960e+01
0	 6.814815e+00	 9.185185e+00	 1.000817e+01
0	 6.814815e+00	 9.259259e+00	 1.000683e+01
0	 6.888889e+00	 8.888889e+00	 1.001411e+01
0	 6.888889e+00	 8.962963e+00	 1.001243e+01
0	 6.888889e+00	 9.037037e+00	 1.001085e+01
0	 6.888889e+00	 9.111111e+00	 1.000936e+01
0	 6.888889e+00	 9.185185e+00	 1.000796e+01
0	 6.888889e+00	 9.259259e+00	 1.000665e+01
0	 6.962963e+00	 8.888889e+00	 1.001374e+01
0	 6.962963e+00	 8.962963e+00	 1.001210e+01
0	 6.962963e+00	 9.037037e+00	 1.001056e+01
0	 6.962963e+00	 9.111111e+00	 1.000911e+01
0	 6.962963e+00	 9.185185e+00	 1.000775e+01
0	 6.962963e+00	 9.259259e+00	 1.000648e+01
0	 7.037037e+00	 8.888889e+00	 1.001336e+01
0	 7.037037e+00	 8.962963e+00	 1.001177e+01
0	 7.037037e+00	 9.037037e+00	 1.001027e+01
0	 7.037037e+00	 9.111111e+00	 1.000886e+01
0	 7.037037e+00	 9.185185e+00	 1.000754e+01
0	 7.037037e+00	 9.259259e+00	 1.000630e+01
0	 6.666667e+00	 9.259259e+00	 1.000716e+01
0	 6.666667e+00	 9.333333e+00	 1.000586e+01
0	 6.666667e+00	 9.407407e+00	 1.000469e+01
0	 6.666667e+00	 9.481481e+00	 1.000365e+01
0	 6.666667e+00	 9.555556e+00	 1.000272e+01
0	 6.666667e+00	 9.629630e+00	 1.000191e+01
0	 6.740741e+00	 9.259259e+00	 1.000700e+01
0	 6.740741e+00	 9.333333e+00	 1.000573e+01
0	 6.740741e+00	 9.407407e+00	 1.000458e+01
0	 6.740741e+00	 9.481481e+00	 1.000356e+01
0	 6.740741e+00	 9.555556e+00	 1.000266e+01
0	 6.740741e+00	 9.629630e+00	 1.000186e+01
0	 6.814815e+00	 9.259259e+00	 1.000683e+01
0	 6.814815e+00	 9.333333e+00	 1.000559e+01
0	 6.814815e+00	 9.407407e+00	 1.000447e+01
0	 6.814815e+00	 9.481481e+00	 1.000348e+01
0	 6.814815e+00	 9.555556e+00	 1.000259e+01
0	 6.814815e+00	 9.629630e+00	 1.000182e+01
0	 6.888889e+00	 9.259259e+00	 1.000665e+01
0	 6.888889e+00	 9.333333e+00	 1.000544e+01
0	 6.888889e+00	 9.407407e+00	 1.000436e+01
0	 6.888889e+00	 9.481481e+00	 1.000338e+01
0	 6.888889e+00	 9.555556e+00	 1.000252e+01
0	 6.888889e+00	 9.629630e+00	 1.000177e+01
0	 6.962963e+00	 9.259259e+00	 1.000648e+01
0	 6.962963e+00	 9.333333e+00	 1.000530e+01
0	 6.962963e+00	 9.407407e+00	 1.000424e+01
0	 6.962963e+00	 9.481481e+00	 1.000329e+01
0	 6.962963e+00	 9.555556e+00	 1.000246e+01
0	 6.962963e+00	 9.629630e+00	 1.000172e+01
0	 7.037037e+00	 9.259259e+00	 1.000630e+01
0	 7.037037e+00	 9.333333e+00	 1.000515e+01
0	 7.037037e+00	 9.407407e+00	 1.000412e+01
0	 7.037037e+00	 9.481481e+00	 1.000320e+01
0	 7.037037e+00	 9.555556e+00	 1.000239e+01
0	 7.037037e+00	 9.629630e+00	 1.000167e+01
0	 6.666667e+00	 9.629630e+00	 1.000191e+01
0	 6.666667e+00	 9.703704e+00	 1.000122e+01
0	 6.666667e+00	 9.777778e+00	 1.000070e+01
0	 6.666667e+00	 9.851852e+00	 1.000032e+01
0	 6.666667e+00	 9.925926e+00	 1.000009e+01
0	 6.666667e+00	 1.000000e+01	 9.999984e+00
0	 6.740741e+00	 9.629630e+00	 1.000186e+01
0	 6.740741e+00	 9.703704e+00	 1.000120e+01
0	 6.740741e+00	 9.777778e+00	 1.000068e+01
0	 6.740741e+00	 9.851852e+00	 1.000032e+01
0	 6.740741e+00	 9.925926e+00	 1.000009e+01
0	 6.740741e+00	 1.000000e+01	 9.999986e+00
0	 6.814815e+00	 9.629630e+00	 1.000182e+01
0	 6.814815e+00	 9.703704e+00	 1.000117e+01
0	 6.814815e+00	 9.777778e+00	 1.000067e+01
0	 6.814815e+00	 9.851852e+00	 1.000031e+01
0	 6.814815e+00	 9.925926e+00	 1.000008e+01
0	 6.814815e+00	 1.000000e+01	 9.999986e+00
0	 6.888889e+00	 9.629630e+00	 1.000177e+01
0	 6.888889e+00	 9.703704e+00	 1.000113e+01
0	 6.888889e+00	 9.777778e+00	 1.000065e+01
0	 6.888889e+00	 9.851852e+00	 1.000030e+01
0	 6.888889e+00	 9.925926e+00	 1.000008e+01
0	 6.888889e+00	 1.000000e+01	 9.999984e+00
0	 6.962963e+00	 9.629630e+00	 1.000172e+01
0	 6.962963e+00	 9.703704e+00	 1.000110e+01
0	 6.962963e+00	 9.777778e+00	 1.000063e+01
0	 6.962963e+00	 9.851852e+00	 1.000029e+01
0	 6.962963e+00	 9.925926e+00	 1.000008e+01
0	 6.962963e+00	 1.000000e+01	 9.999984e+00
0	 7.037037e+00	 9.629630e+00	 1.000167e+01
0	 7.037037e+00	 9.703704e+00	 1.000107e+01
0	 7.037037e+00	 9.777778e+00	 1.000061e+01
0	 7.037037e+00	 9.851852e+00	 1.000028e+01
0	 7.037037e+00	 9.925926e+00	 1.000007e+01
0	 7.037037e+00	 1.000000e+01	 9.999987e+00
0	 7.037037e+00	 0.000000e+00	 1.008108e+01
0	 7.037037e+00	 7.407407e-02	 1.008118e+01
0	 7.037037e+00	 1.481481e-01	 1.008146e+01
0	 7.037037e+00	 2.222222e-01	 1.008193e+01
0	 7.037037e+00	 2.962963e-01	 1.008260e+01
0	 7.037037e+00	 3.703704e-01	 1.008345e+01
0	 7.111111e+00	 0.000000e+00	 1.007295e+01
0	 7.111111e+00	 7.407407e-02	 1.007304e+01
0	 7.111111e+00	 1.481481e-01	 1.007332e+01
0	 7.111111e+00	 2.222222e-01	 1.007378e+01
0	 7.111111e+00	 2.962963e-01	 1.007442e+01
0	 7.111111e+00	 3.703704e-01	 1.007525e+01
0	 7.185185e+00	 0.000000e+00	 1.006479e+01
0	 7.185185e+00	 7.407407e-02	 1.006489e+01
0	 7.185185e+00	 1.481481e-01	 1.006516e+01
0	 7.185185e+00	 2.222222e-01	 1.006560e+01
0	 7.185185e+00	 2.962963e-01	 1.006622e+01
0	 7.185185e+00	 3.703704e-01	 1.006702e+01
0	 7.259259e+00	 0.000000e+00	 1.005662e+01
0	 7.259259e+00	 7.407407e-02	 1.005671e+01
0	 7.259259e+00	 1.481481e-01	 1.005697e+01
0	 7.259259e+00	 2.222222e-01	 1.005739e+01
0	 7.259259e+00	 2.962963e-01	 1.005800e+01
0	 7.259259e+00	 3.703704e-01	 1.005877e+01
0	 7.333333e+00	 0.000000e+00	 1.004841e+01
0	 7.333333e+00	 7.407407e-02	 1.004849e+01
0	 7.333333e+00	 1.481481e-01	 1.004874e+01
0	 7.333333e+00	 2.222222e-01	 1.004916e+01
0	 7.333333e+00	 2.962963e-01	 1.004974e+01
0	 7.333333e+00	 3.703704e-01	 1.005049e+01
0	 7.407407e+00	 0.000000e+00	 1.004015e+01
0	 7.407407e+00	 7.407407e-02	 1.004024e+01
0	 7.407407e+00	 1.481481e-01	 1.004048e+01
0	 7.407407e+00	 2.222222e-01	 1.004088e+01
0	 7.407407e+00	 2.962963e-01	 1.004144e+01
0	 7.407407e+00	 3.703704e-01	 1.004217e+01
0	 7.037037e+00	 3.703704e-01	 1.008345e+01
0	 7.037037e+00	 4.444444e-01	 1.008448e+01
0	 7.037037e+00	 5.185185e-01	 1.008567e+01
0	 7.037037e+00	 5.925926e-01	 1.008702e+01
0	 7.037037e+00	 6.666667e-01	 1.008854e+01
0	 7.037037e+00	 7.407407e-01	 1.009024e+01
0	 7.111111e+00	 3.703704e-01	 1.007525e+01
0	 7.111111e+00	 4.444444e-01	 1.007624e+01
0	 7.111111e+00	 5.185185e-01	 1.007739e+01
0	 7.111111e+00	 5.925926e-01	 1.007870e+01
0	 7.111111e+00	 6.666667e-01	 1.008017e+01
0	 7.111111e+00	 7.407407e-01	 1.008181e+01
0	 7.185185e+00	 3.703704e-01	 1.006702e+01
0	 7.185185e+00	 4.444444e-01	 1.006799e+01
0	 7.185185e+00	 5.185185e-01	 1.006910e+01
0	 7.185185e+00	 5.925926e-01	 1.007036e+01
0	 7.185185e+00	 6.666667e-01	 1.007179e+01
0	 7.185185e+00	 7.407407e-01	 1.007338e+01
0	 7.259259e+00	 3.703704e-01	 1.005877e+01
0	 7.259259e+00	 4.444444e-01	 1.005971e+01
0	 7.259259e+00	 5.185185e-01	 1.006078e+01
0	 7.259259e+00	 5.925926e-01	 1.006201e+01
0	 7.259259e+00	 6.666667e-01	 1.006339e+01
0	 7.259259e+00	 7.407407e-01	 1.006493e+01
0	 7.333333e+00	 3.703704e-01	 1.005049e+01
0	 7.333333e+00	 4.444444e-01	 1.005140e+01
0	 7.333333e+00	 5.185185e-01	 1.005244e+01
0	 7.333333e+00	 5.925926e-01	 1.005363e+01
0	 7.333333e+00	 6.666667e-01	 1.005498e+01
0	 7.333333e+00	 7.407407e-01	 1.005648e+01
0	 7.407407e+00	 3.703704e-01	 1.004217e+01
0	 7.407407e+00	 4.444444e-01	 1.004305e+01
0	 7.407407e+00	 5.185185e-01	 1.004407e+01
0	 7.407407e+00	 5.925926e-01	 1.004523e+01
0	 7.407407e+00	 6.666667e-01	 1.004654e+01
0	 7.407407e+00	 7.407407e-01	 1.004800e+01
0	 7.037037e+00	 7.407407e-01	 1.009024e+01
0	 7.037037e+00	 8.148148e-01	 1.009208e+01
0	 7.037037e+00	 8.888889e-01	 1.009402e+01
0	 7.037037e+00	 9.629630e-01	 1.009608e+01
0	 7.037037e+00	 1.037037e+00	 1.009827e+01
0	 7.037037e+00	 1.111111e+00	 1.010060e+01
0	 7.111111e+00	 7.407407e-01	 1.008181e+01
0	 7.111111e+00	 8.148148e-01	 1.008359e+01
0	 7.111111e+00	 8.888889e-01	 1.008547e+01
0	 7.111111e+00	 9.629630e-01	 1.008747e+01
0	 7.111111e+00	 1.037037e+00	 1.008959e+01
0	 7.111111e+00	 1.111111e+00	 1.009184e+01
0	 7.185185e+00	 7.407407e-01	 1.007338e+01
0	 7.185185e+00	 8.148148e-01	 1.007510e+01
0	 7.185185e+00	 8.888889e-01	 1.007693e+01
0	 7.185185e+00	 9.629630e-01	 1.007886e+01
0	 7.185185e+00	 1.037037e+00	 1.008093e+01
0	 7.185185e+00	 1.111111e+00	 1.008312e+01
0	 7.259259e+00	 7.407407e-01	 1.006493e+01
0	 7.259259e+00	 8.148148e-01	 1.006661e+01
0	 7.259259e+00	 8.888889e-01	 1.006838e+01
0	 7.259259e+00	 9.629630e-01	 1.007027e+01
0	 7.259259e+00	 1.037037e+00	 1.007227e+01
0	 7.259259e+00	 1.111111e+00	 1.007441e+01
0	 7.333333e+00	 7.407407e-01	 1.005648e+01
0	 7.333333e+00	 8.148148e-01	 1.005810e+01
0	 7.333333e+00	 8.888889e-01	 1.005983e+01
0	 7.333333e+00	 9.629630e-01	 1.006167e+01
0	 7.333333e+00	 1.037037e+00	 1.006362e+01
0	 7.333333e+00	 1.111111e+00	 1.006570e+01
0	 7.407407e+00	 7.407407e-01	 1.004800e+01
0	 7.407407e+00	 8.148148e-01	 1.004958e+01
0	 7.407407e+00	 8.888889e-01	 1.005127e+01
0	 7.407407e+00	 9.629630e-01	 1.005306e+01
0	 7.407407e+00	 1.037037e+00	 1.005496e+01
0	 7.407407e+00	 1.111111e+00	 1.005699e+01
0	 7.037037e+00	 1.111111e+00	 1.010060e+01
0	 7.037037e+00	 1.185185e+00	 1.010302e+01
0	 7.037037e+00	 1.259259e+00	 1.010548e+01
0	 7.037037e+00	 1.333333e+00	 1.010800e+01
0	 7.037037e+00	 1.407407e+00	 1.011060e+01
0	 7.037037e+00	 1.481481e+00	 1.011327e+01
0	 7.111111e+00	 1.111111e+00	 1.009184e+01
0	 7.111111e+00	 1.185185e+00	 1.009419e+01
0	 7.111111e+00	 1.259259e+00	 1.009659e+01
0	 7.111111e+00	 1.333333e+00	 1.009904e+01
0	 7.111111e+00	 1.407407e+00	 1.010157e+01
0	 7.111111e+00	 1.481481e+00	 1.010418e+01
0	 7.185185e+00	 1.111111e+00	 1.008312e+01
0	 7.185185e+00	 1.185185e+00	 1.008540e+01
0	 7.185185e+00	 1.259259e+00	 1.008773e+01
0	 7.185185e+00	 1.333333e+00	 1.009012e+01
0	 7.185185e+00	 1.407407e+00	 1.009259e+01
0	 7.185185e+00	 1.481481e+00	 1.009513e+01
0	 7.259259e+00	 1.111111e+00	 1.007441e+01
0	 7.259259e+00	 1.185185e+00	 1.007663e+01
0	 7.259259e+00	 1.259259e+00	 1.007890e+01
0	 7.259259e+00	 1.333333e+00	 1.008124e+01
0	 7.259259e+00	 1.407407e+00	 1.008364e+01
0	 7.259259e+00	 1.481481e+00	 1.008613e+01
0	 7.333333e+00	 1.111111e+00	 1.006570e+01
0	 7.333333e+00	 1.185185e+00	 1.006787e+01
0	 7.333333e+00	 1.259259e+00	 1.007009e+01
0	 7.333333e+00	 1.333333e+00	 1.007237e+01
0	 7.333333e+00	 1.407407e+00	 1.007472e+01
0	 7.333333e+00	 1.481481e+00	 1.007715e+01
0	 7.407407e+00	 1.111111e+00	 1.005699e+01
0	 7.407407e+00	 1.185185e+00	 1.005911e+01
0	 7.407407e+00	 1.259259e+00	 1.006128e+01
0	 7.407407e+00	 1.333333e+00	 1.006351e+01
0	 7.407407e+00	 1.407407e+00	 1.006581e+01
0	 7.407407e+00	 1.481481e+00	 1.006820e+01
0	 7.037037e+00	 1.481481e+00	 1.011327e+01
0	 7.037037e+00	 1.555556e+00	 1.011599e+01
0	 7.037037e+00	 1.629630e+00	 1.011868e+01
0	 7.037037e+00	 1.703704e+00	 1.012137e+01
0	 7.037037e+00	 1.777778e+00	 1.012408e+01
0	 7.037037e+00	 1.851852e+00	 1.012680e+01
0	 7.111111e+00	 1.481481e+00	 1.010418e+01
0	 7.111111e+00	 1.555556e+00	 1.010682e+01
0	 7.111111e+00	 1.629630e+00	 1.010945e+01
0	 7.111111e+00	 1.703704e+00	 1.011209e+01
0	 7.111111e+00	 1.777778e+00	 1.011474e+01
0	 7.111111e+00	 1.851852e+00	 1.011741e+01
0	 7.185185e+00	 1.481481e+00	 1.009513e+01
0	 7.185185e+00	 1.555556e+00	 1.009771e+01
0	 7.185185e+00	 1.629630e+00	 1.010029e+01
0	 7.185185e+00	 1.703704e+00	 1.010287e+01
0	 7.185185e+00	 1.777778e+00	 1.010547e+01
0	 7.185185e+00	 1.851852e+00	 1.010810e+01
0	 7.259259e+00	 1.481481e+00	 1.008613e+01
0	 7.259259e+00	 1.555556e+00	 1.008865e+01
0	 7.259259e+00	 1.629630e+00	 1.009118e+01
0	 7.259259e+00	 1.703704e+00	 1.009371e+01
0	 7.259259e+00	 1.777778e+00	 1.009626e+01
0	 7.259259e+00	 1.851852e+00	 1.009884e+01
0	 7.333333e+00	 1.481481e+00	 1.007715e+01
0	 7.333333e+00	 1.555556e+00	 1.007963e+01
0	 7.333333e+00	 1.629630e+00	 1.008211e+01
0	 7.333333e+00	 1.703704e+00	 1.008459e+01
0	 7.333333e+00	 1.777778e+00	 1.008710e+01
0	 7.333333e+00	 1.851852e+00	 1.008965e+01
0	 7.407407e+00	 1.481481e+00	 1.006820e+01
0	 7.407407e+00	 1.555556e+00	 1.007063e+01
0	 7.407407e+00	 1.629630e+00	 1.007306e+01
0	 7.407407e+00	 1.703704e+00	 1.007551e+01
0	 7.407407e+00	 1.777778e+00	 1.007798e+01
0	 7.407407e+00	 1.851852e+00	 1.008049e+01
0	 7.037037e+00	 1.851852e+00	 1.012680e+01
0	 7.037037e+00	 1.925926e+00	 1.012951e+01
0	 7.037037e+00	 2.000000e+00	 1.013214e+01
0	 7.037037e+00	 2.074074e+00	 1.013471e+01
0	 7.037037e+00	 2.148148e+00	 1.013724e+01
0	 7.037037e+00	 2.222222e+00	 1.013973e+01
0	 7.111111e+00	 1.851852e+00	 1.011741e+01
0	 7.111111e+00	 1.925926e+00	 1.012007e+01
0	 7.111111e+00	 2.000000e+00	 1.012266e+01
0	 7.111111e+00	 2.074074e+00	 1.012520e+01
0	 7.111111e+00	 2.148148e+00	 1.012770e+01
0	 7.111111e+00	 2.222222e+00	 1.013016e+01
0	 7.185185e+00	 1.851852e+00	 1.010810e+01
0	 7.185185e+00	 1.925926e+00	 1.011071e+01
0	 7.185185e+00	 2.000000e+00	 1.011326e+01
0	 7.185185e+00	 2.074074e+00	 1.011577e+01
0	 7.185185e+00	 2.148148e+00	 1.011824e+01
0	 7.185185e+00	 2.222222e+00	 1.012069e+01
0	 7.259259e+00	 1.851852e+00	 1.009884e+01
0	 7.259259e+00	 1.925926e+00	 1.010142e+01
0	 7.259259e+00	 2.000000e+00	 1.010394e+01
0	 7.259259e+00	 2.074074e+00	 1.010642e+01
0	 7.259259e+00	 2.148148e+00	 1.010887e+01
0	 7.259259e+00	 2.222222e+00	 1.011129e+01
0	 7.333333e+00	 1.851852e+00	 1.008965e+01
0	 7.333333e+00	 1.925926e+00	 1.009218e+01
0	 7.333333e+00	 2.000000e+00	 1.009467e+01
0	 7.333333e+00	 2.074074e+00	 1.009713e+01
0	 7.333333e+00	 2.148148e+00	 1.009956e+01
0	 7.333333e+00	 2.222222e+00	 1.010197e+01
0	 7.407407e+00	 1.851852e+00	 1.008049e+01
0	 7.407407e+00	 1.925926e+00	 1.008299e+01
0	 7.407407e+00	 2.000000e+00	 1.008546e+01
0	 7.407407e+00	 2.074074e+00	 1.008789e+01
0	 7.407407e+00	 2.148148e+00	 1.009030e+01
0	 7.407407e+00	 2.222222e+00	 1.009270e+01
0	 7.037037e+00	 2.222222e+00	 1.013973e+01
0	 7.037037e+00	 2.296296e+00	 1.014215e+01
0	 7.037037e+00	 2.370370e+00	 1.014446e+01
0	 7.037037e+00	 2.444444e+00	 1.014667e+01
0	 7.037037e+00	 2.518519e+00	 1.014878e+01
0	 7.037037e+00	 2.592593e+00	 1.015081e+01
0	 7.111111e+00	 2.222222e+00	 1.013016e+01
0	 7.111111e+00	 2.296296e+00	 1.013257e+01
0	 7.111111e+00	 2.370370e+00	 1.013486e+01
0	 7.111111e+00	 2.444444e+00	 1.013707e+01
0	 7.111111e+00	 2.518519e+00	 1.013918e+01
0	 7.111111e+00	 2.592593e+00	 1.014122e+01
0	 7.185185e+00	 2.222222e+00	 1.012069e+01
0	 7.185185e+00	 2.296296e+00	 1.012307e+01
0	 7.185185e+00	 2.370370e+00	 1.012536e+01
0	 7.185185e+00	 2.444444e+00	 1.012757e+01
0	 7.185185e+00	 2.518519e+00	 1.012969e+01
0	 7.185185e+00	 2.592593e+00	 1.013174e+01
0	 7.259259e+00	 2.222222e+00	 1.011129e+01
0	 7.259259e+00	 2.296296e+00	 1.011367e+01
0	 7.259259e+00	 2.370370e+00	 1.011595e+01
0	 7.259259e+00	 2.444444e+00	 1.011815e+01
0	 7.259259e+00	 2.518519e+00	 1.012028e+01
0	 7.259259e+00	 2.592593e+00	 1.012235e+01
0	 7.333333e+00	 2.222222e+00	 1.010197e+01
0	 7.333333e+00	 2.296296e+00	 1.010433e+01
0	 7.333333e+00	 2.370370e+00	 1.010661e+01
0	 7.333333e+00	 2.444444e+00	 1.010882e+01
0	 7.333333e+00	 2.518519e+00	 1.011096e+01
0	 7.333333e+00	 2.592593e+00	 1.011303e+01
0	 7.407407e+00	 2.222222e+00	 1.009270e+01
0	 7.407407e+00	 2.296296e+00	 1.009506e+01
0	 7.407407e+00	 2.370370e+00	 1.009734e+01
0	 7.407407e+00	 2.444444e+00	 1.009955e+01
0	 7.407407e+00	 2.518519e+00	 1.010170e+01
0	 7.407407e+00	 2.592593e+00	 1.010379e+01
0	 7.037037e+00	 2.592593e+00	 1.015081e+01
0	 7.037037e+00	 2.666667e+00	 1.015273e+01
0	 7.037037e+00	 2.740741e+00	 1.015451e+01
0	 7.037037e+00	 2.814815e+00	 1.015615e+01
0	 7.037037e+00	 2.888889e+00	 1.015768e+01
0	 7.037037e+00	 2.962963e+00	 1.015908e+01
0	 7.111111e+00	 2.592593e+00	 1.014122e+01
0	 7.111111e+00	 2.666667e+00	 1.014316e+01
0	 7.111111e+00	 2.740741e+00	 1.014497e+01
0	 7.111111e+00	 2.814815e+00	 1.014665e+01
0	 7.111111e+00	 2.888889e+00	 1.014821e+01
0	 7.111111e+00	 2.962963e+00	 1.014966e+01
0	 7.185185e+00	 2.592593e+00	 1.013174e+01
0	 7.185185e+00	 2.666667e+00	 1.013369e+01
0	 7.185185e+00	 2.740741e+00	 1.013553e+01
0	 7.185185e+00	 2.814815e+00	 1.013724e+01
0	 7.185185e+00	 2.888889e+00	 1.013885e+01
0	 7.185185e+00	 2.962963e+00	 1.014035e+01
0	 7.259259e+00	 2.592593e+00	 1.012235e+01
0	 7.259259e+00	 2.666667e+00	 1.012432e+01
0	 7.259259e+00	 2.740741e+00	 1.012618e+01
0	 7.259259e+00	 2.814815e+00	 1.012793e+01
0	 7.259259e+00	 2.888889e+00	 1.012958e+01
0	 7.259259e+00	 2.962963e+00	 1.013113e+01
0	 7.333333e+00	 2.592593e+00	 1.011303e+01
0	 7.333333e+00	 2.666667e+00	 1.011503e+01
0	 7.333333e+00	 2.740741e+00	 1.011692e+01
0	 7.333333e+00	 2.814815e+00	 1.011870e+01
0	 7.333333e+00	 2.888889e+00	 1.012039e+01
0	 7.333333e+00	 2.962963e+00	 1.012198e+01
0	 7.407407e+00	 2.592593e+00	 1.010379e+01
0	 7.407407e+00	 2.666667e+00	 1.010581e+01
0	 7.407407e+00	 2.740741e+00	 1.010773e+01
0	 7.407407e+00	 2.814815e+00	 1.010955e+01
0	 7.407407e+00	 2.888889e+00	 1.011128e+01
0	 7.407407e+00	 2.962963e+00	 1.011292e+01
0	 7.037037e+00	 2.962963e+00	 1.015908e+01
0	 7.037037e+00	 3.037037e+00	 1.016035e+01
0	 7.037037e+00	 3.111111e+00	 1.016147e+01
0	 7.037037e+00	 3.185185e+00	 1.016244e+01
0	 7.037037e+00	 3.259259e+00	 1.016327e+01
0	 7.037037e+00	 3.333333e+00	 1.016397e+01
0	 7.111111e+00	 2.962963e+00	 1.014966e+01
0	 7.111111e+00	 3.037037e+00	 1.015099e+01
0	 7.111111e+00	 3.111111e+00	 1.015217e+01
0	 7.111111e+00	 3.185185e+00	 1.015322e+01
0	 7.111111e+00	 3.259259e+00	 1.015413e+01
0	 7.111111e+00	 3.333333e+00	 1.015490e+01
0	 7.185185e+00	 2.962963e+00	 1.014035e+01
0	 7.185185e+00	 3.037037e+00	 1.014173e+01
0	 7.185185e+00	 3.111111e+00	 1.014297e+01
0	 7.185185e+00	 3.185185e+00	 1.014409e+01
0	 7.185185e+00	 3.259259e+00	 1.014507e+01
0	 7.185185e+00	 3.333333e+00	 1.014593e+01
0	 7.259259e+00	 2.962963e+00	 1.013113e+01
0	 7.259259e+00	 3.037037e+00	 1.013256e+01
0	 7.259259e+00	 3.111111e+00	 1.013387e+01
0	 7.259259e+00	 3.185185e+00	 1.013505e+01
0	 7.259259e+00	 3.259259e+00	 1.013611e+01
0	 7.259259e+00	 3.333333e+00	 1.013705e+01
0	 7.333333e+00	 2.962963e+00	 1.012198e+01
0	 7.333333e+00	 3.037037e+00	 1.012347e+01
0	 7.333333e+00	 3.111111e+00	 1.012484e+01
0	 7.333333e+00	 3.185185e+00	 1.012609e+01
0	 7.333333e+00	 3.259259e+00	 1.012722e+01
0	 7.333333e+00	 3.333333e+00	 1.012824e+01
0	 7.407407e+00	 2.962963e+00	 1.011292e+01
0	 7.407407e+00	 3.037037e+00	 1.011446e+01
0	 7.407407e+00	 3.111111e+00	 1.011589e+01
0	 7.407407e+00	 3.185185e+00	 1.011720e+01
0	 7.407407e+00	 3.259259e+00	 1.011840e+01
0	 7.407407e+00	 3.333333e+00	 1.011950e+01
0	 7.037037e+00	 3.333333e+00	 1.016397e+01
0	 7.037037e+00	 3.407407e+00	 1.016451e+01
0	 7.037037e+00	 3.481481e+00	 1.016492e+01
0	 7.037037e+00	 3.555556e+00	 1.016517e+01
0	 7.037037e+00	 3.629630e+00	 1.016528e+01
0	 7.037037e+00	 3.703704e+00	 1.016525e+01
0	 7.111111e+00	 3.333333e+00	 1.015490e+01
0	 7.111111e+00	 3.407407e+00	 1.015554e+01
0	 7.111111e+00	 3.481481e+00	 1.015604e+01
0	 7.111111e+00	 3.555556e+00	 1.015640e+01
0	 7.111111e+00	 3.629630e+00	 1.015662e+01
0	 7.111111e+00	 3.703704e+00	 1.015670e+01
0	 7.185185e+00	 3.333333e+00	 1.014593e+01
0	 7.185185e+00	 3.407407e+00	 1.014666e+01
0	 7.185185e+00	 3.481481e+00	 1.014726e+01
0	 7.185185e+00	 3.555556e+00	 1.014771e+01
0	 7.185185e+00	 3.629630e+00	 1.014804e+01
0	 7.185185e+00	 3.703704e+00	 1.014823e+01
0	 7.259259e+00	 3.333333e+00	 1.013705e+01
0	 7.259259e+00	 3.407407e+00	 1.013786e+01
0	 7.259259e+00	 3.481481e+00	 1.013855e+01
0	 7.259259e+00	 3.555556e+00	 1.013910e+01
0	 7.259259e+00	 3.629630e+00	 1.013953e+01
0	 7.259259e+00	 3.703704e+00	 1.013983e+01
0	 7.333333e+00	 3.333333e+00	 1.012824e+01
0	 7.333333e+00	 3.407407e+00	 1.012914e+01
0	 7.333333e+00	 3.481481e+00	 1.012991e+01
0	 7.333333e+00	 3.555556e+00	 1.013056e+01
0	 7.333333e+00	 3.629630e+00	 1.013109e+01
0	 7.333333e+00	 3.703704e+00	 1.013150e+01
0	 7.407407e+00	 3.333333e+00	 1.011950e+01
0	 7.407407e+00	 3.407407e+00	 1.012049e+01
0	 7.407407e+00	 3.481481e+00	 1.012135e+01
0	 7.407407e+00	 3.555556e+00	 1.012209e+01
0	 7.407407e+00	 3.629630e+00	 1.012272e+01
0	 7.407407e+00	 3.703704e+00	 1.012323e+01
0	 7.037037e+00	 3.703704e+00	 1.016525e+01
0	 7.037037e+00	 3.777778e+00	 1.016507e+01
0	 7.037037e+00	 3.851852e+00	 1.016476e+01
0	 7.037037e+00	 3.925926e+00	 1.016432e+01
0	 7.037037e+00	 4.000000e+00	 1.016373e+01
0	 7.037037e+00	 4.074074e+00	 1.016301e+01
0	 7.111111e+00	 3.703704e+00	 1.015670e+01
0	 7.111111e+00	 3.777778e+00	 1.015665e+01
0	 7.111111e+00	 3.851852e+00	 1.015646e+01
0	 7.111111e+00	 3.925926e+00	 1.015614e+01
0	 7.111111e+00	 4.000000e+00	 1.015569e+01
0	 7.111111e+00	 4.074074e+00	 1.015510e+01
0	 7.185185e+00	 3.703704e+00	 1.014823e+01
0	 7.185185e+00	 3.777778e+00	 1.014829e+01
0	 7.185185e+00	 3.851852e+00	 1.014822e+01
0	 7.185185e+00	 3.925926e+00	 1.014803e+01
0	 7.185185e+00	 4.000000e+00	 1.014771e+01
0	 7.185185e+00	 4.074074e+00	 1.014726e+01
0	 7.259259e+00	 3.703704e+00	 1.013983e+01
0	 7.259259e+00	 3.777778e+00	 1.014000e+01
0	 7.259259e+00	 3.851852e+00	 1.014005e+01
0	 7.259259e+00	 3.925926e+00	 1.013998e+01
0	 7.259259e+00	 4.000000e+00	 1.013978e+01
0	 7.259259e+00	 4.074074e+00	 1.013946e+01
0	 7.333333e+00	 3.703704e+00	 1.013150e+01
0	 7.333333e+00	 3.777778e+00	 1.013178e+01
0	 7.333333e+00	 3.851852e+00	 1.013195e+01
0	 7.333333e+00	 3.925926e+00	 1.013199e+01
0	 7.333333e+00	 4.000000e+00	 1.013192e+01
0	 7.333333e+00	 4.074074e+00	 1.013173e+01
0	 7.407407e+00	 3.703704e+00	 1.012323e+01
0	 7.407407e+00	 3.777778e+00	 1.012363e+01
0	 7.407407e+00	 3.851852e+00	 1.012391e+01
0	 7.407407e+00	 3.925926e+00	 1.012407e+01
0	 7.407407e+00	 4.000000e+00	 1.012412e+01
0	 7.407407e+00	 4.074074e+00	 1.012405e+01
0	 7.037037e+00	 4.074074e+00	 1.016301e+01
0	 7.037037e+00	 4.148148e+00	 1.016216e+01
0	 7.037037e+00	 4.222222e+00	 1.016119e+01
0	 7.037037e+00	 4.296296e+00	 1.016010e+01
0	 7.037037e+00	 4.370370e+00	 1.015889e+01
0	 7.037037e+00	 4.444444e+00	 1.015756e+01
0	 7.111111e+00	 4.074074e+00	 1.015510e+01
0	 7.111111e+00	 4.148148e+00	 1.015439e+01
0	 7.111111e+00	 4.222222e+00	 1.015357e+01
0	 7.111111e+00	 4.296296e+00	 1.015263e+01
0	 7.111111e+00	 4.370370e+00	 1.015157e+01
0	 7.111111e+00	 4.444444e+00	 1.015039e+01
0	 7.185185e+00	 4.074074e+00	 1.014726e+01
0	 7.185185e+00	 4.148148e+00	 1.014668e+01
0	 7.185185e+00	 4.222222e+00	 1.014600e+01
0	 7.185185e+00	 4.296296e+00	 1.014520e+01
0	 7.185185e+00	 4.370370e+00	 1.014428e+01
0	 7.185185e+00	 4.444444e+00	 1.014325e+01
0	 7.259259e+00	 4.074074e+00	 1.013946e+01
0	 7.259259e+00	 4.148148e+00	 1.013902e+01
0	 7.259259e+00	 4.222222e+00	 1.013847e+01
0	 7.259259e+00	 4.296296e+00	 1.013781e+01
0	 7.259259e+00	 4.370370e+00	 1.013704e+01
0	 7.259259e+00	 4.444444e+00	 1.013615e+01
0	 7.333333e+00	 4.074074e+00	 1.013173e+01
0	 7.333333e+00	 4.148148e+00	 1.013142e+01
0	 7.333333e+00	 4.222222e+00	 1.013100e+01
0	 7.333333e+00	 4.296296e+00	 1.013047e+01
0	 7.333333e+00	 4.370370e+00	 1.012984e+01
0	 7.333333e+00	 4.444444e+00	 1.012909e+01
0	 7.407407e+00	 4.074074e+00	 1.012405e+01
0	 7.407407e+00	 4.148148e+00	 1.012386e+01
0	 7.407407e+00	 4.222222e+00	 1.012358e+01
0	 7.407407e+00	 4.296296e+00	 1.012319e+01
0	 7.407407e+00	 4.370370e+00	 1.012269e+01
0	 7.407407e+00	 4.444444e+00	 1.012208e+01
0	 7.037037e+00	 4.444444e+00	 1.015756e+01
0	 7.037037e+00	 4.518519e+00	 1.015612e+01
0	 7.037037e+00	 4.592593e+00	 1.015458e+01
0	 7.037037e+00	 4.666667e+00	 1.015295e+01
0	 7.037037e+00	 4.740741e+00	 1.015121e+01
0	 7.037037e+00	 4.814815e+00	 1.014937e+01
0	 7.111111e+00	 4.444444e+00	 1.015039e+01
0	 7.111111e+00	 4.518519e+00	 1.014910e+01
0	 7.111111e+00	 4.592593e+00	 1.014771e+01
0	 7.111111e+00	 4.666667e+00	 1.014623e+01
0	 7.111111e+00	 4.740741e+00	 1.014465e+01
0	 7.111111e+00	 4.814815e+00	 1.014297e+01
0	 7.185185e+00	 4.444444e+00	 1.014325e+01
0	 7.185185e+00	 4.518519e+00	 1.014211e+01
0	 7.185185e+00	 4.592593e+00	 1.014088e+01
0	 7.185185e+00	 4.666667e+00	 1.013955e+01
0	 7.185185e+00	 4.740741e+00	 1.013812e+01
0	 7.185185e+00	 4.814815e+00	 1.013659e+01
0	 7.259259e+00	 4.444444e+00	 1.013615e+01
0	 7.259259e+00	 4.518519e+00	 1.013515e+01
0	 7.259259e+00	 4.592593e+00	 1.013407e+01
0	 7.259259e+00	 4.666667e+00	 1.013289e+01
0	 7.259259e+00	 4.740741e+00	 1.013161e+01
0	 7.259259e+00	 4.814815e+00	 1.013023e+01
0	 7.333333e+00	 4.444444e+00	 1.012909e+01
0	 7.333333e+00	 4.518519e+00	 1.012824e+01
0	 7.333333e+00	 4.592593e+00	 1.012730e+01
0	 7.333333e+00	 4.666667e+00	 1.012626e+01
0	 7.333333e+00	 4.740741e+00	 1.012513e+01
0	 7.333333e+00	 4.814815e+00	 1.012390e+01
0	 7.407407e+00	 4.444444e+00	 1.012208e+01
0	 7.407407e+00	 4.518519e+00	 1.012137e+01
0	 7.407407e+00	 4.592593e+00	 1.012057e+01
0	 7.407407e+00	 4.666667e+00	 1.011968e+01
0	 7.407407e+00	 4.740741e+00	 1.011869e+01
0	 7.407407e+00	 4.814815e+00	 1.011761e+01
0	 7.037037e+00	 4.814815e+00	 1.014937e+01
0	 7.037037e+00	 4.888889e+00	 1.014744e+01
0	 7.037037e+00	 4.962963e+00	 1.014543e+01
0	 7.037037e+00	 5.037037e+00	 1.014336e+01
0	 7.037037e+00	 5.111111e+00	 1.014120e+01
0	 7.037037e+00	 5.185185e+00	 1.013896e+01
0	 7.111111e+00	 4.814815e+00	 1.014297e+01
0	 7.111111e+00	 4.888889e+00	 1.014120e+01
0	 7.111111e+00	 4.962963e+00	 1.013935e+01
0	 7.111111e+00	 5.037037e+00	 1.013743e+01
0	 7.111111e+00	 5.111111e+00	 1.013544e+01
0	 7.111111e+00	 5.185185e+00	 1.013335e+01
0	 7.185185e+00	 4.814815e+00	 1.013659e+01
0	 7.185185e+00	 4.888889e+00	 1.013497e+01
0	 7.185185e+00	 4.962963e+00	 1.013328e+01
0	 7.185185e+00	 5.037037e+00	 1.013152e+01
0	 7.185185e+00	 5.111111e+00	 1.012967e+01
0	 7.185185e+00	 5.185185e+00	 1.012775e+01
0	 7.259259e+00	 4.814815e+00	 1.013023e+01
0	 7.259259e+00	 4.888889e+00	 1.012877e+01
0	 7.259259e+00	 4.962963e+00	 1.012723e+01
0	 7.259259e+00	 5.037037e+00	 1.012562e+01
0	 7.259259e+00	 5.111111e+00	 1.012392e+01
0	 7.259259e+00	 5.185185e+00	 1.012215e+01
0	 7.333333e+00	 4.814815e+00	 1.012390e+01
0	 7.333333e+00	 4.888889e+00	 1.012259e+01
0	 7.333333e+00	 4.962963e+00	 1.012120e+01
0	 7.333333e+00	 5.037037e+00	 1.011973e+01
0	 7.333333e+00	 5.111111e+00	 1.011819e+01
0	 7.333333e+00	 5.185185e+00	 1.011656e+01
0	 7.407407e+00	 4.814815e+00	 1.011761e+01
0	 7.407407e+00	 4.888889e+00	 1.011644e+01
0	 7.407407e+00	 4.962963e+00	 1.011520e+01
0	 7.407407e+00	 5.037037e+00	 1.011388e+01
0	 7.407407e+00	 5.111111e+00	 1.011248e+01
0	 7.407407e+00	 5.185185e+00	 1.011100e+01
0	 7.037037e+00	 5.185185e+00	 1.013896e+01
0	 7.037037e+00	 5.259259e+00	 1.013665e+01
0	 7.037037e+00	 5.333333e+00	 1.013430e+01
0	 7.037037e+00	 5.407407e+00	 1.013188e+01
0	 7.037037e+00	 5.481481e+00	 1.012942e+01
0	 7.037037e+00	 5.555556e+00	 1.012689e+01
0	 7.111111e+00	 5.185185e+00	 1.013335e+01
0	 7.111111e+00	 5.259259e+00	 1.013120e+01
0	 7.111111e+00	 5.333333e+00	 1.012900e+01
0	 7.111111e+00	 5.407407e+00	 1.012674e+01
0	 7.111111e+00	 5.481481e+00	 1.012443e+01
0	 7.111111e+00	 5.555556e+00	 1.012205e+01
0	 7.185185e+00	 5.185185e+00	 1.012775e+01
0	 7.185185e+00	 5.259259e+00	 1.012575e+01
0	 7.185185e+00	 5.333333e+00	 1.012370e+01
0	 7.185185e+00	 5.407407e+00	 1.012160e+01
0	 7.185185e+00	 5.481481e+00	 1.011943e+01
0	 7.185185e+00	 5.555556e+00	 1.011720e+01
0	 7.259259e+00	 5.185185e+00	 1.012215e+01
0	 7.259259e+00	 5.259259e+00	 1.012030e+01
0	 7.259259e+00	 5.333333e+00	 1.011840e+01
0	 7.259259e+00	 5.407407e+00	 1.011645e+01
0	 7.259259e+00	 5.481481e+00	 1.011443e+01
0	 7.259259e+00	 5.555556e+00	 1.011235e+01
0	 7.333333e+00	 5.185185e+00	 1.011656e+01
0	 7.333333e+00	 5.259259e+00	 1.011487e+01
0	 7.333333e+00	 5.333333e+00	 1.011312e+01
0	 7.333333e+00	 5.407407e+00	 1.011131e+01
0	 7.333333e+00	 5.481481e+00	 1.010944e+01
0	 7.333333e+00	 5.555556e+00	 1.010751e+01
0	 7.407407e+00	 5.185185e+00	 1.011100e+01
0	 7.407407e+00	 5.259259e+00	 1.010946e+01
0	 7.407407e+00	 5.333333e+00	 1.010785e+01
0	 7.407407e+00	 5.407407e+00	 1.010619e+01
0	 7.407407e+00	 5.481481e+00	 1.010446e+01
0	 7.407407e+00	 5.555556e+00	 1.010267e+01
0	 7.037037e+00	 5.555556e+00	 1.012689e+01
0	 7.037037e+00	 5.629630e+00	 1.012431e+01
0	 7.037037e+00	 5.703704e+00	 1.012170e+01
0	 7.037037e+00	 5.777778e+00	 1.011907e+01
0	 7.037037e+00	 5.851852e+00	 1.011639e+01
0	 7.037037e+00	 5.925926e+00	 1.011367e+01
0	 7.111111e+00	 5.555556e+00	 1.012205e+01
0	 7.111111e+00	 5.629630e+00	 1.011963e+01
0	 7.111111e+00	 5.703704e+00	 1.011717e+01
0	 7.111111e+00	 5.777778e+00	 1.011468e+01
0	 7.111111e+00	 5.851852e+00	 1.011214e+01
0	 7.111111e+00	 5.925926e+00	 1.010957e+01
0	 7.185185e+00	 5.555556e+00	 1.011720e+01
0	 7.185185e+00	 5.629630e+00	 1.011493e+01
0	 7.185185e+00	 5.703704e+00	 1.011262e+01
0	 7.185185e+00	 5.777778e+00	 1.011027e+01
0	 7.185185e+00	 5.851852e+00	 1.010788e+01
0	 7.185185e+00	 5.925926e+00	 1.010544e+01
0	 7.259259e+00	 5.555556e+00	 1.011235e+01
0	 7.259259e+00	 5.629630e+00	 1.011022e+01
0	 7.259259e+00	 5.703704e+00	 1.010806e+01
0	 7.259259e+00	 5.777778e+00	 1.010585e+01
0	 7.259259e+00	 5.851852e+00	 1.010360e+01
0	 7.259259e+00	 5.925926e+00	 1.010131e+01
0	 7.333333e+00	 5.555556e+00	 1.010751e+01
0	 7.333333e+00	 5.629630e+00	 1.010552e+01
0	 7.333333e+00	 5.703704e+00	 1.010350e+01
0	 7.333333e+00	 5.777778e+00	 1.010144e+01
0	 7.333333e+00	 5.851852e+00	 1.009933e+01
0	 7.333333e+00	 5.925926e+00	 1.009717e+01
0	 7.407407e+00	 5.555556e+00	 1.010267e+01
0	 7.407407e+00	 5.629630e+00	 1.010083e+01
0	 7.407407e+00	 5.703704e+00	 1.009895e+01
0	 7.407407e+00	 5.777778e+00	 1.009703e+01
0	 7.407407e+00	 5.851852e+00	 1.009506e+01
0	 7.407407e+00	 5.925926e+00	 1.009304e+01
0	 7.037037e+00	 5.925926e+00	 1.011367e+01
0	 7.037037e+00	 6.000000e+00	 1.011092e+01
0	 7.037037e+00	 6.074074e+00	 1.010817e+01
0	 7.037037e+00	 6.148148e+00	 1.010539e+01
0	 7.037037e+00	 6.222222e+00	 1.010260e+01
0	 7.037037e+00	 6.296296e+00	 1.009978e+01
0	 7.111111e+00	 5.925926e+00	 1.010957e+01
0	 7.111111e+00	 6.000000e+00	 1.010696e+01
0	 7.111111e+00	 6.074074e+00	 1.010434e+01
0	 7.111111e+00	 6.148148e+00	 1.010170e+01
0	 7.111111e+00	 6.222222e+00	 1.009904e+01
0	 7.111111e+00	 6.296296e+00	 1.009636e+01
0	 7.185185e+00	 5.925926e+00	 1.010544e+01
0	 7.185185e+00	 6.000000e+00	 1.010298e+01
0	 7.185185e+00	 6.074074e+00	 1.010050e+01
0	 7.185185e+00	 6.148148e+00	 1.009799e+01
0	 7.185185e+00	 6.222222e+00	 1.009546e+01
0	 7.185185e+00	 6.296296e+00	 1.009291e+01
0	 7.259259e+00	 5.925926e+00	 1.010131e+01
0	 7.259259e+00	 6.000000e+00	 1.009898e+01
0	 7.259259e+00	 6.074074e+00	 1.009664e+01
0	 7.259259e+00	 6.148148e+00	 1.009427e+01
0	 7.259259e+00	 6.222222e+00	 1.009187e+01
0	 7.259259e+00	 6.296296e+00	 1.008944e+01
0	 7.333333e+00	 5.925926e+00	 1.009717e+01
0	 7.333333e+00	 6.000000e+00	 1.009498e+01
0	 7.333333e+00	 6.074074e+00	 1.009277e+01
0	 7.333333e+00	 6.148148e+00	 1.009053e+01
0	 7.333333e+00	 6.222222e+00	 1.008827e+01
0	 7.333333e+00	 6.296296e+00	 1.008597e+01
0	 7.407407e+00	 5.925926e+00	 1.009304e+01
0	 7.407407e+00	 6.000000e+00	 1.009098e+01
0	 7.407407e+00	 6.074074e+00	 1.008891e+01
0	 7.407407e+00	 6.148148e+00	 1.008680e+01
0	 7.407407e+00	 6.222222e+00	 1.008466e+01
0	 7.407407e+00	 6.296296e+00	 1.008250e+01
0	 7.037037e+00	 6.296296e+00	 1.009978e+01
0	 7.037037e+00	 6.370370e+00	 1.009695e+01
0	 7.037037e+00	 6.444444e+00	 1.009413e+01
0	 7.037037e+00	 6.518519e+00	 1.009130e+01
0	 7.037037e+00	 6.592593e+00	 1.008847e+01
0	 7.037037e+00	 6.666667e+00	 1.008563e+01
0	 7.111111e+00	 6.296296e+00	 1.009636e+01
0	 7.111111e+00	 6.370370e+00	 1.009366e+01
0	 7.111111e+00	 6.444444e+00	 1.009096e+01
0	 7.111111e+00	 6.518519e+00	 1.008826e+01
0	 7.111111e+00	 6.592593e+00	 1.008555e+01
0	 7.111111e+00	 6.666667e+00	 1.008283e+01
0	 7.185185e+00	 6.296296e+00	 1.009291e+01
0	 7.185185e+00	 6.370370e+00	 1.009034e+01
0	 7.185185e+00	 6.444444e+00	 1.008777e+01
0	 7.185185e+00	 6.518519e+00	 1.008519e+01
0	 7.185185e+00	 6.592593e+00	 1.008260e+01
0	 7.185185e+00	 6.666667e+00	 1.008000e+01
0	 7.259259e+00	 6.296296e+00	 1.008944e+01
0	 7.259259e+00	 6.370370e+00	 1.008700e+01
0	 7.259259e+00	 6.444444e+00	 1.008455e+01
0	 7.259259e+00	 6.518519e+00	 1.008210e+01
0	 7.259259e+00	 6.592593e+00	 1.007963e+01
0	 7.259259e+00	 6.666667e+00	 1.007715e+01
0	 7.333333e+00	 6.296296e+00	 1.008597e+01
0	 7.333333e+00	 6.370370e+00	 1.008365e+01
0	 7.333333e+00	 6.444444e+00	 1.008133e+01
0	 7.333333e+00	 6.518519e+00	 1.007900e+01
0	 7.333333e+00	 6.592593e+00	 1.007665e+01
0	 7.333333e+00	 6.666667e+00	 1.007428e+01
0	 7.407407e+00	 6.296296e+00	 1.008250e+01
0	 7.407407e+00	 6.370370e+00	 1.008031e+01
0	 7.407407e+00	 6.444444e+00	 1.007811e+01
0	 7.407407e+00	 6.518519e+00	 1.007589e+01
0	 7.407407e+00	 6.592593e+00	 1.007366e+01
0	 7.407407e+00	 6.666667e+00	 1.007142e+01
0	 7.037037e+00	 6.666667e+00	 1.008563e+01
0	 7.037037e+00	 6.740741e+00	 1.008280e+01
0	 7.037037e+00	 6.814815e+00	 1.007998e+01
0	 7.037037e+00	 6.888889e+00	 1.007717e+01
0	 7.037037e+00	 6.962963e+00	 1.007438e+01
0	 7.037037e+00	 7.037037e+00	 1.007159e+01
0	 7.111111e+00	 6.666667e+00	 1.008283e+01
0	 7.111111e+00	 6.740741e+00	 1.008011e+01
0	 7.111111e+00	 6.814815e+00	 1.007741e+01
0	 7.111111e+00	 6.888889e+00	 1.007471e+01
0	 7.111111e+00	 6.962963e+00	 1.007202e+01
0	 7.111111e+00	 7.037037e+00	 1.006934e+01
0	 7.185185e+00	 6.666667e+00	 1.008000e+01
0	 7.185185e+00	 6.740741e+00	 1.007740e+01
0	 7.185185e+00	 6.814815e+00	 1.007480e+01
0	 7.185185e+00	 6.888889e+00	 1.007222e+01
0	 7.185185e+00	 6.962963e+00	 1.006964e+01
0	 7.185185e+00	 7.037037e+00	 1.006706e+01
0	 7.259259e+00	 6.666667e+00	 1.007715e+01
0	 7.259259e+00	 6.740741e+00	 1.007466e+01
0	 7.259259e+00	 6.814815e+00	 1.007218e+01
0	 7.259259e+00	 6.888889e+00	 1.006971e+01
0	 7.259259e+00	 6.962963e+00	 1.006724e+01
0	 7.259259e+00	 7.037037e+00	 1.006476e+01
0	 7.333333e+00	 6.666667e+00	 1.007428e+01
0	 7.333333e+00	 6.740741e+00	 1.007191e+01
0	 7.333333e+00	 6.814815e+00	 1.006955e+01
0	 7.333333e+00	 6.888889e+00	 1.006719e+01
0	 7.333333e+00	 6.962963e+00	 1.006482e+01
0	 7.333333e+00	 7.037037e+00	 1.006246e+01
0	 7.407407e+00	 6.666667e+00	 1.007142e+01
0	 7.407407e+00	 6.740741e+00	 1.006916e+01
0	 7.407407e+00	 6.814815e+00	 1.006691e+01
0	 7.407407e+00	 6.888889e+00	 1.006466e+01
0	 7.407407e+00	 6.962963e+00	 1.006240e+01
0	 7.407407e+00	 7.037037e+00	 1.006014e+01
0	 7.037037e+00	 7.037037e+00	 1.007159e+01
0	 7.037037e+00	 7.111111e+00	 1.006881e+01
0	 7.037037e+00	 7.185185e+00	 1.006606e+01
0	 7.037037e+00	 7.259259e+00	 1.006334e+01
0	 7.037037e+00	 7.333333e+00	 1.006064e+01
0	 7.037037e+00	 7.407407e+00	 1.005795e+01
0	 7.111111e+00	 7.037037e+00	 1.006934e+01
0	 7.111111e+00	 7.111111e+00	 1.006666e+01
0	 7.111111e+00	 7.185185e+00	 1.006402e+01
0	 7.111111e+00	 7.259259e+00	 1.006139e+01
0	 7.111111e+00	 7.333333e+00	 1.005879e+01
0	 7.111111e+00	 7.407407e+00	 1.005620e+01
0	 7.185185e+00	 7.037037e+00	 1.006706e+01
0	 7.185185e+00	 7.111111e+00	 1.006449e+01
0	 7.185185e+00	 7.185185e+00	 1.006195e+01
0	 7.185185e+00	 7.259259e+00	 1.005942e+01
0	 7.185185e+00	 7.333333e+00	 1.005691e+01
0	 7.185185e+00	 7.407407e+00	 1.005441e+01
0	 7.259259e+00	 7.037037e+00	 1.006476e+01
0	 7.259259e+00	 7.111111e+00	 1.006230e+01
0	 7.259259e+00	 7.185185e+00	 1.005986e+01
0	 7.259259e+00	 7.259259e+00	 1.005743e+01
0	 7.259259e+00	 7.333333e+00	 1.005502e+01
0	 7.259259e+00	 7.407407e+00	 1.005261e+01
0	 7.333333e+00	 7.037037e+00	 1.006246e+01
0	 7.333333e+00	 7.111111e+00	 1.006010e+01
0	 7.333333e+00	 7.185185e+00	 1.005775e+01
0	 7.333333e+00	 7.259259e+00	 1.005543e+01
0	 7.333333e+00	 7.333333e+00	 1.005311e+01
0	 7.333333e+00	 7.407407e+00	 1.005080e+01
0	 7.407407e+00	 7.037037e+00	 1.006014e+01
0	 7.407407e+00	 7.111111e+00	 1.005788e+01
0	 7.407407e+00	 7.185185e+00	 1.005564e+01
0	 7.407407e+00	 7.259259e+00	 1.005341e+01
0	 7.407407e+00	 7.333333e+00	 1.005119e+01
0	 7.407407e+00	 7.407407e+00	 1.004898e+01
0	 7.037037e+00	 7.407407e+00	 1.005795e+01
0	 7.037037e+00	 7.481481e+00	 1.005530e+01
0	 7.037037e+00	 7.555556e+00	 1.005268e+01
0	 7.037037e+00	 7.629630e+00	 1.005010e+01
0	 7.037037e+00	 7.703704e+00	 1.004755e+01
0	 7.037037e+00	 7.777778e+00	 1.004503e+01
0	 7.111111e+00	 7.407407e+00	 1.005620e+01
0	 7.111111e+00	 7.481481e+00	 1.005363e+01
0	 7.111111e+00	 7.555556e+00	 1.005110e+01
0	 7.111111e+00	 7.629630e+00	 1.004860e+01
0	 7.111111e+00	 7.703704e+00	 1.004614e+01
0	 7.111111e+00	 7.777778e+00	 1.004370e+01
0	 7.185185e+00	 7.407407e+00	 1.005441e+01
0	 7.185185e+00	 7.481481e+00	 1.005194e+01
0	 7.185185e+00	 7.555556e+00	 1.004950e+01
0	 7.185185e+00	 7.629630e+00	 1.004709e+01
0	 7.185185e+00	 7.703704e+00	 1.004471e+01
0	 7.185185e+00	 7.777778e+00	 1.004235e+01
0	 7.259259e+00	 7.407407e+00	 1.005261e+01
0	 7.259259e+00	 7.481481e+00	 1.005023e+01
0	 7.259259e+00	 7.555556e+00	 1.004788e+01
0	 7.259259e+00	 7.629630e+00	 1.004556e+01
0	 7.259259e+00	 7.703704e+00	 1.004326e+01
0	 7.259259e+00	 7.777778e+00	 1.004098e+01
0	 7.333333e+00	 7.407407e+00	 1.005080e+01
0	 7.333333e+00	 7.481481e+00	 1.004851e+01
0	 7.333333e+00	 7.555556e+00	 1.004625e+01
0	 7.333333e+00	 7.629630e+00	 1.004401e+01
0	 7.333333e+00	 7.703704e+00	 1.004180e+01
0	 7.333333e+00	 7.777778e+00	 1.003961e+01
0	 7.407407e+00	 7.407407e+00	 1.004898e+01
0	 7.407407e+00	 7.481481e+00	 1.004678e+01
0	 7.407407e+00	 7.555556e+00	 1.004461e+01
0	 7.407407e+00	 7.629630e+00	 1.004247e+01
0	 7.407407e+00	 7.703704e+00	 1.004034e+01
0	 7.407407e+00	 7.777778e+00	 1.003823e+01
0	 7.037037e+00	 7.777778e+00	 1.004503e+01
0	 7.037037e+00	 7.851852e+00	 1.004254e+01
0	 7.037037e+00	 7.925926e+00	 1.004011e+01
0	 7.037037e+00	 8.000000e+00	 1.003773e+01
0	 7.037037e+00	 8.074074e+00	 1.003538e+01
0	 7.037037e+00	 8.148148e+00	 1.003308e+01
0	 7.111111e+00	 7.777778e+00	 1.004370e+01
0	 7.111111e+00	 7.851852e+00	 1.004129e+01
0	 7.111111e+00	 7.925926e+00	 1.003894e+01
0	 7.111111e+00	 8.000000e+00	 1.003663e+01
0	 7.111111e+00	 8.074074e+00	 1.003436e+01
0	 7.111111e+00	 8.148148e+00	 1.003213e+01
0	 7.185185e+00	 7.777778e+00	 1.004235e+01
0	 7.185185e+00	 7.851852e+00	 1.004003e+01
0	 7.185185e+00	 7.925926e+00	 1.003775e+01
0	 7.185185e+00	 8.000000e+00	 1.003551e+01
0	 7.185185e+00	 8.074074e+00	 1.003331e+01
0	 7.185185e+00	 8.148148e+00	 1.003115e+01
0	 7.259259e+00	 7.777778e+00	 1.004098e+01
0	 7.259259e+00	 7.851852e+00	 1.003874e+01
0	 7.259259e+00	 7.925926e+00	 1.003654e+01
0	 7.259259e+00	 8.000000e+00	 1.003438e+01
0	 7.259259e+00	 8.074074e+00	 1.003226e+01
0	 7.259259e+00	 8.148148e+00	 1.003017e+01
0	 7.333333e+00	 7.777778e+00	 1.003961e+01
0	 7.333333e+00	 7.851852e+00	 1.003745e+01
0	 7.333333e+00	 7.925926e+00	 1.003533e+01
0	 7.333333e+00	 8.000000e+00	 1.003324e+01
0	 7.333333e+00	 8.074074e+00	 1.003119e+01
0	 7.333333e+00	 8.148148e+00	 1.002918e+01
0	 7.407407e+00	 7.777778e+00	 1.003823e+01
0	 7.407407e+00	 7.851852e+00	 1.003615e+01
0	 7.407407e+00	 7.925926e+00	 1.003411e+01
0	 7.407407e+00	 8.000000e+00	 1.003210e+01
0	 7.407407e+00	 8.074074e+00	 1.003013e+01
0	 7.407407e+00	 8.148148e+00	 1.002818e+01
0	 7.037037e+00	 8.148148e+00	 1.003308e+01
0	 7.037037e+00	 8.222222e+00	 1.003083e+01
0	 7.037037e+00	 8.296296e+00	 1.002864e+01
0	 7.037037e+00	 8.370370e+00	 1.002651e+01
0	 7.037037e+00	 8.444444e+00	 1.002444e+01
0	 7.037037e+00	 8.518519e+00	 1.002242e+01
0	 7.111111e+00	 8.148148e+00	 1.003213e+01
0	 7.111111e+00	 8.222222e+00	 1.002994e+01
0	 7.111111e+00	 8.296296e+00	 1.002782e+01
0	 7.111111e+00	 8.370370e+00	 1.002575e+01
0	 7.111111e+00	 8.444444e+00	 1.002374e+01
0	 7.111111e+00	 8.518519e+00	 1.002178e+01
0	 7.185185e+00	 8.148148e+00	 1.003115e+01
0	 7.185185e+00	 8.222222e+00	 1.002904e+01
0	 7.185185e+00	 8.296296e+00	 1.002698e+01
0	 7.185185e+00	 8.370370e+00	 1.002498e+01
0	 7.185185e+00	 8.444444e+00	 1.002303e+01
0	 7.185185e+00	 8.518519e+00	 1.002112e+01
0	 7.259259e+00	 8.148148e+00	 1.003017e+01
0	 7.259259e+00	 8.222222e+00	 1.002812e+01
0	 7.259259e+00	 8.296296e+00	 1.002613e+01
0	 7.259259e+00	 8.370370e+00	 1.002420e+01
0	 7.259259e+00	 8.444444e+00	 1.002231e+01
0	 7.259259e+00	 8.518519e+00	 1.002046e+01
0	 7.333333e+00	 8.148148e+00	 1.002918e+01
0	 7.333333e+00	 8.222222e+00	 1.002720e+01
0	 7.333333e+00	 8.296296e+00	 1.002528e+01
0	 7.333333e+00	 8.370370e+00	 1.002341e+01
0	 7.333333e+00	 8.444444e+00	 1.002158e+01
0	 7.333333e+00	 8.518519e+00	 1.001980e+01
0	 7.407407e+00	 8.148148e+00	 1.002818e+01
0	 7.407407e+00	 8.222222e+00	 1.002627e+01
0	 7.407407e+00	 8.296296e+00	 1.002442e+01
0	 7.407407e+00	 8.370370e+00	 1.002261e+01
0	 7.407407e+00	 8.444444e+00	 1.002085e+01
0	 7.407407e+00	 8.518519e+00	 1.001913e+01
0	 7.037037e+00	 8.518519e+00	 1.002242e+01
0	 7.037037e+00	 8.592593e+00	 1.002046e+01
0	 7.037037e+00	 8.666667e+00	 1.001858e+01
0	 7.037037e+00	 8.740741e+00	 1.001677e+01
0	 7.037037e+00	 8.814815e+00	 1.001504e+01
0	 7.037037e+00	 8.888889e+00	 1.001336e+01
0	 7.111111e+00	 8.518519e+00	 1.002178e+01
0	 7.111111e+00	 8.592593e+00	 1.001988e+01
0	 7.111111e+00	 8.666667e+00	 1.001805e+01
0	 7.111111e+00	 8.740741e+00	 1.001630e+01
0	 7.111111e+00	 8.814815e+00	 1.001461e+01
0	 7.111111e+00	 8.888889e+00	 1.001298e+01
0	 7.185185e+00	 8.518519e+00	 1.002112e+01
0	 7.185185e+00	 8.592593e+00	 1.001928e+01
0	 7.185185e+00	 8.666667e+00	 1.001751e+01
0	 7.185185e+00	 8.740741e+00	 1.001581e+01
0	 7.185185e+00	 8.814815e+00	 1.001417e+01
0	 7.185185e+00	 8.888889e+00	 1.001259e+01
0	 7.259259e+00	 8.518519e+00	 1.002046e+01
0	 7.259259e+00	 8.592593e+00	 1.001868e+01
0	 7.259259e+00	 8.666667e+00	 1.001696e+01
0	 7.259259e+00	 8.740741e+00	 1.001531e+01
0	 7.259259e+00	 8.814815e+00	 1.001373e+01
0	 7.259259e+00	 8.888889e+00	 1.001220e+01
0	 7.333333e+00	 8.518519e+00	 1.001980e+01
0	 7.333333e+00	 8.592593e+00	 1.001807e+01
0	 7.333333e+00	 8.666667e+00	 1.001641e+01
0	 7.333333e+00	 8.740741e+00	 1.001482e+01
0	 7.333333e+00	 8.814815e+00	 1.001328e+01
0	 7.333333e+00	 8.888889e+00	 1.001180e+01
0	 7.407407e+00	 8.518519e+00	 1.001913e+01
0	 7.407407e+00	 8.592593e+00	 1.001746e+01
0	 7.407407e+00	 8.666667e+00	 1.001586e+01
0	 7.407407e+00	 8.740741e+00	 1.001432e+01
0	 7.407407e+00	 8.814815e+00	 1.001284e+01
0	 7.407407e+00	 8.888889e+00	 1.001141e+01
0	 7.037037e+00	 8.888889e+00	 1.001336e+01
0	 7.037037e+00	 8.962963e+00	 1.001177e+01
0	 7.037037e+00	 9.037037e+00	 1.001027e+01
0	 7.037037e+00	 9.111111e+00	 1.000886e+01
0	 7.037037e+00	 9.185185e+00	 1.000754e+01
0	 7.037037e+00	 9.259259e+00	 1.000630e+01
0	 7.111111e+00	 8.888889e+00	 1.001298e+01
0	 7.111111e+00	 8.962963e+00	 1.001143e+01
0	 7.111111e+00	 9.037037e+00	 1.000998e+01
0	 7.111111e+00	 9.111111e+00	 1.000861e+01
0	 7.111111e+00	 9.185185e+00	 1.000732e+01
0	 7.111111e+00	 9.259259e+00	 1.000612e+01
0	 7.185185e+00	 8.888889e+00	 1.001259e+01
0	 7.185185e+00	 8.962963e+00	 1.001109e+01
0	 7.185185e+00	 9.037037e+00	 1.000968e+01
0	 7.185185e+00	 9.111111e+00	 1.000835e+01
0	 7.185185e+00	 9.185185e+00	 1.000710e+01
0	 7.185185e+00	 9.259259e+00	 1.000593e+01
0	 7.259259e+00	 8.888889e+00	 1.001220e+01
0	 7.259259e+00	 8.962963e+00	 1.001074e+01
0	 7.259259e+00	 9.037037e+00	 1.000938e+01
0	 7.259259e+00	 9.111111e+00	 1.000809e+01
0	 7.259259e+00	 9.185185e+00	 1.000688e+01
0	 7.259259e+00	 9.259259e+00	 1.000574e+01
0	 7.333333e+00	 8.888889e+00	 1.001180e+01
0	 7.333333e+00	 8.962963e+00	 1.001040e+01
0	 7.333333e+00	 9.037037e+00	 1.000907e+01
0	 7.333333e+00	 9.111111e+00	 1.000783e+01
0	 7.333333e+00	 9.185185e+00	 1.000666e+01
0	 7.333333e+00	 9.259259e+00	 1.000556e+01
0	 7.407407e+00	 8.888889e+00	 1.001141e+01
0	 7.407407e+00	 8.962963e+00	 1.001005e+01
0	 7.407407e+00	 9.037037e+00	 1.000877e+01
0	 7.407407e+00	 9.111111e+00	 1.000756e+01
0	 7.407407e+00	 9.185185e+00	 1.000643e+01
0	 7.407407e+00	 9.259259e+00	 1.000537e+01
0	 7.037037e+00	 9.259259e+00	 1.000630e+01
0	 7.037037e+00	 9.333333e+00	 1.000515e+01
0	 7.037037e+00	 9.407407e+00	 1.000412e+01
0	 7.037037e+00	 9.481481e+00	 1.000320e+01
0	 7.037037e+00	 9.555556e+00	 1.000239e+01
0	 7.037037e+00	 9.629630e+00	 1.000167e+01
0	 7.111111e+00	 9.259259e+00	 1.000612e+01
0	 7.111111e+00	 9.333333e+00	 1.000500e+01
0	 7.111111e+00	 9.407407e+00	 1.000400e+01
0	 7.111111e+00	 9.481481e+00	 1.000311e+01
0	 7.111111e+00	 9.555556e+00	 1.000232e+01
0	 7.111111e+00	 9.629630e+00	 1.000162e+01
0	 7.185185e+00	 9.259259e+00	 1.000593e+01
0	 7.185185e+00	 9.333333e+00	 1.000485e+01
0	 7.185185e+00	 9.407407e+00	 1.000388e+01
0	 7.185185e+00	 9.481481e+00	 1.000302e+01
0	 7.185185e+00	 9.555556e+00	 1.000225e+01
0	 7.185185e+00	 9.629630e+00	 1.000157e+01
0	 7.259259e+00	 9.259259e+00	 1.000574e+01
0	 7.259259e+00	 9.333333e+00	 1.000470e+01
0	 7.259259e+00	 9.407407e+00	 1.000376e+01
0	 7.259259e+00	 9.481481e+00	 1.000292e+01
0	 7.259259e+00	 9.555556e+00	 1.000217e+01
0	 7.259259e+00	 9.629630e+00	 1.000152e+01
0	 7.333333e+00	 9.259259e+00	 1.000556e+01
0	 7.333333e+00	 9.333333e+00	 1.000454e+01
0	 7.333333e+00	 9.407407e+00	 1.000363e+01
0	 7.333333e+00	 9.481481e+00	 1.000282e+01
0	 7.333333e+00	 9.555556e+00	 1.000210e+01
0	 7.333333e+00	 9.629630e+00	 1.000147e+01
0	 7.407407e+00	 9.259259e+00	 1.000537e+01
0	 7.407407e+00	 9.333333e+00	 1.000439e+01
0	 7.407407e+00	 9.407407e+00	 1.000351e+01
0	 7.407407e+00	 9.481481e+00	 1.000273e+01
0	 7.407407e+00	 9.555556e+00	 1.000203e+01
0	 7.407407e+00	 9.629630e+00	 1.000142e+01
0	 7.037037e+00	 9.629630e+00	 1.000167e+01
0	 7.037037e+00	 9.703704e+00	 1.000107e+01
0	 7.037037e+00	 9.777778e+00	 1.000061e+01
0	 7.037037e+00	 9.851852e+00	 1.000028e+01
0	 7.037037e+00	 9.925926e+00	 1.000007e+01
0	 7.037037e+00	 1.000000e+01	 9.999987e+00
0	 7.111111e+00	 9.629630e+00	 1.000162e+01
0	 7.111111e+00	 9.703704e+00	 1.000104e+01
0	 7.111111e+00	 9.777778e+00	 1.000060e+01
0	 7.111111e+00	 9.851852e+00	 1.000027e+01
0	 7.111111e+00	 9.925926e+00	 1.000007e+01
0	 7.111111e+00	 1.000000e+01	 9.999990e+00
0	 7.185185e+00	 9.629630e+00	 1.000157e+01
0	 7.185185e+00	 9.703704e+00	 1.000101e+01
0	 7.185185e+00	 9.777778e+00	 1.000058e+01
0	 7.185185e+00	 9.851852e+00	 1.000027e+01
0	 7.185185e+00	 9.925926e+00	 1.000007e+01
0	 7.185185e+00	 1.000000e+01	 9.999989e+00
0	 7.259259e+00	 9.629630e+00	 1.000152e+01
0	 7.259259e+00	 9.703704e+00	 1.000098e+01
0	 7.259259e+00	 9.777778e+00	 1.000056e+01
0	 7.259259e+00	 9.851852e+00	 1.000025e+01
0	 7.259259e+00	 9.925926e+00	 1.000007e+01
0	 7.259259e+00	 1.000000e+01	 9.999988e+00
0	 7.333333e+00	 9.629630e+00	 1.000147e+01
0	 7.333333e+00	 9.703704e+00	 1.000094e+01
0	 7.333333e+00	 9.777778e+00	 1.000054e+01
0	 7.333333e+00	 9.851852e+00	 1.000024e+01
0	 7.333333e+00	 9.925926e+00	 1.000006e+01
0	 7.333333e+00	 1.000000e+01	 9.999987e+00
0	 7.407407e+00	 9.629630e+00	 1.000142e+01
0	 7.407407e+00	 9.703704e+00	 1.000091e+01
0	 7.407407e+00	 9.777778e+00	 1.000052e+01
0	 7.407407e+00	 9.851852e+00	 1.000024e+01
0	 7.407407e+00	 9.925926e+00	 1.000006e+01
0	 7.407407e+00	 1.000000e+01	 9.999990e+00
0	 7.407407e+00	 0.000000e+00	 1.004015e+01
0	 7.407407e+00	 7.407407e-02	 1.004024e+01
0	 7.407407e+00	 1.481481e-01	 1.004048e+01
0	 7.407407e+00	 2.222222e-01	 1.004088e+01
0	 7.407407e+00	 2.962963e-01	 1.004144e+01
0	 7.407407e+00	 3.703704e-01	 1.004217e+01
0	 7.481481e+00	 0.000000e+00	 1.003185e+01
0	 7.481481e+00	 7.407407e-02	 1.003193e+01
0	 7.481481e+00	 1.481481e-01	 1.003216e+01
0	 7.481481e+00	 2.222222e-01	 1.003255e+01
0	 7.481481e+00	 2.962963e-01	 1.003310e+01
0	 7.481481e+00	 3.703704e-01	 1.003381e+01
0	 7.555556e+00	 0.000000e+00	 1.002349e+01
0	 7.555556e+00	 7.407407e-02	 1.002356e+01
0	 7.555556e+00	 1.481481e-01	 1.002379e+01
0	 7.555556e+00	 2.222222e-01	 1.002417e+01
0	 7.555556e+00	 2.962963e-01	 1.002470e+01
0	 7.555556e+00	 3.703704e-01	 1.002540e+01
0	 7.629630e+00	 0.000000e+00	 1.001505e+01
0	 7.629630e+00	 7.407407e-02	 1.001513e+01
0	 7.629630e+00	 1.481481e-01	 1.001535e+01
0	 7.629630e+00	 2.222222e-01	 1.001572e+01
0	 7.629630e+00	 2.962963e-01	 1.001625e+01
0	 7.629630e+00	 3.703704e-01	 1.001692e+01
0	 7.703704e+00	 0.000000e+00	 1.000654e+01
0	 7.703704e+00	 7.407407e-02	 1.000662e+01
0	 7.703704e+00	 1.481481e-01	 1.000684e+01
0	 7.703704e+00	 2.222222e-01	 1.000720e+01
0	 7.703704e+00	 2.962963e-01	 1.000772e+01
0	 7.703704e+00	 3.703704e-01	 1.000838e+01
0	 7.777778e+00	 0.000000e+00	 9.997955e+00
0	 7.777778e+00	 7.407407e-02	 9.998030e+00
0	 7.777778e+00	 1.481481e-01	 9.998246e+00
0	 7.777778e+00	 2.222222e-01	 9.998606e+00
0	 7.777778e+00	 2.962963e-01	 9.999111e+00
0	 7.777778e+00	 3.703704e-01	 9.999762e+00
0	 7.407407e+00	 3.703704e-01	 1.004217e+01
0	 7.407407e+00	 4.444444e-01	 1.004305e+01
0	 7.407407e+00	 5.185185e-01	 1.004407e+01
0	 7.407407e+00	 5.925926e-01	 1.004523e+01
0	 7.407407e+00	 6.666667e-01	 1.004654e+01
0	 7.407407e+00	 7.407407e-01	 1.004800e+01
0	 7.481481e+00	 3.703704e-01	 1.003381e+01
0	 7.481481e+00	 4.444444e-01	 1.003467e+01
0	 7.481481e+00	 5.185185e-01	 1.003566e+01
0	 7.481481e+00	 5.925926e-01	 1.003679e+01
0	 7.481481e+00	 6.666667e-01	 1.003806e+01
0	 7.481481e+00	 7.407407e-01	 1.003949e+01
0	 7.555556e+00	 3.703704e-01	 1.002540e+01
0	 7.555556e+00	 4.444444e-01	 1.002623e+01
0	 7.555556e+00	 5.185185e-01	 1.002720e+01
0	 7.555556e+00	 5.925926e-01	 1.002830e+01
0	 7.555556e+00	 6.666667e-01	 1.002955e+01
0	 7.555556e+00	 7.407407e-01	 1.003094e+01
0	 7.629630e+00	 3.703704e-01	 1.001692e+01
0	 7.629630e+00	 4.444444e-01	 1.001774e+01
0	 7.629630e+00	 5.185185e-01	 1.001869e+01
0	 7.629630e+00	 5.925926e-01	 1.001977e+01
0	 7.629630e+00	 6.666667e-01	 1.002098e+01
0	 7.629630e+00	 7.407407e-01	 1.002234e+01
0	 7.703704e+00	 3.703704e-01	 1.000838e+01
0	 7.703704e+00	 4.444444e-01	 1.000918e+01
0	 7.703704e+00	 5.185185e-01	 1.001011e+01
0	 7.703704e+00	 5.925926e-01	 1.001117e+01
0	 7.703704e+00	 6.666667e-01	 1.001236e+01
0	 7.703704e+00	 7.407407e-01	 1.001370e+01
0	 7.777778e+00	 3.703704e-01	 9.999762e+00
0	 7.777778e+00	 4.444444e-01	 1.000055e+01
0	 7.777778e+00	 5.185185e-01	 1.000146e+01
0	 7.777778e+00	 5.925926e-01	 1.000250e+01
0	 7.777778e+00	 6.666667e-01	 1.000367e+01
0	 7.777778e+00	 7.407407e-01	 1.000499e+01
0	 7.407407e+00	 7.407407e-01	 1.004800e+01
0	 7.407407e+00	 8.148148e-01	 1.004958e+01
0	 7.407407e+00	 8.888889e-01	 1.005127e+01
0	 7.407407e+00	 9.629630e-01	 1.005306e+01
0	 7.407407e+00	 1.037037e+00	 1.005496e+01
0	 7.407407e+00	 1.111111e+00	 1.005699e+01
0	 7.481481e+00	 7.407407e-01	 1.003949e+01
0	 7.481481e+00	 8.148148e-01	 1.004103e+01
0	 7.481481e+00	 8.888889e-01	 1.004268e+01
0	 7.481481e+00	 9.629630e-01	 1.004443e+01
0	 7.481481e+00	 1.037037e+00	 1.004629e+01
0	 7.481481e+00	 1.111111e+00	 1.004827e+01
0	 7.555556e+00	 7.407407e-01	 1.003094e+01
0	 7.555556e+00	 8.148148e-01	 1.003245e+01
0	 7.555556e+00	 8.888889e-01	 1.003406e+01
0	 7.555556e+00	 9.629630e-01	 1.003577e+01
0	 7.555556e+00	 1.037037e+00	 1.003759e+01
0	 7.555556e+00	 1.111111e+00	 1.003954e+01
0	 7.629630e+00	 7.407407e-01	 1.002234e+01
0	 7.629630e+00	 8.148148e-01	 1.002382e+01
0	 7.629630e+00	 8.888889e-01	 1.002540e+01
0	 7.629630e+00	 9.629630e-01	 1.002708e+01
0	 7.629630e+00	 1.037037e+00	 1.002887e+01
0	 7.629630e+00	 1.111111e+00	 1.003078e+01
0	 7.703704e+00	 7.407407e-01	 1.001370e+01
0	 7.703704e+00	 8.148148e-01	 1.001515e+01
0	 7.703704e+00	 8.888889e-01	 1.001670e+01
0	 7.703704e+00	 9.629630e-01	 1.001835e+01
0	 7.703704e+00	 1.037037e+00	 1.002011e+01
0	 7.703704e+00	 1.111111e+00	 1.002198e+01
0	 7.777778e+00	 7.407407e-01	 1.000499e+01
0	 7.777778e+00	 8.148148e-01	 1.000641e+01
0	 7.777778e+00	 8.888889e-01	 1.000794e+01
0	 7.777778e+00	 9.629630e-01	 1.000956e+01
0	 7.777778e+00	 1.037037e+00	 1.001130e+01
0	 7.777778e+00	 1.111111e+00	 1.001314e+01
0	 7.407407e+00	 1.111111e+00	 1.005699e+01
0	 7.407407e+00	 1.185185e+00	 1.005911e+01
0	 7.407407e+00	 1.259259e+00	 1.006128e+01
0	 7.407407e+00	 1.333333e+00	 1.006351e+01
0	 7.407407e+00	 1.407407e+00	 1.006581e+01
0	 7.407407e+00	 1.481481e+00	 1.006820e+01
0	 7.481481e+00	 1.111111e+00	 1.004827e+01
0	 7.481481e+00	 1.185185e+00	 1.005034e+01
0	 7.481481e+00	 1.259259e+00	 1.005247e+01
0	 7.481481e+00	 1.333333e+00	 1.005465e+01
0	 7.481481e+00	 1.407407e+00	 1.005691e+01
0	 7.481481e+00	 1.481481e+00	 1.005926e+01
0	 7.555556e+00	 1.111111e+00	 1.003954e+01
0	 7.555556e+00	 1.185185e+00	 1.004157e+01
0	 7.555556e+00	 1.259259e+00	 1.004365e+01
0	 7.555556e+00	 1.333333e+00	 1.004580e+01
0	 7.555556e+00	 1.407407e+00	 1.004802e+01
0	 7.555556e+00	 1.481481e+00	 1.005033e+01
0	 7.629630e+00	 1.111111e+00	 1.003078e+01
0	 7.629630e+00	 1.185185e+00	 1.003277e+01
0	 7.629630e+00	 1.259259e+00	 1.003482e+01
0	 7.629630e+00	 1.333333e+00	 1.003694e+01
0	 7.629630e+00	 1.407407e+00	 1.003913e+01
0	 7.629630e+00	 1.481481e+00	 1.004140e+01
0	 7.703704e+00	 1.111111e+00	 1.002198e+01
0	 7.703704e+00	 1.185185e+00	 1.002394e+01
0	 7.703704e+00	 1.259259e+00	 1.002596e+01
0	 7.703704e+00	 1.333333e+00	 1.002805e+01
0	 7.703704e+00	 1.407407e+00	 1.003021e+01
0	 7.703704e+00	 1.481481e+00	 1.003245e+01
0	 7.777778e+00	 1.111111e+00	 1.001314e+01
0	 7.777778e+00	 1.185185e+00	 1.001508e+01
0	 7.777778e+00	 1.259259e+00	 1.001707e+01
0	 7.777778e+00	 1.333333e+00	 1.001914e+01
0	 7.777778e+00	 1.407407e+00	 1.002128e+01
0	 7.777778e+00	 1.481481e+00	 1.002349e+01
0	 7.407407e+00	 1.481481e+00	 1.006820e+01
0	 7.407407e+00	 1.555556e+00	 1.007063e+01
0	 7.407407e+00	 1.629630e+00	 1.007306e+01
0	 7.407407e+00	 1.703704e+00	 1.007551e+01
0	 7.407407e+00	 1.777778e+00	 1.007798e+01
0	 7.407407e+00	 1.851852e+00	 1.008049e+01
0	 7.481481e+00	 1.481481e+00	 1.005926e+01
0	 7.481481e+00	 1.555556e+00	 1.006164e+01
0	 7.481481e+00	 1.629630e+00	 1.006404e+01
0	 7.481481e+00	 1.703704e+00	 1.006645e+01
0	 7.481481e+00	 1.777778e+00	 1.006889e+01
0	 7.481481e+00	 1.851852e+00	 1.007137e+01
0	 7.555556e+00	 1.481481e+00	 1.005033e+01
0	 7.555556e+00	 1.555556e+00	 1.005268e+01
0	 7.555556e+00	 1.629630e+00	 1.005504e+01
0	 7.555556e+00	 1.703704e+00	 1.005742e+01
0	 7.555556e+00	 1.777778e+00	 1.005983e+01
0	 7.555556e+00	 1.851852e+00	 1.006228e+01
0	 7.629630e+00	 1.481481e+00	 1.004140e+01
0	 7.629630e+00	 1.555556e+00	 1.004371e+01
0	 7.629630e+00	 1.629630e+00	 1.004605e+01
0	 7.629630e+00	 1.703704e+00	 1.004840e+01
0	 7.629630e+00	 1.777778e+00	 1.005079e+01
0	 7.629630e+00	 1.851852e+00	 1.005322e+01
0	 7.703704e+00	 1.481481e+00	 1.003245e+01
0	 7.703704e+00	 1.555556e+00	 1.003475e+01
0	 7.703704e+00	 1.629630e+00	 1.003706e+01
0	 7.703704e+00	 1.703704e+00	 1.003939e+01
0	 7.703704e+00	 1.777778e+00	 1.004176e+01
0	 7.703704e+00	 1.851852e+00	 1.004417e+01
0	 7.777778e+00	 1.481481e+00	 1.002349e+01
0	 7.777778e+00	 1.555556e+00	 1.002576e+01
0	 7.777778e+00	 1.629630e+00	 1.002805e+01
0	 7.777778e+00	 1.703704e+00	 1.003037e+01
0	 7.777778e+00	 1.777778e+00	 1.003273e+01
0	 7.777778e+00	 1.851852e+00	 1.003513e+01
0	 7.407407e+00	 1.851852e+00	 1.008049e+01
0	 7.407407e+00	 1.925926e+00	 1.008299e+01
0	 7.407407e+00	 2.000000e+00	 1.008546e+01
0	 7.407407e+00	 2.074074e+00	 1.008789e+01
0	 7.407407e+00	 2.148148e+00	 1.009030e+01
0	 7.407407e+00	 2.222222e+00	 1.009270e+01
0	 7.481481e+00	 1.851852e+00	 1.007137e+01
0	 7.481481e+00	 1.925926e+00	 1.007384e+01
0	 7.481481e+00	 2.000000e+00	 1.007628e+01
0	 7.481481e+00	 2.074074e+00	 1.007870e+01
0	 7.481481e+00	 2.148148e+00	 1.008110e+01
0	 7.481481e+00	 2.222222e+00	 1.008349e+01
0	 7.555556e+00	 1.851852e+00	 1.006228e+01
0	 7.555556e+00	 1.925926e+00	 1.006473e+01
0	 7.555556e+00	 2.000000e+00	 1.006716e+01
0	 7.555556e+00	 2.074074e+00	 1.006956e+01
0	 7.555556e+00	 2.148148e+00	 1.007195e+01
0	 7.555556e+00	 2.222222e+00	 1.007434e+01
0	 7.629630e+00	 1.851852e+00	 1.005322e+01
0	 7.629630e+00	 1.925926e+00	 1.005566e+01
0	 7.629630e+00	 2.000000e+00	 1.005807e+01
0	 7.629630e+00	 2.074074e+00	 1.006046e+01
0	 7.629630e+00	 2.148148e+00	 1.006285e+01
0	 7.629630e+00	 2.222222e+00	 1.006523e+01
0	 7.703704e+00	 1.851852e+00	 1.004417e+01
0	 7.703704e+00	 1.925926e+00	 1.004660e+01
0	 7.703704e+00	 2.000000e+00	 1.004900e+01
0	 7.703704e+00	 2.074074e+00	 1.005139e+01
0	 7.703704e+00	 2.148148e+00	 1.005377e+01
0	 7.703704e+00	 2.222222e+00	 1.005616e+01
0	 7.777778e+00	 1.851852e+00	 1.003513e+01
0	 7.777778e+00	 1.925926e+00	 1.003755e+01
0	 7.777778e+00	 2.000000e+00	 1.003994e+01
0	 7.777778e+00	 2.074074e+00	 1.004233e+01
0	 7.777778e+00	 2.148148e+00	 1.004472e+01
0	 7.777778e+00	 2.222222e+00	 1.004711e+01
0	 7.407407e+00	 2.222222e+00	 1.009270e+01
0	 7.407407e+00	 2.296296e+00	 1.009506e+01
0	 7.407407e+00	 2.370370e+00	 1.009734e+01
0	 7.407407e+00	 2.444444e+00	 1.009955e+01
0	 7.407407e+00	 2.518519e+00	 1.010170e+01
0	 7.407407e+00	 2.592593e+00	 1.010379e+01
0	 7.481481e+00	 2.222222e+00	 1.008349e+01
0	 7.481481e+00	 2.296296e+00	 1.008584e+01
0	 7.481481e+00	 2.370370e+00	 1.008812e+01
0	 7.481481e+00	 2.444444e+00	 1.009034e+01
0	 7.481481e+00	 2.518519e+00	 1.009250e+01
0	 7.481481e+00	 2.592593e+00	 1.009462e+01
0	 7.555556e+00	 2.222222e+00	 1.007434e+01
0	 7.555556e+00	 2.296296e+00	 1.007669e+01
0	 7.555556e+00	 2.370370e+00	 1.007897e+01
0	 7.555556e+00	 2.444444e+00	 1.008120e+01
0	 7.555556e+00	 2.518519e+00	 1.008338e+01
0	 7.555556e+00	 2.592593e+00	 1.008552e+01
0	 7.629630e+00	 2.222222e+00	 1.006523e+01
0	 7.629630e+00	 2.296296e+00	 1.006758e+01
0	 7.629630e+00	 2.370370e+00	 1.006988e+01
0	 7.629630e+00	 2.444444e+00	 1.007212e+01
0	 7.629630e+00	 2.518519e+00	 1.007432e+01
0	 7.629630e+00	 2.592593e+00	 1.007648e+01
0	 7.703704e+00	 2.222222e+00	 1.005616e+01
0	 7.703704e+00	 2.296296e+00	 1.005852e+01
0	 7.703704e+00	 2.370370e+00	 1.006083e+01
0	 7.703704e+00	 2.444444e+00	 1.006309e+01
0	 7.703704e+00	 2.518519e+00	 1.006531e+01
0	 7.703704e+00	 2.592593e+00	 1.006749e+01
0	 7.777778e+00	 2.222222e+00	 1.004711e+01
0	 7.777778e+00	 2.296296e+00	 1.004948e+01
0	 7.777778e+00	 2.370370e+00	 1.005181e+01
0	 7.777778e+00	 2.444444e+00	 1.005409e+01
0	 7.777778e+00	 2.518519e+00	 1.005634e+01
0	 7.777778e+00	 2.592593e+00	 1.005855e+01
0	 7.407407e+00	 2.592593e+00	 1.010379e+01
0	 7.407407e+00	 2.666667e+00	 1.010581e+01
0	 7.407407e+00	 2.740741e+00	 1.010773e+01
0	 7.407407e+00	 2.814815e+00	 1.010955e+01
0	 7.407407e+00	 2.888889e+00	 1.011128e+01
0	 7.407407e+00	 2.962963e+00	 1.011292e+01
0	 7.481481e+00	 2.592593e+00	 1.009462e+01
0	 7.481481e+00	 2.666667e+00	 1.009666e+01
0	 7.481481e+00	 2.740741e+00	 1.009861e+01
0	 7.481481e+00	 2.814815e+00	 1.010046e+01
0	 7.481481e+00	 2.888889e+00	 1.010224e+01
0	 7.481481e+00	 2.962963e+00	 1.010393e+01
0	 7.555556e+00	 2.592593e+00	 1.008552e+01
0	 7.555556e+00	 2.666667e+00	 1.008759e+01
0	 7.555556e+00	 2.740741e+00	 1.008957e+01
0	 7.555556e+00	 2.814815e+00	 1.009146e+01
0	 7.555556e+00	 2.888889e+00	 1.009328e+01
0	 7.555556e+00	 2.962963e+00	 1.009502e+01
0	 7.629630e+00	 2.592593e+00	 1.007648e+01
0	 7.629630e+00	 2.666667e+00	 1.007858e+01
0	 7.629630e+00	 2.740741e+00	 1.008059e+01
0	 7.629630e+00	 2.814815e+00	 1.008253e+01
0	 7.629630e+00	 2.888889e+00	 1.008439e+01
0	 7.629630e+00	 2.962963e+00	 1.008618e+01
0	 7.703704e+00	 2.592593e+00	 1.006749e+01
0	 7.703704e+00	 2.666667e+00	 1.006962e+01
0	 7.703704e+00	 2.740741e+00	 1.007167e+01
0	 7.703704e+00	 2.814815e+00	 1.007365e+01
0	 7.703704e+00	 2.888889e+00	 1.007556e+01
0	 7.703704e+00	 2.962963e+00	 1.007740e+01
0	 7.777778e+00	 2.592593e+00	 1.005855e+01
0	 7.777778e+00	 2.666667e+00	 1.006071e+01
0	 7.777778e+00	 2.740741e+00	 1.006281e+01
0	 7.777778e+00	 2.814815e+00	 1.006483e+01
0	 7.777778e+00	 2.888889e+00	 1.006679e+01
0	 7.777778e+00	 2.962963e+00	 1.006869e+01
0	 7.407407e+00	 2.962963e+00	 1.011292e+01
0	 7.407407e+00	 3.037037e+00	 1.011446e+01
0	 7.407407e+00	 3.111111e+00	 1.011589e+01
0	 7.407407e+00	 3.185185e+00	 1.011720e+01
0	 7.407407e+00	 3.259259e+00	 1.011840e+01
0	 7.407407e+00	 3.333333e+00	 1.011950e+01
0	 7.481481e+00	 2.962963e+00	 1.010393e+01
0	 7.481481e+00	 3.037037e+00	 1.010553e+01
0	 7.481481e+00	 3.111111e+00	 1.010701e+01
0	 7.481481e+00	 3.185185e+00	 1.010839e+01
0	 7.481481e+00	 3.259259e+00	 1.010967e+01
0	 7.481481e+00	 3.333333e+00	 1.011084e+01
0	 7.555556e+00	 2.962963e+00	 1.009502e+01
0	 7.555556e+00	 3.037037e+00	 1.009667e+01
0	 7.555556e+00	 3.111111e+00	 1.009822e+01
0	 7.555556e+00	 3.185185e+00	 1.009966e+01
0	 7.555556e+00	 3.259259e+00	 1.010101e+01
0	 7.555556e+00	 3.333333e+00	 1.010226e+01
0	 7.629630e+00	 2.962963e+00	 1.008618e+01
0	 7.629630e+00	 3.037037e+00	 1.008789e+01
0	 7.629630e+00	 3.111111e+00	 1.008950e+01
0	 7.629630e+00	 3.185185e+00	 1.009101e+01
0	 7.629630e+00	 3.259259e+00	 1.009243e+01
0	 7.629630e+00	 3.333333e+00	 1.009376e+01
0	 7.703704e+00	 2.962963e+00	 1.007740e+01
0	 7.703704e+00	 3.037037e+00	 1.007917e+01
0	 7.703704e+00	 3.111111e+00	 1.008084e+01
0	 7.703704e+00	 3.185185e+00	 1.008242e+01
0	 7.703704e+00	 3.259259e+00	 1.008392e+01
0	 7.703704e+00	 3.333333e+00	 1.008533e+01
0	 7.777778e+00	 2.962963e+00	 1.006869e+01
0	 7.777778e+00	 3.037037e+00	 1.007051e+01
0	 7.777778e+00	 3.111111e+00	 1.007225e+01
0	 7.777778e+00	 3.185185e+00	 1.007390e+01
0	 7.777778e+00	 3.259259e+00	 1.007547e+01
0	 7.777778e+00	 3.333333e+00	 1.007696e+01
0	 7.407407e+00	 3.333333e+00	 1.011950e+01
0	 7.407407e+00	 3.407407e+00	 1.012049e+01
0	 7.407407e+00	 3.481481e+00	 1.012135e+01
0	 7.407407e+00	 3.555556e+00	 1.012209e+01
0	 7.407407e+00	 3.629630e+00	 1.012272e+01
0	 7.407407e+00	 3.703704e+00	 1.012323e+01
0	 7.481481e+00	 3.333333e+00	 1.011084e+01
0	 7.481481e+00	 3.407407e+00	 1.011191e+01
0	 7.481481e+00	 3.481481e+00	 1.011286e+01
0	 7.481481e+00	 3.555556e+00	 1.011370e+01
0	 7.481481e+00	 3.629630e+00	 1.011442e+01
0	 7.481481e+00	 3.703704e+00	 1.011504e+01
0	 7.555556e+00	 3.333333e+00	 1.010226e+01
0	 7.555556e+00	 3.407407e+00	 1.010341e+01
0	 7.555556e+00	 3.481481e+00	 1.010445e+01
0	 7.555556e+00	 3.555556e+00	 1.010538e+01
0	 7.555556e+00	 3.629630e+00	 1.010620e+01
0	 7.555556e+00	 3.703704e+00	 1.010692e+01
0	 7.629630e+00	 3.333333e+00	 1.009376e+01
0	 7.629630e+00	 3.407407e+00	 1.009499e+01
0	 7.629630e+00	 3.481481e+00	 1.009612e+01
0	 7.629630e+00	 3.555556e+00	 1.009714e+01
0	 7.629630e+00	 3.629630e+00	 1.009806e+01
0	 7.629630e+00	 3.703704e+00	 1.009887e+01
0	 7.703704e+00	 3.333333e+00	 1.008533e+01
0	 7.703704e+00	 3.407407e+00	 1.008664e+01
0	 7.703704e+00	 3.481481e+00	 1.008785e+01
0	 7.703704e+00	 3.555556e+00	 1.008897e+01
0	 7.703704e+00	 3.629630e+00	 1.008998e+01
0	 7.703704e+00	 3.703704e+00	 1.009090e+01
0	 7.777778e+00	 3.333333e+00	 1.007696e+01
0	 7.777778e+00	 3.407407e+00	 1.007835e+01
0	 7.777778e+00	 3.481481e+00	 1.007966e+01
0	 7.777778e+00	 3.555556e+00	 1.008086e+01
0	 7.777778e+00	 3.629630e+00	 1.008197e+01
0	 7.777778e+00	 3.703704e+00	 1.008299e+01
0	 7.407407e+00	 3.703704e+00	 1.012323e+01
0	 7.407407e+00	 3.777778e+00	 1.012363e+01
0	 7.407407e+00	 3.851852e+00	 1.012391e+01
0	 7.407407e+00	 3.925926e+00	 1.012407e+01
0	 7.407407e+00	 4.000000e+00	 1.012412e+01
0	 7.407407e+00	 4.074074e+00	 1.012405e+01
0	 7.481481e+00	 3.703704e+00	 1.011504e+01
0	 7.481481e+00	 3.777778e+00	 1.011554e+01
0	 7.481481e+00	 3.851852e+00	 1.011593e+01
0	 7.481481e+00	 3.925926e+00	 1.011621e+01
0	 7.481481e+00	 4.000000e+00	 1.011637e+01
0	 7.481481e+00	 4.074074e+00	 1.011643e+01
0	 7.555556e+00	 3.703704e+00	 1.010692e+01
0	 7.555556e+00	 3.777778e+00	 1.010753e+01
0	 7.555556e+00	 3.851852e+00	 1.010803e+01
0	 7.555556e+00	 3.925926e+00	 1.010842e+01
0	 7.555556e+00	 4.000000e+00	 1.010870e+01
0	 7.555556e+00	 4.074074e+00	 1.010887e+01
0	 7.629630e+00	 3.703704e+00	 1.009887e+01
0	 7.629630e+00	 3.777778e+00	 1.009959e+01
0	 7.629630e+00	 3.851852e+00	 1.010019e+01
0	 7.629630e+00	 3.925926e+00	 1.010070e+01
0	 7.629630e+00	 4.000000e+00	 1.010109e+01
0	 7.629630e+00	 4.074074e+00	 1.010139e+01
0	 7.703704e+00	 3.703704e+00	 1.009090e+01
0	 7.703704e+00	 3.777778e+00	 1.009171e+01
0	 7.703704e+00	 3.851852e+00	 1.009243e+01
0	 7.703704e+00	 3.925926e+00	 1.009304e+01
0	 7.703704e+00	 4.000000e+00	 1.009356e+01
0	 7.703704e+00	 4.074074e+00	 1.009397e+01
0	 7.777778e+00	 3.703704e+00	 1.008299e+01
0	 7.777778e+00	 3.777778e+00	 1.008391e+01
0	 7.777778e+00	 3.851852e+00	 1.008473e+01
0	 7.777778e+00	 3.925926e+00	 1.008546e+01
0	 7.777778e+00	 4.000000e+00	 1.008608e+01
0	 7.777778e+00	 4.074074e+00	 1.008661e+01
0	 7.407407e+00	 4.074074e+00	 1.012405e+01
0	 7.407407e+00	 4.148148e+00	 1.012386e+01
0	 7.407407e+00	 4.222222e+00	 1.012358e+01
0	 7.407407e+00	 4.296296e+00	 1.012319e+01
0	 7.407407e+00	 4.370370e+00	 1.012269e+01
0	 7.407407e+00	 4.444444e+00	 1.012208e+01
0	 7.481481e+00	 4.074074e+00	 1.011643e+01
0	 7.481481e+00	 4.148148e+00	 1.011637e+01
0	 7.481481e+00	 4.222222e+00	 1.011622e+01
0	 7.481481e+00	 4.296296e+00	 1.011595e+01
0	 7.481481e+00	 4.370370e+00	 1.011559e+01
0	 7.481481e+00	 4.444444e+00	 1.011512e+01
0	 7.555556e+00	 4.074074e+00	 1.010887e+01
0	 7.555556e+00	 4.148148e+00	 1.010894e+01
0	 7.555556e+00	 4.222222e+00	 1.010891e+01
0	 7.555556e+00	 4.296296e+00	 1.010878e+01
0	 7.555556e+00	 4.370370e+00	 1.010855e+01
0	 7.555556e+00	 4.444444e+00	 1.010821e+01
0	 7.629630e+00	 4.074074e+00	 1.010139e+01
0	 7.629630e+00	 4.148148e+00	 1.010158e+01
0	 7.629630e+00	 4.222222e+00	 1.010167e+01
0	 7.629630e+00	 4.296296e+00	 1.010167e+01
0	 7.629630e+00	 4.370370e+00	 1.010156e+01
0	 7.629630e+00	 4.444444e+00	 1.010135e+01
0	 7.703704e+00	 4.074074e+00	 1.009397e+01
0	 7.703704e+00	 4.148148e+00	 1.009428e+01
0	 7.703704e+00	 4.222222e+00	 1.009450e+01
0	 7.703704e+00	 4.296296e+00	 1.009462e+01
0	 7.703704e+00	 4.370370e+00	 1.009464e+01
0	 7.703704e+00	 4.444444e+00	 1.009456e+01
0	 7.777778e+00	 4.074074e+00	 1.008661e+01
0	 7.777778e+00	 4.148148e+00	 1.008705e+01
0	 7.777778e+00	 4.222222e+00	 1.008739e+01
0	 7.777778e+00	 4.296296e+00	 1.008763e+01
0	 7.777778e+00	 4.370370e+00	 1.008778e+01
0	 7.777778e+00	 4.444444e+00	 1.008783e+01
0	 7.407407e+00	 4.444444e+00	 1.012208e+01
0	 7.407407e+00	 4.518519e+00	 1.012137e+01
0	 7.407407e+00	 4.592593e+00	 1.012057e+01
0	 7.407407e+00	 4.666667e+00	 1.011968e+01
0	 7.407407e+00	 4.740741e+00	 1.011869e+01
0	 7.407407e+00	 4.814815e+00	 1.011761e+01
0	 7.481481e+00	 4.444444e+00	 1.011512e+01
0	 7.481481e+00	 4.518519e+00	 1.011454e+01
0	 7.481481e+00	 4.592593e+00	 1.011389e+01
0	 7.481481e+00	 4.666667e+00	 1.011313e+01
0	 7.481481e+00	 4.740741e+00	 1.011229e+01
0	 7.481481e+00	 4.814815e+00	 1.011135e+01
0	 7.555556e+00	 4.444444e+00	 1.010821e+01
0	 7.555556e+00	 4.518519e+00	 1.010777e+01
0	 7.555556e+00	 4.592593e+00	 1.010725e+01
0	 7.555556e+00	 4.666667e+00	 1.010664e+01
0	 7.555556e+00	 4.740741e+00	 1.010593e+01
0	 7.555556e+00	 4.814815e+00	 1.010513e+01
0	 7.629630e+00	 4.444444e+00	 1.010135e+01
0	 7.629630e+00	 4.518519e+00	 1.010105e+01
0	 7.629630e+00	 4.592593e+00	 1.010067e+01
0	 7.629630e+00	 4.666667e+00	 1.010019e+01
0	 7.629630e+00	 4.740741e+00	 1.009962e+01
0	 7.629630e+00	 4.814815e+00	 1.009896e+01
0	 7.703704e+00	 4.444444e+00	 1.009456e+01
0	 7.703704e+00	 4.518519e+00	 1.009439e+01
0	 7.703704e+00	 4.592593e+00	 1.009414e+01
0	 7.703704e+00	 4.666667e+00	 1.009380e+01
0	 7.703704e+00	 4.740741e+00	 1.009337e+01
0	 7.703704e+00	 4.814815e+00	 1.009284e+01
0	 7.777778e+00	 4.444444e+00	 1.008783e+01
0	 7.777778e+00	 4.518519e+00	 1.008779e+01
0	 7.777778e+00	 4.592593e+00	 1.008767e+01
0	 7.777778e+00	 4.666667e+00	 1.008746e+01
0	 7.777778e+00	 4.740741e+00	 1.008717e+01
0	 7.777778e+00	 4.814815e+00	 1.008678e+01
0	 7.407407e+00	 4.814815e+00	 1.011761e+01
0	 7.407407e+00	 4.888889e+00	 1.011644e+01
0	 7.407407e+00	 4.962963e+00	 1.011520e+01
0	 7.407407e+00	 5.037037e+00	 1.011388e+01
0	 7.407407e+00	 5.111111e+00	 1.011248e+01
0	 7.407407e+00	 5.185185e+00	 1.011100e+01
0	 7.481481e+00	 4.814815e+00	 1.011135e+01
0	 7.481481e+00	 4.888889e+00	 1.011033e+01
0	 7.481481e+00	 4.962963e+00	 1.010923e+01
0	 7.481481e+00	 5.037037e+00	 1.010805e+01
0	 7.481481e+00	 5.111111e+00	 1.010680e+01
0	 7.481481e+00	 5.185185e+00	 1.010547e+01
0	 7.555556e+00	 4.814815e+00	 1.010513e+01
0	 7.555556e+00	 4.888889e+00	 1.010425e+01
0	 7.555556e+00	 4.962963e+00	 1.010329e+01
0	 7.555556e+00	 5.037037e+00	 1.010226e+01
0	 7.555556e+00	 5.111111e+00	 1.010115e+01
0	 7.555556e+00	 5.185185e+00	 1.009996e+01
0	 7.629630e+00	 4.814815e+00	 1.009896e+01
0	 7.629630e+00	 4.888889e+00	 1.009822e+01
0	 7.629630e+00	 4.962963e+00	 1.009740e+01
0	 7.629630e+00	 5.037037e+00	 1.009651e+01
0	 7.629630e+00	 5.111111e+00	 1.009554e+01
0	 7.629630e+00	 5.185185e+00	 1.009449e+01
0	 7.703704e+00	 4.814815e+00	 1.009284e+01
0	 7.703704e+00	 4.888889e+00	 1.009224e+01
0	 7.703704e+00	 4.962963e+00	 1.009156e+01
0	 7.703704e+00	 5.037037e+00	 1.009081e+01
0	 7.703704e+00	 5.111111e+00	 1.008998e+01
0	 7.703704e+00	 5.185185e+00	 1.008907e+01
0	 7.777778e+00	 4.814815e+00	 1.008678e+01
0	 7.777778e+00	 4.888889e+00	 1.008631e+01
0	 7.777778e+00	 4.962963e+00	 1.008577e+01
0	 7.777778e+00	 5.037037e+00	 1.008515e+01
0	 7.777778e+00	 5.111111e+00	 1.008446e+01
0	 7.777778e+00	 5.185185e+00	 1.008369e+01
0	 7.407407e+00	 5.185185e+00	 1.011100e+01
0	 7.407407e+00	 5.259259e+00	 1.010946e+01
0	 7.407407e+00	 5.333333e+00	 1.010785e+01
0	 7.407407e+00	 5.407407e+00	 1.010619e+01
0	 7.407407e+00	 5.481481e+00	 1.010446e+01
0	 7.407407e+00	 5.555556e+00	 1.010267e+01
0	 7.481481e+00	 5.185185e+00	 1.010547e+01
0	 7.481481e+00	 5.259259e+00	 1.010407e+01
0	 7.481481e+00	 5.333333e+00	 1.010261e+01
0	 7.481481e+00	 5.407407e+00	 1.010109e+01
0	 7.481481e+00	 5.481481e+00	 1.009951e+01
0	 7.481481e+00	 5.555556e+00	 1.009786e+01
0	 7.555556e+00	 5.185185e+00	 1.009996e+01
0	 7.555556e+00	 5.259259e+00	 1.009870e+01
0	 7.555556e+00	 5.333333e+00	 1.009739e+01
0	 7.555556e+00	 5.407407e+00	 1.009601e+01
0	 7.555556e+00	 5.481481e+00	 1.009457e+01
0	 7.555556e+00	 5.555556e+00	 1.009306e+01
0	 7.629630e+00	 5.185185e+00	 1.009449e+01
0	 7.629630e+00	 5.259259e+00	 1.009338e+01
0	 7.629630e+00	 5.333333e+00	 1.009220e+01
0	 7.629630e+00	 5.407407e+00	 1.009096e+01
0	 7.629630e+00	 5.481481e+00	 1.008966e+01
0	 7.629630e+00	 5.555556e+00	 1.008829e+01
0	 7.703704e+00	 5.185185e+00	 1.008907e+01
0	 7.703704e+00	 5.259259e+00	 1.008809e+01
0	 7.703704e+00	 5.333333e+00	 1.008705e+01
0	 7.703704e+00	 5.407407e+00	 1.008595e+01
0	 7.703704e+00	 5.481481e+00	 1.008478e+01
0	 7.703704e+00	 5.555556e+00	 1.008355e+01
0	 7.777778e+00	 5.185185e+00	 1.008369e+01
0	 7.777778e+00	 5.259259e+00	 1.008284e+01
0	 7.777778e+00	 5.333333e+00	 1.008194e+01
0	 7.777778e+00	 5.407407e+00	 1.008098e+01
0	 7.777778e+00	 5.481481e+00	 1.007995e+01
0	 7.777778e+00	 5.555556e+00	 1.007885e+01
0	 7.407407e+00	 5.555556e+00	 1.010267e+01
0	 7.407407e+00	 5.629630e+00	 1.010083e+01
0	 7.407407e+00	 5.703704e+00	 1.009895e+01
0	 7.407407e+00	 5.777778e+00	 1.009703e+01
0	 7.407407e+00	 5.851852e+00	 1.009506e+01
0	 7.407407e+00	 5.925926e+00	 1.009304e+01
0	 7.481481e+00	 5.555556e+00	 1.009786e+01
0	 7.481481e+00	 5.629630e+00	 1.009616e+01
0	 7.481481e+00	 5.703704e+00	 1.009441e+01
0	 7.481481e+00	 5.777778e+00	 1.009263e+01
0	 7.481481e+00	 5.851852e+00	 1.009080e+01
0	 7.481481e+00	 5.925926e+00	 1.008891e+01
0	 7.555556e+00	 5.555556e+00	 1.009306e+01
0	 7.555556e+00	 5.629630e+00	 1.009150e+01
0	 7.555556e+00	 5.703704e+00	 1.008989e+01
0	 7.555556e+00	 5.777778e+00	 1.008824e+01
0	 7.555556e+00	 5.851852e+00	 1.008655e+01
0	 7.555556e+00	 5.925926e+00	 1.008480e+01
0	 7.629630e+00	 5.555556e+00	 1.008829e+01
0	 7.629630e+00	 5.629630e+00	 1.008686e+01
0	 7.629630e+00	 5.703704e+00	 1.008540e+01
0	 7.629630e+00	 5.777778e+00	 1.008388e+01
0	 7.629630e+00	 5.851852e+00	 1.008232e+01
0	 7.629630e+00	 5.925926e+00	 1.008070e+01
0	 7.703704e+00	 5.555556e+00	 1.008355e+01
0	 7.703704e+00	 5.629630e+00	 1.008226e+01
0	 7.703704e+00	 5.703704e+00	 1.008093e+01
0	 7.703704e+00	 5.777778e+00	 1.007955e+01
0	 7.703704e+00	 5.851852e+00	 1.007811e+01
0	 7.703704e+00	 5.925926e+00	 1.007663e+01
0	 7.777778e+00	 5.555556e+00	 1.007885e+01
0	 7.777778e+00	 5.629630e+00	 1.007770e+01
0	 7.777778e+00	 5.703704e+00	 1.007649e+01
0	 7.777778e+00	 5.777778e+00	 1.007525e+01
0	 7.777778e+00	 5.851852e+00	 1.007394e+01
0	 7.777778e+00	 5.925926e+00	 1.007259e+01
0	 7.407407e+00	 5.925926e+00	 1.009304e+01
0	 7.407407e+00	 6.000000e+00	 1.009098e+01
0	 7.407407e+00	 6.074074e+00	 1.008891e+01
0	 7.407407e+00	 6.148148e+00	 1.008680e+01
0	 7.407407e+00	 6.222222e+00	 1.008466e+01
0	 7.407407e+00	 6.296296e+00	 1.008250e+01
0	 7.481481e+00	 5.925926e+00	 1.008891e+01
0	 7.481481e+00	 6.000000e+00	 1.008699e+01
0	 7.481481e+00	 6.074074e+00	 1.008505e+01
0	 7.481481e+00	 6.148148e+00	 1.008307e+01
0	 7.481481e+00	 6.222222e+00	 1.008106e+01
0	 7.481481e+00	 6.296296e+00	 1.007902e+01
0	 7.555556e+00	 5.925926e+00	 1.008480e+01
0	 7.555556e+00	 6.000000e+00	 1.008301e+01
0	 7.555556e+00	 6.074074e+00	 1.008120e+01
0	 7.555556e+00	 6.148148e+00	 1.007935e+01
0	 7.555556e+00	 6.222222e+00	 1.007747e+01
0	 7.555556e+00	 6.296296e+00	 1.007555e+01
0	 7.629630e+00	 5.925926e+00	 1.008070e+01
0	 7.629630e+00	 6.000000e+00	 1.007904e+01
0	 7.629630e+00	 6.074074e+00	 1.007736e+01
0	 7.629630e+00	 6.148148e+00	 1.007564e+01
0	 7.629630e+00	 6.222222e+00	 1.007389e+01
0	 7.629630e+00	 6.296296e+00	 1.007209e+01
0	 7.703704e+00	 5.925926e+00	 1.007663e+01
0	 7.703704e+00	 6.000000e+00	 1.007510e+01
0	 7.703704e+00	 6.074074e+00	 1.007354e+01
0	 7.703704e+00	 6.148148e+00	 1.007195e+01
0	 7.703704e+00	 6.222222e+00	 1.007032e+01
0	 7.703704e+00	 6.296296e+00	 1.006865e+01
0	 7.777778e+00	 5.925926e+00	 1.007259e+01
0	 7.777778e+00	 6.000000e+00	 1.007119e+01
0	 7.777778e+00	 6.074074e+00	 1.006976e+01
0	 7.777778e+00	 6.148148e+00	 1.006829e+01
0	 7.777778e+00	 6.222222e+00	 1.006678e+01
0	 7.777778e+00	 6.296296e+00	 1.006524e+01
0	 7.407407e+00	 6.296296e+00	 1.008250e+01
0	 7.407407e+00	 6.370370e+00	 1.008031e+01
0	 7.407407e+00	 6.444444e+00	 1.007811e+01
0	 7.407407e+00	 6.518519e+00	 1.007589e+01
0	 7.407407e+00	 6.592593e+00	 1.007366e+01
0	 7.407407e+00	 6.666667e+00	 1.007142e+01
0	 7.481481e+00	 6.296296e+00	 1.007902e+01
0	 7.481481e+00	 6.370370e+00	 1.007696e+01
0	 7.481481e+00	 6.444444e+00	 1.007488e+01
0	 7.481481e+00	 6.518519e+00	 1.007279e+01
0	 7.481481e+00	 6.592593e+00	 1.007068e+01
0	 7.481481e+00	 6.666667e+00	 1.006855e+01
0	 7.555556e+00	 6.296296e+00	 1.007555e+01
0	 7.555556e+00	 6.370370e+00	 1.007361e+01
0	 7.555556e+00	 6.444444e+00	 1.007166e+01
0	 7.555556e+00	 6.518519e+00	 1.006968e+01
0	 7.555556e+00	 6.592593e+00	 1.006769e+01
0	 7.555556e+00	 6.666667e+00	 1.006568e+01
0	 7.629630e+00	 6.296296e+00	 1.007209e+01
0	 7.629630e+00	 6.370370e+00	 1.007028e+01
0	 7.629630e+00	 6.444444e+00	 1.006844e+01
0	 7.629630e+00	 6.518519e+00	 1.006659e+01
0	 7.629630e+00	 6.592593e+00	 1.006471e+01
0	 7.629630e+00	 6.666667e+00	 1.006281e+01
0	 7.703704e+00	 6.296296e+00	 1.006865e+01
0	 7.703704e+00	 6.370370e+00	 1.006696e+01
0	 7.703704e+00	 6.444444e+00	 1.006524e+01
0	 7.703704e+00	 6.518519e+00	 1.006350e+01
0	 7.703704e+00	 6.592593e+00	 1.006174e+01
0	 7.703704e+00	 6.666667e+00	 1.005996e+01
0	 7.777778e+00	 6.296296e+00	 1.006524e+01
0	 7.777778e+00	 6.370370e+00	 1.006366e+01
0	 7.777778e+00	 6.444444e+00	 1.006206e+01
0	 7.777778e+00	 6.518519e+00	 1.006044e+01
0	 7.777778e+00	 6.592593e+00	 1.005880e+01
0	 7.777778e+00	 6.666667e+00	 1.005712e+01
0	 7.407407e+00	 6.666667e+00	 1.007142e+01
0	 7.407407e+00	 6.740741e+00	 1.006916e+01
0	 7.407407e+00	 6.814815e+00	 1.006691e+01
0	 7.407407e+00	 6.888889e+00	 1.006466e+01
0	 7.407407e+00	 6.962963e+00	 1.006240e+01
0	 7.407407e+00	 7.037037e+00	 1.006014e+01
0	 7.481481e+00	 6.666667e+00	 1.006855e+01
0	 7.481481e+00	 6.740741e+00	 1.006641e+01
0	 7.481481e+00	 6.814815e+00	 1.006427e+01
0	 7.481481e+00	 6.888889e+00	 1.006212e+01
0	 7.481481e+00	 6.962963e+00	 1.005998e+01
0	 7.481481e+00	 7.037037e+00	 1.005782e+01
0	 7.555556e+00	 6.666667e+00	 1.006568e+01
0	 7.555556e+00	 6.740741e+00	 1.006365e+01
0	 7.555556e+00	 6.814815e+00	 1.006162e+01
0	 7.555556e+00	 6.888889e+00	 1.005959e+01
0	 7.555556e+00	 6.962963e+00	 1.005755e+01
0	 7.555556e+00	 7.037037e+00	 1.005550e+01
0	 7.629630e+00	 6.666667e+00	 1.006281e+01
0	 7.629630e+00	 6.740741e+00	 1.006090e+01
0	 7.629630e+00	 6.814815e+00	 1.005898e+01
0	 7.629630e+00	 6.888889e+00	 1.005705e+01
0	 7.629630e+00	 6.962963e+00	 1.005512e+01
0	 7.629630e+00	 7.037037e+00	 1.005317e+01
0	 7.703704e+00	 6.666667e+00	 1.005996e+01
0	 7.703704e+00	 6.740741e+00	 1.005815e+01
0	 7.703704e+00	 6.814815e+00	 1.005635e+01
0	 7.703704e+00	 6.888889e+00	 1.005453e+01
0	 7.703704e+00	 6.962963e+00	 1.005270e+01
0	 7.703704e+00	 7.037037e+00	 1.005086e+01
0	 7.777778e+00	 6.666667e+00	 1.005712e+01
0	 7.777778e+00	 6.740741e+00	 1.005543e+01
0	 7.777778e+00	 6.814815e+00	 1.005373e+01
0	 7.777778e+00	 6.888889e+00	 1.005202e+01
0	 7.777778e+00	 6.962963e+00	 1.005030e+01
0	 7.777778e+00	 7.037037e+00	 1.004856e+01
0	 7.407407e+00	 7.037037e+00	 1.006014e+01
0	 7.407407e+00	 7.111111e+00	 1.005788e+01
0	 7.407407e+00	 7.185185e+00	 1.005564e+01
0	 7.407407e+00	 7.259259e+00	 1.005341e+01
0	 7.407407e+00	 7.333333e+00	 1.005119e+01
0	 7.407407e+00	 7.407407e+00	 1.004898e+01
0	 7.481481e+00	 7.037037e+00	 1.005782e+01
0	 7.481481e+00	 7.111111e+00	 1.005567e+01
0	 7.481481e+00	 7.185185e+00	 1.005353e+01
0	 7.481481e+00	 7.259259e+00	 1.005140e+01
0	 7.481481e+00	 7.333333e+00	 1.004927e+01
0	 7.481481e+00	 7.407407e+00	 1.004716e+01
0	 7.555556e+00	 7.037037e+00	 1.005550e+01
0	 7.555556e+00	 7.111111e+00	 1.005345e+01
0	 7.555556e+00	 7.185185e+00	 1.005141e+01
0	 7.555556e+00	 7.259259e+00	 1.004938e+01
0	 7.555556e+00	 7.333333e+00	 1.004735e+01
0	 7.555556e+00	 7.407407e+00	 1.004532e+01
0	 7.629630e+00	 7.037037e+00	 1.005317e+01
0	 7.629630e+00	 7.111111e+00	 1.005123e+01
0	 7.629630e+00	 7.185185e+00	 1.004929e+01
0	 7.629630e+00	 7.259259e+00	 1.004735e+01
0	 7.629630e+00	 7.333333e+00	 1.004542e+01
0	 7.629630e+00	 7.407407e+00	 1.004349e+01
0	 7.703704e+00	 7.037037e+00	 1.005086e+01
0	 7.703704e+00	 7.111111e+00	 1.004901e+01
0	 7.703704e+00	 7.185185e+00	 1.004717e+01
0	 7.703704e+00	 7.259259e+00	 1.004534e+01
0	 7.703704e+00	 7.333333e+00	 1.004350e+01
0	 7.703704e+00	 7.407407e+00	 1.004167e+01
0	 7.777778e+00	 7.037037e+00	 1.004856e+01
0	 7.777778e+00	 7.111111e+00	 1.004681e+01
0	 7.777778e+00	 7.185185e+00	 1.004507e+01
0	 7.777778e+00	 7.259259e+00	 1.004333e+01
0	 7.777778e+00	 7.333333e+00	 1.004159e+01
0	 7.777778e+00	 7.407407e+00	 1.003985e+01
0	 7.407407e+00	 7.407407e+00	 1.004898e+01
0	 7.407407e+00	 7.481481e+00	 1.004678e+01
0	 7.407407e+00	 7.555556e+00	 1.004461e+01
0	 7.407407e+00	 7.629630e+00	 1.004247e+01
0	 7.407407e+00	 7.703704e+00	 1.004034e+01
0	 7.407407e+00	 7.777778e+00	 1.003823e+01
0	 7.481481e+00	 7.407407e+00	 1.004716e+01
0	 7.481481e+00	 7.481481e+00	 1.004505e+01
0	 7.481481e+00	 7.555556e+00	 1.004297e+01
0	 7.481481e+00	 7.629630e+00	 1.004091e+01
0	 7.481481e+00	 7.703704e+00	 1.003887e+01
0	 7.481481e+00	 7.777778e+00	 1.003684e+01
0	 7.555556e+00	 7.407407e+00	 1.004532e+01
0	 7.555556e+00	 7.481481e+00	 1.004331e+01
0	 7.555556e+00	 7.555556e+00	 1.004132e+01
0	 7.555556e+00	 7.629630e+00	 1.003935e+01
0	 7.555556e+00	 7.703704e+00	 1.003739e+01
0	 7.555556e+00	 7.777778e+00	 1.003545e+01
0	 7.629630e+00	 7.407407e+00	 1.004349e+01
0	 7.629630e+00	 7.481481e+00	 1.004157e+01
0	 7.629630e+00	 7.555556e+00	 1.003967e+01
0	 7.629630e+00	 7.629630e+00	 1.003779e+01
0	 7.629630e+00	 7.703704e+00	 1.003592e+01
0	 7.629630e+00	 7.777778e+00	 1.003406e+01
0	 7.703704e+00	 7.407407e+00	 1.004167e+01
0	 7.703704e+00	 7.481481e+00	 1.003984e+01
0	 7.703704e+00	 7.555556e+00	 1.003802e+01
0	 7.703704e+00	 7.629630e+00	 1.003623e+01
0	 7.703704e+00	 7.703704e+00	 1.003444e+01
0	 7.703704e+00	 7.777778e+00	 1.003267e+01
0	 7.777778e+00	 7.407407e+00	 1.003985e+01
0	 7.777778e+00	 7.481481e+00	 1.003811e+01
0	 7.777778e+00	 7.555556e+00	 1.003639e+01
0	 7.777778e+00	 7.629630e+00	 1.003468e+01
0	 7.777778e+00	 7.703704e+00	 1.003298e+01
0	 7.777778e+00	 7.777778e+00	 1.003128e+01
0	 7.407407e+00	 7.777778e+00	 1.003823e+01
0	 7.407407e+00	 7.851852e+00	 1.003615e+01
0	 7.407407e+00	 7.925926e+00	 1.003411e+01
0	 7.407407e+00	 8.000000e+00	 1.003210e+01
0	 7.407407e+00	 8.074074e+00	 1.003013e+01
0	 7.407407e+00	 8.148148e+00	 1.002818e+01
0	 7.481481e+00	 7.777778e+00	 1.003684e+01
0	 7.481481e+00	 7.851852e+00	 1.003484e+01
0	 7.481481e+00	 7.925926e+00	 1.003288e+01
0	 7.481481e+00	 8.000000e+00	 1.003095e+01
0	 7.481481e+00	 8.074074e+00	 1.002905e+01
0	 7.481481e+00	 8.148148e+00	 1.002718e+01
0	 7.555556e+00	 7.777778e+00	 1.003545e+01
0	 7.555556e+00	 7.851852e+00	 1.003353e+01
0	 7.555556e+00	 7.925926e+00	 1.003165e+01
0	 7.555556e+00	 8.000000e+00	 1.002980e+01
0	 7.555556e+00	 8.074074e+00	 1.002797e+01
0	 7.555556e+00	 8.148148e+00	 1.002617e+01
0	 7.629630e+00	 7.777778e+00	 1.003406e+01
0	 7.629630e+00	 7.851852e+00	 1.003222e+01
0	 7.629630e+00	 7.925926e+00	 1.003042e+01
0	 7.629630e+00	 8.000000e+00	 1.002864e+01
0	 7.629630e+00	 8.074074e+00	 1.002689e+01
0	 7.629630e+00	 8.148148e+00	 1.002516e+01
0	 7.703704e+00	 7.777778e+00	 1.003267e+01
0	 7.703704e+00	 7.851852e+00	 1.003091e+01
0	 7.703704e+00	 7.925926e+00	 1.002919e+01
0	 7.703704e+00	 8.000000e+00	 1.002749e+01
0	 7.703704e+00	 8.074074e+00	 1.002581e+01
0	 7.703704e+00	 8.148148e+00	 1.002416e+01
0	 7.777778e+00	 7.777778e+00	 1.003128e+01
0	 7.777778e+00	 7.851852e+00	 1.002961e+01
0	 7.777778e+00	 7.925926e+00	 1.002796e+01
0	 7.777778e+00	 8.000000e+00	 1.002634e+01
0	 7.777778e+00	 8.074074e+00	 1.002474e+01
0	 7.777778e+00	 8.148148e+00	 1.002316e+01
0	 7.407407e+00	 8.148148e+00	 1.002818e+01
0	 7.407407e+00	 8.222222e+00	 1.002627e+01
0	 7.407407e+00	 8.296296e+00	 1.002442e+01
0	 7.407407e+00	 8.370370e+00	 1.002261e+01
0	 7.407407e+00	 8.444444e+00	 1.002085e+01
0	 7.407407e+00	 8.518519e+00	 1.001913e+01
0	 7.481481e+00	 8.148148e+00	 1.002718e+01
0	 7.481481e+00	 8.222222e+00	 1.002534e+01
0	 7.481481e+00	 8.296296e+00	 1.002356e+01
0	 7.481481e+00	 8.370370e+00	 1.002182e+01
0	 7.481481e+00	 8.444444e+00	 1.002012e+01
0	 7.481481e+00	 8.518519e+00	 1.001846e+01
0	 7.555556e+00	 8.148148e+00	 1.002617e+01
0	 7.555556e+00	 8.222222e+00	 1.002441e+01
0	 7.555556e+00	 8.296296e+00	 1.002269e+01
0	 7.555556e+00	 8.370370e+00	 1.002102e+01
0	 7.555556e+00	 8.444444e+00	 1.001938e+01
0	 7.555556e+00	 8.518519e+00	 1.001778e+01
0	 7.629630e+00	 8.148148e+00	 1.002516e+01
0	 7.629630e+00	 8.222222e+00	 1.002347e+01
0	 7.629630e+00	 8.296296e+00	 1.002182e+01
0	 7.629630e+00	 8.370370e+00	 1.002021e+01
0	 7.629630e+00	 8.444444e+00	 1.001864e+01
0	 7.629630e+00	 8.518519e+00	 1.001711e+01
0	 7.703704e+00	 8.148148e+00	 1.002416e+01
0	 7.703704e+00	 8.222222e+00	 1.002254e+01
0	 7.703704e+00	 8.296296e+00	 1.002095e+01
0	 7.703704e+00	 8.370370e+00	 1.001941e+01
0	 7.703704e+00	 8.444444e+00	 1.001791e+01
0	 7.703704e+00	 8.518519e+00	 1.001643e+01
0	 7.777778e+00	 8.148148e+00	 1.002316e+01
0	 7.777778e+00	 8.222222e+00	 1.002160e+01
0	 7.777778e+00	 8.296296e+00	 1.002009e+01
0	 7.777778e+00	 8.370370e+00	 1.001862e+01
0	 7.777778e+00	 8.444444e+00	 1.001717e+01
0	 7.777778e+00	 8.518519e+00	 1.001576e+01
0	 7.407407e+00	 8.518519e+00	 1.001913e+01
0	 7.407407e+00	 8.592593e+00	 1.001746e+01
0	 7.407407e+00	 8.666667e+00	 1.001586e+01
0	 7.407407e+00	 8.740741e+00	 1.001432e+01
0	 7.407407e+00	 8.814815e+00	 1.001284e+01
0	 7.407407e+00	 8.888889e+00	 1.001141e+01
0	 7.481481e+00	 8.518519e+00	 1.001846e+01
0	 7.481481e+00	 8.592593e+00	 1.001685e+01
0	 7.481481e+00	 8.666667e+00	 1.001531e+01
0	 7.481481e+00	 8.740741e+00	 1.001382e+01
0	 7.481481e+00	 8.814815e+00	 1.001239e+01
0	 7.481481e+00	 8.888889e+00	 1.001101e+01
0	 7.555556e+00	 8.518519e+00	 1.001778e+01
0	 7.555556e+00	 8.592593e+00	 1.001624e+01
0	 7.555556e+00	 8.666667e+00	 1.001475e+01
0	 7.555556e+00	 8.740741e+00	 1.001332e+01
0	 7.555556e+00	 8.814815e+00	 1.001194e+01
0	 7.555556e+00	 8.888889e+00	 1.001061e+01
0	 7.629630e+00	 8.518519e+00	 1.001711e+01
0	 7.629630e+00	 8.592593e+00	 1.001562e+01
0	 7.629630e+00	 8.666667e+00	 1.001419e+01
0	 7.629630e+00	 8.740741e+00	 1.001281e+01
0	 7.629630e+00	 8.814815e+00	 1.001149e+01
0	 7.629630e+00	 8.888889e+00	 1.001021e+01
0	 7.703704e+00	 8.518519e+00	 1.001643e+01
0	 7.703704e+00	 8.592593e+00	 1.001500e+01
0	 7.703704e+00	 8.666667e+00	 1.001363e+01
0	 7.703704e+00	 8.740741e+00	 1.001231e+01
0	 7.703704e+00	 8.814815e+00	 1.001103e+01
0	 7.703704e+00	 8.888889e+00	 1.000981e+01
0	 7.777778e+00	 8.518519e+00	 1.001576e+01
0	 7.777778e+00	 8.592593e+00	 1.001439e+01
0	 7.777778e+00	 8.666667e+00	 1.001307e+01
0	 7.777778e+00	 8.740741e+00	 1.001181e+01
0	 7.777778e+00	 8.814815e+00	 1.001059e+01
0	 7.777778e+00	 8.888889e+00	 1.000941e+01
0	 7.407407e+00	 8.888889e+00	 1.001141e+01
0	 7.407407e+00	 8.962963e+00	 1.001005e+01
0	 7.407407e+00	 9.037037e+00	 1.000877e+01
0	 7.407407e+00	 9.111111e+00	 1.000756e+01
0	 7.407407e+00	 9.185185e+00	 1.000643e+01
0	 7.407407e+00	 9.259259e+00	 1.000537e+01
0	 7.481481e+00	 8.888889e+00	 1.001101e+01
0	 7.481481e+00	 8.962963e+00	 1.000970e+01
0	 7.481481e+00	 9.037037e+00	 1.000846e+01
0	 7.481481e+00	 9.111111e+00	 1.000730e+01
0	 7.481481e+00	 9.185185e+00	 1.000621e+01
0	 7.481481e+00	 9.259259e+00	 1.000518e+01
0	 7.555556e+00	 8.888889e+00	 1.001061e+01
0	 7.555556e+00	 8.962963e+00	 1.000934e+01
0	 7.555556e+00	 9.037037e+00	 1.000815e+01
0	 7.555556e+00	 9.111111e+00	 1.000703e+01
0	 7.555556e+00	 9.185185e+00	 1.000598e+01
0	 7.555556e+00	 9.259259e+00	 1.000499e+01
0	 7.629630e+00	 8.888889e+00	 1.001021e+01
0	 7.629630e+00	 8.962963e+00	 1.000899e+01
0	 7.629630e+00	 9.037037e+00	 1.000784e+01
0	 7.629630e+00	 9.111111e+00	 1.000677e+01
0	 7.629630e+00	 9.185185e+00	 1.000575e+01
0	 7.629630e+00	 9.259259e+00	 1.000480e+01
0	 7.703704e+00	 8.888889e+00	 1.000981e+01
0	 7.703704e+00	 8.962963e+00	 1.000864e+01
0	 7.703704e+00	 9.037037e+00	 1.000753e+01
0	 7.703704e+00	 9.111111e+00	 1.000650e+01
0	 7.703704e+00	 9.185185e+00	 1.000553e+01
0	 7.703704e+00	 9.259259e+00	 1.000461e+01
0	 7.777778e+00	 8.888889e+00	 1.000941e+01
0	 7.777778e+00	 8.962963e+00	 1.000829e+01
0	 7.777778e+00	 9.037037e+00	 1.000723e+01
0	 7.777778e+00	 9.111111e+00	 1.000624e+01
0	 7.777778e+00	 9.185185e+00	 1.000530e+01
0	 7.777778e+00	 9.259259e+00	 1.000443e+01
0	 7.407407e+00	 9.259259e+00	 1.000537e+01
0	 7.407407e+00	 9.333333e+00	 1.000439e+01
0	 7.407407e+00	 9.407407e+00	 1.000351e+01
0	 7.407407e+00	 9.481481e+00	 1.000273e+01
0	 7.407407e+00	 9.555556e+00	 1.000203e+01
0	 7.407407e+00	 9.629630e+00	 1.000142e+01
0	 7.481481e+00	 9.259259e+00	 1.000518e+01
0	 7.481481e+00	 9.333333e+00	 1.000424e+01
0	 7.481481e+00	 9.407407e+00	 1.000339e+01
0	 7.481481e+00	 9.481481e+00	 1.000263e+01
0	 7.481481e+00	 9.555556e+00	 1.000196e+01
0	 7.481481e+00	 9.629630e+00	 1.000137e+01
0	 7.555556e+00	 9.259259e+00	 1.000499e+01
0	 7.555556e+00	 9.333333e+00	 1.000408e+01
0	 7.555556e+00	 9.407407e+00	 1.000326e+01
0	 7.555556e+00	 9.481481e+00	 1.000253e+01
0	 7.555556e+00	 9.555556e+00	 1.000189e+01
0	 7.555556e+00	 9.629630e+00	 1.000132e+01
0	 7.629630e+00	 9.259259e+00	 1.000480e+01
0	 7.629630e+00	 9.333333e+00	 1.000393e+01
0	 7.629630e+00	 9.407407e+00	 1.000314e+01
0	 7.629630e+00	 9.481481e+00	 1.000244e+01
0	 7.629630e+00	 9.555556e+00	 1.000181e+01
0	 7.629630e+00	 9.629630e+00	 1.000127e+01
0	 7.703704e+00	 9.259259e+00	 1.000461e+01
0	 7.703704e+00	 9.333333e+00	 1.000377e+01
0	 7.703704e+00	 9.407407e+00	 1.000301e+01
0	 7.703704e+00	 9.481481e+00	 1.000234e+01
0	 7.703704e+00	 9.555556e+00	 1.000174e+01
0	 7.703704e+00	 9.629630e+00	 1.000122e+01
0	 7.777778e+00	 9.259259e+00	 1.000443e+01
0	 7.777778e+00	 9.333333e+00	 1.000362e+01
0	 7.777778e+00	 9.407407e+00	 1.000289e+01
0	 7.777778e+00	 9.481481e+00	 1.000224e+01
0	 7.777778e+00	 9.555556e+00	 1.000167e+01
0	 7.777778e+00	 9.629630e+00	 1.000117e+01
0	 7.407407e+00	 9.629630e+00	 1.000142e+01
0	 7.407407e+00	 9.703704e+00	 1.000091e+01
0	 7.407407e+00	 9.777778e+00	 1.000052e+01
0	 7.407407e+00	 9.851852e+00	 1.000024e+01
0	 7.407407e+00	 9.925926e+00	 1.000006e+01
0	 7.407407e+00	 1.000000e+01	 9.999990e+00
0	 7.481481e+00	 9.629630e+00	 1.000137e+01
0	 7.481481e+00	 9.703704e+00	 1.000088e+01
0	 7.481481e+00	 9.777778e+00	 1.000050e+01
0	 7.481481e+00	 9.851852e+00	 1.000023e+01
0	 7.481481e+00	 9.925926e+00	 1.000006e+01
0	 7.481481e+00	 1.000000e+01	 9.999993e+00
0	 7.555556e+00	 9.629630e+00	 1.000132e+01
0	 7.555556e+00	 9.703704e+00	 1.000085e+01
0	 7.555556e+00	 9.777778e+00	 1.000048e+01
0	 7.555556e+00	 9.851852e+00	 1.000022e+01
0	 7.555556e+00	 9.925926e+00	 1.000006e+01
0	 7.555556e+00	 1.000000e+01	 9.999992e+00
0	 7.629630e+00	 9.629630e+00	 1.000127e+01
0	 7.629630e+00	 9.703704e+00	 1.000081e+01
0	 7.629630e+00	 9.777778e+00	 1.000046e+01
0	 7.629630e+00	 9.851852e+00	 1.000021e+01
0	 7.629630e+00	 9.925926e+00	 1.000005e+01
0	 7.629630e+00	 1.000000e+01	 9.999990e+00
0	 7.703704e+00	 9.629630e+00	 1.000122e+01
0	 7.703704e+00	 9.703704e+00	 1.000078e+01
0	 7.703704e+00	 9.777778e+00	 1.000044e+01
0	 7.703704e+00	 9.851852e+00	 1.000020e+01
0	 7.703704e+00	 9.925926e+00	 1.000005e+01
0	 7.703704e+00	 1.000000e+01	 9.999989e+00
0	 7.777778e+00	 9.629630e+00	 1.000117e+01
0	 7.777778e+00	 9.703704e+00	 1.000075e+01
0	 7.777778e+00	 9.777778e+00	 1.000043e+01
0	 7.777778e+00	 9.851852e+00	 1.000020e+01
0	 7.777778e+00	 9.925926e+00	 1.000005e+01
0	 7.777778e+00	 1.000000e+01	 9.999992e+00
0	 7.777778e+00	 0.000000e+00	 9.997955e+00
0	 7.777778e+00	 7.407407e-02	 9.998030e+00
0	 7.777778e+00	 1.481481e-01	 9.998246e+00
0	 7.777778e+00	 2.222222e-01	 9.998606e+00
0	 7.777778e+00	 2.962963e-01	 9.999111e+00
0	 7.777778e+00	 3.703704e-01	 9.999762e+00
0	 7.851852e+00	 0.000000e+00	 9.989281e+00
0	 7.851852e+00	 7.407407e-02	 9.989355e+00
0	 7.851852e+00	 1.481481e-01	 9.989568e+00
0	 7.851852e+00	 2.222222e-01	 9.989923e+00
0	 7.851852e+00	 2.962963e-01	 9.990420e+00
0	 7.851852e+00	 3.703704e-01	 9.991060e+00
0	 7.925926e+00	 0.000000e+00	 9.980512e+00
0	 7.925926e+00	 7.407407e-02	 9.980585e+00
0	 7.925926e+00	 1.481481e-01	 9.980796e+00
0	 7.925926e+00	 2.222222e-01	 9.981146e+00
0	 7.925926e+00	 2.962963e-01	 9.981635e+00
0	 7.925926e+00	 3.703704e-01	 9.982267e+00
0	 8.000000e+00	 0.000000e+00	 9.971640e+00
0	 8.000000e+00	 7.407407e-02	 9.971711e+00
0	 8.000000e+00	 1.481481e-01	 9.971919e+00
0	 8.000000e+00	 2.222222e-01	 9.972264e+00
0	 8.000000e+00	 2.962963e-01	 9.972749e+00
0	 8.000000e+00	 3.703704e-01	 9.973373e+00
0	 8.074074e+00	 0.000000e+00	 9.962653e+00
0	 8.074074e+00	 7.407407e-02	 9.962722e+00
0	 8.074074e+00	 1.481481e-01	 9.962928e+00
0	 8.074074e+00	 2.222222e-01	 9.963270e+00
0	 8.074074e+00	 2.962963e-01	 9.963750e+00
0	 8.074074e+00	 3.703704e-01	 9.964369e+00
0	 8.148148e+00	 0.000000e+00	 9.953540e+00
0	 8.148148e+00	 7.407407e-02	 9.953608e+00
0	 8.148148e+00	 1.481481e-01	 9.953812e+00
0	 8.148148e+00	 2.222222e-01	 9.954152e+00
0	 8.148148e+00	 2.962963e-01	 9.954629e+00
0	 8.148148e+00	 3.703704e-01	 9.955244e+00
0	 7.777778e+00	 3.703704e-01	 9.999762e+00
0	 7.777778e+00	 4.444444e-01	 1.000055e+01
0	 7.777778e+00	 5.185185e-01	 1.000146e+01
0	 7.777778e+00	 5.925926e-01	 1.000250e+01
0	 7.777778e+00	 6.666667e-01	 1.000367e+01
0	 7.777778e+00	 7.407407e-01	 1.000499e+01
0	 7.851852e+00	 3.703704e-01	 9.991060e+00
0	 7.851852e+00	 4.444444e-01	 9.991834e+00
0	 7.851852e+00	 5.185185e-01	 9.992731e+00
0	 7.851852e+00	 5.925926e-01	 9.993757e+00
0	 7.851852e+00	 6.666667e-01	 9.994914e+00
0	 7.851852e+00	 7.407407e-01	 9.996205e+00
0	 7.925926e+00	 3.703704e-01	 9.982267e+00
0	 7.925926e+00	 4.444444e-01	 9.983030e+00
0	 7.925926e+00	 5.185185e-01	 9.983917e+00
0	 7.925926e+00	 5.925926e-01	 9.984930e+00
0	 7.925926e+00	 6.666667e-01	 9.986073e+00
0	 7.925926e+00	 7.407407e-01	 9.987348e+00
0	 8.000000e+00	 3.703704e-01	 9.973373e+00
0	 8.000000e+00	 4.444444e-01	 9.974128e+00
0	 8.000000e+00	 5.185185e-01	 9.975006e+00
0	 8.000000e+00	 5.925926e-01	 9.976009e+00
0	 8.000000e+00	 6.666667e-01	 9.977141e+00
0	 8.000000e+00	 7.407407e-01	 9.978405e+00
0	 8.074074e+00	 3.703704e-01	 9.964369e+00
0	 8.074074e+00	 4.444444e-01	 9.965118e+00
0	 8.074074e+00	 5.185185e-01	 9.965989e+00
0	 8.074074e+00	 5.925926e-01	 9.966985e+00
0	 8.074074e+00	 6.666667e-01	 9.968110e+00
0	 8.074074e+00	 7.407407e-01	 9.969364e+00
0	 8.148148e+00	 3.703704e-01	 9.955244e+00
0	 8.148148e+00	 4.444444e-01	 9.955989e+00
0	 8.148148e+00	 5.185185e-01	 9.956856e+00
0	 8.148148e+00	 5.925926e-01	 9.957848e+00
0	 8.148148e+00	 6.666667e-01	 9.958968e+00
0	 8.148148e+00	 7.407407e-01	 9.960217e+00
0	 7.777778e+00	 7.407407e-01	 1.000499e+01
0	 7.777778e+00	 8.148148e-01	 1.000641e+01
0	 7.777778e+00	 8.888889e-01	 1.000794e+01
0	 7.777778e+00	 9.629630e-01	 1.000956e+01
0	 7.777778e+00	 1.037037e+00	 1.001130e+01
0	 7.777778e+00	 1.111111e+00	 1.001314e+01
0	 7.851852e+00	 7.407407e-01	 9.996205e+00
0	 7.851852e+00	 8.148148e-01	 9.997612e+00
0	 7.851852e+00	 8.888889e-01	 9.999115e+00
0	 7.851852e+00	 9.629630e-01	 1.000072e+01
0	 7.851852e+00	 1.037037e+00	 1.000243e+01
0	 7.851852e+00	 1.111111e+00	 1.000426e+01
0	 7.925926e+00	 7.407407e-01	 9.987348e+00
0	 7.925926e+00	 8.148148e-01	 9.988738e+00
0	 7.925926e+00	 8.888889e-01	 9.990225e+00
0	 7.925926e+00	 9.629630e-01	 9.991814e+00
0	 7.925926e+00	 1.037037e+00	 9.993510e+00
0	 7.925926e+00	 1.111111e+00	 9.995318e+00
0	 8.000000e+00	 7.407407e-01	 9.978405e+00
0	 8.000000e+00	 8.148148e-01	 9.979782e+00
0	 8.000000e+00	 8.888889e-01	 9.981257e+00
0	 8.000000e+00	 9.629630e-01	 9.982834e+00
0	 8.000000e+00	 1.037037e+00	 9.984518e+00
0	 8.000000e+00	 1.111111e+00	 9.986312e+00
0	 8.074074e+00	 7.407407e-01	 9.969364e+00
0	 8.074074e+00	 8.148148e-01	 9.970733e+00
0	 8.074074e+00	 8.888889e-01	 9.972200e+00
0	 8.074074e+00	 9.629630e-01	 9.973769e+00
0	 8.074074e+00	 1.037037e+00	 9.975445e+00
0	 8.074074e+00	 1.111111e+00	 9.977231e+00
0	 8.148148e+00	 7.407407e-01	 9.960217e+00
0	 8.148148e+00	 8.148148e-01	 9.961581e+00
0	 8.148148e+00	 8.888889e-01	 9.963043e+00
0	 8.148148e+00	 9.629630e-01	 9.964608e+00
0	 8.148148e+00	 1.037037e+00	 9.966281e+00
0	 8.148148e+00	 1.111111e+00	 9.968064e+00
0	 7.777778e+00	 1.111111e+00	 1.001314e+01
0	 7.777778e+00	 1.185185e+00	 1.001508e+01
0	 7.777778e+00	 1.259259e+00	 1.001707e+01
0	 7.777778e+00	 1.333333e+00	 1.001914e+01
0	 7.777778e+00	 1.407407e+00	 1.002128e+01
0	 7.777778e+00	 1.481481e+00	 1.002349e+01
0	 7.851852e+00	 1.111111e+00	 1.000426e+01
0	 7.851852e+00	 1.185185e+00	 1.000617e+01
0	 7.851852e+00	 1.259259e+00	 1.000815e+01
0	 7.851852e+00	 1.333333e+00	 1.001019e+01
0	 7.851852e+00	 1.407407e+00	 1.001231e+01
0	 7.851852e+00	 1.481481e+00	 1.001451e+01
0	 7.925926e+00	 1.111111e+00	 9.995318e+00
0	 7.925926e+00	 1.185185e+00	 9.997213e+00
0	 7.925926e+00	 1.259259e+00	 9.999173e+00
0	 7.925926e+00	 1.333333e+00	 1.000120e+01
0	 7.925926e+00	 1.407407e+00	 1.000331e+01
0	 7.925926e+00	 1.481481e+00	 1.000549e+01
0	 8.000000e+00	 1.111111e+00	 9.986312e+00
0	 8.000000e+00	 1.185185e+00	 9.988195e+00
0	 8.000000e+00	 1.259259e+00	 9.990144e+00
0	 8.000000e+00	 1.333333e+00	 9.992164e+00
0	 8.000000e+00	 1.407407e+00	 9.994261e+00
0	 8.000000e+00	 1.481481e+00	 9.996441e+00
0	 8.074074e+00	 1.111111e+00	 9.977231e+00
0	 8.074074e+00	 1.185185e+00	 9.979107e+00
0	 8.074074e+00	 1.259259e+00	 9.981050e+00
0	 8.074074e+00	 1.333333e+00	 9.983067e+00
0	 8.074074e+00	 1.407407e+00	 9.985161e+00
0	 8.074074e+00	 1.481481e+00	 9.987339e+00
0	 8.148148e+00	 1.111111e+00	 9.968064e+00
0	 8.148148e+00	 1.185185e+00	 9.969937e+00
0	 8.148148e+00	 1.259259e+00	 9.971880e+00
0	 8.148148e+00	 1.333333e+00	 9.973898e+00
0	 8.148148e+00	 1.407407e+00	 9.975995e+00
0	 8.148148e+00	 1.481481e+00	 9.978176e+00
0	 7.777778e+00	 1.481481e+00	 1.002349e+01
0	 7.777778e+00	 1.555556e+00	 1.002576e+01
0	 7.777778e+00	 1.629630e+00	 1.002805e+01
0	 7.777778e+00	 1.703704e+00	 1.003037e+01
0	 7.777778e+00	 1.777778e+00	 1.003273e+01
0	 7.777778e+00	 1.851852e+00	 1.003513e+01
0	 7.851852e+00	 1.481481e+00	 1.001451e+01
0	 7.851852e+00	 1.555556e+00	 1.001676e+01
0	 7.851852e+00	 1.629630e+00	 1.001904e+01
0	 7.851852e+00	 1.703704e+00	 1.002135e+01
0	 7.851852e+00	 1.777778e+00	 1.002370e+01
0	 7.851852e+00	 1.851852e+00	 1.002609e+01
0	 7.925926e+00	 1.481481e+00	 1.000549e+01
0	 7.925926e+00	 1.555556e+00	 1.000774e+01
0	 7.925926e+00	 1.629630e+00	 1.001001e+01
0	 7.925926e+00	 1.703704e+00	 1.001231e+01
0	 7.925926e+00	 1.777778e+00	 1.001465e+01
0	 7.925926e+00	 1.851852e+00	 1.001705e+01
0	 8.000000e+00	 1.481481e+00	 9.996441e+00
0	 8.000000e+00	 1.555556e+00	 9.998677e+00
0	 8.000000e+00	 1.629630e+00	 1.000094e+01
0	 8.000000e+00	 1.703704e+00	 1.000325e+01
0	 8.000000e+00	 1.777778e+00	 1.000560e+01
0	 8.000000e+00	 1.851852e+00	 1.000799e+01
0	 8.074074e+00	 1.481481e+00	 9.987339e+00
0	 8.074074e+00	 1.555556e+00	 9.989575e+00
0	 8.074074e+00	 1.629630e+00	 9.991846e+00
0	 8.074074e+00	 1.703704e+00	 9.994156e+00
0	 8.074074e+00	 1.777778e+00	 9.996511e+00
0	 8.074074e+00	 1.851852e+00	 9.998917e+00
0	 8.148148e+00	 1.481481e+00	 9.978176e+00
0	 8.148148e+00	 1.555556e+00	 9.980418e+00
0	 8.148148e+00	 1.629630e+00	 9.982697e+00
0	 8.148148e+00	 1.703704e+00	 9.985019e+00
0	 8.148148e+00	 1.777778e+00	 9.987388e+00
0	 8.148148e+00	 1.851852e+00	 9.989809e+00
0	 7.777778e+00	 1.851852e+00	 1.003513e+01
0	 7.777778e+00	 1.925926e+00	 1.003755e+01
0	 7.777778e+00	 2.000000e+00	 1.003994e+01
0	 7.777778e+00	 2.074074e+00	 1.004233e+01
0	 7.777778e+00	 2.148148e+00	 1.004472e+01
0	 7.777778e+00	 2.222222e+00	 1.004711e+01
0	 7.851852e+00	 1.851852e+00	 1.002609e+01
0	 7.851852e+00	 1.925926e+00	 1.002850e+01
0	 7.851852e+00	 2.000000e+00	 1.003090e+01
0	 7.851852e+00	 2.074074e+00	 1.003329e+01
0	 7.851852e+00	 2.148148e+00	 1.003569e+01
0	 7.851852e+00	 2.222222e+00	 1.003809e+01
0	 7.925926e+00	 1.851852e+00	 1.001705e+01
0	 7.925926e+00	 1.925926e+00	 1.001946e+01
0	 7.925926e+00	 2.000000e+00	 1.002186e+01
0	 7.925926e+00	 2.074074e+00	 1.002427e+01
0	 7.925926e+00	 2.148148e+00	 1.002668e+01
0	 7.925926e+00	 2.222222e+00	 1.002910e+01
0	 8.000000e+00	 1.851852e+00	 1.000799e+01
0	 8.000000e+00	 1.925926e+00	 1.001041e+01
0	 8.000000e+00	 2.000000e+00	 1.001283e+01
0	 8.000000e+00	 2.074074e+00	 1.001525e+01
0	 8.000000e+00	 2.148148e+00	 1.001767e+01
0	 8.000000e+00	 2.222222e+00	 1.002011e+01
0	 8.074074e+00	 1.851852e+00	 9.998917e+00
0	 8.074074e+00	 1.925926e+00	 1.000135e+01
0	 8.074074e+00	 2.000000e+00	 1.000378e+01
0	 8.074074e+00	 2.074074e+00	 1.000622e+01
0	 8.074074e+00	 2.148148e+00	 1.000867e+01
0	 8.074074e+00	 2.222222e+00	 1.001114e+01
0	 8.148148e+00	 1.851852e+00	 9.989809e+00
0	 8.148148e+00	 1.925926e+00	 9.992260e+00
0	 8.148148e+00	 2.000000e+00	 9.994715e+00
0	 8.148148e+00	 2.074074e+00	 9.997179e+00
0	 8.148148e+00	 2.148148e+00	 9.999659e+00
0	 8.148148e+00	 2.222222e+00	 1.000216e+01
0	 7.777778e+00	 2.222222e+00	 1.004711e+01
0	 7.777778e+00	 2.296296e+00	 1.004948e+01
0	 7.777778e+00	 2.370370e+00	 1.005181e+01
0	 7.777778e+00	 2.444444e+00	 1.005409e+01
0	 7.777778e+00	 2.518519e+00	 1.005634e+01
0	 7.777778e+00	 2.592593e+00	 1.005855e+01
0	 7.851852e+00	 2.222222e+00	 1.003809e+01
0	 7.851852e+00	 2.296296e+00	 1.004048e+01
0	 7.851852e+00	 2.370370e+00	 1.004282e+01
0	 7.851852e+00	 2.444444e+00	 1.004513e+01
0	 7.851852e+00	 2.518519e+00	 1.004741e+01
0	 7.851852e+00	 2.592593e+00	 1.004965e+01
0	 7.925926e+00	 2.222222e+00	 1.002910e+01
0	 7.925926e+00	 2.296296e+00	 1.003150e+01
0	 7.925926e+00	 2.370370e+00	 1.003387e+01
0	 7.925926e+00	 2.444444e+00	 1.003621e+01
0	 7.925926e+00	 2.518519e+00	 1.003852e+01
0	 7.925926e+00	 2.592593e+00	 1.004080e+01
0	 8.000000e+00	 2.222222e+00	 1.002011e+01
0	 8.000000e+00	 2.296296e+00	 1.002255e+01
0	 8.000000e+00	 2.370370e+00	 1.002494e+01
0	 8.000000e+00	 2.444444e+00	 1.002731e+01
0	 8.000000e+00	 2.518519e+00	 1.002966e+01
0	 8.000000e+00	 2.592593e+00	 1.003199e+01
0	 8.074074e+00	 2.222222e+00	 1.001114e+01
0	 8.074074e+00	 2.296296e+00	 1.001360e+01
0	 8.074074e+00	 2.370370e+00	 1.001603e+01
0	 8.074074e+00	 2.444444e+00	 1.001844e+01
0	 8.074074e+00	 2.518519e+00	 1.002083e+01
0	 8.074074e+00	 2.592593e+00	 1.002320e+01
0	 8.148148e+00	 2.222222e+00	 1.000216e+01
0	 8.148148e+00	 2.296296e+00	 1.000466e+01
0	 8.148148e+00	 2.370370e+00	 1.000713e+01
0	 8.148148e+00	 2.444444e+00	 1.000958e+01
0	 8.148148e+00	 2.518519e+00	 1.001201e+01
0	 8.148148e+00	 2.592593e+00	 1.001444e+01
0	 7.777778e+00	 2.592593e+00	 1.005855e+01
0	 7.777778e+00	 2.666667e+00	 1.006071e+01
0	 7.777778e+00	 2.740741e+00	 1.006281e+01
0	 7.777778e+00	 2.814815e+00	 1.006483e+01
0	 7.777778e+00	 2.888889e+00	 1.006679e+01
0	 7.777778e+00	 2.962963e+00	 1.006869e+01
0	 7.851852e+00	 2.592593e+00	 1.004965e+01
0	 7.851852e+00	 2.666667e+00	 1.005186e+01
0	 7.851852e+00	 2.740741e+00	 1.005399e+01
0	 7.851852e+00	 2.814815e+00	 1.005606e+01
0	 7.851852e+00	 2.888889e+00	 1.005807e+01
0	 7.851852e+00	 2.962963e+00	 1.006003e+01
0	 7.925926e+00	 2.592593e+00	 1.004080e+01
0	 7.925926e+00	 2.666667e+00	 1.004304e+01
0	 7.925926e+00	 2.740741e+00	 1.004523e+01
0	 7.925926e+00	 2.814815e+00	 1.004735e+01
0	 7.925926e+00	 2.888889e+00	 1.004942e+01
0	 7.925926e+00	 2.962963e+00	 1.005143e+01
0	 8.000000e+00	 2.592593e+00	 1.003199e+01
0	 8.000000e+00	 2.666667e+00	 1.003428e+01
0	 8.000000e+00	 2.740741e+00	 1.003651e+01
0	 8.000000e+00	 2.814815e+00	 1.003868e+01
0	 8.000000e+00	 2.888889e+00	 1.004081e+01
0	 8.000000e+00	 2.962963e+00	 1.004289e+01
0	 8.074074e+00	 2.592593e+00	 1.002320e+01
0	 8.074074e+00	 2.666667e+00	 1.002554e+01
0	 8.074074e+00	 2.740741e+00	 1.002783e+01
0	 8.074074e+00	 2.814815e+00	 1.003006e+01
0	 8.074074e+00	 2.888889e+00	 1.003225e+01
0	 8.074074e+00	 2.962963e+00	 1.003440e+01
0	 8.148148e+00	 2.592593e+00	 1.001444e+01
0	 8.148148e+00	 2.666667e+00	 1.001683e+01
0	 8.148148e+00	 2.740741e+00	 1.001918e+01
0	 8.148148e+00	 2.814815e+00	 1.002148e+01
0	 8.148148e+00	 2.888889e+00	 1.002373e+01
0	 8.148148e+00	 2.962963e+00	 1.002595e+01
0	 7.777778e+00	 2.962963e+00	 1.006869e+01
0	 7.777778e+00	 3.037037e+00	 1.007051e+01
0	 7.777778e+00	 3.111111e+00	 1.007225e+01
0	 7.777778e+00	 3.185185e+00	 1.007390e+01
0	 7.777778e+00	 3.259259e+00	 1.007547e+01
0	 7.777778e+00	 3.333333e+00	 1.007696e+01
0	 7.851852e+00	 2.962963e+00	 1.006003e+01
0	 7.851852e+00	 3.037037e+00	 1.006192e+01
0	 7.851852e+00	 3.111111e+00	 1.006372e+01
0	 7.851852e+00	 3.185185e+00	 1.006544e+01
0	 7.851852e+00	 3.259259e+00	 1.006709e+01
0	 7.851852e+00	 3.333333e+00	 1.006866e+01
0	 7.925926e+00	 2.962963e+00	 1.005143e+01
0	 7.925926e+00	 3.037037e+00	 1.005339e+01
0	 7.925926e+00	 3.111111e+00	 1.005526e+01
0	 7.925926e+00	 3.185185e+00	 1.005705e+01
0	 7.925926e+00	 3.259259e+00	 1.005878e+01
0	 7.925926e+00	 3.333333e+00	 1.006043e+01
0	 8.000000e+00	 2.962963e+00	 1.004289e+01
0	 8.000000e+00	 3.037037e+00	 1.004491e+01
0	 8.000000e+00	 3.111111e+00	 1.004686e+01
0	 8.000000e+00	 3.185185e+00	 1.004873e+01
0	 8.000000e+00	 3.259259e+00	 1.005053e+01
0	 8.000000e+00	 3.333333e+00	 1.005226e+01
0	 8.074074e+00	 2.962963e+00	 1.003440e+01
0	 8.074074e+00	 3.037037e+00	 1.003649e+01
0	 8.074074e+00	 3.111111e+00	 1.003851e+01
0	 8.074074e+00	 3.185185e+00	 1.004046e+01
0	 8.074074e+00	 3.259259e+00	 1.004234e+01
0	 8.074074e+00	 3.333333e+00	 1.004416e+01
0	 8.148148e+00	 2.962963e+00	 1.002595e+01
0	 8.148148e+00	 3.037037e+00	 1.002812e+01
0	 8.148148e+00	 3.111111e+00	 1.003021e+01
0	 8.148148e+00	 3.185185e+00	 1.003224e+01
0	 8.148148e+00	 3.259259e+00	 1.003421e+01
0	 8.148148e+00	 3.333333e+00	 1.003612e+01
0	 7.777778e+00	 3.333333e+00	 1.007696e+01
0	 7.777778e+00	 3.407407e+00	 1.007835e+01
0	 7.777778e+00	 3.481481e+00	 1.007966e+01
0	 7.777778e+00	 3.555556e+00	 1.008086e+01
0	 7.777778e+00	 3.629630e+00	 1.008197e+01
0	 7.777778e+00	 3.703704e+00	 1.008299e+01
0	 7.851852e+00	 3.333333e+00	 1.006866e+01
0	 7.851852e+00	 3.407407e+00	 1.007014e+01
0	 7.851852e+00	 3.481481e+00	 1.007153e+01
0	 7.851852e+00	 3.555556e+00	 1.007283e+01
0	 7.851852e+00	 3.629630e+00	 1.007403e+01
0	 7.851852e+00	 3.703704e+00	 1.007515e+01
0	 7.925926e+00	 3.333333e+00	 1.006043e+01
0	 7.925926e+00	 3.407407e+00	 1.006199e+01
0	 7.925926e+00	 3.481481e+00	 1.006347e+01
0	 7.925926e+00	 3.555556e+00	 1.006487e+01
0	 7.925926e+00	 3.629630e+00	 1.006617e+01
0	 7.925926e+00	 3.703704e+00	 1.006739e+01
0	 8.000000e+00	 3.333333e+00	 1.005226e+01
0	 8.000000e+00	 3.407407e+00	 1.005392e+01
0	 8.000000e+00	 3.481481e+00	 1.005549e+01
0	 8.000000e+00	 3.555556e+00	 1.005698e+01
0	 8.000000e+00	 3.629630e+00	 1.005838e+01
0	 8.000000e+00	 3.703704e+00	 1.005970e+01
0	 8.074074e+00	 3.333333e+00	 1.004416e+01
0	 8.074074e+00	 3.407407e+00	 1.004591e+01
0	 8.074074e+00	 3.481481e+00	 1.004757e+01
0	 8.074074e+00	 3.555556e+00	 1.004916e+01
0	 8.074074e+00	 3.629630e+00	 1.005066e+01
0	 8.074074e+00	 3.703704e+00	 1.005209e+01
0	 8.148148e+00	 3.333333e+00	 1.003612e+01
0	 8.148148e+00	 3.407407e+00	 1.003796e+01
0	 8.148148e+00	 3.481481e+00	 1.003972e+01
0	 8.148148e+00	 3.555556e+00	 1.004141e+01
0	 8.148148e+00	 3.629630e+00	 1.004301e+01
0	 8.148148e+00	 3.703704e+00	 1.004454e+01
0	 7.777778e+00	 3.703704e+00	 1.008299e+01
0	 7.777778e+00	 3.777778e+00	 1.008391e+01
0	 7.777778e+00	 3.851852e+00	 1.008473e+01
0	 7.777778e+00	 3.925926e+00	 1.008546e+01
0	 7.777778e+00	 4.000000e+00	 1.008608e+01
0	 7.777778e+00	 4.074074e+00	 1.008661e+01
0	 7.851852e+00	 3.703704e+00	 1.007515e+01
0	 7.851852e+00	 3.777778e+00	 1.007618e+01
0	 7.851852e+00	 3.851852e+00	 1.007711e+01
0	 7.851852e+00	 3.925926e+00	 1.007794e+01
0	 7.851852e+00	 4.000000e+00	 1.007868e+01
0	 7.851852e+00	 4.074074e+00	 1.007933e+01
0	 7.925926e+00	 3.703704e+00	 1.006739e+01
0	 7.925926e+00	 3.777778e+00	 1.006852e+01
0	 7.925926e+00	 3.851852e+00	 1.006956e+01
0	 7.925926e+00	 3.925926e+00	 1.007050e+01
0	 7.925926e+00	 4.000000e+00	 1.007136e+01
0	 7.925926e+00	 4.074074e+00	 1.007212e+01
0	 8.000000e+00	 3.703704e+00	 1.005970e+01
0	 8.000000e+00	 3.777778e+00	 1.006094e+01
0	 8.000000e+00	 3.851852e+00	 1.006208e+01
0	 8.000000e+00	 3.925926e+00	 1.006314e+01
0	 8.000000e+00	 4.000000e+00	 1.006411e+01
0	 8.000000e+00	 4.074074e+00	 1.006499e+01
0	 8.074074e+00	 3.703704e+00	 1.005209e+01
0	 8.074074e+00	 3.777778e+00	 1.005343e+01
0	 8.074074e+00	 3.851852e+00	 1.005468e+01
0	 8.074074e+00	 3.925926e+00	 1.005585e+01
0	 8.074074e+00	 4.000000e+00	 1.005694e+01
0	 8.074074e+00	 4.074074e+00	 1.005793e+01
0	 8.148148e+00	 3.703704e+00	 1.004454e+01
0	 8.148148e+00	 3.777778e+00	 1.004599e+01
0	 8.148148e+00	 3.851852e+00	 1.004736e+01
0	 8.148148e+00	 3.925926e+00	 1.004864e+01
0	 8.148148e+00	 4.000000e+00	 1.004984e+01
0	 8.148148e+00	 4.074074e+00	 1.005095e+01
0	 7.777778e+00	 4.074074e+00	 1.008661e+01
0	 7.777778e+00	 4.148148e+00	 1.008705e+01
0	 7.777778e+00	 4.222222e+00	 1.008739e+01
0	 7.777778e+00	 4.296296e+00	 1.008763e+01
0	 7.777778e+00	 4.370370e+00	 1.008778e+01
0	 7.777778e+00	 4.444444e+00	 1.008783e+01
0	 7.851852e+00	 4.074074e+00	 1.007933e+01
0	 7.851852e+00	 4.148148e+00	 1.007988e+01
0	 7.851852e+00	 4.222222e+00	 1.008034e+01
0	 7.851852e+00	 4.296296e+00	 1.008071e+01
0	 7.851852e+00	 4.370370e+00	 1.008099e+01
0	 7.851852e+00	 4.444444e+00	 1.008117e+01
0	 7.925926e+00	 4.074074e+00	 1.007212e+01
0	 7.925926e+00	 4.148148e+00	 1.007279e+01
0	 7.925926e+00	 4.222222e+00	 1.007337e+01
0	 7.925926e+00	 4.296296e+00	 1.007387e+01
0	 7.925926e+00	 4.370370e+00	 1.007427e+01
0	 7.925926e+00	 4.444444e+00	 1.007457e+01
0	 8.000000e+00	 4.074074e+00	 1.006499e+01
0	 8.000000e+00	 4.148148e+00	 1.006578e+01
0	 8.000000e+00	 4.222222e+00	 1.006648e+01
0	 8.000000e+00	 4.296296e+00	 1.006709e+01
0	 8.000000e+00	 4.370370e+00	 1.006762e+01
0	 8.000000e+00	 4.444444e+00	 1.006805e+01
0	 8.074074e+00	 4.074074e+00	 1.005793e+01
0	 8.074074e+00	 4.148148e+00	 1.005884e+01
0	 8.074074e+00	 4.222222e+00	 1.005966e+01
0	 8.074074e+00	 4.296296e+00	 1.006040e+01
0	 8.074074e+00	 4.370370e+00	 1.006105e+01
0	 8.074074e+00	 4.444444e+00	 1.006161e+01
0	 8.148148e+00	 4.074074e+00	 1.005095e+01
0	 8.148148e+00	 4.148148e+00	 1.005198e+01
0	 8.148148e+00	 4.222222e+00	 1.005293e+01
0	 8.148148e+00	 4.296296e+00	 1.005379e+01
0	 8.148148e+00	 4.370370e+00	 1.005456e+01
0	 8.148148e+00	 4.444444e+00	 1.005525e+01
0	 7.777778e+00	 4.444444e+00	 1.008783e+01
0	 7.777778e+00	 4.518519e+00	 1.008779e+01
0	 7.777778e+00	 4.592593e+00	 1.008767e+01
0	 7.777778e+00	 4.666667e+00	 1.008746e+01
0	 7.777778e+00	 4.740741e+00	 1.008717e+01
0	 7.777778e+00	 4.814815e+00	 1.008678e+01
0	 7.851852e+00	 4.444444e+00	 1.008117e+01
0	 7.851852e+00	 4.518519e+00	 1.008126e+01
0	 7.851852e+00	 4.592593e+00	 1.008127e+01
0	 7.851852e+00	 4.666667e+00	 1.008119e+01
0	 7.851852e+00	 4.740741e+00	 1.008103e+01
0	 7.851852e+00	 4.814815e+00	 1.008078e+01
0	 7.925926e+00	 4.444444e+00	 1.007457e+01
0	 7.925926e+00	 4.518519e+00	 1.007479e+01
0	 7.925926e+00	 4.592593e+00	 1.007493e+01
0	 7.925926e+00	 4.666667e+00	 1.007499e+01
0	 7.925926e+00	 4.740741e+00	 1.007495e+01
0	 7.925926e+00	 4.814815e+00	 1.007483e+01
0	 8.000000e+00	 4.444444e+00	 1.006805e+01
0	 8.000000e+00	 4.518519e+00	 1.006840e+01
0	 8.000000e+00	 4.592593e+00	 1.006867e+01
0	 8.000000e+00	 4.666667e+00	 1.006885e+01
0	 8.000000e+00	 4.740741e+00	 1.006895e+01
0	 8.000000e+00	 4.814815e+00	 1.006896e+01
0	 8.074074e+00	 4.444444e+00	 1.006161e+01
0	 8.074074e+00	 4.518519e+00	 1.006209e+01
0	 8.074074e+00	 4.592593e+00	 1.006248e+01
0	 8.074074e+00	 4.666667e+00	 1.006279e+01
0	 8.074074e+00	 4.740741e+00	 1.006302e+01
0	 8.074074e+00	 4.814815e+00	 1.006316e+01
0	 8.148148e+00	 4.444444e+00	 1.005525e+01
0	 8.148148e+00	 4.518519e+00	 1.005585e+01
0	 8.148148e+00	 4.592593e+00	 1.005637e+01
0	 8.148148e+00	 4.666667e+00	 1.005681e+01
0	 8.148148e+00	 4.740741e+00	 1.005717e+01
0	 8.148148e+00	 4.814815e+00	 1.005744e+01
0	 7.777778e+00	 4.814815e+00	 1.008678e+01
0	 7.777778e+00	 4.888889e+00	 1.008631e+01
0	 7.777778e+00	 4.962963e+00	 1.008577e+01
0	 7.777778e+00	 5.037037e+00	 1.008515e+01
0	 7.777778e+00	 5.111111e+00	 1.008446e+01
0	 7.777778e+00	 5.185185e+00	 1.008369e+01
0	 7.851852e+00	 4.814815e+00	 1.008078e+01
0	 7.851852e+00	 4.888889e+00	 1.008044e+01
0	 7.851852e+00	 4.962963e+00	 1.008004e+01
0	 7.851852e+00	 5.037037e+00	 1.007956e+01
0	 7.851852e+00	 5.111111e+00	 1.007900e+01
0	 7.851852e+00	 5.185185e+00	 1.007836e+01
0	 7.925926e+00	 4.814815e+00	 1.007483e+01
0	 7.925926e+00	 4.888889e+00	 1.007463e+01
0	 7.925926e+00	 4.962963e+00	 1.007436e+01
0	 7.925926e+00	 5.037037e+00	 1.007401e+01
0	 7.925926e+00	 5.111111e+00	 1.007359e+01
0	 7.925926e+00	 5.185185e+00	 1.007309e+01
0	 8.000000e+00	 4.814815e+00	 1.006896e+01
0	 8.000000e+00	 4.888889e+00	 1.006889e+01
0	 8.000000e+00	 4.962963e+00	 1.006875e+01
0	 8.000000e+00	 5.037037e+00	 1.006854e+01
0	 8.000000e+00	 5.111111e+00	 1.006825e+01
0	 8.000000e+00	 5.185185e+00	 1.006788e+01
0	 8.074074e+00	 4.814815e+00	 1.006316e+01
0	 8.074074e+00	 4.888889e+00	 1.006323e+01
0	 8.074074e+00	 4.962963e+00	 1.006322e+01
0	 8.074074e+00	 5.037037e+00	 1.006313e+01
0	 8.074074e+00	 5.111111e+00	 1.006297e+01
0	 8.074074e+00	 5.185185e+00	 1.006273e+01
0	 8.148148e+00	 4.814815e+00	 1.005744e+01
0	 8.148148e+00	 4.888889e+00	 1.005764e+01
0	 8.148148e+00	 4.962963e+00	 1.005776e+01
0	 8.148148e+00	 5.037037e+00	 1.005780e+01
0	 8.148148e+00	 5.111111e+00	 1.005777e+01
0	 8.148148e+00	 5.185185e+00	 1.005766e+01
0	 7.777778e+00	 5.185185e+00	 1.008369e+01
0	 7.777778e+00	 5.259259e+00	 1.008284e+01
0	 7.777778e+00	 5.333333e+00	 1.008194e+01
0	 7.777778e+00	 5.407407e+00	 1.008098e+01
0	 7.777778e+00	 5.481481e+00	 1.007995e+01
0	 7.777778e+00	 5.555556e+00	 1.007885e+01
0	 7.851852e+00	 5.185185e+00	 1.007836e+01
0	 7.851852e+00	 5.259259e+00	 1.007765e+01
0	 7.851852e+00	 5.333333e+00	 1.007688e+01
0	 7.851852e+00	 5.407407e+00	 1.007605e+01
0	 7.851852e+00	 5.481481e+00	 1.007516e+01
0	 7.851852e+00	 5.555556e+00	 1.007419e+01
0	 7.925926e+00	 5.185185e+00	 1.007309e+01
0	 7.925926e+00	 5.259259e+00	 1.007251e+01
0	 7.925926e+00	 5.333333e+00	 1.007188e+01
0	 7.925926e+00	 5.407407e+00	 1.007118e+01
0	 7.925926e+00	 5.481481e+00	 1.007042e+01
0	 7.925926e+00	 5.555556e+00	 1.006958e+01
0	 8.000000e+00	 5.185185e+00	 1.006788e+01
0	 8.000000e+00	 5.259259e+00	 1.006743e+01
0	 8.000000e+00	 5.333333e+00	 1.006693e+01
0	 8.000000e+00	 5.407407e+00	 1.006636e+01
0	 8.000000e+00	 5.481481e+00	 1.006573e+01
0	 8.000000e+00	 5.555556e+00	 1.006503e+01
0	 8.074074e+00	 5.185185e+00	 1.006273e+01
0	 8.074074e+00	 5.259259e+00	 1.006242e+01
0	 8.074074e+00	 5.333333e+00	 1.006205e+01
0	 8.074074e+00	 5.407407e+00	 1.006161e+01
0	 8.074074e+00	 5.481481e+00	 1.006110e+01
0	 8.074074e+00	 5.555556e+00	 1.006053e+01
0	 8.148148e+00	 5.185185e+00	 1.005766e+01
0	 8.148148e+00	 5.259259e+00	 1.005748e+01
0	 8.148148e+00	 5.333333e+00	 1.005723e+01
0	 8.148148e+00	 5.407407e+00	 1.005692e+01
0	 8.148148e+00	 5.481481e+00	 1.005655e+01
0	 8.148148e+00	 5.555556e+00	 1.005610e+01
0	 7.777778e+00	 5.555556e+00	 1.007885e+01
0	 7.777778e+00	 5.629630e+00	 1.007770e+01
0	 7.777778e+00	 5.703704e+00	 1.007649e+01
0	 7.777778e+00	 5.777778e+00	 1.007525e+01
0	 7.777778e+00	 5.851852e+00	 1.007394e+01
0	 7.777778e+00	 5.925926e+00	 1.007259e+01
0	 7.851852e+00	 5.555556e+00	 1.007419e+01
0	 7.851852e+00	 5.629630e+00	 1.007317e+01
0	 7.851852e+00	 5.703704e+00	 1.007210e+01
0	 7.851852e+00	 5.777778e+00	 1.007098e+01
0	 7.851852e+00	 5.851852e+00	 1.006981e+01
0	 7.851852e+00	 5.925926e+00	 1.006858e+01
0	 7.925926e+00	 5.555556e+00	 1.006958e+01
0	 7.925926e+00	 5.629630e+00	 1.006869e+01
0	 7.925926e+00	 5.703704e+00	 1.006775e+01
0	 7.925926e+00	 5.777778e+00	 1.006676e+01
0	 7.925926e+00	 5.851852e+00	 1.006572e+01
0	 7.925926e+00	 5.925926e+00	 1.006461e+01
0	 8.000000e+00	 5.555556e+00	 1.006503e+01
0	 8.000000e+00	 5.629630e+00	 1.006426e+01
0	 8.000000e+00	 5.703704e+00	 1.006345e+01
0	 8.000000e+00	 5.777778e+00	 1.006259e+01
0	 8.000000e+00	 5.851852e+00	 1.006167e+01
0	 8.000000e+00	 5.925926e+00	 1.006069e+01
0	 8.074074e+00	 5.555556e+00	 1.006053e+01
0	 8.074074e+00	 5.629630e+00	 1.005989e+01
0	 8.074074e+00	 5.703704e+00	 1.005921e+01
0	 8.074074e+00	 5.777778e+00	 1.005847e+01
0	 8.074074e+00	 5.851852e+00	 1.005767e+01
0	 8.074074e+00	 5.925926e+00	 1.005682e+01
0	 8.148148e+00	 5.555556e+00	 1.005610e+01
0	 8.148148e+00	 5.629630e+00	 1.005559e+01
0	 8.148148e+00	 5.703704e+00	 1.005503e+01
0	 8.148148e+00	 5.777778e+00	 1.005441e+01
0	 8.148148e+00	 5.851852e+00	 1.005374e+01
0	 8.148148e+00	 5.925926e+00	 1.005300e+01
0	 7.777778e+00	 5.925926e+00	 1.007259e+01
0	 7.777778e+00	 6.000000e+00	 1.007119e+01
0	 7.777778e+00	 6.074074e+00	 1.006976e+01
0	 7.777778e+00	 6.148148e+00	 1.006829e+01
0	 7.777778e+00	 6.222222e+00	 1.006678e+01
0	 7.777778e+00	 6.296296e+00	 1.006524e+01
0	 7.851852e+00	 5.925926e+00	 1.006858e+01
0	 7.851852e+00	 6.000000e+00	 1.006731e+01
0	 7.851852e+00	 6.074074e+00	 1.006600e+01
0	 7.851852e+00	 6.148148e+00	 1.006466e+01
0	 7.851852e+00	 6.222222e+00	 1.006327e+01
0	 7.851852e+00	 6.296296e+00	 1.006185e+01
0	 7.925926e+00	 5.925926e+00	 1.006461e+01
0	 7.925926e+00	 6.000000e+00	 1.006347e+01
0	 7.925926e+00	 6.074074e+00	 1.006228e+01
0	 7.925926e+00	 6.148148e+00	 1.006106e+01
0	 7.925926e+00	 6.222222e+00	 1.005979e+01
0	 7.925926e+00	 6.296296e+00	 1.005849e+01
0	 8.000000e+00	 5.925926e+00	 1.006069e+01
0	 8.000000e+00	 6.000000e+00	 1.005967e+01
0	 8.000000e+00	 6.074074e+00	 1.005860e+01
0	 8.000000e+00	 6.148148e+00	 1.005750e+01
0	 8.000000e+00	 6.222222e+00	 1.005635e+01
0	 8.000000e+00	 6.296296e+00	 1.005516e+01
0	 8.074074e+00	 5.925926e+00	 1.005682e+01
0	 8.074074e+00	 6.000000e+00	 1.005591e+01
0	 8.074074e+00	 6.074074e+00	 1.005497e+01
0	 8.074074e+00	 6.148148e+00	 1.005399e+01
0	 8.074074e+00	 6.222222e+00	 1.005296e+01
0	 8.074074e+00	 6.296296e+00	 1.005188e+01
0	 8.148148e+00	 5.925926e+00	 1.005300e+01
0	 8.148148e+00	 6.000000e+00	 1.005222e+01
0	 8.148148e+00	 6.074074e+00	 1.005139e+01
0	 8.148148e+00	 6.148148e+00	 1.005052e+01
0	 8.148148e+00	 6.222222e+00	 1.004961e+01
0	 8.148148e+00	 6.296296e+00	 1.004865e+01
0	 7.777778e+00	 6.296296e+00	 1.006524e+01
0	 7.777778e+00	 6.370370e+00	 1.006366e+01
0	 7.777778e+00	 6.444444e+00	 1.006206e+01
0	 7.777778e+00	 6.518519e+00	 1.006044e+01
0	 7.777778e+00	 6.592593e+00	 1.005880e+01
0	 7.777778e+00	 6.666667e+00	 1.005712e+01
0	 7.851852e+00	 6.296296e+00	 1.006185e+01
0	 7.851852e+00	 6.370370e+00	 1.006039e+01
0	 7.851852e+00	 6.444444e+00	 1.005891e+01
0	 7.851852e+00	 6.518519e+00	 1.005740e+01
0	 7.851852e+00	 6.592593e+00	 1.005587e+01
0	 7.851852e+00	 6.666667e+00	 1.005431e+01
0	 7.925926e+00	 6.296296e+00	 1.005849e+01
0	 7.925926e+00	 6.370370e+00	 1.005715e+01
0	 7.925926e+00	 6.444444e+00	 1.005578e+01
0	 7.925926e+00	 6.518519e+00	 1.005439e+01
0	 7.925926e+00	 6.592593e+00	 1.005297e+01
0	 7.925926e+00	 6.666667e+00	 1.005151e+01
0	 8.000000e+00	 6.296296e+00	 1.005516e+01
0	 8.000000e+00	 6.370370e+00	 1.005394e+01
0	 8.000000e+00	 6.444444e+00	 1.005268e+01
0	 8.000000e+00	 6.518519e+00	 1.005140e+01
0	 8.000000e+00	 6.592593e+00	 1.005009e+01
0	 8.000000e+00	 6.666667e+00	 1.004875e+01
0	 8.074074e+00	 6.296296e+00	 1.005188e+01
0	 8.074074e+00	 6.370370e+00	 1.005077e+01
0	 8.074074e+00	 6.444444e+00	 1.004963e+01
0	 8.074074e+00	 6.518519e+00	 1.004846e+01
0	 8.074074e+00	 6.592593e+00	 1.004725e+01
0	 8.074074e+00	 6.666667e+00	 1.004602e+01
0	 8.148148e+00	 6.296296e+00	 1.004865e+01
0	 8.148148e+00	 6.370370e+00	 1.004765e+01
0	 8.148148e+00	 6.444444e+00	 1.004662e+01
0	 8.148148e+00	 6.518519e+00	 1.004555e+01
0	 8.148148e+00	 6.592593e+00	 1.004446e+01
0	 8.148148e+00	 6.666667e+00	 1.004333e+01
0	 7.777778e+00	 6.666667e+00	 1.005712e+01
0	 7.777778e+00	 6.740741e+00	 1.005543e+01
0	 7.777778e+00	 6.814815e+00	 1.005373e+01
0	 7.777778e+00	 6.888889e+00	 1.005202e+01
0	 7.777778e+00	 6.962963e+00	 1.005030e+01
0	 7.777778e+00	 7.037037e+00	 1.004856e+01
0	 7.851852e+00	 6.666667e+00	 1.005431e+01
0	 7.851852e+00	 6.740741e+00	 1.005272e+01
0	 7.851852e+00	 6.814815e+00	 1.005113e+01
0	 7.851852e+00	 6.888889e+00	 1.004953e+01
0	 7.851852e+00	 6.962963e+00	 1.004791e+01
0	 7.851852e+00	 7.037037e+00	 1.004627e+01
0	 7.925926e+00	 6.666667e+00	 1.005151e+01
0	 7.925926e+00	 6.740741e+00	 1.005004e+01
0	 7.925926e+00	 6.814815e+00	 1.004855e+01
0	 7.925926e+00	 6.888889e+00	 1.004705e+01
0	 7.925926e+00	 6.962963e+00	 1.004554e+01
0	 7.925926e+00	 7.037037e+00	 1.004400e+01
0	 8.000000e+00	 6.666667e+00	 1.004875e+01
0	 8.000000e+00	 6.740741e+00	 1.004738e+01
0	 8.000000e+00	 6.814815e+00	 1.004600e+01
0	 8.000000e+00	 6.888889e+00	 1.004460e+01
0	 8.000000e+00	 6.962963e+00	 1.004319e+01
0	 8.000000e+00	 7.037037e+00	 1.004175e+01
0	 8.074074e+00	 6.666667e+00	 1.004602e+01
0	 8.074074e+00	 6.740741e+00	 1.004476e+01
0	 8.074074e+00	 6.814815e+00	 1.004348e+01
0	 8.074074e+00	 6.888889e+00	 1.004218e+01
0	 8.074074e+00	 6.962963e+00	 1.004086e+01
0	 8.074074e+00	 7.037037e+00	 1.003953e+01
0	 8.148148e+00	 6.666667e+00	 1.004333e+01
0	 8.148148e+00	 6.740741e+00	 1.004217e+01
0	 8.148148e+00	 6.814815e+00	 1.004099e+01
0	 8.148148e+00	 6.888889e+00	 1.003979e+01
0	 8.148148e+00	 6.962963e+00	 1.003857e+01
0	 8.148148e+00	 7.037037e+00	 1.003733e+01
0	 7.777778e+00	 7.037037e+00	 1.004856e+01
0	 7.777778e+00	 7.111111e+00	 1.004681e+01
0	 7.777778e+00	 7.185185e+00	 1.004507e+01
0	 7.777778e+00	 7.259259e+00	 1.004333e+01
0	 7.777778e+00	 7.333333e+00	 1.004159e+01
0	 7.777778e+00	 7.407407e+00	 1.003985e+01
0	 7.851852e+00	 7.037037e+00	 1.004627e+01
0	 7.851852e+00	 7.111111e+00	 1.004463e+01
0	 7.851852e+00	 7.185185e+00	 1.004298e+01
0	 7.851852e+00	 7.259259e+00	 1.004134e+01
0	 7.851852e+00	 7.333333e+00	 1.003969e+01
0	 7.851852e+00	 7.407407e+00	 1.003804e+01
0	 7.925926e+00	 7.037037e+00	 1.004400e+01
0	 7.925926e+00	 7.111111e+00	 1.004245e+01
0	 7.925926e+00	 7.185185e+00	 1.004091e+01
0	 7.925926e+00	 7.259259e+00	 1.003936e+01
0	 7.925926e+00	 7.333333e+00	 1.003781e+01
0	 7.925926e+00	 7.407407e+00	 1.003624e+01
0	 8.000000e+00	 7.037037e+00	 1.004175e+01
0	 8.000000e+00	 7.111111e+00	 1.004030e+01
0	 8.000000e+00	 7.185185e+00	 1.003885e+01
0	 8.000000e+00	 7.259259e+00	 1.003740e+01
0	 8.000000e+00	 7.333333e+00	 1.003593e+01
0	 8.000000e+00	 7.407407e+00	 1.003446e+01
0	 8.074074e+00	 7.037037e+00	 1.003953e+01
0	 8.074074e+00	 7.111111e+00	 1.003817e+01
0	 8.074074e+00	 7.185185e+00	 1.003682e+01
0	 8.074074e+00	 7.259259e+00	 1.003545e+01
0	 8.074074e+00	 7.333333e+00	 1.003408e+01
0	 8.074074e+00	 7.407407e+00	 1.003270e+01
0	 8.148148e+00	 7.037037e+00	 1.003733e+01
0	 8.148148e+00	 7.111111e+00	 1.003607e+01
0	 8.148148e+00	 7.185185e+00	 1.003481e+01
0	 8.148148e+00	 7.259259e+00	 1.003354e+01
0	 8.148148e+00	 7.333333e+00	 1.003226e+01
0	 8.148148e+00	 7.407407e+00	 1.003096e+01
0	 7.777778e+00	 7.407407e+00	 1.003985e+01
0	 7.777778e+00	 7.481481e+00	 1.003811e+01
0	 7.777778e+00	 7.555556e+00	 1.003639e+01
0	 7.777778e+00	 7.629630e+00	 1.003468e+01
0	 7.777778e+00	 7.703704e+00	 1.003298e+01
0	 7.777778e+00	 7.777778e+00	 1.003128e+01
0	 7.851852e+00	 7.407407e+00	 1.003804e+01
0	 7.851852e+00	 7.481481e+00	 1.003639e+01
0	 7.851852e+00	 7.555556e+00	 1.003476e+01
0	 7.851852e+00	 7.629630e+00	 1.003313e+01
0	 7.851852e+00	 7.703704e+00	 1.003152e+01
0	 7.851852e+00	 7.777778e+00	 1.002991e+01
0	 7.925926e+00	 7.407407e+00	 1.003624e+01
0	 7.925926e+00	 7.481481e+00	 1.003469e+01
0	 7.925926e+00	 7.555556e+00	 1.003314e+01
0	 7.925926e+00	 7.629630e+00	 1.003160e+01
0	 7.925926e+00	 7.703704e+00	 1.003007e+01
0	 7.925926e+00	 7.777778e+00	 1.002854e+01
0	 8.000000e+00	 7.407407e+00	 1.003446e+01
0	 8.000000e+00	 7.481481e+00	 1.003299e+01
0	 8.000000e+00	 7.555556e+00	 1.003153e+01
0	 8.000000e+00	 7.629630e+00	 1.003007e+01
0	 8.000000e+00	 7.703704e+00	 1.002862e+01
0	 8.000000e+00	 7.777778e+00	 1.002718e+01
0	 8.074074e+00	 7.407407e+00	 1.003270e+01
0	 8.074074e+00	 7.481481e+00	 1.003132e+01
0	 8.074074e+00	 7.555556e+00	 1.002994e+01
0	 8.074074e+00	 7.629630e+00	 1.002857e+01
0	 8.074074e+00	 7.703704e+00	 1.002720e+01
0	 8.074074e+00	 7.777778e+00	 1.002583e+01
0	 8.148148e+00	 7.407407e+00	 1.003096e+01
0	 8.148148e+00	 7.481481e+00	 1.002966e+01
0	 8.148148e+00	 7.555556e+00	 1.002837e+01
0	 8.148148e+00	 7.629630e+00	 1.002708e+01
0	 8.148148e+00	 7.703704e+00	 1.002579e+01
0	 8.148148e+00	 7.777778e+00	 1.002450e+01
0	 7.777778e+00	 7.777778e+00	 1.003128e+01
0	 7.777778e+00	 7.851852e+00	 1.002961e+01
0	 7.777778e+00	 7.925926e+00	 1.002796e+01
0	 7.777778e+00	 8.000000e+00	 1.002634e+01
0	 7.777778e+00	 8.074074e+00	 1.002474e+01
0	 7.777778e+00	 8.148148e+00	 1.002316e+01
0	 7.851852e+00	 7.777778e+00	 1.002991e+01
0	 7.851852e+00	 7.851852e+00	 1.002831e+01
0	 7.851852e+00	 7.925926e+00	 1.002674e+01
0	 7.851852e+00	 8.000000e+00	 1.002520e+01
0	 7.851852e+00	 8.074074e+00	 1.002367e+01
0	 7.851852e+00	 8.148148e+00	 1.002216e+01
0	 7.925926e+00	 7.777778e+00	 1.002854e+01
0	 7.925926e+00	 7.851852e+00	 1.002702e+01
0	 7.925926e+00	 7.925926e+00	 1.002553e+01
0	 7.925926e+00	 8.000000e+00	 1.002406e+01
0	 7.925926e+00	 8.074074e+00	 1.002260e+01
0	 7.925926e+00	 8.148148e+00	 1.002117e+01
0	 8.000000e+00	 7.777778e+00	 1.002718e+01
0	 8.000000e+00	 7.851852e+00	 1.002574e+01
0	 8.000000e+00	 7.925926e+00	 1.002432e+01
0	 8.000000e+00	 8.000000e+00	 1.002293e+01
0	 8.000000e+00	 8.074074e+00	 1.002155e+01
0	 8.000000e+00	 8.148148e+00	 1.002018e+01
0	 8.074074e+00	 7.777778e+00	 1.002583e+01
0	 8.074074e+00	 7.851852e+00	 1.002447e+01
0	 8.074074e+00	 7.925926e+00	 1.002313e+01
0	 8.074074e+00	 8.000000e+00	 1.002181e+01
0	 8.074074e+00	 8.074074e+00	 1.002050e+01
0	 8.074074e+00	 8.148148e+00	 1.001920e+01
0	 8.148148e+00	 7.777778e+00	 1.002450e+01
0	 8.148148e+00	 7.851852e+00	 1.002322e+01
0	 8.148148e+00	 7.925926e+00	 1.002195e+01
0	 8.148148e+00	 8.000000e+00	 1.002070e+01
0	 8.148148e+00	 8.074074e+00	 1.001946e+01
0	 8.148148e+00	 8.148148e+00	 1.001823e+01
0	 7.777778e+00	 8.148148e+00	 1.002316e+01
0	 7.777778e+00	 8.222222e+00	 1.002160e+01
0	 7.777778e+00	 8.296296e+00	 1.002009e+01
0	 7.777778e+00	 8.370370e+00	 1.001862e+01
0	 7.777778e+00	 8.444444e+00	 1.001717e+01
0	 7.777778e+00	 8.518519e+00	 1.001576e+01
0	 7.851852e+00	 8.148148e+00	 1.002216e+01
0	 7.851852e+00	 8.222222e+00	 1.002068e+01
0	 7.851852e+00	 8.296296e+00	 1.001923e+01
0	 7.851852e+00	 8.370370e+00	 1.001782e+01
0	 7.851852e+00	 8.444444e+00	 1.001644e+01
0	 7.851852e+00	 8.518519e+00	 1.001509e+01
0	 7.925926e+00	 8.148148e+00	 1.002117e+01
0	 7.925926e+00	 8.222222e+00	 1.001975e+01
0	 7.925926e+00	 8.296296e+00	 1.001838e+01
0	 7.925926e+00	 8.370370e+00	 1.001703e+01
0	 7.925926e+00	 8.444444e+00	 1.001571e+01
0	 7.925926e+00	 8.518519e+00	 1.001443e+01
0	 8.000000e+00	 8.148148e+00	 1.002018e+01
0	 8.000000e+00	 8.222222e+00	 1.001884e+01
0	 8.000000e+00	 8.296296e+00	 1.001752e+01
0	 8.000000e+00	 8.370370e+00	 1.001624e+01
0	 8.000000e+00	 8.444444e+00	 1.001499e+01
0	 8.000000e+00	 8.518519e+00	 1.001376e+01
0	 8.074074e+00	 8.148148e+00	 1.001920e+01
0	 8.074074e+00	 8.222222e+00	 1.001793e+01
0	 8.074074e+00	 8.296296e+00	 1.001668e+01
0	 8.074074e+00	 8.370370e+00	 1.001546e+01
0	 8.074074e+00	 8.444444e+00	 1.001427e+01
0	 8.074074e+00	 8.518519e+00	 1.001310e+01
0	 8.148148e+00	 8.148148e+00	 1.001823e+01
0	 8.148148e+00	 8.222222e+00	 1.001703e+01
0	 8.148148e+00	 8.296296e+00	 1.001585e+01
0	 8.148148e+00	 8.370370e+00	 1.001469e+01
0	 8.148148e+00	 8.444444e+00	 1.001356e+01
0	 8.148148e+00	 8.518519e+00	 1.001245e+01
0	 7.777778e+00	 8.518519e+00	 1.001576e+01
0	 7.777778e+00	 8.592593e+00	 1.001439e+01
0	 7.777778e+00	 8.666667e+00	 1.001307e+01
0	 7.777778e+00	 8.740741e+00	 1.001181e+01
0	 7.777778e+00	 8.814815e+00	 1.001059e+01
0	 7.777778e+00	 8.888889e+00	 1.000941e+01
0	 7.851852e+00	 8.518519e+00	 1.001509e+01
0	 7.851852e+00	 8.592593e+00	 1.001378e+01
0	 7.851852e+00	 8.666667e+00	 1.001252e+01
0	 7.851852e+00	 8.740741e+00	 1.001131e+01
0	 7.851852e+00	 8.814815e+00	 1.001014e+01
0	 7.851852e+00	 8.888889e+00	 1.000901e+01
0	 7.925926e+00	 8.518519e+00	 1.001443e+01
0	 7.925926e+00	 8.592593e+00	 1.001317e+01
0	 7.925926e+00	 8.666667e+00	 1.001197e+01
0	 7.925926e+00	 8.740741e+00	 1.001081e+01
0	 7.925926e+00	 8.814815e+00	 1.000969e+01
0	 7.925926e+00	 8.888889e+00	 1.000862e+01
0	 8.000000e+00	 8.518519e+00	 1.001376e+01
0	 8.000000e+00	 8.592593e+00	 1.001257e+01
0	 8.000000e+00	 8.666667e+00	 1.001142e+01
0	 8.000000e+00	 8.740741e+00	 1.001032e+01
0	 8.000000e+00	 8.814815e+00	 1.000925e+01
0	 8.000000e+00	 8.888889e+00	 1.000822e+01
0	 8.074074e+00	 8.518519e+00	 1.001310e+01
0	 8.074074e+00	 8.592593e+00	 1.001197e+01
0	 8.074074e+00	 8.666667e+00	 1.001088e+01
0	 8.074074e+00	 8.740741e+00	 1.000983e+01
0	 8.074074e+00	 8.814815e+00	 1.000881e+01
0	 8.074074e+00	 8.888889e+00	 1.000783e+01
0	 8.148148e+00	 8.518519e+00	 1.001245e+01
0	 8.148148e+00	 8.592593e+00	 1.001138e+01
0	 8.148148e+00	 8.666667e+00	 1.001034e+01
0	 8.148148e+00	 8.740741e+00	 1.000934e+01
0	 8.148148e+00	 8.814815e+00	 1.000838e+01
0	 8.148148e+00	 8.888889e+00	 1.000745e+01
0	 7.777778e+00	 8.888889e+00	 1.000941e+01
0	 7.777778e+00	 8.962963e+00	 1.000829e+01
0	 7.777778e+00	 9.037037e+00	 1.000723e+01
0	 7.777778e+00	 9.111111e+00	 1.000624e+01
0	 7.777778e+00	 9.185185e+00	 1.000530e+01
0	 7.777778e+00	 9.259259e+00	 1.000443e+01
0	 7.851852e+00	 8.888889e+00	 1.000901e+01
0	 7.851852e+00	 8.962963e+00	 1.000794e+01
0	 7.851852e+00	 9.037037e+00	 1.000693e+01
0	 7.851852e+00	 9.111111e+00	 1.000597e+01
0	 7.851852e+00	 9.185185e+00	 1.000508e+01
0	 7.851852e+00	 9.259259e+00	 1.000424e+01
0	 7.925926e+00	 8.888889e+00	 1.000862e+01
0	 7.925926e+00	 8.962963e+00	 1.000759e+01
0	 7.925926e+00	 9.037037e+00	 1.000662e+01
0	 7.925926e+00	 9.111111e+00	 1.000571e+01
0	 7.925926e+00	 9.185185e+00	 1.000486e+01
0	 7.925926e+00	 9.259259e+00	 1.000405e+01
0	 8.000000e+00	 8.888889e+00	 1.000822e+01
0	 8.000000e+00	 8.962963e+00	 1.000724e+01
0	 8.000000e+00	 9.037037e+00	 1.000632e+01
0	 8.000000e+00	 9.111111e+00	 1.000545e+01
0	 8.000000e+00	 9.185185e+00	 1.000463e+01
0	 8.000000e+00	 9.259259e+00	 1.000387e+01
0	 8.074074e+00	 8.888889e+00	 1.000783e+01
0	 8.074074e+00	 8.962963e+00	 1.000690e+01
0	 8.074074e+00	 9.037037e+00	 1.000602e+01
0	 8.074074e+00	 9.111111e+00	 1.000519e+01
0	 8.074074e+00	 9.185185e+00	 1.000441e+01
0	 8.074074e+00	 9.259259e+00	 1.000368e+01
0	 8.148148e+00	 8.888889e+00	 1.000745e+01
0	 8.148148e+00	 8.962963e+00	 1.000656e+01
0	 8.148148e+00	 9.037037e+00	 1.000572e+01
0	 8.148148e+00	 9.111111e+00	 1.000494e+01
0	 8.148148e+00	 9.185185e+00	 1.000420e+01
0	 8.148148e+00	 9.259259e+00	 1.000350e+01
0	 7.777778e+00	 9.259259e+00	 1.000443e+01
0	 7.777778e+00	 9.333333e+00	 1.000362e+01
0	 7.777778e+00	 9.407407e+00	 1.000289e+01
0	 7.777778e+00	 9.481481e+00	 1.000224e+01
0	 7.777778e+00	 9.555556e+00	 1.000167e+01
0	 7.777778e+00	 9.629630e+00	 1.000117e+01
0	 7.851852e+00	 9.259259e+00	 1.000424e+01
0	 7.851852e+00	 9.333333e+00	 1.000347e+01
0	 7.851852e+00	 9.407407e+00	 1.000277e+01
0	 7.851852e+00	 9.481481e+00	 1.000215e+01
0	 7.851852e+00	 9.555556e+00	 1.000160e+01
0	 7.851852e+00	 9.629630e+00	 1.000112e+01
0	 7.925926e+00	 9.259259e+00	 1.000405e+01
0	 7.925926e+00	 9.333333e+00	 1.000331e+01
0	 7.925926e+00	 9.407407e+00	 1.000265e+01
0	 7.925926e+00	 9.481481e+00	 1.000206e+01
0	 7.925926e+00	 9.555556e+00	 1.000153e+01
0	 7.925926e+00	 9.629630e+00	 1.000107e+01
0	 8.000000e+00	 9.259259e+00	 1.000387e+01
0	 8.000000e+00	 9.333333e+00	 1.000316e+01
0	 8.000000e+00	 9.407407e+00	 1.000253e+01
0	 8.000000e+00	 9.481481e+00	 1.000196e+01
0	 8.000000e+00	 9.555556e+00	 1.000146e+01
0	 8.000000e+00	 9.629630e+00	 1.000102e+01
0	 8.074074e+00	 9.259259e+00	 1.000368e+01
0	 8.074074e+00	 9.333333e+00	 1.000301e+01
0	 8.074074e+00	 9.407407e+00	 1.000241e+01
0	 8.074074e+00	 9.481481e+00	 1.000187e+01
0	 8.074074e+00	 9.555556e+00	 1.000139e+01
0	 8.074074e+00	 9.629630e+00	 1.000097e+01
0	 8.148148e+00	 9.259259e+00	 1.000350e+01
0	 8.148148e+00	 9.333333e+00	 1.000286e+01
0	 8.148148e+00	 9.407407e+00	 1.000229e+01
0	 8.148148e+00	 9.481481e+00	 1.000178e+01
0	 8.148148e+00	 9.555556e+00	 1.000132e+01
0	 8.148148e+00	 9.629630e+00	 1.000092e+01
0	 7.777778e+00	 9.629630e+00	 1.000117e+01
0	 7.777778e+00	 9.703704e+00	 1.000075e+01
0	 7.777778e+00	 9.777778e+00	 1.000043e+01
0	 7.777778e+00	 9.851852e+00	 1.000020e+01
0	 7.777778e+00	 9.925926e+00	 1.000005e+01
0	 7.777778e+00	 1.000000e+01	 9.999992e+00
0	 7.851852e+00	 9.629630e+00	 1.000112e+01
0	 7.851852e+00	 9.703704e+00	 1.000072e+01
0	 7.851852e+00	 9.777778e+00	 1.000041e+01
0	 7.851852e+00	 9.851852e+00	 1.000019e+01
0	 7.851852e+00	 9.925926e+00	 1.000005e+01
0	 7.851852e+00	 1.000000e+01	 9.999995e+00
0	 7.925926e+00	 9.629630e+00	 1.000107e+01
0	 7.925926e+00	 9.703704e+00	 1.000069e+01
0	 7.925926e+00	 9.777778e+00	 1.000039e+01
0	 7.925926e+00	 9.851852e+00	 1.000018e+01
0	 7.925926e+00	 9.925926e+00	 1.000005e+01
0	 7.925926e+00	 1.000000e+01	 9.999995e+00
0	 8.000000e+00	 9.629630e+00	 1.000102e+01
0	 8.000000e+00	 9.703704e+00	 1.000065e+01
0	 8.000000e+00	 9.777778e+00	 1.000037e+01
0	 8.000000e+00	 9.851852e+00	 1.000017e+01
0	 8.000000e+00	 9.925926e+00	 1.000004e+01
0	 8.000000e+00	 1.000000e+01	 9.999993e+00
0	 8.074074e+00	 9.629630e+00	 1.000097e+01
0	 8.074074e+00	 9.703704e+00	 1.000062e+01
0	 8.074074e+00	 9.777778e+00	 1.000035e+01
0	 8.074074e+00	 9.851852e+00	 1.000016e+01
0	 8.074074e+00	 9.925926e+00	 1.000004e+01
0	 8.074074e+00	 1.000000e+01	 9.999992e+00
0	 8.148148e+00	 9.629630e+00	 1.000092e+01
0	 8.148148e+00	 9.703704e+00	 1.000059e+01
0	 8.148148e+00	 9.777778e+00	 1.000034e+01
0	 8.148148e+00	 9.851852e+00	 1.000015e+01
0	 8.148148e+00	 9.925926e+00	 1.000004e+01
0	 8.148148e+00	 1.000000e+01	 9.999994e+00
0	 8.148148e+00	 0.000000e+00	 9.953540e+00
0	 8.148148e+00	 7.407407e-02	 9.953608e+00
0	 8.148148e+00	 1.481481e-01	 9.953812e+00
0	 8.148148e+00	 2.222222e-01	 9.954152e+00
0	 8.148148e+00	 2.962963e-01	 9.954629e+00
0	 8.148148e+00	 3.703704e-01	 9.955244e+00
0	 8.222222e+00	 0.000000e+00	 9.944295e+00
0	 8.222222e+00	 7.407407e-02	 9.944363e+00
0	 8.222222e+00	 1.481481e-01	 9.944566e+00
0	 8.222222e+00	 2.222222e-01	 9.944904e+00
0	 8.222222e+00	 2.962963e-01	 9.945380e+00
0	 8.222222e+00	 3.703704e-01	 9.945994e+00
0	 8.296296e+00	 0.000000e+00	 9.934910e+00
0	 8.296296e+00	 7.407407e-02	 9.934978e+00
0	 8.296296e+00	 1.481481e-01	 9.935181e+00
0	 8.296296e+00	 2.222222e-01	 9.935520e+00
0	 8.296296e+00	 2.962963e-01	 9.935996e+00
0	 8.296296e+00	 3.703704e-01	 9.936610e+00
0	 8.370370e+00	 0.000000e+00	 9.925373e+00
0	 8.370370e+00	 7.407407e-02	 9.925442e+00
0	 8.370370e+00	 1.481481e-01	 9.925646e+00
0	 8.370370e+00	 2.222222e-01	 9.925986e+00
0	 8.370370e+00	 2.962963e-01	 9.926464e+00
0	 8.370370e+00	 3.703704e-01	 9.927080e+00
0	 8.444444e+00	 0.000000e+00	 9.915671e+00
0	 8.444444e+00	 7.407407e-02	 9.915741e+00
0	 8.444444e+00	 1.481481e-01	 9.915947e+00
0	 8.444444e+00	 2.222222e-01	 9.916290e+00
0	 8.444444e+00	 2.962963e-01	 9.916771e+00
0	 8.444444e+00	 3.703704e-01	 9.917390e+00
0	 8.518519e+00	 0.000000e+00	 9.905791e+00
0	 8.518519e+00	 7.407407e-02	 9.905862e+00
0	 8.518519e+00	 1.481481e-01	 9.906070e+00
0	 8.518519e+00	 2.222222e-01	 9.906417e+00
0	 8.518519e+00	 2.962963e-01	 9.906902e+00
0	 8.518519e+00	 3.703704e-01	 9.907528e+00
0	 8.148148e+00	 3.703704e-01	 9.955244e+00
0	 8.148148e+00	 4.444444e-01	 9.955989e+00
0	 8.148148e+00	 5.185185e-01	 9.956856e+00
0	 8.148148e+00	 5.925926e-01	 9.957848e+00
0	 8.148148e+00	 6.666667e-01	 9.958968e+00
0	 8.148148e+00	 7.407407e-01	 9.960217e+00
0	 8.222222e+00	 3.703704e-01	 9.945994e+00
0	 8.222222e+00	 4.444444e-01	 9.946737e+00
0	 8.222222e+00	 5.185185e-01	 9.947602e+00
0	 8.222222e+00	 5.925926e-01	 9.948593e+00
0	 8.222222e+00	 6.666667e-01	 9.949711e+00
0	 8.222222e+00	 7.407407e-01	 9.950958e+00
0	 8.296296e+00	 3.703704e-01	 9.936610e+00
0	 8.296296e+00	 4.444444e-01	 9.937354e+00
0	 8.296296e+00	 5.185185e-01	 9.938220e+00
0	 8.296296e+00	 5.925926e-01	 9.939212e+00
0	 8.296296e+00	 6.666667e-01	 9.940331e+00
0	 8.296296e+00	 7.407407e-01	 9.941580e+00
0	 8.370370e+00	 3.703704e-01	 9.927080e+00
0	 8.370370e+00	 4.444444e-01	 9.927826e+00
0	 8.370370e+00	 5.185185e-01	 9.928696e+00
0	 8.370370e+00	 5.925926e-01	 9.929692e+00
0	 8.370370e+00	 6.666667e-01	 9.930816e+00
0	 8.370370e+00	 7.407407e-01	 9.932071e+00
0	 8.444444e+00	 3.703704e-01	 9.917390e+00
0	 8.444444e+00	 4.444444e-01	 9.918141e+00
0	 8.444444e+00	 5.185185e-01	 9.919017e+00
0	 8.444444e+00	 5.925926e-01	 9.920021e+00
0	 8.444444e+00	 6.666667e-01	 9.921153e+00
0	 8.444444e+00	 7.407407e-01	 9.922417e+00
0	 8.518519e+00	 3.703704e-01	 9.907528e+00
0	 8.518519e+00	 4.444444e-01	 9.908286e+00
0	 8.518519e+00	 5.185185e-01	 9.909171e+00
0	 8.518519e+00	 5.925926e-01	 9.910185e+00
0	 8.518519e+00	 6.666667e-01	 9.911329e+00
0	 8.518519e+00	 7.407407e-01	 9.912607e+00
0	 8.148148e+00	 7.407407e-01	 9.960217e+00
0	 8.148148e+00	 8.148148e-01	 9.961581e+00
0	 8.148148e+00	 8.888889e-01	 9.963043e+00
0	 8.148148e+00	 9.629630e-01	 9.964608e+00
0	 8.148148e+00	 1.037037e+00	 9.966281e+00
0	 8.148148e+00	 1.111111e+00	 9.968064e+00
0	 8.222222e+00	 7.407407e-01	 9.950958e+00
0	 8.222222e+00	 8.148148e-01	 9.952320e+00
0	 8.222222e+00	 8.888889e-01	 9.953782e+00
0	 8.222222e+00	 9.629630e-01	 9.955348e+00
0	 8.222222e+00	 1.037037e+00	 9.957021e+00
0	 8.222222e+00	 1.111111e+00	 9.958806e+00
0	 8.296296e+00	 7.407407e-01	 9.941580e+00
0	 8.296296e+00	 8.148148e-01	 9.942945e+00
0	 8.296296e+00	 8.888889e-01	 9.944410e+00
0	 8.296296e+00	 9.629630e-01	 9.945981e+00
0	 8.296296e+00	 1.037037e+00	 9.947661e+00
0	 8.296296e+00	 1.111111e+00	 9.949452e+00
0	 8.370370e+00	 7.407407e-01	 9.932071e+00
0	 8.370370e+00	 8.148148e-01	 9.933442e+00
0	 8.370370e+00	 8.888889e-01	 9.934916e+00
0	 8.370370e+00	 9.629630e-01	 9.936497e+00
0	 8.370370e+00	 1.037037e+00	 9.938187e+00
0	 8.370370e+00	 1.111111e+00	 9.939990e+00
0	 8.444444e+00	 7.407407e-01	 9.922417e+00
0	 8.444444e+00	 8.148148e-01	 9.923799e+00
0	 8.444444e+00	 8.888889e-01	 9.925286e+00
0	 8.444444e+00	 9.629630e-01	 9.926881e+00
0	 8.444444e+00	 1.037037e+00	 9.928587e+00
0	 8.444444e+00	 1.111111e+00	 9.930407e+00
0	 8.518519e+00	 7.407407e-01	 9.912607e+00
0	 8.518519e+00	 8.148148e-01	 9.914003e+00
0	 8.518519e+00	 8.888889e-01	 9.915507e+00
0	 8.518519e+00	 9.629630e-01	 9.917122e+00
0	 8.518519e+00	 1.037037e+00	 9.918849e+00
0	 8.518519e+00	 1.111111e+00	 9.920692e+00
0	 8.148148e+00	 1.111111e+00	 9.968064e+00
0	 8.148148e+00	 1.185185e+00	 9.969937e+00
0	 8.148148e+00	 1.259259e+00	 9.971880e+00
0	 8.148148e+00	 1.333333e+00	 9.973898e+00
0	 8.148148e+00	 1.407407e+00	 9.975995e+00
0	 8.148148e+00	 1.481481e+00	 9.978176e+00
0	 8.222222e+00	 1.111111e+00	 9.958806e+00
0	 8.222222e+00	 1.185185e+00	 9.960682e+00
0	 8.222222e+00	 1.259259e+00	 9.962630e+00
0	 8.222222e+00	 1.333333e+00	 9.964654e+00
0	 8.222222e+00	 1.407407e+00	 9.966759e+00
0	 8.222222e+00	 1.481481e+00	 9.968950e+00
0	 8.296296e+00	 1.111111e+00	 9.949452e+00
0	 8.296296e+00	 1.185185e+00	 9.951336e+00
0	 8.296296e+00	 1.259259e+00	 9.953294e+00
0	 8.296296e+00	 1.333333e+00	 9.955331e+00
0	 8.296296e+00	 1.407407e+00	 9.957450e+00
0	 8.296296e+00	 1.481481e+00	 9.959656e+00
0	 8.370370e+00	 1.111111e+00	 9.939990e+00
0	 8.370370e+00	 1.185185e+00	 9.941887e+00
0	 8.370370e+00	 1.259259e+00	 9.943862e+00
0	 8.370370e+00	 1.333333e+00	 9.945916e+00
0	 8.370370e+00	 1.407407e+00	 9.948055e+00
0	 8.370370e+00	 1.481481e+00	 9.950283e+00
0	 8.444444e+00	 1.111111e+00	 9.930407e+00
0	 8.444444e+00	 1.185185e+00	 9.932324e+00
0	 8.444444e+00	 1.259259e+00	 9.934320e+00
0	 8.444444e+00	 1.333333e+00	 9.936398e+00
0	 8.444444e+00	 1.407407e+00	 9.938564e+00
0	 8.444444e+00	 1.481481e+00	 9.940819e+00
0	 8.518519e+00	 1.111111e+00	 9.920692e+00
0	 8.518519e+00	 1.185185e+00	 9.922633e+00
0	 8.518519e+00	 1.259259e+00	 9.924657e+00
0	 8.518519e+00	 1.333333e+00	 9.926766e+00
0	 8.518519e+00	 1.407407e+00	 9.928963e+00
0	 8.518519e+00	 1.481481e+00	 9.931253e+00
0	 8.148148e+00	 1.481481e+00	 9.978176e+00
0	 8.148148e+00	 1.555556e+00	 9.980418e+00
0	 8.148148e+00	 1.629630e+00	 9.982697e+00
0	 8.148148e+00	 1.703704e+00	 9.985019e+00
0	 8.148148e+00	 1.777778e+00	 9.987388e+00
0	 8.148148e+00	 1.851852e+00	 9.989809e+00
0	 8.222222e+00	 1.481481e+00	 9.968950e+00
0	 8.222222e+00	 1.555556e+00	 9.971203e+00
0	 8.222222e+00	 1.629630e+00	 9.973497e+00
0	 8.222222e+00	 1.703704e+00	 9.975835e+00
0	 8.222222e+00	 1.777778e+00	 9.978224e+00
0	 8.222222e+00	 1.851852e+00	 9.980667e+00
0	 8.296296e+00	 1.481481e+00	 9.959656e+00
0	 8.296296e+00	 1.555556e+00	 9.961927e+00
0	 8.296296e+00	 1.629630e+00	 9.964241e+00
0	 8.296296e+00	 1.703704e+00	 9.966603e+00
0	 8.296296e+00	 1.777778e+00	 9.969017e+00
0	 8.296296e+00	 1.851852e+00	 9.971488e+00
0	 8.370370e+00	 1.481481e+00	 9.950283e+00
0	 8.370370e+00	 1.555556e+00	 9.952578e+00
0	 8.370370e+00	 1.629630e+00	 9.954919e+00
0	 8.370370e+00	 1.703704e+00	 9.957310e+00
0	 8.370370e+00	 1.777778e+00	 9.959757e+00
0	 8.370370e+00	 1.851852e+00	 9.962262e+00
0	 8.444444e+00	 1.481481e+00	 9.940819e+00
0	 8.444444e+00	 1.555556e+00	 9.943144e+00
0	 8.444444e+00	 1.629630e+00	 9.945519e+00
0	 8.444444e+00	 1.703704e+00	 9.947947e+00
0	 8.444444e+00	 1.777778e+00	 9.950432e+00
0	 8.444444e+00	 1.851852e+00	 9.952979e+00
0	 8.518519e+00	 1.481481e+00	 9.931253e+00
0	 8.518519e+00	 1.555556e+00	 9.933615e+00
0	 8.518519e+00	 1.629630e+00	 9.936030e+00
0	 8.518519e+00	 1.703704e+00	 9.938501e+00
0	 8.518519e+00	 1.777778e+00	 9.941033e+00
0	 8.518519e+00	 1.851852e+00	 9.943628e+00
0	 8.148148e+00	 1.851852e+00	 9.989809e+00
0	 8.148148e+00	 1.925926e+00	 9.992260e+00
0	 8.148148e+00	 2.000000e+00	 9.994715e+00
0	 8.148148e+00	 2.074074e+00	 9.997179e+00
0	 8.148148e+00	 2.148148e+00	 9.999659e+00
0	 8.148148e+00	 2.222222e+00	 1.000216e+01
0	 8.222222e+00	 1.851852e+00	 9.980667e+00
0	 8.222222e+00	 1.925926e+00	 9.983142e+00
0	 8.222222e+00	 2.000000e+00	 9.985625e+00
0	 8.222222e+00	 2.074074e+00	 9.988122e+00
0	 8.222222e+00	 2.148148e+00	 9.990636e+00
0	 8.222222e+00	 2.222222e+00	 9.993173e+00
0	 8.296296e+00	 1.851852e+00	 9.971488e+00
0	 8.296296e+00	 1.925926e+00	 9.973994e+00
0	 8.296296e+00	 2.000000e+00	 9.976512e+00
0	 8.296296e+00	 2.074074e+00	 9.979046e+00
0	 8.296296e+00	 2.148148e+00	 9.981601e+00
0	 8.296296e+00	 2.222222e+00	 9.984182e+00
0	 8.370370e+00	 1.851852e+00	 9.962262e+00
0	 8.370370e+00	 1.925926e+00	 9.964805e+00
0	 8.370370e+00	 2.000000e+00	 9.967364e+00
0	 8.370370e+00	 2.074074e+00	 9.969943e+00
0	 8.370370e+00	 2.148148e+00	 9.972545e+00
0	 8.370370e+00	 2.222222e+00	 9.975176e+00
0	 8.444444e+00	 1.851852e+00	 9.952979e+00
0	 8.444444e+00	 1.925926e+00	 9.955566e+00
0	 8.444444e+00	 2.000000e+00	 9.958173e+00
0	 8.444444e+00	 2.074074e+00	 9.960803e+00
0	 8.444444e+00	 2.148148e+00	 9.963459e+00
0	 8.444444e+00	 2.222222e+00	 9.966147e+00
0	 8.518519e+00	 1.851852e+00	 9.943628e+00
0	 8.518519e+00	 1.925926e+00	 9.946267e+00
0	 8.518519e+00	 2.000000e+00	 9.948928e+00
0	 8.518519e+00	 2.074074e+00	 9.951616e+00
0	 8.518519e+00	 2.148148e+00	 9.954334e+00
0	 8.518519e+00	 2.222222e+00	 9.957086e+00
0	 8.148148e+00	 2.222222e+00	 1.000216e+01
0	 8.148148e+00	 2.296296e+00	 1.000466e+01
0	 8.148148e+00	 2.370370e+00	 1.000713e+01
0	 8.148148e+00	 2.444444e+00	 1.000958e+01
0	 8.148148e+00	 2.518519e+00	 1.001201e+01
0	 8.148148e+00	 2.592593e+00	 1.001444e+01
0	 8.222222e+00	 2.222222e+00	 9.993173e+00
0	 8.222222e+00	 2.296296e+00	 9.995711e+00
0	 8.222222e+00	 2.370370e+00	 9.998228e+00
0	 8.222222e+00	 2.444444e+00	 1.000073e+01
0	 8.222222e+00	 2.518519e+00	 1.000322e+01
0	 8.222222e+00	 2.592593e+00	 1.000570e+01
0	 8.296296e+00	 2.222222e+00	 9.984182e+00
0	 8.296296e+00	 2.296296e+00	 9.986767e+00
0	 8.296296e+00	 2.370370e+00	 9.989335e+00
0	 8.296296e+00	 2.444444e+00	 9.991890e+00
0	 8.296296e+00	 2.518519e+00	 9.994437e+00
0	 8.296296e+00	 2.592593e+00	 9.996978e+00
0	 8.370370e+00	 2.222222e+00	 9.975176e+00
0	 8.370370e+00	 2.296296e+00	 9.977814e+00
0	 8.370370e+00	 2.370370e+00	 9.980440e+00
0	 8.370370e+00	 2.444444e+00	 9.983055e+00
0	 8.370370e+00	 2.518519e+00	 9.985666e+00
0	 8.370370e+00	 2.592593e+00	 9.988274e+00
0	 8.444444e+00	 2.222222e+00	 9.966147e+00
0	 8.444444e+00	 2.296296e+00	 9.968845e+00
0	 8.444444e+00	 2.370370e+00	 9.971534e+00
0	 8.444444e+00	 2.444444e+00	 9.974217e+00
0	 8.444444e+00	 2.518519e+00	 9.976898e+00
0	 8.444444e+00	 2.592593e+00	 9.979579e+00
0	 8.518519e+00	 2.222222e+00	 9.957086e+00
0	 8.518519e+00	 2.296296e+00	 9.959851e+00
0	 8.518519e+00	 2.370370e+00	 9.962611e+00
0	 8.518519e+00	 2.444444e+00	 9.965368e+00
0	 8.518519e+00	 2.518519e+00	 9.968125e+00
0	 8.518519e+00	 2.592593e+00	 9.970887e+00
0	 8.148148e+00	 2.592593e+00	 1.001444e+01
0	 8.148148e+00	 2.666667e+00	 1.001683e+01
0	 8.148148e+00	 2.740741e+00	 1.001918e+01
0	 8.148148e+00	 2.814815e+00	 1.002148e+01
0	 8.148148e+00	 2.888889e+00	 1.002373e+01
0	 8.148148e+00	 2.962963e+00	 1.002595e+01
0	 8.222222e+00	 2.592593e+00	 1.000570e+01
0	 8.222222e+00	 2.666667e+00	 1.000815e+01
0	 8.222222e+00	 2.740741e+00	 1.001056e+01
0	 8.222222e+00	 2.814815e+00	 1.001293e+01
0	 8.222222e+00	 2.888889e+00	 1.001525e+01
0	 8.222222e+00	 2.962963e+00	 1.001755e+01
0	 8.296296e+00	 2.592593e+00	 9.996978e+00
0	 8.296296e+00	 2.666667e+00	 9.999496e+00
0	 8.296296e+00	 2.740741e+00	 1.000197e+01
0	 8.296296e+00	 2.814815e+00	 1.000441e+01
0	 8.296296e+00	 2.888889e+00	 1.000682e+01
0	 8.296296e+00	 2.962963e+00	 1.000919e+01
0	 8.370370e+00	 2.592593e+00	 9.988274e+00
0	 8.370370e+00	 2.666667e+00	 9.990863e+00
0	 8.370370e+00	 2.740741e+00	 9.993414e+00
0	 8.370370e+00	 2.814815e+00	 9.995930e+00
0	 8.370370e+00	 2.888889e+00	 9.998415e+00
0	 8.370370e+00	 2.962963e+00	 1.000087e+01
0	 8.444444e+00	 2.592593e+00	 9.979579e+00
0	 8.444444e+00	 2.666667e+00	 9.982245e+00
0	 8.444444e+00	 2.740741e+00	 9.984876e+00
0	 8.444444e+00	 2.814815e+00	 9.987475e+00
0	 8.444444e+00	 2.888889e+00	 9.990046e+00
0	 8.444444e+00	 2.962963e+00	 9.992591e+00
0	 8.518519e+00	 2.592593e+00	 9.970887e+00
0	 8.518519e+00	 2.666667e+00	 9.973636e+00
0	 8.518519e+00	 2.740741e+00	 9.976353e+00
0	 8.518519e+00	 2.814815e+00	 9.979042e+00
0	 8.518519e+00	 2.888889e+00	 9.981705e+00
0	 8.518519e+00	 2.962963e+00	 9.984346e+00
0	 8.148148e+00	 2.962963e+00	 1.002595e+01
0	 8.148148e+00	 3.037037e+00	 1.002812e+01
0	 8.148148e+00	 3.111111e+00	 1.003021e+01
0	 8.148148e+00	 3.185185e+00	 1.003224e+01
0	 8.148148e+00	 3.259259e+00	 1.003421e+01
0	 8.148148e+00	 3.333333e+00	 1.003612e+01
0	 8.222222e+00	 2.962963e+00	 1.001755e+01
0	 8.222222e+00	 3.037037e+00	 1.001979e+01
0	 8.222222e+00	 3.111111e+00	 1.002197e+01
0	 8.222222e+00	 3.185185e+00	 1.002409e+01
0	 8.222222e+00	 3.259259e+00	 1.002614e+01
0	 8.222222e+00	 3.333333e+00	 1.002815e+01
0	 8.296296e+00	 2.962963e+00	 1.000919e+01
0	 8.296296e+00	 3.037037e+00	 1.001151e+01
0	 8.296296e+00	 3.111111e+00	 1.001378e+01
0	 8.296296e+00	 3.185185e+00	 1.001599e+01
0	 8.296296e+00	 3.259259e+00	 1.001814e+01
0	 8.296296e+00	 3.333333e+00	 1.002023e+01
0	 8.370370e+00	 2.962963e+00	 1.000087e+01
0	 8.370370e+00	 3.037037e+00	 1.000328e+01
0	 8.370370e+00	 3.111111e+00	 1.000564e+01
0	 8.370370e+00	 3.185185e+00	 1.000794e+01
0	 8.370370e+00	 3.259259e+00	 1.001019e+01
0	 8.370370e+00	 3.333333e+00	 1.001238e+01
0	 8.444444e+00	 2.962963e+00	 9.992591e+00
0	 8.444444e+00	 3.037037e+00	 9.995097e+00
0	 8.444444e+00	 3.111111e+00	 9.997548e+00
0	 8.444444e+00	 3.185185e+00	 9.999947e+00
0	 8.444444e+00	 3.259259e+00	 1.000230e+01
0	 8.444444e+00	 3.333333e+00	 1.000460e+01
0	 8.518519e+00	 2.962963e+00	 9.984346e+00
0	 8.518519e+00	 3.037037e+00	 9.986949e+00
0	 8.518519e+00	 3.111111e+00	 9.989501e+00
0	 8.518519e+00	 3.185185e+00	 9.992003e+00
0	 8.518519e+00	 3.259259e+00	 9.994458e+00
0	 8.518519e+00	 3.333333e+00	 9.996867e+00
0	 8.148148e+00	 3.333333e+00	 1.003612e+01
0	 8.148148e+00	 3.407407e+00	 1.003796e+01
0	 8.148148e+00	 3.481481e+00	 1.003972e+01
0	 8.148148e+00	 3.555556e+00	 1.004141e+01
0	 8.148148e+00	 3.629630e+00	 1.004301e+01
0	 8.148148e+00	 3.703704e+00	 1.004454e+01
0	 8.222222e+00	 3.333333e+00	 1.002815e+01
0	 8.222222e+00	 3.407407e+00	 1.003008e+01
0	 8.222222e+00	 3.481481e+00	 1.003194e+01
0	 8.222222e+00	 3.555556e+00	 1.003373e+01
0	 8.222222e+00	 3.629630e+00	 1.003544e+01
0	 8.222222e+00	 3.703704e+00	 1.003707e+01
0	 8.296296e+00	 3.333333e+00	 1.002023e+01
0	 8.296296e+00	 3.407407e+00	 1.002227e+01
0	 8.296296e+00	 3.481481e+00	 1.002423e+01
0	 8.296296e+00	 3.555556e+00	 1.002612e+01
0	 8.296296e+00	 3.629630e+00	 1.002793e+01
0	 8.296296e+00	 3.703704e+00	 1.002968e+01
0	 8.370370e+00	 3.333333e+00	 1.001238e+01
0	 8.370370e+00	 3.407407e+00	 1.001452e+01
0	 8.370370e+00	 3.481481e+00	 1.001659e+01
0	 8.370370e+00	 3.555556e+00	 1.001858e+01
0	 8.370370e+00	 3.629630e+00	 1.002051e+01
0	 8.370370e+00	 3.703704e+00	 1.002237e+01
0	 8.444444e+00	 3.333333e+00	 1.000460e+01
0	 8.444444e+00	 3.407407e+00	 1.000684e+01
0	 8.444444e+00	 3.481481e+00	 1.000901e+01
0	 8.444444e+00	 3.555556e+00	 1.001112e+01
0	 8.444444e+00	 3.629630e+00	 1.001316e+01
0	 8.444444e+00	 3.703704e+00	 1.001513e+01
0	 8.518519e+00	 3.333333e+00	 9.996867e+00
0	 8.518519e+00	 3.407407e+00	 9.999220e+00
0	 8.518519e+00	 3.481481e+00	 1.000151e+01
0	 8.518519e+00	 3.555556e+00	 1.000373e+01
0	 8.518519e+00	 3.629630e+00	 1.000589e+01
0	 8.518519e+00	 3.703704e+00	 1.000798e+01
0	 8.148148e+00	 3.703704e+00	 1.004454e+01
0	 8.148148e+00	 3.777778e+00	 1.004599e+01
0	 8.148148e+00	 3.851852e+00	 1.004736e+01
0	 8.148148e+00	 3.925926e+00	 1.004864e+01
0	 8.148148e+00	 4.000000e+00	 1.004984e+01
0	 8.148148e+00	 4.074074e+00	 1.005095e+01
0	 8.222222e+00	 3.703704e+00	 1.003707e+01
0	 8.222222e+00	 3.777778e+00	 1.003863e+01
0	 8.222222e+00	 3.851852e+00	 1.004011e+01
0	 8.222222e+00	 3.925926e+00	 1.004151e+01
0	 8.222222e+00	 4.000000e+00	 1.004282e+01
0	 8.222222e+00	 4.074074e+00	 1.004406e+01
0	 8.296296e+00	 3.703704e+00	 1.002968e+01
0	 8.296296e+00	 3.777778e+00	 1.003136e+01
0	 8.296296e+00	 3.851852e+00	 1.003295e+01
0	 8.296296e+00	 3.925926e+00	 1.003446e+01
0	 8.296296e+00	 4.000000e+00	 1.003589e+01
0	 8.296296e+00	 4.074074e+00	 1.003724e+01
0	 8.370370e+00	 3.703704e+00	 1.002237e+01
0	 8.370370e+00	 3.777778e+00	 1.002416e+01
0	 8.370370e+00	 3.851852e+00	 1.002586e+01
0	 8.370370e+00	 3.925926e+00	 1.002749e+01
0	 8.370370e+00	 4.000000e+00	 1.002905e+01
0	 8.370370e+00	 4.074074e+00	 1.003052e+01
0	 8.444444e+00	 3.703704e+00	 1.001513e+01
0	 8.444444e+00	 3.777778e+00	 1.001704e+01
0	 8.444444e+00	 3.851852e+00	 1.001887e+01
0	 8.444444e+00	 3.925926e+00	 1.002062e+01
0	 8.444444e+00	 4.000000e+00	 1.002229e+01
0	 8.444444e+00	 4.074074e+00	 1.002389e+01
0	 8.518519e+00	 3.703704e+00	 1.000798e+01
0	 8.518519e+00	 3.777778e+00	 1.001000e+01
0	 8.518519e+00	 3.851852e+00	 1.001195e+01
0	 8.518519e+00	 3.925926e+00	 1.001383e+01
0	 8.518519e+00	 4.000000e+00	 1.001562e+01
0	 8.518519e+00	 4.074074e+00	 1.001735e+01
0	 8.148148e+00	 4.074074e+00	 1.005095e+01
0	 8.148148e+00	 4.148148e+00	 1.005198e+01
0	 8.148148e+00	 4.222222e+00	 1.005293e+01
0	 8.148148e+00	 4.296296e+00	 1.005379e+01
0	 8.148148e+00	 4.370370e+00	 1.005456e+01
0	 8.148148e+00	 4.444444e+00	 1.005525e+01
0	 8.222222e+00	 4.074074e+00	 1.004406e+01
0	 8.222222e+00	 4.148148e+00	 1.004521e+01
0	 8.222222e+00	 4.222222e+00	 1.004627e+01
0	 8.222222e+00	 4.296296e+00	 1.004726e+01
0	 8.222222e+00	 4.370370e+00	 1.004815e+01
0	 8.222222e+00	 4.444444e+00	 1.004897e+01
0	 8.296296e+00	 4.074074e+00	 1.003724e+01
0	 8.296296e+00	 4.148148e+00	 1.003852e+01
0	 8.296296e+00	 4.222222e+00	 1.003970e+01
0	 8.296296e+00	 4.296296e+00	 1.004081e+01
0	 8.296296e+00	 4.370370e+00	 1.004183e+01
0	 8.296296e+00	 4.444444e+00	 1.004277e+01
0	 8.370370e+00	 4.074074e+00	 1.003052e+01
0	 8.370370e+00	 4.148148e+00	 1.003191e+01
0	 8.370370e+00	 4.222222e+00	 1.003323e+01
0	 8.370370e+00	 4.296296e+00	 1.003446e+01
0	 8.370370e+00	 4.370370e+00	 1.003561e+01
0	 8.370370e+00	 4.444444e+00	 1.003667e+01
0	 8.444444e+00	 4.074074e+00	 1.002389e+01
0	 8.444444e+00	 4.148148e+00	 1.002541e+01
0	 8.444444e+00	 4.222222e+00	 1.002684e+01
0	 8.444444e+00	 4.296296e+00	 1.002820e+01
0	 8.444444e+00	 4.370370e+00	 1.002947e+01
0	 8.444444e+00	 4.444444e+00	 1.003067e+01
0	 8.518519e+00	 4.074074e+00	 1.001735e+01
0	 8.518519e+00	 4.148148e+00	 1.001899e+01
0	 8.518519e+00	 4.222222e+00	 1.002056e+01
0	 8.518519e+00	 4.296296e+00	 1.002204e+01
0	 8.518519e+00	 4.370370e+00	 1.002344e+01
0	 8.518519e+00	 4.444444e+00	 1.002477e+01
0	 8.148148e+00	 4.444444e+00	 1.005525e+01
0	 8.148148e+00	 4.518519e+00	 1.005585e+01
0	 8.148148e+00	 4.592593e+00	 1.005637e+01
0	 8.148148e+00	 4.666667e+00	 1.005681e+01
0	 8.148148e+00	 4.740741e+00	 1.005717e+01
0	 8.148148e+00	 4.814815e+00	 1.005744e+01
0	 8.222222e+00	 4.444444e+00	 1.004897e+01
0	 8.222222e+00	 4.518519e+00	 1.004970e+01
0	 8.222222e+00	 4.592593e+00	 1.005035e+01
0	 8.222222e+00	 4.666667e+00	 1.005091e+01
0	 8.222222e+00	 4.740741e+00	 1.005140e+01
0	 8.222222e+00	 4.814815e+00	 1.005180e+01
0	 8.296296e+00	 4.444444e+00	 1.004277e+01
0	 8.296296e+00	 4.518519e+00	 1.004363e+01
0	 8.296296e+00	 4.592593e+00	 1.004441e+01
0	 8.296296e+00	 4.666667e+00	 1.004510e+01
0	 8.296296e+00	 4.740741e+00	 1.004572e+01
0	 8.296296e+00	 4.814815e+00	 1.004625e+01
0	 8.370370e+00	 4.444444e+00	 1.003667e+01
0	 8.370370e+00	 4.518519e+00	 1.003766e+01
0	 8.370370e+00	 4.592593e+00	 1.003856e+01
0	 8.370370e+00	 4.666667e+00	 1.003938e+01
0	 8.370370e+00	 4.740741e+00	 1.004013e+01
0	 8.370370e+00	 4.814815e+00	 1.004079e+01
0	 8.444444e+00	 4.444444e+00	 1.003067e+01
0	 8.444444e+00	 4.518519e+00	 1.003178e+01
0	 8.444444e+00	 4.592593e+00	 1.003281e+01
0	 8.444444e+00	 4.666667e+00	 1.003376e+01
0	 8.444444e+00	 4.740741e+00	 1.003463e+01
0	 8.444444e+00	 4.814815e+00	 1.003542e+01
0	 8.518519e+00	 4.444444e+00	 1.002477e+01
0	 8.518519e+00	 4.518519e+00	 1.002601e+01
0	 8.518519e+00	 4.592593e+00	 1.002717e+01
0	 8.518519e+00	 4.666667e+00	 1.002825e+01
0	 8.518519e+00	 4.740741e+00	 1.002925e+01
0	 8.518519e+00	 4.814815e+00	 1.003016e+01
0	 8.148148e+00	 4.814815e+00	 1.005744e+01
0	 8.148148e+00	 4.888889e+00	 1.005764e+01
0	 8.148148e+00	 4.962963e+00	 1.005776e+01
0	 8.148148e+00	 5.037037e+00	 1.005780e+01
0	 8.148148e+00	 5.111111e+00	 1.005777e+01
0	 8.148148e+00	 5.185185e+00	 1.005766e+01
0	 8.222222e+00	 4.814815e+00	 1.005180e+01
0	 8.222222e+00	 4.888889e+00	 1.005213e+01
0	 8.222222e+00	 4.962963e+00	 1.005238e+01
0	 8.222222e+00	 5.037037e+00	 1.005255e+01
0	 8.222222e+00	 5.111111e+00	 1.005265e+01
0	 8.222222e+00	 5.185185e+00	 1.005267e+01
0	 8.296296e+00	 4.814815e+00	 1.004625e+01
0	 8.296296e+00	 4.888889e+00	 1.004670e+01
0	 8.296296e+00	 4.962963e+00	 1.004708e+01
0	 8.296296e+00	 5.037037e+00	 1.004738e+01
0	 8.296296e+00	 5.111111e+00	 1.004761e+01
0	 8.296296e+00	 5.185185e+00	 1.004775e+01
0	 8.370370e+00	 4.814815e+00	 1.004079e+01
0	 8.370370e+00	 4.888889e+00	 1.004137e+01
0	 8.370370e+00	 4.962963e+00	 1.004187e+01
0	 8.370370e+00	 5.037037e+00	 1.004230e+01
0	 8.370370e+00	 5.111111e+00	 1.004265e+01
0	 8.370370e+00	 5.185185e+00	 1.004293e+01
0	 8.444444e+00	 4.814815e+00	 1.003542e+01
0	 8.444444e+00	 4.888889e+00	 1.003613e+01
0	 8.444444e+00	 4.962963e+00	 1.003676e+01
0	 8.444444e+00	 5.037037e+00	 1.003732e+01
0	 8.444444e+00	 5.111111e+00	 1.003779e+01
0	 8.444444e+00	 5.185185e+00	 1.003819e+01
0	 8.518519e+00	 4.814815e+00	 1.003016e+01
0	 8.518519e+00	 4.888889e+00	 1.003100e+01
0	 8.518519e+00	 4.962963e+00	 1.003176e+01
0	 8.518519e+00	 5.037037e+00	 1.003244e+01
0	 8.518519e+00	 5.111111e+00	 1.003304e+01
0	 8.518519e+00	 5.185185e+00	 1.003356e+01
0	 8.148148e+00	 5.185185e+00	 1.005766e+01
0	 8.148148e+00	 5.259259e+00	 1.005748e+01
0	 8.148148e+00	 5.333333e+00	 1.005723e+01
0	 8.148148e+00	 5.407407e+00	 1.005692e+01
0	 8.148148e+00	 5.481481e+00	 1.005655e+01
0	 8.148148e+00	 5.555556e+00	 1.005610e+01
0	 8.222222e+00	 5.185185e+00	 1.005267e+01
0	 8.222222e+00	 5.259259e+00	 1.005261e+01
0	 8.222222e+00	 5.333333e+00	 1.005250e+01
0	 8.222222e+00	 5.407407e+00	 1.005231e+01
0	 8.222222e+00	 5.481481e+00	 1.005206e+01
0	 8.222222e+00	 5.555556e+00	 1.005174e+01
0	 8.296296e+00	 5.185185e+00	 1.004775e+01
0	 8.296296e+00	 5.259259e+00	 1.004783e+01
0	 8.296296e+00	 5.333333e+00	 1.004784e+01
0	 8.296296e+00	 5.407407e+00	 1.004778e+01
0	 8.296296e+00	 5.481481e+00	 1.004765e+01
0	 8.296296e+00	 5.555556e+00	 1.004745e+01
0	 8.370370e+00	 5.185185e+00	 1.004293e+01
0	 8.370370e+00	 5.259259e+00	 1.004313e+01
0	 8.370370e+00	 5.333333e+00	 1.004326e+01
0	 8.370370e+00	 5.407407e+00	 1.004332e+01
0	 8.370370e+00	 5.481481e+00	 1.004332e+01
0	 8.370370e+00	 5.555556e+00	 1.004324e+01
0	 8.444444e+00	 5.185185e+00	 1.003819e+01
0	 8.444444e+00	 5.259259e+00	 1.003852e+01
0	 8.444444e+00	 5.333333e+00	 1.003877e+01
0	 8.444444e+00	 5.407407e+00	 1.003896e+01
0	 8.444444e+00	 5.481481e+00	 1.003908e+01
0	 8.444444e+00	 5.555556e+00	 1.003912e+01
0	 8.518519e+00	 5.185185e+00	 1.003356e+01
0	 8.518519e+00	 5.259259e+00	 1.003401e+01
0	 8.518519e+00	 5.333333e+00	 1.003439e+01
0	 8.518519e+00	 5.407407e+00	 1.003470e+01
0	 8.518519e+00	 5.481481e+00	 1.003493e+01
0	 8.518519e+00	 5.555556e+00	 1.003509e+01
0	 8.148148e+00	 5.555556e+00	 1.005610e+01
0	 8.148148e+00	 5.629630e+00	 1.005559e+01
0	 8.148148e+00	 5.703704e+00	 1.005503e+01
0	 8.148148e+00	 5.777778e+00	 1.005441e+01
0	 8.148148e+00	 5.851852e+00	 1.005374e+01
0	 8.148148e+00	 5.925926e+00	 1.005300e+01
0	 8.222222e+00	 5.555556e+00	 1.005174e+01
0	 8.222222e+00	 5.629630e+00	 1.005135e+01
0	 8.222222e+00	 5.703704e+00	 1.005091e+01
0	 8.222222e+00	 5.777778e+00	 1.005042e+01
0	 8.222222e+00	 5.851852e+00	 1.004986e+01
0	 8.222222e+00	 5.925926e+00	 1.004925e+01
0	 8.296296e+00	 5.555556e+00	 1.004745e+01
0	 8.296296e+00	 5.629630e+00	 1.004719e+01
0	 8.296296e+00	 5.703704e+00	 1.004687e+01
0	 8.296296e+00	 5.777778e+00	 1.004649e+01
0	 8.296296e+00	 5.851852e+00	 1.004605e+01
0	 8.296296e+00	 5.925926e+00	 1.004556e+01
0	 8.370370e+00	 5.555556e+00	 1.004324e+01
0	 8.370370e+00	 5.629630e+00	 1.004310e+01
0	 8.370370e+00	 5.703704e+00	 1.004290e+01
0	 8.370370e+00	 5.777778e+00	 1.004264e+01
0	 8.370370e+00	 5.851852e+00	 1.004232e+01
0	 8.370370e+00	 5.925926e+00	 1.004194e+01
0	 8.444444e+00	 5.555556e+00	 1.003912e+01
0	 8.444444e+00	 5.629630e+00	 1.003909e+01
0	 8.444444e+00	 5.703704e+00	 1.003901e+01
0	 8.444444e+00	 5.777778e+00	 1.003887e+01
0	 8.444444e+00	 5.851852e+00	 1.003866e+01
0	 8.444444e+00	 5.925926e+00	 1.003839e+01
0	 8.518519e+00	 5.555556e+00	 1.003509e+01
0	 8.518519e+00	 5.629630e+00	 1.003519e+01
0	 8.518519e+00	 5.703704e+00	 1.003522e+01
0	 8.518519e+00	 5.777778e+00	 1.003519e+01
0	 8.518519e+00	 5.851852e+00	 1.003510e+01
0	 8.518519e+00	 5.925926e+00	 1.003494e+01
0	 8.148148e+00	 5.925926e+00	 1.005300e+01
0	 8.148148e+00	 6.000000e+00	 1.005222e+01
0	 8.148148e+00	 6.074074e+00	 1.005139e+01
0	 8.148148e+00	 6.148148e+00	 1.005052e+01
0	 8.148148e+00	 6.222222e+00	 1.004961e+01
0	 8.148148e+00	 6.296296e+00	 1.004865e+01
0	 8.222222e+00	 5.925926e+00	 1.004925e+01
0	 8.222222e+00	 6.000000e+00	 1.004858e+01
0	 8.222222e+00	 6.074074e+00	 1.004787e+01
0	 8.222222e+00	 6.148148e+00	 1.004712e+01
0	 8.222222e+00	 6.222222e+00	 1.004632e+01
0	 8.222222e+00	 6.296296e+00	 1.004547e+01
0	 8.296296e+00	 5.925926e+00	 1.004556e+01
0	 8.296296e+00	 6.000000e+00	 1.004501e+01
0	 8.296296e+00	 6.074074e+00	 1.004441e+01
0	 8.296296e+00	 6.148148e+00	 1.004377e+01
0	 8.296296e+00	 6.222222e+00	 1.004308e+01
0	 8.296296e+00	 6.296296e+00	 1.004234e+01
0	 8.370370e+00	 5.925926e+00	 1.004194e+01
0	 8.370370e+00	 6.000000e+00	 1.004150e+01
0	 8.370370e+00	 6.074074e+00	 1.004102e+01
0	 8.370370e+00	 6.148148e+00	 1.004048e+01
0	 8.370370e+00	 6.222222e+00	 1.003990e+01
0	 8.370370e+00	 6.296296e+00	 1.003927e+01
0	 8.444444e+00	 5.925926e+00	 1.003839e+01
0	 8.444444e+00	 6.000000e+00	 1.003807e+01
0	 8.444444e+00	 6.074074e+00	 1.003770e+01
0	 8.444444e+00	 6.148148e+00	 1.003727e+01
0	 8.444444e+00	 6.222222e+00	 1.003680e+01
0	 8.444444e+00	 6.296296e+00	 1.003627e+01
0	 8.518519e+00	 5.925926e+00	 1.003494e+01
0	 8.518519e+00	 6.000000e+00	 1.003472e+01
0	 8.518519e+00	 6.074074e+00	 1.003446e+01
0	 8.518519e+00	 6.148148e+00	 1.003414e+01
0	 8.518519e+00	 6.222222e+00	 1.003377e+01
0	 8.518519e+00	 6.296296e+00	 1.003334e+01
0	 8.148148e+00	 6.296296e+00	 1.004865e+01
0	 8.148148e+00	 6.370370e+00	 1.004765e+01
0	 8.148148e+00	 6.444444e+00	 1.004662e+01
0	 8.148148e+00	 6.518519e+00	 1.004555e+01
0	 8.148148e+00	 6.592593e+00	 1.004446e+01
0	 8.148148e+00	 6.666667e+00	 1.004333e+01
0	 8.222222e+00	 6.296296e+00	 1.004547e+01
0	 8.222222e+00	 6.370370e+00	 1.004457e+01
0	 8.222222e+00	 6.444444e+00	 1.004365e+01
0	 8.222222e+00	 6.518519e+00	 1.004270e+01
0	 8.222222e+00	 6.592593e+00	 1.004170e+01
0	 8.222222e+00	 6.666667e+00	 1.004068e+01
0	 8.296296e+00	 6.296296e+00	 1.004234e+01
0	 8.296296e+00	 6.370370e+00	 1.004155e+01
0	 8.296296e+00	 6.444444e+00	 1.004074e+01
0	 8.296296e+00	 6.518519e+00	 1.003989e+01
0	 8.296296e+00	 6.592593e+00	 1.003900e+01
0	 8.296296e+00	 6.666667e+00	 1.003807e+01
0	 8.370370e+00	 6.296296e+00	 1.003927e+01
0	 8.370370e+00	 6.370370e+00	 1.003859e+01
0	 8.370370e+00	 6.444444e+00	 1.003788e+01
0	 8.370370e+00	 6.518519e+00	 1.003713e+01
0	 8.370370e+00	 6.592593e+00	 1.003634e+01
0	 8.370370e+00	 6.666667e+00	 1.003551e+01
0	 8.444444e+00	 6.296296e+00	 1.003627e+01
0	 8.444444e+00	 6.370370e+00	 1.003569e+01
0	 8.444444e+00	 6.444444e+00	 1.003508e+01
0	 8.444444e+00	 6.518519e+00	 1.003443e+01
0	 8.444444e+00	 6.592593e+00	 1.003374e+01
0	 8.444444e+00	 6.666667e+00	 1.003301e+01
0	 8.518519e+00	 6.296296e+00	 1.003334e+01
0	 8.518519e+00	 6.370370e+00	 1.003286e+01
0	 8.518519e+00	 6.444444e+00	 1.003235e+01
0	 8.518519e+00	 6.518519e+00	 1.003180e+01
0	 8.518519e+00	 6.592593e+00	 1.003120e+01
0	 8.518519e+00	 6.666667e+00	 1.003057e+01
0	 8.148148e+00	 6.666667e+00	 1.004333e+01
0	 8.148148e+00	 6.740741e+00	 1.004217e+01
0	 8.148148e+00	 6.814815e+00	 1.004099e+01
0	 8.148148e+00	 6.888889e+00	 1.003979e+01
0	 8.148148e+00	 6.962963e+00	 1.003857e+01
0	 8.148148e+00	 7.037037e+00	 1.003733e+01
0	 8.222222e+00	 6.666667e+00	 1.004068e+01
0	 8.222222e+00	 6.740741e+00	 1.003962e+01
0	 8.222222e+00	 6.814815e+00	 1.003854e+01
0	 8.222222e+00	 6.888889e+00	 1.003744e+01
0	 8.222222e+00	 6.962963e+00	 1.003632e+01
0	 8.222222e+00	 7.037037e+00	 1.003517e+01
0	 8.296296e+00	 6.666667e+00	 1.003807e+01
0	 8.296296e+00	 6.740741e+00	 1.003711e+01
0	 8.296296e+00	 6.814815e+00	 1.003613e+01
0	 8.296296e+00	 6.888889e+00	 1.003513e+01
0	 8.296296e+00	 6.962963e+00	 1.003410e+01
0	 8.296296e+00	 7.037037e+00	 1.003304e+01
0	 8.370370e+00	 6.666667e+00	 1.003551e+01
0	 8.370370e+00	 6.740741e+00	 1.003465e+01
0	 8.370370e+00	 6.814815e+00	 1.003377e+01
0	 8.370370e+00	 6.888889e+00	 1.003286e+01
0	 8.370370e+00	 6.962963e+00	 1.003192e+01
0	 8.370370e+00	 7.037037e+00	 1.003095e+01
0	 8.444444e+00	 6.666667e+00	 1.003301e+01
0	 8.444444e+00	 6.740741e+00	 1.003224e+01
0	 8.444444e+00	 6.814815e+00	 1.003145e+01
0	 8.444444e+00	 6.888889e+00	 1.003063e+01
0	 8.444444e+00	 6.962963e+00	 1.002978e+01
0	 8.444444e+00	 7.037037e+00	 1.002891e+01
0	 8.518519e+00	 6.666667e+00	 1.003057e+01
0	 8.518519e+00	 6.740741e+00	 1.002989e+01
0	 8.518519e+00	 6.814815e+00	 1.002919e+01
0	 8.518519e+00	 6.888889e+00	 1.002846e+01
0	 8.518519e+00	 6.962963e+00	 1.002770e+01
0	 8.518519e+00	 7.037037e+00	 1.002691e+01
0	 8.148148e+00	 7.037037e+00	 1.003733e+01
0	 8.148148e+00	 7.111111e+00	 1.003607e+01
0	 8.148148e+00	 7.185185e+00	 1.003481e+01
0	 8.148148e+00	 7.259259e+00	 1.003354e+01
0	 8.148148e+00	 7.333333e+00	 1.003226e+01
0	 8.148148e+00	 7.407407e+00	 1.003096e+01
0	 8.222222e+00	 7.037037e+00	 1.003517e+01
0	 8.222222e+00	 7.111111e+00	 1.003401e+01
0	 8.222222e+00	 7.185185e+00	 1.003283e+01
0	 8.222222e+00	 7.259259e+00	 1.003165e+01
0	 8.222222e+00	 7.333333e+00	 1.003045e+01
0	 8.222222e+00	 7.407407e+00	 1.002925e+01
0	 8.296296e+00	 7.037037e+00	 1.003304e+01
0	 8.296296e+00	 7.111111e+00	 1.003197e+01
0	 8.296296e+00	 7.185185e+00	 1.003089e+01
0	 8.296296e+00	 7.259259e+00	 1.002979e+01
0	 8.296296e+00	 7.333333e+00	 1.002868e+01
0	 8.296296e+00	 7.407407e+00	 1.002755e+01
0	 8.370370e+00	 7.037037e+00	 1.003095e+01
0	 8.370370e+00	 7.111111e+00	 1.002997e+01
0	 8.370370e+00	 7.185185e+00	 1.002897e+01
0	 8.370370e+00	 7.259259e+00	 1.002796e+01
0	 8.370370e+00	 7.333333e+00	 1.002693e+01
0	 8.370370e+00	 7.407407e+00	 1.002589e+01
0	 8.444444e+00	 7.037037e+00	 1.002891e+01
0	 8.444444e+00	 7.111111e+00	 1.002801e+01
0	 8.444444e+00	 7.185185e+00	 1.002710e+01
0	 8.444444e+00	 7.259259e+00	 1.002617e+01
0	 8.444444e+00	 7.333333e+00	 1.002522e+01
0	 8.444444e+00	 7.407407e+00	 1.002426e+01
0	 8.518519e+00	 7.037037e+00	 1.002691e+01
0	 8.518519e+00	 7.111111e+00	 1.002609e+01
0	 8.518519e+00	 7.185185e+00	 1.002526e+01
0	 8.518519e+00	 7.259259e+00	 1.002441e+01
0	 8.518519e+00	 7.333333e+00	 1.002355e+01
0	 8.518519e+00	 7.407407e+00	 1.002266e+01
0	 8.148148e+00	 7.407407e+00	 1.003096e+01
0	 8.148148e+00	 7.481481e+00	 1.002966e+01
0	 8.148148e+00	 7.555556e+00	 1.002837e+01
0	 8.148148e+00	 7.629630e+00	 1.002708e+01
0	 8.148148e+00	 7.703704e+00	 1.002579e+01
0	 8.148148e+00	 7.777778e+00	 1.002450e+01
0	 8.222222e+00	 7.407407e+00	 1.002925e+01
0	 8.222222e+00	 7.481481e+00	 1.002803e+01
0	 8.222222e+00	 7.555556e+00	 1.002682e+01
0	 8.222222e+00	 7.629630e+00	 1.002561e+01
0	 8.222222e+00	 7.703704e+00	 1.002440e+01
0	 8.222222e+00	 7.777778e+00	 1.002319e+01
0	 8.296296e+00	 7.407407e+00	 1.002755e+01
0	 8.296296e+00	 7.481481e+00	 1.002642e+01
0	 8.296296e+00	 7.555556e+00	 1.002529e+01
0	 8.296296e+00	 7.629630e+00	 1.002416e+01
0	 8.296296e+00	 7.703704e+00	 1.002303e+01
0	 8.296296e+00	 7.777778e+00	 1.002189e+01
0	 8.370370e+00	 7.407407e+00	 1.002589e+01
0	 8.370370e+00	 7.481481e+00	 1.002484e+01
0	 8.370370e+00	 7.555556e+00	 1.002379e+01
0	 8.370370e+00	 7.629630e+00	 1.002273e+01
0	 8.370370e+00	 7.703704e+00	 1.002167e+01
0	 8.370370e+00	 7.777778e+00	 1.002061e+01
0	 8.444444e+00	 7.407407e+00	 1.002426e+01
0	 8.444444e+00	 7.481481e+00	 1.002329e+01
0	 8.444444e+00	 7.555556e+00	 1.002231e+01
0	 8.444444e+00	 7.629630e+00	 1.002133e+01
0	 8.444444e+00	 7.703704e+00	 1.002035e+01
0	 8.444444e+00	 7.777778e+00	 1.001935e+01
0	 8.518519e+00	 7.407407e+00	 1.002266e+01
0	 8.518519e+00	 7.481481e+00	 1.002176e+01
0	 8.518519e+00	 7.555556e+00	 1.002086e+01
0	 8.518519e+00	 7.629630e+00	 1.001996e+01
0	 8.518519e+00	 7.703704e+00	 1.001904e+01
0	 8.518519e+00	 7.777778e+00	 1.001812e+01
0	 8.148148e+00	 7.777778e+00	 1.002450e+01
0	 8.148148e+00	 7.851852e+00	 1.002322e+01
0	 8.148148e+00	 7.925926e+00	 1.002195e+01
0	 8.148148e+00	 8.000000e+00	 1.002070e+01
0	 8.148148e+00	 8.074074e+00	 1.001946e+01
0	 8.148148e+00	 8.148148e+00	 1.001823e+01
0	 8.222222e+00	 7.777778e+00	 1.002319e+01
0	 8.222222e+00	 7.851852e+00	 1.002198e+01
0	 8.222222e+00	 7.925926e+00	 1.002079e+01
0	 8.222222e+00	 8.000000e+00	 1.001961e+01
0	 8.222222e+00	 8.074074e+00	 1.001844e+01
0	 8.222222e+00	 8.148148e+00	 1.001728e+01
0	 8.296296e+00	 7.777778e+00	 1.002189e+01
0	 8.296296e+00	 7.851852e+00	 1.002076e+01
0	 8.296296e+00	 7.925926e+00	 1.001964e+01
0	 8.296296e+00	 8.000000e+00	 1.001853e+01
0	 8.296296e+00	 8.074074e+00	 1.001743e+01
0	 8.296296e+00	 8.148148e+00	 1.001633e+01
0	 8.370370e+00	 7.777778e+00	 1.002061e+01
0	 8.370370e+00	 7.851852e+00	 1.001955e+01
0	 8.370370e+00	 7.925926e+00	 1.001850e+01
0	 8.370370e+00	 8.000000e+00	 1.001746e+01
0	 8.370370e+00	 8.074074e+00	 1.001643e+01
0	 8.370370e+00	 8.148148e+00	 1.001540e+01
0	 8.444444e+00	 7.777778e+00	 1.001935e+01
0	 8.444444e+00	 7.851852e+00	 1.001836e+01
0	 8.444444e+00	 7.925926e+00	 1.001738e+01
0	 8.444444e+00	 8.000000e+00	 1.001641e+01
0	 8.444444e+00	 8.074074e+00	 1.001544e+01
0	 8.444444e+00	 8.148148e+00	 1.001448e+01
0	 8.518519e+00	 7.777778e+00	 1.001812e+01
0	 8.518519e+00	 7.851852e+00	 1.001720e+01
0	 8.518519e+00	 7.925926e+00	 1.001629e+01
0	 8.518519e+00	 8.000000e+00	 1.001538e+01
0	 8.518519e+00	 8.074074e+00	 1.001448e+01
0	 8.518519e+00	 8.148148e+00	 1.001358e+01
0	 8.148148e+00	 8.148148e+00	 1.001823e+01
0	 8.148148e+00	 8.222222e+00	 1.001703e+01
0	 8.148148e+00	 8.296296e+00	 1.001585e+01
0	 8.148148e+00	 8.370370e+00	 1.001469e+01
0	 8.148148e+00	 8.444444e+00	 1.001356e+01
0	 8.148148e+00	 8.518519e+00	 1.001245e+01
0	 8.222222e+00	 8.148148e+00	 1.001728e+01
0	 8.222222e+00	 8.222222e+00	 1.001614e+01
0	 8.222222e+00	 8.296296e+00	 1.001502e+01
0	 8.222222e+00	 8.370370e+00	 1.001393e+01
0	 8.222222e+00	 8.444444e+00	 1.001286e+01
0	 8.222222e+00	 8.518519e+00	 1.001181e+01
0	 8.296296e+00	 8.148148e+00	 1.001633e+01
0	 8.296296e+00	 8.222222e+00	 1.001526e+01
0	 8.296296e+00	 8.296296e+00	 1.001420e+01
0	 8.296296e+00	 8.370370e+00	 1.001317e+01
0	 8.296296e+00	 8.444444e+00	 1.001216e+01
0	 8.296296e+00	 8.518519e+00	 1.001117e+01
0	 8.370370e+00	 8.148148e+00	 1.001540e+01
0	 8.370370e+00	 8.222222e+00	 1.001439e+01
0	 8.370370e+00	 8.296296e+00	 1.001340e+01
0	 8.370370e+00	 8.370370e+00	 1.001243e+01
0	 8.370370e+00	 8.444444e+00	 1.001148e+01
0	 8.370370e+00	 8.518519e+00	 1.001054e+01
0	 8.444444e+00	 8.148148e+00	 1.001448e+01
0	 8.444444e+00	 8.222222e+00	 1.001353e+01
0	 8.444444e+00	 8.296296e+00	 1.001260e+01
0	 8.444444e+00	 8.370370e+00	 1.001169e+01
0	 8.444444e+00	 8.444444e+00	 1.001080e+01
0	 8.444444e+00	 8.518519e+00	 1.000992e+01
0	 8.518519e+00	 8.148148e+00	 1.001358e+01
0	 8.518519e+00	 8.222222e+00	 1.001269e+01
0	 8.518519e+00	 8.296296e+00	 1.001182e+01
0	 8.518519e+00	 8.370370e+00	 1.001096e+01
0	 8.518519e+00	 8.444444e+00	 1.001013e+01
0	 8.518519e+00	 8.518519e+00	 1.000930e+01
0	 8.148148e+00	 8.518519e+00	 1.001245e+01
0	 8.148148e+00	 8.592593e+00	 1.001138e+01
0	 8.148148e+00	 8.666667e+00	 1.001034e+01
0	 8.148148e+00	 8.740741e+00	 1.000934e+01
0	 8.148148e+00	 8.814815e+00	 1.000838e+01
0	 8.148148e+00	 8.888889e+00	 1.000745e+01
0	 8.222222e+00	 8.518519e+00	 1.001181e+01
0	 8.222222e+00	 8.592593e+00	 1.001079e+01
0	 8.222222e+00	 8.666667e+00	 1.000981e+01
0	 8.222222e+00	 8.740741e+00	 1.000886e+01
0	 8.222222e+00	 8.814815e+00	 1.000795e+01
0	 8.222222e+00	 8.888889e+00	 1.000706e+01
0	 8.296296e+00	 8.518519e+00	 1.001117e+01
0	 8.296296e+00	 8.592593e+00	 1.001021e+01
0	 8.296296e+00	 8.666667e+00	 1.000928e+01
0	 8.296296e+00	 8.740741e+00	 1.000838e+01
0	 8.296296e+00	 8.814815e+00	 1.000752e+01
0	 8.296296e+00	 8.888889e+00	 1.000668e+01
0	 8.370370e+00	 8.518519e+00	 1.001054e+01
0	 8.370370e+00	 8.592593e+00	 1.000963e+01
0	 8.370370e+00	 8.666667e+00	 1.000875e+01
0	 8.370370e+00	 8.740741e+00	 1.000791e+01
0	 8.370370e+00	 8.814815e+00	 1.000710e+01
0	 8.370370e+00	 8.888889e+00	 1.000631e+01
0	 8.444444e+00	 8.518519e+00	 1.000992e+01
0	 8.444444e+00	 8.592593e+00	 1.000906e+01
0	 8.444444e+00	 8.666667e+00	 1.000824e+01
0	 8.444444e+00	 8.740741e+00	 1.000744e+01
0	 8.444444e+00	 8.814815e+00	 1.000668e+01
0	 8.444444e+00	 8.888889e+00	 1.000593e+01
0	 8.518519e+00	 8.518519e+00	 1.000930e+01
0	 8.518519e+00	 8.592593e+00	 1.000850e+01
0	 8.518519e+00	 8.666667e+00	 1.000773e+01
0	 8.518519e+00	 8.740741e+00	 1.000698e+01
0	 8.518519e+00	 8.814815e+00	 1.000626e+01
0	 8.518519e+00	 8.888889e+00	 1.000556e+01
0	 8.148148e+00	 8.888889e+00	 1.000745e+01
0	 8.148148e+00	 8.962963e+00	 1.000656e+01
0	 8.148148e+00	 9.037037e+00	 1.000572e+01
0	 8.148148e+00	 9.111111e+00	 1.000494e+01
0	 8.148148e+00	 9.185185e+00	 1.000420e+01
0	 8.148148e+00	 9.259259e+00	 1.000350e+01
0	 8.222222e+00	 8.888889e+00	 1.000706e+01
0	 8.222222e+00	 8.962963e+00	 1.000622e+01
0	 8.222222e+00	 9.037037e+00	 1.000543e+01
0	 8.222222e+00	 9.111111e+00	 1.000468e+01
0	 8.222222e+00	 9.185185e+00	 1.000398e+01
0	 8.222222e+00	 9.259259e+00	 1.000333e+01
0	 8.296296e+00	 8.888889e+00	 1.000668e+01
0	 8.296296e+00	 8.962963e+00	 1.000589e+01
0	 8.296296e+00	 9.037037e+00	 1.000514e+01
0	 8.296296e+00	 9.111111e+00	 1.000443e+01
0	 8.296296e+00	 9.185185e+00	 1.000377e+01
0	 8.296296e+00	 9.259259e+00	 1.000315e+01
0	 8.370370e+00	 8.888889e+00	 1.000631e+01
0	 8.370370e+00	 8.962963e+00	 1.000555e+01
0	 8.370370e+00	 9.037037e+00	 1.000485e+01
0	 8.370370e+00	 9.111111e+00	 1.000418e+01
0	 8.370370e+00	 9.185185e+00	 1.000356e+01
0	 8.370370e+00	 9.259259e+00	 1.000297e+01
0	 8.444444e+00	 8.888889e+00	 1.000593e+01
0	 8.444444e+00	 8.962963e+00	 1.000522e+01
0	 8.444444e+00	 9.037037e+00	 1.000456e+01
0	 8.444444e+00	 9.111111e+00	 1.000393e+01
0	 8.444444e+00	 9.185185e+00	 1.000334e+01
0	 8.444444e+00	 9.259259e+00	 1.000279e+01
0	 8.518519e+00	 8.888889e+00	 1.000556e+01
0	 8.518519e+00	 8.962963e+00	 1.000490e+01
0	 8.518519e+00	 9.037037e+00	 1.000427e+01
0	 8.518519e+00	 9.111111e+00	 1.000369e+01
0	 8.518519e+00	 9.185185e+00	 1.000314e+01
0	 8.518519e+00	 9.259259e+00	 1.000262e+01
0	 8.148148e+00	 9.259259e+00	 1.000350e+01
0	 8.148148e+00	 9.333333e+00	 1.000286e+01
0	 8.148148e+00	 9.407407e+00	 1.000229e+01
0	 8.148148e+00	 9.481481e+00	 1.000178e+01
0	 8.148148e+00	 9.555556e+00	 1.000132e+01
0	 8.148148e+00	 9.629630e+00	 1.000092e+01
0	 8.222222e+00	 9.259259e+00	 1.000333e+01
0	 8.222222e+00	 9.333333e+00	 1.000272e+01
0	 8.222222e+00	 9.407407e+00	 1.000217e+01
0	 8.222222e+00	 9.481481e+00	 1.000169e+01
0	 8.222222e+00	 9.555556e+00	 1.000126e+01
0	 8.222222e+00	 9.629630e+00	 1.000088e+01
0	 8.296296e+00	 9.259259e+00	 1.000315e+01
0	 8.296296e+00	 9.333333e+00	 1.000257e+01
0	 8.296296e+00	 9.407407e+00	 1.000206e+01
0	 8.296296e+00	 9.481481e+00	 1.000160e+01
0	 8.296296e+00	 9.555556e+00	 1.000119e+01
0	 8.296296e+00	 9.629630e+00	 1.000083e+01
0	 8.370370e+00	 9.259259e+00	 1.000297e+01
0	 8.370370e+00	 9.333333e+00	 1.000243e+01
0	 8.370370e+00	 9.407407e+00	 1.000194e+01
0	 8.370370e+00	 9.481481e+00	 1.000150e+01
0	 8.370370e+00	 9.555556e+00	 1.000112e+01
0	 8.370370e+00	 9.629630e+00	 1.000078e+01
0	 8.444444e+00	 9.259259e+00	 1.000279e+01
0	 8.444444e+00	 9.333333e+00	 1.000228e+01
0	 8.444444e+00	 9.407407e+00	 1.000182e+01
0	 8.444444e+00	 9.481481e+00	 1.000141e+01
0	 8.444444e+00	 9.555556e+00	 1.000105e+01
0	 8.444444e+00	 9.629630e+00	 1.000074e+01
0	 8.518519e+00	 9.259259e+00	 1.000262e+01
0	 8.518519e+00	 9.333333e+00	 1.000214e+01
0	 8.518519e+00	 9.407407e+00	 1.000171e+01
0	 8.518519e+00	 9.481481e+00	 1.000133e+01
0	 8.518519e+00	 9.555556e+00	 1.000099e+01
0	 8.518519e+00	 9.629630e+00	 1.000069e+01
0	 8.148148e+00	 9.629630e+00	 1.000092e+01
0	 8.148148e+00	 9.703704e+00	 1.000059e+01
0	 8.148148e+00	 9.777778e+00	 1.000034e+01
0	 8.148148e+00	 9.851852e+00	 1.000015e+01
0	 8.148148e+00	 9.925926e+00	 1.000004e+01
0	 8.148148e+00	 1.000000e+01	 9.999994e+00
0	 8.222222e+00	 9.629630e+00	 1.000088e+01
0	 8.222222e+00	 9.703704e+00	 1.000056e+01
0	 8.222222e+00	 9.777778e+00	 1.000032e+01
0	 8.222222e+00	 9.851852e+00	 1.000015e+01
0	 8.222222e+00	 9.925926e+00	 1.000004e+01
0	 8.222222e+00	 1.000000e+01	 9.999996e+00
0	 8.296296e+00	 9.629630e+00	 1.000083e+01
0	 8.296296e+00	 9.703704e+00	 1.000053e+01
0	 8.296296e+00	 9.777778e+00	 1.000030e+01
0	 8.296296e+00	 9.851852e+00	 1.000014e+01
0	 8.296296e+00	 9.925926e+00	 1.000004e+01
0	 8.296296e+00	 1.000000e+01	 9.999995e+00
0	 8.370370e+00	 9.629630e+00	 1.000078e+01
0	 8.370370e+00	 9.703704e+00	 1.000050e+01
0	 8.370370e+00	 9.777778e+00	 1.000029e+01
0	 8.370370e+00	 9.851852e+00	 1.000013e+01
0	 8.370370e+00	 9.925926e+00	 1.000003e+01
0	 8.370370e+00	 1.000000e+01	 9.999993e+00
0	 8.444444e+00	 9.629630e+00	 1.000074e+01
0	 8.444444e+00	 9.703704e+00	 1.000047e+01
0	 8.444444e+00	 9.777778e+00	 1.000027e+01
0	 8.444444e+00	 9.851852e+00	 1.000012e+01
0	 8.444444e+00	 9.925926e+00	 1.000003e+01
0	 8.444444e+00	 1.000000e+01	 9.999992e+00
0	 8.518519e+00	 9.629630e+00	 1.000069e+01
0	 8.518519e+00	 9.703704e+00	 1.000044e+01
0	 8.518519e+00	 9.777778e+00	 1.000025e+01
0	 8.518519e+00	 9.851852e+00	 1.000012e+01
0	 8.518519e+00	 9.925926e+00	 1.000003e+01
0	 8.518519e+00	 1.000000e+01	 9.999995e+00
0	 8.518519e+00	 0.000000e+00	 9.905791e+00
0	 8.518519e+00	 7.407407e-02	 9.905862e+00
0	 8.518519e+00	 1.481481e-01	 9.906070e+00
0	 8.518519e+00	 2.222222e-01	 9.906417e+00
0	 8.518519e+00	 2.962963e-01	 9.906902e+00
0	 8.518519e+00	 3.703704e-01	 9.907528e+00
0	 8.592593e+00	 0.000000e+00	 9.895729e+00
0	 8.592593e+00	 7.407407e-02	 9.895801e+00
0	 8.592593e+00	 1.481481e-01	 9.896012e+00
0	 8.592593e+00	 2.222222e-01	 9.896363e+00
0	 8.592593e+00	 2.962963e-01	 9.896854e+00
0	 8.592593e+00	 3.703704e-01	 9.897487e+00
0	 8.666667e+00	 0.000000e+00	 9.885477e+00
0	 8.666667e+00	 7.407407e-02	 9.885549e+00
0	 8.666667e+00	 1.481481e-01	 9.885763e+00
0	 8.666667e+00	 2.222222e-01	 9.886120e+00
0	 8.666667e+00	 2.962963e-01	 9.886619e+00
0	 8.666667e+00	 3.703704e-01	 9.887262e+00
0	 8.740741e+00	 0.000000e+00	 9.875016e+00
0	 8.740741e+00	 7.407407e-02	 9.875090e+00
0	 8.740741e+00	 1.481481e-01	 9.875308e+00
0	 8.740741e+00	 2.222222e-01	 9.875671e+00
0	 8.740741e+00	 2.962963e-01	 9.876179e+00
0	 8.740741e+00	 3.703704e-01	 9.876834e+00
0	 8.814815e+00	 0.000000e+00	 9.864330e+00
0	 8.814815e+00	 7.407407e-02	 9.864405e+00
0	 8.814815e+00	 1.481481e-01	 9.864627e+00
0	 8.814815e+00	 2.222222e-01	 9.864998e+00
0	 8.814815e+00	 2.962963e-01	 9.865518e+00
0	 8.814815e+00	 3.703704e-01	 9.866187e+00
0	 8.888889e+00	 0.000000e+00	 9.853401e+00
0	 8.888889e+00	 7.407407e-02	 9.853477e+00
0	 8.888889e+00	 1.481481e-01	 9.853705e+00
0	 8.888889e+00	 2.222222e-01	 9.854085e+00
0	 8.888889e+00	 2.962963e-01	 9.854618e+00
0	 8.888889e+00	 3.703704e-01	 9.855304e+00
0	 8.518519e+00	 3.703704e-01	 9.907528e+00
0	 8.518519e+00	 4.444444e-01	 9.908286e+00
0	 8.518519e+00	 5.185185e-01	 9.909171e+00
0	 8.518519e+00	 5.925926e-01	 9.910185e+00
0	 8.518519e+00	 6.666667e-01	 9.911329e+00
0	 8.518519e+00	 7.407407e-01	 9.912607e+00
0	 8.592593e+00	 3.703704e-01	 9.897487e+00
0	 8.592593e+00	 4.444444e-01	 9.898255e+00
0	 8.592593e+00	 5.185185e-01	 9.899152e+00
0	 8.592593e+00	 5.925926e-01	 9.900180e+00
0	 8.592593e+00	 6.666667e-01	 9.901340e+00
0	 8.592593e+00	 7.407407e-01	 9.902634e+00
0	 8.666667e+00	 3.703704e-01	 9.887262e+00
0	 8.666667e+00	 4.444444e-01	 9.888042e+00
0	 8.666667e+00	 5.185185e-01	 9.888953e+00
0	 8.666667e+00	 5.925926e-01	 9.889998e+00
0	 8.666667e+00	 6.666667e-01	 9.891178e+00
0	 8.666667e+00	 7.407407e-01	 9.892493e+00
0	 8.740741e+00	 3.703704e-01	 9.876834e+00
0	 8.740741e+00	 4.444444e-01	 9.877629e+00
0	 8.740741e+00	 5.185185e-01	 9.878558e+00
0	 8.740741e+00	 5.925926e-01	 9.879623e+00
0	 8.740741e+00	 6.666667e-01	 9.880826e+00
0	 8.740741e+00	 7.407407e-01	 9.882168e+00
0	 8.814815e+00	 3.703704e-01	 9.866187e+00
0	 8.814815e+00	 4.444444e-01	 9.866999e+00
0	 8.814815e+00	 5.185185e-01	 9.867949e+00
0	 8.814815e+00	 5.925926e-01	 9.869039e+00
0	 8.814815e+00	 6.666667e-01	 9.870269e+00
0	 8.814815e+00	 7.407407e-01	 9.871641e+00
0	 8.888889e+00	 3.703704e-01	 9.855304e+00
0	 8.888889e+00	 4.444444e-01	 9.856136e+00
0	 8.888889e+00	 5.185185e-01	 9.857110e+00
0	 8.888889e+00	 5.925926e-01	 9.858228e+00
0	 8.888889e+00	 6.666667e-01	 9.859489e+00
0	 8.888889e+00	 7.407407e-01	 9.860896e+00
0	 8.518519e+00	 7.407407e-01	 9.912607e+00
0	 8.518519e+00	 8.148148e-01	 9.914003e+00
0	 8.518519e+00	 8.888889e-01	 9.915507e+00
0	 8.518519e+00	 9.629630e-01	 9.917122e+00
0	 8.518519e+00	 1.037037e+00	 9.918849e+00
0	 8.518519e+00	 1.111111e+00	 9.920692e+00
0	 8.592593e+00	 7.407407e-01	 9.902634e+00
0	 8.592593e+00	 8.148148e-01	 9.904050e+00
0	 8.592593e+00	 8.888889e-01	 9.905576e+00
0	 8.592593e+00	 9.629630e-01	 9.907215e+00
0	 8.592593e+00	 1.037037e+00	 9.908968e+00
0	 8.592593e+00	 1.111111e+00	 9.910840e+00
0	 8.666667e+00	 7.407407e-01	 9.892493e+00
0	 8.666667e+00	 8.148148e-01	 9.893933e+00
0	 8.666667e+00	 8.888889e-01	 9.895486e+00
0	 8.666667e+00	 9.629630e-01	 9.897154e+00
0	 8.666667e+00	 1.037037e+00	 9.898939e+00
0	 8.666667e+00	 1.111111e+00	 9.900845e+00
0	 8.740741e+00	 7.407407e-01	 9.882168e+00
0	 8.740741e+00	 8.148148e-01	 9.883636e+00
0	 8.740741e+00	 8.888889e-01	 9.885221e+00
0	 8.740741e+00	 9.629630e-01	 9.886923e+00
0	 8.740741e+00	 1.037037e+00	 9.888746e+00
0	 8.740741e+00	 1.111111e+00	 9.890692e+00
0	 8.814815e+00	 7.407407e-01	 9.871641e+00
0	 8.814815e+00	 8.148148e-01	 9.873143e+00
0	 8.814815e+00	 8.888889e-01	 9.874764e+00
0	 8.814815e+00	 9.629630e-01	 9.876508e+00
0	 8.814815e+00	 1.037037e+00	 9.878374e+00
0	 8.814815e+00	 1.111111e+00	 9.880367e+00
0	 8.888889e+00	 7.407407e-01	 9.860896e+00
0	 8.888889e+00	 8.148148e-01	 9.862437e+00
0	 8.888889e+00	 8.888889e-01	 9.864102e+00
0	 8.888889e+00	 9.629630e-01	 9.865891e+00
0	 8.888889e+00	 1.037037e+00	 9.867808e+00
0	 8.888889e+00	 1.111111e+00	 9.869854e+00
0	 8.518519e+00	 1.111111e+00	 9.920692e+00
0	 8.518519e+00	 1.185185e+00	 9.922633e+00
0	 8.518519e+00	 1.259259e+00	 9.924657e+00
0	 8.518519e+00	 1.333333e+00	 9.926766e+00
0	 8.518519e+00	 1.407407e+00	 9.928963e+00
0	 8.518519e+00	 1.481481e+00	 9.931253e+00
0	 8.592593e+00	 1.111111e+00	 9.910840e+00
0	 8.592593e+00	 1.185185e+00	 9.912812e+00
0	 8.592593e+00	 1.259259e+00	 9.914869e+00
0	 8.592593e+00	 1.333333e+00	 9.917014e+00
0	 8.592593e+00	 1.407407e+00	 9.919251e+00
0	 8.592593e+00	 1.481481e+00	 9.921582e+00
0	 8.666667e+00	 1.111111e+00	 9.900845e+00
0	 8.666667e+00	 1.185185e+00	 9.902854e+00
0	 8.666667e+00	 1.259259e+00	 9.904951e+00
0	 8.666667e+00	 1.333333e+00	 9.907139e+00
0	 8.666667e+00	 1.407407e+00	 9.909421e+00
0	 8.666667e+00	 1.481481e+00	 9.911801e+00
0	 8.740741e+00	 1.111111e+00	 9.890692e+00
0	 8.740741e+00	 1.185185e+00	 9.892745e+00
0	 8.740741e+00	 1.259259e+00	 9.894889e+00
0	 8.740741e+00	 1.333333e+00	 9.897127e+00
0	 8.740741e+00	 1.407407e+00	 9.899462e+00
0	 8.740741e+00	 1.481481e+00	 9.901897e+00
0	 8.814815e+00	 1.111111e+00	 9.880367e+00
0	 8.814815e+00	 1.185185e+00	 9.882470e+00
0	 8.814815e+00	 1.259259e+00	 9.884667e+00
0	 8.814815e+00	 1.333333e+00	 9.886963e+00
0	 8.814815e+00	 1.407407e+00	 9.889358e+00
0	 8.814815e+00	 1.481481e+00	 9.891857e+00
0	 8.888889e+00	 1.111111e+00	 9.869854e+00
0	 8.888889e+00	 1.185185e+00	 9.872014e+00
0	 8.888889e+00	 1.259259e+00	 9.874273e+00
0	 8.888889e+00	 1.333333e+00	 9.876633e+00
0	 8.888889e+00	 1.407407e+00	 9.879097e+00
0	 8.888889e+00	 1.481481e+00	 9.881667e+00
0	 8.518519e+00	 1.481481e+00	 9.931253e+00
0	 8.518519e+00	 1.555556e+00	 9.933615e+00
0	 8.518519e+00	 1.629630e+00	 9.936030e+00
0	 8.518519e+00	 1.703704e+00	 9.938501e+00
0	 8.518519e+00	 1.777778e+00	 9.941033e+00
0	 8.518519e+00	 1.851852e+00	 9.943628e+00
0	 8.592593e+00	 1.481481e+00	 9.921582e+00
0	 8.592593e+00	 1.555556e+00	 9.923988e+00
0	 8.592593e+00	 1.629630e+00	 9.926450e+00
0	 8.592593e+00	 1.703704e+00	 9.928972e+00
0	 8.592593e+00	 1.777778e+00	 9.931556e+00
0	 8.592593e+00	 1.851852e+00	 9.934207e+00
0	 8.666667e+00	 1.481481e+00	 9.911801e+00
0	 8.666667e+00	 1.555556e+00	 9.914258e+00
0	 8.666667e+00	 1.629630e+00	 9.916775e+00
0	 8.666667e+00	 1.703704e+00	 9.919354e+00
0	 8.666667e+00	 1.777778e+00	 9.921999e+00
0	 8.666667e+00	 1.851852e+00	 9.924714e+00
0	 8.740741e+00	 1.481481e+00	 9.901897e+00
0	 8.740741e+00	 1.555556e+00	 9.904413e+00
0	 8.740741e+00	 1.629630e+00	 9.906992e+00
0	 8.740741e+00	 1.703704e+00	 9.909637e+00
0	 8.740741e+00	 1.777778e+00	 9.912351e+00
0	 8.740741e+00	 1.851852e+00	 9.915137e+00
0	 8.814815e+00	 1.481481e+00	 9.891857e+00
0	 8.814815e+00	 1.555556e+00	 9.894440e+00
0	 8.814815e+00	 1.629630e+00	 9.897089e+00
0	 8.814815e+00	 1.703704e+00	 9.899808e+00
0	 8.814815e+00	 1.777778e+00	 9.902599e+00
0	 8.814815e+00	 1.851852e+00	 9.905466e+00
0	 8.888889e+00	 1.481481e+00	 9.881667e+00
0	 8.888889e+00	 1.555556e+00	 9.884326e+00
0	 8.888889e+00	 1.629630e+00	 9.887054e+00
0	 8.888889e+00	 1.703704e+00	 9.889856e+00
0	 8.888889e+00	 1.777778e+00	 9.892733e+00
0	 8.888889e+00	 1.851852e+00	 9.895689e+00
0	 8.518519e+00	 1.851852e+00	 9.943628e+00
0	 8.518519e+00	 1.925926e+00	 9.946267e+00
0	 8.518519e+00	 2.000000e+00	 9.948928e+00
0	 8.518519e+00	 2.074074e+00	 9.951616e+00
0	 8.518519e+00	 2.148148e+00	 9.954334e+00
0	 8.518519e+00	 2.222222e+00	 9.957086e+00
0	 8.592593e+00	 1.851852e+00	 9.934207e+00
0	 8.592593e+00	 1.925926e+00	 9.936905e+00
0	 8.592593e+00	 2.000000e+00	 9.939629e+00
0	 8.592593e+00	 2.074074e+00	 9.942382e+00
0	 8.592593e+00	 2.148148e+00	 9.945168e+00
0	 8.592593e+00	 2.222222e+00	 9.947991e+00
0	 8.666667e+00	 1.851852e+00	 9.924714e+00
0	 8.666667e+00	 1.925926e+00	 9.927478e+00
0	 8.666667e+00	 2.000000e+00	 9.930272e+00
0	 8.666667e+00	 2.074074e+00	 9.933098e+00
0	 8.666667e+00	 2.148148e+00	 9.935961e+00
0	 8.666667e+00	 2.222222e+00	 9.938862e+00
0	 8.740741e+00	 1.851852e+00	 9.915137e+00
0	 8.740741e+00	 1.925926e+00	 9.917976e+00
0	 8.740741e+00	 2.000000e+00	 9.920848e+00
0	 8.740741e+00	 2.074074e+00	 9.923755e+00
0	 8.740741e+00	 2.148148e+00	 9.926702e+00
0	 8.740741e+00	 2.222222e+00	 9.929691e+00
0	 8.814815e+00	 1.851852e+00	 9.905466e+00
0	 8.814815e+00	 1.925926e+00	 9.908388e+00
0	 8.814815e+00	 2.000000e+00	 9.911346e+00
0	 8.814815e+00	 2.074074e+00	 9.914344e+00
0	 8.814815e+00	 2.148148e+00	 9.917384e+00
0	 8.814815e+00	 2.222222e+00	 9.920469e+00
0	 8.888889e+00	 1.851852e+00	 9.895689e+00
0	 8.888889e+00	 1.925926e+00	 9.898703e+00
0	 8.888889e+00	 2.000000e+00	 9.901758e+00
0	 8.888889e+00	 2.074074e+00	 9.904855e+00
0	 8.888889e+00	 2.148148e+00	 9.907997e+00
0	 8.888889e+00	 2.222222e+00	 9.911187e+00
0	 8.518519e+00	 2.222222e+00	 9.957086e+00
0	 8.518519e+00	 2.296296e+00	 9.959851e+00
0	 8.518519e+00	 2.370370e+00	 9.962611e+00
0	 8.518519e+00	 2.444444e+00	 9.965368e+00
0	 8.518519e+00	 2.518519e+00	 9.968125e+00
0	 8.518519e+00	 2.592593e+00	 9.970887e+00
0	 8.592593e+00	 2.222222e+00	 9.947991e+00
0	 8.592593e+00	 2.296296e+00	 9.950831e+00
0	 8.592593e+00	 2.370370e+00	 9.953669e+00
0	 8.592593e+00	 2.444444e+00	 9.956507e+00
0	 8.592593e+00	 2.518519e+00	 9.959348e+00
0	 8.592593e+00	 2.592593e+00	 9.962197e+00
0	 8.666667e+00	 2.222222e+00	 9.938862e+00
0	 8.666667e+00	 2.296296e+00	 9.941784e+00
0	 8.666667e+00	 2.370370e+00	 9.944707e+00
0	 8.666667e+00	 2.444444e+00	 9.947634e+00
0	 8.666667e+00	 2.518519e+00	 9.950567e+00
0	 8.666667e+00	 2.592593e+00	 9.953509e+00
0	 8.740741e+00	 2.222222e+00	 9.929691e+00
0	 8.740741e+00	 2.296296e+00	 9.932703e+00
0	 8.740741e+00	 2.370370e+00	 9.935719e+00
0	 8.740741e+00	 2.444444e+00	 9.938742e+00
0	 8.740741e+00	 2.518519e+00	 9.941774e+00
0	 8.740741e+00	 2.592593e+00	 9.944819e+00
0	 8.814815e+00	 2.222222e+00	 9.920469e+00
0	 8.814815e+00	 2.296296e+00	 9.923580e+00
0	 8.814815e+00	 2.370370e+00	 9.926698e+00
0	 8.814815e+00	 2.444444e+00	 9.929825e+00
0	 8.814815e+00	 2.518519e+00	 9.932965e+00
0	 8.814815e+00	 2.592593e+00	 9.936120e+00
0	 8.888889e+00	 2.222222e+00	 9.911187e+00
0	 8.888889e+00	 2.296296e+00	 9.914406e+00
0	 8.888889e+00	 2.370370e+00	 9.917635e+00
0	 8.888889e+00	 2.444444e+00	 9.920877e+00
0	 8.888889e+00	 2.518519e+00	 9.924133e+00
0	 8.888889e+00	 2.592593e+00	 9.927407e+00
0	 8.518519e+00	 2.592593e+00	 9.970887e+00
0	 8.518519e+00	 2.666667e+00	 9.973636e+00
0	 8.518519e+00	 2.740741e+00	 9.976353e+00
0	 8.518519e+00	 2.814815e+00	 9.979042e+00
0	 8.518519e+00	 2.888889e+00	 9.981705e+00
0	 8.518519e+00	 2.962963e+00	 9.984346e+00
0	 8.592593e+00	 2.592593e+00	 9.962197e+00
0	 8.592593e+00	 2.666667e+00	 9.965035e+00
0	 8.592593e+00	 2.740741e+00	 9.967845e+00
0	 8.592593e+00	 2.814815e+00	 9.970630e+00
0	 8.592593e+00	 2.888889e+00	 9.973392e+00
0	 8.592593e+00	 2.962963e+00	 9.976134e+00
0	 8.666667e+00	 2.592593e+00	 9.953509e+00
0	 8.666667e+00	 2.666667e+00	 9.956444e+00
0	 8.666667e+00	 2.740741e+00	 9.959354e+00
0	 8.666667e+00	 2.814815e+00	 9.962241e+00
0	 8.666667e+00	 2.888889e+00	 9.965108e+00
0	 8.666667e+00	 2.962963e+00	 9.967958e+00
0	 8.740741e+00	 2.592593e+00	 9.944819e+00
0	 8.740741e+00	 2.666667e+00	 9.947858e+00
0	 8.740741e+00	 2.740741e+00	 9.950875e+00
0	 8.740741e+00	 2.814815e+00	 9.953872e+00
0	 8.740741e+00	 2.888889e+00	 9.956851e+00
0	 8.740741e+00	 2.962963e+00	 9.959815e+00
0	 8.814815e+00	 2.592593e+00	 9.936120e+00
0	 8.814815e+00	 2.666667e+00	 9.939272e+00
0	 8.814815e+00	 2.740741e+00	 9.942404e+00
0	 8.814815e+00	 2.814815e+00	 9.945518e+00
0	 8.814815e+00	 2.888889e+00	 9.948617e+00
0	 8.814815e+00	 2.962963e+00	 9.951702e+00
0	 8.888889e+00	 2.592593e+00	 9.927407e+00
0	 8.888889e+00	 2.666667e+00	 9.930680e+00
0	 8.888889e+00	 2.740741e+00	 9.933936e+00
0	 8.888889e+00	 2.814815e+00	 9.937176e+00
0	 8.888889e+00	 2.888889e+00	 9.940403e+00
0	 8.888889e+00	 2.962963e+00	 9.943619e+00
0	 8.518519e+00	 2.962963e+00	 9.984346e+00
0	 8.518519e+00	 3.037037e+00	 9.986949e+00
0	 8.518519e+00	 3.111111e+00	 9.989501e+00
0	 8.518519e+00	 3.185185e+00	 9.992003e+00
0	 8.518519e+00	 3.259259e+00	 9.994458e+00
0	 8.518519e+00	 3.333333e+00	 9.996867e+00
0	 8.592593e+00	 2.962963e+00	 9.976134e+00
0	 8.592593e+00	 3.037037e+00	 9.978841e+00
0	 8.592593e+00	 3.111111e+00	 9.981499e+00
0	 8.592593e+00	 3.185185e+00	 9.984110e+00
0	 8.592593e+00	 3.259259e+00	 9.986676e+00
0	 8.592593e+00	 3.333333e+00	 9.989199e+00
0	 8.666667e+00	 2.962963e+00	 9.967958e+00
0	 8.666667e+00	 3.037037e+00	 9.970775e+00
0	 8.666667e+00	 3.111111e+00	 9.973545e+00
0	 8.666667e+00	 3.185185e+00	 9.976270e+00
0	 8.666667e+00	 3.259259e+00	 9.978953e+00
0	 8.666667e+00	 3.333333e+00	 9.981594e+00
0	 8.740741e+00	 2.962963e+00	 9.959815e+00
0	 8.740741e+00	 3.037037e+00	 9.962748e+00
0	 8.740741e+00	 3.111111e+00	 9.965637e+00
0	 8.740741e+00	 3.185185e+00	 9.968483e+00
0	 8.740741e+00	 3.259259e+00	 9.971288e+00
0	 8.740741e+00	 3.333333e+00	 9.974053e+00
0	 8.814815e+00	 2.962963e+00	 9.951702e+00
0	 8.814815e+00	 3.037037e+00	 9.954760e+00
0	 8.814815e+00	 3.111111e+00	 9.957774e+00
0	 8.814815e+00	 3.185185e+00	 9.960748e+00
0	 8.814815e+00	 3.259259e+00	 9.963681e+00
0	 8.814815e+00	 3.333333e+00	 9.966577e+00
0	 8.888889e+00	 2.962963e+00	 9.943619e+00
0	 8.888889e+00	 3.037037e+00	 9.946808e+00
0	 8.888889e+00	 3.111111e+00	 9.949955e+00
0	 8.888889e+00	 3.185185e+00	 9.953063e+00
0	 8.888889e+00	 3.259259e+00	 9.956133e+00
0	 8.888889e+00	 3.333333e+00	 9.959166e+00
0	 8.518519e+00	 3.333333e+00	 9.996867e+00
0	 8.518519e+00	 3.407407e+00	 9.999220e+00
0	 8.518519e+00	 3.481481e+00	 1.000151e+01
0	 8.518519e+00	 3.555556e+00	 1.000373e+01
0	 8.518519e+00	 3.629630e+00	 1.000589e+01
0	 8.518519e+00	 3.703704e+00	 1.000798e+01
0	 8.592593e+00	 3.333333e+00	 9.989199e+00
0	 8.592593e+00	 3.407407e+00	 9.991668e+00
0	 8.592593e+00	 3.481481e+00	 9.994071e+00
0	 8.592593e+00	 3.555556e+00	 9.996412e+00
0	 8.592593e+00	 3.629630e+00	 9.998690e+00
0	 8.592593e+00	 3.703704e+00	 1.000091e+01
0	 8.666667e+00	 3.333333e+00	 9.981594e+00
0	 8.666667e+00	 3.407407e+00	 9.984183e+00
0	 8.666667e+00	 3.481481e+00	 9.986709e+00
0	 8.666667e+00	 3.555556e+00	 9.989173e+00
0	 8.666667e+00	 3.629630e+00	 9.991575e+00
0	 8.666667e+00	 3.703704e+00	 9.993918e+00
0	 8.740741e+00	 3.333333e+00	 9.974053e+00
0	 8.740741e+00	 3.407407e+00	 9.976768e+00
0	 8.740741e+00	 3.481481e+00	 9.979421e+00
0	 8.740741e+00	 3.555556e+00	 9.982013e+00
0	 8.740741e+00	 3.629630e+00	 9.984545e+00
0	 8.740741e+00	 3.703704e+00	 9.987019e+00
0	 8.814815e+00	 3.333333e+00	 9.966577e+00
0	 8.814815e+00	 3.407407e+00	 9.969424e+00
0	 8.814815e+00	 3.481481e+00	 9.972209e+00
0	 8.814815e+00	 3.555556e+00	 9.974935e+00
0	 8.814815e+00	 3.629630e+00	 9.977601e+00
0	 8.814815e+00	 3.703704e+00	 9.980210e+00
0	 8.888889e+00	 3.333333e+00	 9.959166e+00
0	 8.888889e+00	 3.407407e+00	 9.962151e+00
0	 8.888889e+00	 3.481481e+00	 9.965075e+00
0	 8.888889e+00	 3.555556e+00	 9.967940e+00
0	 8.888889e+00	 3.629630e+00	 9.970747e+00
0	 8.888889e+00	 3.703704e+00	 9.973497e+00
0	 8.518519e+00	 3.703704e+00	 1.000798e+01
0	 8.518519e+00	 3.777778e+00	 1.001000e+01
0	 8.518519e+00	 3.851852e+00	 1.001195e+01
0	 8.518519e+00	 3.925926e+00	 1.001383e+01
0	 8.518519e+00	 4.000000e+00	 1.001562e+01
0	 8.518519e+00	 4.074074e+00	 1.001735e+01
0	 8.592593e+00	 3.703704e+00	 1.000091e+01
0	 8.592593e+00	 3.777778e+00	 1.000306e+01
0	 8.592593e+00	 3.851852e+00	 1.000513e+01
0	 8.592593e+00	 3.925926e+00	 1.000713e+01
0	 8.592593e+00	 4.000000e+00	 1.000905e+01
0	 8.592593e+00	 4.074074e+00	 1.001090e+01
0	 8.666667e+00	 3.703704e+00	 9.993918e+00
0	 8.666667e+00	 3.777778e+00	 9.996194e+00
0	 8.666667e+00	 3.851852e+00	 9.998396e+00
0	 8.666667e+00	 3.925926e+00	 1.000052e+01
0	 8.666667e+00	 4.000000e+00	 1.000258e+01
0	 8.666667e+00	 4.074074e+00	 1.000456e+01
0	 8.740741e+00	 3.703704e+00	 9.987019e+00
0	 8.740741e+00	 3.777778e+00	 9.989426e+00
0	 8.740741e+00	 3.851852e+00	 9.991760e+00
0	 8.740741e+00	 3.925926e+00	 9.994020e+00
0	 8.740741e+00	 4.000000e+00	 9.996207e+00
0	 8.740741e+00	 4.074074e+00	 9.998322e+00
0	 8.814815e+00	 3.703704e+00	 9.980210e+00
0	 8.814815e+00	 3.777778e+00	 9.982754e+00
0	 8.814815e+00	 3.851852e+00	 9.985223e+00
0	 8.814815e+00	 3.925926e+00	 9.987620e+00
0	 8.814815e+00	 4.000000e+00	 9.989943e+00
0	 8.814815e+00	 4.074074e+00	 9.992195e+00
0	 8.888889e+00	 3.703704e+00	 9.973497e+00
0	 8.888889e+00	 3.777778e+00	 9.976181e+00
0	 8.888889e+00	 3.851852e+00	 9.978792e+00
0	 8.888889e+00	 3.925926e+00	 9.981329e+00
0	 8.888889e+00	 4.000000e+00	 9.983793e+00
0	 8.888889e+00	 4.074074e+00	 9.986185e+00
0	 8.518519e+00	 4.074074e+00	 1.001735e+01
0	 8.518519e+00	 4.148148e+00	 1.001899e+01
0	 8.518519e+00	 4.222222e+00	 1.002056e+01
0	 8.518519e+00	 4.296296e+00	 1.002204e+01
0	 8.518519e+00	 4.370370e+00	 1.002344e+01
0	 8.518519e+00	 4.444444e+00	 1.002477e+01
0	 8.592593e+00	 4.074074e+00	 1.001090e+01
0	 8.592593e+00	 4.148148e+00	 1.001268e+01
0	 8.592593e+00	 4.222222e+00	 1.001437e+01
0	 8.592593e+00	 4.296296e+00	 1.001598e+01
0	 8.592593e+00	 4.370370e+00	 1.001752e+01
0	 8.592593e+00	 4.444444e+00	 1.001897e+01
0	 8.666667e+00	 4.074074e+00	 1.000456e+01
0	 8.666667e+00	 4.148148e+00	 1.000646e+01
0	 8.666667e+00	 4.222222e+00	 1.000829e+01
0	 8.666667e+00	 4.296296e+00	 1.001003e+01
0	 8.666667e+00	 4.370370e+00	 1.001170e+01
0	 8.666667e+00	 4.444444e+00	 1.001328e+01
0	 8.740741e+00	 4.074074e+00	 9.998322e+00
0	 8.740741e+00	 4.148148e+00	 1.000036e+01
0	 8.740741e+00	 4.222222e+00	 1.000232e+01
0	 8.740741e+00	 4.296296e+00	 1.000419e+01
0	 8.740741e+00	 4.370370e+00	 1.000599e+01
0	 8.740741e+00	 4.444444e+00	 1.000771e+01
0	 8.814815e+00	 4.074074e+00	 9.992195e+00
0	 8.814815e+00	 4.148148e+00	 9.994370e+00
0	 8.814815e+00	 4.222222e+00	 9.996463e+00
0	 8.814815e+00	 4.296296e+00	 9.998475e+00
0	 8.814815e+00	 4.370370e+00	 1.000041e+01
0	 8.814815e+00	 4.444444e+00	 1.000226e+01
0	 8.888889e+00	 4.074074e+00	 9.986185e+00
0	 8.888889e+00	 4.148148e+00	 9.988499e+00
0	 8.888889e+00	 4.222222e+00	 9.990732e+00
0	 8.888889e+00	 4.296296e+00	 9.992882e+00
0	 8.888889e+00	 4.370370e+00	 9.994950e+00
0	 8.888889e+00	 4.444444e+00	 9.996936e+00
0	 8.518519e+00	 4.444444e+00	 1.002477e+01
0	 8.518519e+00	 4.518519e+00	 1.002601e+01
0	 8.518519e+00	 4.592593e+00	 1.002717e+01
0	 8.518519e+00	 4.666667e+00	 1.002825e+01
0	 8.518519e+00	 4.740741e+00	 1.002925e+01
0	 8.518519e+00	 4.814815e+00	 1.003016e+01
0	 8.592593e+00	 4.444444e+00	 1.001897e+01
0	 8.592593e+00	 4.518519e+00	 1.002034e+01
0	 8.592593e+00	 4.592593e+00	 1.002163e+01
0	 8.592593e+00	 4.666667e+00	 1.002284e+01
0	 8.592593e+00	 4.740741e+00	 1.002396e+01
0	 8.592593e+00	 4.814815e+00	 1.002501e+01
0	 8.666667e+00	 4.444444e+00	 1.001328e+01
0	 8.666667e+00	 4.518519e+00	 1.001478e+01
0	 8.666667e+00	 4.592593e+00	 1.001620e+01
0	 8.666667e+00	 4.666667e+00	 1.001754e+01
0	 8.666667e+00	 4.740741e+00	 1.001879e+01
0	 8.666667e+00	 4.814815e+00	 1.001997e+01
0	 8.740741e+00	 4.444444e+00	 1.000771e+01
0	 8.740741e+00	 4.518519e+00	 1.000934e+01
0	 8.740741e+00	 4.592593e+00	 1.001089e+01
0	 8.740741e+00	 4.666667e+00	 1.001236e+01
0	 8.740741e+00	 4.740741e+00	 1.001374e+01
0	 8.740741e+00	 4.814815e+00	 1.001504e+01
0	 8.814815e+00	 4.444444e+00	 1.000226e+01
0	 8.814815e+00	 4.518519e+00	 1.000402e+01
0	 8.814815e+00	 4.592593e+00	 1.000571e+01
0	 8.814815e+00	 4.666667e+00	 1.000730e+01
0	 8.814815e+00	 4.740741e+00	 1.000882e+01
0	 8.814815e+00	 4.814815e+00	 1.001025e+01
0	 8.888889e+00	 4.444444e+00	 9.996936e+00
0	 8.888889e+00	 4.518519e+00	 9.998838e+00
0	 8.888889e+00	 4.592593e+00	 1.000065e+01
0	 8.888889e+00	 4.666667e+00	 1.000239e+01
0	 8.888889e+00	 4.740741e+00	 1.000403e+01
0	 8.888889e+00	 4.814815e+00	 1.000559e+01
0	 8.518519e+00	 4.814815e+00	 1.003016e+01
0	 8.518519e+00	 4.888889e+00	 1.003100e+01
0	 8.518519e+00	 4.962963e+00	 1.003176e+01
0	 8.518519e+00	 5.037037e+00	 1.003244e+01
0	 8.518519e+00	 5.111111e+00	 1.003304e+01
0	 8.518519e+00	 5.185185e+00	 1.003356e+01
0	 8.592593e+00	 4.814815e+00	 1.002501e+01
0	 8.592593e+00	 4.888889e+00	 1.002597e+01
0	 8.592593e+00	 4.962963e+00	 1.002686e+01
0	 8.592593e+00	 5.037037e+00	 1.002766e+01
0	 8.592593e+00	 5.111111e+00	 1.002839e+01
0	 8.592593e+00	 5.185185e+00	 1.002904e+01
0	 8.666667e+00	 4.814815e+00	 1.001997e+01
0	 8.666667e+00	 4.888889e+00	 1.002106e+01
0	 8.666667e+00	 4.962963e+00	 1.002207e+01
0	 8.666667e+00	 5.037037e+00	 1.002300e+01
0	 8.666667e+00	 5.111111e+00	 1.002385e+01
0	 8.666667e+00	 5.185185e+00	 1.002462e+01
0	 8.740741e+00	 4.814815e+00	 1.001504e+01
0	 8.740741e+00	 4.888889e+00	 1.001626e+01
0	 8.740741e+00	 4.962963e+00	 1.001740e+01
0	 8.740741e+00	 5.037037e+00	 1.001845e+01
0	 8.740741e+00	 5.111111e+00	 1.001943e+01
0	 8.740741e+00	 5.185185e+00	 1.002032e+01
0	 8.814815e+00	 4.814815e+00	 1.001025e+01
0	 8.814815e+00	 4.888889e+00	 1.001159e+01
0	 8.814815e+00	 4.962963e+00	 1.001286e+01
0	 8.814815e+00	 5.037037e+00	 1.001404e+01
0	 8.814815e+00	 5.111111e+00	 1.001513e+01
0	 8.814815e+00	 5.185185e+00	 1.001614e+01
0	 8.888889e+00	 4.814815e+00	 1.000559e+01
0	 8.888889e+00	 4.888889e+00	 1.000706e+01
0	 8.888889e+00	 4.962963e+00	 1.000845e+01
0	 8.888889e+00	 5.037037e+00	 1.000975e+01
0	 8.888889e+00	 5.111111e+00	 1.001097e+01
0	 8.888889e+00	 5.185185e+00	 1.001210e+01
0	 8.518519e+00	 5.185185e+00	 1.003356e+01
0	 8.518519e+00	 5.259259e+00	 1.003401e+01
0	 8.518519e+00	 5.333333e+00	 1.003439e+01
0	 8.518519e+00	 5.407407e+00	 1.003470e+01
0	 8.518519e+00	 5.481481e+00	 1.003493e+01
0	 8.518519e+00	 5.555556e+00	 1.003509e+01
0	 8.592593e+00	 5.185185e+00	 1.002904e+01
0	 8.592593e+00	 5.259259e+00	 1.002961e+01
0	 8.592593e+00	 5.333333e+00	 1.003011e+01
0	 8.592593e+00	 5.407407e+00	 1.003053e+01
0	 8.592593e+00	 5.481481e+00	 1.003089e+01
0	 8.592593e+00	 5.555556e+00	 1.003116e+01
0	 8.666667e+00	 5.185185e+00	 1.002462e+01
0	 8.666667e+00	 5.259259e+00	 1.002531e+01
0	 8.666667e+00	 5.333333e+00	 1.002593e+01
0	 8.666667e+00	 5.407407e+00	 1.002647e+01
0	 8.666667e+00	 5.481481e+00	 1.002694e+01
0	 8.666667e+00	 5.555556e+00	 1.002734e+01
0	 8.740741e+00	 5.185185e+00	 1.002032e+01
0	 8.740741e+00	 5.259259e+00	 1.002113e+01
0	 8.740741e+00	 5.333333e+00	 1.002187e+01
0	 8.740741e+00	 5.407407e+00	 1.002253e+01
0	 8.740741e+00	 5.481481e+00	 1.002311e+01
0	 8.740741e+00	 5.555556e+00	 1.002362e+01
0	 8.814815e+00	 5.185185e+00	 1.001614e+01
0	 8.814815e+00	 5.259259e+00	 1.001707e+01
0	 8.814815e+00	 5.333333e+00	 1.001793e+01
0	 8.814815e+00	 5.407407e+00	 1.001870e+01
0	 8.814815e+00	 5.481481e+00	 1.001940e+01
0	 8.814815e+00	 5.555556e+00	 1.002002e+01
0	 8.888889e+00	 5.185185e+00	 1.001210e+01
0	 8.888889e+00	 5.259259e+00	 1.001315e+01
0	 8.888889e+00	 5.333333e+00	 1.001412e+01
0	 8.888889e+00	 5.407407e+00	 1.001501e+01
0	 8.888889e+00	 5.481481e+00	 1.001582e+01
0	 8.888889e+00	 5.555556e+00	 1.001655e+01
0	 8.518519e+00	 5.555556e+00	 1.003509e+01
0	 8.518519e+00	 5.629630e+00	 1.003519e+01
0	 8.518519e+00	 5.703704e+00	 1.003522e+01
0	 8.518519e+00	 5.777778e+00	 1.003519e+01
0	 8.518519e+00	 5.851852e+00	 1.003510e+01
0	 8.518519e+00	 5.925926e+00	 1.003494e+01
0	 8.592593e+00	 5.555556e+00	 1.003116e+01
0	 8.592593e+00	 5.629630e+00	 1.003137e+01
0	 8.592593e+00	 5.703704e+00	 1.003152e+01
0	 8.592593e+00	 5.777778e+00	 1.003160e+01
0	 8.592593e+00	 5.851852e+00	 1.003162e+01
0	 8.592593e+00	 5.925926e+00	 1.003157e+01
0	 8.666667e+00	 5.555556e+00	 1.002734e+01
0	 8.666667e+00	 5.629630e+00	 1.002766e+01
0	 8.666667e+00	 5.703704e+00	 1.002792e+01
0	 8.666667e+00	 5.777778e+00	 1.002811e+01
0	 8.666667e+00	 5.851852e+00	 1.002823e+01
0	 8.666667e+00	 5.925926e+00	 1.002829e+01
0	 8.740741e+00	 5.555556e+00	 1.002362e+01
0	 8.740741e+00	 5.629630e+00	 1.002405e+01
0	 8.740741e+00	 5.703704e+00	 1.002442e+01
0	 8.740741e+00	 5.777778e+00	 1.002472e+01
0	 8.740741e+00	 5.851852e+00	 1.002495e+01
0	 8.740741e+00	 5.925926e+00	 1.002511e+01
0	 8.814815e+00	 5.555556e+00	 1.002002e+01
0	 8.814815e+00	 5.629630e+00	 1.002056e+01
0	 8.814815e+00	 5.703704e+00	 1.002104e+01
0	 8.814815e+00	 5.777778e+00	 1.002144e+01
0	 8.814815e+00	 5.851852e+00	 1.002177e+01
0	 8.814815e+00	 5.925926e+00	 1.002204e+01
0	 8.888889e+00	 5.555556e+00	 1.001655e+01
0	 8.888889e+00	 5.629630e+00	 1.001720e+01
0	 8.888889e+00	 5.703704e+00	 1.001778e+01
0	 8.888889e+00	 5.777778e+00	 1.001828e+01
0	 8.888889e+00	 5.851852e+00	 1.001872e+01
0	 8.888889e+00	 5.925926e+00	 1.001908e+01
0	 8.518519e+00	 5.925926e+00	 1.003494e+01
0	 8.518519e+00	 6.000000e+00	 1.003472e+01
0	 8.518519e+00	 6.074074e+00	 1.003446e+01
0	 8.518519e+00	 6.148148e+00	 1.003414e+01
0	 8.518519e+00	 6.222222e+00	 1.003377e+01
0	 8.518519e+00	 6.296296e+00	 1.003334e+01
0	 8.592593e+00	 5.925926e+00	 1.003157e+01
0	 8.592593e+00	 6.000000e+00	 1.003146e+01
0	 8.592593e+00	 6.074074e+00	 1.003130e+01
0	 8.592593e+00	 6.148148e+00	 1.003108e+01
0	 8.592593e+00	 6.222222e+00	 1.003081e+01
0	 8.592593e+00	 6.296296e+00	 1.003049e+01
0	 8.666667e+00	 5.925926e+00	 1.002829e+01
0	 8.666667e+00	 6.000000e+00	 1.002828e+01
0	 8.666667e+00	 6.074074e+00	 1.002823e+01
0	 8.666667e+00	 6.148148e+00	 1.002811e+01
0	 8.666667e+00	 6.222222e+00	 1.002794e+01
0	 8.666667e+00	 6.296296e+00	 1.002771e+01
0	 8.740741e+00	 5.925926e+00	 1.002511e+01
0	 8.740741e+00	 6.000000e+00	 1.002521e+01
0	 8.740741e+00	 6.074074e+00	 1.002525e+01
0	 8.740741e+00	 6.148148e+00	 1.002523e+01
0	 8.740741e+00	 6.222222e+00	 1.002516e+01
0	 8.740741e+00	 6.296296e+00	 1.002502e+01
0	 8.814815e+00	 5.925926e+00	 1.002204e+01
0	 8.814815e+00	 6.000000e+00	 1.002223e+01
0	 8.814815e+00	 6.074074e+00	 1.002237e+01
0	 8.814815e+00	 6.148148e+00	 1.002245e+01
0	 8.814815e+00	 6.222222e+00	 1.002247e+01
0	 8.814815e+00	 6.296296e+00	 1.002242e+01
0	 8.888889e+00	 5.925926e+00	 1.001908e+01
0	 8.888889e+00	 6.000000e+00	 1.001937e+01
0	 8.888889e+00	 6.074074e+00	 1.001960e+01
0	 8.888889e+00	 6.148148e+00	 1.001977e+01
0	 8.888889e+00	 6.222222e+00	 1.001988e+01
0	 8.888889e+00	 6.296296e+00	 1.001992e+01
0	 8.518519e+00	 6.296296e+00	 1.003334e+01
0	 8.518519e+00	 6.370370e+00	 1.003286e+01
0	 8.518519e+00	 6.444444e+00	 1.003235e+01
0	 8.518519e+00	 6.518519e+00	 1.003180e+01
0	 8.518519e+00	 6.592593e+00	 1.003120e+01
0	 8.518519e+00	 6.666667e+00	 1.003057e+01
0	 8.592593e+00	 6.296296e+00	 1.003049e+01
0	 8.592593e+00	 6.370370e+00	 1.003011e+01
0	 8.592593e+00	 6.444444e+00	 1.002969e+01
0	 8.592593e+00	 6.518519e+00	 1.002924e+01
0	 8.592593e+00	 6.592593e+00	 1.002873e+01
0	 8.592593e+00	 6.666667e+00	 1.002818e+01
0	 8.666667e+00	 6.296296e+00	 1.002771e+01
0	 8.666667e+00	 6.370370e+00	 1.002743e+01
0	 8.666667e+00	 6.444444e+00	 1.002711e+01
0	 8.666667e+00	 6.518519e+00	 1.002674e+01
0	 8.666667e+00	 6.592593e+00	 1.002633e+01
0	 8.666667e+00	 6.666667e+00	 1.002587e+01
0	 8.740741e+00	 6.296296e+00	 1.002502e+01
0	 8.740741e+00	 6.370370e+00	 1.002483e+01
0	 8.740741e+00	 6.444444e+00	 1.002460e+01
0	 8.740741e+00	 6.518519e+00	 1.002432e+01
0	 8.740741e+00	 6.592593e+00	 1.002399e+01
0	 8.740741e+00	 6.666667e+00	 1.002362e+01
0	 8.814815e+00	 6.296296e+00	 1.002242e+01
0	 8.814815e+00	 6.370370e+00	 1.002232e+01
0	 8.814815e+00	 6.444444e+00	 1.002218e+01
0	 8.814815e+00	 6.518519e+00	 1.002198e+01
0	 8.814815e+00	 6.592593e+00	 1.002174e+01
0	 8.814815e+00	 6.666667e+00	 1.002145e+01
0	 8.888889e+00	 6.296296e+00	 1.001992e+01
0	 8.888889e+00	 6.370370e+00	 1.001991e+01
0	 8.888889e+00	 6.444444e+00	 1.001985e+01
0	 8.888889e+00	 6.518519e+00	 1.001974e+01
0	 8.888889e+00	 6.592593e+00	 1.001957e+01
0	 8.888889e+00	 6.666667e+00	 1.001936e+01
0	 8.518519e+00	 6.666667e+00	 1.003057e+01
0	 8.518519e+00	 6.740741e+00	 1.002989e+01
0	 8.518519e+00	 6.814815e+00	 1.002919e+01
0	 8.518519e+00	 6.888889e+00	 1.002846e+01
0	 8.518519e+00	 6.962963e+00	 1.002770e+01
0	 8.518519e+00	 7.037037e+00	 1.002691e+01
0	 8.592593e+00	 6.666667e+00	 1.002818e+01
0	 8.592593e+00	 6.740741e+00	 1.002760e+01
0	 8.592593e+00	 6.814815e+00	 1.002699e+01
0	 8.592593e+00	 6.888889e+00	 1.002634e+01
0	 8.592593e+00	 6.962963e+00	 1.002567e+01
0	 8.592593e+00	 7.037037e+00	 1.002496e+01
0	 8.666667e+00	 6.666667e+00	 1.002587e+01
0	 8.666667e+00	 6.740741e+00	 1.002537e+01
0	 8.666667e+00	 6.814815e+00	 1.002484e+01
0	 8.666667e+00	 6.888889e+00	 1.002428e+01
0	 8.666667e+00	 6.962963e+00	 1.002369e+01
0	 8.666667e+00	 7.037037e+00	 1.002306e+01
0	 8.740741e+00	 6.666667e+00	 1.002362e+01
0	 8.740741e+00	 6.740741e+00	 1.002321e+01
0	 8.740741e+00	 6.814815e+00	 1.002276e+01
0	 8.740741e+00	 6.888889e+00	 1.002228e+01
0	 8.740741e+00	 6.962963e+00	 1.002176e+01
0	 8.740741e+00	 7.037037e+00	 1.002121e+01
0	 8.814815e+00	 6.666667e+00	 1.002145e+01
0	 8.814815e+00	 6.740741e+00	 1.002111e+01
0	 8.814815e+00	 6.814815e+00	 1.002074e+01
0	 8.814815e+00	 6.888889e+00	 1.002034e+01
0	 8.814815e+00	 6.962963e+00	 1.001990e+01
0	 8.814815e+00	 7.037037e+00	 1.001942e+01
0	 8.888889e+00	 6.666667e+00	 1.001936e+01
0	 8.888889e+00	 6.740741e+00	 1.001910e+01
0	 8.888889e+00	 6.814815e+00	 1.001880e+01
0	 8.888889e+00	 6.888889e+00	 1.001847e+01
0	 8.888889e+00	 6.962963e+00	 1.001810e+01
0	 8.888889e+00	 7.037037e+00	 1.001769e+01
0	 8.518519e+00	 7.037037e+00	 1.002691e+01
0	 8.518519e+00	 7.111111e+00	 1.002609e+01
0	 8.518519e+00	 7.185185e+00	 1.002526e+01
0	 8.518519e+00	 7.259259e+00	 1.002441e+01
0	 8.518519e+00	 7.333333e+00	 1.002355e+01
0	 8.518519e+00	 7.407407e+00	 1.002266e+01
0	 8.592593e+00	 7.037037e+00	 1.002496e+01
0	 8.592593e+00	 7.111111e+00	 1.002422e+01
0	 8.592593e+00	 7.185185e+00	 1.002347e+01
0	 8.592593e+00	 7.259259e+00	 1.002270e+01
0	 8.592593e+00	 7.333333e+00	 1.002191e+01
0	 8.592593e+00	 7.407407e+00	 1.002110e+01
0	 8.666667e+00	 7.037037e+00	 1.002306e+01
0	 8.666667e+00	 7.111111e+00	 1.002240e+01
0	 8.666667e+00	 7.185185e+00	 1.002172e+01
0	 8.666667e+00	 7.259259e+00	 1.002103e+01
0	 8.666667e+00	 7.333333e+00	 1.002031e+01
0	 8.666667e+00	 7.407407e+00	 1.001958e+01
0	 8.740741e+00	 7.037037e+00	 1.002121e+01
0	 8.740741e+00	 7.111111e+00	 1.002063e+01
0	 8.740741e+00	 7.185185e+00	 1.002003e+01
0	 8.740741e+00	 7.259259e+00	 1.001940e+01
0	 8.740741e+00	 7.333333e+00	 1.001876e+01
0	 8.740741e+00	 7.407407e+00	 1.001809e+01
0	 8.814815e+00	 7.037037e+00	 1.001942e+01
0	 8.814815e+00	 7.111111e+00	 1.001891e+01
0	 8.814815e+00	 7.185185e+00	 1.001838e+01
0	 8.814815e+00	 7.259259e+00	 1.001782e+01
0	 8.814815e+00	 7.333333e+00	 1.001725e+01
0	 8.814815e+00	 7.407407e+00	 1.001664e+01
0	 8.888889e+00	 7.037037e+00	 1.001769e+01
0	 8.888889e+00	 7.111111e+00	 1.001725e+01
0	 8.888889e+00	 7.185185e+00	 1.001678e+01
0	 8.888889e+00	 7.259259e+00	 1.001630e+01
0	 8.888889e+00	 7.333333e+00	 1.001578e+01
0	 8.888889e+00	 7.407407e+00	 1.001524e+01
0	 8.518519e+00	 7.407407e+00	 1.002266e+01
0	 8.518519e+00	 7.481481e+00	 1.002176e+01
0	 8.518519e+00	 7.555556e+00	 1.002086e+01
0	 8.518519e+00	 7.629630e+00	 1.001996e+01
0	 8.518519e+00	 7.703704e+00	 1.001904e+01
0	 8.518519e+00	 7.777778e+00	 1.001812e+01
0	 8.592593e+00	 7.407407e+00	 1.002110e+01
0	 8.592593e+00	 7.481481e+00	 1.002028e+01
0	 8.592593e+00	 7.555556e+00	 1.001945e+01
0	 8.592593e+00	 7.629630e+00	 1.001861e+01
0	 8.592593e+00	 7.703704e+00	 1.001777e+01
0	 8.592593e+00	 7.777778e+00	 1.001691e+01
0	 8.666667e+00	 7.407407e+00	 1.001958e+01
0	 8.666667e+00	 7.481481e+00	 1.001882e+01
0	 8.666667e+00	 7.555556e+00	 1.001806e+01
0	 8.666667e+00	 7.629630e+00	 1.001730e+01
0	 8.666667e+00	 7.703704e+00	 1.001652e+01
0	 8.666667e+00	 7.777778e+00	 1.001573e+01
0	 8.740741e+00	 7.407407e+00	 1.001809e+01
0	 8.740741e+00	 7.481481e+00	 1.001740e+01
0	 8.740741e+00	 7.555556e+00	 1.001671e+01
0	 8.740741e+00	 7.629630e+00	 1.001601e+01
0	 8.740741e+00	 7.703704e+00	 1.001530e+01
0	 8.740741e+00	 7.777778e+00	 1.001457e+01
0	 8.814815e+00	 7.407407e+00	 1.001664e+01
0	 8.814815e+00	 7.481481e+00	 1.001602e+01
0	 8.814815e+00	 7.555556e+00	 1.001539e+01
0	 8.814815e+00	 7.629630e+00	 1.001475e+01
0	 8.814815e+00	 7.703704e+00	 1.001410e+01
0	 8.814815e+00	 7.777778e+00	 1.001344e+01
0	 8.888889e+00	 7.407407e+00	 1.001524e+01
0	 8.888889e+00	 7.481481e+00	 1.001468e+01
0	 8.888889e+00	 7.555556e+00	 1.001411e+01
0	 8.888889e+00	 7.629630e+00	 1.001353e+01
0	 8.888889e+00	 7.703704e+00	 1.001294e+01
0	 8.888889e+00	 7.777778e+00	 1.001233e+01
0	 8.518519e+00	 7.777778e+00	 1.001812e+01
0	 8.518519e+00	 7.851852e+00	 1.001720e+01
0	 8.518519e+00	 7.925926e+00	 1.001629e+01
0	 8.518519e+00	 8.000000e+00	 1.001538e+01
0	 8.518519e+00	 8.074074e+00	 1.001448e+01
0	 8.518519e+00	 8.148148e+00	 1.001358e+01
0	 8.592593e+00	 7.777778e+00	 1.001691e+01
0	 8.592593e+00	 7.851852e+00	 1.001606e+01
0	 8.592593e+00	 7.925926e+00	 1.001521e+01
0	 8.592593e+00	 8.000000e+00	 1.001437e+01
0	 8.592593e+00	 8.074074e+00	 1.001353e+01
0	 8.592593e+00	 8.148148e+00	 1.001269e+01
0	 8.666667e+00	 7.777778e+00	 1.001573e+01
0	 8.666667e+00	 7.851852e+00	 1.001494e+01
0	 8.666667e+00	 7.925926e+00	 1.001415e+01
0	 8.666667e+00	 8.000000e+00	 1.001337e+01
0	 8.666667e+00	 8.074074e+00	 1.001259e+01
0	 8.666667e+00	 8.148148e+00	 1.001181e+01
0	 8.740741e+00	 7.777778e+00	 1.001457e+01
0	 8.740741e+00	 7.851852e+00	 1.001384e+01
0	 8.740741e+00	 7.925926e+00	 1.001312e+01
0	 8.740741e+00	 8.000000e+00	 1.001239e+01
0	 8.740741e+00	 8.074074e+00	 1.001167e+01
0	 8.740741e+00	 8.148148e+00	 1.001095e+01
0	 8.814815e+00	 7.777778e+00	 1.001344e+01
0	 8.814815e+00	 7.851852e+00	 1.001277e+01
0	 8.814815e+00	 7.925926e+00	 1.001210e+01
0	 8.814815e+00	 8.000000e+00	 1.001144e+01
0	 8.814815e+00	 8.074074e+00	 1.001077e+01
0	 8.814815e+00	 8.148148e+00	 1.001010e+01
0	 8.888889e+00	 7.777778e+00	 1.001233e+01
0	 8.888889e+00	 7.851852e+00	 1.001172e+01
0	 8.888889e+00	 7.925926e+00	 1.001111e+01
0	 8.888889e+00	 8.000000e+00	 1.001050e+01
0	 8.888889e+00	 8.074074e+00	 1.000988e+01
0	 8.888889e+00	 8.148148e+00	 1.000927e+01
0	 8.518519e+00	 8.148148e+00	 1.001358e+01
0	 8.518519e+00	 8.222222e+00	 1.001269e+01
0	 8.518519e+00	 8.296296e+00	 1.001182e+01
0	 8.518519e+00	 8.370370e+00	 1.001096e+01
0	 8.518519e+00	 8.444444e+00	 1.001013e+01
0	 8.518519e+00	 8.518519e+00	 1.000930e+01
0	 8.592593e+00	 8.148148e+00	 1.001269e+01
0	 8.592593e+00	 8.222222e+00	 1.001186e+01
0	 8.592593e+00	 8.296296e+00	 1.001104e+01
0	 8.592593e+00	 8.370370e+00	 1.001025e+01
0	 8.592593e+00	 8.444444e+00	 1.000947e+01
0	 8.592593e+00	 8.518519e+00	 1.000869e+01
0	 8.666667e+00	 8.148148e+00	 1.001181e+01
0	 8.666667e+00	 8.222222e+00	 1.001104e+01
0	 8.666667e+00	 8.296296e+00	 1.001028e+01
0	 8.666667e+00	 8.370370e+00	 1.000954e+01
0	 8.666667e+00	 8.444444e+00	 1.000881e+01
0	 8.666667e+00	 8.518519e+00	 1.000809e+01
0	 8.740741e+00	 8.148148e+00	 1.001095e+01
0	 8.740741e+00	 8.222222e+00	 1.001023e+01
0	 8.740741e+00	 8.296296e+00	 1.000953e+01
0	 8.740741e+00	 8.370370e+00	 1.000884e+01
0	 8.740741e+00	 8.444444e+00	 1.000817e+01
0	 8.740741e+00	 8.518519e+00	 1.000750e+01
0	 8.814815e+00	 8.148148e+00	 1.001010e+01
0	 8.814815e+00	 8.222222e+00	 1.000944e+01
0	 8.814815e+00	 8.296296e+00	 1.000879e+01
0	 8.814815e+00	 8.370370e+00	 1.000815e+01
0	 8.814815e+00	 8.444444e+00	 1.000753e+01
0	 8.814815e+00	 8.518519e+00	 1.000691e+01
0	 8.888889e+00	 8.148148e+00	 1.000927e+01
0	 8.888889e+00	 8.222222e+00	 1.000866e+01
0	 8.888889e+00	 8.296296e+00	 1.000806e+01
0	 8.888889e+00	 8.370370e+00	 1.000747e+01
0	 8.888889e+00	 8.444444e+00	 1.000689e+01
0	 8.888889e+00	 8.518519e+00	 1.000632e+01
0	 8.518519e+00	 8.518519e+00	 1.000930e+01
0	 8.518519e+00	 8.592593e+00	 1.000850e+01
0	 8.518519e+00	 8.666667e+00	 1.000773e+01
0	 8.518519e+00	 8.740741e+00	 1.000698e+01
0	 8.518519e+00	 8.814815e+00	 1.000626e+01
0	 8.518519e+00	 8.888889e+00	 1.000556e+01
0	 8.592593e+00	 8.518519e+00	 1.000869e+01
0	 8.592593e+00	 8.592593e+00	 1.000794e+01
0	 8.592593e+00	 8.666667e+00	 1.000722e+01
0	 8.592593e+00	 8.740741e+00	 1.000652e+01
0	 8.592593e+00	 8.814815e+00	 1.000585e+01
0	 8.592593e+00	 8.888889e+00	 1.000520e+01
0	 8.666667e+00	 8.518519e+00	 1.000809e+01
0	 8.666667e+00	 8.592593e+00	 1.000739e+01
0	 8.666667e+00	 8.666667e+00	 1.000672e+01
0	 8.666667e+00	 8.740741e+00	 1.000607e+01
0	 8.666667e+00	 8.814815e+00	 1.000544e+01
0	 8.666667e+00	 8.888889e+00	 1.000483e+01
0	 8.740741e+00	 8.518519e+00	 1.000750e+01
0	 8.740741e+00	 8.592593e+00	 1.000685e+01
0	 8.740741e+00	 8.666667e+00	 1.000622e+01
0	 8.740741e+00	 8.740741e+00	 1.000562e+01
0	 8.740741e+00	 8.814815e+00	 1.000503e+01
0	 8.740741e+00	 8.888889e+00	 1.000447e+01
0	 8.814815e+00	 8.518519e+00	 1.000691e+01
0	 8.814815e+00	 8.592593e+00	 1.000631e+01
0	 8.814815e+00	 8.666667e+00	 1.000573e+01
0	 8.814815e+00	 8.740741e+00	 1.000517e+01
0	 8.814815e+00	 8.814815e+00	 1.000463e+01
0	 8.814815e+00	 8.888889e+00	 1.000411e+01
0	 8.888889e+00	 8.518519e+00	 1.000632e+01
0	 8.888889e+00	 8.592593e+00	 1.000577e+01
0	 8.888889e+00	 8.666667e+00	 1.000523e+01
0	 8.888889e+00	 8.740741e+00	 1.000472e+01
0	 8.888889e+00	 8.814815e+00	 1.000422e+01
0	 8.888889e+00	 8.888889e+00	 1.000374e+01
0	 8.518519e+00	 8.888889e+00	 1.000556e+01
0	 8.518519e+00	 8.962963e+00	 1.000490e+01
0	 8.518519e+00	 9.037037e+00	 1.000427e+01
0	 8.518519e+00	 9.111111e+00	 1.000369e+01
0	 8.518519e+00	 9.185185e+00	 1.000314e+01
0	 8.518519e+00	 9.259259e+00	 1.000262e+01
0	 8.592593e+00	 8.888889e+00	 1.000520e+01
0	 8.592593e+00	 8.962963e+00	 1.000458e+01
0	 8.592593e+00	 9.037037e+00	 1.000399e+01
0	 8.592593e+00	 9.111111e+00	 1.000344e+01
0	 8.592593e+00	 9.185185e+00	 1.000293e+01
0	 8.592593e+00	 9.259259e+00	 1.000244e+01
0	 8.666667e+00	 8.888889e+00	 1.000483e+01
0	 8.666667e+00	 8.962963e+00	 1.000425e+01
0	 8.666667e+00	 9.037037e+00	 1.000371e+01
0	 8.666667e+00	 9.111111e+00	 1.000320e+01
0	 8.666667e+00	 9.185185e+00	 1.000272e+01
0	 8.666667e+00	 9.259259e+00	 1.000227e+01
0	 8.740741e+00	 8.888889e+00	 1.000447e+01
0	 8.740741e+00	 8.962963e+00	 1.000393e+01
0	 8.740741e+00	 9.037037e+00	 1.000343e+01
0	 8.740741e+00	 9.111111e+00	 1.000295e+01
0	 8.740741e+00	 9.185185e+00	 1.000251e+01
0	 8.740741e+00	 9.259259e+00	 1.000209e+01
0	 8.814815e+00	 8.888889e+00	 1.000411e+01
0	 8.814815e+00	 8.962963e+00	 1.000361e+01
0	 8.814815e+00	 9.037037e+00	 1.000314e+01
0	 8.814815e+00	 9.111111e+00	 1.000271e+01
0	 8.814815e+00	 9.185185e+00	 1.000230e+01
0	 8.814815e+00	 9.259259e+00	 1.000191e+01
0	 8.888889e+00	 8.888889e+00	 1.000374e+01
0	 8.888889e+00	 8.962963e+00	 1.000329e+01
0	 8.888889e+00	 9.037037e+00	 1.000286e+01
0	 8.888889e+00	 9.111111e+00	 1.000246e+01
0	 8.888889e+00	 9.185185e+00	 1.000208e+01
0	 8.888889e+00	 9.259259e+00	 1.000174e+01
0	 8.518519e+00	 9.259259e+00	 1.000262e+01
0	 8.518519e+00	 9.333333e+00	 1.000214e+01
0	 8.518519e+00	 9.407407e+00	 1.000171e+01
0	 8.518519e+00	 9.481481e+00	 1.000133e+01
0	 8.518519e+00	 9.555556e+00	 1.000099e+01
0	 8.518519e+00	 9.629630e+00	 1.000069e+01
0	 8.592593e+00	 9.259259e+00	 1.000244e+01
0	 8.592593e+00	 9.333333e+00	 1.000200e+01
0	 8.592593e+00	 9.407407e+00	 1.000160e+01
0	 8.592593e+00	 9.481481e+00	 1.000124e+01
0	 8.592593e+00	 9.555556e+00	 1.000092e+01
0	 8.592593e+00	 9.629630e+00	 1.000065e+01
0	 8.666667e+00	 9.259259e+00	 1.000227e+01
0	 8.666667e+00	 9.333333e+00	 1.000185e+01
0	 8.666667e+00	 9.407407e+00	 1.000148e+01
0	 8.666667e+00	 9.481481e+00	 1.000115e+01
0	 8.666667e+00	 9.555556e+00	 1.000085e+01
0	 8.666667e+00	 9.629630e+00	 1.000060e+01
0	 8.740741e+00	 9.259259e+00	 1.000209e+01
0	 8.740741e+00	 9.333333e+00	 1.000171e+01
0	 8.740741e+00	 9.407407e+00	 1.000136e+01
0	 8.740741e+00	 9.481481e+00	 1.000106e+01
0	 8.740741e+00	 9.555556e+00	 1.000079e+01
0	 8.740741e+00	 9.629630e+00	 1.000055e+01
0	 8.814815e+00	 9.259259e+00	 1.000191e+01
0	 8.814815e+00	 9.333333e+00	 1.000156e+01
0	 8.814815e+00	 9.407407e+00	 1.000124e+01
0	 8.814815e+00	 9.481481e+00	 1.000096e+01
0	 8.814815e+00	 9.555556e+00	 1.000072e+01
0	 8.814815e+00	 9.629630e+00	 1.000050e+01
0	 8.888889e+00	 9.259259e+00	 1.000174e+01
0	 8.888889e+00	 9.333333e+00	 1.000141e+01
0	 8.888889e+00	 9.407407e+00	 1.000113e+01
0	 8.888889e+00	 9.481481e+00	 1.000087e+01
0	 8.888889e+00	 9.555556e+00	 1.000065e+01
0	 8.888889e+00	 9.629630e+00	 1.000045e+01
0	 8.518519e+00	 9.629630e+00	 1.000069e+01
0	 8.518519e+00	 9.703704e+00	 1.000044e+01
0	 8.518519e+00	 9.777778e+00	 1.000025e+01
0	 8.518519e+00	 9.851852e+00	 1.000012e+01
0	 8.518519e+00	 9.925926e+00	 1.000003e+01
0	 8.518519e+00	 1.000000e+01	 9.999995e+00
0	 8.592593e+00	 9.629630e+00	 1.000065e+01
0	 8.592593e+00	 9.703704e+00	 1.000042e+01
0	 8.592593e+00	 9.777778e+00	 1.000024e+01
0	 8.592593e+00	 9.851852e+00	 1.000011e+01
0	 8.592593e+00	 9.925926e+00	 1.000003e+01
0	 8.592593e+00	 1.000000e+01	 9.999998e+00
0	 8.666667e+00	 9.629630e+00	 1.000060e+01
0	 8.666667e+00	 9.703704e+00	 1.000038e+01
0	 8.666667e+00	 9.777778e+00	 1.000022e+01
0	 8.666667e+00	 9.851852e+00	 1.000010e+01
0	 8.666667e+00	 9.925926e+00	 1.000003e+01
0	 8.666667e+00	 1.000000e+01	 9.999998e+00
0	 8.740741e+00	 9.629630e+00	 1.000055e+01
0	 8.740741e+00	 9.703704e+00	 1.000035e+01
0	 8.740741e+00	 9.777778e+00	 1.000020e+01
0	 8.740741e+00	 9.851852e+00	 1.000009e+01
0	 8.740741e+00	 9.925926e+00	 1.000002e+01
0	 8.740741e+00	 1.000000e+01	 9.999997e+00
0	 8.814815e+00	 9.629630e+00	 1.000050e+01
0	 8.814815e+00	 9.703704e+00	 1.000032e+01
0	 8.814815e+00	 9.777778e+00	 1.000018e+01
0	 8.814815e+00	 9.851852e+00	 1.000008e+01
0	 8.814815e+00	 9.925926e+00	 1.000002e+01
0	 8.814815e+00	 1.000000e+01	 9.999996e+00
0	 8.888889e+00	 9.629630e+00	 1.000045e+01
0	 8.888889e+00	 9.703704e+00	 1.000029e+01
0	 8.888889e+00	 9.777778e+00	 1.000017e+01
0	 8.888889e+00	 9.851852e+00	 1.000008e+01
0	 8.888889e+00	 9.925926e+00	 1.000002e+01
0	 8.888889e+00	 1.000000e+01	 9.999997e+00
0	 8.888889e+00	 0.000000e+00	 9.853401e+00
0	 8.888889e+00	 7.407407e-02	 9.853477e+00
0	 8.888889e+00	 1.481481e-01	 9.853705e+00
0	 8.888889e+00	 2.222222e-01	 9.854085e+00
0	 8.888889e+00	 2.962963e-01	 9.854618e+00
0	 8.888889e+00	 3.703704e-01	 9.855304e+00
0	 8.962963e+00	 0.000000e+00	 9.842223e+00
0	 8.962963e+00	 7.407407e-02	 9.842302e+00
0	 8.962963e+00	 1.481481e-01	 9.842536e+00
0	 8.962963e+00	 2.222222e-01	 9.842927e+00
0	 8.962963e+00	 2.962963e-01	 9.843474e+00
0	 8.962963e+00	 3.703704e-01	 9.844179e+00
0	 9.037037e+00	 0.000000e+00	 9.830789e+00
0	 9.037037e+00	 7.407407e-02	 9.830870e+00
0	 9.037037e+00	 1.481481e-01	 9.831112e+00
0	 9.037037e+00	 2.222222e-01	 9.831514e+00
0	 9.037037e+00	 2.962963e-01	 9.832079e+00
0	 9.037037e+00	 3.703704e-01	 9.832805e+00
0	 9.111111e+00	 0.000000e+00	 9.819075e+00
0	 9.111111e+00	 7.407407e-02	 9.819159e+00
0	 9.111111e+00	 1.481481e-01	 9.819408e+00
0	 9.111111e+00	 2.222222e-01	 9.819825e+00
0	 9.111111e+00	 2.962963e-01	 9.820408e+00
0	 9.111111e+00	 3.703704e-01	 9.821158e+00
0	 9.185185e+00	 0.000000e+00	 9.807058e+00
0	 9.185185e+00	 7.407407e-02	 9.807145e+00
0	 9.185185e+00	 1.481481e-01	 9.807404e+00
0	 9.185185e+00	 2.222222e-01	 9.807835e+00
0	 9.185185e+00	 2.962963e-01	 9.808439e+00
0	 9.185185e+00	 3.703704e-01	 9.809216e+00
0	 9.259259e+00	 0.000000e+00	 9.794715e+00
0	 9.259259e+00	 7.407407e-02	 9.794805e+00
0	 9.259259e+00	 1.481481e-01	 9.795074e+00
0	 9.259259e+00	 2.222222e-01	 9.795522e+00
0	 9.259259e+00	 2.962963e-01	 9.796150e+00
0	 9.259259e+00	 3.703704e-01	 9.796957e+00
0	 8.888889e+00	 3.703704e-01	 9.855304e+00
0	 8.888889e+00	 4.444444e-01	 9.856136e+00
0	 8.888889e+00	 5.185185e-01	 9.857110e+00
0	 8.888889e+00	 5.925926e-01	 9.858228e+00
0	 8.888889e+00	 6.666667e-01	 9.859489e+00
0	 8.888889e+00	 7.407407e-01	 9.860896e+00
0	 8.962963e+00	 3.703704e-01	 9.844179e+00
0	 8.962963e+00	 4.444444e-01	 9.845035e+00
0	 8.962963e+00	 5.185185e-01	 9.846037e+00
0	 8.962963e+00	 5.925926e-01	 9.847186e+00
0	 8.962963e+00	 6.666667e-01	 9.848483e+00
0	 8.962963e+00	 7.407407e-01	 9.849930e+00
0	 9.037037e+00	 3.703704e-01	 9.832805e+00
0	 9.037037e+00	 4.444444e-01	 9.833687e+00
0	 9.037037e+00	 5.185185e-01	 9.834720e+00
0	 9.037037e+00	 5.925926e-01	 9.835904e+00
0	 9.037037e+00	 6.666667e-01	 9.837242e+00
0	 9.037037e+00	 7.407407e-01	 9.838734e+00
0	 9.111111e+00	 3.703704e-01	 9.821158e+00
0	 9.111111e+00	 4.444444e-01	 9.822070e+00
0	 9.111111e+00	 5.185185e-01	 9.823137e+00
0	 9.111111e+00	 5.925926e-01	 9.824362e+00
0	 9.111111e+00	 6.666667e-01	 9.825745e+00
0	 9.111111e+00	 7.407407e-01	 9.827287e+00
0	 9.185185e+00	 3.703704e-01	 9.809216e+00
0	 9.185185e+00	 4.444444e-01	 9.810161e+00
0	 9.185185e+00	 5.185185e-01	 9.811267e+00
0	 9.185185e+00	 5.925926e-01	 9.812537e+00
0	 9.185185e+00	 6.666667e-01	 9.813970e+00
0	 9.185185e+00	 7.407407e-01	 9.815569e+00
0	 9.259259e+00	 3.703704e-01	 9.796957e+00
0	 9.259259e+00	 4.444444e-01	 9.797938e+00
0	 9.259259e+00	 5.185185e-01	 9.799088e+00
0	 9.259259e+00	 5.925926e-01	 9.800407e+00
0	 9.259259e+00	 6.666667e-01	 9.801896e+00
0	 9.259259e+00	 7.407407e-01	 9.803557e+00
0	 8.888889e+00	 7.407407e-01	 9.860896e+00
0	 8.888889e+00	 8.148148e-01	 9.862437e+00
0	 8.888889e+00	 8.888889e-01	 9.864102e+00
0	 8.888889e+00	 9.629630e-01	 9.865891e+00
0	 8.888889e+00	 1.037037e+00	 9.867808e+00
0	 8.888889e+00	 1.111111e+00	 9.869854e+00
0	 8.962963e+00	 7.407407e-01	 9.849930e+00
0	 8.962963e+00	 8.148148e-01	 9.851515e+00
0	 8.962963e+00	 8.888889e-01	 9.853228e+00
0	 8.962963e+00	 9.629630e-01	 9.855070e+00
0	 8.962963e+00	 1.037037e+00	 9.857043e+00
0	 8.962963e+00	 1.111111e+00	 9.859150e+00
0	 9.037037e+00	 7.407407e-01	 9.838734e+00
0	 9.037037e+00	 8.148148e-01	 9.840369e+00
0	 9.037037e+00	 8.888889e-01	 9.842136e+00
0	 9.037037e+00	 9.629630e-01	 9.844037e+00
0	 9.037037e+00	 1.037037e+00	 9.846073e+00
0	 9.037037e+00	 1.111111e+00	 9.848248e+00
0	 9.111111e+00	 7.407407e-01	 9.827287e+00
0	 9.111111e+00	 8.148148e-01	 9.828977e+00
0	 9.111111e+00	 8.888889e-01	 9.830805e+00
0	 9.111111e+00	 9.629630e-01	 9.832772e+00
0	 9.111111e+00	 1.037037e+00	 9.834879e+00
0	 9.111111e+00	 1.111111e+00	 9.837129e+00
0	 9.185185e+00	 7.407407e-01	 9.815569e+00
0	 9.185185e+00	 8.148148e-01	 9.817321e+00
0	 9.185185e+00	 8.888889e-01	 9.819216e+00
0	 9.185185e+00	 9.629630e-01	 9.821255e+00
0	 9.185185e+00	 1.037037e+00	 9.823441e+00
0	 9.185185e+00	 1.111111e+00	 9.825774e+00
0	 9.259259e+00	 7.407407e-01	 9.803557e+00
0	 9.259259e+00	 8.148148e-01	 9.805378e+00
0	 9.259259e+00	 8.888889e-01	 9.807347e+00
0	 9.259259e+00	 9.629630e-01	 9.809467e+00
0	 9.259259e+00	 1.037037e+00	 9.811740e+00
0	 9.259259e+00	 1.111111e+00	 9.814165e+00
0	 8.888889e+00	 1.111111e+00	 9.869854e+00
0	 8.888889e+00	 1.185185e+00	 9.872014e+00
0	 8.888889e+00	 1.259259e+00	 9.874273e+00
0	 8.888889e+00	 1.333333e+00	 9.876633e+00
0	 8.888889e+00	 1.407407e+00	 9.879097e+00
0	 8.888889e+00	 1.481481e+00	 9.881667e+00
0	 8.962963e+00	 1.111111e+00	 9.859150e+00
0	 8.962963e+00	 1.185185e+00	 9.861374e+00
0	 8.962963e+00	 1.259259e+00	 9.863702e+00
0	 8.962963e+00	 1.333333e+00	 9.866135e+00
0	 8.962963e+00	 1.407407e+00	 9.868675e+00
0	 8.962963e+00	 1.481481e+00	 9.871326e+00
0	 9.037037e+00	 1.111111e+00	 9.848248e+00
0	 9.037037e+00	 1.185185e+00	 9.850544e+00
0	 9.037037e+00	 1.259259e+00	 9.852948e+00
0	 9.037037e+00	 1.333333e+00	 9.855462e+00
0	 9.037037e+00	 1.407407e+00	 9.858087e+00
0	 9.037037e+00	 1.481481e+00	 9.860827e+00
0	 9.111111e+00	 1.111111e+00	 9.837129e+00
0	 9.111111e+00	 1.185185e+00	 9.839506e+00
0	 9.111111e+00	 1.259259e+00	 9.841994e+00
0	 9.111111e+00	 1.333333e+00	 9.844597e+00
0	 9.111111e+00	 1.407407e+00	 9.847317e+00
0	 9.111111e+00	 1.481481e+00	 9.850155e+00
0	 9.185185e+00	 1.111111e+00	 9.825774e+00
0	 9.185185e+00	 1.185185e+00	 9.828240e+00
0	 9.185185e+00	 1.259259e+00	 9.830823e+00
0	 9.185185e+00	 1.333333e+00	 9.833524e+00
0	 9.185185e+00	 1.407407e+00	 9.836347e+00
0	 9.185185e+00	 1.481481e+00	 9.839294e+00
0	 9.259259e+00	 1.111111e+00	 9.814165e+00
0	 9.259259e+00	 1.185185e+00	 9.816729e+00
0	 9.259259e+00	 1.259259e+00	 9.819415e+00
0	 9.259259e+00	 1.333333e+00	 9.822226e+00
0	 9.259259e+00	 1.407407e+00	 9.825163e+00
0	 9.259259e+00	 1.481481e+00	 9.828228e+00
0	 8.888889e+00	 1.481481e+00	 9.881667e+00
0	 8.888889e+00	 1.555556e+00	 9.884326e+00
0	 8.888889e+00	 1.629630e+00	 9.887054e+00
0	 8.888889e+00	 1.703704e+00	 9.889856e+00
0	 8.888889e+00	 1.777778e+00	 9.892733e+00
0	 8.888889e+00	 1.851852e+00	 9.895689e+00
0	 8.962963e+00	 1.481481e+00	 9.871326e+00
0	 8.962963e+00	 1.555556e+00	 9.874068e+00
0	 8.962963e+00	 1.629630e+00	 9.876885e+00
0	 8.962963e+00	 1.703704e+00	 9.879778e+00
0	 8.962963e+00	 1.777778e+00	 9.882750e+00
0	 8.962963e+00	 1.851852e+00	 9.885804e+00
0	 9.037037e+00	 1.481481e+00	 9.860827e+00
0	 9.037037e+00	 1.555556e+00	 9.863662e+00
0	 9.037037e+00	 1.629630e+00	 9.866575e+00
0	 9.037037e+00	 1.703704e+00	 9.869569e+00
0	 9.037037e+00	 1.777778e+00	 9.872646e+00
0	 9.037037e+00	 1.851852e+00	 9.875808e+00
0	 9.111111e+00	 1.481481e+00	 9.850155e+00
0	 9.111111e+00	 1.555556e+00	 9.853093e+00
0	 9.111111e+00	 1.629630e+00	 9.856113e+00
0	 9.111111e+00	 1.703704e+00	 9.859217e+00
0	 9.111111e+00	 1.777778e+00	 9.862409e+00
0	 9.111111e+00	 1.851852e+00	 9.865690e+00
0	 9.185185e+00	 1.481481e+00	 9.839294e+00
0	 9.185185e+00	 1.555556e+00	 9.842345e+00
0	 9.185185e+00	 1.629630e+00	 9.845482e+00
0	 9.185185e+00	 1.703704e+00	 9.848708e+00
0	 9.185185e+00	 1.777778e+00	 9.852026e+00
0	 9.185185e+00	 1.851852e+00	 9.855436e+00
0	 9.259259e+00	 1.481481e+00	 9.828228e+00
0	 9.259259e+00	 1.555556e+00	 9.831403e+00
0	 9.259259e+00	 1.629630e+00	 9.834669e+00
0	 9.259259e+00	 1.703704e+00	 9.838029e+00
0	 9.259259e+00	 1.777778e+00	 9.841483e+00
0	 9.259259e+00	 1.851852e+00	 9.845036e+00
0	 8.888889e+00	 1.851852e+00	 9.895689e+00
0	 8.888889e+00	 1.925926e+00	 9.898703e+00
0	 8.888889e+00	 2.000000e+00	 9.901758e+00
0	 8.888889e+00	 2.074074e+00	 9.904855e+00
0	 8.888889e+00	 2.148148e+00	 9.907997e+00
0	 8.888889e+00	 2.222222e+00	 9.911187e+00
0	 8.962963e+00	 1.851852e+00	 9.885804e+00
0	 8.962963e+00	 1.925926e+00	 9.888921e+00
0	 8.962963e+00	 2.000000e+00	 9.892080e+00
0	 8.962963e+00	 2.074074e+00	 9.895286e+00
0	 8.962963e+00	 2.148148e+00	 9.898540e+00
0	 8.962963e+00	 2.222222e+00	 9.901845e+00
0	 9.037037e+00	 1.851852e+00	 9.875808e+00
0	 9.037037e+00	 1.925926e+00	 9.879037e+00
0	 9.037037e+00	 2.000000e+00	 9.882312e+00
0	 9.037037e+00	 2.074074e+00	 9.885636e+00
0	 9.037037e+00	 2.148148e+00	 9.889011e+00
0	 9.037037e+00	 2.222222e+00	 9.892441e+00
0	 9.111111e+00	 1.851852e+00	 9.865690e+00
0	 9.111111e+00	 1.925926e+00	 9.869040e+00
0	 9.111111e+00	 2.000000e+00	 9.872441e+00
0	 9.111111e+00	 2.074074e+00	 9.875894e+00
0	 9.111111e+00	 2.148148e+00	 9.879402e+00
0	 9.111111e+00	 2.222222e+00	 9.882967e+00
0	 9.185185e+00	 1.851852e+00	 9.855436e+00
0	 9.185185e+00	 1.925926e+00	 9.858920e+00
0	 9.185185e+00	 2.000000e+00	 9.862458e+00
0	 9.185185e+00	 2.074074e+00	 9.866051e+00
0	 9.185185e+00	 2.148148e+00	 9.869703e+00
0	 9.185185e+00	 2.222222e+00	 9.873414e+00
0	 9.259259e+00	 1.851852e+00	 9.845036e+00
0	 9.259259e+00	 1.925926e+00	 9.848665e+00
0	 9.259259e+00	 2.000000e+00	 9.852352e+00
0	 9.259259e+00	 2.074074e+00	 9.856098e+00
0	 9.259259e+00	 2.148148e+00	 9.859905e+00
0	 9.259259e+00	 2.222222e+00	 9.863776e+00
0	 8.888889e+00	 2.222222e+00	 9.911187e+00
0	 8.888889e+00	 2.296296e+00	 9.914406e+00
0	 8.888889e+00	 2.370370e+00	 9.917635e+00
0	 8.888889e+00	 2.444444e+00	 9.920877e+00
0	 8.888889e+00	 2.518519e+00	 9.924133e+00
0	 8.888889e+00	 2.592593e+00	 9.927407e+00
0	 8.962963e+00	 2.222222e+00	 9.901845e+00
0	 8.962963e+00	 2.296296e+00	 9.905182e+00
0	 8.962963e+00	 2.370370e+00	 9.908531e+00
0	 8.962963e+00	 2.444444e+00	 9.911896e+00
0	 8.962963e+00	 2.518519e+00	 9.915278e+00
0	 8.962963e+00	 2.592593e+00	 9.918680e+00
0	 9.037037e+00	 2.222222e+00	 9.892441e+00
0	 9.037037e+00	 2.296296e+00	 9.895905e+00
0	 9.037037e+00	 2.370370e+00	 9.899385e+00
0	 9.037037e+00	 2.444444e+00	 9.902882e+00
0	 9.037037e+00	 2.518519e+00	 9.906400e+00
0	 9.037037e+00	 2.592593e+00	 9.909939e+00
0	 9.111111e+00	 2.222222e+00	 9.882967e+00
0	 9.111111e+00	 2.296296e+00	 9.886569e+00
0	 9.111111e+00	 2.370370e+00	 9.890190e+00
0	 9.111111e+00	 2.444444e+00	 9.893830e+00
0	 9.111111e+00	 2.518519e+00	 9.897493e+00
0	 9.111111e+00	 2.592593e+00	 9.901181e+00
0	 9.185185e+00	 2.222222e+00	 9.873414e+00
0	 9.185185e+00	 2.296296e+00	 9.877166e+00
0	 9.185185e+00	 2.370370e+00	 9.880939e+00
0	 9.185185e+00	 2.444444e+00	 9.884734e+00
0	 9.185185e+00	 2.518519e+00	 9.888554e+00
0	 9.185185e+00	 2.592593e+00	 9.892400e+00
0	 9.259259e+00	 2.222222e+00	 9.863776e+00
0	 9.259259e+00	 2.296296e+00	 9.867690e+00
0	 9.259259e+00	 2.370370e+00	 9.871627e+00
0	 9.259259e+00	 2.444444e+00	 9.875588e+00
0	 9.259259e+00	 2.518519e+00	 9.879577e+00
0	 9.259259e+00	 2.592593e+00	 9.883594e+00
0	 8.888889e+00	 2.592593e+00	 9.927407e+00
0	 8.888889e+00	 2.666667e+00	 9.930680e+00
0	 8.888889e+00	 2.740741e+00	 9.933936e+00
0	 8.888889e+00	 2.814815e+00	 9.937176e+00
0	 8.888889e+00	 2.888889e+00	 9.940403e+00
0	 8.888889e+00	 2.962963e+00	 9.943619e+00
0	 8.962963e+00	 2.592593e+00	 9.918680e+00
0	 8.962963e+00	 2.666667e+00	 9.922084e+00
0	 8.962963e+00	 2.740741e+00	 9.925472e+00
0	 8.962963e+00	 2.814815e+00	 9.928847e+00
0	 8.962963e+00	 2.888889e+00	 9.932210e+00
0	 8.962963e+00	 2.962963e+00	 9.935564e+00
0	 9.037037e+00	 2.592593e+00	 9.909939e+00
0	 9.037037e+00	 2.666667e+00	 9.913483e+00
0	 9.037037e+00	 2.740741e+00	 9.917013e+00
0	 9.037037e+00	 2.814815e+00	 9.920531e+00
0	 9.037037e+00	 2.888889e+00	 9.924039e+00
0	 9.037037e+00	 2.962963e+00	 9.927540e+00
0	 9.111111e+00	 2.592593e+00	 9.901181e+00
0	 9.111111e+00	 2.666667e+00	 9.904874e+00
0	 9.111111e+00	 2.740741e+00	 9.908556e+00
0	 9.111111e+00	 2.814815e+00	 9.912227e+00
0	 9.111111e+00	 2.888889e+00	 9.915890e+00
0	 9.111111e+00	 2.962963e+00	 9.919546e+00
0	 9.185185e+00	 2.592593e+00	 9.892400e+00
0	 9.185185e+00	 2.666667e+00	 9.896255e+00
0	 9.185185e+00	 2.740741e+00	 9.900098e+00
0	 9.185185e+00	 2.814815e+00	 9.903933e+00
0	 9.185185e+00	 2.888889e+00	 9.907761e+00
0	 9.185185e+00	 2.962963e+00	 9.911583e+00
0	 9.259259e+00	 2.592593e+00	 9.883594e+00
0	 9.259259e+00	 2.666667e+00	 9.887621e+00
0	 9.259259e+00	 2.740741e+00	 9.891639e+00
0	 9.259259e+00	 2.814815e+00	 9.895648e+00
0	 9.259259e+00	 2.888889e+00	 9.899652e+00
0	 9.259259e+00	 2.962963e+00	 9.903651e+00
0	 8.888889e+00	 2.962963e+00	 9.943619e+00
0	 8.888889e+00	 3.037037e+00	 9.946808e+00
0	 8.888889e+00	 3.111111e+00	 9.949955e+00
0	 8.888889e+00	 3.185185e+00	 9.953063e+00
0	 8.888889e+00	 3.259259e+00	 9.956133e+00
0	 8.888889e+00	 3.333333e+00	 9.959166e+00
0	 8.962963e+00	 2.962963e+00	 9.935564e+00
0	 8.962963e+00	 3.037037e+00	 9.938893e+00
0	 8.962963e+00	 3.111111e+00	 9.942181e+00
0	 8.962963e+00	 3.185185e+00	 9.945431e+00
0	 8.962963e+00	 3.259259e+00	 9.948644e+00
0	 8.962963e+00	 3.333333e+00	 9.951821e+00
0	 9.037037e+00	 2.962963e+00	 9.927540e+00
0	 9.037037e+00	 3.037037e+00	 9.931016e+00
0	 9.037037e+00	 3.111111e+00	 9.934454e+00
0	 9.037037e+00	 3.185185e+00	 9.937853e+00
0	 9.037037e+00	 3.259259e+00	 9.941217e+00
0	 9.037037e+00	 3.333333e+00	 9.944546e+00
0	 9.111111e+00	 2.962963e+00	 9.919546e+00
0	 9.111111e+00	 3.037037e+00	 9.923180e+00
0	 9.111111e+00	 3.111111e+00	 9.926775e+00
0	 9.111111e+00	 3.185185e+00	 9.930333e+00
0	 9.111111e+00	 3.259259e+00	 9.933855e+00
0	 9.111111e+00	 3.333333e+00	 9.937343e+00
0	 9.185185e+00	 2.962963e+00	 9.911583e+00
0	 9.185185e+00	 3.037037e+00	 9.915384e+00
0	 9.185185e+00	 3.111111e+00	 9.919146e+00
0	 9.185185e+00	 3.185185e+00	 9.922871e+00
0	 9.185185e+00	 3.259259e+00	 9.926561e+00
0	 9.185185e+00	 3.333333e+00	 9.930217e+00
0	 9.259259e+00	 2.962963e+00	 9.903651e+00
0	 9.259259e+00	 3.037037e+00	 9.907629e+00
0	 9.259259e+00	 3.111111e+00	 9.911569e+00
0	 9.259259e+00	 3.185185e+00	 9.915471e+00
0	 9.259259e+00	 3.259259e+00	 9.919338e+00
0	 9.259259e+00	 3.333333e+00	 9.923171e+00
0	 8.888889e+00	 3.333333e+00	 9.959166e+00
0	 8.888889e+00	 3.407407e+00	 9.962151e+00
0	 8.888889e+00	 3.481481e+00	 9.965075e+00
0	 8.888889e+00	 3.555556e+00	 9.967940e+00
0	 8.888889e+00	 3.629630e+00	 9.970747e+00
0	 8.888889e+00	 3.703704e+00	 9.973497e+00
0	 8.962963e+00	 3.333333e+00	 9.951821e+00
0	 8.962963e+00	 3.407407e+00	 9.954951e+00
0	 8.962963e+00	 3.481481e+00	 9.958021e+00
0	 8.962963e+00	 3.555556e+00	 9.961031e+00
0	 8.962963e+00	 3.629630e+00	 9.963984e+00
0	 8.962963e+00	 3.703704e+00	 9.966880e+00
0	 9.037037e+00	 3.333333e+00	 9.944546e+00
0	 9.037037e+00	 3.407407e+00	 9.947827e+00
0	 9.037037e+00	 3.481481e+00	 9.951049e+00
0	 9.037037e+00	 3.555556e+00	 9.954211e+00
0	 9.037037e+00	 3.629630e+00	 9.957316e+00
0	 9.037037e+00	 3.703704e+00	 9.960364e+00
0	 9.111111e+00	 3.333333e+00	 9.937343e+00
0	 9.111111e+00	 3.407407e+00	 9.940784e+00
0	 9.111111e+00	 3.481481e+00	 9.944165e+00
0	 9.111111e+00	 3.555556e+00	 9.947486e+00
0	 9.111111e+00	 3.629630e+00	 9.950749e+00
0	 9.111111e+00	 3.703704e+00	 9.953955e+00
0	 9.185185e+00	 3.333333e+00	 9.930217e+00
0	 9.185185e+00	 3.407407e+00	 9.933826e+00
0	 9.185185e+00	 3.481481e+00	 9.937373e+00
0	 9.185185e+00	 3.555556e+00	 9.940860e+00
0	 9.185185e+00	 3.629630e+00	 9.944289e+00
0	 9.185185e+00	 3.703704e+00	 9.947659e+00
0	 9.259259e+00	 3.333333e+00	 9.923171e+00
0	 9.259259e+00	 3.407407e+00	 9.926957e+00
0	 9.259259e+00	 3.481481e+00	 9.930679e+00
0	 9.259259e+00	 3.555556e+00	 9.934341e+00
0	 9.259259e+00	 3.629630e+00	 9.937942e+00
0	 9.259259e+00	 3.703704e+00	 9.941485e+00
0	 8.888889e+00	 3.703704e+00	 9.973497e+00
0	 8.888889e+00	 3.777778e+00	 9.976181e+00
0	 8.888889e+00	 3.851852e+00	 9.978792e+00
0	 8.888889e+00	 3.925926e+00	 9.981329e+00
0	 8.888889e+00	 4.000000e+00	 9.983793e+00
0	 8.888889e+00	 4.074074e+00	 9.986185e+00
0	 8.962963e+00	 3.703704e+00	 9.966880e+00
0	 8.962963e+00	 3.777778e+00	 9.969711e+00
0	 8.962963e+00	 3.851852e+00	 9.972467e+00
0	 8.962963e+00	 3.925926e+00	 9.975149e+00
0	 8.962963e+00	 4.000000e+00	 9.977757e+00
0	 8.962963e+00	 4.074074e+00	 9.980293e+00
0	 9.037037e+00	 3.703704e+00	 9.960364e+00
0	 9.037037e+00	 3.777778e+00	 9.963346e+00
0	 9.037037e+00	 3.851852e+00	 9.966252e+00
0	 9.037037e+00	 3.925926e+00	 9.969084e+00
0	 9.037037e+00	 4.000000e+00	 9.971841e+00
0	 9.037037e+00	 4.074074e+00	 9.974525e+00
0	 9.111111e+00	 3.703704e+00	 9.953955e+00
0	 9.111111e+00	 3.777778e+00	 9.957094e+00
0	 9.111111e+00	 3.851852e+00	 9.960156e+00
0	 9.111111e+00	 3.925926e+00	 9.963142e+00
0	 9.111111e+00	 4.000000e+00	 9.966053e+00
0	 9.111111e+00	 4.074074e+00	 9.968890e+00
0	 9.185185e+00	 3.703704e+00	 9.947659e+00
0	 9.185185e+00	 3.777778e+00	 9.950962e+00
0	 9.185185e+00	 3.851852e+00	 9.954186e+00
0	 9.185185e+00	 3.925926e+00	 9.957333e+00
0	 9.185185e+00	 4.000000e+00	 9.960403e+00
0	 9.185185e+00	 4.074074e+00	 9.963396e+00
0	 9.259259e+00	 3.703704e+00	 9.941485e+00
0	 9.259259e+00	 3.777778e+00	 9.944958e+00
0	 9.259259e+00	 3.851852e+00	 9.948351e+00
0	 9.259259e+00	 3.925926e+00	 9.951664e+00
0	 9.259259e+00	 4.000000e+00	 9.954898e+00
0	 9.259259e+00	 4.074074e+00	 9.958054e+00
0	 8.888889e+00	 4.074074e+00	 9.986185e+00
0	 8.888889e+00	 4.148148e+00	 9.988499e+00
0	 8.888889e+00	 4.222222e+00	 9.990732e+00
0	 8.888889e+00	 4.296296e+00	 9.992882e+00
0	 8.888889e+00	 4.370370e+00	 9.994950e+00
0	 8.888889e+00	 4.444444e+00	 9.996936e+00
0	 8.962963e+00	 4.074074e+00	 9.980293e+00
0	 8.962963e+00	 4.148148e+00	 9.982751e+00
0	 8.962963e+00	 4.222222e+00	 9.985126e+00
0	 8.962963e+00	 4.296296e+00	 9.987416e+00
0	 8.962963e+00	 4.370370e+00	 9.989624e+00
0	 8.962963e+00	 4.444444e+00	 9.991749e+00
0	 9.037037e+00	 4.074074e+00	 9.974525e+00
0	 9.037037e+00	 4.148148e+00	 9.977130e+00
0	 9.037037e+00	 4.222222e+00	 9.979650e+00
0	 9.037037e+00	 4.296296e+00	 9.982084e+00
0	 9.037037e+00	 4.370370e+00	 9.984434e+00
0	 9.037037e+00	 4.444444e+00	 9.986699e+00
0	 9.111111e+00	 4.074074e+00	 9.968890e+00
0	 9.111111e+00	 4.148148e+00	 9.971646e+00
0	 9.111111e+00	 4.222222e+00	 9.974314e+00
0	 9.111111e+00	 4.296296e+00	 9.976895e+00
0	 9.111111e+00	 4.370370e+00	 9.979390e+00
0	 9.111111e+00	 4.444444e+00	 9.981799e+00
0	 9.185185e+00	 4.074074e+00	 9.963396e+00
0	 9.185185e+00	 4.148148e+00	 9.966307e+00
0	 9.185185e+00	 4.222222e+00	 9.969128e+00
0	 9.185185e+00	 4.296296e+00	 9.971860e+00
0	 9.185185e+00	 4.370370e+00	 9.974503e+00
0	 9.185185e+00	 4.444444e+00	 9.977057e+00
0	 9.259259e+00	 4.074074e+00	 9.958054e+00
0	 9.259259e+00	 4.148148e+00	 9.961124e+00
0	 9.259259e+00	 4.222222e+00	 9.964102e+00
0	 9.259259e+00	 4.296296e+00	 9.966989e+00
0	 9.259259e+00	 4.370370e+00	 9.969783e+00
0	 9.259259e+00	 4.444444e+00	 9.972486e+00
0	 8.888889e+00	 4.444444e+00	 9.996936e+00
0	 8.888889e+00	 4.518519e+00	 9.998838e+00
0	 8.888889e+00	 4.592593e+00	 1.000065e+01
0	 8.888889e+00	 4.666667e+00	 1.000239e+01
0	 8.888889e+00	 4.740741e+00	 1.000403e+01
0	 8.888889e+00	 4.814815e+00	 1.000559e+01
0	 8.962963e+00	 4.444444e+00	 9.991749e+00
0	 8.962963e+00	 4.518519e+00	 9.993788e+00
0	 8.962963e+00	 4.592593e+00	 9.995740e+00
0	 8.962963e+00	 4.666667e+00	 9.997604e+00
0	 8.962963e+00	 4.740741e+00	 9.999380e+00
0	 8.962963e+00	 4.814815e+00	 1.000107e+01
0	 9.037037e+00	 4.444444e+00	 9.986699e+00
0	 9.037037e+00	 4.518519e+00	 9.988878e+00
0	 9.037037e+00	 4.592593e+00	 9.990966e+00
0	 9.037037e+00	 4.666667e+00	 9.992965e+00
0	 9.037037e+00	 4.740741e+00	 9.994874e+00
0	 9.037037e+00	 4.814815e+00	 9.996693e+00
0	 9.111111e+00	 4.444444e+00	 9.981799e+00
0	 9.111111e+00	 4.518519e+00	 9.984118e+00
0	 9.111111e+00	 4.592593e+00	 9.986345e+00
0	 9.111111e+00	 4.666667e+00	 9.988480e+00
0	 9.111111e+00	 4.740741e+00	 9.990522e+00
0	 9.111111e+00	 4.814815e+00	 9.992472e+00
0	 9.185185e+00	 4.444444e+00	 9.977057e+00
0	 9.185185e+00	 4.518519e+00	 9.979520e+00
0	 9.185185e+00	 4.592593e+00	 9.981887e+00
0	 9.185185e+00	 4.666667e+00	 9.984160e+00
0	 9.185185e+00	 4.740741e+00	 9.986337e+00
0	 9.185185e+00	 4.814815e+00	 9.988419e+00
0	 9.259259e+00	 4.444444e+00	 9.972486e+00
0	 9.259259e+00	 4.518519e+00	 9.975095e+00
0	 9.259259e+00	 4.592593e+00	 9.977605e+00
0	 9.259259e+00	 4.666667e+00	 9.980016e+00
0	 9.259259e+00	 4.740741e+00	 9.982329e+00
0	 9.259259e+00	 4.814815e+00	 9.984544e+00
0	 8.888889e+00	 4.814815e+00	 1.000559e+01
0	 8.888889e+00	 4.888889e+00	 1.000706e+01
0	 8.888889e+00	 4.962963e+00	 1.000845e+01
0	 8.888889e+00	 5.037037e+00	 1.000975e+01
0	 8.888889e+00	 5.111111e+00	 1.001097e+01
0	 8.888889e+00	 5.185185e+00	 1.001210e+01
0	 8.962963e+00	 4.814815e+00	 1.000107e+01
0	 8.962963e+00	 4.888889e+00	 1.000267e+01
0	 8.962963e+00	 4.962963e+00	 1.000418e+01
0	 8.962963e+00	 5.037037e+00	 1.000561e+01
0	 8.962963e+00	 5.111111e+00	 1.000695e+01
0	 8.962963e+00	 5.185185e+00	 1.000820e+01
0	 9.037037e+00	 4.814815e+00	 9.996693e+00
0	 9.037037e+00	 4.888889e+00	 9.998422e+00
0	 9.037037e+00	 4.962963e+00	 1.000006e+01
0	 9.037037e+00	 5.037037e+00	 1.000161e+01
0	 9.037037e+00	 5.111111e+00	 1.000307e+01
0	 9.037037e+00	 5.185185e+00	 1.000444e+01
0	 9.111111e+00	 4.814815e+00	 9.992472e+00
0	 9.111111e+00	 4.888889e+00	 9.994330e+00
0	 9.111111e+00	 4.962963e+00	 9.996095e+00
0	 9.111111e+00	 5.037037e+00	 9.997769e+00
0	 9.111111e+00	 5.111111e+00	 9.999349e+00
0	 9.111111e+00	 5.185185e+00	 1.000084e+01
0	 9.185185e+00	 4.814815e+00	 9.988419e+00
0	 9.185185e+00	 4.888889e+00	 9.990405e+00
0	 9.185185e+00	 4.962963e+00	 9.992297e+00
0	 9.185185e+00	 5.037037e+00	 9.994093e+00
0	 9.185185e+00	 5.111111e+00	 9.995793e+00
0	 9.185185e+00	 5.185185e+00	 9.997396e+00
0	 9.259259e+00	 4.814815e+00	 9.984544e+00
0	 9.259259e+00	 4.888889e+00	 9.986660e+00
0	 9.259259e+00	 4.962963e+00	 9.988678e+00
0	 9.259259e+00	 5.037037e+00	 9.990596e+00
0	 9.259259e+00	 5.111111e+00	 9.992415e+00
0	 9.259259e+00	 5.185185e+00	 9.994134e+00
0	 8.888889e+00	 5.185185e+00	 1.001210e+01
0	 8.888889e+00	 5.259259e+00	 1.001315e+01
0	 8.888889e+00	 5.333333e+00	 1.001412e+01
0	 8.888889e+00	 5.407407e+00	 1.001501e+01
0	 8.888889e+00	 5.481481e+00	 1.001582e+01
0	 8.888889e+00	 5.555556e+00	 1.001655e+01
0	 8.962963e+00	 5.185185e+00	 1.000820e+01
0	 8.962963e+00	 5.259259e+00	 1.000937e+01
0	 8.962963e+00	 5.333333e+00	 1.001045e+01
0	 8.962963e+00	 5.407407e+00	 1.001145e+01
0	 8.962963e+00	 5.481481e+00	 1.001237e+01
0	 8.962963e+00	 5.555556e+00	 1.001321e+01
0	 9.037037e+00	 5.185185e+00	 1.000444e+01
0	 9.037037e+00	 5.259259e+00	 1.000572e+01
0	 9.037037e+00	 5.333333e+00	 1.000692e+01
0	 9.037037e+00	 5.407407e+00	 1.000803e+01
0	 9.037037e+00	 5.481481e+00	 1.000906e+01
0	 9.037037e+00	 5.555556e+00	 1.001000e+01
0	 9.111111e+00	 5.185185e+00	 1.000084e+01
0	 9.111111e+00	 5.259259e+00	 1.000223e+01
0	 9.111111e+00	 5.333333e+00	 1.000354e+01
0	 9.111111e+00	 5.407407e+00	 1.000476e+01
0	 9.111111e+00	 5.481481e+00	 1.000590e+01
0	 9.111111e+00	 5.555556e+00	 1.000694e+01
0	 9.185185e+00	 5.185185e+00	 9.997396e+00
0	 9.185185e+00	 5.259259e+00	 9.998907e+00
0	 9.185185e+00	 5.333333e+00	 1.000033e+01
0	 9.185185e+00	 5.407407e+00	 1.000165e+01
0	 9.185185e+00	 5.481481e+00	 1.000289e+01
0	 9.185185e+00	 5.555556e+00	 1.000403e+01
0	 9.259259e+00	 5.185185e+00	 9.994134e+00
0	 9.259259e+00	 5.259259e+00	 9.995757e+00
0	 9.259259e+00	 5.333333e+00	 9.997285e+00
0	 9.259259e+00	 5.407407e+00	 9.998718e+00
0	 9.259259e+00	 5.481481e+00	 1.000006e+01
0	 9.259259e+00	 5.555556e+00	 1.000130e+01
0	 8.888889e+00	 5.555556e+00	 1.001655e+01
0	 8.888889e+00	 5.629630e+00	 1.001720e+01
0	 8.888889e+00	 5.703704e+00	 1.001778e+01
0	 8.888889e+00	 5.777778e+00	 1.001828e+01
0	 8.888889e+00	 5.851852e+00	 1.001872e+01
0	 8.888889e+00	 5.925926e+00	 1.001908e+01
0	 8.962963e+00	 5.555556e+00	 1.001321e+01
0	 8.962963e+00	 5.629630e+00	 1.001396e+01
0	 8.962963e+00	 5.703704e+00	 1.001464e+01
0	 8.962963e+00	 5.777778e+00	 1.001525e+01
0	 8.962963e+00	 5.851852e+00	 1.001578e+01
0	 8.962963e+00	 5.925926e+00	 1.001624e+01
0	 9.037037e+00	 5.555556e+00	 1.001000e+01
0	 9.037037e+00	 5.629630e+00	 1.001086e+01
0	 9.037037e+00	 5.703704e+00	 1.001164e+01
0	 9.037037e+00	 5.777778e+00	 1.001235e+01
0	 9.037037e+00	 5.851852e+00	 1.001297e+01
0	 9.037037e+00	 5.925926e+00	 1.001352e+01
0	 9.111111e+00	 5.555556e+00	 1.000694e+01
0	 9.111111e+00	 5.629630e+00	 1.000790e+01
0	 9.111111e+00	 5.703704e+00	 1.000878e+01
0	 9.111111e+00	 5.777778e+00	 1.000958e+01
0	 9.111111e+00	 5.851852e+00	 1.001030e+01
0	 9.111111e+00	 5.925926e+00	 1.001093e+01
0	 9.185185e+00	 5.555556e+00	 1.000403e+01
0	 9.185185e+00	 5.629630e+00	 1.000509e+01
0	 9.185185e+00	 5.703704e+00	 1.000606e+01
0	 9.185185e+00	 5.777778e+00	 1.000696e+01
0	 9.185185e+00	 5.851852e+00	 1.000776e+01
0	 9.185185e+00	 5.925926e+00	 1.000848e+01
0	 9.259259e+00	 5.555556e+00	 1.000130e+01
0	 9.259259e+00	 5.629630e+00	 1.000245e+01
0	 9.259259e+00	 5.703704e+00	 1.000351e+01
0	 9.259259e+00	 5.777778e+00	 1.000449e+01
0	 9.259259e+00	 5.851852e+00	 1.000538e+01
0	 9.259259e+00	 5.925926e+00	 1.000619e+01
0	 8.888889e+00	 5.925926e+00	 1.001908e+01
0	 8.888889e+00	 6.000000e+00	 1.001937e+01
0	 8.888889e+00	 6.074074e+00	 1.001960e+01
0	 8.888889e+00	 6.148148e+00	 1.001977e+01
0	 8.888889e+00	 6.222222e+00	 1.001988e+01
0	 8.888889e+00	 6.296296e+00	 1.001992e+01
0	 8.962963e+00	 5.925926e+00	 1.001624e+01
0	 8.962963e+00	 6.000000e+00	 1.001662e+01
0	 8.962963e+00	 6.074074e+00	 1.001695e+01
0	 8.962963e+00	 6.148148e+00	 1.001721e+01
0	 8.962963e+00	 6.222222e+00	 1.001740e+01
0	 8.962963e+00	 6.296296e+00	 1.001753e+01
0	 9.037037e+00	 5.925926e+00	 1.001352e+01
0	 9.037037e+00	 6.000000e+00	 1.001400e+01
0	 9.037037e+00	 6.074074e+00	 1.001441e+01
0	 9.037037e+00	 6.148148e+00	 1.001475e+01
0	 9.037037e+00	 6.222222e+00	 1.001502e+01
0	 9.037037e+00	 6.296296e+00	 1.001523e+01
0	 9.111111e+00	 5.925926e+00	 1.001093e+01
0	 9.111111e+00	 6.000000e+00	 1.001149e+01
0	 9.111111e+00	 6.074074e+00	 1.001199e+01
0	 9.111111e+00	 6.148148e+00	 1.001241e+01
0	 9.111111e+00	 6.222222e+00	 1.001277e+01
0	 9.111111e+00	 6.296296e+00	 1.001305e+01
0	 9.185185e+00	 5.925926e+00	 1.000848e+01
0	 9.185185e+00	 6.000000e+00	 1.000913e+01
0	 9.185185e+00	 6.074074e+00	 1.000970e+01
0	 9.185185e+00	 6.148148e+00	 1.001020e+01
0	 9.185185e+00	 6.222222e+00	 1.001063e+01
0	 9.185185e+00	 6.296296e+00	 1.001099e+01
0	 9.259259e+00	 5.925926e+00	 1.000619e+01
0	 9.259259e+00	 6.000000e+00	 1.000691e+01
0	 9.259259e+00	 6.074074e+00	 1.000756e+01
0	 9.259259e+00	 6.148148e+00	 1.000814e+01
0	 9.259259e+00	 6.222222e+00	 1.000863e+01
0	 9.259259e+00	 6.296296e+00	 1.000906e+01
0	 8.888889e+00	 6.296296e+00	 1.001992e+01
0	 8.888889e+00	 6.370370e+00	 1.001991e+01
0	 8.888889e+00	 6.444444e+00	 1.001985e+01
0	 8.888889e+00	 6.518519e+00	 1.001974e+01
0	 8.888889e+00	 6.592593e+00	 1.001957e+01
0	 8.888889e+00	 6.666667e+00	 1.001936e+01
0	 8.962963e+00	 6.296296e+00	 1.001753e+01
0	 8.962963e+00	 6.370370e+00	 1.001759e+01
0	 8.962963e+00	 6.444444e+00	 1.001761e+01
0	 8.962963e+00	 6.518519e+00	 1.001758e+01
0	 8.962963e+00	 6.592593e+00	 1.001749e+01
0	 8.962963e+00	 6.666667e+00	 1.001735e+01
0	 9.037037e+00	 6.296296e+00	 1.001523e+01
0	 9.037037e+00	 6.370370e+00	 1.001538e+01
0	 9.037037e+00	 6.444444e+00	 1.001547e+01
0	 9.037037e+00	 6.518519e+00	 1.001551e+01
0	 9.037037e+00	 6.592593e+00	 1.001550e+01
0	 9.037037e+00	 6.666667e+00	 1.001543e+01
0	 9.111111e+00	 6.296296e+00	 1.001305e+01
0	 9.111111e+00	 6.370370e+00	 1.001327e+01
0	 9.111111e+00	 6.444444e+00	 1.001344e+01
0	 9.111111e+00	 6.518519e+00	 1.001355e+01
0	 9.111111e+00	 6.592593e+00	 1.001360e+01
0	 9.111111e+00	 6.666667e+00	 1.001359e+01
0	 9.185185e+00	 6.296296e+00	 1.001099e+01
0	 9.185185e+00	 6.370370e+00	 1.001128e+01
0	 9.185185e+00	 6.444444e+00	 1.001151e+01
0	 9.185185e+00	 6.518519e+00	 1.001169e+01
0	 9.185185e+00	 6.592593e+00	 1.001180e+01
0	 9.185185e+00	 6.666667e+00	 1.001186e+01
0	 9.259259e+00	 6.296296e+00	 1.000906e+01
0	 9.259259e+00	 6.370370e+00	 1.000941e+01
0	 9.259259e+00	 6.444444e+00	 1.000971e+01
0	 9.259259e+00	 6.518519e+00	 1.000994e+01
0	 9.259259e+00	 6.592593e+00	 1.001011e+01
0	 9.259259e+00	 6.666667e+00	 1.001022e+01
0	 8.888889e+00	 6.666667e+00	 1.001936e+01
0	 8.888889e+00	 6.740741e+00	 1.001910e+01
0	 8.888889e+00	 6.814815e+00	 1.001880e+01
0	 8.888889e+00	 6.888889e+00	 1.001847e+01
0	 8.888889e+00	 6.962963e+00	 1.001810e+01
0	 8.888889e+00	 7.037037e+00	 1.001769e+01
0	 8.962963e+00	 6.666667e+00	 1.001735e+01
0	 8.962963e+00	 6.740741e+00	 1.001716e+01
0	 8.962963e+00	 6.814815e+00	 1.001694e+01
0	 8.962963e+00	 6.888889e+00	 1.001667e+01
0	 8.962963e+00	 6.962963e+00	 1.001637e+01
0	 8.962963e+00	 7.037037e+00	 1.001603e+01
0	 9.037037e+00	 6.666667e+00	 1.001543e+01
0	 9.037037e+00	 6.740741e+00	 1.001531e+01
0	 9.037037e+00	 6.814815e+00	 1.001515e+01
0	 9.037037e+00	 6.888889e+00	 1.001495e+01
0	 9.037037e+00	 6.962963e+00	 1.001471e+01
0	 9.037037e+00	 7.037037e+00	 1.001442e+01
0	 9.111111e+00	 6.666667e+00	 1.001359e+01
0	 9.111111e+00	 6.740741e+00	 1.001354e+01
0	 9.111111e+00	 6.814815e+00	 1.001344e+01
0	 9.111111e+00	 6.888889e+00	 1.001330e+01
0	 9.111111e+00	 6.962963e+00	 1.001312e+01
0	 9.111111e+00	 7.037037e+00	 1.001289e+01
0	 9.185185e+00	 6.666667e+00	 1.001186e+01
0	 9.185185e+00	 6.740741e+00	 1.001186e+01
0	 9.185185e+00	 6.814815e+00	 1.001182e+01
0	 9.185185e+00	 6.888889e+00	 1.001173e+01
0	 9.185185e+00	 6.962963e+00	 1.001161e+01
0	 9.185185e+00	 7.037037e+00	 1.001143e+01
0	 9.259259e+00	 6.666667e+00	 1.001022e+01
0	 9.259259e+00	 6.740741e+00	 1.001028e+01
0	 9.259259e+00	 6.814815e+00	 1.001029e+01
0	 9.259259e+00	 6.888889e+00	 1.001026e+01
0	 9.259259e+00	 6.962963e+00	 1.001018e+01
0	 9.259259e+00	 7.037037e+00	 1.001005e+01
0	 8.888889e+00	 7.037037e+00	 1.001769e+01
0	 8.888889e+00	 7.111111e+00	 1.001725e+01
0	 8.888889e+00	 7.185185e+00	 1.001678e+01
0	 8.888889e+00	 7.259259e+00	 1.001630e+01
0	 8.888889e+00	 7.333333e+00	 1.001578e+01
0	 8.888889e+00	 7.407407e+00	 1.001524e+01
0	 8.962963e+00	 7.037037e+00	 1.001603e+01
0	 8.962963e+00	 7.111111e+00	 1.001565e+01
0	 8.962963e+00	 7.185185e+00	 1.001525e+01
0	 8.962963e+00	 7.259259e+00	 1.001482e+01
0	 8.962963e+00	 7.333333e+00	 1.001437e+01
0	 8.962963e+00	 7.407407e+00	 1.001389e+01
0	 9.037037e+00	 7.037037e+00	 1.001442e+01
0	 9.037037e+00	 7.111111e+00	 1.001411e+01
0	 9.037037e+00	 7.185185e+00	 1.001376e+01
0	 9.037037e+00	 7.259259e+00	 1.001340e+01
0	 9.037037e+00	 7.333333e+00	 1.001300e+01
0	 9.037037e+00	 7.407407e+00	 1.001257e+01
0	 9.111111e+00	 7.037037e+00	 1.001289e+01
0	 9.111111e+00	 7.111111e+00	 1.001263e+01
0	 9.111111e+00	 7.185185e+00	 1.001234e+01
0	 9.111111e+00	 7.259259e+00	 1.001203e+01
0	 9.111111e+00	 7.333333e+00	 1.001168e+01
0	 9.111111e+00	 7.407407e+00	 1.001131e+01
0	 9.185185e+00	 7.037037e+00	 1.001143e+01
0	 9.185185e+00	 7.111111e+00	 1.001122e+01
0	 9.185185e+00	 7.185185e+00	 1.001098e+01
0	 9.185185e+00	 7.259259e+00	 1.001071e+01
0	 9.185185e+00	 7.333333e+00	 1.001042e+01
0	 9.185185e+00	 7.407407e+00	 1.001009e+01
0	 9.259259e+00	 7.037037e+00	 1.001005e+01
0	 9.259259e+00	 7.111111e+00	 1.000988e+01
0	 9.259259e+00	 7.185185e+00	 1.000969e+01
0	 9.259259e+00	 7.259259e+00	 1.000946e+01
0	 9.259259e+00	 7.333333e+00	 1.000921e+01
0	 9.259259e+00	 7.407407e+00	 1.000892e+01
0	 8.888889e+00	 7.407407e+00	 1.001524e+01
0	 8.888889e+00	 7.481481e+00	 1.001468e+01
0	 8.888889e+00	 7.555556e+00	 1.001411e+01
0	 8.888889e+00	 7.629630e+00	 1.001353e+01
0	 8.888889e+00	 7.703704e+00	 1.001294e+01
0	 8.888889e+00	 7.777778e+00	 1.001233e+01
0	 8.962963e+00	 7.407407e+00	 1.001389e+01
0	 8.962963e+00	 7.481481e+00	 1.001338e+01
0	 8.962963e+00	 7.555556e+00	 1.001287e+01
0	 8.962963e+00	 7.629630e+00	 1.001235e+01
0	 8.962963e+00	 7.703704e+00	 1.001181e+01
0	 8.962963e+00	 7.777778e+00	 1.001126e+01
0	 9.037037e+00	 7.407407e+00	 1.001257e+01
0	 9.037037e+00	 7.481481e+00	 1.001213e+01
0	 9.037037e+00	 7.555556e+00	 1.001167e+01
0	 9.037037e+00	 7.629630e+00	 1.001119e+01
0	 9.037037e+00	 7.703704e+00	 1.001071e+01
0	 9.037037e+00	 7.777778e+00	 1.001021e+01
0	 9.111111e+00	 7.407407e+00	 1.001131e+01
0	 9.111111e+00	 7.481481e+00	 1.001091e+01
0	 9.111111e+00	 7.555556e+00	 1.001050e+01
0	 9.111111e+00	 7.629630e+00	 1.001008e+01
0	 9.111111e+00	 7.703704e+00	 1.000964e+01
0	 9.111111e+00	 7.777778e+00	 1.000918e+01
0	 9.185185e+00	 7.407407e+00	 1.001009e+01
0	 9.185185e+00	 7.481481e+00	 1.000974e+01
0	 9.185185e+00	 7.555556e+00	 1.000937e+01
0	 9.185185e+00	 7.629630e+00	 1.000899e+01
0	 9.185185e+00	 7.703704e+00	 1.000860e+01
0	 9.185185e+00	 7.777778e+00	 1.000818e+01
0	 9.259259e+00	 7.407407e+00	 1.000892e+01
0	 9.259259e+00	 7.481481e+00	 1.000861e+01
0	 9.259259e+00	 7.555556e+00	 1.000828e+01
0	 9.259259e+00	 7.629630e+00	 1.000794e+01
0	 9.259259e+00	 7.703704e+00	 1.000759e+01
0	 9.259259e+00	 7.777778e+00	 1.000721e+01
0	 8.888889e+00	 7.777778e+00	 1.001233e+01
0	 8.888889e+00	 7.851852e+00	 1.001172e+01
0	 8.888889e+00	 7.925926e+00	 1.001111e+01
0	 8.888889e+00	 8.000000e+00	 1.001050e+01
0	 8.888889e+00	 8.074074e+00	 1.000988e+01
0	 8.888889e+00	 8.148148e+00	 1.000927e+01
0	 8.962963e+00	 7.777778e+00	 1.001126e+01
0	 8.962963e+00	 7.851852e+00	 1.001070e+01
0	 8.962963e+00	 7.925926e+00	 1.001014e+01
0	 8.962963e+00	 8.000000e+00	 1.000958e+01
0	 8.962963e+00	 8.074074e+00	 1.000901e+01
0	 8.962963e+00	 8.148148e+00	 1.000845e+01
0	 9.037037e+00	 7.777778e+00	 1.001021e+01
0	 9.037037e+00	 7.851852e+00	 1.000970e+01
0	 9.037037e+00	 7.925926e+00	 1.000919e+01
0	 9.037037e+00	 8.000000e+00	 1.000867e+01
0	 9.037037e+00	 8.074074e+00	 1.000816e+01
0	 9.037037e+00	 8.148148e+00	 1.000764e+01
0	 9.111111e+00	 7.777778e+00	 1.000918e+01
0	 9.111111e+00	 7.851852e+00	 1.000872e+01
0	 9.111111e+00	 7.925926e+00	 1.000825e+01
0	 9.111111e+00	 8.000000e+00	 1.000779e+01
0	 9.111111e+00	 8.074074e+00	 1.000732e+01
0	 9.111111e+00	 8.148148e+00	 1.000685e+01
0	 9.185185e+00	 7.777778e+00	 1.000818e+01
0	 9.185185e+00	 7.851852e+00	 1.000776e+01
0	 9.185185e+00	 7.925926e+00	 1.000734e+01
0	 9.185185e+00	 8.000000e+00	 1.000692e+01
0	 9.185185e+00	 8.074074e+00	 1.000649e+01
0	 9.185185e+00	 8.148148e+00	 1.000606e+01
0	 9.259259e+00	 7.777778e+00	 1.000721e+01
0	 9.259259e+00	 7.851852e+00	 1.000683e+01
0	 9.259259e+00	 7.925926e+00	 1.000645e+01
0	 9.259259e+00	 8.000000e+00	 1.000606e+01
0	 9.259259e+00	 8.074074e+00	 1.000567e+01
0	 9.259259e+00	 8.148148e+00	 1.000528e+01
0	 8.888889e+00	 8.148148e+00	 1.000927e+01
0	 8.888889e+00	 8.222222e+00	 1.000866e+01
0	 8.888889e+00	 8.296296e+00	 1.000806e+01
0	 8.888889e+00	 8.370370e+00	 1.000747e+01
0	 8.888889e+00	 8.444444e+00	 1.000689e+01
0	 8.888889e+00	 8.518519e+00	 1.000632e+01
0	 8.962963e+00	 8.148148e+00	 1.000845e+01
0	 8.962963e+00	 8.222222e+00	 1.000789e+01
0	 8.962963e+00	 8.296296e+00	 1.000734e+01
0	 8.962963e+00	 8.370370e+00	 1.000680e+01
0	 8.962963e+00	 8.444444e+00	 1.000627e+01
0	 8.962963e+00	 8.518519e+00	 1.000574e+01
0	 9.037037e+00	 8.148148e+00	 1.000764e+01
0	 9.037037e+00	 8.222222e+00	 1.000713e+01
0	 9.037037e+00	 8.296296e+00	 1.000663e+01
0	 9.037037e+00	 8.370370e+00	 1.000613e+01
0	 9.037037e+00	 8.444444e+00	 1.000565e+01
0	 9.037037e+00	 8.518519e+00	 1.000517e+01
0	 9.111111e+00	 8.148148e+00	 1.000685e+01
0	 9.111111e+00	 8.222222e+00	 1.000638e+01
0	 9.111111e+00	 8.296296e+00	 1.000592e+01
0	 9.111111e+00	 8.370370e+00	 1.000547e+01
0	 9.111111e+00	 8.444444e+00	 1.000503e+01
0	 9.111111e+00	 8.518519e+00	 1.000459e+01
0	 9.185185e+00	 8.148148e+00	 1.000606e+01
0	 9.185185e+00	 8.222222e+00	 1.000563e+01
0	 9.185185e+00	 8.296296e+00	 1.000522e+01
0	 9.185185e+00	 8.370370e+00	 1.000481e+01
0	 9.185185e+00	 8.444444e+00	 1.000440e+01
0	 9.185185e+00	 8.518519e+00	 1.000401e+01
0	 9.259259e+00	 8.148148e+00	 1.000528e+01
0	 9.259259e+00	 8.222222e+00	 1.000489e+01
0	 9.259259e+00	 8.296296e+00	 1.000451e+01
0	 9.259259e+00	 8.370370e+00	 1.000414e+01
0	 9.259259e+00	 8.444444e+00	 1.000378e+01
0	 9.259259e+00	 8.518519e+00	 1.000342e+01
0	 8.888889e+00	 8.518519e+00	 1.000632e+01
0	 8.888889e+00	 8.592593e+00	 1.000577e+01
0	 8.888889e+00	 8.666667e+00	 1.000523e+01
0	 8.888889e+00	 8.740741e+00	 1.000472e+01
0	 8.888889e+00	 8.814815e+00	 1.000422e+01
0	 8.888889e+00	 8.888889e+00	 1.000374e+01
0	 8.962963e+00	 8.518519e+00	 1.000574e+01
0	 8.962963e+00	 8.592593e+00	 1.000523e+01
0	 8.962963e+00	 8.666667e+00	 1.000474e+01
0	 8.962963e+00	 8.740741e+00	 1.000427e+01
0	 8.962963e+00	 8.814815e+00	 1.000382e+01
0	 8.962963e+00	 8.888889e+00	 1.000338e+01
0	 9.037037e+00	 8.518519e+00	 1.000517e+01
0	 9.037037e+00	 8.592593e+00	 1.000470e+01
0	 9.037037e+00	 8.666667e+00	 1.000425e+01
0	 9.037037e+00	 8.740741e+00	 1.000382e+01
0	 9.037037e+00	 8.814815e+00	 1.000341e+01
0	 9.037037e+00	 8.888889e+00	 1.000301e+01
0	 9.111111e+00	 8.518519e+00	 1.000459e+01
0	 9.111111e+00	 8.592593e+00	 1.000417e+01
0	 9.111111e+00	 8.666667e+00	 1.000376e+01
0	 9.111111e+00	 8.740741e+00	 1.000337e+01
0	 9.111111e+00	 8.814815e+00	 1.000300e+01
0	 9.111111e+00	 8.888889e+00	 1.000264e+01
0	 9.185185e+00	 8.518519e+00	 1.000401e+01
0	 9.185185e+00	 8.592593e+00	 1.000363e+01
0	 9.185185e+00	 8.666667e+00	 1.000326e+01
0	 9.185185e+00	 8.740741e+00	 1.000291e+01
0	 9.185185e+00	 8.814815e+00	 1.000258e+01
0	 9.185185e+00	 8.888889e+00	 1.000226e+01
0	 9.259259e+00	 8.518519e+00	 1.000342e+01
0	 9.259259e+00	 8.592593e+00	 1.000308e+01
0	 9.259259e+00	 8.666667e+00	 1.000275e+01
0	 9.259259e+00	 8.740741e+00	 1.000244e+01
0	 9.259259e+00	 8.814815e+00	 1.000215e+01
0	 9.259259e+00	 8.888889e+00	 1.000187e+01
0	 8.888889e+00	 8.888889e+00	 1.000374e+01
0	 8.888889e+00	 8.962963e+00	 1.000329e+01
0	 8.888889e+00	 9.037037e+00	 1.000286e+01
0	 8.888889e+00	 9.111111e+00	 1.000246e+01
0	 8.888889e+00	 9.185185e+00	 1.000208e+01
0	 8.888889e+00	 9.259259e+00	 1.000174e+01
0	 8.962963e+00	 8.888889e+00	 1.000338e+01
0	 8.962963e+00	 8.962963e+00	 1.000296e+01
0	 8.962963e+00	 9.037037e+00	 1.000257e+01
0	 8.962963e+00	 9.111111e+00	 1.000221e+01
0	 8.962963e+00	 9.185185e+00	 1.000187e+01
0	 8.962963e+00	 9.259259e+00	 1.000155e+01
0	 9.037037e+00	 8.888889e+00	 1.000301e+01
0	 9.037037e+00	 8.962963e+00	 1.000263e+01
0	 9.037037e+00	 9.037037e+00	 1.000228e+01
0	 9.037037e+00	 9.111111e+00	 1.000195e+01
0	 9.037037e+00	 9.185185e+00	 1.000165e+01
0	 9.037037e+00	 9.259259e+00	 1.000137e+01
0	 9.111111e+00	 8.888889e+00	 1.000264e+01
0	 9.111111e+00	 8.962963e+00	 1.000230e+01
0	 9.111111e+00	 9.037037e+00	 1.000198e+01
0	 9.111111e+00	 9.111111e+00	 1.000169e+01
0	 9.111111e+00	 9.185185e+00	 1.000142e+01
0	 9.111111e+00	 9.259259e+00	 1.000117e+01
0	 9.185185e+00	 8.888889e+00	 1.000226e+01
0	 9.185185e+00	 8.962963e+00	 1.000196e+01
0	 9.185185e+00	 9.037037e+00	 1.000168e+01
0	 9.185185e+00	 9.111111e+00	 1.000142e+01
0	 9.185185e+00	 9.185185e+00	 1.000119e+01
0	 9.185185e+00	 9.259259e+00	 1.000097e+01
0	 9.259259e+00	 8.888889e+00	 1.000187e+01
0	 9.259259e+00	 8.962963e+00	 1.000160e+01
0	 9.259259e+00	 9.037037e+00	 1.000136e+01
0	 9.259259e+00	 9.111111e+00	 1.000114e+01
0	 9.259259e+00	 9.185185e+00	 1.000094e+01
0	 9.259259e+00	 9.259259e+00	 1.000076e+01
0	 8.888889e+00	 9.259259e+00	 1.000174e+01
0	 8.888889e+00	 9.333333e+00	 1.000141e+01
0	 8.888889e+00	 9.407407e+00	 1.000113e+01
0	 8.888889e+00	 9.481481e+00	 1.000087e+01
0	 8.888889e+00	 9.555556e+00	 1.000065e+01
0	 8.888889e+00	 9.629630e+00	 1.000045e+01
0	 8.962963e+00	 9.259259e+00	 1.000155e+01
0	 8.962963e+00	 9.333333e+00	 1.000126e+01
0	 8.962963e+00	 9.407407e+00	 1.000101e+01
0	 8.962963e+00	 9.481481e+00	 1.000078e+01
0	 8.962963e+00	 9.555556e+00	 1.000058e+01
0	 8.962963e+00	 9.629630e+00	 1.000040e+01
0	 9.037037e+00	 9.259259e+00	 1.000137e+01
0	 9.037037e+00	 9.333333e+00	 1.000111e+01
0	 9.037037e+00	 9.407407e+00	 1.000088e+01
0	 9.037037e+00	 9.481481e+00	 1.000068e+01
0	 9.037037e+00	 9.555556e+00	 1.000050e+01
0	 9.037037e+00	 9.629630e+00	 1.000035e+01
0	 9.111111e+00	 9.259259e+00	 1.000117e+01
0	 9.111111e+00	 9.333333e+00	 1.000095e+01
0	 9.111111e+00	 9.407407e+00	 1.000075e+01
0	 9.111111e+00	 9.481481e+00	 1.000057e+01
0	 9.111111e+00	 9.555556e+00	 1.000042e+01
0	 9.111111e+00	 9.629630e+00	 1.000029e+01
0	 9.185185e+00	 9.259259e+00	 1.000097e+01
0	 9.185185e+00	 9.333333e+00	 1.000078e+01
0	 9.185185e+00	 9.407407e+00	 1.000061e+01
0	 9.185185e+00	 9.481481e+00	 1.000046e+01
0	 9.185185e+00	 9.555556e+00	 1.000033e+01
0	 9.185185e+00	 9.629630e+00	 1.000023e+01
0	 9.259259e+00	 9.259259e+00	 1.000076e+01
0	 9.259259e+00	 9.333333e+00	 1.000060e+01
0	 9.259259e+00	 9.407407e+00	 1.000046e+01
0	 9.259259e+00	 9.481481e+00	 1.000034e+01
0	 9.259259e+00	 9.555556e+00	 1.000024e+01
0	 9.259259e+00	 9.629630e+00	 1.000016e+01
0	 8.888889e+00	 9.629630e+00	 1.000045e+01
0	 8.888889e+00	 9.703704e+00	 1.000029e+01
0	 8.888889e+00	 9.777778e+00	 1.000017e+01
0	 8.888889e+00	 9.851852e+00	 1.000008e+01
0	 8.888889e+00	 9.925926e+00	 1.000002e+01
0	 8.888889e+00	 1.000000e+01	 9.999997e+00
0	 8.962963e+00	 9.629630e+00	 1.000040e+01
0	 8.962963e+00	 9.703704e+00	 1.000026e+01
0	 8.962963e+00	 9.777778e+00	 1.000015e+01
0	 8.962963e+00	 9.851852e+00	 1.000007e+01
0	 8.962963e+00	 9.925926e+00	 1.000002e+01
0	 8.962963e+00	 1.000000e+01	 9.999998e+00
0	 9.037037e+00	 9.629630e+00	 1.000035e+01
0	 9.037037e+00	 9.703704e+00	 1.000022e+01
0	 9.037037e+00	 9.777778e+00	 1.000013e+01
0	 9.037037e+00	 9.851852e+00	 1.000006e+01
0	 9.037037e+00	 9.925926e+00	 1.000001e+01
0	 9.037037e+00	 1.000000e+01	 9.999996e+00
0	 9.111111e+00	 9.629630e+00	 1.000029e+01
0	 9.111111e+00	 9.703704e+00	 1.000019e+01
0	 9.111111e+00	 9.777778e+00	 1.000010e+01
0	 9.111111e+00	 9.851852e+00	 1.000004e+01
0	 9.111111e+00	 9.925926e+00	 1.000001e+01
0	 9.111111e+00	 1.000000e+01	 9.999995e+00
0	 9.185185e+00	 9.629630e+00	 1.000023e+01
0	 9.185185e+00	 9.703704e+00	 1.000014e+01
0	 9.185185e+00	 9.777778e+00	 1.000008e+01
0	 9.185185e+00	 9.851852e+00	 1.000003e+01
0	 9.185185e+00	 9.925926e+00	 1.000000e+01
0	 9.185185e+00	 1.000000e+01	 9.999998e+00
0	 9.259259e+00	 9.629630e+00	 1.000016e+01
0	 9.259259e+00	 9.703704e+00	 1.000010e+01
0	 9.259259e+00	 9.777778e+00	 1.000005e+01
0	 9.259259e+00	 9.851852e+00	 1.000002e+01
0	 9.259259e+00	 9.925926e+00	 1.000001e+01
0	 9.259259e+00	 1.000000e+01	 1.000001e+01
0	 9.259259e+00	 0.000000e+00	 9.794715e+00
0	 9.259259e+00	 7.407407e-02	 9.794805e+00
0	 9.259259e+00	 1.481481e-01	 9.795074e+00
0	 9.259259e+00	 2.222222e-01	 9.795522e+00
0	 9.259259e+00	 2.962963e-01	 9.796150e+00
0	 9.259259e+00	 3.703704e-01	 9.796957e+00
0	 9.333333e+00	 0.000000e+00	 9.782042e+00
0	 9.333333e+00	 7.407407e-02	 9.782136e+00
0	 9.333333e+00	 1.481481e-01	 9.782416e+00
0	 9.333333e+00	 2.222222e-01	 9.782883e+00
0	 9.333333e+00	 2.962963e-01	 9.783536e+00
0	 9.333333e+00	 3.703704e-01	 9.784376e+00
0	 9.407407e+00	 0.000000e+00	 9.769029e+00
0	 9.407407e+00	 7.407407e-02	 9.769127e+00
0	 9.407407e+00	 1.481481e-01	 9.769420e+00
0	 9.407407e+00	 2.222222e-01	 9.769906e+00
0	 9.407407e+00	 2.962963e-01	 9.770588e+00
0	 9.407407e+00	 3.703704e-01	 9.771464e+00
0	 9.481481e+00	 0.000000e+00	 9.755646e+00
0	 9.481481e+00	 7.407407e-02	 9.755748e+00
0	 9.481481e+00	 1.481481e-01	 9.756054e+00
0	 9.481481e+00	 2.222222e-01	 9.756562e+00
0	 9.481481e+00	 2.962963e-01	 9.757275e+00
0	 9.481481e+00	 3.703704e-01	 9.758191e+00
0	 9.555556e+00	 0.000000e+00	 9.741860e+00
0	 9.555556e+00	 7.407407e-02	 9.741967e+00
0	 9.555556e+00	 1.481481e-01	 9.742287e+00
0	 9.555556e+00	 2.222222e-01	 9.742820e+00
0	 9.555556e+00	 2.962963e-01	 9.743566e+00
0	 9.555556e+00	 3.703704e-01	 9.744526e+00
0	 9.629630e+00	 0.000000e+00	 9.727641e+00
0	 9.629630e+00	 7.407407e-02	 9.727754e+00
0	 9.629630e+00	 1.481481e-01	 9.728090e+00
0	 9.629630e+00	 2.222222e-01	 9.728649e+00
0	 9.629630e+00	 2.962963e-01	 9.729432e+00
0	 9.629630e+00	 3.703704e-01	 9.730439e+00
0	 9.259259e+00	 3.703704e-01	 9.796957e+00
0	 9.259259e+00	 4.444444e-01	 9.797938e+00
0	 9.259259e+00	 5.185185e-01	 9.799088e+00
0	 9.259259e+00	 5.925926e-01	 9.800407e+00
0	 9.259259e+00	 6.666667e-01	 9.801896e+00
0	 9.259259e+00	 7.407407e-01	 9.803557e+00
0	 9.333333e+00	 3.703704e-01	 9.784376e+00
0	 9.333333e+00	 4.444444e-01	 9.785398e+00
0	 9.333333e+00	 5.185185e-01	 9.786595e+00
0	 9.333333e+00	 5.925926e-01	 9.787968e+00
0	 9.333333e+00	 6.666667e-01	 9.789519e+00
0	 9.333333e+00	 7.407407e-01	 9.791248e+00
0	 9.407407e+00	 3.703704e-01	 9.771464e+00
0	 9.407407e+00	 4.444444e-01	 9.772530e+00
0	 9.407407e+00	 5.185185e-01	 9.773779e+00
0	 9.407407e+00	 5.925926e-01	 9.775212e+00
0	 9.407407e+00	 6.666667e-01	 9.776830e+00
0	 9.407407e+00	 7.407407e-01	 9.778634e+00
0	 9.481481e+00	 3.703704e-01	 9.758191e+00
0	 9.481481e+00	 4.444444e-01	 9.759305e+00
0	 9.481481e+00	 5.185185e-01	 9.760611e+00
0	 9.481481e+00	 5.925926e-01	 9.762109e+00
0	 9.481481e+00	 6.666667e-01	 9.763801e+00
0	 9.481481e+00	 7.407407e-01	 9.765687e+00
0	 9.555556e+00	 3.703704e-01	 9.744526e+00
0	 9.555556e+00	 4.444444e-01	 9.745693e+00
0	 9.555556e+00	 5.185185e-01	 9.747061e+00
0	 9.555556e+00	 5.925926e-01	 9.748631e+00
0	 9.555556e+00	 6.666667e-01	 9.750403e+00
0	 9.555556e+00	 7.407407e-01	 9.752379e+00
0	 9.629630e+00	 3.703704e-01	 9.730439e+00
0	 9.629630e+00	 4.444444e-01	 9.731664e+00
0	 9.629630e+00	 5.185185e-01	 9.733100e+00
0	 9.629630e+00	 5.925926e-01	 9.734747e+00
0	 9.629630e+00	 6.666667e-01	 9.736608e+00
0	 9.629630e+00	 7.407407e-01	 9.738682e+00
0	 9.259259e+00	 7.407407e-01	 9.803557e+00
0	 9.259259e+00	 8.148148e-01	 9.805378e+00
0	 9.259259e+00	 8.888889e-01	 9.807347e+00
0	 9.259259e+00	 9.629630e-01	 9.809467e+00
0	 9.259259e+00	 1.037037e+00	 9.811740e+00
0	 9.259259e+00	 1.111111e+00	 9.814165e+00
0	 9.333333e+00	 7.407407e-01	 9.791248e+00
0	 9.333333e+00	 8.148148e-01	 9.793144e+00
0	 9.333333e+00	 8.888889e-01	 9.795196e+00
0	 9.333333e+00	 9.629630e-01	 9.797405e+00
0	 9.333333e+00	 1.037037e+00	 9.799772e+00
0	 9.333333e+00	 1.111111e+00	 9.802299e+00
0	 9.407407e+00	 7.407407e-01	 9.778634e+00
0	 9.407407e+00	 8.148148e-01	 9.780613e+00
0	 9.407407e+00	 8.888889e-01	 9.782754e+00
0	 9.407407e+00	 9.629630e-01	 9.785059e+00
0	 9.407407e+00	 1.037037e+00	 9.787530e+00
0	 9.407407e+00	 1.111111e+00	 9.790167e+00
0	 9.481481e+00	 7.407407e-01	 9.765687e+00
0	 9.481481e+00	 8.148148e-01	 9.767756e+00
0	 9.481481e+00	 8.888889e-01	 9.769995e+00
0	 9.481481e+00	 9.629630e-01	 9.772405e+00
0	 9.481481e+00	 1.037037e+00	 9.774989e+00
0	 9.481481e+00	 1.111111e+00	 9.777747e+00
0	 9.555556e+00	 7.407407e-01	 9.752379e+00
0	 9.555556e+00	 8.148148e-01	 9.754546e+00
0	 9.555556e+00	 8.888889e-01	 9.756891e+00
0	 9.555556e+00	 9.629630e-01	 9.759417e+00
0	 9.555556e+00	 1.037037e+00	 9.762124e+00
0	 9.555556e+00	 1.111111e+00	 9.765013e+00
0	 9.629630e+00	 7.407407e-01	 9.738682e+00
0	 9.629630e+00	 8.148148e-01	 9.740956e+00
0	 9.629630e+00	 8.888889e-01	 9.743418e+00
0	 9.629630e+00	 9.629630e-01	 9.746069e+00
0	 9.629630e+00	 1.037037e+00	 9.748910e+00
0	 9.629630e+00	 1.111111e+00	 9.751942e+00
0	 9.259259e+00	 1.111111e+00	 9.814165e+00
0	 9.259259e+00	 1.185185e+00	 9.816729e+00
0	 9.259259e+00	 1.259259e+00	 9.819415e+00
0	 9.259259e+00	 1.333333e+00	 9.822226e+00
0	 9.259259e+00	 1.407407e+00	 9.825163e+00
0	 9.259259e+00	 1.481481e+00	 9.828228e+00
0	 9.333333e+00	 1.111111e+00	 9.802299e+00
0	 9.333333e+00	 1.185185e+00	 9.804970e+00
0	 9.333333e+00	 1.259259e+00	 9.807769e+00
0	 9.333333e+00	 1.333333e+00	 9.810699e+00
0	 9.333333e+00	 1.407407e+00	 9.813760e+00
0	 9.333333e+00	 1.481481e+00	 9.816956e+00
0	 9.407407e+00	 1.111111e+00	 9.790167e+00
0	 9.407407e+00	 1.185185e+00	 9.792955e+00
0	 9.407407e+00	 1.259259e+00	 9.795878e+00
0	 9.407407e+00	 1.333333e+00	 9.798937e+00
0	 9.407407e+00	 1.407407e+00	 9.802134e+00
0	 9.407407e+00	 1.481481e+00	 9.805470e+00
0	 9.481481e+00	 1.111111e+00	 9.777747e+00
0	 9.481481e+00	 1.185185e+00	 9.780663e+00
0	 9.481481e+00	 1.259259e+00	 9.783719e+00
0	 9.481481e+00	 1.333333e+00	 9.786919e+00
0	 9.481481e+00	 1.407407e+00	 9.790263e+00
0	 9.481481e+00	 1.481481e+00	 9.793753e+00
0	 9.555556e+00	 1.111111e+00	 9.765013e+00
0	 9.555556e+00	 1.185185e+00	 9.768068e+00
0	 9.555556e+00	 1.259259e+00	 9.771271e+00
0	 9.555556e+00	 1.333333e+00	 9.774623e+00
0	 9.555556e+00	 1.407407e+00	 9.778127e+00
0	 9.555556e+00	 1.481481e+00	 9.781785e+00
0	 9.629630e+00	 1.111111e+00	 9.751942e+00
0	 9.629630e+00	 1.185185e+00	 9.755149e+00
0	 9.629630e+00	 1.259259e+00	 9.758510e+00
0	 9.629630e+00	 1.333333e+00	 9.762029e+00
0	 9.629630e+00	 1.407407e+00	 9.765707e+00
0	 9.629630e+00	 1.481481e+00	 9.769546e+00
0	 9.259259e+00	 1.481481e+00	 9.828228e+00
0	 9.259259e+00	 1.555556e+00	 9.831403e+00
0	 9.259259e+00	 1.629630e+00	 9.834669e+00
0	 9.259259e+00	 1.703704e+00	 9.838029e+00
0	 9.259259e+00	 1.777778e+00	 9.841483e+00
0	 9.259259e+00	 1.851852e+00	 9.845036e+00
0	 9.333333e+00	 1.481481e+00	 9.816956e+00
0	 9.333333e+00	 1.555556e+00	 9.820266e+00
0	 9.333333e+00	 1.629630e+00	 9.823672e+00
0	 9.333333e+00	 1.703704e+00	 9.827176e+00
0	 9.333333e+00	 1.777778e+00	 9.830780e+00
0	 9.333333e+00	 1.851852e+00	 9.834486e+00
0	 9.407407e+00	 1.481481e+00	 9.805470e+00
0	 9.407407e+00	 1.555556e+00	 9.808927e+00
0	 9.407407e+00	 1.629630e+00	 9.812485e+00
0	 9.407407e+00	 1.703704e+00	 9.816146e+00
0	 9.407407e+00	 1.777778e+00	 9.819911e+00
0	 9.407407e+00	 1.851852e+00	 9.823783e+00
0	 9.481481e+00	 1.481481e+00	 9.793753e+00
0	 9.481481e+00	 1.555556e+00	 9.797370e+00
0	 9.481481e+00	 1.629630e+00	 9.801092e+00
0	 9.481481e+00	 1.703704e+00	 9.804922e+00
0	 9.481481e+00	 1.777778e+00	 9.808862e+00
0	 9.481481e+00	 1.851852e+00	 9.812915e+00
0	 9.555556e+00	 1.481481e+00	 9.781785e+00
0	 9.555556e+00	 1.555556e+00	 9.785574e+00
0	 9.555556e+00	 1.629630e+00	 9.789475e+00
0	 9.555556e+00	 1.703704e+00	 9.793489e+00
0	 9.555556e+00	 1.777778e+00	 9.797619e+00
0	 9.555556e+00	 1.851852e+00	 9.801866e+00
0	 9.629630e+00	 1.481481e+00	 9.769546e+00
0	 9.629630e+00	 1.555556e+00	 9.773523e+00
0	 9.629630e+00	 1.629630e+00	 9.777618e+00
0	 9.629630e+00	 1.703704e+00	 9.781831e+00
0	 9.629630e+00	 1.777778e+00	 9.786166e+00
0	 9.629630e+00	 1.851852e+00	 9.790623e+00
0	 9.259259e+00	 1.851852e+00	 9.845036e+00
0	 9.259259e+00	 1.925926e+00	 9.848665e+00
0	 9.259259e+00	 2.000000e+00	 9.852352e+00
0	 9.259259e+00	 2.074074e+00	 9.856098e+00
0	 9.259259e+00	 2.148148e+00	 9.859905e+00
0	 9.259259e+00	 2.222222e+00	 9.863776e+00
0	 9.333333e+00	 1.851852e+00	 9.834486e+00
0	 9.333333e+00	 1.925926e+00	 9.838273e+00
0	 9.333333e+00	 2.000000e+00	 9.842121e+00
0	 9.333333e+00	 2.074074e+00	 9.846031e+00
0	 9.333333e+00	 2.148148e+00	 9.850007e+00
0	 9.333333e+00	 2.222222e+00	 9.854049e+00
0	 9.407407e+00	 1.851852e+00	 9.823783e+00
0	 9.407407e+00	 1.925926e+00	 9.827741e+00
0	 9.407407e+00	 2.000000e+00	 9.831763e+00
0	 9.407407e+00	 2.074074e+00	 9.835851e+00
0	 9.407407e+00	 2.148148e+00	 9.840007e+00
0	 9.407407e+00	 2.222222e+00	 9.844234e+00
0	 9.481481e+00	 1.851852e+00	 9.812915e+00
0	 9.481481e+00	 1.925926e+00	 9.817057e+00
0	 9.481481e+00	 2.000000e+00	 9.821266e+00
0	 9.481481e+00	 2.074074e+00	 9.825546e+00
0	 9.481481e+00	 2.148148e+00	 9.829897e+00
0	 9.481481e+00	 2.222222e+00	 9.834323e+00
0	 9.555556e+00	 1.851852e+00	 9.801866e+00
0	 9.555556e+00	 1.925926e+00	 9.806207e+00
0	 9.555556e+00	 2.000000e+00	 9.810619e+00
0	 9.555556e+00	 2.074074e+00	 9.815105e+00
0	 9.555556e+00	 2.148148e+00	 9.819667e+00
0	 9.555556e+00	 2.222222e+00	 9.824306e+00
0	 9.629630e+00	 1.851852e+00	 9.790623e+00
0	 9.629630e+00	 1.925926e+00	 9.795179e+00
0	 9.629630e+00	 2.000000e+00	 9.799811e+00
0	 9.629630e+00	 2.074074e+00	 9.804520e+00
0	 9.629630e+00	 2.148148e+00	 9.809308e+00
0	 9.629630e+00	 2.222222e+00	 9.814177e+00
0	 9.259259e+00	 2.222222e+00	 9.863776e+00
0	 9.259259e+00	 2.296296e+00	 9.867690e+00
0	 9.259259e+00	 2.370370e+00	 9.871627e+00
0	 9.259259e+00	 2.444444e+00	 9.875588e+00
0	 9.259259e+00	 2.518519e+00	 9.879577e+00
0	 9.259259e+00	 2.592593e+00	 9.883594e+00
0	 9.333333e+00	 2.222222e+00	 9.854049e+00
0	 9.333333e+00	 2.296296e+00	 9.858138e+00
0	 9.333333e+00	 2.370370e+00	 9.862251e+00
0	 9.333333e+00	 2.444444e+00	 9.866392e+00
0	 9.333333e+00	 2.518519e+00	 9.870561e+00
0	 9.333333e+00	 2.592593e+00	 9.874761e+00
0	 9.407407e+00	 2.222222e+00	 9.844234e+00
0	 9.407407e+00	 2.296296e+00	 9.848510e+00
0	 9.407407e+00	 2.370370e+00	 9.852813e+00
0	 9.407407e+00	 2.444444e+00	 9.857144e+00
0	 9.407407e+00	 2.518519e+00	 9.861507e+00
0	 9.407407e+00	 2.592593e+00	 9.865903e+00
0	 9.481481e+00	 2.222222e+00	 9.834323e+00
0	 9.481481e+00	 2.296296e+00	 9.838799e+00
0	 9.481481e+00	 2.370370e+00	 9.843305e+00
0	 9.481481e+00	 2.444444e+00	 9.847842e+00
0	 9.481481e+00	 2.518519e+00	 9.852412e+00
0	 9.481481e+00	 2.592593e+00	 9.857017e+00
0	 9.555556e+00	 2.222222e+00	 9.824306e+00
0	 9.555556e+00	 2.296296e+00	 9.828999e+00
0	 9.555556e+00	 2.370370e+00	 9.833723e+00
0	 9.555556e+00	 2.444444e+00	 9.838480e+00
0	 9.555556e+00	 2.518519e+00	 9.843272e+00
0	 9.555556e+00	 2.592593e+00	 9.848101e+00
0	 9.629630e+00	 2.222222e+00	 9.814177e+00
0	 9.629630e+00	 2.296296e+00	 9.819103e+00
0	 9.629630e+00	 2.370370e+00	 9.824062e+00
0	 9.629630e+00	 2.444444e+00	 9.829055e+00
0	 9.629630e+00	 2.518519e+00	 9.834084e+00
0	 9.629630e+00	 2.592593e+00	 9.839153e+00
0	 9.259259e+00	 2.592593e+00	 9.883594e+00
0	 9.259259e+00	 2.666667e+00	 9.887621e+00
0	 9.259259e+00	 2.740741e+00	 9.891639e+00
0	 9.259259e+00	 2.814815e+00	 9.895648e+00
0	 9.259259e+00	 2.888889e+00	 9.899652e+00
0	 9.259259e+00	 2.962963e+00	 9.903651e+00
0	 9.333333e+00	 2.592593e+00	 9.874761e+00
0	 9.333333e+00	 2.666667e+00	 9.878973e+00
0	 9.333333e+00	 2.740741e+00	 9.883176e+00
0	 9.333333e+00	 2.814815e+00	 9.887372e+00
0	 9.333333e+00	 2.888889e+00	 9.891562e+00
0	 9.333333e+00	 2.962963e+00	 9.895749e+00
0	 9.407407e+00	 2.592593e+00	 9.865903e+00
0	 9.407407e+00	 2.666667e+00	 9.870312e+00
0	 9.407407e+00	 2.740741e+00	 9.874712e+00
0	 9.407407e+00	 2.814815e+00	 9.879105e+00
0	 9.407407e+00	 2.888889e+00	 9.883495e+00
0	 9.407407e+00	 2.962963e+00	 9.887881e+00
0	 9.481481e+00	 2.592593e+00	 9.857017e+00
0	 9.481481e+00	 2.666667e+00	 9.861636e+00
0	 9.481481e+00	 2.740741e+00	 9.866246e+00
0	 9.481481e+00	 2.814815e+00	 9.870851e+00
0	 9.481481e+00	 2.888889e+00	 9.875451e+00
0	 9.481481e+00	 2.962963e+00	 9.880049e+00
0	 9.555556e+00	 2.592593e+00	 9.848101e+00
0	 9.555556e+00	 2.666667e+00	 9.852944e+00
0	 9.555556e+00	 2.740741e+00	 9.857779e+00
0	 9.555556e+00	 2.814815e+00	 9.862609e+00
0	 9.555556e+00	 2.888889e+00	 9.867434e+00
0	 9.555556e+00	 2.962963e+00	 9.872257e+00
0	 9.629630e+00	 2.592593e+00	 9.839153e+00
0	 9.629630e+00	 2.666667e+00	 9.844236e+00
0	 9.629630e+00	 2.740741e+00	 9.849311e+00
0	 9.629630e+00	 2.814815e+00	 9.854381e+00
0	 9.629630e+00	 2.888889e+00	 9.859445e+00
0	 9.629630e+00	 2.962963e+00	 9.864508e+00
0	 9.259259e+00	 2.962963e+00	 9.903651e+00
0	 9.259259e+00	 3.037037e+00	 9.907629e+00
0	 9.259259e+00	 3.111111e+00	 9.911569e+00
0	 9.259259e+00	 3.185185e+00	 9.915471e+00
0	 9.259259e+00	 3.259259e+00	 9.919338e+00
0	 9.259259e+00	 3.333333e+00	 9.923171e+00
0	 9.333333e+00	 2.962963e+00	 9.895749e+00
0	 9.333333e+00	 3.037037e+00	 9.899916e+00
0	 9.333333e+00	 3.111111e+00	 9.904043e+00
0	 9.333333e+00	 3.185185e+00	 9.908133e+00
0	 9.333333e+00	 3.259259e+00	 9.912187e+00
0	 9.333333e+00	 3.333333e+00	 9.916207e+00
0	 9.407407e+00	 2.962963e+00	 9.887881e+00
0	 9.407407e+00	 3.037037e+00	 9.892247e+00
0	 9.407407e+00	 3.111111e+00	 9.896572e+00
0	 9.407407e+00	 3.185185e+00	 9.900860e+00
0	 9.407407e+00	 3.259259e+00	 9.905111e+00
0	 9.407407e+00	 3.333333e+00	 9.909327e+00
0	 9.481481e+00	 2.962963e+00	 9.880049e+00
0	 9.481481e+00	 3.037037e+00	 9.884626e+00
0	 9.481481e+00	 3.111111e+00	 9.889161e+00
0	 9.481481e+00	 3.185185e+00	 9.893658e+00
0	 9.481481e+00	 3.259259e+00	 9.898117e+00
0	 9.481481e+00	 3.333333e+00	 9.902539e+00
0	 9.555556e+00	 2.962963e+00	 9.872257e+00
0	 9.555556e+00	 3.037037e+00	 9.877058e+00
0	 9.555556e+00	 3.111111e+00	 9.881816e+00
0	 9.555556e+00	 3.185185e+00	 9.886533e+00
0	 9.555556e+00	 3.259259e+00	 9.891212e+00
0	 9.555556e+00	 3.333333e+00	 9.895852e+00
0	 9.629630e+00	 2.962963e+00	 9.864508e+00
0	 9.629630e+00	 3.037037e+00	 9.869546e+00
0	 9.629630e+00	 3.111111e+00	 9.874541e+00
0	 9.629630e+00	 3.185185e+00	 9.879493e+00
0	 9.629630e+00	 3.259259e+00	 9.884403e+00
0	 9.629630e+00	 3.333333e+00	 9.889274e+00
0	 9.259259e+00	 3.333333e+00	 9.923171e+00
0	 9.259259e+00	 3.407407e+00	 9.926957e+00
0	 9.259259e+00	 3.481481e+00	 9.930679e+00
0	 9.259259e+00	 3.555556e+00	 9.934341e+00
0	 9.259259e+00	 3.629630e+00	 9.937942e+00
0	 9.259259e+00	 3.703704e+00	 9.941485e+00
0	 9.333333e+00	 3.333333e+00	 9.916207e+00
0	 9.333333e+00	 3.407407e+00	 9.920177e+00
0	 9.333333e+00	 3.481481e+00	 9.924084e+00
0	 9.333333e+00	 3.555556e+00	 9.927928e+00
0	 9.333333e+00	 3.629630e+00	 9.931711e+00
0	 9.333333e+00	 3.703704e+00	 9.935433e+00
0	 9.407407e+00	 3.333333e+00	 9.909327e+00
0	 9.407407e+00	 3.407407e+00	 9.913492e+00
0	 9.407407e+00	 3.481481e+00	 9.917592e+00
0	 9.407407e+00	 3.555556e+00	 9.921627e+00
0	 9.407407e+00	 3.629630e+00	 9.925598e+00
0	 9.407407e+00	 3.703704e+00	 9.929507e+00
0	 9.481481e+00	 3.333333e+00	 9.902539e+00
0	 9.481481e+00	 3.407407e+00	 9.906909e+00
0	 9.481481e+00	 3.481481e+00	 9.911212e+00
0	 9.481481e+00	 3.555556e+00	 9.915446e+00
0	 9.481481e+00	 3.629630e+00	 9.919615e+00
0	 9.481481e+00	 3.703704e+00	 9.923720e+00
0	 9.555556e+00	 3.333333e+00	 9.895852e+00
0	 9.555556e+00	 3.407407e+00	 9.900438e+00
0	 9.555556e+00	 3.481481e+00	 9.904953e+00
0	 9.555556e+00	 3.555556e+00	 9.909398e+00
0	 9.555556e+00	 3.629630e+00	 9.913774e+00
0	 9.555556e+00	 3.703704e+00	 9.918083e+00
0	 9.629630e+00	 3.333333e+00	 9.889274e+00
0	 9.629630e+00	 3.407407e+00	 9.894087e+00
0	 9.629630e+00	 3.481481e+00	 9.898826e+00
0	 9.629630e+00	 3.555556e+00	 9.903492e+00
0	 9.629630e+00	 3.629630e+00	 9.908085e+00
0	 9.629630e+00	 3.703704e+00	 9.912607e+00
0	 9.259259e+00	 3.703704e+00	 9.941485e+00
0	 9.259259e+00	 3.777778e+00	 9.944958e+00
0	 9.259259e+00	 3.851852e+00	 9.948351e+00
0	 9.259259e+00	 3.925926e+00	 9.951664e+00
0	 9.259259e+00	 4.000000e+00	 9.954898e+00
0	 9.259259e+00	 4.074074e+00	 9.958054e+00
0	 9.333333e+00	 3.703704e+00	 9.935433e+00
0	 9.333333e+00	 3.777778e+00	 9.939083e+00
0	 9.333333e+00	 3.851852e+00	 9.942651e+00
0	 9.333333e+00	 3.925926e+00	 9.946136e+00
0	 9.333333e+00	 4.000000e+00	 9.949540e+00
0	 9.333333e+00	 4.074074e+00	 9.952863e+00
0	 9.407407e+00	 3.703704e+00	 9.929507e+00
0	 9.407407e+00	 3.777778e+00	 9.933342e+00
0	 9.407407e+00	 3.851852e+00	 9.937091e+00
0	 9.407407e+00	 3.925926e+00	 9.940755e+00
0	 9.407407e+00	 4.000000e+00	 9.944335e+00
0	 9.407407e+00	 4.074074e+00	 9.947831e+00
0	 9.481481e+00	 3.703704e+00	 9.923720e+00
0	 9.481481e+00	 3.777778e+00	 9.927747e+00
0	 9.481481e+00	 3.851852e+00	 9.931685e+00
0	 9.481481e+00	 3.925926e+00	 9.935535e+00
0	 9.481481e+00	 4.000000e+00	 9.939297e+00
0	 9.481481e+00	 4.074074e+00	 9.942971e+00
0	 9.555556e+00	 3.703704e+00	 9.918083e+00
0	 9.555556e+00	 3.777778e+00	 9.922311e+00
0	 9.555556e+00	 3.851852e+00	 9.926446e+00
0	 9.555556e+00	 3.925926e+00	 9.930488e+00
0	 9.555556e+00	 4.000000e+00	 9.934439e+00
0	 9.555556e+00	 4.074074e+00	 9.938298e+00
0	 9.629630e+00	 3.703704e+00	 9.912607e+00
0	 9.629630e+00	 3.777778e+00	 9.917045e+00
0	 9.629630e+00	 3.851852e+00	 9.921385e+00
0	 9.629630e+00	 3.925926e+00	 9.925628e+00
0	 9.629630e+00	 4.000000e+00	 9.929775e+00
0	 9.629630e+00	 4.074074e+00	 9.933826e+00
0	 9.259259e+00	 4.074074e+00	 9.958054e+00
0	 9.259259e+00	 4.148148e+00	 9.961124e+00
0	 9.259259e+00	 4.222222e+00	 9.964102e+00
0	 9.259259e+00	 4.296296e+00	 9.966989e+00
0	 9.259259e+00	 4.370370e+00	 9.969783e+00
0	 9.259259e+00	 4.444444e+00	 9.972486e+00
0	 9.333333e+00	 4.074074e+00	 9.952863e+00
0	 9.333333e+00	 4.148148e+00	 9.956099e+00
0	 9.333333e+00	 4.222222e+00	 9.959238e+00
0	 9.333333e+00	 4.296296e+00	 9.962283e+00
0	 9.333333e+00	 4.370370e+00	 9.965232e+00
0	 9.333333e+00	 4.444444e+00	 9.968087e+00
0	 9.407407e+00	 4.074074e+00	 9.947831e+00
0	 9.407407e+00	 4.148148e+00	 9.951236e+00
0	 9.407407e+00	 4.222222e+00	 9.954542e+00
0	 9.407407e+00	 4.296296e+00	 9.957748e+00
0	 9.407407e+00	 4.370370e+00	 9.960856e+00
0	 9.407407e+00	 4.444444e+00	 9.963866e+00
0	 9.481481e+00	 4.074074e+00	 9.942971e+00
0	 9.481481e+00	 4.148148e+00	 9.946551e+00
0	 9.481481e+00	 4.222222e+00	 9.950027e+00
0	 9.481481e+00	 4.296296e+00	 9.953401e+00
0	 9.481481e+00	 4.370370e+00	 9.956671e+00
0	 9.481481e+00	 4.444444e+00	 9.959839e+00
0	 9.555556e+00	 4.074074e+00	 9.938298e+00
0	 9.555556e+00	 4.148148e+00	 9.942059e+00
0	 9.555556e+00	 4.222222e+00	 9.945711e+00
0	 9.555556e+00	 4.296296e+00	 9.949255e+00
0	 9.555556e+00	 4.370370e+00	 9.952692e+00
0	 9.555556e+00	 4.444444e+00	 9.956022e+00
0	 9.629630e+00	 4.074074e+00	 9.933826e+00
0	 9.629630e+00	 4.148148e+00	 9.937773e+00
0	 9.629630e+00	 4.222222e+00	 9.941607e+00
0	 9.629630e+00	 4.296296e+00	 9.945327e+00
0	 9.629630e+00	 4.370370e+00	 9.948935e+00
0	 9.629630e+00	 4.444444e+00	 9.952430e+00
0	 9.259259e+00	 4.444444e+00	 9.972486e+00
0	 9.259259e+00	 4.518519e+00	 9.975095e+00
0	 9.259259e+00	 4.592593e+00	 9.977605e+00
0	 9.259259e+00	 4.666667e+00	 9.980016e+00
0	 9.259259e+00	 4.740741e+00	 9.982329e+00
0	 9.259259e+00	 4.814815e+00	 9.984544e+00
0	 9.333333e+00	 4.444444e+00	 9.968087e+00
0	 9.333333e+00	 4.518519e+00	 9.970844e+00
0	 9.333333e+00	 4.592593e+00	 9.973499e+00
0	 9.333333e+00	 4.666667e+00	 9.976052e+00
0	 9.333333e+00	 4.740741e+00	 9.978502e+00
0	 9.333333e+00	 4.814815e+00	 9.980851e+00
0	 9.407407e+00	 4.444444e+00	 9.963866e+00
0	 9.407407e+00	 4.518519e+00	 9.966774e+00
0	 9.407407e+00	 4.592593e+00	 9.969576e+00
0	 9.407407e+00	 4.666667e+00	 9.972272e+00
0	 9.407407e+00	 4.740741e+00	 9.974861e+00
0	 9.407407e+00	 4.814815e+00	 9.977344e+00
0	 9.481481e+00	 4.444444e+00	 9.959839e+00
0	 9.481481e+00	 4.518519e+00	 9.962901e+00
0	 9.481481e+00	 4.592593e+00	 9.965852e+00
0	 9.481481e+00	 4.666667e+00	 9.968692e+00
0	 9.481481e+00	 4.740741e+00	 9.971422e+00
0	 9.481481e+00	 4.814815e+00	 9.974041e+00
0	 9.555556e+00	 4.444444e+00	 9.956022e+00
0	 9.555556e+00	 4.518519e+00	 9.959241e+00
0	 9.555556e+00	 4.592593e+00	 9.962343e+00
0	 9.555556e+00	 4.666667e+00	 9.965330e+00
0	 9.555556e+00	 4.740741e+00	 9.968201e+00
0	 9.555556e+00	 4.814815e+00	 9.970956e+00
0	 9.629630e+00	 4.444444e+00	 9.952430e+00
0	 9.629630e+00	 4.518519e+00	 9.955809e+00
0	 9.629630e+00	 4.592593e+00	 9.959066e+00
0	 9.629630e+00	 4.666667e+00	 9.962202e+00
0	 9.629630e+00	 4.740741e+00	 9.965216e+00
0	 9.629630e+00	 4.814815e+00	 9.968109e+00
0	 9.259259e+00	 4.814815e+00	 9.984544e+00
0	 9.259259e+00	 4.888889e+00	 9.986660e+00
0	 9.259259e+00	 4.962963e+00	 9.988678e+00
0	 9.259259e+00	 5.037037e+00	 9.990596e+00
0	 9.259259e+00	 5.111111e+00	 9.992415e+00
0	 9.259259e+00	 5.185185e+00	 9.994134e+00
0	 9.333333e+00	 4.814815e+00	 9.980851e+00
0	 9.333333e+00	 4.888889e+00	 9.983097e+00
0	 9.333333e+00	 4.962963e+00	 9.985241e+00
0	 9.333333e+00	 5.037037e+00	 9.987281e+00
0	 9.333333e+00	 5.111111e+00	 9.989219e+00
0	 9.333333e+00	 5.185185e+00	 9.991053e+00
0	 9.407407e+00	 4.814815e+00	 9.977344e+00
0	 9.407407e+00	 4.888889e+00	 9.979721e+00
0	 9.407407e+00	 4.962963e+00	 9.981991e+00
0	 9.407407e+00	 5.037037e+00	 9.984153e+00
0	 9.407407e+00	 5.111111e+00	 9.986208e+00
0	 9.407407e+00	 5.185185e+00	 9.988156e+00
0	 9.481481e+00	 4.814815e+00	 9.974041e+00
0	 9.481481e+00	 4.888889e+00	 9.976548e+00
0	 9.481481e+00	 4.962963e+00	 9.978944e+00
0	 9.481481e+00	 5.037037e+00	 9.981228e+00
0	 9.481481e+00	 5.111111e+00	 9.983400e+00
0	 9.481481e+00	 5.185185e+00	 9.985460e+00
0	 9.555556e+00	 4.814815e+00	 9.970956e+00
0	 9.555556e+00	 4.888889e+00	 9.973596e+00
0	 9.555556e+00	 4.962963e+00	 9.976118e+00
0	 9.555556e+00	 5.037037e+00	 9.978523e+00
0	 9.555556e+00	 5.111111e+00	 9.980811e+00
0	 9.555556e+00	 5.185185e+00	 9.982981e+00
0	 9.629630e+00	 4.814815e+00	 9.968109e+00
0	 9.629630e+00	 4.888889e+00	 9.970880e+00
0	 9.629630e+00	 4.962963e+00	 9.973528e+00
0	 9.629630e+00	 5.037037e+00	 9.976054e+00
0	 9.629630e+00	 5.111111e+00	 9.978456e+00
0	 9.629630e+00	 5.185185e+00	 9.980736e+00
0	 9.259259e+00	 5.185185e+00	 9.994134e+00
0	 9.259259e+00	 5.259259e+00	 9.995757e+00
0	 9.259259e+00	 5.333333e+00	 9.997285e+00
0	 9.259259e+00	 5.407407e+00	 9.998718e+00
0	 9.259259e+00	 5.481481e+00	 1.000006e+01
0	 9.259259e+00	 5.555556e+00	 1.000130e+01
0	 9.333333e+00	 5.185185e+00	 9.991053e+00
0	 9.333333e+00	 5.259259e+00	 9.992786e+00
0	 9.333333e+00	 5.333333e+00	 9.994421e+00
0	 9.333333e+00	 5.407407e+00	 9.995957e+00
0	 9.333333e+00	 5.481481e+00	 9.997394e+00
0	 9.333333e+00	 5.555556e+00	 9.998731e+00
0	 9.407407e+00	 5.185185e+00	 9.988156e+00
0	 9.407407e+00	 5.259259e+00	 9.989998e+00
0	 9.407407e+00	 5.333333e+00	 9.991738e+00
0	 9.407407e+00	 5.407407e+00	 9.993375e+00
0	 9.407407e+00	 5.481481e+00	 9.994909e+00
0	 9.407407e+00	 5.555556e+00	 9.996339e+00
0	 9.481481e+00	 5.185185e+00	 9.985460e+00
0	 9.481481e+00	 5.259259e+00	 9.987410e+00
0	 9.481481e+00	 5.333333e+00	 9.989253e+00
0	 9.481481e+00	 5.407407e+00	 9.990989e+00
0	 9.481481e+00	 5.481481e+00	 9.992616e+00
0	 9.481481e+00	 5.555556e+00	 9.994136e+00
0	 9.555556e+00	 5.185185e+00	 9.982981e+00
0	 9.555556e+00	 5.259259e+00	 9.985037e+00
0	 9.555556e+00	 5.333333e+00	 9.986981e+00
0	 9.555556e+00	 5.407407e+00	 9.988813e+00
0	 9.555556e+00	 5.481481e+00	 9.990531e+00
0	 9.555556e+00	 5.555556e+00	 9.992137e+00
0	 9.629630e+00	 5.185185e+00	 9.980736e+00
0	 9.629630e+00	 5.259259e+00	 9.982895e+00
0	 9.629630e+00	 5.333333e+00	 9.984938e+00
0	 9.629630e+00	 5.407407e+00	 9.986862e+00
0	 9.629630e+00	 5.481481e+00	 9.988669e+00
0	 9.629630e+00	 5.555556e+00	 9.990357e+00
0	 9.259259e+00	 5.555556e+00	 1.000130e+01
0	 9.259259e+00	 5.629630e+00	 1.000245e+01
0	 9.259259e+00	 5.703704e+00	 1.000351e+01
0	 9.259259e+00	 5.777778e+00	 1.000449e+01
0	 9.259259e+00	 5.851852e+00	 1.000538e+01
0	 9.259259e+00	 5.925926e+00	 1.000619e+01
0	 9.333333e+00	 5.555556e+00	 9.998731e+00
0	 9.333333e+00	 5.629630e+00	 9.999974e+00
0	 9.333333e+00	 5.703704e+00	 1.000113e+01
0	 9.333333e+00	 5.777778e+00	 1.000219e+01
0	 9.333333e+00	 5.851852e+00	 1.000316e+01
0	 9.333333e+00	 5.925926e+00	 1.000405e+01
0	 9.407407e+00	 5.555556e+00	 9.996339e+00
0	 9.407407e+00	 5.629630e+00	 9.997671e+00
0	 9.407407e+00	 5.703704e+00	 9.998909e+00
0	 9.407407e+00	 5.777778e+00	 1.000005e+01
0	 9.407407e+00	 5.851852e+00	 1.000110e+01
0	 9.407407e+00	 5.925926e+00	 1.000206e+01
0	 9.481481e+00	 5.555556e+00	 9.994136e+00
0	 9.481481e+00	 5.629630e+00	 9.995553e+00
0	 9.481481e+00	 5.703704e+00	 9.996873e+00
0	 9.481481e+00	 5.777778e+00	 9.998095e+00
0	 9.481481e+00	 5.851852e+00	 9.999218e+00
0	 9.481481e+00	 5.925926e+00	 1.000024e+01
0	 9.555556e+00	 5.555556e+00	 9.992137e+00
0	 9.555556e+00	 5.629630e+00	 9.993636e+00
0	 9.555556e+00	 5.703704e+00	 9.995032e+00
0	 9.555556e+00	 5.777778e+00	 9.996327e+00
0	 9.555556e+00	 5.851852e+00	 9.997519e+00
0	 9.555556e+00	 5.925926e+00	 9.998607e+00
0	 9.629630e+00	 5.555556e+00	 9.990357e+00
0	 9.629630e+00	 5.629630e+00	 9.991933e+00
0	 9.629630e+00	 5.703704e+00	 9.993402e+00
0	 9.629630e+00	 5.777778e+00	 9.994765e+00
0	 9.629630e+00	 5.851852e+00	 9.996019e+00
0	 9.629630e+00	 5.925926e+00	 9.997166e+00
0	 9.259259e+00	 5.925926e+00	 1.000619e+01
0	 9.259259e+00	 6.000000e+00	 1.000691e+01
0	 9.259259e+00	 6.074074e+00	 1.000756e+01
0	 9.259259e+00	 6.148148e+00	 1.000814e+01
0	 9.259259e+00	 6.222222e+00	 1.000863e+01
0	 9.259259e+00	 6.296296e+00	 1.000906e+01
0	 9.333333e+00	 5.925926e+00	 1.000405e+01
0	 9.333333e+00	 6.000000e+00	 1.000484e+01
0	 9.333333e+00	 6.074074e+00	 1.000556e+01
0	 9.333333e+00	 6.148148e+00	 1.000621e+01
0	 9.333333e+00	 6.222222e+00	 1.000677e+01
0	 9.333333e+00	 6.296296e+00	 1.000726e+01
0	 9.407407e+00	 5.925926e+00	 1.000206e+01
0	 9.407407e+00	 6.000000e+00	 1.000293e+01
0	 9.407407e+00	 6.074074e+00	 1.000371e+01
0	 9.407407e+00	 6.148148e+00	 1.000442e+01
0	 9.407407e+00	 6.222222e+00	 1.000505e+01
0	 9.407407e+00	 6.296296e+00	 1.000559e+01
0	 9.481481e+00	 5.925926e+00	 1.000024e+01
0	 9.481481e+00	 6.000000e+00	 1.000117e+01
0	 9.481481e+00	 6.074074e+00	 1.000202e+01
0	 9.481481e+00	 6.148148e+00	 1.000279e+01
0	 9.481481e+00	 6.222222e+00	 1.000347e+01
0	 9.481481e+00	 6.296296e+00	 1.000406e+01
0	 9.555556e+00	 5.925926e+00	 9.998607e+00
0	 9.555556e+00	 6.000000e+00	 9.999599e+00
0	 9.555556e+00	 6.074074e+00	 1.000050e+01
0	 9.555556e+00	 6.148148e+00	 1.000132e+01
0	 9.555556e+00	 6.222222e+00	 1.000205e+01
0	 9.555556e+00	 6.296296e+00	 1.000269e+01
0	 9.629630e+00	 5.925926e+00	 9.997166e+00
0	 9.629630e+00	 6.000000e+00	 9.998213e+00
0	 9.629630e+00	 6.074074e+00	 9.999168e+00
0	 9.629630e+00	 6.148148e+00	 1.000003e+01
0	 9.629630e+00	 6.222222e+00	 1.000080e+01
0	 9.629630e+00	 6.296296e+00	 1.000148e+01
0	 9.259259e+00	 6.296296e+00	 1.000906e+01
0	 9.259259e+00	 6.370370e+00	 1.000941e+01
0	 9.259259e+00	 6.444444e+00	 1.000971e+01
0	 9.259259e+00	 6.518519e+00	 1.000994e+01
0	 9.259259e+00	 6.592593e+00	 1.001011e+01
0	 9.259259e+00	 6.666667e+00	 1.001022e+01
0	 9.333333e+00	 6.296296e+00	 1.000726e+01
0	 9.333333e+00	 6.370370e+00	 1.000767e+01
0	 9.333333e+00	 6.444444e+00	 1.000802e+01
0	 9.333333e+00	 6.518519e+00	 1.000831e+01
0	 9.333333e+00	 6.592593e+00	 1.000853e+01
0	 9.333333e+00	 6.666667e+00	 1.000869e+01
0	 9.407407e+00	 6.296296e+00	 1.000559e+01
0	 9.407407e+00	 6.370370e+00	 1.000605e+01
0	 9.407407e+00	 6.444444e+00	 1.000646e+01
0	 9.407407e+00	 6.518519e+00	 1.000680e+01
0	 9.407407e+00	 6.592593e+00	 1.000707e+01
0	 9.407407e+00	 6.666667e+00	 1.000727e+01
0	 9.481481e+00	 6.296296e+00	 1.000406e+01
0	 9.481481e+00	 6.370370e+00	 1.000458e+01
0	 9.481481e+00	 6.444444e+00	 1.000503e+01
0	 9.481481e+00	 6.518519e+00	 1.000541e+01
0	 9.481481e+00	 6.592593e+00	 1.000572e+01
0	 9.481481e+00	 6.666667e+00	 1.000596e+01
0	 9.555556e+00	 6.296296e+00	 1.000269e+01
0	 9.555556e+00	 6.370370e+00	 1.000325e+01
0	 9.555556e+00	 6.444444e+00	 1.000374e+01
0	 9.555556e+00	 6.518519e+00	 1.000415e+01
0	 9.555556e+00	 6.592593e+00	 1.000450e+01
0	 9.555556e+00	 6.666667e+00	 1.000477e+01
0	 9.629630e+00	 6.296296e+00	 1.000148e+01
0	 9.629630e+00	 6.370370e+00	 1.000207e+01
0	 9.629630e+00	 6.444444e+00	 1.000259e+01
0	 9.629630e+00	 6.518519e+00	 1.000304e+01
0	 9.629630e+00	 6.592593e+00	 1.000341e+01
0	 9.629630e+00	 6.666667e+00	 1.000371e+01
0	 9.259259e+00	 6.666667e+00	 1.001022e+01
0	 9.259259e+00	 6.740741e+00	 1.001028e+01
0	 9.259259e+00	 6.814815e+00	 1.001029e+01
0	 9.259259e+00	 6.888889e+00	 1.001026e+01
0	 9.259259e+00	 6.962963e+00	 1.001018e+01
0	 9.259259e+00	 7.037037e+00	 1.001005e+01
0	 9.333333e+00	 6.666667e+00	 1.000869e+01
0	 9.333333e+00	 6.740741e+00	 1.000880e+01
0	 9.333333e+00	 6.814815e+00	 1.000885e+01
0	 9.333333e+00	 6.888889e+00	 1.000886e+01
0	 9.333333e+00	 6.962963e+00	 1.000883e+01
0	 9.333333e+00	 7.037037e+00	 1.000874e+01
0	 9.407407e+00	 6.666667e+00	 1.000727e+01
0	 9.407407e+00	 6.740741e+00	 1.000742e+01
0	 9.407407e+00	 6.814815e+00	 1.000751e+01
0	 9.407407e+00	 6.888889e+00	 1.000756e+01
0	 9.407407e+00	 6.962963e+00	 1.000756e+01
0	 9.407407e+00	 7.037037e+00	 1.000751e+01
0	 9.481481e+00	 6.666667e+00	 1.000596e+01
0	 9.481481e+00	 6.740741e+00	 1.000614e+01
0	 9.481481e+00	 6.814815e+00	 1.000627e+01
0	 9.481481e+00	 6.888889e+00	 1.000635e+01
0	 9.481481e+00	 6.962963e+00	 1.000638e+01
0	 9.481481e+00	 7.037037e+00	 1.000636e+01
0	 9.555556e+00	 6.666667e+00	 1.000477e+01
0	 9.555556e+00	 6.740741e+00	 1.000498e+01
0	 9.555556e+00	 6.814815e+00	 1.000514e+01
0	 9.555556e+00	 6.888889e+00	 1.000524e+01
0	 9.555556e+00	 6.962963e+00	 1.000530e+01
0	 9.555556e+00	 7.037037e+00	 1.000530e+01
0	 9.629630e+00	 6.666667e+00	 1.000371e+01
0	 9.629630e+00	 6.740741e+00	 1.000394e+01
0	 9.629630e+00	 6.814815e+00	 1.000412e+01
0	 9.629630e+00	 6.888889e+00	 1.000424e+01
0	 9.629630e+00	 6.962963e+00	 1.000431e+01
0	 9.629630e+00	 7.037037e+00	 1.000432e+01
0	 9.259259e+00	 7.037037e+00	 1.001005e+01
0	 9.259259e+00	 7.111111e+00	 1.000988e+01
0	 9.259259e+00	 7.185185e+00	 1.000969e+01
0	 9.259259e+00	 7.259259e+00	 1.000946e+01
0	 9.259259e+00	 7.333333e+00	 1.000921e+01
0	 9.259259e+00	 7.407407e+00	 1.000892e+01
0	 9.333333e+00	 7.037037e+00	 1.000874e+01
0	 9.333333e+00	 7.111111e+00	 1.000861e+01
0	 9.333333e+00	 7.185185e+00	 1.000846e+01
0	 9.333333e+00	 7.259259e+00	 1.000827e+01
0	 9.333333e+00	 7.333333e+00	 1.000805e+01
0	 9.333333e+00	 7.407407e+00	 1.000780e+01
0	 9.407407e+00	 7.037037e+00	 1.000751e+01
0	 9.407407e+00	 7.111111e+00	 1.000742e+01
0	 9.407407e+00	 7.185185e+00	 1.000729e+01
0	 9.407407e+00	 7.259259e+00	 1.000714e+01
0	 9.407407e+00	 7.333333e+00	 1.000695e+01
0	 9.407407e+00	 7.407407e+00	 1.000673e+01
0	 9.481481e+00	 7.037037e+00	 1.000636e+01
0	 9.481481e+00	 7.111111e+00	 1.000629e+01
0	 9.481481e+00	 7.185185e+00	 1.000620e+01
0	 9.481481e+00	 7.259259e+00	 1.000607e+01
0	 9.481481e+00	 7.333333e+00	 1.000591e+01
0	 9.481481e+00	 7.407407e+00	 1.000571e+01
0	 9.555556e+00	 7.037037e+00	 1.000530e+01
0	 9.555556e+00	 7.111111e+00	 1.000525e+01
0	 9.555556e+00	 7.185185e+00	 1.000517e+01
0	 9.555556e+00	 7.259259e+00	 1.000506e+01
0	 9.555556e+00	 7.333333e+00	 1.000492e+01
0	 9.555556e+00	 7.407407e+00	 1.000474e+01
0	 9.629630e+00	 7.037037e+00	 1.000432e+01
0	 9.629630e+00	 7.111111e+00	 1.000429e+01
0	 9.629630e+00	 7.185185e+00	 1.000422e+01
0	 9.629630e+00	 7.259259e+00	 1.000412e+01
0	 9.629630e+00	 7.333333e+00	 1.000399e+01
0	 9.629630e+00	 7.407407e+00	 1.000382e+01
0	 9.259259e+00	 7.407407e+00	 1.000892e+01
0	 9.259259e+00	 7.481481e+00	 1.000861e+01
0	 9.259259e+00	 7.555556e+00	 1.000828e+01
0	 9.259259e+00	 7.629630e+00	 1.000794e+01
0	 9.259259e+00	 7.703704e+00	 1.000759e+01
0	 9.259259e+00	 7.777778e+00	 1.000721e+01
0	 9.333333e+00	 7.407407e+00	 1.000780e+01
0	 9.333333e+00	 7.481481e+00	 1.000752e+01
0	 9.333333e+00	 7.555556e+00	 1.000723e+01
0	 9.333333e+00	 7.629630e+00	 1.000693e+01
0	 9.333333e+00	 7.703704e+00	 1.000661e+01
0	 9.333333e+00	 7.777778e+00	 1.000627e+01
0	 9.407407e+00	 7.407407e+00	 1.000673e+01
0	 9.407407e+00	 7.481481e+00	 1.000648e+01
0	 9.407407e+00	 7.555556e+00	 1.000622e+01
0	 9.407407e+00	 7.629630e+00	 1.000595e+01
0	 9.407407e+00	 7.703704e+00	 1.000565e+01
0	 9.407407e+00	 7.777778e+00	 1.000534e+01
0	 9.481481e+00	 7.407407e+00	 1.000571e+01
0	 9.481481e+00	 7.481481e+00	 1.000549e+01
0	 9.481481e+00	 7.555556e+00	 1.000525e+01
0	 9.481481e+00	 7.629630e+00	 1.000500e+01
0	 9.481481e+00	 7.703704e+00	 1.000473e+01
0	 9.481481e+00	 7.777778e+00	 1.000444e+01
0	 9.555556e+00	 7.407407e+00	 1.000474e+01
0	 9.555556e+00	 7.481481e+00	 1.000453e+01
0	 9.555556e+00	 7.555556e+00	 1.000431e+01
0	 9.555556e+00	 7.629630e+00	 1.000408e+01
0	 9.555556e+00	 7.703704e+00	 1.000383e+01
0	 9.555556e+00	 7.777778e+00	 1.000356e+01
0	 9.629630e+00	 7.407407e+00	 1.000382e+01
0	 9.629630e+00	 7.481481e+00	 1.000362e+01
0	 9.629630e+00	 7.555556e+00	 1.000342e+01
0	 9.629630e+00	 7.629630e+00	 1.000319e+01
0	 9.629630e+00	 7.703704e+00	 1.000295e+01
0	 9.629630e+00	 7.777778e+00	 1.000270e+01
0	 9.259259e+00	 7.777778e+00	 1.000721e+01
0	 9.259259e+00	 7.851852e+00	 1.000683e+01
0	 9.259259e+00	 7.925926e+00	 1.000645e+01
0	 9.259259e+00	 8.000000e+00	 1.000606e+01
0	 9.259259e+00	 8.074074e+00	 1.000567e+01
0	 9.259259e+00	 8.148148e+00	 1.000528e+01
0	 9.333333e+00	 7.777778e+00	 1.000627e+01
0	 9.333333e+00	 7.851852e+00	 1.000592e+01
0	 9.333333e+00	 7.925926e+00	 1.000557e+01
0	 9.333333e+00	 8.000000e+00	 1.000522e+01
0	 9.333333e+00	 8.074074e+00	 1.000487e+01
0	 9.333333e+00	 8.148148e+00	 1.000451e+01
0	 9.407407e+00	 7.777778e+00	 1.000534e+01
0	 9.407407e+00	 7.851852e+00	 1.000503e+01
0	 9.407407e+00	 7.925926e+00	 1.000471e+01
0	 9.407407e+00	 8.000000e+00	 1.000439e+01
0	 9.407407e+00	 8.074074e+00	 1.000407e+01
0	 9.407407e+00	 8.148148e+00	 1.000374e+01
0	 9.481481e+00	 7.777778e+00	 1.000444e+01
0	 9.481481e+00	 7.851852e+00	 1.000415e+01
0	 9.481481e+00	 7.925926e+00	 1.000386e+01
0	 9.481481e+00	 8.000000e+00	 1.000356e+01
0	 9.481481e+00	 8.074074e+00	 1.000327e+01
0	 9.481481e+00	 8.148148e+00	 1.000297e+01
0	 9.555556e+00	 7.777778e+00	 1.000356e+01
0	 9.555556e+00	 7.851852e+00	 1.000329e+01
0	 9.555556e+00	 7.925926e+00	 1.000302e+01
0	 9.555556e+00	 8.000000e+00	 1.000274e+01
0	 9.555556e+00	 8.074074e+00	 1.000247e+01
0	 9.555556e+00	 8.148148e+00	 1.000220e+01
0	 9.629630e+00	 7.777778e+00	 1.000270e+01
0	 9.629630e+00	 7.851852e+00	 1.000244e+01
0	 9.629630e+00	 7.925926e+00	 1.000218e+01
0	 9.629630e+00	 8.000000e+00	 1.000192e+01
0	 9.629630e+00	 8.074074e+00	 1.000167e+01
0	 9.629630e+00	 8.148148e+00	 1.000141e+01
0	 9.259259e+00	 8.148148e+00	 1.000528e+01
0	 9.259259e+00	 8.222222e+00	 1.000489e+01
0	 9.259259e+00	 8.296296e+00	 1.000451e+01
0	 9.259259e+00	 8.370370e+00	 1.000414e+01
0	 9.259259e+00	 8.444444e+00	 1.000378e+01
0	 9.259259e+00	 8.518519e+00	 1.000342e+01
0	 9.333333e+00	 8.148148e+00	 1.000451e+01
0	 9.333333e+00	 8.222222e+00	 1.000416e+01
0	 9.333333e+00	 8.296296e+00	 1.000381e+01
0	 9.333333e+00	 8.370370e+00	 1.000348e+01
0	 9.333333e+00	 8.444444e+00	 1.000315e+01
0	 9.333333e+00	 8.518519e+00	 1.000283e+01
0	 9.407407e+00	 8.148148e+00	 1.000374e+01
0	 9.407407e+00	 8.222222e+00	 1.000342e+01
0	 9.407407e+00	 8.296296e+00	 1.000311e+01
0	 9.407407e+00	 8.370370e+00	 1.000281e+01
0	 9.407407e+00	 8.444444e+00	 1.000252e+01
0	 9.407407e+00	 8.518519e+00	 1.000223e+01
0	 9.481481e+00	 8.148148e+00	 1.000297e+01
0	 9.481481e+00	 8.222222e+00	 1.000268e+01
0	 9.481481e+00	 8.296296e+00	 1.000240e+01
0	 9.481481e+00	 8.370370e+00	 1.000213e+01
0	 9.481481e+00	 8.444444e+00	 1.000187e+01
0	 9.481481e+00	 8.518519e+00	 1.000162e+01
0	 9.555556e+00	 8.148148e+00	 1.000220e+01
0	 9.555556e+00	 8.222222e+00	 1.000193e+01
0	 9.555556e+00	 8.296296e+00	 1.000168e+01
0	 9.555556e+00	 8.370370e+00	 1.000143e+01
0	 9.555556e+00	 8.444444e+00	 1.000120e+01
0	 9.555556e+00	 8.518519e+00	 1.000098e+01
0	 9.629630e+00	 8.148148e+00	 1.000141e+01
0	 9.629630e+00	 8.222222e+00	 1.000116e+01
0	 9.629630e+00	 8.296296e+00	 1.000093e+01
0	 9.629630e+00	 8.370370e+00	 1.000072e+01
0	 9.629630e+00	 8.444444e+00	 1.000051e+01
0	 9.629630e+00	 8.518519e+00	 1.000032e+01
0	 9.259259e+00	 8.518519e+00	 1.000342e+01
0	 9.259259e+00	 8.592593e+00	 1.000308e+01
0	 9.259259e+00	 8.666667e+00	 1.000275e+01
0	 9.259259e+00	 8.740741e+00	 1.000244e+01
0	 9.259259e+00	 8.814815e+00	 1.000215e+01
0	 9.259259e+00	 8.888889e+00	 1.000187e+01
0	 9.333333e+00	 8.518519e+00	 1.000283e+01
0	 9.333333e+00	 8.592593e+00	 1.000253e+01
0	 9.333333e+00	 8.666667e+00	 1.000224e+01
0	 9.333333e+00	 8.740741e+00	 1.000197e+01
0	 9.333333e+00	 8.814815e+00	 1.000171e+01
0	 9.333333e+00	 8.888889e+00	 1.000147e+01
0	 9.407407e+00	 8.518519e+00	 1.000223e+01
0	 9.407407e+00	 8.592593e+00	 1.000196e+01
0	 9.407407e+00	 8.666667e+00	 1.000171e+01
0	 9.407407e+00	 8.740741e+00	 1.000148e+01
0	 9.407407e+00	 8.814815e+00	 1.000125e+01
0	 9.407407e+00	 8.888889e+00	 1.000105e+01
0	 9.481481e+00	 8.518519e+00	 1.000162e+01
0	 9.481481e+00	 8.592593e+00	 1.000138e+01
0	 9.481481e+00	 8.666667e+00	 1.000117e+01
0	 9.481481e+00	 8.740741e+00	 1.000097e+01
0	 9.481481e+00	 8.814815e+00	 1.000078e+01
0	 9.481481e+00	 8.888889e+00	 1.000061e+01
0	 9.555556e+00	 8.518519e+00	 1.000098e+01
0	 9.555556e+00	 8.592593e+00	 1.000078e+01
0	 9.555556e+00	 8.666667e+00	 1.000060e+01
0	 9.555556e+00	 8.740741e+00	 1.000043e+01
0	 9.555556e+00	 8.814815e+00	 1.000028e+01
0	 9.555556e+00	 8.888889e+00	 1.000016e+01
0	 9.629630e+00	 8.518519e+00	 1.000032e+01
0	 9.629630e+00	 8.592593e+00	 1.000015e+01
0	 9.629630e+00	 8.666667e+00	 9.999996e+00
0	 9.629630e+00	 8.740741e+00	 9.999866e+00
0	 9.629630e+00	 8.814815e+00	 9.999756e+00
0	 9.629630e+00	 8.888889e+00	 9.999666e+00
0	 9.259259e+00	 8.888889e+00	 1.000187e+01
0	 9.259259e+00	 8.962963e+00	 1.000160e+01
0	 9.259259e+00	 9.037037e+00	 1.000136e+01
0	 9.259259e+00	 9.111111e+00	 1.000114e+01
0	 9.259259e+00	 9.185185e+00	 1.000094e+01
0	 9.259259e+00	 9.259259e+00	 1.000076e+01
0	 9.333333e+00	 8.888889e+00	 1.000147e+01
0	 9.333333e+00	 8.962963e+00	 1.000124e+01
0	 9.333333e+00	 9.037037e+00	 1.000104e+01
0	 9.333333e+00	 9.111111e+00	 1.000085e+01
0	 9.333333e+00	 9.185185e+00	 1.000069e+01
0	 9.333333e+00	 9.259259e+00	 1.000054e+01
0	 9.407407e+00	 8.888889e+00	 1.000105e+01
0	 9.407407e+00	 8.962963e+00	 1.000086e+01
0	 9.407407e+00	 9.037037e+00	 1.000069e+01
0	 9.407407e+00	 9.111111e+00	 1.000055e+01
0	 9.407407e+00	 9.185185e+00	 1.000042e+01
0	 9.407407e+00	 9.259259e+00	 1.000031e+01
0	 9.481481e+00	 8.888889e+00	 1.000061e+01
0	 9.481481e+00	 8.962963e+00	 1.000047e+01
0	 9.481481e+00	 9.037037e+00	 1.000034e+01
0	 9.481481e+00	 9.111111e+00	 1.000022e+01
0	 9.481481e+00	 9.185185e+00	 1.000013e+01
0	 9.481481e+00	 9.259259e+00	 1.000006e+01
0	 9.555556e+00	 8.888889e+00	 1.000016e+01
0	 9.555556e+00	 8.962963e+00	 1.000005e+01
0	 9.555556e+00	 9.037037e+00	 9.999954e+00
0	 9.555556e+00	 9.111111e+00	 9.999881e+00
0	 9.555556e+00	 9.185185e+00	 9.999826e+00
0	 9.555556e+00	 9.259259e+00	 9.999790e+00
0	 9.629630e+00	 8.888889e+00	 9.999666e+00
0	 9.629630e+00	 8.962963e+00	 9.999597e+00
0	 9.629630e+00	 9.037037e+00	 9.999546e+00
0	 9.629630e+00	 9.111111e+00	 9.999514e+00
0	 9.629630e+00	 9.185185e+00	 9.999501e+00
0	 9.629630e+00	 9.259259e+00	 9.999506e+00
0	 9.259259e+00	 9.259259e+00	 1.000076e+01
0	 9.259259e+00	 9.333333e+00	 1.000060e+01
0	 9.259259e+00	 9.407407e+00	 1.000046e+01
0	 9.259259e+00	 9.481481e+00	 1.000034e+01
0	 9.259259e+00	 9.555556e+00	 1.000024e+01
0	 9.259259e+00	 9.629630e+00	 1.000016e+01
0	 9.333333e+00	 9.259259e+00	 1.000054e+01
0	 9.333333e+00	 9.333333e+00	 1.000041e+01
0	 9.333333e+00	 9.407407e+00	 1.000030e+01
0	 9.333333e+00	 9.481481e+00	 1.000021e+01
0	 9.333333e+00	 9.555556e+00	 1.000014e+01
0	 9.333333e+00	 9.629630e+00	 1.000009e+01
0	 9.407407e+00	 9.259259e+00	 1.000031e+01
0	 9.407407e+00	 9.333333e+00	 1.000021e+01
0	 9.407407e+00	 9.407407e+00	 1.000013e+01
0	 9.407407e+00	 9.481481e+00	 1.000008e+01
0	 9.407407e+00	 9.555556e+00	 1.000004e+01
0	 9.407407e+00	 9.629630e+00	 1.000002e+01
0	 9.481481e+00	 9.259259e+00	 1.000006e+01
0	 9.481481e+00	 9.333333e+00	 9.999997e+00
0	 9.481481e+00	 9.407407e+00	 9.999954e+00
0	 9.481481e+00	 9.481481e+00	 9.999929e+00
0	 9.481481e+00	 9.555556e+00	 9.999922e+00
0	 9.481481e+00	 9.629630e+00	 9.999933e+00
0	 9.555556e+00	 9.259259e+00	 9.999790e+00
0	 9.555556e+00	 9.333333e+00	 9.999769e+00
0	 9.555556e+00	 9.407407e+00	 9.999763e+00
0	 9.555556e+00	 9.481481e+00	 9.999773e+00
0	 9.555556e+00	 9.555556e+00	 9.999800e+00
0	 9.555556e+00	 9.629630e+00	 9.999843e+00
0	 9.629630e+00	 9.259259e+00	 9.999506e+00
0	 9.629630e+00	 9.333333e+00	 9.999527e+00
0	 9.629630e+00	 9.407407e+00	 9.999561e+00
0	 9.629630e+00	 9.481481e+00	 9.999608e+00
0	 9.629630e+00	 9.555556e+00	 9.999670e+00
0	 9.629630e+00	 9.629630e+00	 9.999746e+00
0	 9.259259e+00	 9.629630e+00	 1.000016e+01
0	 9.259259e+00	 9.703704e+00	 1.000010e+01
0	 9.259259e+00	 9.777778e+00	 1.000005e+01
0	 9.259259e+00	 9.851852e+00	 1.000002e+01
0	 9.259259e+00	 9.925926e+00	 1.000001e+01
0	 9.259259e+00	 1.000000e+01	 1.000001e+01
0	 9.333333e+00	 9.629630e+00	 1.000009e+01
0	 9.333333e+00	 9.703704e+00	 1.000006e+01
0	 9.333333e+00	 9.777778e+00	 1.000003e+01
0	 9.333333e+00	 9.851852e+00	 1.000001e+01
0	 9.333333e+00	 9.925926e+00	 1.000000e+01
0	 9.333333e+00	 1.000000e+01	 1.000002e+01
0	 9.407407e+00	 9.629630e+00	 1.000002e+01
0	 9.407407e+00	 9.703704e+00	 1.000001e+01
0	 9.407407e+00	 9.777778e+00	 9.999997e+00
0	 9.407407e+00	 9.851852e+00	 9.999993e+00
0	 9.407407e+00	 9.925926e+00	 9.999999e+00
0	 9.407407e+00	 1.000000e+01	 1.000002e+01
0	 9.481481e+00	 9.629630e+00	 9.999933e+00
0	 9.481481e+00	 9.703704e+00	 9.999950e+00
0	 9.481481e+00	 9.777778e+00	 9.999960e+00
0	 9.481481e+00	 9.851852e+00	 9.999972e+00
0	 9.481481e+00	 9.925926e+00	 9.999990e+00
0	 9.481481e+00	 1.000000e+01	 1.000002e+01
0	 9.555556e+00	 9.629630e+00	 9.999843e+00
0	 9.555556e+00	 9.703704e+00	 9.999886e+00
0	 9.555556e+00	 9.777778e+00	 9.999919e+00
0	 9.555556e+00	 9.851852e+00	 9.999947e+00
0	 9.555556e+00	 9.925926e+00	 9.999980e+00
0	 9.555556e+00	 1.000000e+01	 1.000002e+01
0	 9.629630e+00	 9.629630e+00	 9.999746e+00
0	 9.629630e+00	 9.703704e+00	 9.999817e+00
0	 9.629630e+00	 9.777778e+00	 9.999873e+00
0	 9.629630e+00	 9.851852e+00	 9.999921e+00
0	 9.629630e+00	 9.925926e+00	 9.999973e+00
0	 9.629630e+00	 1.000000e+01	 1.000004e+01
0	 9.629630e+00	 0.000000e+00	 9.727641e+00
0	 9.629630e+00	 7.407407e-02	 9.727754e+00
0	 9.629630e+00	 1.481481e-01	 9.728090e+00
0	 9.629630e+00	 2.222222e-01	 9.728649e+00
0	 9.629630e+00	 2.962963e-01	 9.729432e+00
0	 9.629630e+00	 3.703704e-01	 9.730439e+00
0	 9.703704e+00	 0.000000e+00	 9.712983e+00
0	 9.703704e+00	 7.407407e-02	 9.713102e+00
0	 9.703704e+00	 1.481481e-01	 9.713455e+00
0	 9.703704e+00	 2.222222e-01	 9.714043e+00
0	 9.703704e+00	 2.962963e-01	 9.714866e+00
0	 9.703704e+00	 3.703704e-01	 9.715925e+00
0	 9.777778e+00	 0.000000e+00	 9.697874e+00
0	 9.777778e+00	 7.407407e-02	 9.697999e+00
0	 9.777778e+00	 1.481481e-01	 9.698371e+00
0	 9.777778e+00	 2.222222e-01	 9.698990e+00
0	 9.777778e+00	 2.962963e-01	 9.699857e+00
0	 9.777778e+00	 3.703704e-01	 9.700971e+00
0	 9.851852e+00	 0.000000e+00	 9.682272e+00
0	 9.851852e+00	 7.407407e-02	 9.682403e+00
0	 9.851852e+00	 1.481481e-01	 9.682795e+00
0	 9.851852e+00	 2.222222e-01	 9.683448e+00
0	 9.851852e+00	 2.962963e-01	 9.684362e+00
0	 9.851852e+00	 3.703704e-01	 9.685537e+00
0	 9.925926e+00	 0.000000e+00	 9.666135e+00
0	 9.925926e+00	 7.407407e-02	 9.666274e+00
0	 9.925926e+00	 1.481481e-01	 9.666688e+00
0	 9.925926e+00	 2.222222e-01	 9.667377e+00
0	 9.925926e+00	 2.962963e-01	 9.668342e+00
0	 9.925926e+00	 3.703704e-01	 9.669583e+00
0	 1.000000e+01	 0.000000e+00	 9.649422e+00
0	 1.000000e+01	 7.407407e-02	 9.649569e+00
0	 1.000000e+01	 1.481481e-01	 9.650006e+00
0	 1.000000e+01	 2.222222e-01	 9.650735e+00
0	 1.000000e+01	 2.962963e-01	 9.651755e+00
0	 1.000000e+01	 3.703704e-01	 9.653068e+00
0	 9.629630e+00	 3.703704e-01	 9.730439e+00
0	 9.629630e+00	 4.444444e-01	 9.731664e+00
0	 9.629630e+00	 5.185185e-01	 9.733100e+00
0	 9.629630e+00	 5.925926e-01	 9.734747e+00
0	 9.629630e+00	 6.666667e-01	 9.736608e+00
0	 9.629630e+00	 7.407407e-01	 9.738682e+00
0	 9.703704e+00	 3.703704e-01	 9.715925e+00
0	 9.703704e+00	 4.444444e-01	 9.717213e+00
0	 9.703704e+00	 5.185185e-01	 9.718722e+00
0	 9.703704e+00	 5.925926e-01	 9.720454e+00
0	 9.703704e+00	 6.666667e-01	 9.722410e+00
0	 9.703704e+00	 7.407407e-01	 9.724590e+00
0	 9.777778e+00	 3.703704e-01	 9.700971e+00
0	 9.777778e+00	 4.444444e-01	 9.702327e+00
0	 9.777778e+00	 5.185185e-01	 9.703916e+00
0	 9.777778e+00	 5.925926e-01	 9.705739e+00
0	 9.777778e+00	 6.666667e-01	 9.707798e+00
0	 9.777778e+00	 7.407407e-01	 9.710093e+00
0	 9.851852e+00	 3.703704e-01	 9.685537e+00
0	 9.851852e+00	 4.444444e-01	 9.686967e+00
0	 9.851852e+00	 5.185185e-01	 9.688642e+00
0	 9.851852e+00	 5.925926e-01	 9.690564e+00
0	 9.851852e+00	 6.666667e-01	 9.692735e+00
0	 9.851852e+00	 7.407407e-01	 9.695154e+00
0	 9.925926e+00	 3.703704e-01	 9.669583e+00
0	 9.925926e+00	 4.444444e-01	 9.671092e+00
0	 9.925926e+00	 5.185185e-01	 9.672861e+00
0	 9.925926e+00	 5.925926e-01	 9.674891e+00
0	 9.925926e+00	 6.666667e-01	 9.677182e+00
0	 9.925926e+00	 7.407407e-01	 9.679736e+00
0	 1.000000e+01	 3.703704e-01	 9.653068e+00
0	 1.000000e+01	 4.444444e-01	 9.654664e+00
0	 1.000000e+01	 5.185185e-01	 9.656535e+00
0	 1.000000e+01	 5.925926e-01	 9.658681e+00
0	 1.000000e+01	 6.666667e-01	 9.661103e+00
0	 1.000000e+01	 7.407407e-01	 9.663803e+00
0	 9.629630e+00	 7.407407e-01	 9.738682e+00
0	 9.629630e+00	 8.148148e-01	 9.740956e+00
0	 9.629630e+00	 8.888889e-01	 9.743418e+00
0	 9.629630e+00	 9.629630e-01	 9.746069e+00
0	 9.629630e+00	 1.037037e+00	 9.748910e+00
0	 9.629630e+00	 1.111111e+00	 9.751942e+00
0	 9.703704e+00	 7.407407e-01	 9.724590e+00
0	 9.703704e+00	 8.148148e-01	 9.726981e+00
0	 9.703704e+00	 8.888889e-01	 9.729569e+00
0	 9.703704e+00	 9.629630e-01	 9.732355e+00
0	 9.703704e+00	 1.037037e+00	 9.735342e+00
0	 9.703704e+00	 1.111111e+00	 9.738529e+00
0	 9.777778e+00	 7.407407e-01	 9.710093e+00
0	 9.777778e+00	 8.148148e-01	 9.712610e+00
0	 9.777778e+00	 8.888889e-01	 9.715334e+00
0	 9.777778e+00	 9.629630e-01	 9.718267e+00
0	 9.777778e+00	 1.037037e+00	 9.721410e+00
0	 9.777778e+00	 1.111111e+00	 9.724766e+00
0	 9.851852e+00	 7.407407e-01	 9.695154e+00
0	 9.851852e+00	 8.148148e-01	 9.697807e+00
0	 9.851852e+00	 8.888889e-01	 9.700678e+00
0	 9.851852e+00	 9.629630e-01	 9.703770e+00
0	 9.851852e+00	 1.037037e+00	 9.707083e+00
0	 9.851852e+00	 1.111111e+00	 9.710620e+00
0	 9.925926e+00	 7.407407e-01	 9.679736e+00
0	 9.925926e+00	 8.148148e-01	 9.682537e+00
0	 9.925926e+00	 8.888889e-01	 9.685568e+00
0	 9.925926e+00	 9.629630e-01	 9.688831e+00
0	 9.925926e+00	 1.037037e+00	 9.692328e+00
0	 9.925926e+00	 1.111111e+00	 9.696060e+00
0	 1.000000e+01	 7.407407e-01	 9.663803e+00
0	 1.000000e+01	 8.148148e-01	 9.666764e+00
0	 1.000000e+01	 8.888889e-01	 9.669967e+00
0	 1.000000e+01	 9.629630e-01	 9.673417e+00
0	 1.000000e+01	 1.037037e+00	 9.677112e+00
0	 1.000000e+01	 1.111111e+00	 9.681057e+00
0	 9.629630e+00	 1.111111e+00	 9.751942e+00
0	 9.629630e+00	 1.185185e+00	 9.755149e+00
0	 9.629630e+00	 1.259259e+00	 9.758510e+00
0	 9.629630e+00	 1.333333e+00	 9.762029e+00
0	 9.629630e+00	 1.407407e+00	 9.765707e+00
0	 9.629630e+00	 1.481481e+00	 9.769546e+00
0	 9.703704e+00	 1.111111e+00	 9.738529e+00
0	 9.703704e+00	 1.185185e+00	 9.741900e+00
0	 9.703704e+00	 1.259259e+00	 9.745433e+00
0	 9.703704e+00	 1.333333e+00	 9.749132e+00
0	 9.703704e+00	 1.407407e+00	 9.752998e+00
0	 9.703704e+00	 1.481481e+00	 9.757032e+00
0	 9.777778e+00	 1.111111e+00	 9.724766e+00
0	 9.777778e+00	 1.185185e+00	 9.728313e+00
0	 9.777778e+00	 1.259259e+00	 9.732032e+00
0	 9.777778e+00	 1.333333e+00	 9.735924e+00
0	 9.777778e+00	 1.407407e+00	 9.739992e+00
0	 9.777778e+00	 1.481481e+00	 9.744238e+00
0	 9.851852e+00	 1.111111e+00	 9.710620e+00
0	 9.851852e+00	 1.185185e+00	 9.714358e+00
0	 9.851852e+00	 1.259259e+00	 9.718277e+00
0	 9.851852e+00	 1.333333e+00	 9.722379e+00
0	 9.851852e+00	 1.407407e+00	 9.726665e+00
0	 9.851852e+00	 1.481481e+00	 9.731138e+00
0	 9.925926e+00	 1.111111e+00	 9.696060e+00
0	 9.925926e+00	 1.185185e+00	 9.700005e+00
0	 9.925926e+00	 1.259259e+00	 9.704141e+00
0	 9.925926e+00	 1.333333e+00	 9.708469e+00
0	 9.925926e+00	 1.407407e+00	 9.712991e+00
0	 9.925926e+00	 1.481481e+00	 9.717710e+00
0	 1.000000e+01	 1.111111e+00	 9.681057e+00
0	 1.000000e+01	 1.185185e+00	 9.685226e+00
0	 1.000000e+01	 1.259259e+00	 9.689595e+00
0	 1.000000e+01	 1.333333e+00	 9.694167e+00
0	 1.000000e+01	 1.407407e+00	 9.698944e+00
0	 1.000000e+01	 1.481481e+00	 9.703928e+00
0	 9.629630e+00	 1.481481e+00	 9.769546e+00
0	 9.629630e+00	 1.555556e+00	 9.773523e+00
0	 9.629630e+00	 1.629630e+00	 9.777618e+00
0	 9.629630e+00	 1.703704e+00	 9.781831e+00
0	 9.629630e+00	 1.777778e+00	 9.786166e+00
0	 9.629630e+00	 1.851852e+00	 9.790623e+00
0	 9.703704e+00	 1.481481e+00	 9.757032e+00
0	 9.703704e+00	 1.555556e+00	 9.761213e+00
0	 9.703704e+00	 1.629630e+00	 9.765516e+00
0	 9.703704e+00	 1.703704e+00	 9.769944e+00
0	 9.703704e+00	 1.777778e+00	 9.774499e+00
0	 9.703704e+00	 1.851852e+00	 9.779184e+00
0	 9.777778e+00	 1.481481e+00	 9.744238e+00
0	 9.777778e+00	 1.555556e+00	 9.748636e+00
0	 9.777778e+00	 1.629630e+00	 9.753164e+00
0	 9.777778e+00	 1.703704e+00	 9.757823e+00
0	 9.777778e+00	 1.777778e+00	 9.762616e+00
0	 9.777778e+00	 1.851852e+00	 9.767543e+00
0	 9.851852e+00	 1.481481e+00	 9.731138e+00
0	 9.851852e+00	 1.555556e+00	 9.735772e+00
0	 9.851852e+00	 1.629630e+00	 9.740542e+00
0	 9.851852e+00	 1.703704e+00	 9.745449e+00
0	 9.851852e+00	 1.777778e+00	 9.750497e+00
0	 9.851852e+00	 1.851852e+00	 9.755686e+00
0	 9.925926e+00	 1.481481e+00	 9.717710e+00
0	 9.925926e+00	 1.555556e+00	 9.722598e+00
0	 9.925926e+00	 1.629630e+00	 9.727628e+00
0	 9.925926e+00	 1.703704e+00	 9.732803e+00
0	 9.925926e+00	 1.777778e+00	 9.738125e+00
0	 9.925926e+00	 1.851852e+00	 9.743597e+00
0	 1.000000e+01	 1.481481e+00	 9.703928e+00
0	 1.000000e+01	 1.555556e+00	 9.709090e+00
0	 1.000000e+01	 1.629630e+00	 9.714402e+00
0	 1.000000e+01	 1.703704e+00	 9.719865e+00
0	 1.000000e+01	 1.777778e+00	 9.725483e+00
0	 1.000000e+01	 1.851852e+00	 9.731258e+00
0	 9.629630e+00	 1.851852e+00	 9.790623e+00
0	 9.629630e+00	 1.925926e+00	 9.795179e+00
0	 9.629630e+00	 2.000000e+00	 9.799811e+00
0	 9.629630e+00	 2.074074e+00	 9.804520e+00
0	 9.629630e+00	 2.148148e+00	 9.809308e+00
0	 9.629630e+00	 2.222222e+00	 9.814177e+00
0	 9.703704e+00	 1.851852e+00	 9.779184e+00
0	 9.703704e+00	 1.925926e+00	 9.783972e+00
0	 9.703704e+00	 2.000000e+00	 9.788839e+00
0	 9.703704e+00	 2.074074e+00	 9.793786e+00
0	 9.703704e+00	 2.148148e+00	 9.798817e+00
0	 9.703704e+00	 2.222222e+00	 9.803933e+00
0	 9.777778e+00	 1.851852e+00	 9.767543e+00
0	 9.777778e+00	 1.925926e+00	 9.772580e+00
0	 9.777778e+00	 2.000000e+00	 9.777699e+00
0	 9.777778e+00	 2.074074e+00	 9.782903e+00
0	 9.777778e+00	 2.148148e+00	 9.788194e+00
0	 9.777778e+00	 2.222222e+00	 9.793574e+00
0	 9.851852e+00	 1.851852e+00	 9.755686e+00
0	 9.851852e+00	 1.925926e+00	 9.760990e+00
0	 9.851852e+00	 2.000000e+00	 9.766380e+00
0	 9.851852e+00	 2.074074e+00	 9.771859e+00
0	 9.851852e+00	 2.148148e+00	 9.777428e+00
0	 9.851852e+00	 2.222222e+00	 9.783091e+00
0	 9.925926e+00	 1.851852e+00	 9.743597e+00
0	 9.925926e+00	 1.925926e+00	 9.749188e+00
0	 9.925926e+00	 2.000000e+00	 9.754869e+00
0	 9.925926e+00	 2.074074e+00	 9.760643e+00
0	 9.925926e+00	 2.148148e+00	 9.766511e+00
0	 9.925926e+00	 2.222222e+00	 9.772477e+00
0	 1.000000e+01	 1.851852e+00	 9.731258e+00
0	 1.000000e+01	 1.925926e+00	 9.737159e+00
0	 1.000000e+01	 2.000000e+00	 9.743153e+00
0	 1.000000e+01	 2.074074e+00	 9.749244e+00
0	 1.000000e+01	 2.148148e+00	 9.755433e+00
0	 1.000000e+01	 2.222222e+00	 9.761725e+00
0	 9.629630e+00	 2.222222e+00	 9.814177e+00
0	 9.629630e+00	 2.296296e+00	 9.819103e+00
0	 9.629630e+00	 2.370370e+00	 9.824062e+00
0	 9.629630e+00	 2.444444e+00	 9.829055e+00
0	 9.629630e+00	 2.518519e+00	 9.834084e+00
0	 9.629630e+00	 2.592593e+00	 9.839153e+00
0	 9.703704e+00	 2.222222e+00	 9.803933e+00
0	 9.703704e+00	 2.296296e+00	 9.809109e+00
0	 9.703704e+00	 2.370370e+00	 9.814318e+00
0	 9.703704e+00	 2.444444e+00	 9.819564e+00
0	 9.703704e+00	 2.518519e+00	 9.824848e+00
0	 9.703704e+00	 2.592593e+00	 9.830172e+00
0	 9.777778e+00	 2.222222e+00	 9.793574e+00
0	 9.777778e+00	 2.296296e+00	 9.799016e+00
0	 9.777778e+00	 2.370370e+00	 9.804493e+00
0	 9.777778e+00	 2.444444e+00	 9.810008e+00
0	 9.777778e+00	 2.518519e+00	 9.815563e+00
0	 9.777778e+00	 2.592593e+00	 9.821159e+00
0	 9.851852e+00	 2.222222e+00	 9.783091e+00
0	 9.851852e+00	 2.296296e+00	 9.788819e+00
0	 9.851852e+00	 2.370370e+00	 9.794582e+00
0	 9.851852e+00	 2.444444e+00	 9.800385e+00
0	 9.851852e+00	 2.518519e+00	 9.806228e+00
0	 9.851852e+00	 2.592593e+00	 9.812115e+00
0	 9.925926e+00	 2.222222e+00	 9.772477e+00
0	 9.925926e+00	 2.296296e+00	 9.778511e+00
0	 9.925926e+00	 2.370370e+00	 9.784581e+00
0	 9.925926e+00	 2.444444e+00	 9.790691e+00
0	 9.925926e+00	 2.518519e+00	 9.796843e+00
0	 9.925926e+00	 2.592593e+00	 9.803040e+00
0	 1.000000e+01	 2.222222e+00	 9.761725e+00
0	 1.000000e+01	 2.296296e+00	 9.768086e+00
0	 1.000000e+01	 2.370370e+00	 9.774485e+00
0	 1.000000e+01	 2.444444e+00	 9.780924e+00
0	 1.000000e+01	 2.518519e+00	 9.787407e+00
0	 1.000000e+01	 2.592593e+00	 9.793934e+00
0	 9.629630e+00	 2.592593e+00	 9.839153e+00
0	 9.629630e+00	 2.666667e+00	 9.844236e+00
0	 9.629630e+00	 2.740741e+00	 9.849311e+00
0	 9.629630e+00	 2.814815e+00	 9.854381e+00
0	 9.629630e+00	 2.888889e+00	 9.859445e+00
0	 9.629630e+00	 2.962963e+00	 9.864508e+00
0	 9.703704e+00	 2.592593e+00	 9.830172e+00
0	 9.703704e+00	 2.666667e+00	 9.835511e+00
0	 9.703704e+00	 2.740741e+00	 9.840842e+00
0	 9.703704e+00	 2.814815e+00	 9.846166e+00
0	 9.703704e+00	 2.888889e+00	 9.851485e+00
0	 9.703704e+00	 2.962963e+00	 9.856801e+00
0	 9.777778e+00	 2.592593e+00	 9.821159e+00
0	 9.777778e+00	 2.666667e+00	 9.826771e+00
0	 9.777778e+00	 2.740741e+00	 9.832373e+00
0	 9.777778e+00	 2.814815e+00	 9.837968e+00
0	 9.777778e+00	 2.888889e+00	 9.843557e+00
0	 9.777778e+00	 2.962963e+00	 9.849142e+00
0	 9.851852e+00	 2.592593e+00	 9.812115e+00
0	 9.851852e+00	 2.666667e+00	 9.818017e+00
0	 9.851852e+00	 2.740741e+00	 9.823908e+00
0	 9.851852e+00	 2.814815e+00	 9.829791e+00
0	 9.851852e+00	 2.888889e+00	 9.835666e+00
0	 9.851852e+00	 2.962963e+00	 9.841536e+00
0	 9.925926e+00	 2.592593e+00	 9.803040e+00
0	 9.925926e+00	 2.666667e+00	 9.809252e+00
0	 9.925926e+00	 2.740741e+00	 9.815451e+00
0	 9.925926e+00	 2.814815e+00	 9.821639e+00
0	 9.925926e+00	 2.888889e+00	 9.827819e+00
0	 9.925926e+00	 2.962963e+00	 9.833992e+00
0	 1.000000e+01	 2.592593e+00	 9.793934e+00
0	 1.000000e+01	 2.666667e+00	 9.800477e+00
0	 1.000000e+01	 2.740741e+00	 9.807004e+00
0	 1.000000e+01	 2.814815e+00	 9.813519e+00
0	 1.000000e+01	 2.888889e+00	 9.820022e+00
0	 1.000000e+01	 2.962963e+00	 9.826517e+00
0	 9.629630e+00	 2.962963e+00	 9.864508e+00
0	 9.629630e+00	 3.037037e+00	 9.869546e+00
0	 9.629630e+00	 3.111111e+00	 9.874541e+00
0	 9.629630e+00	 3.185185e+00	 9.879493e+00
0	 9.629630e+00	 3.259259e+00	 9.884403e+00
0	 9.629630e+00	 3.333333e+00	 9.889274e+00
0	 9.703704e+00	 2.962963e+00	 9.856801e+00
0	 9.703704e+00	 3.037037e+00	 9.862093e+00
0	 9.703704e+00	 3.111111e+00	 9.867337e+00
0	 9.703704e+00	 3.185185e+00	 9.872536e+00
0	 9.703704e+00	 3.259259e+00	 9.877691e+00
0	 9.703704e+00	 3.333333e+00	 9.882805e+00
0	 9.777778e+00	 2.962963e+00	 9.849142e+00
0	 9.777778e+00	 3.037037e+00	 9.854700e+00
0	 9.777778e+00	 3.111111e+00	 9.860208e+00
0	 9.777778e+00	 3.185185e+00	 9.865668e+00
0	 9.777778e+00	 3.259259e+00	 9.871082e+00
0	 9.777778e+00	 3.333333e+00	 9.876451e+00
0	 9.851852e+00	 2.962963e+00	 9.841536e+00
0	 9.851852e+00	 3.037037e+00	 9.847377e+00
0	 9.851852e+00	 3.111111e+00	 9.853165e+00
0	 9.851852e+00	 3.185185e+00	 9.858901e+00
0	 9.851852e+00	 3.259259e+00	 9.864587e+00
0	 9.851852e+00	 3.333333e+00	 9.870225e+00
0	 9.925926e+00	 2.962963e+00	 9.833992e+00
0	 9.925926e+00	 3.037037e+00	 9.840133e+00
0	 9.925926e+00	 3.111111e+00	 9.846217e+00
0	 9.925926e+00	 3.185185e+00	 9.852245e+00
0	 9.925926e+00	 3.259259e+00	 9.858219e+00
0	 9.925926e+00	 3.333333e+00	 9.864141e+00
0	 1.000000e+01	 2.962963e+00	 9.826517e+00
0	 1.000000e+01	 3.037037e+00	 9.832977e+00
0	 1.000000e+01	 3.111111e+00	 9.839375e+00
0	 1.000000e+01	 3.185185e+00	 9.845712e+00
0	 1.000000e+01	 3.259259e+00	 9.851990e+00
0	 1.000000e+01	 3.333333e+00	 9.858212e+00
0	 9.629630e+00	 3.333333e+00	 9.889274e+00
0	 9.629630e+00	 3.407407e+00	 9.894087e+00
0	 9.629630e+00	 3.481481e+00	 9.898826e+00
0	 9.629630e+00	 3.555556e+00	 9.903492e+00
0	 9.629630e+00	 3.629630e+00	 9.908085e+00
0	 9.629630e+00	 3.703704e+00	 9.912607e+00
0	 9.703704e+00	 3.333333e+00	 9.882805e+00
0	 9.703704e+00	 3.407407e+00	 9.887858e+00
0	 9.703704e+00	 3.481481e+00	 9.892832e+00
0	 9.703704e+00	 3.555556e+00	 9.897729e+00
0	 9.703704e+00	 3.629630e+00	 9.902550e+00
0	 9.703704e+00	 3.703704e+00	 9.907296e+00
0	 9.777778e+00	 3.333333e+00	 9.876451e+00
0	 9.777778e+00	 3.407407e+00	 9.881756e+00
0	 9.777778e+00	 3.481481e+00	 9.886977e+00
0	 9.777778e+00	 3.555556e+00	 9.892116e+00
0	 9.777778e+00	 3.629630e+00	 9.897175e+00
0	 9.777778e+00	 3.703704e+00	 9.902154e+00
0	 9.851852e+00	 3.333333e+00	 9.870225e+00
0	 9.851852e+00	 3.407407e+00	 9.875795e+00
0	 9.851852e+00	 3.481481e+00	 9.881276e+00
0	 9.851852e+00	 3.555556e+00	 9.886669e+00
0	 9.851852e+00	 3.629630e+00	 9.891977e+00
0	 9.851852e+00	 3.703704e+00	 9.897201e+00
0	 9.925926e+00	 3.333333e+00	 9.864141e+00
0	 9.925926e+00	 3.407407e+00	 9.869990e+00
0	 9.925926e+00	 3.481481e+00	 9.875744e+00
0	 9.925926e+00	 3.555556e+00	 9.881405e+00
0	 9.925926e+00	 3.629630e+00	 9.886974e+00
0	 9.925926e+00	 3.703704e+00	 9.892453e+00
0	 1.000000e+01	 3.333333e+00	 9.858212e+00
0	 1.000000e+01	 3.407407e+00	 9.864356e+00
0	 1.000000e+01	 3.481481e+00	 9.870397e+00
0	 1.000000e+01	 3.555556e+00	 9.876339e+00
0	 1.000000e+01	 3.629630e+00	 9.882183e+00
0	 1.000000e+01	 3.703704e+00	 9.887930e+00
0	 9.629630e+00	 3.703704e+00	 9.912607e+00
0	 9.629630e+00	 3.777778e+00	 9.917045e+00
0	 9.629630e+00	 3.851852e+00	 9.921385e+00
0	 9.629630e+00	 3.925926e+00	 9.925628e+00
0	 9.629630e+00	 4.000000e+00	 9.929775e+00
0	 9.629630e+00	 4.074074e+00	 9.933826e+00
0	 9.703704e+00	 3.703704e+00	 9.907296e+00
0	 9.703704e+00	 3.777778e+00	 9.911953e+00
0	 9.703704e+00	 3.851852e+00	 9.916507e+00
0	 9.703704e+00	 3.925926e+00	 9.920958e+00
0	 9.703704e+00	 4.000000e+00	 9.925308e+00
0	 9.703704e+00	 4.074074e+00	 9.929558e+00
0	 9.777778e+00	 3.703704e+00	 9.902154e+00
0	 9.777778e+00	 3.777778e+00	 9.907039e+00
0	 9.777778e+00	 3.851852e+00	 9.911816e+00
0	 9.777778e+00	 3.925926e+00	 9.916484e+00
0	 9.777778e+00	 4.000000e+00	 9.921045e+00
0	 9.777778e+00	 4.074074e+00	 9.925500e+00
0	 9.851852e+00	 3.703704e+00	 9.897201e+00
0	 9.851852e+00	 3.777778e+00	 9.902324e+00
0	 9.851852e+00	 3.851852e+00	 9.907332e+00
0	 9.851852e+00	 3.925926e+00	 9.912226e+00
0	 9.851852e+00	 4.000000e+00	 9.917006e+00
0	 9.851852e+00	 4.074074e+00	 9.921674e+00
0	 9.925926e+00	 3.703704e+00	 9.892453e+00
0	 9.925926e+00	 3.777778e+00	 9.897826e+00
0	 9.925926e+00	 3.851852e+00	 9.903076e+00
0	 9.925926e+00	 3.925926e+00	 9.908204e+00
0	 9.925926e+00	 4.000000e+00	 9.913212e+00
0	 9.925926e+00	 4.074074e+00	 9.918100e+00
0	 1.000000e+01	 3.703704e+00	 9.887930e+00
0	 1.000000e+01	 3.777778e+00	 9.893564e+00
0	 1.000000e+01	 3.851852e+00	 9.899066e+00
0	 1.000000e+01	 3.925926e+00	 9.904439e+00
0	 1.000000e+01	 4.000000e+00	 9.909684e+00
0	 1.000000e+01	 4.074074e+00	 9.914801e+00
0	 9.629630e+00	 4.074074e+00	 9.933826e+00
0	 9.629630e+00	 4.148148e+00	 9.937773e+00
0	 9.629630e+00	 4.222222e+00	 9.941607e+00
0	 9.629630e+00	 4.296296e+00	 9.945327e+00
0	 9.629630e+00	 4.370370e+00	 9.948935e+00
0	 9.629630e+00	 4.444444e+00	 9.952430e+00
0	 9.703704e+00	 4.074074e+00	 9.929558e+00
0	 9.703704e+00	 4.148148e+00	 9.933698e+00
0	 9.703704e+00	 4.222222e+00	 9.937718e+00
0	 9.703704e+00	 4.296296e+00	 9.941620e+00
0	 9.703704e+00	 4.370370e+00	 9.945402e+00
0	 9.703704e+00	 4.444444e+00	 9.949067e+00
0	 9.777778e+00	 4.074074e+00	 9.925500e+00
0	 9.777778e+00	 4.148148e+00	 9.929839e+00
0	 9.777778e+00	 4.222222e+00	 9.934052e+00
0	 9.777778e+00	 4.296296e+00	 9.938140e+00
0	 9.777778e+00	 4.370370e+00	 9.942102e+00
0	 9.777778e+00	 4.444444e+00	 9.945940e+00
0	 9.851852e+00	 4.074074e+00	 9.921674e+00
0	 9.851852e+00	 4.148148e+00	 9.926219e+00
0	 9.851852e+00	 4.222222e+00	 9.930630e+00
0	 9.851852e+00	 4.296296e+00	 9.934909e+00
0	 9.851852e+00	 4.370370e+00	 9.939056e+00
0	 9.851852e+00	 4.444444e+00	 9.943071e+00
0	 9.925926e+00	 4.074074e+00	 9.918100e+00
0	 9.925926e+00	 4.148148e+00	 9.922858e+00
0	 9.925926e+00	 4.222222e+00	 9.927475e+00
0	 9.925926e+00	 4.296296e+00	 9.931951e+00
0	 9.925926e+00	 4.370370e+00	 9.936287e+00
0	 9.925926e+00	 4.444444e+00	 9.940484e+00
0	 1.000000e+01	 4.074074e+00	 9.914801e+00
0	 1.000000e+01	 4.148148e+00	 9.919780e+00
0	 1.000000e+01	 4.222222e+00	 9.924608e+00
0	 1.000000e+01	 4.296296e+00	 9.929287e+00
0	 1.000000e+01	 4.370370e+00	 9.933817e+00
0	 1.000000e+01	 4.444444e+00	 9.938200e+00
0	 9.629630e+00	 4.444444e+00	 9.952430e+00
0	 9.629630e+00	 4.518519e+00	 9.955809e+00
0	 9.629630e+00	 4.592593e+00	 9.959066e+00
0	 9.629630e+00	 4.666667e+00	 9.962202e+00
0	 9.629630e+00	 4.740741e+00	 9.965216e+00
0	 9.629630e+00	 4.814815e+00	 9.968109e+00
0	 9.703704e+00	 4.444444e+00	 9.949067e+00
0	 9.703704e+00	 4.518519e+00	 9.952609e+00
0	 9.703704e+00	 4.592593e+00	 9.956024e+00
0	 9.703704e+00	 4.666667e+00	 9.959310e+00
0	 9.703704e+00	 4.740741e+00	 9.962469e+00
0	 9.703704e+00	 4.814815e+00	 9.965500e+00
0	 9.777778e+00	 4.444444e+00	 9.945940e+00
0	 9.777778e+00	 4.518519e+00	 9.949649e+00
0	 9.777778e+00	 4.592593e+00	 9.953223e+00
0	 9.777778e+00	 4.666667e+00	 9.956662e+00
0	 9.777778e+00	 4.740741e+00	 9.959967e+00
0	 9.777778e+00	 4.814815e+00	 9.963137e+00
0	 9.851852e+00	 4.444444e+00	 9.943071e+00
0	 9.851852e+00	 4.518519e+00	 9.946950e+00
0	 9.851852e+00	 4.592593e+00	 9.950686e+00
0	 9.851852e+00	 4.666667e+00	 9.954280e+00
0	 9.851852e+00	 4.740741e+00	 9.957733e+00
0	 9.851852e+00	 4.814815e+00	 9.961044e+00
0	 9.925926e+00	 4.444444e+00	 9.940484e+00
0	 9.925926e+00	 4.518519e+00	 9.944536e+00
0	 9.925926e+00	 4.592593e+00	 9.948437e+00
0	 9.925926e+00	 4.666667e+00	 9.952188e+00
0	 9.925926e+00	 4.740741e+00	 9.955790e+00
0	 9.925926e+00	 4.814815e+00	 9.959241e+00
0	 1.000000e+01	 4.444444e+00	 9.938200e+00
0	 1.000000e+01	 4.518519e+00	 9.942429e+00
0	 1.000000e+01	 4.592593e+00	 9.946498e+00
0	 1.000000e+01	 4.666667e+00	 9.950409e+00
0	 1.000000e+01	 4.740741e+00	 9.954160e+00
0	 1.000000e+01	 4.814815e+00	 9.957754e+00
0	 9.629630e+00	 4.814815e+00	 9.968109e+00
0	 9.629630e+00	 4.888889e+00	 9.970880e+00
0	 9.629630e+00	 4.962963e+00	 9.973528e+00
0	 9.629630e+00	 5.037037e+00	 9.976054e+00
0	 9.629630e+00	 5.111111e+00	 9.978456e+00
0	 9.629630e+00	 5.185185e+00	 9.980736e+00
0	 9.703704e+00	 4.814815e+00	 9.965500e+00
0	 9.703704e+00	 4.888889e+00	 9.968403e+00
0	 9.703704e+00	 4.962963e+00	 9.971178e+00
0	 9.703704e+00	 5.037037e+00	 9.973823e+00
0	 9.703704e+00	 5.111111e+00	 9.976340e+00
0	 9.703704e+00	 5.185185e+00	 9.978727e+00
0	 9.777778e+00	 4.814815e+00	 9.963137e+00
0	 9.777778e+00	 4.888889e+00	 9.966173e+00
0	 9.777778e+00	 4.962963e+00	 9.969074e+00
0	 9.777778e+00	 5.037037e+00	 9.971838e+00
0	 9.777778e+00	 5.111111e+00	 9.974467e+00
0	 9.777778e+00	 5.185185e+00	 9.976960e+00
0	 9.851852e+00	 4.814815e+00	 9.961044e+00
0	 9.851852e+00	 4.888889e+00	 9.964212e+00
0	 9.851852e+00	 4.962963e+00	 9.967238e+00
0	 9.851852e+00	 5.037037e+00	 9.970121e+00
0	 9.851852e+00	 5.111111e+00	 9.972861e+00
0	 9.851852e+00	 5.185185e+00	 9.975458e+00
0	 9.925926e+00	 4.814815e+00	 9.959241e+00
0	 9.925926e+00	 4.888889e+00	 9.962543e+00
0	 9.925926e+00	 4.962963e+00	 9.965694e+00
0	 9.925926e+00	 5.037037e+00	 9.968694e+00
0	 9.925926e+00	 5.111111e+00	 9.971543e+00
0	 9.925926e+00	 5.185185e+00	 9.974242e+00
0	 1.000000e+01	 4.814815e+00	 9.957754e+00
0	 1.000000e+01	 4.888889e+00	 9.961188e+00
0	 1.000000e+01	 4.962963e+00	 9.964463e+00
0	 1.000000e+01	 5.037037e+00	 9.967579e+00
0	 1.000000e+01	 5.111111e+00	 9.970535e+00
0	 1.000000e+01	 5.185185e+00	 9.973332e+00
0	 9.629630e+00	 5.185185e+00	 9.980736e+00
0	 9.629630e+00	 5.259259e+00	 9.982895e+00
0	 9.629630e+00	 5.333333e+00	 9.984938e+00
0	 9.629630e+00	 5.407407e+00	 9.986862e+00
0	 9.629630e+00	 5.481481e+00	 9.988669e+00
0	 9.629630e+00	 5.555556e+00	 9.990357e+00
0	 9.703704e+00	 5.185185e+00	 9.978727e+00
0	 9.703704e+00	 5.259259e+00	 9.980988e+00
0	 9.703704e+00	 5.333333e+00	 9.983126e+00
0	 9.703704e+00	 5.407407e+00	 9.985141e+00
0	 9.703704e+00	 5.481481e+00	 9.987032e+00
0	 9.703704e+00	 5.555556e+00	 9.988798e+00
0	 9.777778e+00	 5.185185e+00	 9.976960e+00
0	 9.777778e+00	 5.259259e+00	 9.979321e+00
0	 9.777778e+00	 5.333333e+00	 9.981552e+00
0	 9.777778e+00	 5.407407e+00	 9.983654e+00
0	 9.777778e+00	 5.481481e+00	 9.985626e+00
0	 9.777778e+00	 5.555556e+00	 9.987467e+00
0	 9.851852e+00	 5.185185e+00	 9.975458e+00
0	 9.851852e+00	 5.259259e+00	 9.977915e+00
0	 9.851852e+00	 5.333333e+00	 9.980237e+00
0	 9.851852e+00	 5.407407e+00	 9.982422e+00
0	 9.851852e+00	 5.481481e+00	 9.984471e+00
0	 9.851852e+00	 5.555556e+00	 9.986382e+00
0	 9.925926e+00	 5.185185e+00	 9.974242e+00
0	 9.925926e+00	 5.259259e+00	 9.976793e+00
0	 9.925926e+00	 5.333333e+00	 9.979201e+00
0	 9.925926e+00	 5.407407e+00	 9.981465e+00
0	 9.925926e+00	 5.481481e+00	 9.983586e+00
0	 9.925926e+00	 5.555556e+00	 9.985562e+00
0	 1.000000e+01	 5.185185e+00	 9.973332e+00
0	 1.000000e+01	 5.259259e+00	 9.975974e+00
0	 1.000000e+01	 5.333333e+00	 9.978465e+00
0	 1.000000e+01	 5.407407e+00	 9.980804e+00
0	 1.000000e+01	 5.481481e+00	 9.982992e+00
0	 1.000000e+01	 5.555556e+00	 9.985028e+00
0	 9.629630e+00	 5.555556e+00	 9.990357e+00
0	 9.629630e+00	 5.629630e+00	 9.991933e+00
0	 9.629630e+00	 5.703704e+00	 9.993402e+00
0	 9.629630e+00	 5.777778e+00	 9.994765e+00
0	 9.629630e+00	 5.851852e+00	 9.996019e+00
0	 9.629630e+00	 5.925926e+00	 9.997166e+00
0	 9.703704e+00	 5.555556e+00	 9.988798e+00
0	 9.703704e+00	 5.629630e+00	 9.990447e+00
0	 9.703704e+00	 5.703704e+00	 9.991985e+00
0	 9.703704e+00	 5.777778e+00	 9.993410e+00
0	 9.703704e+00	 5.851852e+00	 9.994723e+00
0	 9.703704e+00	 5.925926e+00	 9.995922e+00
0	 9.777778e+00	 5.555556e+00	 9.987467e+00
0	 9.777778e+00	 5.629630e+00	 9.989185e+00
0	 9.777778e+00	 5.703704e+00	 9.990785e+00
0	 9.777778e+00	 5.777778e+00	 9.992269e+00
0	 9.777778e+00	 5.851852e+00	 9.993634e+00
0	 9.777778e+00	 5.925926e+00	 9.994880e+00
0	 9.851852e+00	 5.555556e+00	 9.986382e+00
0	 9.851852e+00	 5.629630e+00	 9.988163e+00
0	 9.851852e+00	 5.703704e+00	 9.989822e+00
0	 9.851852e+00	 5.777778e+00	 9.991358e+00
0	 9.851852e+00	 5.851852e+00	 9.992769e+00
0	 9.851852e+00	 5.925926e+00	 9.994056e+00
0	 9.925926e+00	 5.555556e+00	 9.985562e+00
0	 9.925926e+00	 5.629630e+00	 9.987402e+00
0	 9.925926e+00	 5.703704e+00	 9.989113e+00
0	 9.925926e+00	 5.777778e+00	 9.990694e+00
0	 9.925926e+00	 5.851852e+00	 9.992145e+00
0	 9.925926e+00	 5.925926e+00	 9.993465e+00
0	 1.000000e+01	 5.555556e+00	 9.985028e+00
0	 1.000000e+01	 5.629630e+00	 9.986919e+00
0	 1.000000e+01	 5.703704e+00	 9.988676e+00
0	 1.000000e+01	 5.777778e+00	 9.990296e+00
0	 1.000000e+01	 5.851852e+00	 9.991779e+00
0	 1.000000e+01	 5.925926e+00	 9.993125e+00
0	 9.629630e+00	 5.925926e+00	 9.997166e+00
0	 9.629630e+00	 6.000000e+00	 9.998213e+00
0	 9.629630e+00	 6.074074e+00	 9.999168e+00
0	 9.629630e+00	 6.148148e+00	 1.000003e+01
0	 9.629630e+00	 6.222222e+00	 1.000080e+01
0	 9.629630e+00	 6.296296e+00	 1.000148e+01
0	 9.703704e+00	 5.925926e+00	 9.995922e+00
0	 9.703704e+00	 6.000000e+00	 9.997017e+00
0	 9.703704e+00	 6.074074e+00	 9.998017e+00
0	 9.703704e+00	 6.148148e+00	 9.998920e+00
0	 9.703704e+00	 6.222222e+00	 9.999726e+00
0	 9.703704e+00	 6.296296e+00	 1.000043e+01
0	 9.777778e+00	 5.925926e+00	 9.994880e+00
0	 9.777778e+00	 6.000000e+00	 9.996017e+00
0	 9.777778e+00	 6.074074e+00	 9.997054e+00
0	 9.777778e+00	 6.148148e+00	 9.997991e+00
0	 9.777778e+00	 6.222222e+00	 9.998826e+00
0	 9.777778e+00	 6.296296e+00	 9.999559e+00
0	 9.851852e+00	 5.925926e+00	 9.994056e+00
0	 9.851852e+00	 6.000000e+00	 9.995228e+00
0	 9.851852e+00	 6.074074e+00	 9.996296e+00
0	 9.851852e+00	 6.148148e+00	 9.997258e+00
0	 9.851852e+00	 6.222222e+00	 9.998115e+00
0	 9.851852e+00	 6.296296e+00	 9.998864e+00
0	 9.925926e+00	 5.925926e+00	 9.993465e+00
0	 9.925926e+00	 6.000000e+00	 9.994665e+00
0	 9.925926e+00	 6.074074e+00	 9.995756e+00
0	 9.925926e+00	 6.148148e+00	 9.996736e+00
0	 9.925926e+00	 6.222222e+00	 9.997605e+00
0	 9.925926e+00	 6.296296e+00	 9.998362e+00
0	 1.000000e+01	 5.925926e+00	 9.993125e+00
0	 1.000000e+01	 6.000000e+00	 9.994344e+00
0	 1.000000e+01	 6.074074e+00	 9.995449e+00
0	 1.000000e+01	 6.148148e+00	 9.996438e+00
0	 1.000000e+01	 6.222222e+00	 9.997311e+00
0	 1.000000e+01	 6.296296e+00	 9.998066e+00
0	 9.629630e+00	 6.296296e+00	 1.000148e+01
0	 9.629630e+00	 6.370370e+00	 1.000207e+01
0	 9.629630e+00	 6.444444e+00	 1.000259e+01
0	 9.629630e+00	 6.518519e+00	 1.000304e+01
0	 9.629630e+00	 6.592593e+00	 1.000341e+01
0	 9.629630e+00	 6.666667e+00	 1.000371e+01
0	 9.703704e+00	 6.296296e+00	 1.000043e+01
0	 9.703704e+00	 6.370370e+00	 1.000106e+01
0	 9.703704e+00	 6.444444e+00	 1.000160e+01
0	 9.703704e+00	 6.518519e+00	 1.000207e+01
0	 9.703704e+00	 6.592593e+00	 1.000246e+01
0	 9.703704e+00	 6.666667e+00	 1.000277e+01
0	 9.777778e+00	 6.296296e+00	 9.999559e+00
0	 9.777778e+00	 6.370370e+00	 1.000020e+01
0	 9.777778e+00	 6.444444e+00	 1.000076e+01
0	 9.777778e+00	 6.518519e+00	 1.000125e+01
0	 9.777778e+00	 6.592593e+00	 1.000165e+01
0	 9.777778e+00	 6.666667e+00	 1.000197e+01
0	 9.851852e+00	 6.296296e+00	 9.998864e+00
0	 9.851852e+00	 6.370370e+00	 9.999519e+00
0	 9.851852e+00	 6.444444e+00	 1.000009e+01
0	 9.851852e+00	 6.518519e+00	 1.000058e+01
0	 9.851852e+00	 6.592593e+00	 1.000098e+01
0	 9.851852e+00	 6.666667e+00	 1.000130e+01
0	 9.925926e+00	 6.296296e+00	 9.998362e+00
0	 9.925926e+00	 6.370370e+00	 9.999020e+00
0	 9.925926e+00	 6.444444e+00	 9.999592e+00
0	 9.925926e+00	 6.518519e+00	 1.000008e+01
0	 9.925926e+00	 6.592593e+00	 1.000047e+01
0	 9.925926e+00	 6.666667e+00	 1.000078e+01
0	 1.000000e+01	 6.296296e+00	 9.998066e+00
0	 1.000000e+01	 6.370370e+00	 9.998718e+00
0	 1.000000e+01	 6.444444e+00	 9.999280e+00
0	 1.000000e+01	 6.518519e+00	 9.999751e+00
0	 1.000000e+01	 6.592593e+00	 1.000013e+01
0	 1.000000e+01	 6.666667e+00	 1.000042e+01
0	 9.629630e+00	 6.666667e+00	 1.000371e+01
0	 9.629630e+00	 6.740741e+00	 1.000394e+01
0	 9.629630e+00	 6.814815e+00	 1.000412e+01
0	 9.629630e+00	 6.888889e+00	 1.000424e+01
0	 9.629630e+00	 6.962963e+00	 1.000431e+01
0	 9.629630e+00	 7.037037e+00	 1.000432e+01
0	 9.703704e+00	 6.666667e+00	 1.000277e+01
0	 9.703704e+00	 6.740741e+00	 1.000302e+01
0	 9.703704e+00	 6.814815e+00	 1.000320e+01
0	 9.703704e+00	 6.888889e+00	 1.000334e+01
0	 9.703704e+00	 6.962963e+00	 1.000341e+01
0	 9.703704e+00	 7.037037e+00	 1.000343e+01
0	 9.777778e+00	 6.666667e+00	 1.000197e+01
0	 9.777778e+00	 6.740741e+00	 1.000222e+01
0	 9.777778e+00	 6.814815e+00	 1.000241e+01
0	 9.777778e+00	 6.888889e+00	 1.000254e+01
0	 9.777778e+00	 6.962963e+00	 1.000262e+01
0	 9.777778e+00	 7.037037e+00	 1.000264e+01
0	 9.851852e+00	 6.666667e+00	 1.000130e+01
0	 9.851852e+00	 6.740741e+00	 1.000155e+01
0	 9.851852e+00	 6.814815e+00	 1.000173e+01
0	 9.851852e+00	 6.888889e+00	 1.000186e+01
0	 9.851852e+00	 6.962963e+00	 1.000193e+01
0	 9.851852e+00	 7.037037e+00	 1.000193e+01
0	 9.925926e+00	 6.666667e+00	 1.000078e+01
0	 9.925926e+00	 6.740741e+00	 1.000101e+01
0	 9.925926e+00	 6.814815e+00	 1.000118e+01
0	 9.925926e+00	 6.888889e+00	 1.000129e+01
0	 9.925926e+00	 6.962963e+00	 1.000134e+01
0	 9.925926e+00	 7.037037e+00	 1.000133e+01
0	 1.000000e+01	 6.666667e+00	 1.000042e+01
0	 1.000000e+01	 6.740741e+00	 1.000062e+01
0	 1.000000e+01	 6.814815e+00	 1.000077e+01
0	 1.000000e+01	 6.888889e+00	 1.000085e+01
0	 1.000000e+01	 6.962963e+00	 1.000087e+01
0	 1.000000e+01	 7.037037e+00	 1.000082e+01
0	 9.629630e+00	 7.037037e+00	 1.000432e+01
0	 9.629630e+00	 7.111111e+00	 1.000429e+01
0	 9.629630e+00	 7.185185e+00	 1.000422e+01
0	 9.629630e+00	 7.259259e+00	 1.000412e+01
0	 9.629630e+00	 7.333333e+00	 1.000399e+01
0	 9.629630e+00	 7.407407e+00	 1.000382e+01
0	 9.703704e+00	 7.037037e+00	 1.000343e+01
0	 9.703704e+00	 7.111111e+00	 1.000340e+01
0	 9.703704e+00	 7.185185e+00	 1.000334e+01
0	 9.703704e+00	 7.259259e+00	 1.000325e+01
0	 9.703704e+00	 7.333333e+00	 1.000312e+01
0	 9.703704e+00	 7.407407e+00	 1.000295e+01
0	 9.777778e+00	 7.037037e+00	 1.000264e+01
0	 9.777778e+00	 7.111111e+00	 1.000260e+01
0	 9.777778e+00	 7.185185e+00	 1.000254e+01
0	 9.777778e+00	 7.259259e+00	 1.000244e+01
0	 9.777778e+00	 7.333333e+00	 1.000230e+01
0	 9.777778e+00	 7.407407e+00	 1.000213e+01
0	 9.851852e+00	 7.037037e+00	 1.000193e+01
0	 9.851852e+00	 7.111111e+00	 1.000189e+01
0	 9.851852e+00	 7.185185e+00	 1.000181e+01
0	 9.851852e+00	 7.259259e+00	 1.000170e+01
0	 9.851852e+00	 7.333333e+00	 1.000155e+01
0	 9.851852e+00	 7.407407e+00	 1.000136e+01
0	 9.925926e+00	 7.037037e+00	 1.000133e+01
0	 9.925926e+00	 7.111111e+00	 1.000126e+01
0	 9.925926e+00	 7.185185e+00	 1.000116e+01
0	 9.925926e+00	 7.259259e+00	 1.000102e+01
0	 9.925926e+00	 7.333333e+00	 1.000085e+01
0	 9.925926e+00	 7.407407e+00	 1.000064e+01
0	 1.000000e+01	 7.037037e+00	 1.000082e+01
0	 1.000000e+01	 7.111111e+00	 1.000072e+01
0	 1.000000e+01	 7.185185e+00	 1.000058e+01
0	 1.000000e+01	 7.259259e+00	 1.000041e+01
0	 1.000000e+01	 7.333333e+00	 1.000021e+01
0	 1.000000e+01	 7.407407e+00	 9.999962e+00
0	 9.629630e+00	 7.407407e+00	 1.000382e+01
0	 9.629630e+00	 7.481481e+00	 1.000362e+01
0	 9.629630e+00	 7.555556e+00	 1.000342e+01
0	 9.629630e+00	 7.629630e+00	 1.000319e+01
0	 9.629630e+00	 7.703704e+00	 1.000295e+01
0	 9.629630e+00	 7.777778e+00	 1.000270e+01
0	 9.703704e+00	 7.407407e+00	 1.000295e+01
0	 9.703704e+00	 7.481481e+00	 1.000276e+01
0	 9.703704e+00	 7.555556e+00	 1.000255e+01
0	 9.703704e+00	 7.629630e+00	 1.000233e+01
0	 9.703704e+00	 7.703704e+00	 1.000210e+01
0	 9.703704e+00	 7.777778e+00	 1.000185e+01
0	 9.777778e+00	 7.407407e+00	 1.000213e+01
0	 9.777778e+00	 7.481481e+00	 1.000193e+01
0	 9.777778e+00	 7.555556e+00	 1.000173e+01
0	 9.777778e+00	 7.629630e+00	 1.000150e+01
0	 9.777778e+00	 7.703704e+00	 1.000127e+01
0	 9.777778e+00	 7.777778e+00	 1.000102e+01
0	 9.851852e+00	 7.407407e+00	 1.000136e+01
0	 9.851852e+00	 7.481481e+00	 1.000115e+01
0	 9.851852e+00	 7.555556e+00	 1.000093e+01
0	 9.851852e+00	 7.629630e+00	 1.000070e+01
0	 9.851852e+00	 7.703704e+00	 1.000045e+01
0	 9.851852e+00	 7.777778e+00	 1.000019e+01
0	 9.925926e+00	 7.407407e+00	 1.000064e+01
0	 9.925926e+00	 7.481481e+00	 1.000040e+01
0	 9.925926e+00	 7.555556e+00	 1.000016e+01
0	 9.925926e+00	 7.629630e+00	 9.999907e+00
0	 9.925926e+00	 7.703704e+00	 9.999641e+00
0	 9.925926e+00	 7.777778e+00	 9.999363e+00
0	 1.000000e+01	 7.407407e+00	 9.999962e+00
0	 1.000000e+01	 7.481481e+00	 9.999694e+00
0	 1.000000e+01	 7.555556e+00	 9.999418e+00
0	 1.000000e+01	 7.629630e+00	 9.999134e+00
0	 1.000000e+01	 7.703704e+00	 9.998839e+00
0	 1.000000e+01	 7.777778e+00	 9.998534e+00
0	 9.629630e+00	 7.777778e+00	 1.000270e+01
0	 9.629630e+00	 7.851852e+00	 1.000244e+01
0	 9.629630e+00	 7.925926e+00	 1.000218e+01
0	 9.629630e+00	 8.000000e+00	 1.000192e+01
0	 9.629630e+00	 8.074074e+00	 1.000167e+01
0	 9.629630e+00	 8.148148e+00	 1.000141e+01
0	 9.703704e+00	 7.777778e+00	 1.000185e+01
0	 9.703704e+00	 7.851852e+00	 1.000160e+01
0	 9.703704e+00	 7.925926e+00	 1.000134e+01
0	 9.703704e+00	 8.000000e+00	 1.000110e+01
0	 9.703704e+00	 8.074074e+00	 1.000086e+01
0	 9.703704e+00	 8.148148e+00	 1.000061e+01
0	 9.777778e+00	 7.777778e+00	 1.000102e+01
0	 9.777778e+00	 7.851852e+00	 1.000076e+01
0	 9.777778e+00	 7.925926e+00	 1.000051e+01
0	 9.777778e+00	 8.000000e+00	 1.000027e+01
0	 9.777778e+00	 8.074074e+00	 1.000003e+01
0	 9.777778e+00	 8.148148e+00	 9.999802e+00
0	 9.851852e+00	 7.777778e+00	 1.000019e+01
0	 9.851852e+00	 7.851852e+00	 9.999925e+00
0	 9.851852e+00	 7.925926e+00	 9.999673e+00
0	 9.851852e+00	 8.000000e+00	 9.999428e+00
0	 9.851852e+00	 8.074074e+00	 9.999192e+00
0	 9.851852e+00	 8.148148e+00	 9.998963e+00
0	 9.925926e+00	 7.777778e+00	 9.999363e+00
0	 9.925926e+00	 7.851852e+00	 9.999085e+00
0	 9.925926e+00	 7.925926e+00	 9.998819e+00
0	 9.925926e+00	 8.000000e+00	 9.998565e+00
0	 9.925926e+00	 8.074074e+00	 9.998322e+00
0	 9.925926e+00	 8.148148e+00	 9.998089e+00
0	 1.000000e+01	 7.777778e+00	 9.998534e+00
0	 1.000000e+01	 7.851852e+00	 9.998231e+00
0	 1.000000e+01	 7.925926e+00	 9.997944e+00
0	 1.000000e+01	 8.000000e+00	 9.997672e+00
0	 1.000000e+01	 8.074074e+00	 9.997414e+00
0	 1.000000e+01	 8.148148e+00	 9.997169e+00
0	 9.629630e+00	 8.148148e+00	 1.000141e+01
0	 9.629630e+00	 8.222222e+00	 1.000116e+01
0	 9.629630e+00	 8.296296e+00	 1.000093e+01
0	 9.629630e+00	 8.370370e+00	 1.000072e+01
0	 9.629630e+00	 8.444444e+00	 1.000051e+01
0	 9.629630e+00	 8.518519e+00	 1.000032e+01
0	 9.703704e+00	 8.148148e+00	 1.000061e+01
0	 9.703704e+00	 8.222222e+00	 1.000038e+01
0	 9.703704e+00	 8.296296e+00	 1.000017e+01
0	 9.703704e+00	 8.370370e+00	 9.999974e+00
0	 9.703704e+00	 8.444444e+00	 9.999794e+00
0	 9.703704e+00	 8.518519e+00	 9.999630e+00
0	 9.777778e+00	 8.148148e+00	 9.999802e+00
0	 9.777778e+00	 8.222222e+00	 9.999582e+00
0	 9.777778e+00	 8.296296e+00	 9.999384e+00
0	 9.777778e+00	 8.370370e+00	 9.999205e+00
0	 9.777778e+00	 8.444444e+00	 9.999046e+00
0	 9.777778e+00	 8.518519e+00	 9.998905e+00
0	 9.851852e+00	 8.148148e+00	 9.998963e+00
0	 9.851852e+00	 8.222222e+00	 9.998750e+00
0	 9.851852e+00	 8.296296e+00	 9.998561e+00
0	 9.851852e+00	 8.370370e+00	 9.998396e+00
0	 9.851852e+00	 8.444444e+00	 9.998254e+00
0	 9.851852e+00	 8.518519e+00	 9.998134e+00
0	 9.925926e+00	 8.148148e+00	 9.998089e+00
0	 9.925926e+00	 8.222222e+00	 9.997875e+00
0	 9.925926e+00	 8.296296e+00	 9.997691e+00
0	 9.925926e+00	 8.370370e+00	 9.997534e+00
0	 9.925926e+00	 8.444444e+00	 9.997406e+00
0	 9.925926e+00	 8.518519e+00	 9.997304e+00
0	 1.000000e+01	 8.148148e+00	 9.997169e+00
0	 1.000000e+01	 8.222222e+00	 9.996948e+00
0	 1.000000e+01	 8.296296e+00	 9.996761e+00
0	 1.000000e+01	 8.370370e+00	 9.996608e+00
0	 1.000000e+01	 8.444444e+00	 9.996489e+00
0	 1.000000e+01	 8.518519e+00	 9.996402e+00
0	 9.629630e+00	 8.518519e+00	 1.000032e+01
0	 9.629630e+00	 8.592593e+00	 1.000015e+01
0	 9.629630e+00	 8.666667e+00	 9.999996e+00
0	 9.629630e+00	 8.740741e+00	 9.999866e+00
0	 9.629630e+00	 8.814815e+00	 9.999756e+00
0	 9.629630e+00	 8.888889e+00	 9.999666e+00
0	 9.703704e+00	 8.518519e+00	 9.999630e+00
0	 9.703704e+00	 8.592593e+00	 9.999486e+00
0	 9.703704e+00	 8.666667e+00	 9.999365e+00
0	 9.703704e+00	 8.740741e+00	 9.999269e+00
0	 9.703704e+00	 8.814815e+00	 9.999196e+00
0	 9.703704e+00	 8.888889e+00	 9.999147e+00
0	 9.777778e+00	 8.518519e+00	 9.998905e+00
0	 9.777778e+00	 8.592593e+00	 9.998788e+00
0	 9.777778e+00	 8.666667e+00	 9.998698e+00
0	 9.777778e+00	 8.740741e+00	 9.998635e+00
0	 9.777778e+00	 8.814815e+00	 9.998600e+00
0	 9.777778e+00	 8.888889e+00	 9.998591e+00
0	 9.851852e+00	 8.518519e+00	 9.998134e+00
0	 9.851852e+00	 8.592593e+00	 9.998042e+00
0	 9.851852e+00	 8.666667e+00	 9.997981e+00
0	 9.851852e+00	 8.740741e+00	 9.997951e+00
0	 9.851852e+00	 8.814815e+00	 9.997953e+00
0	 9.851852e+00	 8.888889e+00	 9.997986e+00
0	 9.925926e+00	 8.518519e+00	 9.997304e+00
0	 9.925926e+00	 8.592593e+00	 9.997235e+00
0	 9.925926e+00	 8.666667e+00	 9.997201e+00
0	 9.925926e+00	 8.740741e+00	 9.997204e+00
0	 9.925926e+00	 8.814815e+00	 9.997243e+00
0	 9.925926e+00	 8.888889e+00	 9.997318e+00
0	 1.000000e+01	 8.518519e+00	 9.996402e+00
0	 1.000000e+01	 8.592593e+00	 9.996353e+00
0	 1.000000e+01	 8.666667e+00	 9.996346e+00
0	 1.000000e+01	 8.740741e+00	 9.996381e+00
0	 1.000000e+01	 8.814815e+00	 9.996457e+00
0	 1.000000e+01	 8.888889e+00	 9.996574e+00
0	 9.629630e+00	 8.888889e+00	 9.999666e+00
0	 9.629630e+00	 8.962963e+00	 9.999597e+00
0	 9.629630e+00	 9.037037e+00	 9.999546e+00
0	 9.629630e+00	 9.111111e+00	 9.999514e+00
0	 9.629630e+00	 9.185185e+00	 9.999501e+00
0	 9.629630e+00	 9.259259e+00	 9.999506e+00
0	 9.703704e+00	 8.888889e+00	 9.999147e+00
0	 9.703704e+00	 8.962963e+00	 9.999119e+00
0	 9.703704e+00	 9.037037e+00	 9.999110e+00
0	 9.703704e+00	 9.111111e+00	 9.999122e+00
0	 9.703704e+00	 9.185185e+00	 9.999152e+00
0	 9.703704e+00	 9.259259e+00	 9.999203e+00
0	 9.777778e+00	 8.888889e+00	 9.998591e+00
0	 9.777778e+00	 8.962963e+00	 9.998606e+00
0	 9.777778e+00	 9.037037e+00	 9.998642e+00
0	 9.777778e+00	 9.111111e+00	 9.998699e+00
0	 9.777778e+00	 9.185185e+00	 9.998778e+00
0	 9.777778e+00	 9.259259e+00	 9.998879e+00
0	 9.851852e+00	 8.888889e+00	 9.997986e+00
0	 9.851852e+00	 8.962963e+00	 9.998046e+00
0	 9.851852e+00	 9.037037e+00	 9.998129e+00
0	 9.851852e+00	 9.111111e+00	 9.998238e+00
0	 9.851852e+00	 9.185185e+00	 9.998371e+00
0	 9.851852e+00	 9.259259e+00	 9.998530e+00
0	 9.925926e+00	 8.888889e+00	 9.997318e+00
0	 9.925926e+00	 8.962963e+00	 9.997425e+00
0	 9.925926e+00	 9.037037e+00	 9.997561e+00
0	 9.925926e+00	 9.111111e+00	 9.997727e+00
0	 9.925926e+00	 9.185185e+00	 9.997924e+00
0	 9.925926e+00	 9.259259e+00	 9.998153e+00
0	 1.000000e+01	 8.888889e+00	 9.996574e+00
0	 1.000000e+01	 8.962963e+00	 9.996731e+00
0	 1.000000e+01	 9.037037e+00	 9.996925e+00
0	 1.000000e+01	 9.111111e+00	 9.997158e+00
0	 1.000000e+01	 9.185185e+00	 9.997430e+00
0	 1.000000e+01	 9.259259e+00	 9.997744e+00
0	 9.629630e+00	 9.259259e+00	 9.999506e+00
0	 9.629630e+00	 9.333333e+00	 9.999527e+00
0	 9.629630e+00	 9.407407e+00	 9.999561e+00
0	 9.629630e+00	 9.481481e+00	 9.999608e+00
0	 9.629630e+00	 9.555556e+00	 9.999670e+00
0	 9.629630e+00	 9.629630e+00	 9.999746e+00
0	 9.703704e+00	 9.259259e+00	 9.999203e+00
0	 9.703704e+00	 9.333333e+00	 9.999269e+00
0	 9.703704e+00	 9.407407e+00	 9.999345e+00
0	 9.703704e+00	 9.481481e+00	 9.999432e+00
0	 9.703704e+00	 9.555556e+00	 9.999529e+00
0	 9.703704e+00	 9.629630e+00	 9.999638e+00
0	 9.777778e+00	 9.259259e+00	 9.998879e+00
0	 9.777778e+00	 9.333333e+00	 9.998994e+00
0	 9.777778e+00	 9.407407e+00	 9.999116e+00
0	 9.777778e+00	 9.481481e+00	 9.999246e+00
0	 9.777778e+00	 9.555556e+00	 9.999383e+00
0	 9.777778e+00	 9.629630e+00	 9.999527e+00
0	 9.851852e+00	 9.259259e+00	 9.998530e+00
0	 9.851852e+00	 9.333333e+00	 9.998703e+00
0	 9.851852e+00	 9.407407e+00	 9.998880e+00
0	 9.851852e+00	 9.481481e+00	 9.999060e+00
0	 9.851852e+00	 9.555556e+00	 9.999244e+00
0	 9.851852e+00	 9.629630e+00	 9.999434e+00
0	 9.925926e+00	 9.259259e+00	 9.998153e+00
0	 9.925926e+00	 9.333333e+00	 9.998397e+00
0	 9.925926e+00	 9.407407e+00	 9.998640e+00
0	 9.925926e+00	 9.481481e+00	 9.998884e+00
0	 9.925926e+00	 9.555556e+00	 9.999129e+00
0	 9.925926e+00	 9.629630e+00	 9.999377e+00
0	 1.000000e+01	 9.259259e+00	 9.997744e+00
0	 1.000000e+01	 9.333333e+00	 9.998075e+00
0	 1.000000e+01	 9.407407e+00	 9.998402e+00
0	 1.000000e+01	 9.481481e+00	 9.998726e+00
0	 1.000000e+01	 9.555556e+00	 9.999050e+00
0	 1.000000e+01	 9.629630e+00	 9.999376e+00
0	 9.629630e+00	 9.629630e+00	 9.999746e+00
0	 9.629630e+00	 9.703704e+00	 9.999817e+00
0	 9.629630e+00	 9.777778e+00	 9.999873e+00
0	 9.629630e+00	 9.851852e+00	 9.999921e+00
0	 9.629630e+00	 9.925926e+00	 9.999973e+00
0	 9.629630e+00	 1.000000e+01	 1.000004e+01
0	 9.703704e+00	 9.629630e+00	 9.999638e+00
0	 9.703704e+00	 9.703704e+00	 9.999738e+00
0	 9.703704e+00	 9.777778e+00	 9.999818e+00
0	 9.703704e+00	 9.851852e+00	 9.999888e+00
0	 9.703704e+00	 9.925926e+00	 9.999960e+00
0	 9.703704e+00	 1.000000e+01	 1.000004e+01
0	 9.777778e+00	 9.629630e+00	 9.999527e+00
0	 9.777778e+00	 9.703704e+00	 9.999660e+00
0	 9.777778e+00	 9.777778e+00	 9.999766e+00
0	 9.777778e+00	 9.851852e+00	 9.999857e+00
0	 9.777778e+00	 9.925926e+00	 9.999943e+00
0	 9.777778e+00	 1.000000e+01	 1.000004e+01
0	 9.851852e+00	 9.629630e+00	 9.999434e+00
0	 9.851852e+00	 9.703704e+00	 9.999605e+00
0	 9.851852e+00	 9.777778e+00	 9.999740e+00
0	 9.851852e+00	 9.851852e+00	 9.999848e+00
0	 9.851852e+00	 9.925926e+00	 9.999941e+00
0	 9.851852e+00	 1.000000e+01	 1.000003e+01
0	 9.925926e+00	 9.629630e+00	 9.999377e+00
0	 9.925926e+00	 9.703704e+00	 9.999598e+00
0	 9.925926e+00	 9.777778e+00	 9.999765e+00
0	 9.925926e+00	 9.851852e+00	 9.999886e+00
0	 9.925926e+00	 9.925926e+00	 9.999969e+00
0	 9.925926e+00	 1.000000e+01	 1.000002e+01
0	 1.000000e+01	 9.629630e+00	 9.999376e+00
0	 1.000000e+01	 9.703704e+00	 9.999661e+00
0	 1.000000e+01	 9.777778e+00	 9.999865e+00
0	 1.000000e+01	 9.851852e+00	 9.999992e+00
0	 1.000000e+01	 9.925926e+00	 1.000005e+01
0	 1.000000e+01	 1.000000e+01	 1.000003e+01
1	 1.000000e+00	 0.000000e+00	 3.127979e+01
1	 9.998757e-01	 1.576381e-02	 3.129199e+01
1	 9.994998e-01	 3.162495e-02	 3.126190e+01
1	 9.988675e-01	 4.757827e-02	 3.118925e+01
1	 9.979743e-01	 6.361843e-02	 3.107383e+01
1	 9.968157e-01	 7.973984e-02	 3.091548e+01
1	 1.011111e+00	 0.000000e+00	 3.047557e+01
1	 1.010985e+00	 1.593896e-02	 3.050702e+01
1	 1.010605e+00	 3.197634e-02	 3.049697e+01
1	 1.009966e+00	 4.810692e-02	 3.044517e+01
1	 1.009063e+00	 6.432530e-02	 3.035142e+01
1	 1.007891e+00	 8.062584e-02	 3.021556e+01
1	 1.022222e+00	 0.000000e+00	 2.971766e+01
1	 1.022095e+00	 1.611412e-02	 2.976829e+01
1	 1.021711e+00	 3.232772e-02	 2.977822e+01
1	 1.021065e+00	 4.863557e-02	 2.974720e+01
1	 1.020152e+00	 6.503217e-02	 2.967503e+01
1	 1.018967e+00	 8.151184e-02	 2.956157e+01
1	 1.033333e+00	 0.000000e+00	 2.900457e+01
1	 1.033205e+00	 1.628927e-02	 2.907433e+01
1	 1.032816e+00	 3.267911e-02	 2.910417e+01
1	 1.032163e+00	 4.916421e-02	 2.909385e+01
1	 1.031240e+00	 6.573904e-02	 2.904319e+01
1	 1.030043e+00	 8.239784e-02	 2.895204e+01
1	 1.044444e+00	 0.000000e+00	 2.833487e+01
1	 1.044315e+00	 1.646442e-02	 2.842369e+01
1	 1.043922e+00	 3.303050e-02	 2.847338e+01
1	 1.043262e+00	 4.969286e-02	 2.848370e+01
1	 1.042329e+00	 6.644591e-02	 2.845446e+01
1	 1.041119e+00	 8.328384e-02	 2.838554e+01
1	 1.055556e+00	 0.000000e+00	 2.770719e+01
1	 1.055424e+00	 1.663958e-02	 2.781503e+01
1	 1.055028e+00	 3.338189e-02	 2.788450e+01
1	 1.054360e+00	 5.022151e-02	 2.791538e+01
1	 1.053417e+00	 6.715278e-02	 2.790749e+01
1	 1.052194e+00	 8.416984e-02	 2.786071e+01
1	 9.968157e-01	 7.973984e-02	 3.091548e+01
1	 9.953874e-01	 9.593675e-02	 3.076974e+01
1	 9.936853e-01	 1.122032e-01	 3.057699e+01
1	 9.917053e-01	 1.285329e-01	 3.033762e+01
1	 9.894435e-01	 1.449195e-01	 3.005212e+01
1	 9.868962e-01	 1.613564e-01	 2.972109e+01
1	 1.007891e+00	 8.062584e-02	 3.021556e+01
1	 1.006447e+00	 9.700271e-02	 3.009864e+01
1	 1.004726e+00	 1.134499e-01	 2.993469e+01
1	 1.002724e+00	 1.299610e-01	 2.972410e+01
1	 1.000437e+00	 1.465297e-01	 2.946736e+01
1	 9.978617e-01	 1.631493e-01	 2.916506e+01
1	 1.018967e+00	 8.151184e-02	 2.956157e+01
1	 1.017507e+00	 9.806867e-02	 2.947338e+01
1	 1.015767e+00	 1.146966e-01	 2.933816e+01
1	 1.013743e+00	 1.313891e-01	 2.915629e+01
1	 1.011431e+00	 1.481399e-01	 2.892826e+01
1	 1.008827e+00	 1.649421e-01	 2.865465e+01
1	 1.030043e+00	 8.239784e-02	 2.895204e+01
1	 1.028567e+00	 9.913464e-02	 2.889249e+01
1	 1.026808e+00	 1.159433e-01	 2.878593e+01
1	 1.024762e+00	 1.328173e-01	 2.863272e+01
1	 1.022425e+00	 1.497501e-01	 2.843335e+01
1	 1.019793e+00	 1.667350e-01	 2.818839e+01
1	 1.041119e+00	 8.328384e-02	 2.838554e+01
1	 1.039627e+00	 1.002006e-01	 2.835456e+01
1	 1.037849e+00	 1.171900e-01	 2.827657e+01
1	 1.035781e+00	 1.342454e-01	 2.815196e+01
1	 1.033419e+00	 1.513604e-01	 2.798120e+01
1	 1.030758e+00	 1.685278e-01	 2.776487e+01
1	 1.052194e+00	 8.416984e-02	 2.786071e+01
1	 1.050687e+00	 1.012666e-01	 2.785822e+01
1	 1.048890e+00	 1.184367e-01	 2.780875e+01
1	 1.046800e+00	 1.356736e-01	 2.771268e+01
1	 1.044413e+00	 1.529706e-01	 2.757049e+01
1	 1.041724e+00	 1.703207e-01	 2.738273e+01
1	 9.868962e-01	 1.613564e-01	 2.972109e+01
1	 9.840600e-01	 1.778369e-01	 2.938559e+01
1	 9.809315e-01	 1.943540e-01	 2.900355e+01
1	 9.775075e-01	 2.109005e-01	 2.857648e+01
1	 9.737853e-01	 2.274691e-01	 2.810600e+01
1	 9.697621e-01	 2.440522e-01	 2.759385e+01
1	 9.978617e-01	 1.631493e-01	 2.916506e+01
1	 9.949940e-01	 1.798129e-01	 2.886612e+01
1	 9.918307e-01	 1.965135e-01	 2.851985e+01
1	 9.883687e-01	 2.132438e-01	 2.812768e+01
1	 9.846051e-01	 2.299965e-01	 2.769117e+01
1	 9.805372e-01	 2.467639e-01	 2.721199e+01
1	 1.008827e+00	 1.649421e-01	 2.865465e+01
1	 1.005928e+00	 1.817889e-01	 2.839142e+01
1	 1.002730e+00	 1.986730e-01	 2.808010e+01
1	 9.992299e-01	 2.155872e-01	 2.772205e+01
1	 9.954250e-01	 2.325239e-01	 2.731876e+01
1	 9.913124e-01	 2.494756e-01	 2.687183e+01
1	 1.019793e+00	 1.667350e-01	 2.818839e+01
1	 1.016862e+00	 1.837648e-01	 2.796007e+01
1	 1.013629e+00	 2.008325e-01	 2.768291e+01
1	 1.010091e+00	 2.179305e-01	 2.735821e+01
1	 1.006245e+00	 2.350514e-01	 2.698740e+01
1	 1.002087e+00	 2.521873e-01	 2.657201e+01
1	 1.030758e+00	 1.685278e-01	 2.776487e+01
1	 1.027796e+00	 1.857408e-01	 2.757066e+01
1	 1.024528e+00	 2.029920e-01	 2.732691e+01
1	 1.020952e+00	 2.202738e-01	 2.703483e+01
1	 1.017065e+00	 2.375788e-01	 2.669578e+01
1	 1.012863e+00	 2.548990e-01	 2.631125e+01
1	 1.041724e+00	 1.703207e-01	 2.738273e+01
1	 1.038730e+00	 1.877168e-01	 2.722188e+01
1	 1.035428e+00	 2.051514e-01	 2.701079e+01
1	 1.031814e+00	 2.226172e-01	 2.675062e+01
1	 1.027884e+00	 2.401062e-01	 2.644265e+01
1	 1.023638e+00	 2.576107e-01	 2.608832e+01
1	 9.697621e-01	 2.440522e-01	 2.759385e+01
1	 9.654354e-01	 2.606423e-01	 2.708284e+01
1	 9.608031e-01	 2.772315e-01	 2.653634e+01
1	 9.558632e-01	 2.938119e-01	 2.595697e+01
1	 9.506141e-01	 3.103754e-01	 2.534746e+01
1	 9.450542e-01	 3.269137e-01	 2.471065e+01
1	 9.805372e-01	 2.467639e-01	 2.721199e+01
1	 9.761625e-01	 2.635384e-01	 2.673953e+01
1	 9.714787e-01	 2.803119e-01	 2.623066e+01
1	 9.664839e-01	 2.970765e-01	 2.568800e+01
1	 9.611764e-01	 3.138240e-01	 2.511422e+01
1	 9.555548e-01	 3.305461e-01	 2.451217e+01
1	 9.913124e-01	 2.494756e-01	 2.687183e+01
1	 9.868896e-01	 2.664344e-01	 2.643750e+01
1	 9.821543e-01	 2.833923e-01	 2.596590e+01
1	 9.771047e-01	 3.003411e-01	 2.545958e+01
1	 9.717388e-01	 3.172726e-01	 2.492124e+01
1	 9.660554e-01	 3.341785e-01	 2.435365e+01
1	 1.002087e+00	 2.521873e-01	 2.657201e+01
1	 9.976166e-01	 2.693304e-01	 2.617542e+01
1	 9.928299e-01	 2.864726e-01	 2.574072e+01
1	 9.877254e-01	 3.036057e-01	 2.527043e+01
1	 9.823012e-01	 3.207213e-01	 2.476720e+01
1	 9.765560e-01	 3.378109e-01	 2.423381e+01
1	 1.012863e+00	 2.548990e-01	 2.631125e+01
1	 1.008344e+00	 2.722264e-01	 2.595203e+01
1	 1.003505e+00	 2.895530e-01	 2.555386e+01
1	 9.983461e-01	 3.068702e-01	 2.511927e+01
1	 9.928636e-01	 3.241699e-01	 2.465086e+01
1	 9.870566e-01	 3.414432e-01	 2.415141e+01
1	 1.023638e+00	 2.576107e-01	 2.608832e+01
1	 1.019071e+00	 2.751225e-01	 2.576609e+01
1	 1.014181e+00	 2.926333e-01	 2.540412e+01
1	 1.008967e+00	 3.101348e-01	 2.500490e+01
1	 1.003426e+00	 3.276185e-01	 2.457104e+01
1	 9.975572e-01	 3.450756e-01	 2.410527e+01
1	 9.450542e-01	 3.269137e-01	 2.471065e+01
1	 9.391824e-01	 3.434186e-01	 2.405641e+01
1	 9.329980e-01	 3.598816e-01	 2.337977e+01
1	 9.265002e-01	 3.762942e-01	 2.268345e+01
1	 9.196890e-01	 3.926477e-01	 2.197022e+01
1	 9.125641e-01	 4.089336e-01	 2.124292e+01
1	 9.555548e-01	 3.305461e-01	 2.451217e+01
1	 9.496178e-01	 3.472344e-01	 2.388534e+01
1	 9.433646e-01	 3.638803e-01	 2.323463e+01
1	 9.367947e-01	 3.804752e-01	 2.256252e+01
1	 9.299077e-01	 3.970105e-01	 2.187156e+01
1	 9.227037e-01	 4.134773e-01	 2.116437e+01
1	 9.660554e-01	 3.341785e-01	 2.435365e+01
1	 9.600532e-01	 3.510501e-01	 2.375157e+01
1	 9.537313e-01	 3.678790e-01	 2.312416e+01
1	 9.470891e-01	 3.846562e-01	 2.247366e+01
1	 9.401265e-01	 4.013732e-01	 2.180241e+01
1	 9.328433e-01	 4.180210e-01	 2.111281e+01
1	 9.765560e-01	 3.378109e-01	 2.423381e+01
1	 9.704885e-01	 3.548659e-01	 2.365390e+01
1	 9.640979e-01	 3.718776e-01	 2.304723e+01
1	 9.573836e-01	 3.888373e-01	 2.241584e+01
1	 9.503453e-01	 4.057360e-01	 2.176183e+01
1	 9.429829e-01	 4.225647e-01	 2.108739e+01
1	 9.870566e-01	 3.414432e-01	 2.415141e+01
1	 9.809239e-01	 3.586817e-01	 2.359117e+01
1	 9.744646e-01	 3.758763e-01	 2.300278e+01
1	 9.676780e-01	 3.930183e-01	 2.238805e+01
1	 9.605640e-01	 4.100987e-01	 2.174890e+01
1	 9.531225e-01	 4.271084e-01	 2.108727e+01
1	 9.975572e-01	 3.450756e-01	 2.410527e+01
1	 9.913592e-01	 3.624974e-01	 2.356228e+01
1	 9.848312e-01	 3.798750e-01	 2.298978e+01
1	 9.779725e-01	 3.971994e-01	 2.238937e+01
1	 9.707828e-01	 4.144615e-01	 2.176274e+01
1	 9.632621e-01	 4.316521e-01	 2.111165e+01
1	 9.125641e-01	 4.089336e-01	 2.124292e+01
1	 9.051262e-01	 4.251431e-01	 2.027691e+01
1	 8.973756e-01	 4.412674e-01	 1.929515e+01
1	 8.893136e-01	 4.572978e-01	 1.829964e+01
1	 8.809413e-01	 4.732255e-01	 1.729242e+01
1	 8.722604e-01	 4.890417e-01	 1.627558e+01
1	 9.227037e-01	 4.134773e-01	 2.116437e+01
1	 9.151831e-01	 4.298669e-01	 2.020455e+01
1	 9.073465e-01	 4.461704e-01	 1.922773e+01
1	 8.991949e-01	 4.623789e-01	 1.823571e+01
1	 8.907296e-01	 4.784836e-01	 1.723034e+01
1	 8.819522e-01	 4.944755e-01	 1.621353e+01
1	 9.328433e-01	 4.180210e-01	 2.111281e+01
1	 9.252401e-01	 4.345907e-01	 2.015699e+01
1	 9.173173e-01	 4.510734e-01	 1.918293e+01
1	 9.090761e-01	 4.674600e-01	 1.819226e+01
1	 9.005178e-01	 4.837416e-01	 1.718664e+01
1	 8.916440e-01	 4.999093e-01	 1.616779e+01
1	 9.429829e-01	 4.225647e-01	 2.108739e+01
1	 9.352970e-01	 4.393145e-01	 2.013344e+01
1	 9.272882e-01	 4.559763e-01	 1.916005e+01
1	 9.189574e-01	 4.725411e-01	 1.816864e+01
1	 9.103060e-01	 4.889997e-01	 1.716072e+01
1	 9.013358e-01	 5.053431e-01	 1.613781e+01
1	 9.531225e-01	 4.271084e-01	 2.108727e+01
1	 9.453540e-01	 4.440383e-01	 2.013314e+01
1	 9.372590e-01	 4.608793e-01	 1.915836e+01
1	 9.288387e-01	 4.776222e-01	 1.816422e+01
1	 9.200943e-01	 4.942578e-01	 1.715201e+01
1	 9.110275e-01	 5.107769e-01	 1.612310e+01
1	 9.632621e-01	 4.316521e-01	 2.111165e+01
1	 9.554109e-01	 4.487621e-01	 2.015534e+01
1	 9.472299e-01	 4.657823e-01	 1.917722e+01
1	 9.387199e-01	 4.827033e-01	 1.817839e+01
1	 9.298825e-01	 4.995158e-01	 1.715998e+01
1	 9.207193e-01	 5.162107e-01	 1.612317e+01
1	 8.722604e-01	 4.890417e-01	 1.627558e+01
1	 8.632728e-01	 5.047375e-01	 1.519721e+01
1	 8.539809e-01	 5.203044e-01	 1.411380e+01
1	 8.443871e-01	 5.357335e-01	 1.302784e+01
1	 8.344945e-01	 5.510163e-01	 1.194182e+01
1	 8.243063e-01	 5.661441e-01	 1.085824e+01
1	 8.819522e-01	 4.944755e-01	 1.621353e+01
1	 8.728648e-01	 5.103457e-01	 1.513653e+01
1	 8.634696e-01	 5.260855e-01	 1.405274e+01
1	 8.537692e-01	 5.416861e-01	 1.296442e+01
1	 8.437667e-01	 5.571387e-01	 1.187389e+01
1	 8.334652e-01	 5.724346e-01	 1.078344e+01
1	 8.916440e-01	 4.999093e-01	 1.616779e+01
1	 8.824567e-01	 5.159539e-01	 1.508979e+01
1	 8.729582e-01	 5.318667e-01	 1.400326e+01
1	 8.631513e-01	 5.476387e-01	 1.291030e+01
1	 8.530388e-01	 5.632611e-01	 1.181298e+01
1	 8.426242e-01	 5.787251e-01	 1.071344e+01
1	 9.013358e-01	 5.053431e-01	 1.613781e+01
1	 8.920486e-01	 5.215621e-01	 1.505652e+01
1	 8.824469e-01	 5.376479e-01	 1.396501e+01
1	 8.725334e-01	 5.535913e-01	 1.286516e+01
1	 8.623110e-01	 5.693835e-01	 1.175888e+01
1	 8.517832e-01	 5.850156e-01	 1.064809e+01
1	 9.110275e-01	 5.107769e-01	 1.612310e+01
1	 9.016405e-01	 5.271703e-01	 1.503630e+01
1	 8.919356e-01	 5.434290e-01	 1.393762e+01
1	 8.819154e-01	 5.595439e-01	 1.282873e+01
1	 8.715832e-01	 5.755059e-01	 1.171136e+01
1	 8.609421e-01	 5.913061e-01	 1.058725e+01
1	 9.207193e-01	 5.162107e-01	 1.612317e+01
1	 9.112325e-01	 5.327785e-01	 1.502872e+01
1	 9.014243e-01	 5.492102e-01	 1.392074e+01
1	 8.912975e-01	 5.654965e-01	 1.280073e+01
1	 8.808553e-01	 5.816283e-01	 1.167022e+01
1	 8.701011e-01	 5.975966e-01	 1.053076e+01
1	 8.243063e-01	 5.661441e-01	 1.085824e+01
1	 8.138260e-01	 5.811086e-01	 9.904520e+00
1	 8.030576e-01	 5.959013e-01	 8.962769e+00
1	 7.920053e-01	 6.105142e-01	 8.036431e+00
1	 7.806736e-01	 6.249389e-01	 7.128911e+00
1	 7.690674e-01	 6.391677e-01	 6.243577e+00
1	 8.334652e-01	 5.724346e-01	 1.078344e+01
1	 8.228685e-01	 5.875653e-01	 9.831925e+00
1	 8.119805e-01	 6.025225e-01	 8.890385e+00
1	 8.008054e-01	 6.172976e-01	 7.962107e+00
1	 7.893478e-01	 6.318827e-01	 7.050351e+00
1	 7.776125e-01	 6.462696e-01	 6.158341e+00
1	 8.426242e-01	 5.787251e-01	 1.071344e+01
1	 8.319111e-01	 5.940221e-01	 9.762222e+00
1	 8.209034e-01	 6.091436e-01	 8.819013e+00
1	 8.096055e-01	 6.240811e-01	 7.886953e+00
1	 7.980219e-01	 6.388265e-01	 6.969158e+00
1	 7.861577e-01	 6.533715e-01	 6.068711e+00
1	 8.517832e-01	 5.850156e-01	 1.064809e+01
1	 8.409536e-01	 6.004789e-01	 9.695318e+00
1	 8.298262e-01	 6.157647e-01	 8.748621e+00
1	 8.184055e-01	 6.308646e-01	 7.810996e+00
1	 8.066961e-01	 6.457702e-01	 6.885416e+00
1	 7.947029e-01	 6.604733e-01	 5.974828e+00
1	 8.609421e-01	 5.913061e-01	 1.058725e+01
1	 8.499961e-01	 6.069356e-01	 9.631124e+00
1	 8.387491e-01	 6.223858e-01	 8.679178e+00
1	 8.272056e-01	 6.376481e-01	 7.734260e+00
1	 8.153702e-01	 6.527140e-01	 6.799206e+00
1	 8.032481e-01	 6.675752e-01	 5.876828e+00
1	 8.701011e-01	 5.975966e-01	 1.053076e+01
1	 8.590386e-01	 6.133924e-01	 9.569553e+00
1	 8.476720e-01	 6.290070e-01	 8.610654e+00
1	 8.360056e-01	 6.444316e-01	 7.656771e+00
1	 8.240444e-01	 6.596578e-01	 6.710607e+00
1	 8.117933e-01	 6.746771e-01	 5.774841e+00
1	 7.690674e-01	 6.391677e-01	 6.243577e+00
1	 7.571916e-01	 6.531928e-01	 5.540869e+00
1	 7.450519e-01	 6.670065e-01	 4.883502e+00
1	 7.326538e-01	 6.806015e-01	 4.276452e+00
1	 7.200033e-01	 6.939706e-01	 3.724559e+00
1	 7.071068e-01	 7.071068e-01	 3.232512e+00
1	 7.776125e-01	 6.462696e-01	 6.158341e+00
1	 7.656049e-01	 6.604505e-01	 5.469152e+00
1	 7.533302e-01	 6.744177e-01	 4.825281e+00
1	 7.407944e-01	 6.881638e-01	 4.231682e+00
1	 7.280034e-01	 7.016814e-01	 3.693170e+00
1	 7.149635e-01	 7.149635e-01	 3.214406e+00
1	 7.861577e-01	 6.533715e-01	 6.068711e+00
1	 7.740181e-01	 6.677082e-01	 5.392331e+00
1	 7.616086e-01	 6.818289e-01	 4.761239e+00
1	 7.489350e-01	 6.957260e-01	 4.180367e+00
1	 7.360034e-01	 7.093922e-01	 3.654505e+00
1	 7.228203e-01	 7.228203e-01	 3.188289e+00
1	 7.947029e-01	 6.604733e-01	 5.974828e+00
1	 7.824313e-01	 6.749659e-01	 5.310571e+00
1	 7.698869e-01	 6.892401e-01	 4.691564e+00
1	 7.570756e-01	 7.032882e-01	 4.122718e+00
1	 7.440035e-01	 7.171029e-01	 3.608799e+00
1	 7.306770e-01	 7.306770e-01	 3.154419e+00
1	 8.032481e-01	 6.675752e-01	 5.876828e+00
1	 7.908446e-01	 6.822236e-01	 5.224030e+00
1	 7.781653e-01	 6.966513e-01	 4.616437e+00
1	 7.652162e-01	 7.108505e-01	 4.058937e+00
1	 7.520035e-01	 7.248137e-01	 3.556277e+00
1	 7.385337e-01	 7.385337e-01	 3.113043e+00
1	 8.117933e-01	 6.746771e-01	 5.774841e+00
1	 7.992578e-01	 6.894813e-01	 5.132859e+00
1	 7.864436e-01	 7.040624e-01	 4.536028e+00
1	 7.733568e-01	 7.184127e-01	 3.989219e+00
1	 7.600035e-01	 7.325245e-01	 3.497154e+00
1	 7.463905e-01	 7.463905e-01	 3.064398e+00
1	 7.071068e-01	 7.071068e-01	 3.232512e+00
1	 6.939706e-01	 7.200033e-01	 2.849129e+00
1	 6.806015e-01	 7.326538e-01	 2.499320e+00
1	 6.670065e-01	 7.450519e-01	 2.186331e+00
1	 6.531928e-01	 7.571916e-01	 1.913305e+00
1	 6.391677e-01	 7.690674e-01	 1.683269e+00
1	 7.149635e-01	 7.149635e-01	 3.214406e+00
1	 7.016814e-01	 7.280034e-01	 2.830130e+00
1	 6.881638e-01	 7.407944e-01	 2.474727e+00
1	 6.744177e-01	 7.533302e-01	 2.151288e+00
1	 6.604505e-01	 7.656049e-01	 1.862814e+00
1	 6.462696e-01	 7.776125e-01	 1.612203e+00
1	 7.228203e-01	 7.228203e-01	 3.188289e+00
1	 7.093922e-01	 7.360034e-01	 2.800929e+00
1	 6.957260e-01	 7.489350e-01	 2.437837e+00
1	 6.818289e-01	 7.616086e-01	 2.101952e+00
1	 6.677082e-01	 7.740181e-01	 1.796134e+00
1	 6.533715e-01	 7.861577e-01	 1.523157e+00
1	 7.306770e-01	 7.306770e-01	 3.154419e+00
1	 7.171029e-01	 7.440035e-01	 2.761856e+00
1	 7.032882e-01	 7.570756e-01	 2.389048e+00
1	 6.892401e-01	 7.698869e-01	 2.038784e+00
1	 6.749659e-01	 7.824313e-01	 1.713788e+00
1	 6.604733e-01	 7.947029e-01	 1.416710e+00
1	 7.385337e-01	 7.385337e-01	 3.113043e+00
1	 7.248137e-01	 7.520035e-01	 2.713225e+00
1	 7.108505e-01	 7.652162e-01	 2.328739e+00
1	 6.966513e-01	 7.781653e-01	 1.962226e+00
1	 6.822236e-01	 7.908446e-01	 1.616275e+00
1	 6.675752e-01	 8.032481e-01	 1.293418e+00
1	 7.463905e-01	 7.463905e-01	 3.064398e+00
1	 7.325245e-01	 7.600035e-01	 2.655340e+00
1	 7.184127e-01	 7.733568e-01	 2.257274e+00
1	 7.040624e-01	 7.864436e-01	 1.872699e+00
1	 6.894813e-01	 7.992578e-01	 1.504075e+00
1	 6.746771e-01	 8.117933e-01	 1.153813e+00
1	 6.391677e-01	 7.690674e-01	 1.683269e+00
1	 6.249389e-01	 7.806736e-01	 1.303830e+00
1	 6.105142e-01	 7.920053e-01	 9.177542e-01
1	 5.959013e-01	 8.030576e-01	 5.257956e-01
1	 5.811086e-01	 8.138260e-01	 1.287501e-01
1	 5.661441e-01	 8.243063e-01	-2.725472e-01
1	 6.462696e-01	 7.776125e-01	 1.612203e+00
1	 6.318827e-01	 7.893478e-01	 1.183489e+00
1	 6.172976e-01	 8.008054e-01	 7.470664e-01
1	 6.025225e-01	 8.119805e-01	 3.036442e-01
1	 5.875653e-01	 8.228685e-01	-1.460248e-01
1	 5.724346e-01	 8.334652e-01	-6.011448e-01
1	 6.533715e-01	 7.861577e-01	 1.523157e+00
1	 6.388265e-01	 7.980219e-01	 1.044280e+00
1	 6.240811e-01	 8.096055e-01	 5.566403e-01
1	 6.091436e-01	 8.209034e-01	 6.090020e-02
1	 5.940221e-01	 8.319111e-01	-4.422284e-01
1	 5.787251e-01	 8.426242e-01	-9.519879e-01
1	 6.604733e-01	 7.947029e-01	 1.416710e+00
1	 6.457702e-01	 8.066961e-01	 8.868131e-01
1	 6.308646e-01	 8.184055e-01	 3.471126e-01
1	 6.157647e-01	 8.298262e-01	-2.017721e-01
1	 6.004789e-01	 8.409536e-01	-7.591696e-01
1	 5.850156e-01	 8.517832e-01	-1.324359e+00
1	 6.675752e-01	 8.032481e-01	 1.293418e+00
1	 6.527140e-01	 8.153702e-01	 7.116701e-01
1	 6.376481e-01	 8.272056e-01	 1.190929e-01
1	 6.223858e-01	 8.387491e-01	-4.837366e-01
1	 6.069356e-01	 8.499961e-01	-1.096186e+00
1	 5.913061e-01	 8.609421e-01	-1.717571e+00
1	 6.746771e-01	 8.117933e-01	 1.153813e+00
1	 6.596578e-01	 8.240444e-01	 5.194094e-01
1	 6.444316e-01	 8.360056e-01	-1.268348e-01
1	 6.290070e-01	 8.476720e-01	-7.843842e-01
1	 6.133924e-01	 8.590386e-01	-1.452645e+00
1	 5.975966e-01	 8.701011e-01	-2.130966e+00
1	 5.661441e-01	 8.243063e-01	-2.725472e-01
1	 5.510163e-01	 8.344945e-01	-8.061984e-01
1	 5.357335e-01	 8.443871e-01	-1.353779e+00
1	 5.203044e-01	 8.539809e-01	-1.914946e+00
1	 5.047375e-01	 8.632728e-01	-2.489279e+00
1	 4.890417e-01	 8.722604e-01	-3.076283e+00
1	 5.724346e-01	 8.334652e-01	-6.011448e-01
1	 5.571387e-01	 8.437667e-01	-1.199521e+00
1	 5.416861e-01	 8.537692e-01	-1.814681e+00
1	 5.260855e-01	 8.634696e-01	-2.446337e+00
1	 5.103457e-01	 8.728648e-01	-3.094113e+00
1	 4.944755e-01	 8.819522e-01	-3.757549e+00
1	 5.787251e-01	 8.426242e-01	-9.519879e-01
1	 5.632611e-01	 8.530388e-01	-1.616286e+00
1	 5.476387e-01	 8.631513e-01	-2.300166e+00
1	 5.318667e-01	 8.729582e-01	-3.003394e+00
1	 5.159539e-01	 8.824567e-01	-3.725636e+00
1	 4.999093e-01	 8.916440e-01	-4.466467e+00
1	 5.850156e-01	 8.517832e-01	-1.324359e+00
1	 5.693835e-01	 8.623110e-01	-2.055737e+00
1	 5.535913e-01	 8.725334e-01	-2.809442e+00
1	 5.376479e-01	 8.824469e-01	-3.585288e+00
1	 5.215621e-01	 8.920486e-01	-4.382986e+00
1	 5.053431e-01	 9.013358e-01	-5.202142e+00
1	 5.913061e-01	 8.609421e-01	-1.717571e+00
1	 5.755059e-01	 8.715832e-01	-2.517151e+00
1	 5.595439e-01	 8.819154e-01	-3.341748e+00
1	 5.434290e-01	 8.919356e-01	-4.191226e+00
1	 5.271703e-01	 9.016405e-01	-5.065338e+00
1	 5.107769e-01	 9.110275e-01	-5.963723e+00
1	 5.975966e-01	 8.701011e-01	-2.130966e+00
1	 5.816283e-01	 8.808553e-01	-2.999834e+00
1	 5.654965e-01	 8.912975e-01	-3.896357e+00
1	 5.492102e-01	 9.014243e-01	-4.820450e+00
1	 5.327785e-01	 9.112325e-01	-5.771904e+00
1	 5.162107e-01	 9.207193e-01	-6.750389e+00
1	 4.890417e-01	 8.722604e-01	-3.076283e+00
1	 4.732255e-01	 8.809413e-01	-3.640375e+00
1	 4.572978e-01	 8.893136e-01	-4.215770e+00
1	 4.412674e-01	 8.973756e-01	-4.801830e+00
1	 4.251431e-01	 9.051262e-01	-5.397855e+00
1	 4.089336e-01	 9.125641e-01	-6.003086e+00
1	 4.944755e-01	 8.819522e-01	-3.757549e+00
1	 4.784836e-01	 8.907296e-01	-4.399716e+00
1	 4.623789e-01	 8.991949e-01	-5.053358e+00
1	 4.461704e-01	 9.073465e-01	-5.717793e+00
1	 4.298669e-01	 9.151831e-01	-6.392278e+00
1	 4.134773e-01	 9.227037e-01	-7.076010e+00
1	 4.999093e-01	 8.916440e-01	-4.466467e+00
1	 4.837416e-01	 9.005178e-01	-5.186697e+00
1	 4.674600e-01	 9.090761e-01	-5.918576e+00
1	 4.510734e-01	 9.173173e-01	-6.661380e+00
1	 4.345907e-01	 9.252401e-01	-7.414319e+00
1	 4.180210e-01	 9.328433e-01	-8.176548e+00
1	 5.053431e-01	 9.013358e-01	-5.202142e+00
1	 4.889997e-01	 9.103060e-01	-6.000426e+00
1	 4.725411e-01	 9.189574e-01	-6.810535e+00
1	 4.559763e-01	 9.272882e-01	-7.631699e+00
1	 4.393145e-01	 9.352970e-01	-8.463088e+00
1	 4.225647e-01	 9.429829e-01	-9.303810e+00
1	 5.107769e-01	 9.110275e-01	-5.963723e+00
1	 4.942578e-01	 9.200943e-01	-6.840050e+00
1	 4.776222e-01	 9.288387e-01	-7.728379e+00
1	 4.608793e-01	 9.372590e-01	-8.627898e+00
1	 4.440383e-01	 9.453540e-01	-9.537731e+00
1	 4.271084e-01	 9.531225e-01	-1.045694e+01
1	 5.162107e-01	 9.207193e-01	-6.750389e+00
1	 4.995158e-01	 9.298825e-01	-7.704750e+00
1	 4.827033e-01	 9.387199e-01	-8.671293e+00
1	 4.657823e-01	 9.472299e-01	-9.649160e+00
1	 4.487621e-01	 9.554109e-01	-1.063743e+01
1	 4.316521e-01	 9.632621e-01	-1.163513e+01
1	 4.089336e-01	 9.125641e-01	-6.003086e+00
1	 3.926477e-01	 9.196890e-01	-6.459133e+00
1	 3.762942e-01	 9.265002e-01	-6.881400e+00
1	 3.598816e-01	 9.329980e-01	-7.268515e+00
1	 3.434186e-01	 9.391824e-01	-7.619199e+00
1	 3.269137e-01	 9.450542e-01	-7.932271e+00
1	 4.134773e-01	 9.227037e-01	-7.076010e+00
1	 3.970105e-01	 9.299077e-01	-7.595478e+00
1	 3.804752e-01	 9.367947e-01	-8.077911e+00
1	 3.638803e-01	 9.433646e-01	-8.521905e+00
1	 3.472344e-01	 9.496178e-01	-8.926160e+00
1	 3.305461e-01	 9.555548e-01	-9.289486e+00
1	 4.180210e-01	 9.328433e-01	-8.176548e+00
1	 4.013732e-01	 9.401265e-01	-8.759149e+00
1	 3.846562e-01	 9.470891e-01	-9.301532e+00
1	 3.678790e-01	 9.537313e-01	-9.802261e+00
1	 3.510501e-01	 9.600532e-01	-1.026002e+01
1	 3.341785e-01	 9.660554e-01	-1.067360e+01
1	 4.225647e-01	 9.429829e-01	-9.303810e+00
1	 4.057360e-01	 9.503453e-01	-9.949264e+00
1	 3.888373e-01	 9.573836e-01	-1.055139e+01
1	 3.718776e-01	 9.640979e-01	-1.110871e+01
1	 3.548659e-01	 9.704885e-01	-1.161990e+01
1	 3.378109e-01	 9.765560e-01	-1.208374e+01
1	 4.271084e-01	 9.531225e-01	-1.045694e+01
1	 4.100987e-01	 9.605640e-01	-1.116498e+01
1	 3.930183e-01	 9.676780e-01	-1.182664e+01
1	 3.758763e-01	 9.744646e-01	-1.244043e+01
1	 3.586817e-01	 9.809239e-01	-1.300498e+01
1	 3.414432e-01	 9.870566e-01	-1.351907e+01
1	 4.316521e-01	 9.632621e-01	-1.163513e+01
1	 4.144615e-01	 9.707828e-01	-1.240549e+01
1	 3.971994e-01	 9.779725e-01	-1.312649e+01
1	 3.798750e-01	 9.848312e-01	-1.379661e+01
1	 3.624974e-01	 9.913592e-01	-1.441447e+01
1	 3.450756e-01	 9.975572e-01	-1.497881e+01
1	 3.269137e-01	 9.450542e-01	-7.932271e+00
1	 3.103754e-01	 9.506141e-01	-8.156389e+00
1	 2.938119e-01	 9.558632e-01	-8.316317e+00
1	 2.772315e-01	 9.608031e-01	-8.411330e+00
1	 2.606423e-01	 9.654354e-01	-8.440874e+00
1	 2.440522e-01	 9.697621e-01	-8.404564e+00
1	 3.305461e-01	 9.555548e-01	-9.289486e+00
1	 3.138240e-01	 9.611764e-01	-9.552313e+00
1	 2.970765e-01	 9.664839e-01	-9.740224e+00
1	 2.803119e-01	 9.714787e-01	-9.852422e+00
1	 2.635384e-01	 9.761625e-01	-9.888319e+00
1	 2.467639e-01	 9.805372e-01	-9.847524e+00
1	 3.341785e-01	 9.660554e-01	-1.067360e+01
1	 3.172726e-01	 9.717388e-01	-1.097279e+01
1	 3.003411e-01	 9.771047e-01	-1.118658e+01
1	 2.833923e-01	 9.821543e-01	-1.131410e+01
1	 2.664344e-01	 9.868896e-01	-1.135473e+01
1	 2.494756e-01	 9.913124e-01	-1.130806e+01
1	 3.378109e-01	 9.765560e-01	-1.208374e+01
1	 3.207213e-01	 9.823012e-01	-1.241703e+01
1	 3.036057e-01	 9.877254e-01	-1.265466e+01
1	 2.864726e-01	 9.928299e-01	-1.279570e+01
1	 2.693304e-01	 9.976166e-01	-1.283948e+01
1	 2.521873e-01	 1.002087e+00	-1.278561e+01
1	 3.414432e-01	 9.870566e-01	-1.351907e+01
1	 3.241699e-01	 9.928636e-01	-1.388427e+01
1	 3.068702e-01	 9.983461e-01	-1.414377e+01
1	 2.895530e-01	 1.003505e+00	-1.429659e+01
1	 2.722264e-01	 1.008344e+00	-1.434201e+01
1	 2.548990e-01	 1.012863e+00	-1.427963e+01
1	 3.450756e-01	 9.975572e-01	-1.497881e+01
1	 3.276185e-01	 1.003426e+00	-1.537378e+01
1	 3.101348e-01	 1.008967e+00	-1.565325e+01
1	 2.926333e-01	 1.014181e+00	-1.581615e+01
1	 2.751225e-01	 1.019071e+00	-1.586173e+01
1	 2.576107e-01	 1.023638e+00	-1.578959e+01
1	 2.440522e-01	 9.697621e-01	-8.404564e+00
1	 2.274691e-01	 9.737853e-01	-8.336913e+00
1	 2.109005e-01	 9.775075e-01	-8.210773e+00
1	 1.943540e-01	 9.809315e-01	-8.026332e+00
1	 1.778369e-01	 9.840600e-01	-7.783901e+00
1	 1.613564e-01	 9.868962e-01	-7.483919e+00
1	 2.467639e-01	 9.805372e-01	-9.847524e+00
1	 2.299965e-01	 9.846051e-01	-9.768752e+00
1	 2.132438e-01	 9.883687e-01	-9.622678e+00
1	 1.965135e-01	 9.918307e-01	-9.409555e+00
1	 1.798129e-01	 9.949940e-01	-9.129782e+00
1	 1.631493e-01	 9.978617e-01	-8.783906e+00
1	 2.494756e-01	 9.913124e-01	-1.130806e+01
1	 2.325239e-01	 9.954250e-01	-1.121715e+01
1	 2.155872e-01	 9.992299e-01	-1.105031e+01
1	 1.986730e-01	 1.002730e+00	-1.080787e+01
1	 1.817889e-01	 1.005928e+00	-1.049031e+01
1	 1.649421e-01	 1.008827e+00	-1.009828e+01
1	 2.521873e-01	 1.002087e+00	-1.278561e+01
1	 2.350514e-01	 1.006245e+00	-1.268157e+01
1	 2.179305e-01	 1.010091e+00	-1.249317e+01
1	 2.008325e-01	 1.013629e+00	-1.222080e+01
1	 1.837648e-01	 1.016862e+00	-1.186501e+01
1	 1.667350e-01	 1.019793e+00	-1.142657e+01
1	 2.548990e-01	 1.012863e+00	-1.427963e+01
1	 2.375788e-01	 1.017065e+00	-1.416150e+01
1	 2.202738e-01	 1.020952e+00	-1.395077e+01
1	 2.029920e-01	 1.024528e+00	-1.364786e+01
1	 1.857408e-01	 1.027796e+00	-1.325343e+01
1	 1.685278e-01	 1.030758e+00	-1.276833e+01
1	 2.576107e-01	 1.023638e+00	-1.578959e+01
1	 2.401062e-01	 1.027884e+00	-1.565646e+01
1	 2.226172e-01	 1.031814e+00	-1.542264e+01
1	 2.051514e-01	 1.035428e+00	-1.508862e+01
1	 1.877168e-01	 1.038730e+00	-1.465514e+01
1	 1.703207e-01	 1.041724e+00	-1.412314e+01
1	 1.613564e-01	 9.868962e-01	-7.483919e+00
1	 1.449195e-01	 9.894435e-01	-7.180038e+00
1	 1.285329e-01	 9.917053e-01	-6.849925e+00
1	 1.122032e-01	 9.936853e-01	-6.494146e+00
1	 9.593675e-02	 9.953874e-01	-6.113295e+00
1	 7.973984e-02	 9.968157e-01	-5.707984e+00
1	 1.631493e-01	 9.978617e-01	-8.783906e+00
1	 1.465297e-01	 1.000437e+00	-8.432710e+00
1	 1.299610e-01	 1.002724e+00	-8.049840e+00
1	 1.134499e-01	 1.004726e+00	-7.635972e+00
1	 9.700271e-02	 1.006447e+00	-7.191818e+00
1	 8.062584e-02	 1.007891e+00	-6.718122e+00
1	 1.649421e-01	 1.008827e+00	-1.009828e+01
1	 1.481399e-01	 1.011431e+00	-9.699580e+00
1	 1.313891e-01	 1.013743e+00	-9.263887e+00
1	 1.146966e-01	 1.015767e+00	-8.791980e+00
1	 9.806867e-02	 1.017507e+00	-8.284689e+00
1	 8.151184e-02	 1.018967e+00	-7.742887e+00
1	 1.667350e-01	 1.019793e+00	-1.142657e+01
1	 1.497501e-01	 1.022425e+00	-1.098019e+01
1	 1.328173e-01	 1.024762e+00	-1.049161e+01
1	 1.159433e-01	 1.026808e+00	-9.961713e+00
1	 9.913464e-02	 1.028567e+00	-9.391445e+00
1	 8.239784e-02	 1.030043e+00	-8.781807e+00
1	 1.685278e-01	 1.030758e+00	-1.276833e+01
1	 1.513604e-01	 1.033419e+00	-1.227410e+01
1	 1.342454e-01	 1.035781e+00	-1.173257e+01
1	 1.171900e-01	 1.037849e+00	-1.114473e+01
1	 1.002006e-01	 1.039627e+00	-1.051164e+01
1	 8.328384e-02	 1.041119e+00	-9.834429e+00
1	 1.703207e-01	 1.041724e+00	-1.412314e+01
1	 1.529706e-01	 1.044413e+00	-1.358089e+01
1	 1.356736e-01	 1.046800e+00	-1.298636e+01
1	 1.184367e-01	 1.048890e+00	-1.234062e+01
1	 1.012666e-01	 1.050687e+00	-1.164486e+01
1	 8.416984e-02	 1.052194e+00	-1.090032e+01
1	 7.973984e-02	 9.968157e-01	-5.707984e+00
1	 6.361843e-02	 9.979743e-01	-5.332888e+00
1	 4.757827e-02	 9.988675e-01	-4.970801e+00
1	 3.162495e-02	 9.994998e-01	-4.621909e+00
1	 1.576381e-02	 9.998757e-01	-4.286334e+00
1	 0.000000e+00	 1.000000e+00	-3.964132e+00
1	 8.062584e-02	 1.007891e+00	-6.718122e+00
1	 6.432530e-02	 1.009063e+00	-6.276469e+00
1	 4.810692e-02	 1.009966e+00	-5.847638e+00
1	 3.197634e-02	 1.010605e+00	-5.431864e+00
1	 1.593896e-02	 1.010985e+00	-5.029315e+00
1	 0.000000e+00	 1.011111e+00	-4.640096e+00
1	 8.151184e-02	 1.018967e+00	-7.742887e+00
1	 6.503217e-02	 1.020152e+00	-7.234852e+00
1	 4.863557e-02	 1.021065e+00	-6.739459e+00
1	 3.232772e-02	 1.021711e+00	-6.256993e+00
1	 1.611412e-02	 1.022095e+00	-5.787669e+00
1	 0.000000e+00	 1.022222e+00	-5.331636e+00
1	 8.239784e-02	 1.030043e+00	-8.781807e+00
1	 6.573904e-02	 1.031240e+00	-8.207558e+00
1	 4.916421e-02	 1.032163e+00	-7.645780e+00
1	 3.267911e-02	 1.032816e+00	-7.096807e+00
1	 1.628927e-02	 1.033205e+00	-6.560899e+00
1	 0.000000e+00	 1.033333e+00	-6.038251e+00
1	 8.328384e-02	 1.041119e+00	-9.834429e+00
1	 6.644591e-02	 1.042329e+00	-9.194130e+00
1	 4.969286e-02	 1.043262e+00	-8.566139e+00
1	 3.303050e-02	 1.043922e+00	-7.950837e+00
1	 1.646442e-02	 1.044315e+00	-7.348530e+00
1	 0.000000e+00	 1.044444e+00	-6.759459e+00
1	 8.416984e-02	 1.052194e+00	-1.090032e+01
1	 6.715278e-02	 1.053417e+00	-1.019413e+01
1	 5.022151e-02	 1.054360e+00	-9.500093e+00
1	 3.338189e-02	 1.055028e+00	-8.818634e+00
1	 1.663958e-02	 1.055424e+00	-8.150108e+00
1	 0.000000e+00	 1.055556e+00	-7.494799e+00
1	 1.055556e+00	 0.000000e+00	 2.770719e+01
1	 1.055424e+00	 1.663958e-02	 2.781503e+01
1	 1.055028e+00	 3.338189e-02	 2.788450e+01
1	 1.054360e+00	 5.022151e-02	 2.791538e+01
1	 1.053417e+00	 6.715278e-02	 2.790749e+01
1	 1.052194e+00	 8.416984e-02	 2.786071e+01
1	 1.066667e+00	 0.000000e+00	 2.706084e+01
1	 1.066534e+00	 1.681473e-02	 2.719279e+01
1	 1.066133e+00	 3.373328e-02	 2.728692e+01
1	 1.065459e+00	 5.075016e-02	 2.734303e+01
1	 1.064506e+00	 6.785965e-02	 2.736099e+01
1	 1.063270e+00	 8.505583e-02	 2.734071e+01
1	 1.077778e+00	 0.000000e+00	 2.644034e+01
1	 1.077644e+00	 1.698988e-02	 2.659689e+01
1	 1.077239e+00	 3.408466e-02	 2.671615e+01
1	 1.076557e+00	 5.127880e-02	 2.679796e+01
1	 1.075595e+00	 6.856653e-02	 2.684223e+01
1	 1.074346e+00	 8.594183e-02	 2.684892e+01
1	 1.088889e+00	 0.000000e+00	 2.584490e+01
1	 1.088754e+00	 1.716504e-02	 2.602651e+01
1	 1.088344e+00	 3.443605e-02	 2.617136e+01
1	 1.087656e+00	 5.180745e-02	 2.627932e+01
1	 1.086683e+00	 6.927340e-02	 2.635036e+01
1	 1.085422e+00	 8.682783e-02	 2.638445e+01
1	 1.100000e+00	 0.000000e+00	 2.527376e+01
1	 1.099863e+00	 1.734019e-02	 2.548088e+01
1	 1.099450e+00	 3.478744e-02	 2.565177e+01
1	 1.098754e+00	 5.233610e-02	 2.578633e+01
1	 1.097772e+00	 6.998027e-02	 2.588456e+01
1	 1.096497e+00	 8.771383e-02	 2.594650e+01
1	 1.111111e+00	 0.000000e+00	 2.472619e+01
1	 1.110973e+00	 1.751534e-02	 2.495926e+01
1	 1.110555e+00	 3.513883e-02	 2.515662e+01
1	 1.109853e+00	 5.286475e-02	 2.531821e+01
1	 1.108860e+00	 7.068714e-02	 2.544406e+01
1	 1.107573e+00	 8.859983e-02	 2.553426e+01
1	 1.052194e+00	 8.416984e-02	 2.786071e+01
1	 1.050687e+00	 1.012666e-01	 2.785822e+01
1	 1.048890e+00	 1.184367e-01	 2.780875e+01
1	 1.046800e+00	 1.356736e-01	 2.771268e+01
1	 1.044413e+00	 1.529706e-01	 2.757049e+01
1	 1.041724e+00	 1.703207e-01	 2.738273e+01
1	 1.063270e+00	 8.505583e-02	 2.734071e+01
1	 1.061747e+00	 1.023325e-01	 2.737049e+01
1	 1.059931e+00	 1.196834e-01	 2.735257e+01
1	 1.057819e+00	 1.371017e-01	 2.728734e+01
1	 1.055406e+00	 1.545808e-01	 2.717527e+01
1	 1.052689e+00	 1.721135e-01	 2.701693e+01
1	 1.074346e+00	 8.594183e-02	 2.684892e+01
1	 1.072806e+00	 1.033985e-01	 2.691111e+01
1	 1.070972e+00	 1.209301e-01	 2.692492e+01
1	 1.068838e+00	 1.385299e-01	 2.689072e+01
1	 1.066400e+00	 1.561910e-01	 2.680899e+01
1	 1.063655e+00	 1.739064e-01	 2.668030e+01
1	 1.085422e+00	 8.682783e-02	 2.638445e+01
1	 1.083866e+00	 1.044645e-01	 2.647922e+01
1	 1.082013e+00	 1.221768e-01	 2.652493e+01
1	 1.079857e+00	 1.399580e-01	 2.652195e+01
1	 1.077394e+00	 1.578012e-01	 2.647076e+01
1	 1.074620e+00	 1.756992e-01	 2.637196e+01
1	 1.096497e+00	 8.771383e-02	 2.594650e+01
1	 1.094926e+00	 1.055304e-01	 2.607398e+01
1	 1.093054e+00	 1.234235e-01	 2.615175e+01
1	 1.090876e+00	 1.413861e-01	 2.618017e+01
1	 1.088388e+00	 1.594114e-01	 2.615974e+01
1	 1.085586e+00	 1.774921e-01	 2.609104e+01
1	 1.107573e+00	 8.859983e-02	 2.553426e+01
1	 1.105986e+00	 1.065964e-01	 2.569459e+01
1	 1.104095e+00	 1.246702e-01	 2.580457e+01
1	 1.101895e+00	 1.428143e-01	 2.586458e+01
1	 1.099382e+00	 1.610217e-01	 2.587510e+01
1	 1.096551e+00	 1.792849e-01	 2.583673e+01
1	 1.041724e+00	 1.703207e-01	 2.738273e+01
1	 1.038730e+00	 1.877168e-01	 2.722188e+01
1	 1.035428e+00	 2.051514e-01	 2.701079e+01
1	 1.031814e+00	 2.226172e-01	 2.675062e+01
1	 1.027884e+00	 2.401062e-01	 2.644265e+01
1	 1.023638e+00	 2.576107e-01	 2.608832e+01
1	 1.052689e+00	 1.721135e-01	 2.701693e+01
1	 1.049664e+00	 1.896927e-01	 2.688874e+01
1	 1.046327e+00	 2.073109e-01	 2.670857e+01
1	 1.042675e+00	 2.249605e-01	 2.647753e+01
1	 1.038704e+00	 2.426337e-01	 2.619689e+01
1	 1.034413e+00	 2.603224e-01	 2.586802e+01
1	 1.063655e+00	 1.739064e-01	 2.668030e+01
1	 1.060598e+00	 1.916687e-01	 2.658451e+01
1	 1.057226e+00	 2.094704e-01	 2.643504e+01
1	 1.053536e+00	 2.273039e-01	 2.623297e+01
1	 1.049524e+00	 2.451611e-01	 2.597951e+01
1	 1.045188e+00	 2.630341e-01	 2.567603e+01
1	 1.074620e+00	 1.756992e-01	 2.637196e+01
1	 1.071532e+00	 1.936447e-01	 2.630832e+01
1	 1.068125e+00	 2.116299e-01	 2.618934e+01
1	 1.064397e+00	 2.296472e-01	 2.601606e+01
1	 1.060344e+00	 2.476885e-01	 2.578965e+01
1	 1.055963e+00	 2.657458e-01	 2.551146e+01
1	 1.085586e+00	 1.774921e-01	 2.609104e+01
1	 1.082466e+00	 1.956206e-01	 2.605932e+01
1	 1.079025e+00	 2.137894e-01	 2.597062e+01
1	 1.075258e+00	 2.319905e-01	 2.582596e+01
1	 1.071164e+00	 2.502160e-01	 2.562649e+01
1	 1.066738e+00	 2.684575e-01	 2.537350e+01
1	 1.096551e+00	 1.792849e-01	 2.583673e+01
1	 1.093400e+00	 1.975966e-01	 2.583668e+01
1	 1.089924e+00	 2.159489e-01	 2.577807e+01
1	 1.086119e+00	 2.343339e-01	 2.566187e+01
1	 1.081984e+00	 2.527434e-01	 2.548920e+01
1	 1.077513e+00	 2.711691e-01	 2.526135e+01
1	 1.023638e+00	 2.576107e-01	 2.608832e+01
1	 1.019071e+00	 2.751225e-01	 2.576609e+01
1	 1.014181e+00	 2.926333e-01	 2.540412e+01
1	 1.008967e+00	 3.101348e-01	 2.500490e+01
1	 1.003426e+00	 3.276185e-01	 2.457104e+01
1	 9.975572e-01	 3.450756e-01	 2.410527e+01
1	 1.034413e+00	 2.603224e-01	 2.586802e+01
1	 1.029798e+00	 2.780185e-01	 2.557700e+01
1	 1.024857e+00	 2.957137e-01	 2.524484e+01
1	 1.019587e+00	 3.133994e-01	 2.487395e+01
1	 1.013988e+00	 3.310671e-01	 2.446685e+01
1	 1.008058e+00	 3.487080e-01	 2.402622e+01
1	 1.045188e+00	 2.630341e-01	 2.567603e+01
1	 1.040525e+00	 2.809145e-01	 2.541532e+01
1	 1.035532e+00	 2.987940e-01	 2.511211e+01
1	 1.030208e+00	 3.166640e-01	 2.476873e+01
1	 1.024551e+00	 3.345157e-01	 2.438761e+01
1	 1.018558e+00	 3.523404e-01	 2.397137e+01
1	 1.055963e+00	 2.657458e-01	 2.551146e+01
1	 1.051252e+00	 2.838105e-01	 2.528022e+01
1	 1.046208e+00	 3.018744e-01	 2.500514e+01
1	 1.040829e+00	 3.199286e-01	 2.468846e+01
1	 1.035113e+00	 3.379643e-01	 2.433256e+01
1	 1.029059e+00	 3.559727e-01	 2.393998e+01
1	 1.066738e+00	 2.684575e-01	 2.537350e+01
1	 1.061979e+00	 2.867066e-01	 2.517089e+01
1	 1.056883e+00	 3.049547e-01	 2.492313e+01
1	 1.051450e+00	 3.231931e-01	 2.463238e+01
1	 1.045675e+00	 3.414129e-01	 2.430096e+01
1	 1.039560e+00	 3.596051e-01	 2.393134e+01
1	 1.077513e+00	 2.711691e-01	 2.526135e+01
1	 1.072706e+00	 2.896026e-01	 2.508656e+01
1	 1.067559e+00	 3.080351e-01	 2.486533e+01
1	 1.062070e+00	 3.264577e-01	 2.459977e+01
1	 1.056238e+00	 3.448616e-01	 2.429211e+01
1	 1.050060e+00	 3.632375e-01	 2.394476e+01
1	 9.975572e-01	 3.450756e-01	 2.410527e+01
1	 9.913592e-01	 3.624974e-01	 2.356228e+01
1	 9.848312e-01	 3.798750e-01	 2.298978e+01
1	 9.779725e-01	 3.971994e-01	 2.238937e+01
1	 9.707828e-01	 4.144615e-01	 2.176274e+01
1	 9.632621e-01	 4.316521e-01	 2.111165e+01
1	 1.008058e+00	 3.487080e-01	 2.402622e+01
1	 1.001795e+00	 3.663132e-01	 2.348989e+01
1	 9.951979e-01	 3.838737e-01	 2.292228e+01
1	 9.882669e-01	 4.013804e-01	 2.232485e+01
1	 9.810016e-01	 4.188242e-01	 2.169918e+01
1	 9.734018e-01	 4.361958e-01	 2.104690e+01
1	 1.018558e+00	 3.523404e-01	 2.397137e+01
1	 1.012230e+00	 3.701289e-01	 2.344030e+01
1	 1.005564e+00	 3.878724e-01	 2.287620e+01
1	 9.985614e-01	 4.055615e-01	 2.228043e+01
1	 9.912203e-01	 4.231870e-01	 2.165442e+01
1	 9.835414e-01	 4.407395e-01	 2.099968e+01
1	 1.029059e+00	 3.559727e-01	 2.393998e+01
1	 1.022665e+00	 3.739447e-01	 2.341280e+01
1	 1.015931e+00	 3.918711e-01	 2.285089e+01
1	 1.008856e+00	 4.097425e-01	 2.225548e+01
1	 1.001439e+00	 4.275497e-01	 2.162787e+01
1	 9.936810e-01	 4.452833e-01	 2.096947e+01
1	 1.039560e+00	 3.596051e-01	 2.393134e+01
1	 1.033101e+00	 3.777605e-01	 2.340673e+01
1	 1.026298e+00	 3.958697e-01	 2.284572e+01
1	 1.019150e+00	 4.139236e-01	 2.224941e+01
1	 1.011658e+00	 4.319125e-01	 2.161899e+01
1	 1.003821e+00	 4.498270e-01	 2.095575e+01
1	 1.050060e+00	 3.632375e-01	 2.394476e+01
1	 1.043536e+00	 3.815762e-01	 2.342144e+01
1	 1.036664e+00	 3.998684e-01	 2.286008e+01
1	 1.029445e+00	 4.181046e-01	 2.226166e+01
1	 1.021877e+00	 4.362752e-01	 2.162725e+01
1	 1.013960e+00	 4.543707e-01	 2.095802e+01
1	 9.632621e-01	 4.316521e-01	 2.111165e+01
1	 9.554109e-01	 4.487621e-01	 2.015534e+01
1	 9.472299e-01	 4.657823e-01	 1.917722e+01
1	 9.387199e-01	 4.827033e-01	 1.817839e+01
1	 9.298825e-01	 4.995158e-01	 1.715998e+01
1	 9.207193e-01	 5.162107e-01	 1.612317e+01
1	 9.734018e-01	 4.361958e-01	 2.104690e+01
1	 9.654679e-01	 4.534860e-01	 2.007681e+01
1	 9.572007e-01	 4.706853e-01	 1.908413e+01
1	 9.486012e-01	 4.877844e-01	 1.806983e+01
1	 9.396707e-01	 5.047739e-01	 1.703492e+01
1	 9.304111e-01	 5.216445e-01	 1.598044e+01
1	 9.835414e-01	 4.407395e-01	 2.099968e+01
1	 9.755249e-01	 4.582098e-01	 2.001438e+01
1	 9.671715e-01	 4.755882e-01	 1.900572e+01
1	 9.584824e-01	 4.928654e-01	 1.797454e+01
1	 9.494590e-01	 5.100319e-01	 1.692171e+01
1	 9.401029e-01	 5.270783e-01	 1.584819e+01
1	 9.936810e-01	 4.452833e-01	 2.096947e+01
1	 9.855818e-01	 4.629336e-01	 1.996756e+01
1	 9.771424e-01	 4.804912e-01	 1.894153e+01
1	 9.683637e-01	 4.979465e-01	 1.789209e+01
1	 9.592472e-01	 5.152900e-01	 1.682000e+01
1	 9.497947e-01	 5.325120e-01	 1.572609e+01
1	 1.003821e+00	 4.498270e-01	 2.095575e+01
1	 9.956388e-01	 4.676574e-01	 1.993588e+01
1	 9.871132e-01	 4.853942e-01	 1.889113e+01
1	 9.782450e-01	 5.030276e-01	 1.782210e+01
1	 9.690355e-01	 5.205481e-01	 1.672944e+01
1	 9.594865e-01	 5.379458e-01	 1.561384e+01
1	 1.013960e+00	 4.543707e-01	 2.095802e+01
1	 1.005696e+00	 4.723812e-01	 1.991888e+01
1	 9.970841e-01	 4.902971e-01	 1.885411e+01
1	 9.881262e-01	 5.081087e-01	 1.776421e+01
1	 9.788237e-01	 5.258061e-01	 1.664969e+01
1	 9.691782e-01	 5.433796e-01	 1.551114e+01
1	 9.207193e-01	 5.162107e-01	 1.612317e+01
1	 9.112325e-01	 5.327785e-01	 1.502872e+01
1	 9.014243e-01	 5.492102e-01	 1.392074e+01
1	 8.912975e-01	 5.654965e-01	 1.280073e+01
1	 8.808553e-01	 5.816283e-01	 1.167022e+01
1	 8.701011e-01	 5.975966e-01	 1.053076e+01
1	 9.304111e-01	 5.216445e-01	 1.598044e+01
1	 9.208244e-01	 5.383867e-01	 1.486817e+01
1	 9.109129e-01	 5.549913e-01	 1.374060e+01
1	 9.006796e-01	 5.714491e-01	 1.259902e+01
1	 8.901275e-01	 5.877507e-01	 1.144475e+01
1	 8.792600e-01	 6.038870e-01	 1.027914e+01
1	 9.401029e-01	 5.270783e-01	 1.584819e+01
1	 9.304163e-01	 5.439949e-01	 1.471581e+01
1	 9.204016e-01	 5.607725e-01	 1.356638e+01
1	 9.100617e-01	 5.774017e-01	 1.240100e+01
1	 8.993996e-01	 5.938731e-01	 1.122077e+01
1	 8.884190e-01	 6.101775e-01	 1.002685e+01
1	 9.497947e-01	 5.325120e-01	 1.572609e+01
1	 9.400082e-01	 5.496031e-01	 1.457138e+01
1	 9.298903e-01	 5.665537e-01	 1.339791e+01
1	 9.194438e-01	 5.833543e-01	 1.220655e+01
1	 9.086718e-01	 5.999955e-01	 1.099823e+01
1	 8.975780e-01	 6.164680e-01	 9.773903e+00
1	 9.594865e-01	 5.379458e-01	 1.561384e+01
1	 9.496001e-01	 5.552113e-01	 1.443465e+01
1	 9.393790e-01	 5.723348e-01	 1.323500e+01
1	 9.288258e-01	 5.893068e-01	 1.201557e+01
1	 9.179440e-01	 6.061179e-01	 1.077709e+01
1	 9.067369e-01	 6.227585e-01	 9.520328e+00
1	 9.691782e-01	 5.433796e-01	 1.551114e+01
1	 9.591921e-01	 5.608195e-01	 1.430537e+01
1	 9.488676e-01	 5.781160e-01	 1.307748e+01
1	 9.382079e-01	 5.952594e-01	 1.182795e+01
1	 9.272161e-01	 6.122403e-01	 1.055732e+01
1	 9.158959e-01	 6.290490e-01	 9.266139e+00
1	 8.701011e-01	 5.975966e-01	 1.053076e+01
1	 8.590386e-01	 6.133924e-01	 9.569553e+00
1	 8.476720e-01	 6.290070e-01	 8.610654e+00
1	 8.360056e-01	 6.444316e-01	 7.656771e+00
1	 8.240444e-01	 6.596578e-01	 6.710607e+00
1	 8.117933e-01	 6.746771e-01	 5.774841e+00
1	 8.792600e-01	 6.038870e-01	 1.027914e+01
1	 8.680811e-01	 6.198492e-01	 9.302237e+00
1	 8.565948e-01	 6.356281e-01	 8.325725e+00
1	 8.448057e-01	 6.512151e-01	 7.352172e+00
1	 8.327185e-01	 6.666015e-01	 6.384137e+00
1	 8.203385e-01	 6.817789e-01	 5.424165e+00
1	 8.884190e-01	 6.101775e-01	 1.002685e+01
1	 8.771236e-01	 6.263059e-01	 9.032507e+00
1	 8.655177e-01	 6.422492e-01	 8.036670e+00
1	 8.536058e-01	 6.579986e-01	 7.041763e+00
1	 8.413927e-01	 6.735453e-01	 6.050208e+00
1	 8.288837e-01	 6.888808e-01	 5.064417e+00
1	 8.975780e-01	 6.164680e-01	 9.773903e+00
1	 8.861661e-01	 6.327627e-01	 8.760437e+00
1	 8.744406e-01	 6.488704e-01	 7.743615e+00
1	 8.624058e-01	 6.647821e-01	 6.725723e+00
1	 8.500668e-01	 6.804891e-01	 5.709049e+00
1	 8.374289e-01	 6.959827e-01	 4.695874e+00
1	 9.067369e-01	 6.227585e-01	 9.520328e+00
1	 8.952086e-01	 6.392194e-01	 8.486099e+00
1	 8.833634e-01	 6.554915e-01	 7.446681e+00
1	 8.712059e-01	 6.715656e-01	 6.404223e+00
1	 8.587410e-01	 6.874328e-01	 5.360879e+00
1	 8.459741e-01	 7.030845e-01	 4.318804e+00
1	 9.158959e-01	 6.290490e-01	 9.266139e+00
1	 9.042512e-01	 6.456762e-01	 8.209561e+00
1	 8.922863e-01	 6.621126e-01	 7.145984e+00
1	 8.800059e-01	 6.783491e-01	 6.077425e+00
1	 8.674151e-01	 6.943766e-01	 5.005908e+00
1	 8.545193e-01	 7.101864e-01	 3.933461e+00
1	 8.117933e-01	 6.746771e-01	 5.774841e+00
1	 7.992578e-01	 6.894813e-01	 5.132859e+00
1	 7.864436e-01	 7.040624e-01	 4.536028e+00
1	 7.733568e-01	 7.184127e-01	 3.989219e+00
1	 7.600035e-01	 7.325245e-01	 3.497154e+00
1	 7.463905e-01	 7.463905e-01	 3.064398e+00
1	 8.203385e-01	 6.817789e-01	 5.424165e+00
1	 8.076711e-01	 6.967390e-01	 4.781858e+00
1	 7.947220e-01	 7.114736e-01	 4.182192e+00
1	 7.814974e-01	 7.259750e-01	 3.630021e+00
1	 7.680036e-01	 7.402353e-01	 3.130060e+00
1	 7.542472e-01	 7.542472e-01	 2.686867e+00
1	 8.288837e-01	 6.888808e-01	 5.064417e+00
1	 8.160843e-01	 7.039967e-01	 4.421139e+00
1	 8.030004e-01	 7.188848e-01	 3.818033e+00
1	 7.896380e-01	 7.335372e-01	 3.259939e+00
1	 7.760036e-01	 7.479461e-01	 2.751562e+00
1	 7.621040e-01	 7.621040e-01	 2.297457e+00
1	 8.374289e-01	 6.959827e-01	 4.695874e+00
1	 8.244976e-01	 7.112544e-01	 4.050999e+00
1	 8.112787e-01	 7.262960e-01	 3.443868e+00
1	 7.977786e-01	 7.410994e-01	 2.879305e+00
1	 7.840036e-01	 7.556569e-01	 2.362009e+00
1	 7.699607e-01	 7.699607e-01	 1.896532e+00
1	 8.459741e-01	 7.030845e-01	 4.318804e+00
1	 8.329108e-01	 7.185121e-01	 3.671725e+00
1	 8.195571e-01	 7.337072e-01	 3.060000e+00
1	 8.059192e-01	 7.486617e-01	 2.488441e+00
1	 7.920037e-01	 7.633677e-01	 1.961738e+00
1	 7.778175e-01	 7.778175e-01	 1.484441e+00
1	 8.545193e-01	 7.101864e-01	 3.933461e+00
1	 8.413240e-01	 7.257698e-01	 3.283590e+00
1	 8.278354e-01	 7.411184e-01	 2.666720e+00
1	 8.140598e-01	 7.562239e-01	 2.087651e+00
1	 8.000037e-01	 7.710784e-01	 1.551068e+00
1	 7.856742e-01	 7.856742e-01	 1.061519e+00
1	 7.463905e-01	 7.463905e-01	 3.064398e+00
1	 7.325245e-01	 7.600035e-01	 2.655340e+00
1	 7.184127e-01	 7.733568e-01	 2.257274e+00
1	 7.040624e-01	 7.864436e-01	 1.872699e+00
1	 6.894813e-01	 7.992578e-01	 1.504075e+00
1	 6.746771e-01	 8.117933e-01	 1.153813e+00
1	 7.542472e-01	 7.542472e-01	 2.686867e+00
1	 7.402353e-01	 7.680036e-01	 2.249722e+00
1	 7.259750e-01	 7.814974e-01	 1.825740e+00
1	 7.114736e-01	 7.947220e-01	 1.417556e+00
1	 6.967390e-01	 8.076711e-01	 1.027755e+00
1	 6.817789e-01	 8.203385e-01	 6.588684e-01
1	 7.621040e-01	 7.621040e-01	 2.297457e+00
1	 7.479461e-01	 7.760036e-01	 1.833282e+00
1	 7.335372e-01	 7.896380e-01	 1.384391e+00
1	 7.188848e-01	 8.030004e-01	 9.535495e-01
1	 7.039967e-01	 8.160843e-01	 5.434708e-01
1	 6.888808e-01	 8.288837e-01	 1.568038e-01
1	 7.699607e-01	 7.699607e-01	 1.896532e+00
1	 7.556569e-01	 7.840036e-01	 1.406352e+00
1	 7.410994e-01	 7.977786e-01	 9.335256e-01
1	 7.262960e-01	 8.112787e-01	 4.809515e-01
1	 7.112544e-01	 8.244976e-01	 5.146694e-02
1	 6.959827e-01	 8.374289e-01	-3.521626e-01
1	 7.778175e-01	 7.778175e-01	 1.484441e+00
1	 7.633677e-01	 7.920037e-01	 9.692497e-01
1	 7.486617e-01	 8.059192e-01	 4.734333e-01
1	 7.337072e-01	 8.195571e-01	 2.235338e-05
1	 7.185121e-01	 8.329108e-01	-4.480229e-01
1	 7.030845e-01	 8.459741e-01	-8.678215e-01
1	 7.856742e-01	 7.856742e-01	 1.061519e+00
1	 7.710784e-01	 8.000037e-01	 5.222797e-01
1	 7.562239e-01	 8.140598e-01	 4.390690e-03
1	 7.411184e-01	 8.278354e-01	-4.889881e-01
1	 7.257698e-01	 8.413240e-01	-9.547740e-01
1	 7.101864e-01	 8.545193e-01	-1.389972e+00
1	 6.746771e-01	 8.117933e-01	 1.153813e+00
1	 6.596578e-01	 8.240444e-01	 5.194094e-01
1	 6.444316e-01	 8.360056e-01	-1.268348e-01
1	 6.290070e-01	 8.476720e-01	-7.843842e-01
1	 6.133924e-01	 8.590386e-01	-1.452645e+00
1	 5.975966e-01	 8.701011e-01	-2.130966e+00
1	 6.817789e-01	 8.203385e-01	 6.588684e-01
1	 6.666015e-01	 8.327185e-01	-1.770998e-02
1	 6.512151e-01	 8.448057e-01	-7.092496e-01
1	 6.356281e-01	 8.565948e-01	-1.415354e+00
1	 6.198492e-01	 8.680811e-01	-2.135557e+00
1	 6.038870e-01	 8.792600e-01	-2.869324e+00
1	 6.888808e-01	 8.288837e-01	 1.568038e-01
1	 6.735453e-01	 8.413927e-01	-5.637833e-01
1	 6.579986e-01	 8.536058e-01	-1.302387e+00
1	 6.422492e-01	 8.655177e-01	-2.058748e+00
1	 6.263059e-01	 8.771236e-01	-2.832525e+00
1	 6.101775e-01	 8.884190e-01	-3.623297e+00
1	 6.959827e-01	 8.374289e-01	-3.521626e-01
1	 6.804891e-01	 8.500668e-01	-1.118536e+00
1	 6.647821e-01	 8.624058e-01	-1.905920e+00
1	 6.488704e-01	 8.744406e-01	-2.714187e+00
1	 6.327627e-01	 8.861661e-01	-3.543120e+00
1	 6.164680e-01	 8.975780e-01	-4.392409e+00
1	 7.030845e-01	 8.459741e-01	-8.678215e-01
1	 6.874328e-01	 8.587410e-01	-1.681706e+00
1	 6.715656e-01	 8.712059e-01	-2.519533e+00
1	 6.554915e-01	 8.833634e-01	-3.381305e+00
1	 6.392194e-01	 8.952086e-01	-4.266928e+00
1	 6.227585e-01	 9.067369e-01	-5.176201e+00
1	 7.101864e-01	 8.545193e-01	-1.389972e+00
1	 6.943766e-01	 8.674151e-01	-2.253041e+00
1	 6.783491e-01	 8.800059e-01	-3.142922e+00
1	 6.621126e-01	 8.922863e-01	-4.059753e+00
1	 6.456762e-01	 9.042512e-01	-5.003553e+00
1	 6.290490e-01	 9.158959e-01	-5.974232e+00
1	 5.975966e-01	 8.701011e-01	-2.130966e+00
1	 5.816283e-01	 8.808553e-01	-2.999834e+00
1	 5.654965e-01	 8.912975e-01	-3.896357e+00
1	 5.492102e-01	 9.014243e-01	-4.820450e+00
1	 5.327785e-01	 9.112325e-01	-5.771904e+00
1	 5.162107e-01	 9.207193e-01	-6.750389e+00
1	 6.038870e-01	 8.792600e-01	-2.869324e+00
1	 5.877507e-01	 8.901275e-01	-3.807823e+00
1	 5.714491e-01	 9.006796e-01	-4.777539e+00
1	 5.549913e-01	 9.109129e-01	-5.778468e+00
1	 5.383867e-01	 9.208244e-01	-6.810470e+00
1	 5.216445e-01	 9.304111e-01	-7.873273e+00
1	 6.101775e-01	 8.884190e-01	-3.623297e+00
1	 5.938731e-01	 8.993996e-01	-4.632889e+00
1	 5.774017e-01	 9.100617e-01	-5.677184e+00
1	 5.607725e-01	 9.204016e-01	-6.756260e+00
1	 5.439949e-01	 9.304163e-01	-7.870047e+00
1	 5.270783e-01	 9.401029e-01	-9.018326e+00
1	 6.164680e-01	 8.975780e-01	-4.392409e+00
1	 5.999955e-01	 9.086718e-01	-5.474508e+00
1	 5.833543e-01	 9.194438e-01	-6.594726e+00
1	 5.665537e-01	 9.298903e-01	-7.753222e+00
1	 5.496031e-01	 9.400082e-01	-8.949991e+00
1	 5.325120e-01	 9.497947e-01	-1.018487e+01
1	 6.227585e-01	 9.067369e-01	-5.176201e+00
1	 6.061179e-01	 9.179440e-01	-6.332179e+00
1	 5.893068e-01	 9.288258e-01	-7.529624e+00
1	 5.723348e-01	 9.393790e-01	-8.768773e+00
1	 5.552113e-01	 9.496001e-01	-1.004968e+01
1	 5.379458e-01	 9.594865e-01	-1.137225e+01
1	 6.290490e-01	 9.158959e-01	-5.974232e+00
1	 6.122403e-01	 9.272161e-01	-7.205420e+00
1	 5.952594e-01	 9.382079e-01	-8.481357e+00
1	 5.781160e-01	 9.488676e-01	-9.802354e+00
1	 5.608195e-01	 9.591921e-01	-1.116854e+01
1	 5.433796e-01	 9.691782e-01	-1.257984e+01
1	 5.162107e-01	 9.207193e-01	-6.750389e+00
1	 4.995158e-01	 9.298825e-01	-7.704750e+00
1	 4.827033e-01	 9.387199e-01	-8.671293e+00
1	 4.657823e-01	 9.472299e-01	-9.649160e+00
1	 4.487621e-01	 9.554109e-01	-1.063743e+01
1	 4.316521e-01	 9.632621e-01	-1.163513e+01
1	 5.216445e-01	 9.304111e-01	-7.873273e+00
1	 5.047739e-01	 9.396707e-01	-8.910214e+00
1	 4.877844e-01	 9.486012e-01	-9.960581e+00
1	 4.706853e-01	 9.572007e-01	-1.102351e+01
1	 4.534860e-01	 9.654679e-01	-1.209808e+01
1	 4.361958e-01	 9.734018e-01	-1.318329e+01
1	 5.270783e-01	 9.401029e-01	-9.018326e+00
1	 5.100319e-01	 9.494590e-01	-1.013840e+01
1	 4.928654e-01	 9.584824e-01	-1.127311e+01
1	 4.755882e-01	 9.671715e-01	-1.242161e+01
1	 4.582098e-01	 9.755249e-01	-1.358294e+01
1	 4.407395e-01	 9.835414e-01	-1.475611e+01
1	 5.325120e-01	 9.497947e-01	-1.018487e+01
1	 5.152900e-01	 9.592472e-01	-1.138860e+01
1	 4.979465e-01	 9.683637e-01	-1.260818e+01
1	 4.804912e-01	 9.771424e-01	-1.384272e+01
1	 4.629336e-01	 9.855818e-01	-1.509128e+01
1	 4.452833e-01	 9.936810e-01	-1.635284e+01
1	 5.379458e-01	 9.594865e-01	-1.137225e+01
1	 5.205481e-01	 9.690355e-01	-1.266016e+01
1	 5.030276e-01	 9.782450e-01	-1.396509e+01
1	 4.853942e-01	 9.871132e-01	-1.528615e+01
1	 4.676574e-01	 9.956388e-01	-1.662239e+01
1	 4.498270e-01	 1.003821e+00	-1.797276e+01
1	 5.433796e-01	 9.691782e-01	-1.257984e+01
1	 5.258061e-01	 9.788237e-01	-1.395244e+01
1	 5.081087e-01	 9.881262e-01	-1.534320e+01
1	 4.902971e-01	 9.970841e-01	-1.675124e+01
1	 4.723812e-01	 1.005696e+00	-1.817558e+01
1	 4.543707e-01	 1.013960e+00	-1.961517e+01
1	 4.316521e-01	 9.632621e-01	-1.163513e+01
1	 4.144615e-01	 9.707828e-01	-1.240549e+01
1	 3.971994e-01	 9.779725e-01	-1.312649e+01
1	 3.798750e-01	 9.848312e-01	-1.379661e+01
1	 3.624974e-01	 9.913592e-01	-1.441447e+01
1	 3.450756e-01	 9.975572e-01	-1.497881e+01
1	 4.361958e-01	 9.734018e-01	-1.318329e+01
1	 4.188242e-01	 9.810016e-01	-1.402365e+01
1	 4.013804e-01	 9.882669e-01	-1.481005e+01
1	 3.838737e-01	 9.951979e-01	-1.554084e+01
1	 3.663132e-01	 1.001795e+00	-1.621450e+01
1	 3.487080e-01	 1.008058e+00	-1.682971e+01
1	 4.407395e-01	 9.835414e-01	-1.475611e+01
1	 4.231870e-01	 9.912203e-01	-1.566500e+01
1	 4.055615e-01	 9.985614e-01	-1.651542e+01
1	 3.878724e-01	 1.005564e+00	-1.730557e+01
1	 3.701289e-01	 1.012230e+00	-1.803387e+01
1	 3.523404e-01	 1.018558e+00	-1.869886e+01
1	 4.452833e-01	 9.936810e-01	-1.635284e+01
1	 4.275497e-01	 1.001439e+00	-1.732882e+01
1	 4.097425e-01	 1.008856e+00	-1.824191e+01
1	 3.918711e-01	 1.015931e+00	-1.909020e+01
1	 3.739447e-01	 1.022665e+00	-1.987197e+01
1	 3.559727e-01	 1.029059e+00	-2.058570e+01
1	 4.498270e-01	 1.003821e+00	-1.797276e+01
1	 4.319125e-01	 1.011658e+00	-1.901444e+01
1	 4.139236e-01	 1.019150e+00	-1.998890e+01
1	 3.958697e-01	 1.026298e+00	-2.089411e+01
1	 3.777605e-01	 1.033101e+00	-2.172825e+01
1	 3.596051e-01	 1.039560e+00	-2.248970e+01
1	 4.543707e-01	 1.013960e+00	-1.961517e+01
1	 4.362752e-01	 1.021877e+00	-2.072119e+01
1	 4.181046e-01	 1.029445e+00	-2.175576e+01
1	 3.998684e-01	 1.036664e+00	-2.271673e+01
1	 3.815762e-01	 1.043536e+00	-2.360216e+01
1	 3.632375e-01	 1.050060e+00	-2.441034e+01
1	 3.450756e-01	 9.975572e-01	-1.497881e+01
1	 3.276185e-01	 1.003426e+00	-1.537378e+01
1	 3.101348e-01	 1.008967e+00	-1.565325e+01
1	 2.926333e-01	 1.014181e+00	-1.581615e+01
1	 2.751225e-01	 1.019071e+00	-1.586173e+01
1	 2.576107e-01	 1.023638e+00	-1.578959e+01
1	 3.487080e-01	 1.008058e+00	-1.682971e+01
1	 3.310671e-01	 1.013988e+00	-1.725296e+01
1	 3.133994e-01	 1.019587e+00	-1.755135e+01
1	 2.957137e-01	 1.024857e+00	-1.772378e+01
1	 2.780185e-01	 1.029798e+00	-1.776951e+01
1	 2.603224e-01	 1.034413e+00	-1.768818e+01
1	 3.523404e-01	 1.018558e+00	-1.869886e+01
1	 3.345157e-01	 1.024551e+00	-1.914899e+01
1	 3.166640e-01	 1.030208e+00	-1.946509e+01
1	 2.987940e-01	 1.035532e+00	-1.964603e+01
1	 2.809145e-01	 1.040525e+00	-1.969110e+01
1	 2.630341e-01	 1.045188e+00	-1.959995e+01
1	 3.559727e-01	 1.029059e+00	-2.058570e+01
1	 3.379643e-01	 1.035113e+00	-2.106136e+01
1	 3.199286e-01	 1.040829e+00	-2.139400e+01
1	 3.018744e-01	 1.046208e+00	-2.158248e+01
1	 2.838105e-01	 1.051252e+00	-2.162608e+01
1	 2.657458e-01	 1.055963e+00	-2.152449e+01
1	 3.596051e-01	 1.039560e+00	-2.248970e+01
1	 3.414129e-01	 1.045675e+00	-2.298957e+01
1	 3.231931e-01	 1.051450e+00	-2.333762e+01
1	 3.049547e-01	 1.056883e+00	-2.353268e+01
1	 2.867066e-01	 1.061979e+00	-2.357404e+01
1	 2.684575e-01	 1.066738e+00	-2.346142e+01
1	 3.632375e-01	 1.050060e+00	-2.441034e+01
1	 3.448616e-01	 1.056238e+00	-2.493314e+01
1	 3.264577e-01	 1.062070e+00	-2.529550e+01
1	 3.080351e-01	 1.067559e+00	-2.549623e+01
1	 2.896026e-01	 1.072706e+00	-2.553460e+01
1	 2.711691e-01	 1.077513e+00	-2.541036e+01
1	 2.576107e-01	 1.023638e+00	-1.578959e+01
1	 2.401062e-01	 1.027884e+00	-1.565646e+01
1	 2.226172e-01	 1.031814e+00	-1.542264e+01
1	 2.051514e-01	 1.035428e+00	-1.508862e+01
1	 1.877168e-01	 1.038730e+00	-1.465514e+01
1	 1.703207e-01	 1.041724e+00	-1.412314e+01
1	 2.603224e-01	 1.034413e+00	-1.768818e+01
1	 2.426337e-01	 1.038704e+00	-1.753816e+01
1	 2.249605e-01	 1.042675e+00	-1.727467e+01
1	 2.073109e-01	 1.046327e+00	-1.689829e+01
1	 1.896927e-01	 1.049664e+00	-1.640990e+01
1	 1.721135e-01	 1.052689e+00	-1.581062e+01
1	 2.630341e-01	 1.045188e+00	-1.959995e+01
1	 2.451611e-01	 1.049524e+00	-1.943173e+01
1	 2.273039e-01	 1.053536e+00	-1.913751e+01
1	 2.094704e-01	 1.057226e+00	-1.871798e+01
1	 1.916687e-01	 1.060598e+00	-1.817414e+01
1	 1.739064e-01	 1.063655e+00	-1.750728e+01
1	 2.657458e-01	 1.055963e+00	-2.152449e+01
1	 2.476885e-01	 1.060344e+00	-2.133679e+01
1	 2.296472e-01	 1.064397e+00	-2.101082e+01
1	 2.116299e-01	 1.068125e+00	-2.054737e+01
1	 1.936447e-01	 1.071532e+00	-1.994756e+01
1	 1.756992e-01	 1.074620e+00	-1.921285e+01
1	 2.684575e-01	 1.066738e+00	-2.346142e+01
1	 2.502160e-01	 1.071164e+00	-2.325300e+01
1	 2.319905e-01	 1.075258e+00	-2.289429e+01
1	 2.137894e-01	 1.079025e+00	-2.238616e+01
1	 1.956206e-01	 1.082466e+00	-2.172989e+01
1	 1.774921e-01	 1.085586e+00	-2.092706e+01
1	 2.711691e-01	 1.077513e+00	-2.541036e+01
1	 2.527434e-01	 1.081984e+00	-2.518002e+01
1	 2.343339e-01	 1.086119e+00	-2.478761e+01
1	 2.159489e-01	 1.089924e+00	-2.423409e+01
1	 1.975966e-01	 1.093400e+00	-2.352085e+01
1	 1.792849e-01	 1.096551e+00	-2.264966e+01
1	 1.703207e-01	 1.041724e+00	-1.412314e+01
1	 1.529706e-01	 1.044413e+00	-1.358089e+01
1	 1.356736e-01	 1.046800e+00	-1.298636e+01
1	 1.184367e-01	 1.048890e+00	-1.234062e+01
1	 1.012666e-01	 1.050687e+00	-1.164486e+01
1	 8.416984e-02	 1.052194e+00	-1.090032e+01
1	 1.721135e-01	 1.052689e+00	-1.581062e+01
1	 1.545808e-01	 1.055406e+00	-1.519632e+01
1	 1.371017e-01	 1.057819e+00	-1.452250e+01
1	 1.196834e-01	 1.059931e+00	-1.379038e+01
1	 1.023325e-01	 1.061747e+00	-1.300128e+01
1	 8.505583e-02	 1.063270e+00	-1.215660e+01
1	 1.739064e-01	 1.063655e+00	-1.750728e+01
1	 1.561910e-01	 1.066400e+00	-1.682040e+01
1	 1.385299e-01	 1.068838e+00	-1.606693e+01
1	 1.209301e-01	 1.070972e+00	-1.524821e+01
1	 1.033985e-01	 1.072806e+00	-1.436569e+01
1	 8.594183e-02	 1.074346e+00	-1.342092e+01
1	 1.756992e-01	 1.074620e+00	-1.921285e+01
1	 1.578012e-01	 1.077394e+00	-1.845289e+01
1	 1.399580e-01	 1.079857e+00	-1.761940e+01
1	 1.221768e-01	 1.082013e+00	-1.671386e+01
1	 1.044645e-01	 1.083866e+00	-1.573784e+01
1	 8.682783e-02	 1.085422e+00	-1.469305e+01
1	 1.774921e-01	 1.085586e+00	-2.092706e+01
1	 1.594114e-01	 1.088388e+00	-2.009352e+01
1	 1.413861e-01	 1.090876e+00	-1.917967e+01
1	 1.234235e-01	 1.093054e+00	-1.818709e+01
1	 1.055304e-01	 1.094926e+00	-1.711749e+01
1	 8.771383e-02	 1.096497e+00	-1.597275e+01
1	 1.792849e-01	 1.096551e+00	-2.264966e+01
1	 1.610217e-01	 1.099382e+00	-2.174206e+01
1	 1.428143e-01	 1.101895e+00	-2.074750e+01
1	 1.246702e-01	 1.104095e+00	-1.966767e+01
1	 1.065964e-01	 1.105986e+00	-1.850443e+01
1	 8.859983e-02	 1.107573e+00	-1.725979e+01
1	 8.416984e-02	 1.052194e+00	-1.090032e+01
1	 6.715278e-02	 1.053417e+00	-1.019413e+01
1	 5.022151e-02	 1.054360e+00	-9.500093e+00
1	 3.338189e-02	 1.055028e+00	-8.818634e+00
1	 1.663958e-02	 1.055424e+00	-8.150108e+00
1	 0.000000e+00	 1.055556e+00	-7.494799e+00
1	 8.505583e-02	 1.063270e+00	-1.215660e+01
1	 6.785965e-02	 1.064506e+00	-1.135090e+01
1	 5.075016e-02	 1.065459e+00	-1.055806e+01
1	 3.373328e-02	 1.066133e+00	-9.778527e+00
1	 1.681473e-02	 1.066534e+00	-9.012686e+00
1	 0.000000e+00	 1.066667e+00	-8.260847e+00
1	 8.594183e-02	 1.074346e+00	-1.342092e+01
1	 6.856653e-02	 1.075595e+00	-1.251569e+01
1	 5.127880e-02	 1.076557e+00	-1.162400e+01
1	 3.408466e-02	 1.077239e+00	-1.074633e+01
1	 1.698988e-02	 1.077644e+00	-9.883116e+00
1	 0.000000e+00	 1.077778e+00	-9.034676e+00
1	 8.682783e-02	 1.085422e+00	-1.469305e+01
1	 6.927340e-02	 1.086683e+00	-1.368824e+01
1	 5.180745e-02	 1.087656e+00	-1.269765e+01
1	 3.443605e-02	 1.088344e+00	-1.172181e+01
1	 1.716504e-02	 1.088754e+00	-1.076116e+01
1	 0.000000e+00	 1.088889e+00	-9.816048e+00
1	 8.771383e-02	 1.096497e+00	-1.597275e+01
1	 6.998027e-02	 1.097772e+00	-1.486833e+01
1	 5.233610e-02	 1.098754e+00	-1.377880e+01
1	 3.478744e-02	 1.099450e+00	-1.270473e+01
1	 1.734019e-02	 1.099863e+00	-1.164658e+01
1	 0.000000e+00	 1.100000e+00	-1.060473e+01
1	 8.859983e-02	 1.107573e+00	-1.725979e+01
1	 7.068714e-02	 1.108860e+00	-1.605572e+01
1	 5.286475e-02	 1.109853e+00	-1.486722e+01
1	 3.513883e-02	 1.110555e+00	-1.369486e+01
1	 1.751534e-02	 1.110973e+00	-1.253916e+01
1	 0.000000e+00	 1.111111e+00	-1.140052e+01
1	 1.111111e+00	 0.000000e+00	 2.472619e+01
1	 1.110973e+00	 1.751534e-02	 2.495926e+01
1	 1.110555e+00	 3.513883e-02	 2.515662e+01
1	 1.109853e+00	 5.286475e-02	 2.531821e+01
1	 1.108860e+00	 7.068714e-02	 2.544406e+01
1	 1.107573e+00	 8.859983e-02	 2.553426e+01
1	 1.122222e+00	 0.000000e+00	 2.416967e+01
1	 1.122083e+00	 1.769050e-02	 2.442880e+01
1	 1.121661e+00	 3.549022e-02	 2.465304e+01
1	 1.120951e+00	 5.339339e-02	 2.484235e+01
1	 1.119949e+00	 7.139401e-02	 2.499676e+01
1	 1.118649e+00	 8.948582e-02	 2.511635e+01
1	 1.133333e+00	 0.000000e+00	 2.363053e+01
1	 1.133193e+00	 1.786565e-02	 2.391566e+01
1	 1.132766e+00	 3.584161e-02	 2.416671e+01
1	 1.132050e+00	 5.392204e-02	 2.438365e+01
1	 1.131038e+00	 7.210088e-02	 2.456651e+01
1	 1.129724e+00	 9.037182e-02	 2.471538e+01
1	 1.144444e+00	 0.000000e+00	 2.310827e+01
1	 1.144302e+00	 1.804080e-02	 2.341935e+01
1	 1.143872e+00	 3.619299e-02	 2.369714e+01
1	 1.143148e+00	 5.445069e-02	 2.394163e+01
1	 1.142126e+00	 7.280775e-02	 2.415284e+01
1	 1.140800e+00	 9.125782e-02	 2.433087e+01
1	 1.155556e+00	 0.000000e+00	 2.260239e+01
1	 1.155412e+00	 1.821596e-02	 2.293937e+01
1	 1.154978e+00	 3.654438e-02	 2.324383e+01
1	 1.154247e+00	 5.497934e-02	 2.351579e+01
1	 1.153215e+00	 7.351463e-02	 2.375526e+01
1	 1.151876e+00	 9.214382e-02	 2.396233e+01
1	 1.166667e+00	 0.000000e+00	 2.211244e+01
1	 1.166522e+00	 1.839111e-02	 2.247525e+01
1	 1.166083e+00	 3.689577e-02	 2.280633e+01
1	 1.165345e+00	 5.550798e-02	 2.310567e+01
1	 1.164303e+00	 7.422150e-02	 2.337330e+01
1	 1.162952e+00	 9.302982e-02	 2.360932e+01
1	 1.107573e+00	 8.859983e-02	 2.553426e+01
1	 1.105986e+00	 1.065964e-01	 2.569459e+01
1	 1.104095e+00	 1.246702e-01	 2.580457e+01
1	 1.101895e+00	 1.428143e-01	 2.586458e+01
1	 1.099382e+00	 1.610217e-01	 2.587510e+01
1	 1.096551e+00	 1.792849e-01	 2.583673e+01
1	 1.118649e+00	 8.948582e-02	 2.511635e+01
1	 1.117046e+00	 1.076623e-01	 2.531064e+01
1	 1.115136e+00	 1.259169e-01	 2.545466e+01
1	 1.112914e+00	 1.442424e-01	 2.554869e+01
1	 1.110375e+00	 1.626319e-01	 2.559316e+01
1	 1.107517e+00	 1.810778e-01	 2.558859e+01
1	 1.129724e+00	 9.037182e-02	 2.471538e+01
1	 1.128106e+00	 1.087283e-01	 2.494284e+01
1	 1.126177e+00	 1.271636e-01	 2.512009e+01
1	 1.123933e+00	 1.456706e-01	 2.524734e+01
1	 1.121369e+00	 1.642421e-01	 2.532495e+01
1	 1.118482e+00	 1.828706e-01	 2.535338e+01
1	 1.140800e+00	 9.125782e-02	 2.433087e+01
1	 1.139166e+00	 1.097943e-01	 2.459073e+01
1	 1.137218e+00	 1.284103e-01	 2.480042e+01
1	 1.134952e+00	 1.470987e-01	 2.496011e+01
1	 1.132363e+00	 1.658523e-01	 2.507008e+01
1	 1.129448e+00	 1.846635e-01	 2.513071e+01
1	 1.151876e+00	 9.214382e-02	 2.396233e+01
1	 1.150225e+00	 1.108602e-01	 2.425384e+01
1	 1.148259e+00	 1.296570e-01	 2.449522e+01
1	 1.145971e+00	 1.485269e-01	 2.468659e+01
1	 1.143357e+00	 1.674625e-01	 2.482815e+01
1	 1.140413e+00	 1.864563e-01	 2.492023e+01
1	 1.162952e+00	 9.302982e-02	 2.360932e+01
1	 1.161285e+00	 1.119262e-01	 2.393174e+01
1	 1.159300e+00	 1.309037e-01	 2.420408e+01
1	 1.156989e+00	 1.499550e-01	 2.442639e+01
1	 1.154351e+00	 1.690727e-01	 2.459881e+01
1	 1.151379e+00	 1.882492e-01	 2.472159e+01
1	 1.096551e+00	 1.792849e-01	 2.583673e+01
1	 1.093400e+00	 1.975966e-01	 2.583668e+01
1	 1.089924e+00	 2.159489e-01	 2.577807e+01
1	 1.086119e+00	 2.343339e-01	 2.566187e+01
1	 1.081984e+00	 2.527434e-01	 2.548920e+01
1	 1.077513e+00	 2.711691e-01	 2.526135e+01
1	 1.107517e+00	 1.810778e-01	 2.558859e+01
1	 1.104334e+00	 1.995726e-01	 2.562378e+01
1	 1.100823e+00	 2.181084e-01	 2.559823e+01
1	 1.096981e+00	 2.366772e-01	 2.551288e+01
1	 1.092804e+00	 2.552708e-01	 2.536883e+01
1	 1.088289e+00	 2.738808e-01	 2.516735e+01
1	 1.118482e+00	 1.828706e-01	 2.535338e+01
1	 1.115268e+00	 2.015485e-01	 2.542382e+01
1	 1.111722e+00	 2.202679e-01	 2.543138e+01
1	 1.107842e+00	 2.390206e-01	 2.537698e+01
1	 1.103623e+00	 2.577983e-01	 2.526170e+01
1	 1.099064e+00	 2.765925e-01	 2.508680e+01
1	 1.129448e+00	 1.846635e-01	 2.513071e+01
1	 1.126202e+00	 2.035245e-01	 2.523642e+01
1	 1.122622e+00	 2.224274e-01	 2.527716e+01
1	 1.118703e+00	 2.413639e-01	 2.525381e+01
1	 1.114443e+00	 2.603257e-01	 2.516744e+01
1	 1.109839e+00	 2.793042e-01	 2.501929e+01
1	 1.140413e+00	 1.864563e-01	 2.492023e+01
1	 1.137136e+00	 2.055005e-01	 2.506123e+01
1	 1.133521e+00	 2.245868e-01	 2.513520e+01
1	 1.129564e+00	 2.437072e-01	 2.514299e+01
1	 1.125263e+00	 2.628531e-01	 2.508567e+01
1	 1.120614e+00	 2.820159e-01	 2.496445e+01
1	 1.151379e+00	 1.882492e-01	 2.472159e+01
1	 1.148070e+00	 2.074764e-01	 2.489789e+01
1	 1.144420e+00	 2.267463e-01	 2.500514e+01
1	 1.140425e+00	 2.460506e-01	 2.504417e+01
1	 1.136083e+00	 2.653806e-01	 2.501603e+01
1	 1.131389e+00	 2.847276e-01	 2.492191e+01
1	 1.077513e+00	 2.711691e-01	 2.526135e+01
1	 1.072706e+00	 2.896026e-01	 2.508656e+01
1	 1.067559e+00	 3.080351e-01	 2.486533e+01
1	 1.062070e+00	 3.264577e-01	 2.459977e+01
1	 1.056238e+00	 3.448616e-01	 2.429211e+01
1	 1.050060e+00	 3.632375e-01	 2.394476e+01
1	 1.088289e+00	 2.738808e-01	 2.516735e+01
1	 1.083433e+00	 2.924986e-01	 2.501971e+01
1	 1.078235e+00	 3.111154e-01	 2.482132e+01
1	 1.072691e+00	 3.297223e-01	 2.457433e+01
1	 1.066800e+00	 3.483102e-01	 2.428101e+01
1	 1.060561e+00	 3.668699e-01	 2.394384e+01
1	 1.099064e+00	 2.765925e-01	 2.508680e+01
1	 1.094160e+00	 2.953946e-01	 2.496707e+01
1	 1.088910e+00	 3.141958e-01	 2.479238e+01
1	 1.083312e+00	 3.329869e-01	 2.456489e+01
1	 1.077363e+00	 3.517588e-01	 2.428695e+01
1	 1.071061e+00	 3.705022e-01	 2.396108e+01
1	 1.109839e+00	 2.793042e-01	 2.501929e+01
1	 1.104887e+00	 2.982907e-01	 2.492822e+01
1	 1.099586e+00	 3.172761e-01	 2.477805e+01
1	 1.093932e+00	 3.362514e-01	 2.457098e+01
1	 1.087925e+00	 3.552074e-01	 2.430942e+01
1	 1.081562e+00	 3.741346e-01	 2.399593e+01
1	 1.120614e+00	 2.820159e-01	 2.496445e+01
1	 1.115614e+00	 3.011867e-01	 2.490276e+01
1	 1.110261e+00	 3.203565e-01	 2.477792e+01
1	 1.104553e+00	 3.395160e-01	 2.459217e+01
1	 1.098487e+00	 3.586560e-01	 2.434795e+01
1	 1.092063e+00	 3.777670e-01	 2.404791e+01
1	 1.131389e+00	 2.847276e-01	 2.492191e+01
1	 1.126341e+00	 3.040827e-01	 2.489030e+01
1	 1.120937e+00	 3.234368e-01	 2.479158e+01
1	 1.115174e+00	 3.427806e-01	 2.462801e+01
1	 1.109050e+00	 3.621046e-01	 2.440208e+01
1	 1.102563e+00	 3.813994e-01	 2.411651e+01
1	 1.050060e+00	 3.632375e-01	 2.394476e+01
1	 1.043536e+00	 3.815762e-01	 2.342144e+01
1	 1.036664e+00	 3.998684e-01	 2.286008e+01
1	 1.029445e+00	 4.181046e-01	 2.226166e+01
1	 1.021877e+00	 4.362752e-01	 2.162725e+01
1	 1.013960e+00	 4.543707e-01	 2.095802e+01
1	 1.060561e+00	 3.668699e-01	 2.394384e+01
1	 1.053971e+00	 3.853920e-01	 2.340738e+01
1	 1.047031e+00	 4.038671e-01	 2.283224e+01
1	 1.039739e+00	 4.222857e-01	 2.221931e+01
1	 1.032095e+00	 4.406380e-01	 2.156954e+01
1	 1.024100e+00	 4.589144e-01	 2.088398e+01
1	 1.071061e+00	 3.705022e-01	 2.396108e+01
1	 1.064407e+00	 3.892078e-01	 2.341017e+01
1	 1.057398e+00	 4.078658e-01	 2.281998e+01
1	 1.050034e+00	 4.264667e-01	 2.219126e+01
1	 1.042314e+00	 4.450007e-01	 2.152486e+01
1	 1.034239e+00	 4.634581e-01	 2.082173e+01
1	 1.081562e+00	 3.741346e-01	 2.399593e+01
1	 1.074842e+00	 3.930235e-01	 2.342934e+01
1	 1.067764e+00	 4.118645e-01	 2.282285e+01
1	 1.060328e+00	 4.306478e-01	 2.217710e+01
1	 1.052533e+00	 4.493635e-01	 2.149285e+01
1	 1.044379e+00	 4.680018e-01	 2.077093e+01
1	 1.092063e+00	 3.777670e-01	 2.404791e+01
1	 1.085277e+00	 3.968393e-01	 2.346441e+01
1	 1.078131e+00	 4.158632e-01	 2.284040e+01
1	 1.070623e+00	 4.348288e-01	 2.217643e+01
1	 1.062752e+00	 4.537262e-01	 2.147313e+01
1	 1.054519e+00	 4.725455e-01	 2.073125e+01
1	 1.102563e+00	 3.813994e-01	 2.411651e+01
1	 1.095713e+00	 4.006550e-01	 2.351492e+01
1	 1.088498e+00	 4.198619e-01	 2.287222e+01
1	 1.080917e+00	 4.390098e-01	 2.218886e+01
1	 1.072970e+00	 4.580890e-01	 2.146536e+01
1	 1.064658e+00	 4.770892e-01	 2.070237e+01
1	 1.013960e+00	 4.543707e-01	 2.095802e+01
1	 1.005696e+00	 4.723812e-01	 1.991888e+01
1	 9.970841e-01	 4.902971e-01	 1.885411e+01
1	 9.881262e-01	 5.081087e-01	 1.776421e+01
1	 9.788237e-01	 5.258061e-01	 1.664969e+01
1	 9.691782e-01	 5.433796e-01	 1.551114e+01
1	 1.024100e+00	 4.589144e-01	 2.088398e+01
1	 1.015753e+00	 4.771050e-01	 1.981577e+01
1	 1.007055e+00	 4.952001e-01	 1.872131e+01
1	 9.980075e-01	 5.131898e-01	 1.760099e+01
1	 9.886119e-01	 5.310642e-01	 1.645523e+01
1	 9.788700e-01	 5.488134e-01	 1.528453e+01
1	 1.034239e+00	 4.634581e-01	 2.082173e+01
1	 1.025810e+00	 4.818288e-01	 1.972341e+01
1	 1.017026e+00	 5.001031e-01	 1.859821e+01
1	 1.007889e+00	 5.182709e-01	 1.744642e+01
1	 9.984002e-01	 5.363223e-01	 1.626839e+01
1	 9.885618e-01	 5.542472e-01	 1.506452e+01
1	 1.044379e+00	 4.680018e-01	 2.077093e+01
1	 1.035867e+00	 4.865526e-01	 1.964147e+01
1	 1.026997e+00	 5.050061e-01	 1.848451e+01
1	 1.017770e+00	 5.233520e-01	 1.730025e+01
1	 1.008188e+00	 5.415803e-01	 1.608895e+01
1	 9.982536e-01	 5.596810e-01	 1.485091e+01
1	 1.054519e+00	 4.725455e-01	 2.073125e+01
1	 1.045924e+00	 4.912765e-01	 1.956965e+01
1	 1.036967e+00	 5.099090e-01	 1.837994e+01
1	 1.027651e+00	 5.284331e-01	 1.716223e+01
1	 1.017977e+00	 5.468384e-01	 1.591668e+01
1	 1.007945e+00	 5.651148e-01	 1.464352e+01
1	 1.064658e+00	 4.770892e-01	 2.070237e+01
1	 1.055981e+00	 4.960003e-01	 1.950767e+01
1	 1.046938e+00	 5.148120e-01	 1.828425e+01
1	 1.037533e+00	 5.335141e-01	 1.703214e+01
1	 1.027765e+00	 5.520964e-01	 1.575140e+01
1	 1.017637e+00	 5.705486e-01	 1.444218e+01
1	 9.691782e-01	 5.433796e-01	 1.551114e+01
1	 9.591921e-01	 5.608195e-01	 1.430537e+01
1	 9.488676e-01	 5.781160e-01	 1.307748e+01
1	 9.382079e-01	 5.952594e-01	 1.182795e+01
1	 9.272161e-01	 6.122403e-01	 1.055732e+01
1	 9.158959e-01	 6.290490e-01	 9.266139e+00
1	 9.788700e-01	 5.488134e-01	 1.528453e+01
1	 9.687840e-01	 5.664277e-01	 1.404232e+01
1	 9.583563e-01	 5.838971e-01	 1.277664e+01
1	 9.475900e-01	 6.012120e-01	 1.148778e+01
1	 9.364883e-01	 6.183627e-01	 1.017610e+01
1	 9.250548e-01	 6.353395e-01	 8.841955e+00
1	 9.885618e-01	 5.542472e-01	 1.506452e+01
1	 9.783759e-01	 5.720359e-01	 1.378385e+01
1	 9.678450e-01	 5.896783e-01	 1.247838e+01
1	 9.569721e-01	 6.071646e-01	 1.114823e+01
1	 9.457604e-01	 6.244851e-01	 9.793533e+00
1	 9.342138e-01	 6.416300e-01	 8.414498e+00
1	 9.982536e-01	 5.596810e-01	 1.485091e+01
1	 9.879678e-01	 5.776441e-01	 1.352982e+01
1	 9.773337e-01	 5.954595e-01	 1.218264e+01
1	 9.663542e-01	 6.131172e-01	 1.080926e+01
1	 9.550326e-01	 6.306075e-01	 9.409664e+00
1	 9.433728e-01	 6.479205e-01	 7.983861e+00
1	 1.007945e+00	 5.651148e-01	 1.464352e+01
1	 9.975597e-01	 5.832523e-01	 1.328013e+01
1	 9.868224e-01	 6.012406e-01	 1.188933e+01
1	 9.757362e-01	 6.190698e-01	 1.047087e+01
1	 9.643048e-01	 6.367299e-01	 9.024527e+00
1	 9.525317e-01	 6.542110e-01	 7.550137e+00
1	 1.017637e+00	 5.705486e-01	 1.444218e+01
1	 1.007152e+00	 5.888605e-01	 1.303463e+01
1	 9.963110e-01	 6.070218e-01	 1.159840e+01
1	 9.851183e-01	 6.250224e-01	 1.013304e+01
1	 9.735769e-01	 6.428523e-01	 8.638159e+00
1	 9.616907e-01	 6.605015e-01	 7.113415e+00
1	 9.158959e-01	 6.290490e-01	 9.266139e+00
1	 9.042512e-01	 6.456762e-01	 8.209561e+00
1	 8.922863e-01	 6.621126e-01	 7.145984e+00
1	 8.800059e-01	 6.783491e-01	 6.077425e+00
1	 8.674151e-01	 6.943766e-01	 5.005908e+00
1	 8.545193e-01	 7.101864e-01	 3.933461e+00
1	 9.250548e-01	 6.353395e-01	 8.841955e+00
1	 9.132937e-01	 6.521330e-01	 7.754082e+00
1	 9.012091e-01	 6.687337e-01	 6.656156e+00
1	 8.888060e-01	 6.851326e-01	 5.549995e+00
1	 8.760893e-01	 7.013204e-01	 4.437436e+00
1	 8.630645e-01	 7.172882e-01	 3.320321e+00
1	 9.342138e-01	 6.416300e-01	 8.414498e+00
1	 9.223362e-01	 6.585897e-01	 7.293182e+00
1	 9.101320e-01	 6.753549e-01	 6.158805e+00
1	 8.976061e-01	 6.919160e-01	 5.012993e+00
1	 8.847635e-01	 7.082641e-01	 3.857392e+00
1	 8.716097e-01	 7.243901e-01	 2.693668e+00
1	 9.433728e-01	 6.479205e-01	 7.983861e+00
1	 9.313787e-01	 6.650465e-01	 6.827017e+00
1	 9.190549e-01	 6.819760e-01	 5.654151e+00
1	 9.064061e-01	 6.986995e-01	 4.466695e+00
1	 8.934376e-01	 7.152079e-01	 3.266113e+00
1	 8.801549e-01	 7.314920e-01	 2.053895e+00
1	 9.525317e-01	 6.542110e-01	 7.550137e+00
1	 9.404212e-01	 6.715032e-01	 6.355741e+00
1	 9.279777e-01	 6.885971e-01	 5.142404e+00
1	 9.152062e-01	 7.054830e-01	 3.911371e+00
1	 9.021118e-01	 7.221517e-01	 2.663925e+00
1	 8.887001e-01	 7.385938e-01	 1.401382e+00
1	 9.616907e-01	 6.605015e-01	 7.113415e+00
1	 9.494637e-01	 6.779600e-01	 5.879500e+00
1	 9.369006e-01	 6.952182e-01	 4.623767e+00
1	 9.240062e-01	 7.122665e-01	 3.347277e+00
1	 9.107859e-01	 7.290954e-01	 2.051137e+00
1	 8.972452e-01	 7.456957e-01	 7.364921e-01
1	 8.545193e-01	 7.101864e-01	 3.933461e+00
1	 8.413240e-01	 7.257698e-01	 3.283590e+00
1	 8.278354e-01	 7.411184e-01	 2.666720e+00
1	 8.140598e-01	 7.562239e-01	 2.087651e+00
1	 8.000037e-01	 7.710784e-01	 1.551068e+00
1	 7.856742e-01	 7.856742e-01	 1.061519e+00
1	 8.630645e-01	 7.172882e-01	 3.320321e+00
1	 8.497373e-01	 7.330275e-01	 2.655350e+00
1	 8.361138e-01	 7.485295e-01	 2.022894e+00
1	 8.222004e-01	 7.637862e-01	 1.427897e+00
1	 8.080038e-01	 7.787892e-01	 8.751849e-01
1	 7.935309e-01	 7.935309e-01	 3.694472e-01
1	 8.716097e-01	 7.243901e-01	 2.693668e+00
1	 8.581505e-01	 7.402852e-01	 2.014479e+00
1	 8.443921e-01	 7.559407e-01	 1.367317e+00
1	 8.303410e-01	 7.713484e-01	 7.572693e-01
1	 8.160038e-01	 7.865000e-01	 1.893013e-01
1	 8.013877e-01	 8.013877e-01	-3.317560e-01
1	 8.801549e-01	 7.314920e-01	 2.053895e+00
1	 8.665638e-01	 7.475429e-01	 1.361343e+00
1	 8.526705e-01	 7.633519e-01	 7.003309e-01
1	 8.384816e-01	 7.789106e-01	 7.608384e-02
1	 8.240038e-01	 7.942108e-01	-5.062912e-01
1	 8.092444e-01	 8.092444e-01	-1.041825e+00
1	 8.887001e-01	 7.385938e-01	 1.401382e+00
1	 8.749770e-01	 7.548006e-01	 6.962981e-01
1	 8.609488e-01	 7.707631e-01	 2.226413e-02
1	 8.466222e-01	 7.864729e-01	-6.153545e-01
1	 8.320039e-01	 8.019216e-01	-1.211313e+00
1	 8.171012e-01	 8.171012e-01	-1.760503e+00
1	 8.972452e-01	 7.456957e-01	 7.364921e-01
1	 8.833902e-01	 7.620583e-01	 1.968294e-02
1	 8.692272e-01	 7.781743e-01	-6.665664e-01
1	 8.547627e-01	 7.940351e-01	-1.316753e+00
1	 8.400039e-01	 8.096324e-01	-1.925494e+00
1	 8.249579e-01	 8.249579e-01	-2.487546e+00
1	 7.856742e-01	 7.856742e-01	 1.061519e+00
1	 7.710784e-01	 8.000037e-01	 5.222797e-01
1	 7.562239e-01	 8.140598e-01	 4.390690e-03
1	 7.411184e-01	 8.278354e-01	-4.889881e-01
1	 7.257698e-01	 8.413240e-01	-9.547740e-01
1	 7.101864e-01	 8.545193e-01	-1.389972e+00
1	 7.935309e-01	 7.935309e-01	 3.694472e-01
1	 7.787892e-01	 8.080038e-01	-1.953457e-01
1	 7.637862e-01	 8.222004e-01	-7.361299e-01
1	 7.485295e-01	 8.361138e-01	-1.249582e+00
1	 7.330275e-01	 8.497373e-01	-1.732464e+00
1	 7.172882e-01	 8.630645e-01	-2.181639e+00
1	 8.013877e-01	 8.013877e-01	-3.317560e-01
1	 7.865000e-01	 8.160038e-01	-9.208488e-01
1	 7.713484e-01	 8.303410e-01	-1.483330e+00
1	 7.559407e-01	 8.443921e-01	-2.015713e+00
1	 7.402852e-01	 8.581505e-01	-2.514611e+00
1	 7.243901e-01	 8.716097e-01	-2.976741e+00
1	 8.092444e-01	 8.092444e-01	-1.041825e+00
1	 7.942108e-01	 8.240038e-01	-1.654000e+00
1	 7.789106e-01	 8.384816e-01	-2.237014e+00
1	 7.633519e-01	 8.526705e-01	-2.787221e+00
1	 7.475429e-01	 8.665638e-01	-3.301083e+00
1	 7.314920e-01	 8.801549e-01	-3.775176e+00
1	 8.171012e-01	 8.171012e-01	-1.760503e+00
1	 8.019216e-01	 8.320039e-01	-2.394579e+00
1	 7.864729e-01	 8.466222e-01	-2.996996e+00
1	 7.707631e-01	 8.609488e-01	-3.563951e+00
1	 7.548006e-01	 8.749770e-01	-4.091756e+00
1	 7.385938e-01	 8.887001e-01	-4.576849e+00
1	 8.249579e-01	 8.249579e-01	-2.487546e+00
1	 8.096324e-01	 8.400039e-01	-3.142373e+00
1	 7.940351e-01	 8.547627e-01	-3.763096e+00
1	 7.781743e-01	 8.692272e-01	-4.345754e+00
1	 7.620583e-01	 8.833902e-01	-4.886511e+00
1	 7.456957e-01	 8.972452e-01	-5.381668e+00
1	 7.101864e-01	 8.545193e-01	-1.389972e+00
1	 6.943766e-01	 8.674151e-01	-2.253041e+00
1	 6.783491e-01	 8.800059e-01	-3.142922e+00
1	 6.621126e-01	 8.922863e-01	-4.059753e+00
1	 6.456762e-01	 9.042512e-01	-5.003553e+00
1	 6.290490e-01	 9.158959e-01	-5.974232e+00
1	 7.172882e-01	 8.630645e-01	-2.181639e+00
1	 7.013204e-01	 8.760893e-01	-3.094254e+00
1	 6.851326e-01	 8.888060e-01	-4.036018e+00
1	 6.687337e-01	 9.012091e-01	-5.007184e+00
1	 6.521330e-01	 9.132937e-01	-6.007879e+00
1	 6.353395e-01	 9.250548e-01	-7.038107e+00
1	 7.243901e-01	 8.716097e-01	-2.976741e+00
1	 7.082641e-01	 8.847635e-01	-3.940334e+00
1	 6.919160e-01	 8.976061e-01	-4.935365e+00
1	 6.753549e-01	 9.101320e-01	-5.962197e+00
1	 6.585897e-01	 9.223362e-01	-7.021063e+00
1	 6.416300e-01	 9.342138e-01	-8.112063e+00
1	 7.314920e-01	 8.801549e-01	-3.775176e+00
1	 7.152079e-01	 8.934376e-01	-4.791140e+00
1	 6.986995e-01	 9.064061e-01	-5.840779e+00
1	 6.819760e-01	 9.190549e-01	-6.924571e+00
1	 6.650465e-01	 9.313787e-01	-8.042849e+00
1	 6.479205e-01	 9.433728e-01	-9.195807e+00
1	 7.385938e-01	 8.887001e-01	-4.576849e+00
1	 7.221517e-01	 9.021118e-01	-5.646535e+00
1	 7.054830e-01	 9.152062e-01	-6.752087e+00
1	 6.885971e-01	 9.279777e-01	-7.894093e+00
1	 6.715032e-01	 9.404212e-01	-9.072987e+00
1	 6.542110e-01	 9.525317e-01	-1.028906e+01
1	 7.456957e-01	 8.972452e-01	-5.381668e+00
1	 7.290954e-01	 9.107859e-01	-6.506388e+00
1	 7.122665e-01	 9.240062e-01	-7.669120e+00
1	 6.952182e-01	 9.369006e-01	-8.870559e+00
1	 6.779600e-01	 9.494637e-01	-1.011124e+01
1	 6.605015e-01	 9.616907e-01	-1.139154e+01
1	 6.290490e-01	 9.158959e-01	-5.974232e+00
1	 6.122403e-01	 9.272161e-01	-7.205420e+00
1	 5.952594e-01	 9.382079e-01	-8.481357e+00
1	 5.781160e-01	 9.488676e-01	-9.802354e+00
1	 5.608195e-01	 9.591921e-01	-1.116854e+01
1	 5.433796e-01	 9.691782e-01	-1.257984e+01
1	 6.353395e-01	 9.250548e-01	-7.038107e+00
1	 6.183627e-01	 9.364883e-01	-8.344006e+00
1	 6.012120e-01	 9.475900e-01	-9.700115e+00
1	 5.838971e-01	 9.583563e-01	-1.110691e+01
1	 5.664277e-01	 9.687840e-01	-1.256466e+01
1	 5.488134e-01	 9.788700e-01	-1.407342e+01
1	 6.416300e-01	 9.342138e-01	-8.112063e+00
1	 6.244851e-01	 9.457604e-01	-9.494988e+00
1	 6.071646e-01	 9.569721e-01	-1.093347e+01
1	 5.896783e-01	 9.678450e-01	-1.242815e+01
1	 5.720359e-01	 9.783759e-01	-1.397943e+01
1	 5.542472e-01	 9.885618e-01	-1.558751e+01
1	 6.479205e-01	 9.433728e-01	-9.195807e+00
1	 6.306075e-01	 9.550326e-01	-1.065800e+01
1	 6.131172e-01	 9.663542e-01	-1.218100e+01
1	 5.954595e-01	 9.773337e-01	-1.376559e+01
1	 5.776441e-01	 9.879678e-01	-1.541232e+01
1	 5.596810e-01	 9.982536e-01	-1.712150e+01
1	 6.542110e-01	 9.525317e-01	-1.028906e+01
1	 6.367299e-01	 9.643048e-01	-1.183271e+01
1	 6.190698e-01	 9.757362e-01	-1.344229e+01
1	 6.012406e-01	 9.868224e-01	-1.511877e+01
1	 5.832523e-01	 9.975597e-01	-1.686281e+01
1	 5.651148e-01	 1.007945e+00	-1.867484e+01
1	 6.605015e-01	 9.616907e-01	-1.139154e+01
1	 6.428523e-01	 9.735769e-01	-1.301877e+01
1	 6.250224e-01	 9.851183e-01	-1.471696e+01
1	 6.070218e-01	 9.963110e-01	-1.648722e+01
1	 5.888605e-01	 1.007152e+00	-1.833038e+01
1	 5.705486e-01	 1.017637e+00	-2.024697e+01
1	 5.433796e-01	 9.691782e-01	-1.257984e+01
1	 5.258061e-01	 9.788237e-01	-1.395244e+01
1	 5.081087e-01	 9.881262e-01	-1.534320e+01
1	 4.902971e-01	 9.970841e-01	-1.675124e+01
1	 4.723812e-01	 1.005696e+00	-1.817558e+01
1	 4.543707e-01	 1.013960e+00	-1.961517e+01
1	 5.488134e-01	 9.788700e-01	-1.407342e+01
1	 5.310642e-01	 9.886119e-01	-1.554008e+01
1	 5.131898e-01	 9.980075e-01	-1.702717e+01
1	 4.952001e-01	 1.007055e+00	-1.853374e+01
1	 4.771050e-01	 1.015753e+00	-2.005872e+01
1	 4.589144e-01	 1.024100e+00	-2.160100e+01
1	 5.542472e-01	 9.885618e-01	-1.558751e+01
1	 5.363223e-01	 9.984002e-01	-1.714825e+01
1	 5.182709e-01	 1.007889e+00	-1.873164e+01
1	 5.001031e-01	 1.017026e+00	-2.033666e+01
1	 4.818288e-01	 1.025810e+00	-2.196218e+01
1	 4.634581e-01	 1.034239e+00	-2.360699e+01
1	 5.596810e-01	 9.982536e-01	-1.712150e+01
1	 5.415803e-01	 1.008188e+00	-1.877634e+01
1	 5.233520e-01	 1.017770e+00	-2.045601e+01
1	 5.050061e-01	 1.026997e+00	-2.215941e+01
1	 4.865526e-01	 1.035867e+00	-2.388535e+01
1	 4.680018e-01	 1.044379e+00	-2.563253e+01
1	 5.651148e-01	 1.007945e+00	-1.867484e+01
1	 5.468384e-01	 1.017977e+00	-2.042379e+01
1	 5.284331e-01	 1.027651e+00	-2.219970e+01
1	 5.099090e-01	 1.036967e+00	-2.400142e+01
1	 4.912765e-01	 1.045924e+00	-2.582767e+01
1	 4.725455e-01	 1.054519e+00	-2.767708e+01
1	 5.705486e-01	 1.017637e+00	-2.024697e+01
1	 5.520964e-01	 1.027765e+00	-2.209003e+01
1	 5.335141e-01	 1.037533e+00	-2.396217e+01
1	 5.148120e-01	 1.046938e+00	-2.586214e+01
1	 4.960003e-01	 1.055981e+00	-2.778859e+01
1	 4.770892e-01	 1.064658e+00	-2.974008e+01
1	 4.543707e-01	 1.013960e+00	-1.961517e+01
1	 4.362752e-01	 1.021877e+00	-2.072119e+01
1	 4.181046e-01	 1.029445e+00	-2.175576e+01
1	 3.998684e-01	 1.036664e+00	-2.271673e+01
1	 3.815762e-01	 1.043536e+00	-2.360216e+01
1	 3.632375e-01	 1.050060e+00	-2.441034e+01
1	 4.589144e-01	 1.024100e+00	-2.160100e+01
1	 4.406380e-01	 1.032095e+00	-2.278707e+01
1	 4.222857e-01	 1.039739e+00	-2.390207e+01
1	 4.038671e-01	 1.047031e+00	-2.494384e+01
1	 3.853920e-01	 1.053971e+00	-2.591043e+01
1	 3.668699e-01	 1.060561e+00	-2.680013e+01
1	 4.634581e-01	 1.034239e+00	-2.360699e+01
1	 4.450007e-01	 1.042314e+00	-2.487371e+01
1	 4.264667e-01	 1.050034e+00	-2.606975e+01
1	 4.078658e-01	 1.057398e+00	-2.719291e+01
1	 3.892078e-01	 1.064407e+00	-2.824124e+01
1	 3.705022e-01	 1.071061e+00	-2.921302e+01
1	 4.680018e-01	 1.044379e+00	-2.563253e+01
1	 4.493635e-01	 1.052533e+00	-2.698052e+01
1	 4.306478e-01	 1.060328e+00	-2.825817e+01
1	 4.118645e-01	 1.067764e+00	-2.946330e+01
1	 3.930235e-01	 1.074842e+00	-3.059393e+01
1	 3.741346e-01	 1.081562e+00	-3.164833e+01
1	 4.725455e-01	 1.054519e+00	-2.767708e+01
1	 4.537262e-01	 1.062752e+00	-2.910691e+01
1	 4.348288e-01	 1.070623e+00	-3.046675e+01
1	 4.158632e-01	 1.078131e+00	-3.175439e+01
1	 3.968393e-01	 1.085277e+00	-3.296786e+01
1	 3.777670e-01	 1.092063e+00	-3.410541e+01
1	 4.770892e-01	 1.064658e+00	-2.974008e+01
1	 4.580890e-01	 1.072970e+00	-3.125232e+01
1	 4.390098e-01	 1.080917e+00	-3.269489e+01
1	 4.198619e-01	 1.088498e+00	-3.406559e+01
1	 4.006550e-01	 1.095713e+00	-3.536243e+01
1	 3.813994e-01	 1.102563e+00	-3.658364e+01
1	 3.632375e-01	 1.050060e+00	-2.441034e+01
1	 3.448616e-01	 1.056238e+00	-2.493314e+01
1	 3.264577e-01	 1.062070e+00	-2.529550e+01
1	 3.080351e-01	 1.067559e+00	-2.549623e+01
1	 2.896026e-01	 1.072706e+00	-2.553460e+01
1	 2.711691e-01	 1.077513e+00	-2.541036e+01
1	 3.668699e-01	 1.060561e+00	-2.680013e+01
1	 3.483102e-01	 1.066800e+00	-2.737255e+01
1	 3.297223e-01	 1.072691e+00	-2.776055e+01
1	 3.111154e-01	 1.078235e+00	-2.796283e+01
1	 2.924986e-01	 1.083433e+00	-2.797861e+01
1	 2.738808e-01	 1.088289e+00	-2.780767e+01
1	 3.705022e-01	 1.071061e+00	-2.921302e+01
1	 3.517588e-01	 1.077363e+00	-2.983043e+01
1	 3.329869e-01	 1.083312e+00	-3.023994e+01
1	 3.141958e-01	 1.088910e+00	-3.044011e+01
1	 2.953946e-01	 1.094160e+00	-3.043013e+01
1	 2.765925e-01	 1.099064e+00	-3.020979e+01
1	 3.741346e-01	 1.081562e+00	-3.164833e+01
1	 3.552074e-01	 1.087925e+00	-3.230625e+01
1	 3.362514e-01	 1.093932e+00	-3.273325e+01
1	 3.172761e-01	 1.099586e+00	-3.292776e+01
1	 2.982907e-01	 1.104887e+00	-3.288893e+01
1	 2.793042e-01	 1.109839e+00	-3.261657e+01
1	 3.777670e-01	 1.092063e+00	-3.410541e+01
1	 3.586560e-01	 1.098487e+00	-3.479949e+01
1	 3.395160e-01	 1.104553e+00	-3.524008e+01
1	 3.203565e-01	 1.110261e+00	-3.542549e+01
1	 3.011867e-01	 1.115614e+00	-3.535482e+01
1	 2.820159e-01	 1.120614e+00	-3.502788e+01
1	 3.813994e-01	 1.102563e+00	-3.658364e+01
1	 3.621046e-01	 1.109050e+00	-3.730965e+01
1	 3.427806e-01	 1.115174e+00	-3.776004e+01
1	 3.234368e-01	 1.120937e+00	-3.793300e+01
1	 3.040827e-01	 1.126341e+00	-3.782757e+01
1	 2.847276e-01	 1.131389e+00	-3.744359e+01
1	 2.711691e-01	 1.077513e+00	-2.541036e+01
1	 2.527434e-01	 1.081984e+00	-2.518002e+01
1	 2.343339e-01	 1.086119e+00	-2.478761e+01
1	 2.159489e-01	 1.089924e+00	-2.423409e+01
1	 1.975966e-01	 1.093400e+00	-2.352085e+01
1	 1.792849e-01	 1.096551e+00	-2.264966e+01
1	 2.738808e-01	 1.088289e+00	-2.780767e+01
1	 2.552708e-01	 1.092804e+00	-2.751262e+01
1	 2.366772e-01	 1.096981e+00	-2.704360e+01
1	 2.181084e-01	 1.100823e+00	-2.640167e+01
1	 1.995726e-01	 1.104334e+00	-2.558835e+01
1	 1.810778e-01	 1.107517e+00	-2.460556e+01
1	 2.765925e-01	 1.099064e+00	-3.020979e+01
1	 2.577983e-01	 1.103623e+00	-2.984867e+01
1	 2.390206e-01	 1.107842e+00	-2.930192e+01
1	 2.202679e-01	 1.111722e+00	-2.857069e+01
1	 2.015485e-01	 1.115268e+00	-2.765663e+01
1	 1.828706e-01	 1.118482e+00	-2.656180e+01
1	 2.793042e-01	 1.109839e+00	-3.261657e+01
1	 2.603257e-01	 1.114443e+00	-3.218808e+01
1	 2.413639e-01	 1.118703e+00	-3.156251e+01
1	 2.224274e-01	 1.122622e+00	-3.074112e+01
1	 2.035245e-01	 1.126202e+00	-2.972567e+01
1	 1.846635e-01	 1.129448e+00	-2.851838e+01
1	 2.820159e-01	 1.120614e+00	-3.502788e+01
1	 2.628531e-01	 1.125263e+00	-3.453074e+01
1	 2.437072e-01	 1.129564e+00	-3.382530e+01
1	 2.245868e-01	 1.133521e+00	-3.291291e+01
1	 2.055005e-01	 1.137136e+00	-3.179544e+01
1	 1.864563e-01	 1.140413e+00	-3.047527e+01
1	 2.847276e-01	 1.131389e+00	-3.744359e+01
1	 2.653806e-01	 1.136083e+00	-3.687657e+01
1	 2.460506e-01	 1.140425e+00	-3.609023e+01
1	 2.267463e-01	 1.144420e+00	-3.508602e+01
1	 2.074764e-01	 1.148070e+00	-3.386592e+01
1	 1.882492e-01	 1.151379e+00	-3.243248e+01
1	 1.792849e-01	 1.096551e+00	-2.264966e+01
1	 1.610217e-01	 1.099382e+00	-2.174206e+01
1	 1.428143e-01	 1.101895e+00	-2.074750e+01
1	 1.246702e-01	 1.104095e+00	-1.966767e+01
1	 1.065964e-01	 1.105986e+00	-1.850443e+01
1	 8.859983e-02	 1.107573e+00	-1.725979e+01
1	 1.810778e-01	 1.107517e+00	-2.460556e+01
1	 1.626319e-01	 1.110375e+00	-2.358416e+01
1	 1.442424e-01	 1.112914e+00	-2.247545e+01
1	 1.259169e-01	 1.115136e+00	-2.128125e+01
1	 1.076623e-01	 1.117046e+00	-2.000353e+01
1	 8.948582e-02	 1.118649e+00	-1.864442e+01
1	 1.828706e-01	 1.118482e+00	-2.656180e+01
1	 1.642421e-01	 1.121369e+00	-2.542742e+01
1	 1.456706e-01	 1.123933e+00	-2.420538e+01
1	 1.271636e-01	 1.126177e+00	-2.289761e+01
1	 1.087283e-01	 1.128106e+00	-2.150623e+01
1	 9.037182e-02	 1.129724e+00	-2.003348e+01
1	 1.846635e-01	 1.129448e+00	-2.851838e+01
1	 1.658523e-01	 1.132363e+00	-2.727180e+01
1	 1.470987e-01	 1.134952e+00	-2.593722e+01
1	 1.284103e-01	 1.137218e+00	-2.451670e+01
1	 1.097943e-01	 1.139166e+00	-2.301245e+01
1	 9.125782e-02	 1.140800e+00	-2.142683e+01
1	 1.864563e-01	 1.140413e+00	-3.047527e+01
1	 1.674625e-01	 1.143357e+00	-2.911728e+01
1	 1.485269e-01	 1.145971e+00	-2.767093e+01
1	 1.296570e-01	 1.148259e+00	-2.613841e+01
1	 1.108602e-01	 1.150225e+00	-2.452206e+01
1	 9.214382e-02	 1.151876e+00	-2.282436e+01
1	 1.882492e-01	 1.151379e+00	-3.243248e+01
1	 1.690727e-01	 1.154351e+00	-3.096382e+01
1	 1.499550e-01	 1.156989e+00	-2.940645e+01
1	 1.309037e-01	 1.159300e+00	-2.776269e+01
1	 1.119262e-01	 1.161285e+00	-2.603499e+01
1	 9.302982e-02	 1.162952e+00	-2.422595e+01
1	 8.859983e-02	 1.107573e+00	-1.725979e+01
1	 7.068714e-02	 1.108860e+00	-1.605572e+01
1	 5.286475e-02	 1.109853e+00	-1.486722e+01
1	 3.513883e-02	 1.110555e+00	-1.369486e+01
1	 1.751534e-02	 1.110973e+00	-1.253916e+01
1	 0.000000e+00	 1.111111e+00	-1.140052e+01
1	 8.948582e-02	 1.118649e+00	-1.864442e+01
1	 7.139401e-02	 1.119949e+00	-1.733011e+01
1	 5.339339e-02	 1.120951e+00	-1.603431e+01
1	 3.549022e-02	 1.121661e+00	-1.475763e+01
1	 1.769050e-02	 1.122083e+00	-1.350058e+01
1	 0.000000e+00	 1.122222e+00	-1.226358e+01
1	 9.037182e-02	 1.129724e+00	-2.003348e+01
1	 7.210088e-02	 1.131038e+00	-1.860928e+01
1	 5.392204e-02	 1.132050e+00	-1.720649e+01
1	 3.584161e-02	 1.132766e+00	-1.582574e+01
1	 1.786565e-02	 1.133193e+00	-1.446754e+01
1	 0.000000e+00	 1.133333e+00	-1.313232e+01
1	 9.125782e-02	 1.140800e+00	-2.142683e+01
1	 7.280775e-02	 1.142126e+00	-1.989310e+01
1	 5.445069e-02	 1.143148e+00	-1.838361e+01
1	 3.619299e-02	 1.143872e+00	-1.689902e+01
1	 1.804080e-02	 1.144302e+00	-1.543986e+01
1	 0.000000e+00	 1.144444e+00	-1.400656e+01
1	 9.214382e-02	 1.151876e+00	-2.282436e+01
1	 7.351463e-02	 1.153215e+00	-2.118143e+01
1	 5.497934e-02	 1.154247e+00	-1.956553e+01
1	 3.654438e-02	 1.154978e+00	-1.797733e+01
1	 1.821596e-02	 1.155412e+00	-1.641739e+01
1	 0.000000e+00	 1.155556e+00	-1.488615e+01
1	 9.302982e-02	 1.162952e+00	-2.422595e+01
1	 7.422150e-02	 1.164303e+00	-2.247414e+01
1	 5.550798e-02	 1.165345e+00	-2.075211e+01
1	 3.689577e-02	 1.166083e+00	-1.906054e+01
1	 1.839111e-02	 1.166522e+00	-1.739999e+01
1	 0.000000e+00	 1.166667e+00	-1.577093e+01
1	 1.166667e+00	 0.000000e+00	 2.211244e+01
1	 1.166522e+00	 1.839111e-02	 2.247525e+01
1	 1.166083e+00	 3.689577e-02	 2.280633e+01
1	 1.165345e+00	 5.550798e-02	 2.310567e+01
1	 1.164303e+00	 7.422150e-02	 2.337330e+01
1	 1.162952e+00	 9.302982e-02	 2.360932e+01
1	 1.177778e+00	 0.000000e+00	 2.162260e+01
1	 1.177631e+00	 1.856626e-02	 2.200545e+01
1	 1.177189e+00	 3.724716e-02	 2.235719e+01
1	 1.176444e+00	 5.603663e-02	 2.267780e+01
1	 1.175392e+00	 7.492837e-02	 2.296734e+01
1	 1.174027e+00	 9.391582e-02	 2.322591e+01
1	 1.188889e+00	 0.000000e+00	 2.114703e+01
1	 1.188741e+00	 1.874142e-02	 2.154995e+01
1	 1.188294e+00	 3.759855e-02	 2.192235e+01
1	 1.187542e+00	 5.656528e-02	 2.226424e+01
1	 1.186481e+00	 7.563524e-02	 2.257568e+01
1	 1.185103e+00	 9.480181e-02	 2.285678e+01
1	 1.200000e+00	 0.000000e+00	 2.068533e+01
1	 1.199851e+00	 1.891657e-02	 2.110835e+01
1	 1.199400e+00	 3.794994e-02	 2.150143e+01
1	 1.198641e+00	 5.709393e-02	 2.186461e+01
1	 1.197569e+00	 7.634211e-02	 2.219794e+01
1	 1.196179e+00	 9.568781e-02	 2.250155e+01
1	 1.211111e+00	 0.000000e+00	 2.023712e+01
1	 1.210961e+00	 1.909172e-02	 2.068026e+01
1	 1.210505e+00	 3.830132e-02	 2.109404e+01
1	 1.209740e+00	 5.762257e-02	 2.147850e+01
1	 1.208658e+00	 7.704898e-02	 2.183372e+01
1	 1.207255e+00	 9.657381e-02	 2.215982e+01
1	 1.222222e+00	 0.000000e+00	 1.980203e+01
1	 1.222070e+00	 1.926688e-02	 2.026532e+01
1	 1.221611e+00	 3.865271e-02	 2.069981e+01
1	 1.220838e+00	 5.815122e-02	 2.110556e+01
1	 1.219746e+00	 7.775585e-02	 2.148266e+01
1	 1.218330e+00	 9.745981e-02	 2.183124e+01
1	 1.162952e+00	 9.302982e-02	 2.360932e+01
1	 1.161285e+00	 1.119262e-01	 2.393174e+01
1	 1.159300e+00	 1.309037e-01	 2.420408e+01
1	 1.156989e+00	 1.499550e-01	 2.442639e+01
1	 1.154351e+00	 1.690727e-01	 2.459881e+01
1	 1.151379e+00	 1.882492e-01	 2.472159e+01
1	 1.174027e+00	 9.391582e-02	 2.322591e+01
1	 1.172345e+00	 1.129922e-01	 2.357219e+01
1	 1.170340e+00	 1.321504e-01	 2.386860e+01
1	 1.168008e+00	 1.513831e-01	 2.411511e+01
1	 1.165345e+00	 1.706830e-01	 2.431179e+01
1	 1.162344e+00	 1.900420e-01	 2.445884e+01
1	 1.185103e+00	 9.480181e-02	 2.285678e+01
1	 1.183405e+00	 1.140581e-01	 2.322622e+01
1	 1.181381e+00	 1.333971e-01	 2.354596e+01
1	 1.179027e+00	 1.528113e-01	 2.381592e+01
1	 1.176338e+00	 1.722932e-01	 2.403613e+01
1	 1.173310e+00	 1.918349e-01	 2.420670e+01
1	 1.196179e+00	 9.568781e-02	 2.250155e+01
1	 1.194465e+00	 1.151241e-01	 2.289343e+01
1	 1.192422e+00	 1.346438e-01	 2.323580e+01
1	 1.190046e+00	 1.542394e-01	 2.352850e+01
1	 1.187332e+00	 1.739034e-01	 2.377151e+01
1	 1.184275e+00	 1.936277e-01	 2.396487e+01
1	 1.207255e+00	 9.657381e-02	 2.215982e+01
1	 1.205525e+00	 1.161901e-01	 2.257347e+01
1	 1.203463e+00	 1.358905e-01	 2.293777e+01
1	 1.201065e+00	 1.556676e-01	 2.325252e+01
1	 1.198326e+00	 1.755136e-01	 2.351763e+01
1	 1.195241e+00	 1.954206e-01	 2.373308e+01
1	 1.218330e+00	 9.745981e-02	 2.183124e+01
1	 1.216585e+00	 1.172560e-01	 2.226599e+01
1	 1.214504e+00	 1.371372e-01	 2.265155e+01
1	 1.212084e+00	 1.570957e-01	 2.298768e+01
1	 1.209320e+00	 1.771238e-01	 2.327419e+01
1	 1.206206e+00	 1.972134e-01	 2.351104e+01
1	 1.151379e+00	 1.882492e-01	 2.472159e+01
1	 1.148070e+00	 2.074764e-01	 2.489789e+01
1	 1.144420e+00	 2.267463e-01	 2.500514e+01
1	 1.140425e+00	 2.460506e-01	 2.504417e+01
1	 1.136083e+00	 2.653806e-01	 2.501603e+01
1	 1.131389e+00	 2.847276e-01	 2.492191e+01
1	 1.162344e+00	 1.900420e-01	 2.445884e+01
1	 1.159004e+00	 2.094524e-01	 2.466486e+01
1	 1.155319e+00	 2.289058e-01	 2.480134e+01
1	 1.151287e+00	 2.483939e-01	 2.486899e+01
1	 1.146903e+00	 2.679080e-01	 2.486869e+01
1	 1.142164e+00	 2.874393e-01	 2.480151e+01
1	 1.173310e+00	 1.918349e-01	 2.420670e+01
1	 1.169938e+00	 2.114284e-01	 2.444090e+01
1	 1.166219e+00	 2.310653e-01	 2.460508e+01
1	 1.162148e+00	 2.507372e-01	 2.469981e+01
1	 1.157723e+00	 2.704354e-01	 2.472583e+01
1	 1.152939e+00	 2.901510e-01	 2.468406e+01
1	 1.184275e+00	 1.936277e-01	 2.396487e+01
1	 1.180872e+00	 2.134043e-01	 2.422576e+01
1	 1.177118e+00	 2.332248e-01	 2.441615e+01
1	 1.173009e+00	 2.530806e-01	 2.453647e+01
1	 1.168542e+00	 2.729629e-01	 2.458732e+01
1	 1.163715e+00	 2.928627e-01	 2.456947e+01
1	 1.195241e+00	 1.954206e-01	 2.373308e+01
1	 1.191806e+00	 2.153803e-01	 2.401920e+01
1	 1.188017e+00	 2.353843e-01	 2.423435e+01
1	 1.183870e+00	 2.554239e-01	 2.437881e+01
1	 1.179362e+00	 2.754903e-01	 2.445303e+01
1	 1.174490e+00	 2.955744e-01	 2.445766e+01
1	 1.206206e+00	 1.972134e-01	 2.351104e+01
1	 1.202740e+00	 2.173563e-01	 2.382099e+01
1	 1.198916e+00	 2.375438e-01	 2.405948e+01
1	 1.194731e+00	 2.577673e-01	 2.422666e+01
1	 1.190182e+00	 2.780177e-01	 2.432286e+01
1	 1.185265e+00	 2.982861e-01	 2.434857e+01
1	 1.131389e+00	 2.847276e-01	 2.492191e+01
1	 1.126341e+00	 3.040827e-01	 2.489030e+01
1	 1.120937e+00	 3.234368e-01	 2.479158e+01
1	 1.115174e+00	 3.427806e-01	 2.462801e+01
1	 1.109050e+00	 3.621046e-01	 2.440208e+01
1	 1.102563e+00	 3.813994e-01	 2.411651e+01
1	 1.142164e+00	 2.874393e-01	 2.480151e+01
1	 1.137068e+00	 3.069787e-01	 2.480086e+01
1	 1.131613e+00	 3.265172e-01	 2.473047e+01
1	 1.125794e+00	 3.460452e-01	 2.459237e+01
1	 1.119612e+00	 3.655533e-01	 2.438879e+01
1	 1.113064e+00	 3.850317e-01	 2.412219e+01
1	 1.152939e+00	 2.901510e-01	 2.468406e+01
1	 1.147795e+00	 3.098748e-01	 2.471189e+01
1	 1.142288e+00	 3.295975e-01	 2.466740e+01
1	 1.136415e+00	 3.493097e-01	 2.455237e+01
1	 1.130175e+00	 3.690019e-01	 2.436877e+01
1	 1.123564e+00	 3.886641e-01	 2.411883e+01
1	 1.163715e+00	 2.928627e-01	 2.456947e+01
1	 1.158523e+00	 3.127708e-01	 2.462338e+01
1	 1.152964e+00	 3.326779e-01	 2.460242e+01
1	 1.147036e+00	 3.525743e-01	 2.450812e+01
1	 1.140737e+00	 3.724505e-01	 2.434221e+01
1	 1.134065e+00	 3.922965e-01	 2.410667e+01
1	 1.174490e+00	 2.955744e-01	 2.445766e+01
1	 1.169250e+00	 3.156668e-01	 2.453532e+01
1	 1.163639e+00	 3.357582e-01	 2.453559e+01
1	 1.157657e+00	 3.558389e-01	 2.445974e+01
1	 1.151299e+00	 3.758991e-01	 2.430928e+01
1	 1.144566e+00	 3.959289e-01	 2.408594e+01
1	 1.185265e+00	 2.982861e-01	 2.434857e+01
1	 1.179977e+00	 3.185628e-01	 2.444770e+01
1	 1.174315e+00	 3.388386e-01	 2.446695e+01
1	 1.168277e+00	 3.591035e-01	 2.440735e+01
1	 1.161862e+00	 3.793477e-01	 2.427017e+01
1	 1.155066e+00	 3.995612e-01	 2.405689e+01
1	 1.102563e+00	 3.813994e-01	 2.411651e+01
1	 1.095713e+00	 4.006550e-01	 2.351492e+01
1	 1.088498e+00	 4.198619e-01	 2.287222e+01
1	 1.080917e+00	 4.390098e-01	 2.218886e+01
1	 1.072970e+00	 4.580890e-01	 2.146536e+01
1	 1.064658e+00	 4.770892e-01	 2.070237e+01
1	 1.113064e+00	 3.850317e-01	 2.412219e+01
1	 1.106148e+00	 4.044708e-01	 2.350742e+01
1	 1.098864e+00	 4.238605e-01	 2.284742e+01
1	 1.091211e+00	 4.431909e-01	 2.214303e+01
1	 1.083189e+00	 4.624518e-01	 2.139520e+01
1	 1.074798e+00	 4.816329e-01	 2.060501e+01
1	 1.123564e+00	 3.886641e-01	 2.411883e+01
1	 1.116584e+00	 4.082866e-01	 2.349512e+01
1	 1.109231e+00	 4.278592e-01	 2.282214e+01
1	 1.101506e+00	 4.473719e-01	 2.210113e+01
1	 1.093408e+00	 4.668145e-01	 2.133344e+01
1	 1.084937e+00	 4.861766e-01	 2.052058e+01
1	 1.134065e+00	 3.922965e-01	 2.410667e+01
1	 1.127019e+00	 4.121023e-01	 2.347815e+01
1	 1.119598e+00	 4.318579e-01	 2.279640e+01
1	 1.111800e+00	 4.515530e-01	 2.206303e+01
1	 1.103627e+00	 4.711773e-01	 2.127984e+01
1	 1.095077e+00	 4.907203e-01	 2.044874e+01
1	 1.144566e+00	 3.959289e-01	 2.408594e+01
1	 1.137454e+00	 4.159181e-01	 2.345663e+01
1	 1.129964e+00	 4.358566e-01	 2.277019e+01
1	 1.122095e+00	 4.557340e-01	 2.202865e+01
1	 1.113846e+00	 4.755400e-01	 2.123418e+01
1	 1.105217e+00	 4.952640e-01	 2.038913e+01
1	 1.155066e+00	 3.995612e-01	 2.405689e+01
1	 1.147890e+00	 4.197339e-01	 2.343069e+01
1	 1.140331e+00	 4.398553e-01	 2.274355e+01
1	 1.132389e+00	 4.599151e-01	 2.199787e+01
1	 1.124064e+00	 4.799028e-01	 2.119624e+01
1	 1.115356e+00	 4.998077e-01	 2.034141e+01
1	 1.064658e+00	 4.770892e-01	 2.070237e+01
1	 1.055981e+00	 4.960003e-01	 1.950767e+01
1	 1.046938e+00	 5.148120e-01	 1.828425e+01
1	 1.037533e+00	 5.335141e-01	 1.703214e+01
1	 1.027765e+00	 5.520964e-01	 1.575140e+01
1	 1.017637e+00	 5.705486e-01	 1.444218e+01
1	 1.074798e+00	 4.816329e-01	 2.060501e+01
1	 1.066037e+00	 5.007241e-01	 1.936821e+01
1	 1.056909e+00	 5.197150e-01	 1.810321e+01
1	 1.047414e+00	 5.385952e-01	 1.680995e+01
1	 1.037553e+00	 5.573545e-01	 1.548847e+01
1	 1.027329e+00	 5.759824e-01	 1.413880e+01
1	 1.084937e+00	 4.861766e-01	 2.052058e+01
1	 1.076094e+00	 5.054479e-01	 1.924082e+01
1	 1.066880e+00	 5.246179e-01	 1.793335e+01
1	 1.057295e+00	 5.436763e-01	 1.659807e+01
1	 1.047341e+00	 5.626126e-01	 1.523493e+01
1	 1.037021e+00	 5.814162e-01	 1.384391e+01
1	 1.095077e+00	 4.907203e-01	 2.044874e+01
1	 1.086151e+00	 5.101717e-01	 1.912516e+01
1	 1.076851e+00	 5.295209e-01	 1.777438e+01
1	 1.067176e+00	 5.487574e-01	 1.639621e+01
1	 1.057130e+00	 5.678706e-01	 1.499054e+01
1	 1.046713e+00	 5.868500e-01	 1.355727e+01
1	 1.105217e+00	 4.952640e-01	 2.038913e+01
1	 1.096208e+00	 5.148955e-01	 1.902092e+01
1	 1.086822e+00	 5.344239e-01	 1.762599e+01
1	 1.077058e+00	 5.538385e-01	 1.620409e+01
1	 1.066918e+00	 5.731287e-01	 1.475503e+01
1	 1.056404e+00	 5.922838e-01	 1.327866e+01
1	 1.115356e+00	 4.998077e-01	 2.034141e+01
1	 1.106265e+00	 5.196193e-01	 1.892778e+01
1	 1.096792e+00	 5.393269e-01	 1.748789e+01
1	 1.086939e+00	 5.589196e-01	 1.602144e+01
1	 1.076706e+00	 5.783867e-01	 1.452817e+01
1	 1.066096e+00	 5.977176e-01	 1.300786e+01
1	 1.017637e+00	 5.705486e-01	 1.444218e+01
1	 1.007152e+00	 5.888605e-01	 1.303463e+01
1	 9.963110e-01	 6.070218e-01	 1.159840e+01
1	 9.851183e-01	 6.250224e-01	 1.013304e+01
1	 9.735769e-01	 6.428523e-01	 8.638159e+00
1	 9.616907e-01	 6.605015e-01	 7.113415e+00
1	 1.027329e+00	 5.759824e-01	 1.413880e+01
1	 1.016744e+00	 5.944687e-01	 1.268095e+01
1	 1.005800e+00	 6.128029e-01	 1.119189e+01
1	 9.945004e-01	 6.309750e-01	 9.670788e+00
1	 9.828491e-01	 6.489747e-01	 8.116894e+00
1	 9.708496e-01	 6.667919e-01	 6.529498e+00
1	 1.037021e+00	 5.814162e-01	 1.384391e+01
1	 1.026335e+00	 6.000769e-01	 1.233223e+01
1	 1.015288e+00	 6.185841e-01	 1.078683e+01
1	 1.003882e+00	 6.369276e-01	 9.206540e+00
1	 9.921213e-01	 6.550971e-01	 7.590220e+00
1	 9.800086e-01	 6.730824e-01	 5.936810e+00
1	 1.046713e+00	 5.868500e-01	 1.355727e+01
1	 1.035927e+00	 6.056851e-01	 1.198833e+01
1	 1.024777e+00	 6.243653e-01	 1.038320e+01
1	 1.013265e+00	 6.428802e-01	 8.740349e+00
1	 1.001393e+00	 6.612195e-01	 7.058286e+00
1	 9.891675e-01	 6.793729e-01	 5.335597e+00
1	 1.056404e+00	 5.922838e-01	 1.327866e+01
1	 1.045519e+00	 6.112933e-01	 1.164911e+01
1	 1.034266e+00	 6.301464e-01	 9.980948e+00
1	 1.022647e+00	 6.488328e-01	 8.272269e+00
1	 1.010666e+00	 6.673419e-01	 6.521239e+00
1	 9.983265e-01	 6.856634e-01	 4.726093e+00
1	 1.066096e+00	 5.977176e-01	 1.300786e+01
1	 1.055111e+00	 6.169014e-01	 1.131445e+01
1	 1.043754e+00	 6.359276e-01	 9.580036e+00
1	 1.032029e+00	 6.547854e-01	 7.802353e+00
1	 1.019938e+00	 6.734643e-01	 5.979217e+00
1	 1.007485e+00	 6.919539e-01	 4.108523e+00
1	 9.616907e-01	 6.605015e-01	 7.113415e+00
1	 9.494637e-01	 6.779600e-01	 5.879500e+00
1	 9.369006e-01	 6.952182e-01	 4.623767e+00
1	 9.240062e-01	 7.122665e-01	 3.347277e+00
1	 9.107859e-01	 7.290954e-01	 2.051137e+00
1	 8.972452e-01	 7.456957e-01	 7.364921e-01
1	 9.708496e-01	 6.667919e-01	 6.529498e+00
1	 9.585062e-01	 6.844168e-01	 5.246032e+00
1	 9.458235e-01	 7.018394e-01	 3.940712e+00
1	 9.328063e-01	 7.190500e-01	 2.614698e+00
1	 9.194601e-01	 7.360392e-01	 1.269192e+00
1	 9.057904e-01	 7.527976e-01	-9.456271e-02
1	 9.800086e-01	 6.730824e-01	 5.936810e+00
1	 9.675487e-01	 6.908735e-01	 4.604438e+00
1	 9.547463e-01	 7.084605e-01	 3.250164e+00
1	 9.416064e-01	 7.258335e-01	 1.875247e+00
1	 9.281342e-01	 7.429830e-01	 4.809850e-01
1	 9.143356e-01	 7.598994e-01	-9.312818e-01
1	 9.891675e-01	 6.793729e-01	 5.335597e+00
1	 9.765912e-01	 6.973303e-01	 3.954943e+00
1	 9.636692e-01	 7.150816e-01	 2.552330e+00
1	 9.504064e-01	 7.326170e-01	 1.129114e+00
1	 9.368084e-01	 7.499267e-01	-3.133098e-01
1	 9.228808e-01	 7.670013e-01	-1.773508e+00
1	 9.983265e-01	 6.856634e-01	 4.726093e+00
1	 9.856338e-01	 7.037871e-01	 3.297764e+00
1	 9.725920e-01	 7.217027e-01	 1.847411e+00
1	 9.592065e-01	 7.394005e-01	 3.764847e-01
1	 9.454825e-01	 7.568705e-01	-1.113525e+00
1	 9.314260e-01	 7.741032e-01	-2.621089e+00
1	 1.007485e+00	 6.919539e-01	 4.108523e+00
1	 9.946763e-01	 7.102438e-01	 2.633110e+00
1	 9.815149e-01	 7.283239e-01	 1.135600e+00
1	 9.680065e-01	 7.461840e-01	-3.824647e-01
1	 9.541567e-01	 7.638143e-01	-1.919499e+00
1	 9.399712e-01	 7.812050e-01	-3.473880e+00
1	 8.972452e-01	 7.456957e-01	 7.364921e-01
1	 8.833902e-01	 7.620583e-01	 1.968294e-02
1	 8.692272e-01	 7.781743e-01	-6.665664e-01
1	 8.547627e-01	 7.940351e-01	-1.316753e+00
1	 8.400039e-01	 8.096324e-01	-1.925494e+00
1	 8.249579e-01	 8.249579e-01	-2.487546e+00
1	 9.057904e-01	 7.527976e-01	-9.456271e-02
1	 8.918035e-01	 7.693160e-01	-8.177977e-01
1	 8.775055e-01	 7.855855e-01	-1.511732e+00
1	 8.629033e-01	 8.015973e-01	-2.170860e+00
1	 8.480039e-01	 8.173431e-01	-2.789790e+00
1	 8.328147e-01	 8.328147e-01	-3.363272e+00
1	 9.143356e-01	 7.598994e-01	-9.312818e-01
1	 9.002167e-01	 7.765737e-01	-1.661382e+00
1	 8.857839e-01	 7.929966e-01	-2.363424e+00
1	 8.710439e-01	 8.091596e-01	-3.031897e+00
1	 8.560040e-01	 8.250539e-01	-3.661403e+00
1	 8.406714e-01	 8.406714e-01	-4.246683e+00
1	 9.228808e-01	 7.670013e-01	-1.773508e+00
1	 9.086300e-01	 7.838314e-01	-2.510900e+00
1	 8.940622e-01	 8.004078e-01	-3.221460e+00
1	 8.791845e-01	 8.167218e-01	-3.899671e+00
1	 8.640040e-01	 8.327647e-01	-4.540130e+00
1	 8.485281e-01	 8.485281e-01	-5.137564e+00
1	 9.314260e-01	 7.741032e-01	-2.621089e+00
1	 9.170432e-01	 7.910891e-01	-3.366188e+00
1	 9.023406e-01	 8.078190e-01	-4.085666e+00
1	 8.873251e-01	 8.242841e-01	-4.773998e+00
1	 8.720040e-01	 8.404755e-01	-5.425774e+00
1	 8.563849e-01	 8.563849e-01	-6.035710e+00
1	 9.399712e-01	 7.812050e-01	-3.473880e+00
1	 9.254564e-01	 7.983468e-01	-4.227090e+00
1	 9.106190e-01	 8.152302e-01	-4.955873e+00
1	 8.954657e-01	 8.318463e-01	-5.654699e+00
1	 8.800041e-01	 8.481863e-01	-6.318147e+00
1	 8.642416e-01	 8.642416e-01	-6.940924e+00
1	 8.249579e-01	 8.249579e-01	-2.487546e+00
1	 8.096324e-01	 8.400039e-01	-3.142373e+00
1	 7.940351e-01	 8.547627e-01	-3.763096e+00
1	 7.781743e-01	 8.692272e-01	-4.345754e+00
1	 7.620583e-01	 8.833902e-01	-4.886511e+00
1	 7.456957e-01	 8.972452e-01	-5.381668e+00
1	 8.328147e-01	 8.328147e-01	-3.363272e+00
1	 8.173431e-01	 8.480039e-01	-4.038466e+00
1	 8.015973e-01	 8.629033e-01	-4.679060e+00
1	 7.855855e-01	 8.775055e-01	-5.281019e+00
1	 7.693160e-01	 8.918035e-01	-5.840434e+00
1	 7.527976e-01	 9.057904e-01	-6.353534e+00
1	 8.406714e-01	 8.406714e-01	-4.246683e+00
1	 8.250539e-01	 8.560040e-01	-4.941944e+00
1	 8.091596e-01	 8.710439e-01	-5.602123e+00
1	 7.929966e-01	 8.857839e-01	-6.223109e+00
1	 7.765737e-01	 9.002167e-01	-6.800919e+00
1	 7.598994e-01	 9.143356e-01	-7.331714e+00
1	 8.485281e-01	 8.485281e-01	-5.137564e+00
1	 8.327647e-01	 8.640040e-01	-5.852602e+00
1	 8.167218e-01	 8.791845e-01	-6.532088e+00
1	 8.004078e-01	 8.940622e-01	-7.171834e+00
1	 7.838314e-01	 9.086300e-01	-7.767785e+00
1	 7.670013e-01	 9.228808e-01	-8.316033e+00
1	 8.563849e-01	 8.563849e-01	-6.035710e+00
1	 8.404755e-01	 8.720040e-01	-6.770244e+00
1	 8.242841e-01	 8.873251e-01	-7.468765e+00
1	 8.078190e-01	 9.023406e-01	-8.127011e+00
1	 7.910891e-01	 9.170432e-01	-8.740856e+00
1	 7.741032e-01	 9.314260e-01	-9.306322e+00
1	 8.642416e-01	 8.642416e-01	-6.940924e+00
1	 8.481863e-01	 8.800041e-01	-7.694678e+00
1	 8.318463e-01	 8.954657e-01	-8.411970e+00
1	 8.152302e-01	 9.106190e-01	-9.088464e+00
1	 7.983468e-01	 9.254564e-01	-9.719962e+00
1	 7.812050e-01	 9.399712e-01	-1.030242e+01
1	 7.456957e-01	 8.972452e-01	-5.381668e+00
1	 7.290954e-01	 9.107859e-01	-6.506388e+00
1	 7.122665e-01	 9.240062e-01	-7.669120e+00
1	 6.952182e-01	 9.369006e-01	-8.870559e+00
1	 6.779600e-01	 9.494637e-01	-1.011124e+01
1	 6.605015e-01	 9.616907e-01	-1.139154e+01
1	 7.527976e-01	 9.057904e-01	-6.353534e+00
1	 7.360392e-01	 9.194601e-01	-7.541996e+00
1	 7.190500e-01	 9.328063e-01	-8.767668e+00
1	 7.018394e-01	 9.458235e-01	-1.003122e+01
1	 6.844168e-01	 9.585062e-01	-1.133314e+01
1	 6.667919e-01	 9.708496e-01	-1.267380e+01
1	 7.598994e-01	 9.143356e-01	-7.331714e+00
1	 7.429830e-01	 9.281342e-01	-8.583768e+00
1	 7.258335e-01	 9.416064e-01	-9.872244e+00
1	 7.084605e-01	 9.547463e-01	-1.119778e+01
1	 6.908735e-01	 9.675487e-01	-1.256084e+01
1	 6.730824e-01	 9.800086e-01	-1.396175e+01
1	 7.670013e-01	 9.228808e-01	-8.316033e+00
1	 7.499267e-01	 9.368084e-01	-9.631534e+00
1	 7.326170e-01	 9.504064e-01	-1.098268e+01
1	 7.150816e-01	 9.636692e-01	-1.237008e+01
1	 6.973303e-01	 9.765912e-01	-1.379417e+01
1	 6.793729e-01	 9.891675e-01	-1.525524e+01
1	 7.741032e-01	 9.314260e-01	-9.306322e+00
1	 7.568705e-01	 9.454825e-01	-1.068513e+01
1	 7.394005e-01	 9.592065e-01	-1.209882e+01
1	 7.217027e-01	 9.725920e-01	-1.354796e+01
1	 7.037871e-01	 9.856338e-01	-1.503297e+01
1	 6.856634e-01	 9.983265e-01	-1.655412e+01
1	 7.812050e-01	 9.399712e-01	-1.030242e+01
1	 7.638143e-01	 9.541567e-01	-1.174439e+01
1	 7.461840e-01	 9.680065e-01	-1.322050e+01
1	 7.283239e-01	 9.815149e-01	-1.473127e+01
1	 7.102438e-01	 9.946763e-01	-1.627710e+01
1	 6.919539e-01	 1.007485e+00	-1.785823e+01
1	 6.605015e-01	 9.616907e-01	-1.139154e+01
1	 6.428523e-01	 9.735769e-01	-1.301877e+01
1	 6.250224e-01	 9.851183e-01	-1.471696e+01
1	 6.070218e-01	 9.963110e-01	-1.648722e+01
1	 5.888605e-01	 1.007152e+00	-1.833038e+01
1	 5.705486e-01	 1.017637e+00	-2.024697e+01
1	 6.667919e-01	 9.708496e-01	-1.267380e+01
1	 6.489747e-01	 9.828491e-01	-1.438378e+01
1	 6.309750e-01	 9.945004e-01	-1.617474e+01
1	 6.128029e-01	 1.005800e+00	-1.804801e+01
1	 5.944687e-01	 1.016744e+00	-2.000465e+01
1	 5.759824e-01	 1.027329e+00	-2.204535e+01
1	 6.730824e-01	 9.800086e-01	-1.396175e+01
1	 6.550971e-01	 9.921213e-01	-1.575779e+01
1	 6.369276e-01	 1.003882e+00	-1.764461e+01
1	 6.185841e-01	 1.015288e+00	-1.962380e+01
1	 6.000769e-01	 1.026335e+00	-2.169661e+01
1	 5.814162e-01	 1.037021e+00	-2.386394e+01
1	 6.793729e-01	 9.891675e-01	-1.525524e+01
1	 6.612195e-01	 1.001393e+00	-1.714054e+01
1	 6.428802e-01	 1.013265e+00	-1.912624e+01
1	 6.243653e-01	 1.024777e+00	-2.121417e+01
1	 6.056851e-01	 1.035927e+00	-2.340578e+01
1	 5.868500e-01	 1.046713e+00	-2.570215e+01
1	 6.856634e-01	 9.983265e-01	-1.655412e+01
1	 6.673419e-01	 1.010666e+00	-1.853180e+01
1	 6.488328e-01	 1.022647e+00	-2.061930e+01
1	 6.301464e-01	 1.034266e+00	-2.281871e+01
1	 6.112933e-01	 1.045519e+00	-2.513169e+01
1	 5.922838e-01	 1.056404e+00	-2.755945e+01
1	 6.919539e-01	 1.007485e+00	-1.785823e+01
1	 6.734643e-01	 1.019938e+00	-1.993132e+01
1	 6.547854e-01	 1.032029e+00	-2.212349e+01
1	 6.359276e-01	 1.043754e+00	-2.443705e+01
1	 6.169014e-01	 1.055111e+00	-2.687387e+01
1	 5.977176e-01	 1.066096e+00	-2.943532e+01
1	 5.705486e-01	 1.017637e+00	-2.024697e+01
1	 5.520964e-01	 1.027765e+00	-2.209003e+01
1	 5.335141e-01	 1.037533e+00	-2.396217e+01
1	 5.148120e-01	 1.046938e+00	-2.586214e+01
1	 4.960003e-01	 1.055981e+00	-2.778859e+01
1	 4.770892e-01	 1.064658e+00	-2.974008e+01
1	 5.759824e-01	 1.027329e+00	-2.204535e+01
1	 5.573545e-01	 1.037553e+00	-2.400419e+01
1	 5.385952e-01	 1.047414e+00	-2.599563e+01
1	 5.197150e-01	 1.056909e+00	-2.801852e+01
1	 5.007241e-01	 1.066037e+00	-3.007154e+01
1	 4.816329e-01	 1.074798e+00	-3.215328e+01
1	 5.814162e-01	 1.037021e+00	-2.386394e+01
1	 5.626126e-01	 1.047341e+00	-2.594002e+01
1	 5.436763e-01	 1.057295e+00	-2.805220e+01
1	 5.246179e-01	 1.066880e+00	-3.019935e+01
1	 5.054479e-01	 1.076094e+00	-3.238022e+01
1	 4.861766e-01	 1.084937e+00	-3.459342e+01
1	 5.868500e-01	 1.046713e+00	-2.570215e+01
1	 5.678706e-01	 1.057130e+00	-2.789694e+01
1	 5.487574e-01	 1.067176e+00	-3.013124e+01
1	 5.295209e-01	 1.076851e+00	-3.240397e+01
1	 5.101717e-01	 1.086151e+00	-3.471393e+01
1	 4.907203e-01	 1.095077e+00	-3.705975e+01
1	 5.922838e-01	 1.056404e+00	-2.755945e+01
1	 5.731287e-01	 1.066918e+00	-2.987437e+01
1	 5.538385e-01	 1.077058e+00	-3.223212e+01
1	 5.344239e-01	 1.086822e+00	-3.463171e+01
1	 5.148955e-01	 1.096208e+00	-3.707197e+01
1	 4.952640e-01	 1.105217e+00	-3.955156e+01
1	 5.977176e-01	 1.066096e+00	-2.943532e+01
1	 5.783867e-01	 1.076706e+00	-3.187173e+01
1	 5.589196e-01	 1.086939e+00	-3.435425e+01
1	 5.393269e-01	 1.096792e+00	-3.688195e+01
1	 5.196193e-01	 1.106265e+00	-3.945368e+01
1	 4.998077e-01	 1.115356e+00	-4.206815e+01
1	 4.770892e-01	 1.064658e+00	-2.974008e+01
1	 4.580890e-01	 1.072970e+00	-3.125232e+01
1	 4.390098e-01	 1.080917e+00	-3.269489e+01
1	 4.198619e-01	 1.088498e+00	-3.406559e+01
1	 4.006550e-01	 1.095713e+00	-3.536243e+01
1	 3.813994e-01	 1.102563e+00	-3.658364e+01
1	 4.816329e-01	 1.074798e+00	-3.215328e+01
1	 4.624518e-01	 1.083189e+00	-3.375812e+01
1	 4.431909e-01	 1.091211e+00	-3.526434e+01
1	 4.238605e-01	 1.098864e+00	-3.666923e+01
1	 4.044708e-01	 1.106148e+00	-3.797040e+01
1	 3.850317e-01	 1.113064e+00	-3.916577e+01
1	 4.861766e-01	 1.084937e+00	-3.459342e+01
1	 4.668145e-01	 1.093408e+00	-3.628288e+01
1	 4.473719e-01	 1.101506e+00	-3.784533e+01
1	 4.278592e-01	 1.109231e+00	-3.927755e+01
1	 4.082866e-01	 1.116584e+00	-4.057676e+01
1	 3.886641e-01	 1.123564e+00	-4.174058e+01
1	 4.907203e-01	 1.095077e+00	-3.705975e+01
1	 4.711773e-01	 1.103627e+00	-3.882608e+01
1	 4.515530e-01	 1.111800e+00	-4.043753e+01
1	 4.318579e-01	 1.119598e+00	-4.189042e+01
1	 4.121023e-01	 1.127019e+00	-4.318156e+01
1	 3.922965e-01	 1.134065e+00	-4.430828e+01
1	 4.952640e-01	 1.105217e+00	-3.955156e+01
1	 4.755400e-01	 1.113846e+00	-4.138719e+01
1	 4.557340e-01	 1.122095e+00	-4.304064e+01
1	 4.358566e-01	 1.129964e+00	-4.450771e+01
1	 4.159181e-01	 1.137454e+00	-4.578485e+01
1	 3.959289e-01	 1.144566e+00	-4.686907e+01
1	 4.998077e-01	 1.115356e+00	-4.206815e+01
1	 4.799028e-01	 1.124064e+00	-4.396575e+01
1	 4.599151e-01	 1.132389e+00	-4.565435e+01
1	 4.398553e-01	 1.140331e+00	-4.712931e+01
1	 4.197339e-01	 1.147890e+00	-4.838666e+01
1	 3.995612e-01	 1.155066e+00	-4.942313e+01
1	 3.813994e-01	 1.102563e+00	-3.658364e+01
1	 3.621046e-01	 1.109050e+00	-3.730965e+01
1	 3.427806e-01	 1.115174e+00	-3.776004e+01
1	 3.234368e-01	 1.120937e+00	-3.793300e+01
1	 3.040827e-01	 1.126341e+00	-3.782757e+01
1	 2.847276e-01	 1.131389e+00	-3.744359e+01
1	 3.850317e-01	 1.113064e+00	-3.916577e+01
1	 3.655533e-01	 1.119612e+00	-3.980944e+01
1	 3.460452e-01	 1.125794e+00	-4.017485e+01
1	 3.265172e-01	 1.131613e+00	-4.026032e+01
1	 3.069787e-01	 1.137068e+00	-4.006504e+01
1	 2.874393e-01	 1.142164e+00	-3.958901e+01
1	 3.886641e-01	 1.123564e+00	-4.174058e+01
1	 3.690019e-01	 1.130175e+00	-4.230305e+01
1	 3.493097e-01	 1.136415e+00	-4.258464e+01
1	 3.295975e-01	 1.142288e+00	-4.258382e+01
1	 3.098748e-01	 1.147795e+00	-4.229992e+01
1	 2.901510e-01	 1.152939e+00	-4.173308e+01
1	 3.922965e-01	 1.134065e+00	-4.430828e+01
1	 3.724505e-01	 1.140737e+00	-4.479065e+01
1	 3.525743e-01	 1.147036e+00	-4.498955e+01
1	 3.326779e-01	 1.152964e+00	-4.490361e+01
1	 3.127708e-01	 1.158523e+00	-4.453228e+01
1	 2.928627e-01	 1.163715e+00	-4.387586e+01
1	 3.959289e-01	 1.144566e+00	-4.686907e+01
1	 3.758991e-01	 1.151299e+00	-4.727240e+01
1	 3.558389e-01	 1.157657e+00	-4.738973e+01
1	 3.357582e-01	 1.163639e+00	-4.721979e+01
1	 3.156668e-01	 1.169250e+00	-4.676219e+01
1	 2.955744e-01	 1.174490e+00	-4.601737e+01
1	 3.995612e-01	 1.155066e+00	-4.942313e+01
1	 3.793477e-01	 1.161862e+00	-4.974847e+01
1	 3.591035e-01	 1.168277e+00	-4.978529e+01
1	 3.388386e-01	 1.174315e+00	-4.953245e+01
1	 3.185628e-01	 1.179977e+00	-4.898971e+01
1	 2.982861e-01	 1.185265e+00	-4.815764e+01
1	 2.847276e-01	 1.131389e+00	-3.744359e+01
1	 2.653806e-01	 1.136083e+00	-3.687657e+01
1	 2.460506e-01	 1.140425e+00	-3.609023e+01
1	 2.267463e-01	 1.144420e+00	-3.508602e+01
1	 2.074764e-01	 1.148070e+00	-3.386592e+01
1	 1.882492e-01	 1.151379e+00	-3.243248e+01
1	 2.874393e-01	 1.142164e+00	-3.958901e+01
1	 2.679080e-01	 1.146903e+00	-3.893296e+01
1	 2.483939e-01	 1.151287e+00	-3.805764e+01
1	 2.289058e-01	 1.155319e+00	-3.696459e+01
1	 2.094524e-01	 1.159004e+00	-3.565591e+01
1	 1.900420e-01	 1.162344e+00	-3.413425e+01
1	 2.901510e-01	 1.152939e+00	-4.173308e+01
1	 2.704354e-01	 1.157723e+00	-4.098897e+01
1	 2.507372e-01	 1.162148e+00	-4.002562e+01
1	 2.310653e-01	 1.166219e+00	-3.884467e+01
1	 2.114284e-01	 1.169938e+00	-3.744834e+01
1	 1.918349e-01	 1.173310e+00	-3.583937e+01
1	 2.928627e-01	 1.163715e+00	-4.387586e+01
1	 2.729629e-01	 1.168542e+00	-4.304462e+01
1	 2.530806e-01	 1.173009e+00	-4.199416e+01
1	 2.332248e-01	 1.177118e+00	-4.072623e+01
1	 2.134043e-01	 1.180872e+00	-3.924314e+01
1	 1.936277e-01	 1.184275e+00	-3.754774e+01
1	 2.955744e-01	 1.174490e+00	-4.601737e+01
1	 2.754903e-01	 1.179362e+00	-4.509992e+01
1	 2.554239e-01	 1.183870e+00	-4.396324e+01
1	 2.353843e-01	 1.188017e+00	-4.260921e+01
1	 2.153803e-01	 1.191806e+00	-4.104024e+01
1	 1.954206e-01	 1.195241e+00	-3.925928e+01
1	 2.982861e-01	 1.185265e+00	-4.815764e+01
1	 2.780177e-01	 1.190182e+00	-4.715487e+01
1	 2.577673e-01	 1.194731e+00	-4.593286e+01
1	 2.375438e-01	 1.198916e+00	-4.449359e+01
1	 2.173563e-01	 1.202740e+00	-4.283958e+01
1	 1.972134e-01	 1.206206e+00	-4.097390e+01
1	 1.882492e-01	 1.151379e+00	-3.243248e+01
1	 1.690727e-01	 1.154351e+00	-3.096382e+01
1	 1.499550e-01	 1.156989e+00	-2.940645e+01
1	 1.309037e-01	 1.159300e+00	-2.776269e+01
1	 1.119262e-01	 1.161285e+00	-2.603499e+01
1	 9.302982e-02	 1.162952e+00	-2.422595e+01
1	 1.900420e-01	 1.162344e+00	-3.413425e+01
1	 1.706830e-01	 1.165345e+00	-3.258650e+01
1	 1.513831e-01	 1.168008e+00	-3.095119e+01
1	 1.321504e-01	 1.170340e+00	-2.923066e+01
1	 1.129922e-01	 1.172345e+00	-2.742742e+01
1	 9.391582e-02	 1.174027e+00	-2.554413e+01
1	 1.918349e-01	 1.173310e+00	-3.583937e+01
1	 1.722932e-01	 1.176338e+00	-3.421296e+01
1	 1.528113e-01	 1.179027e+00	-3.250009e+01
1	 1.333971e-01	 1.181381e+00	-3.070316e+01
1	 1.140581e-01	 1.183405e+00	-2.882474e+01
1	 9.480181e-02	 1.185103e+00	-2.686751e+01
1	 1.936277e-01	 1.184275e+00	-3.754774e+01
1	 1.739034e-01	 1.187332e+00	-3.584309e+01
1	 1.542394e-01	 1.190046e+00	-3.405304e+01
1	 1.346438e-01	 1.192422e+00	-3.218008e+01
1	 1.151241e-01	 1.194465e+00	-3.022681e+01
1	 9.568781e-02	 1.196179e+00	-2.819596e+01
1	 1.954206e-01	 1.195241e+00	-3.925928e+01
1	 1.755136e-01	 1.198326e+00	-3.747677e+01
1	 1.556676e-01	 1.201065e+00	-3.560994e+01
1	 1.358905e-01	 1.203463e+00	-3.366129e+01
1	 1.161901e-01	 1.205525e+00	-3.163350e+01
1	 9.657381e-02	 1.207255e+00	-2.952932e+01
1	 1.972134e-01	 1.206206e+00	-4.097390e+01
1	 1.771238e-01	 1.209320e+00	-3.911393e+01
1	 1.570957e-01	 1.212084e+00	-3.717066e+01
1	 1.371372e-01	 1.214504e+00	-3.514668e+01
1	 1.172560e-01	 1.216585e+00	-3.304468e+01
1	 9.745981e-02	 1.218330e+00	-3.086748e+01
1	 9.302982e-02	 1.162952e+00	-2.422595e+01
1	 7.422150e-02	 1.164303e+00	-2.247414e+01
1	 5.550798e-02	 1.165345e+00	-2.075211e+01
1	 3.689577e-02	 1.166083e+00	-1.906054e+01
1	 1.839111e-02	 1.166522e+00	-1.739999e+01
1	 0.000000e+00	 1.166667e+00	-1.577093e+01
1	 9.391582e-02	 1.174027e+00	-2.554413e+01
1	 7.492837e-02	 1.175392e+00	-2.372029e+01
1	 5.603663e-02	 1.176444e+00	-2.192799e+01
1	 3.724716e-02	 1.177189e+00	-2.016792e+01
1	 1.856626e-02	 1.177631e+00	-1.844064e+01
1	 0.000000e+00	 1.177778e+00	-1.674657e+01
1	 9.480181e-02	 1.185103e+00	-2.686751e+01
1	 7.563524e-02	 1.186481e+00	-2.497157e+01
1	 5.656528e-02	 1.187542e+00	-2.310890e+01
1	 3.759855e-02	 1.188294e+00	-2.128020e+01
1	 1.874142e-02	 1.188741e+00	-1.948600e+01
1	 0.000000e+00	 1.188889e+00	-1.772674e+01
1	 9.568781e-02	 1.196179e+00	-2.819596e+01
1	 7.634211e-02	 1.197569e+00	-2.622784e+01
1	 5.709393e-02	 1.198641e+00	-2.429470e+01
1	 3.794994e-02	 1.199400e+00	-2.239724e+01
1	 1.891657e-02	 1.199851e+00	-2.053597e+01
1	 0.000000e+00	 1.200000e+00	-1.871132e+01
1	 9.657381e-02	 1.207255e+00	-2.952932e+01
1	 7.704898e-02	 1.208658e+00	-2.748896e+01
1	 5.762257e-02	 1.209740e+00	-2.548526e+01
1	 3.830132e-02	 1.210505e+00	-2.351890e+01
1	 1.909172e-02	 1.210961e+00	-2.159041e+01
1	 0.000000e+00	 1.211111e+00	-1.970019e+01
1	 9.745981e-02	 1.218330e+00	-3.086748e+01
1	 7.775585e-02	 1.219746e+00	-2.875480e+01
1	 5.815122e-02	 1.220838e+00	-2.668044e+01
1	 3.865271e-02	 1.221611e+00	-2.464506e+01
1	 1.926688e-02	 1.222070e+00	-2.264920e+01
1	 0.000000e+00	 1.222222e+00	-2.069323e+01
1	 1.222222e+00	 0.000000e+00	 1.980203e+01
1	 1.222070e+00	 1.926688e-02	 2.026532e+01
1	 1.221611e+00	 3.865271e-02	 2.069981e+01
1	 1.220838e+00	 5.815122e-02	 2.110556e+01
1	 1.219746e+00	 7.775585e-02	 2.148266e+01
1	 1.218330e+00	 9.745981e-02	 2.183124e+01
1	 1.233333e+00	 0.000000e+00	 1.937716e+01
1	 1.233180e+00	 1.944203e-02	 1.985417e+01
1	 1.232716e+00	 3.900410e-02	 2.030271e+01
1	 1.231937e+00	 5.867987e-02	 2.072281e+01
1	 1.230835e+00	 7.846273e-02	 2.111456e+01
1	 1.229406e+00	 9.834581e-02	 2.147810e+01
1	 1.244444e+00	 0.000000e+00	 1.896603e+01
1	 1.244290e+00	 1.961718e-02	 1.945664e+01
1	 1.243822e+00	 3.935549e-02	 1.991909e+01
1	 1.243035e+00	 5.920851e-02	 2.035341e+01
1	 1.241924e+00	 7.916960e-02	 2.075968e+01
1	 1.240482e+00	 9.923181e-02	 2.113802e+01
1	 1.255556e+00	 0.000000e+00	 1.856826e+01
1	 1.255400e+00	 1.979234e-02	 1.907236e+01
1	 1.254928e+00	 3.970688e-02	 1.954859e+01
1	 1.254134e+00	 5.973716e-02	 1.999700e+01
1	 1.253012e+00	 7.987647e-02	 2.041765e+01
1	 1.251558e+00	 1.001178e-01	 2.081066e+01
1	 1.266667e+00	 0.000000e+00	 1.818351e+01
1	 1.266509e+00	 1.996749e-02	 1.870098e+01
1	 1.266033e+00	 4.005827e-02	 1.919088e+01
1	 1.265232e+00	 6.026581e-02	 1.965325e+01
1	 1.264101e+00	 8.058334e-02	 2.008814e+01
1	 1.262633e+00	 1.010038e-01	 2.049568e+01
1	 1.277778e+00	 0.000000e+00	 1.781143e+01
1	 1.277619e+00	 2.014264e-02	 1.834216e+01
1	 1.277139e+00	 4.040965e-02	 1.884562e+01
1	 1.276331e+00	 6.079446e-02	 1.932182e+01
1	 1.275189e+00	 8.129021e-02	 1.977083e+01
1	 1.273709e+00	 1.018898e-01	 2.019277e+01
1	 1.218330e+00	 9.745981e-02	 2.183124e+01
1	 1.216585e+00	 1.172560e-01	 2.226599e+01
1	 1.214504e+00	 1.371372e-01	 2.265155e+01
1	 1.212084e+00	 1.570957e-01	 2.298768e+01
1	 1.209320e+00	 1.771238e-01	 2.327419e+01
1	 1.206206e+00	 1.972134e-01	 2.351104e+01
1	 1.229406e+00	 9.834581e-02	 2.147810e+01
1	 1.227644e+00	 1.183220e-01	 2.192564e+01
1	 1.225545e+00	 1.383839e-01	 2.232424e+01
1	 1.223103e+00	 1.585239e-01	 2.267357e+01
1	 1.220314e+00	 1.787340e-01	 2.297339e+01
1	 1.217172e+00	 1.990063e-01	 2.322356e+01
1	 1.240482e+00	 9.923181e-02	 2.113802e+01
1	 1.238704e+00	 1.193880e-01	 2.159746e+01
1	 1.236586e+00	 1.396306e-01	 2.200821e+01
1	 1.234122e+00	 1.599520e-01	 2.236985e+01
1	 1.231307e+00	 1.803443e-01	 2.268206e+01
1	 1.228137e+00	 2.007991e-01	 2.294462e+01
1	 1.251558e+00	 1.001178e-01	 2.081066e+01
1	 1.249764e+00	 1.204539e-01	 2.128115e+01
1	 1.247627e+00	 1.408773e-01	 2.170317e+01
1	 1.245141e+00	 1.613801e-01	 2.207624e+01
1	 1.242301e+00	 1.819545e-01	 2.239995e+01
1	 1.239103e+00	 2.025920e-01	 2.267401e+01
1	 1.262633e+00	 1.010038e-01	 2.049568e+01
1	 1.260824e+00	 1.215199e-01	 2.097638e+01
1	 1.258668e+00	 1.421240e-01	 2.140883e+01
1	 1.256160e+00	 1.628083e-01	 2.179246e+01
1	 1.253295e+00	 1.835647e-01	 2.212682e+01
1	 1.250069e+00	 2.043848e-01	 2.241151e+01
1	 1.273709e+00	 1.018898e-01	 2.019277e+01
1	 1.271884e+00	 1.225858e-01	 2.068286e+01
1	 1.269709e+00	 1.433707e-01	 2.112490e+01
1	 1.267179e+00	 1.642364e-01	 2.151828e+01
1	 1.264289e+00	 1.851749e-01	 2.186243e+01
1	 1.261034e+00	 2.061777e-01	 2.215690e+01
1	 1.206206e+00	 1.972134e-01	 2.351104e+01
1	 1.202740e+00	 2.173563e-01	 2.382099e+01
1	 1.198916e+00	 2.375438e-01	 2.405948e+01
1	 1.194731e+00	 2.577673e-01	 2.422666e+01
1	 1.190182e+00	 2.780177e-01	 2.432286e+01
1	 1.185265e+00	 2.982861e-01	 2.434857e+01
1	 1.217172e+00	 1.990063e-01	 2.322356e+01
1	 1.213674e+00	 2.193322e-01	 2.354879e+01
1	 1.209815e+00	 2.397033e-01	 2.380199e+01
1	 1.205593e+00	 2.601106e-01	 2.398322e+01
1	 1.201002e+00	 2.805452e-01	 2.409269e+01
1	 1.196040e+00	 3.009977e-01	 2.413079e+01
1	 1.228137e+00	 2.007991e-01	 2.294462e+01
1	 1.224608e+00	 2.213082e-01	 2.328410e+01
1	 1.220715e+00	 2.418628e-01	 2.355099e+01
1	 1.216454e+00	 2.624539e-01	 2.374523e+01
1	 1.211822e+00	 2.830726e-01	 2.386694e+01
1	 1.206815e+00	 3.037094e-01	 2.391641e+01
1	 1.239103e+00	 2.025920e-01	 2.267401e+01
1	 1.235542e+00	 2.232842e-01	 2.302673e+01
1	 1.231614e+00	 2.440223e-01	 2.330629e+01
1	 1.227315e+00	 2.647973e-01	 2.351254e+01
1	 1.222642e+00	 2.856000e-01	 2.364549e+01
1	 1.217590e+00	 3.064211e-01	 2.370534e+01
1	 1.250069e+00	 2.043848e-01	 2.241151e+01
1	 1.246476e+00	 2.252601e-01	 2.277648e+01
1	 1.242513e+00	 2.461817e-01	 2.306773e+01
1	 1.238176e+00	 2.671406e-01	 2.328501e+01
1	 1.233461e+00	 2.881275e-01	 2.342824e+01
1	 1.228365e+00	 3.091328e-01	 2.349750e+01
1	 1.261034e+00	 2.061777e-01	 2.215690e+01
1	 1.257410e+00	 2.272361e-01	 2.253317e+01
1	 1.253412e+00	 2.483412e-01	 2.283515e+01
1	 1.249037e+00	 2.694840e-01	 2.306251e+01
1	 1.244281e+00	 2.906549e-01	 2.321506e+01
1	 1.239140e+00	 3.118445e-01	 2.329279e+01
1	 1.185265e+00	 2.982861e-01	 2.434857e+01
1	 1.179977e+00	 3.185628e-01	 2.444770e+01
1	 1.174315e+00	 3.388386e-01	 2.446695e+01
1	 1.168277e+00	 3.591035e-01	 2.440735e+01
1	 1.161862e+00	 3.793477e-01	 2.427017e+01
1	 1.155066e+00	 3.995612e-01	 2.405689e+01
1	 1.196040e+00	 3.009977e-01	 2.413079e+01
1	 1.190704e+00	 3.214589e-01	 2.424226e+01
1	 1.184991e+00	 3.419189e-01	 2.427236e+01
1	 1.178898e+00	 3.623681e-01	 2.422191e+01
1	 1.172424e+00	 3.827963e-01	 2.409197e+01
1	 1.165567e+00	 4.031936e-01	 2.388381e+01
1	 1.206815e+00	 3.037094e-01	 2.391641e+01
1	 1.201431e+00	 3.243549e-01	 2.403815e+01
1	 1.195666e+00	 3.449993e-01	 2.407703e+01
1	 1.189519e+00	 3.656326e-01	 2.403369e+01
1	 1.182986e+00	 3.862449e-01	 2.390896e+01
1	 1.176067e+00	 4.068260e-01	 2.370391e+01
1	 1.217590e+00	 3.064211e-01	 2.370534e+01
1	 1.212158e+00	 3.272509e-01	 2.383533e+01
1	 1.206342e+00	 3.480796e-01	 2.388100e+01
1	 1.200139e+00	 3.688972e-01	 2.384278e+01
1	 1.193549e+00	 3.896936e-01	 2.372129e+01
1	 1.186568e+00	 4.104584e-01	 2.351738e+01
1	 1.228365e+00	 3.091328e-01	 2.349750e+01
1	 1.222885e+00	 3.301469e-01	 2.363377e+01
1	 1.217017e+00	 3.511600e-01	 2.368428e+01
1	 1.210760e+00	 3.721618e-01	 2.364924e+01
1	 1.204111e+00	 3.931422e-01	 2.352906e+01
1	 1.197069e+00	 4.140907e-01	 2.332440e+01
1	 1.239140e+00	 3.118445e-01	 2.329279e+01
1	 1.233612e+00	 3.330430e-01	 2.343344e+01
1	 1.227693e+00	 3.542403e-01	 2.348689e+01
1	 1.221381e+00	 3.754264e-01	 2.345314e+01
1	 1.214674e+00	 3.965908e-01	 2.333240e+01
1	 1.207569e+00	 4.177231e-01	 2.312514e+01
1	 1.155066e+00	 3.995612e-01	 2.405689e+01
1	 1.147890e+00	 4.197339e-01	 2.343069e+01
1	 1.140331e+00	 4.398553e-01	 2.274355e+01
1	 1.132389e+00	 4.599151e-01	 2.199787e+01
1	 1.124064e+00	 4.799028e-01	 2.119624e+01
1	 1.115356e+00	 4.998077e-01	 2.034141e+01
1	 1.165567e+00	 4.031936e-01	 2.388381e+01
1	 1.158325e+00	 4.235496e-01	 2.326128e+01
1	 1.150698e+00	 4.438540e-01	 2.257767e+01
1	 1.142684e+00	 4.640961e-01	 2.183517e+01
1	 1.134283e+00	 4.842655e-01	 2.103619e+01
1	 1.125496e+00	 5.043514e-01	 2.018330e+01
1	 1.176067e+00	 4.068260e-01	 2.370391e+01
1	 1.168760e+00	 4.273654e-01	 2.308315e+01
1	 1.161064e+00	 4.478526e-01	 2.240113e+01
1	 1.152978e+00	 4.682772e-01	 2.165987e+01
1	 1.144502e+00	 4.886283e-01	 2.086158e+01
1	 1.135635e+00	 5.088951e-01	 2.000865e+01
1	 1.186568e+00	 4.104584e-01	 2.351738e+01
1	 1.179196e+00	 4.311811e-01	 2.289653e+01
1	 1.171431e+00	 4.518513e-01	 2.221422e+01
1	 1.163273e+00	 4.724582e-01	 2.147229e+01
1	 1.154721e+00	 4.929910e-01	 2.067279e+01
1	 1.145775e+00	 5.134389e-01	 1.981792e+01
1	 1.197069e+00	 4.140907e-01	 2.332440e+01
1	 1.189631e+00	 4.349969e-01	 2.270164e+01
1	 1.181797e+00	 4.558500e-01	 2.201720e+01
1	 1.173567e+00	 4.766393e-01	 2.127276e+01
1	 1.164939e+00	 4.973538e-01	 2.047019e+01
1	 1.155915e+00	 5.179826e-01	 1.961151e+01
1	 1.207569e+00	 4.177231e-01	 2.312514e+01
1	 1.200066e+00	 4.388127e-01	 2.249869e+01
1	 1.192164e+00	 4.598487e-01	 2.181034e+01
1	 1.183861e+00	 4.808203e-01	 2.106160e+01
1	 1.175158e+00	 5.017165e-01	 2.025415e+01
1	 1.166054e+00	 5.225263e-01	 1.938985e+01
1	 1.115356e+00	 4.998077e-01	 2.034141e+01
1	 1.106265e+00	 5.196193e-01	 1.892778e+01
1	 1.096792e+00	 5.393269e-01	 1.748789e+01
1	 1.086939e+00	 5.589196e-01	 1.602144e+01
1	 1.076706e+00	 5.783867e-01	 1.452817e+01
1	 1.066096e+00	 5.977176e-01	 1.300786e+01
1	 1.125496e+00	 5.043514e-01	 2.018330e+01
1	 1.116322e+00	 5.243431e-01	 1.873620e+01
1	 1.106763e+00	 5.442298e-01	 1.725986e+01
1	 1.096820e+00	 5.640007e-01	 1.575460e+01
1	 1.086494e+00	 5.836448e-01	 1.422077e+01
1	 1.075788e+00	 6.031514e-01	 1.265880e+01
1	 1.135635e+00	 5.088951e-01	 2.000865e+01
1	 1.126379e+00	 5.290670e-01	 1.853383e+01
1	 1.116734e+00	 5.491328e-01	 1.702685e+01
1	 1.106701e+00	 5.690817e-01	 1.548862e+01
1	 1.096283e+00	 5.889029e-01	 1.392012e+01
1	 1.085480e+00	 6.085852e-01	 1.232243e+01
1	 1.145775e+00	 5.134389e-01	 1.981792e+01
1	 1.136436e+00	 5.337908e-01	 1.832097e+01
1	 1.126705e+00	 5.540358e-01	 1.678899e+01
1	 1.116583e+00	 5.741628e-01	 1.522348e+01
1	 1.106071e+00	 5.941609e-01	 1.362606e+01
1	 1.095171e+00	 6.140190e-01	 1.199840e+01
1	 1.155915e+00	 5.179826e-01	 1.961151e+01
1	 1.146493e+00	 5.385146e-01	 1.809788e+01
1	 1.136676e+00	 5.589387e-01	 1.654640e+01
1	 1.126464e+00	 5.792439e-01	 1.495917e+01
1	 1.115859e+00	 5.994190e-01	 1.333840e+01
1	 1.104863e+00	 6.194528e-01	 1.168640e+01
1	 1.166054e+00	 5.225263e-01	 1.938985e+01
1	 1.156550e+00	 5.432384e-01	 1.786483e+01
1	 1.146647e+00	 5.638417e-01	 1.629921e+01
1	 1.136345e+00	 5.843250e-01	 1.469565e+01
1	 1.125647e+00	 6.046770e-01	 1.305697e+01
1	 1.114555e+00	 6.248866e-01	 1.138610e+01
1	 1.066096e+00	 5.977176e-01	 1.300786e+01
1	 1.055111e+00	 6.169014e-01	 1.131445e+01
1	 1.043754e+00	 6.359276e-01	 9.580036e+00
1	 1.032029e+00	 6.547854e-01	 7.802353e+00
1	 1.019938e+00	 6.734643e-01	 5.979217e+00
1	 1.007485e+00	 6.919539e-01	 4.108523e+00
1	 1.075788e+00	 6.031514e-01	 1.265880e+01
1	 1.064703e+00	 6.225096e-01	 1.089727e+01
1	 1.053243e+00	 6.417087e-01	 9.092461e+00
1	 1.041411e+00	 6.607380e-01	 7.241667e+00
1	 1.029210e+00	 6.795867e-01	 5.342271e+00
1	 1.016644e+00	 6.982444e-01	 3.391732e+00
1	 1.085480e+00	 6.085852e-01	 1.232243e+01
1	 1.074295e+00	 6.281178e-01	 1.048885e+01
1	 1.062732e+00	 6.474899e-01	 8.609741e+00
1	 1.050793e+00	 6.666906e-01	 6.681974e+00
1	 1.038482e+00	 6.857091e-01	 4.702497e+00
1	 1.025803e+00	 7.045349e-01	 2.668341e+00
1	 1.095171e+00	 6.140190e-01	 1.199840e+01
1	 1.083887e+00	 6.337260e-01	 1.008895e+01
1	 1.072220e+00	 6.532711e-01	 8.131749e+00
1	 1.060175e+00	 6.726432e-01	 6.123249e+00
1	 1.047754e+00	 6.918315e-01	 4.059971e+00
1	 1.034962e+00	 7.108254e-01	 1.938525e+00
1	 1.104863e+00	 6.194528e-01	 1.168640e+01
1	 1.093479e+00	 6.393342e-01	 9.697345e+00
1	 1.081709e+00	 6.590522e-01	 7.658359e+00
1	 1.069557e+00	 6.785958e-01	 5.565466e+00
1	 1.057026e+00	 6.979539e-01	 3.414766e+00
1	 1.044121e+00	 7.171159e-01	 1.202453e+00
1	 1.114555e+00	 6.248866e-01	 1.138610e+01
1	 1.103071e+00	 6.449424e-01	 9.313823e+00
1	 1.091198e+00	 6.648334e-01	 7.189453e+00
1	 1.078939e+00	 6.845484e-01	 5.008600e+00
1	 1.066299e+00	 7.040763e-01	 2.766951e+00
1	 1.053280e+00	 7.234064e-01	 4.602888e-01
1	 1.007485e+00	 6.919539e-01	 4.108523e+00
1	 9.946763e-01	 7.102438e-01	 2.633110e+00
1	 9.815149e-01	 7.283239e-01	 1.135600e+00
1	 9.680065e-01	 7.461840e-01	-3.824647e-01
1	 9.541567e-01	 7.638143e-01	-1.919499e+00
1	 9.399712e-01	 7.812050e-01	-3.473880e+00
1	 1.016644e+00	 6.982444e-01	 3.391732e+00
1	 1.003719e+00	 7.167006e-01	 1.870806e+00
1	 9.904378e-01	 7.349450e-01	 3.302058e-01
1	 9.768066e-01	 7.529675e-01	-1.228254e+00
1	 9.628308e-01	 7.707580e-01	-2.802724e+00
1	 9.485164e-01	 7.883069e-01	-4.391327e+00
1	 1.025803e+00	 7.045349e-01	 2.668341e+00
1	 1.012761e+00	 7.231573e-01	 1.103983e+00
1	 9.993606e-01	 7.415661e-01	-4.776737e-01
1	 9.856066e-01	 7.597510e-01	-2.074547e+00
1	 9.715050e-01	 7.777018e-01	-3.684527e+00
1	 9.570616e-01	 7.954087e-01	-5.305484e+00
1	 1.034962e+00	 7.108254e-01	 1.938525e+00
1	 1.021804e+00	 7.296141e-01	 3.327613e-01
1	 1.008283e+00	 7.481872e-01	-1.287973e+00
1	 9.944067e-01	 7.665344e-01	-2.921331e+00
1	 9.801791e-01	 7.846456e-01	-4.564947e+00
1	 9.656068e-01	 8.025106e-01	-6.216441e+00
1	 1.044121e+00	 7.171159e-01	 1.202453e+00
1	 1.030846e+00	 7.360709e-01	-4.427428e-01
1	 1.017206e+00	 7.548084e-01	-2.100627e+00
1	 1.003207e+00	 7.733179e-01	-3.768593e+00
1	 9.888533e-01	 7.915893e-01	-5.444019e+00
1	 9.741520e-01	 8.096125e-01	-7.124280e+00
1	 1.053280e+00	 7.234064e-01	 4.602888e-01
1	 1.039889e+00	 7.425276e-01	-1.222418e+00
1	 1.026129e+00	 7.614295e-01	-2.915576e+00
1	 1.012007e+00	 7.801014e-01	-4.616320e+00
1	 9.975274e-01	 7.985331e-01	-6.321780e+00
1	 9.826972e-01	 8.167143e-01	-8.029083e+00
1	 9.399712e-01	 7.812050e-01	-3.473880e+00
1	 9.254564e-01	 7.983468e-01	-4.227090e+00
1	 9.106190e-01	 8.152302e-01	-4.955873e+00
1	 8.954657e-01	 8.318463e-01	-5.654699e+00
1	 8.800041e-01	 8.481863e-01	-6.318147e+00
1	 8.642416e-01	 8.642416e-01	-6.940924e+00
1	 9.485164e-01	 7.883069e-01	-4.391327e+00
1	 9.338697e-01	 8.056045e-01	-5.141345e+00
1	 9.188973e-01	 8.226414e-01	-5.869358e+00
1	 9.036063e-01	 8.394085e-01	-6.569985e+00
1	 8.880041e-01	 8.558971e-01	-7.237949e+00
1	 8.720984e-01	 8.720984e-01	-7.868093e+00
1	 9.570616e-01	 7.954087e-01	-5.305484e+00
1	 9.422829e-01	 8.128622e-01	-6.054028e+00
1	 9.271757e-01	 8.300526e-01	-6.782948e+00
1	 9.117469e-01	 8.469708e-01	-7.487009e+00
1	 8.960042e-01	 8.636079e-01	-8.161075e+00
1	 8.799551e-01	 8.799551e-01	-8.800123e+00
1	 9.656068e-01	 8.025106e-01	-6.216441e+00
1	 9.506962e-01	 8.201199e-01	-6.965182e+00
1	 9.354540e-01	 8.374638e-01	-7.696640e+00
1	 9.198875e-01	 8.545330e-01	-8.405724e+00
1	 9.040042e-01	 8.713186e-01	-9.087436e+00
1	 8.878118e-01	 8.878118e-01	-9.736884e+00
1	 9.741520e-01	 8.096125e-01	-7.124280e+00
1	 9.591094e-01	 8.273775e-01	-7.874846e+00
1	 9.437324e-01	 8.448749e-01	-8.610431e+00
1	 9.280281e-01	 8.620953e-01	-9.326085e+00
1	 9.120042e-01	 8.790294e-01	-1.001695e+01
1	 8.956686e-01	 8.956686e-01	-1.067825e+01
1	 9.826972e-01	 8.167143e-01	-8.029083e+00
1	 9.675226e-01	 8.346352e-01	-8.783060e+00
1	 9.520107e-01	 8.522861e-01	-9.524318e+00
1	 9.361687e-01	 8.696575e-01	-1.024805e+01
1	 9.200043e-01	 8.867402e-01	-1.094952e+01
1	 9.035253e-01	 9.035253e-01	-1.162411e+01
1	 8.642416e-01	 8.642416e-01	-6.940924e+00
1	 8.481863e-01	 8.800041e-01	-7.694678e+00
1	 8.318463e-01	 8.954657e-01	-8.411970e+00
1	 8.152302e-01	 9.106190e-01	-9.088464e+00
1	 7.983468e-01	 9.254564e-01	-9.719962e+00
1	 7.812050e-01	 9.399712e-01	-1.030242e+01
1	 8.720984e-01	 8.720984e-01	-7.868093e+00
1	 8.558971e-01	 8.880041e-01	-8.637576e+00
1	 8.394085e-01	 9.036063e-01	-9.373035e+00
1	 8.226414e-01	 9.188973e-01	-1.007026e+01
1	 8.056045e-01	 9.338697e-01	-1.072516e+01
1	 7.883069e-01	 9.485164e-01	-1.133380e+01
1	 8.799551e-01	 8.799551e-01	-8.800123e+00
1	 8.636079e-01	 8.960042e-01	-9.586853e+00
1	 8.469708e-01	 9.117469e-01	-1.034196e+01
1	 8.300526e-01	 9.271757e-01	-1.106134e+01
1	 8.128622e-01	 9.422829e-01	-1.174103e+01
1	 7.954087e-01	 9.570616e-01	-1.237720e+01
1	 8.878118e-01	 8.878118e-01	-9.736884e+00
1	 8.713186e-01	 9.040042e-01	-1.054234e+01
1	 8.545330e-01	 9.198875e-01	-1.131853e+01
1	 8.374638e-01	 9.354540e-01	-1.206147e+01
1	 8.201199e-01	 9.506962e-01	-1.276730e+01
1	 8.025106e-01	 9.656068e-01	-1.343230e+01
1	 8.956686e-01	 8.956686e-01	-1.067825e+01
1	 8.790294e-01	 9.120042e-01	-1.150388e+01
1	 8.620953e-01	 9.280281e-01	-1.230255e+01
1	 8.448749e-01	 9.437324e-01	-1.307041e+01
1	 8.273775e-01	 9.591094e-01	-1.380370e+01
1	 8.096125e-01	 9.741520e-01	-1.449879e+01
1	 9.035253e-01	 9.035253e-01	-1.162411e+01
1	 8.867402e-01	 9.200043e-01	-1.247130e+01
1	 8.696575e-01	 9.361687e-01	-1.329382e+01
1	 8.522861e-01	 9.520107e-01	-1.408792e+01
1	 8.346352e-01	 9.675226e-01	-1.484995e+01
1	 8.167143e-01	 9.826972e-01	-1.557639e+01
1	 7.812050e-01	 9.399712e-01	-1.030242e+01
1	 7.638143e-01	 9.541567e-01	-1.174439e+01
1	 7.461840e-01	 9.680065e-01	-1.322050e+01
1	 7.283239e-01	 9.815149e-01	-1.473127e+01
1	 7.102438e-01	 9.946763e-01	-1.627710e+01
1	 6.919539e-01	 1.007485e+00	-1.785823e+01
1	 7.883069e-01	 9.485164e-01	-1.133380e+01
1	 7.707580e-01	 9.628308e-01	-1.284854e+01
1	 7.529675e-01	 9.768066e-01	-1.439654e+01
1	 7.349450e-01	 9.904378e-01	-1.597816e+01
1	 7.167006e-01	 1.003719e+00	-1.759360e+01
1	 6.982444e-01	 1.016644e+00	-1.924294e+01
1	 7.954087e-01	 9.570616e-01	-1.237720e+01
1	 7.777018e-01	 9.715050e-01	-1.396327e+01
1	 7.597510e-01	 9.856066e-01	-1.558175e+01
1	 7.415661e-01	 9.993606e-01	-1.723282e+01
1	 7.231573e-01	 1.012761e+00	-1.891650e+01
1	 7.045349e-01	 1.025803e+00	-2.063270e+01
1	 8.025106e-01	 9.656068e-01	-1.343230e+01
1	 7.846456e-01	 9.801791e-01	-1.508831e+01
1	 7.665344e-01	 9.944067e-01	-1.677589e+01
1	 7.481872e-01	 1.008283e+00	-1.849504e+01
1	 7.296141e-01	 1.021804e+00	-2.024562e+01
1	 7.108254e-01	 1.034962e+00	-2.202736e+01
1	 8.096125e-01	 9.741520e-01	-1.449879e+01
1	 7.915893e-01	 9.888533e-01	-1.622338e+01
1	 7.733179e-01	 1.003207e+00	-1.797871e+01
1	 7.548084e-01	 1.017206e+00	-1.976463e+01
1	 7.360709e-01	 1.030846e+00	-2.158080e+01
1	 7.171159e-01	 1.044121e+00	-2.342679e+01
1	 8.167143e-01	 9.826972e-01	-1.557639e+01
1	 7.985331e-01	 9.975274e-01	-1.736822e+01
1	 7.801014e-01	 1.012007e+00	-1.919000e+01
1	 7.614295e-01	 1.026129e+00	-2.104138e+01
1	 7.425276e-01	 1.039889e+00	-2.292188e+01
1	 7.234064e-01	 1.053280e+00	-2.483089e+01
1	 6.919539e-01	 1.007485e+00	-1.785823e+01
1	 6.734643e-01	 1.019938e+00	-1.993132e+01
1	 6.547854e-01	 1.032029e+00	-2.212349e+01
1	 6.359276e-01	 1.043754e+00	-2.443705e+01
1	 6.169014e-01	 1.055111e+00	-2.687387e+01
1	 5.977176e-01	 1.066096e+00	-2.943532e+01
1	 6.982444e-01	 1.016644e+00	-1.924294e+01
1	 6.795867e-01	 1.029210e+00	-2.142459e+01
1	 6.607380e-01	 1.041411e+00	-2.373591e+01
1	 6.417087e-01	 1.053243e+00	-2.617961e+01
1	 6.225096e-01	 1.064703e+00	-2.875791e+01
1	 6.031514e-01	 1.075788e+00	-3.147254e+01
1	 7.045349e-01	 1.025803e+00	-2.063270e+01
1	 6.857091e-01	 1.038482e+00	-2.292749e+01
1	 6.666906e-01	 1.050793e+00	-2.536233e+01
1	 6.474899e-01	 1.062732e+00	-2.794034e+01
1	 6.281178e-01	 1.074295e+00	-3.066411e+01
1	 6.085852e-01	 1.085480e+00	-3.353565e+01
1	 7.108254e-01	 1.034962e+00	-2.202736e+01
1	 6.918315e-01	 1.047754e+00	-2.443975e+01
1	 6.726432e-01	 1.060175e+00	-2.700238e+01
1	 6.532711e-01	 1.072220e+00	-2.971877e+01
1	 6.337260e-01	 1.083887e+00	-3.259185e+01
1	 6.140190e-01	 1.095171e+00	-3.562397e+01
1	 7.171159e-01	 1.044121e+00	-2.342679e+01
1	 6.979539e-01	 1.057026e+00	-2.596113e+01
1	 6.785958e-01	 1.069557e+00	-2.865571e+01
1	 6.590522e-01	 1.081709e+00	-3.151444e+01
1	 6.393342e-01	 1.093479e+00	-3.454059e+01
1	 6.194528e-01	 1.104863e+00	-3.773683e+01
1	 7.234064e-01	 1.053280e+00	-2.483089e+01
1	 7.040763e-01	 1.066299e+00	-2.749140e+01
1	 6.845484e-01	 1.078939e+00	-3.032197e+01
1	 6.648334e-01	 1.091198e+00	-3.332688e+01
1	 6.449424e-01	 1.103071e+00	-3.650977e+01
1	 6.248866e-01	 1.114555e+00	-3.987359e+01
1	 5.977176e-01	 1.066096e+00	-2.943532e+01
1	 5.783867e-01	 1.076706e+00	-3.187173e+01
1	 5.589196e-01	 1.086939e+00	-3.435425e+01
1	 5.393269e-01	 1.096792e+00	-3.688195e+01
1	 5.196193e-01	 1.106265e+00	-3.945368e+01
1	 4.998077e-01	 1.115356e+00	-4.206815e+01
1	 6.031514e-01	 1.075788e+00	-3.147254e+01
1	 5.836448e-01	 1.086494e+00	-3.402471e+01
1	 5.640007e-01	 1.096820e+00	-3.658886e+01
1	 5.442298e-01	 1.106763e+00	-3.916321e+01
1	 5.243431e-01	 1.116322e+00	-4.174590e+01
1	 5.043514e-01	 1.125496e+00	-4.433503e+01
1	 6.085852e-01	 1.085480e+00	-3.353565e+01
1	 5.889029e-01	 1.096283e+00	-3.619299e+01
1	 5.690817e-01	 1.106701e+00	-3.882882e+01
1	 5.491328e-01	 1.116734e+00	-4.144051e+01
1	 5.290670e-01	 1.126379e+00	-4.402551e+01
1	 5.088951e-01	 1.135635e+00	-4.658130e+01
1	 6.140190e-01	 1.095171e+00	-3.562397e+01
1	 5.941609e-01	 1.106071e+00	-3.837617e+01
1	 5.741628e-01	 1.116583e+00	-4.107398e+01
1	 5.540358e-01	 1.126705e+00	-4.371396e+01
1	 5.337908e-01	 1.136436e+00	-4.629283e+01
1	 5.134389e-01	 1.145775e+00	-4.880750e+01
1	 6.194528e-01	 1.104863e+00	-3.773683e+01
1	 5.994190e-01	 1.115859e+00	-4.057385e+01
1	 5.792439e-01	 1.126464e+00	-4.332421e+01
1	 5.589387e-01	 1.136676e+00	-4.598365e+01
1	 5.385146e-01	 1.146493e+00	-4.854820e+01
1	 5.179826e-01	 1.155915e+00	-5.101416e+01
1	 6.248866e-01	 1.114555e+00	-3.987359e+01
1	 6.046770e-01	 1.125647e+00	-4.278567e+01
1	 5.843250e-01	 1.136345e+00	-4.557938e+01
1	 5.638417e-01	 1.146647e+00	-4.824969e+01
1	 5.432384e-01	 1.156550e+00	-5.079192e+01
1	 5.225263e-01	 1.166054e+00	-5.320179e+01
1	 4.998077e-01	 1.115356e+00	-4.206815e+01
1	 4.799028e-01	 1.124064e+00	-4.396575e+01
1	 4.599151e-01	 1.132389e+00	-4.565435e+01
1	 4.398553e-01	 1.140331e+00	-4.712931e+01
1	 4.197339e-01	 1.147890e+00	-4.838666e+01
1	 3.995612e-01	 1.155066e+00	-4.942313e+01
1	 5.043514e-01	 1.125496e+00	-4.433503e+01
1	 4.842655e-01	 1.134283e+00	-4.613459e+01
1	 4.640961e-01	 1.142684e+00	-4.773563e+01
1	 4.438540e-01	 1.150698e+00	-4.913379e+01
1	 4.235496e-01	 1.158325e+00	-5.032540e+01
1	 4.031936e-01	 1.165567e+00	-5.130743e+01
1	 5.088951e-01	 1.135635e+00	-4.658130e+01
1	 4.886283e-01	 1.144502e+00	-4.828718e+01
1	 4.682772e-01	 1.152978e+00	-4.980478e+01
1	 4.478526e-01	 1.161064e+00	-5.113006e+01
1	 4.273654e-01	 1.168760e+00	-5.225963e+01
1	 4.068260e-01	 1.176067e+00	-5.319070e+01
1	 5.134389e-01	 1.145775e+00	-4.880750e+01
1	 4.929910e-01	 1.154721e+00	-5.042394e+01
1	 4.724582e-01	 1.163273e+00	-5.186213e+01
1	 4.518513e-01	 1.171431e+00	-5.311836e+01
1	 4.311811e-01	 1.179196e+00	-5.418949e+01
1	 4.104584e-01	 1.186568e+00	-5.507299e+01
1	 5.179826e-01	 1.155915e+00	-5.101416e+01
1	 4.973538e-01	 1.164939e+00	-5.254528e+01
1	 4.766393e-01	 1.173567e+00	-5.390799e+01
1	 4.558500e-01	 1.181797e+00	-5.509888e+01
1	 4.349969e-01	 1.189631e+00	-5.611509e+01
1	 4.140907e-01	 1.197069e+00	-5.695430e+01
1	 5.225263e-01	 1.166054e+00	-5.320179e+01
1	 5.017165e-01	 1.175158e+00	-5.465161e+01
1	 4.808203e-01	 1.183861e+00	-5.594267e+01
1	 4.598487e-01	 1.192164e+00	-5.707184e+01
1	 4.388127e-01	 1.200066e+00	-5.803653e+01
1	 4.177231e-01	 1.207569e+00	-5.883467e+01
1	 3.995612e-01	 1.155066e+00	-4.942313e+01
1	 3.793477e-01	 1.161862e+00	-4.974847e+01
1	 3.591035e-01	 1.168277e+00	-4.978529e+01
1	 3.388386e-01	 1.174315e+00	-4.953245e+01
1	 3.185628e-01	 1.179977e+00	-4.898971e+01
1	 2.982861e-01	 1.185265e+00	-4.815764e+01
1	 4.031936e-01	 1.165567e+00	-5.130743e+01
1	 3.827963e-01	 1.172424e+00	-5.157269e+01
1	 3.623681e-01	 1.178898e+00	-5.155301e+01
1	 3.419189e-01	 1.184991e+00	-5.124728e+01
1	 3.214589e-01	 1.190704e+00	-5.065528e+01
1	 3.009977e-01	 1.196040e+00	-4.977760e+01
1	 4.068260e-01	 1.176067e+00	-5.319070e+01
1	 3.862449e-01	 1.182986e+00	-5.339688e+01
1	 3.656326e-01	 1.189519e+00	-5.332161e+01
1	 3.449993e-01	 1.195666e+00	-5.296383e+01
1	 3.243549e-01	 1.201431e+00	-5.232333e+01
1	 3.037094e-01	 1.206815e+00	-5.140072e+01
1	 4.104584e-01	 1.186568e+00	-5.507299e+01
1	 3.896936e-01	 1.193549e+00	-5.522104e+01
1	 3.688972e-01	 1.200139e+00	-5.509107e+01
1	 3.480796e-01	 1.206342e+00	-5.468205e+01
1	 3.272509e-01	 1.212158e+00	-5.399379e+01
1	 3.064211e-01	 1.217590e+00	-5.302692e+01
1	 4.140907e-01	 1.197069e+00	-5.695430e+01
1	 3.931422e-01	 1.204111e+00	-5.704515e+01
1	 3.721618e-01	 1.210760e+00	-5.686135e+01
1	 3.511600e-01	 1.217017e+00	-5.640189e+01
1	 3.301469e-01	 1.222885e+00	-5.566660e+01
1	 3.091328e-01	 1.228365e+00	-5.465613e+01
1	 4.177231e-01	 1.207569e+00	-5.883467e+01
1	 3.965908e-01	 1.214674e+00	-5.886924e+01
1	 3.754264e-01	 1.221381e+00	-5.863245e+01
1	 3.542403e-01	 1.227693e+00	-5.812331e+01
1	 3.330430e-01	 1.233612e+00	-5.734169e+01
1	 3.118445e-01	 1.239140e+00	-5.628827e+01
1	 2.982861e-01	 1.185265e+00	-4.815764e+01
1	 2.780177e-01	 1.190182e+00	-4.715487e+01
1	 2.577673e-01	 1.194731e+00	-4.593286e+01
1	 2.375438e-01	 1.198916e+00	-4.449359e+01
1	 2.173563e-01	 1.202740e+00	-4.283958e+01
1	 1.972134e-01	 1.206206e+00	-4.097390e+01
1	 3.009977e-01	 1.196040e+00	-4.977760e+01
1	 2.805452e-01	 1.201002e+00	-4.873350e+01
1	 2.601106e-01	 1.205593e+00	-4.746984e+01
1	 2.397033e-01	 1.209815e+00	-4.598862e+01
1	 2.193322e-01	 1.213674e+00	-4.429241e+01
1	 1.990063e-01	 1.217172e+00	-4.238432e+01
1	 3.037094e-01	 1.206815e+00	-5.140072e+01
1	 2.830726e-01	 1.211822e+00	-5.031563e+01
1	 2.624539e-01	 1.216454e+00	-4.901064e+01
1	 2.418628e-01	 1.220715e+00	-4.748779e+01
1	 2.213082e-01	 1.224608e+00	-4.574970e+01
1	 2.007991e-01	 1.228137e+00	-4.379950e+01
1	 3.064211e-01	 1.217590e+00	-5.302692e+01
1	 2.856000e-01	 1.222642e+00	-5.190115e+01
1	 2.647973e-01	 1.227315e+00	-5.055514e+01
1	 2.440223e-01	 1.231614e+00	-4.899098e+01
1	 2.232842e-01	 1.235542e+00	-4.721131e+01
1	 2.025920e-01	 1.239103e+00	-4.521932e+01
1	 3.091328e-01	 1.228365e+00	-5.465613e+01
1	 2.881275e-01	 1.233461e+00	-5.348999e+01
1	 2.671406e-01	 1.238176e+00	-5.210326e+01
1	 2.461817e-01	 1.242513e+00	-5.049809e+01
1	 2.252601e-01	 1.246476e+00	-4.867714e+01
1	 2.043848e-01	 1.250069e+00	-4.664367e+01
1	 3.118445e-01	 1.239140e+00	-5.628827e+01
1	 2.906549e-01	 1.244281e+00	-5.508204e+01
1	 2.694840e-01	 1.249037e+00	-5.365490e+01
1	 2.483412e-01	 1.253412e+00	-5.200901e+01
1	 2.272361e-01	 1.257410e+00	-5.014709e+01
1	 2.061777e-01	 1.261034e+00	-4.807241e+01
1	 1.972134e-01	 1.206206e+00	-4.097390e+01
1	 1.771238e-01	 1.209320e+00	-3.911393e+01
1	 1.570957e-01	 1.212084e+00	-3.717066e+01
1	 1.371372e-01	 1.214504e+00	-3.514668e+01
1	 1.172560e-01	 1.216585e+00	-3.304468e+01
1	 9.745981e-02	 1.218330e+00	-3.086748e+01
1	 1.990063e-01	 1.217172e+00	-4.238432e+01
1	 1.787340e-01	 1.220314e+00	-4.048911e+01
1	 1.585239e-01	 1.223103e+00	-3.851236e+01
1	 1.383839e-01	 1.225545e+00	-3.645666e+01
1	 1.183220e-01	 1.227644e+00	-3.432472e+01
1	 9.834581e-02	 1.229406e+00	-3.211938e+01
1	 2.007991e-01	 1.228137e+00	-4.379950e+01
1	 1.803443e-01	 1.231307e+00	-4.186941e+01
1	 1.599520e-01	 1.234122e+00	-3.985949e+01
1	 1.396306e-01	 1.236586e+00	-3.777235e+01
1	 1.193880e-01	 1.238704e+00	-3.561072e+01
1	 9.923181e-02	 1.240482e+00	-3.337745e+01
1	 2.025920e-01	 1.239103e+00	-4.521932e+01
1	 1.819545e-01	 1.242301e+00	-4.325469e+01
1	 1.613801e-01	 1.245141e+00	-4.121191e+01
1	 1.408773e-01	 1.247627e+00	-3.909361e+01
1	 1.204539e-01	 1.249764e+00	-3.690253e+01
1	 1.001178e-01	 1.251558e+00	-3.464152e+01
1	 2.043848e-01	 1.250069e+00	-4.664367e+01
1	 1.835647e-01	 1.253295e+00	-4.464483e+01
1	 1.628083e-01	 1.256160e+00	-4.256949e+01
1	 1.421240e-01	 1.258668e+00	-4.042029e+01
1	 1.215199e-01	 1.260824e+00	-3.819998e+01
1	 1.010038e-01	 1.262633e+00	-3.591143e+01
1	 2.061777e-01	 1.261034e+00	-4.807241e+01
1	 1.851749e-01	 1.264289e+00	-4.603970e+01
1	 1.642364e-01	 1.267179e+00	-4.393209e+01
1	 1.433707e-01	 1.269709e+00	-4.175224e+01
1	 1.225858e-01	 1.271884e+00	-3.950293e+01
1	 1.018898e-01	 1.273709e+00	-3.718704e+01
1	 9.745981e-02	 1.218330e+00	-3.086748e+01
1	 7.775585e-02	 1.219746e+00	-2.875480e+01
1	 5.815122e-02	 1.220838e+00	-2.668044e+01
1	 3.865271e-02	 1.221611e+00	-2.464506e+01
1	 1.926688e-02	 1.222070e+00	-2.264920e+01
1	 0.000000e+00	 1.222222e+00	-2.069323e+01
1	 9.834581e-02	 1.229406e+00	-3.211938e+01
1	 7.846273e-02	 1.230835e+00	-2.997817e+01
1	 5.867987e-02	 1.231937e+00	-2.787490e+01
1	 3.900410e-02	 1.232716e+00	-2.581023e+01
1	 1.944203e-02	 1.233180e+00	-2.378470e+01
1	 0.000000e+00	 1.233333e+00	-2.179870e+01
1	 9.923181e-02	 1.240482e+00	-3.337745e+01
1	 7.916960e-02	 1.241924e+00	-3.120748e+01
1	 5.920851e-02	 1.243035e+00	-2.907507e+01
1	 3.935549e-02	 1.243822e+00	-2.698090e+01
1	 1.961718e-02	 1.244290e+00	-2.492551e+01
1	 0.000000e+00	 1.244444e+00	-2.290928e+01
1	 1.001178e-01	 1.251558e+00	-3.464152e+01
1	 7.987647e-02	 1.253012e+00	-3.244257e+01
1	 5.973716e-02	 1.254134e+00	-3.028081e+01
1	 3.970688e-02	 1.254928e+00	-2.815693e+01
1	 1.979234e-02	 1.255400e+00	-2.607147e+01
1	 0.000000e+00	 1.255556e+00	-2.402481e+01
1	 1.010038e-01	 1.262633e+00	-3.591143e+01
1	 8.058334e-02	 1.264101e+00	-3.368329e+01
1	 6.026581e-02	 1.265232e+00	-3.149198e+01
1	 4.005827e-02	 1.266033e+00	-2.933818e+01
1	 1.996749e-02	 1.266509e+00	-2.722245e+01
1	 0.000000e+00	 1.266667e+00	-2.514518e+01
1	 1.018898e-01	 1.273709e+00	-3.718704e+01
1	 8.129021e-02	 1.275189e+00	-3.492950e+01
1	 6.079446e-02	 1.276331e+00	-3.270843e+01
1	 4.040965e-02	 1.277139e+00	-3.052452e+01
1	 2.014264e-02	 1.277619e+00	-2.837832e+01
1	 0.000000e+00	 1.277778e+00	-2.627025e+01
1	 1.277778e+00	 0.000000e+00	 1.781143e+01
1	 1.277619e+00	 2.014264e-02	 1.834216e+01
1	 1.277139e+00	 4.040965e-02	 1.884562e+01
1	 1.276331e+00	 6.079446e-02	 1.932182e+01
1	 1.275189e+00	 8.129021e-02	 1.977083e+01
1	 1.273709e+00	 1.018898e-01	 2.019277e+01
1	 1.288889e+00	 0.000000e+00	 1.745783e+01
1	 1.288729e+00	 2.031780e-02	 1.799373e+01
1	 1.288244e+00	 4.076104e-02	 1.850236e+01
1	 1.287429e+00	 6.132310e-02	 1.898371e+01
1	 1.286278e+00	 8.199708e-02	 1.943783e+01
1	 1.284785e+00	 1.027758e-01	 1.986481e+01
1	 1.300000e+00	 0.000000e+00	 1.711874e+01
1	 1.299838e+00	 2.049295e-02	 1.765954e+01
1	 1.299350e+00	 4.111243e-02	 1.817306e+01
1	 1.298528e+00	 6.185175e-02	 1.865929e+01
1	 1.297367e+00	 8.270395e-02	 1.911823e+01
1	 1.295860e+00	 1.036618e-01	 1.954997e+01
1	 1.311111e+00	 0.000000e+00	 1.679380e+01
1	 1.310948e+00	 2.066811e-02	 1.733923e+01
1	 1.310455e+00	 4.146382e-02	 1.785738e+01
1	 1.309626e+00	 6.238040e-02	 1.834820e+01
1	 1.308455e+00	 8.341082e-02	 1.881170e+01
1	 1.306936e+00	 1.045478e-01	 1.924793e+01
1	 1.322222e+00	 0.000000e+00	 1.648265e+01
1	 1.322058e+00	 2.084326e-02	 1.703245e+01
1	 1.321561e+00	 4.181521e-02	 1.755495e+01
1	 1.320725e+00	 6.290905e-02	 1.805011e+01
1	 1.319544e+00	 8.411770e-02	 1.851791e+01
1	 1.318012e+00	 1.054338e-01	 1.895836e+01
1	 1.333333e+00	 0.000000e+00	 1.618495e+01
1	 1.333168e+00	 2.101841e-02	 1.673886e+01
1	 1.332666e+00	 4.216660e-02	 1.726546e+01
1	 1.331823e+00	 6.343769e-02	 1.776470e+01
1	 1.330632e+00	 8.482457e-02	 1.823653e+01
1	 1.329088e+00	 1.063198e-01	 1.868095e+01
1	 1.273709e+00	 1.018898e-01	 2.019277e+01
1	 1.271884e+00	 1.225858e-01	 2.068286e+01
1	 1.269709e+00	 1.433707e-01	 2.112490e+01
1	 1.267179e+00	 1.642364e-01	 2.151828e+01
1	 1.264289e+00	 1.851749e-01	 2.186243e+01
1	 1.261034e+00	 2.061777e-01	 2.215690e+01
1	 1.284785e+00	 1.027758e-01	 1.986481e+01
1	 1.282944e+00	 1.236518e-01	 2.035437e+01
1	 1.280750e+00	 1.446174e-01	 2.079641e+01
1	 1.278198e+00	 1.656646e-01	 2.119025e+01
1	 1.275283e+00	 1.867851e-01	 2.153528e+01
1	 1.272000e+00	 2.079705e-01	 2.183098e+01
1	 1.295860e+00	 1.036618e-01	 1.954997e+01
1	 1.294004e+00	 1.247178e-01	 2.003830e+01
1	 1.291791e+00	 1.458641e-01	 2.047962e+01
1	 1.289217e+00	 1.670927e-01	 2.087319e+01
1	 1.286276e+00	 1.883953e-01	 2.121836e+01
1	 1.282965e+00	 2.097634e-01	 2.151453e+01
1	 1.306936e+00	 1.045478e-01	 1.924793e+01
1	 1.305064e+00	 1.257837e-01	 1.973434e+01
1	 1.302832e+00	 1.471108e-01	 2.017424e+01
1	 1.300236e+00	 1.685209e-01	 2.056683e+01
1	 1.297270e+00	 1.900056e-01	 2.091140e+01
1	 1.293931e+00	 2.115562e-01	 2.120731e+01
1	 1.318012e+00	 1.054338e-01	 1.895836e+01
1	 1.316123e+00	 1.268497e-01	 1.944218e+01
1	 1.313873e+00	 1.483575e-01	 1.987997e+01
1	 1.311255e+00	 1.699490e-01	 2.027089e+01
1	 1.308264e+00	 1.916158e-01	 2.061416e+01
1	 1.304896e+00	 2.133491e-01	 2.090909e+01
1	 1.329088e+00	 1.063198e-01	 1.868095e+01
1	 1.327183e+00	 1.279157e-01	 1.916152e+01
1	 1.324914e+00	 1.496042e-01	 1.959654e+01
1	 1.322274e+00	 1.713771e-01	 1.998511e+01
1	 1.319258e+00	 1.932260e-01	 2.032639e+01
1	 1.315862e+00	 2.151419e-01	 2.061964e+01
1	 1.261034e+00	 2.061777e-01	 2.215690e+01
1	 1.257410e+00	 2.272361e-01	 2.253317e+01
1	 1.253412e+00	 2.483412e-01	 2.283515e+01
1	 1.249037e+00	 2.694840e-01	 2.306251e+01
1	 1.244281e+00	 2.906549e-01	 2.321506e+01
1	 1.239140e+00	 3.118445e-01	 2.329279e+01
1	 1.272000e+00	 2.079705e-01	 2.183098e+01
1	 1.268344e+00	 2.292121e-01	 2.221000e+01
1	 1.264312e+00	 2.505007e-01	 2.251459e+01
1	 1.259899e+00	 2.718273e-01	 2.274424e+01
1	 1.255101e+00	 2.931823e-01	 2.289863e+01
1	 1.249916e+00	 3.145562e-01	 2.297761e+01
1	 1.282965e+00	 2.097634e-01	 2.151453e+01
1	 1.279278e+00	 2.311880e-01	 2.189490e+01
1	 1.275211e+00	 2.526602e-01	 2.220066e+01
1	 1.270760e+00	 2.741706e-01	 2.243117e+01
1	 1.265921e+00	 2.957098e-01	 2.258598e+01
1	 1.260691e+00	 3.172679e-01	 2.266479e+01
1	 1.293931e+00	 2.115562e-01	 2.120731e+01
1	 1.290212e+00	 2.331640e-01	 2.158765e+01
1	 1.286110e+00	 2.548197e-01	 2.189320e+01
1	 1.281621e+00	 2.765140e-01	 2.212319e+01
1	 1.276741e+00	 2.982372e-01	 2.227702e+01
1	 1.271466e+00	 3.199796e-01	 2.235426e+01
1	 1.304896e+00	 2.133491e-01	 2.090909e+01
1	 1.301146e+00	 2.351400e-01	 2.128806e+01
1	 1.297009e+00	 2.569792e-01	 2.159205e+01
1	 1.292482e+00	 2.788573e-01	 2.182016e+01
1	 1.287561e+00	 3.007647e-01	 2.197166e+01
1	 1.282241e+00	 3.226913e-01	 2.204597e+01
1	 1.315862e+00	 2.151419e-01	 2.061964e+01
1	 1.312080e+00	 2.371159e-01	 2.099593e+01
1	 1.307909e+00	 2.591387e-01	 2.129705e+01
1	 1.303343e+00	 2.812007e-01	 2.152197e+01
1	 1.298380e+00	 3.032921e-01	 2.166981e+01
1	 1.293016e+00	 3.254030e-01	 2.173987e+01
1	 1.239140e+00	 3.118445e-01	 2.329279e+01
1	 1.233612e+00	 3.330430e-01	 2.343344e+01
1	 1.227693e+00	 3.542403e-01	 2.348689e+01
1	 1.221381e+00	 3.754264e-01	 2.345314e+01
1	 1.214674e+00	 3.965908e-01	 2.333240e+01
1	 1.207569e+00	 4.177231e-01	 2.312514e+01
1	 1.249916e+00	 3.145562e-01	 2.297761e+01
1	 1.244339e+00	 3.359390e-01	 2.311575e+01
1	 1.238368e+00	 3.573207e-01	 2.316679e+01
1	 1.232002e+00	 3.786909e-01	 2.313057e+01
1	 1.225236e+00	 4.000394e-01	 2.300716e+01
1	 1.218070e+00	 4.213555e-01	 2.279685e+01
1	 1.260691e+00	 3.172679e-01	 2.266479e+01
1	 1.255066e+00	 3.388350e-01	 2.279882e+01
1	 1.249044e+00	 3.604010e-01	 2.284584e+01
1	 1.242622e+00	 3.819555e-01	 2.280554e+01
1	 1.235798e+00	 4.034880e-01	 2.267783e+01
1	 1.228570e+00	 4.249879e-01	 2.246283e+01
1	 1.271466e+00	 3.199796e-01	 2.235426e+01
1	 1.265793e+00	 3.417311e-01	 2.248264e+01
1	 1.259720e+00	 3.634814e-01	 2.252407e+01
1	 1.253243e+00	 3.852201e-01	 2.247811e+01
1	 1.246361e+00	 4.069366e-01	 2.234450e+01
1	 1.239071e+00	 4.286202e-01	 2.212322e+01
1	 1.282241e+00	 3.226913e-01	 2.204597e+01
1	 1.276520e+00	 3.446271e-01	 2.216718e+01
1	 1.270395e+00	 3.665617e-01	 2.220151e+01
1	 1.263864e+00	 3.884847e-01	 2.214835e+01
1	 1.256923e+00	 4.103853e-01	 2.200729e+01
1	 1.249572e+00	 4.322526e-01	 2.177816e+01
1	 1.293016e+00	 3.254030e-01	 2.173987e+01
1	 1.287247e+00	 3.475231e-01	 2.185243e+01
1	 1.281071e+00	 3.696421e-01	 2.187816e+01
1	 1.274484e+00	 3.917493e-01	 2.181630e+01
1	 1.267485e+00	 4.138339e-01	 2.166629e+01
1	 1.260072e+00	 4.358850e-01	 2.142778e+01
1	 1.207569e+00	 4.177231e-01	 2.312514e+01
1	 1.200066e+00	 4.388127e-01	 2.249869e+01
1	 1.192164e+00	 4.598487e-01	 2.181034e+01
1	 1.183861e+00	 4.808203e-01	 2.106160e+01
1	 1.175158e+00	 5.017165e-01	 2.025415e+01
1	 1.166054e+00	 5.225263e-01	 1.938985e+01
1	 1.218070e+00	 4.213555e-01	 2.279685e+01
1	 1.210502e+00	 4.426284e-01	 2.216788e+01
1	 1.202531e+00	 4.638474e-01	 2.147678e+01
1	 1.194156e+00	 4.850014e-01	 2.072505e+01
1	 1.185377e+00	 5.060793e-01	 1.991437e+01
1	 1.176194e+00	 5.270700e-01	 1.904661e+01
1	 1.228570e+00	 4.249879e-01	 2.246283e+01
1	 1.220937e+00	 4.464442e-01	 2.183123e+01
1	 1.212897e+00	 4.678461e-01	 2.113725e+01
1	 1.204450e+00	 4.891824e-01	 2.038240e+01
1	 1.195596e+00	 5.104420e-01	 1.956837e+01
1	 1.186333e+00	 5.316137e-01	 1.869701e+01
1	 1.239071e+00	 4.286202e-01	 2.212322e+01
1	 1.231373e+00	 4.502600e-01	 2.148888e+01
1	 1.223264e+00	 4.718447e-01	 2.079190e+01
1	 1.214745e+00	 4.933634e-01	 2.003382e+01
1	 1.205814e+00	 5.148048e-01	 1.921630e+01
1	 1.196473e+00	 5.361574e-01	 1.834121e+01
1	 1.249572e+00	 4.322526e-01	 2.177816e+01
1	 1.241808e+00	 4.540757e-01	 2.114097e+01
1	 1.233631e+00	 4.758434e-01	 2.044089e+01
1	 1.225039e+00	 4.975445e-01	 1.967944e+01
1	 1.216033e+00	 5.191675e-01	 1.885831e+01
1	 1.206613e+00	 5.407011e-01	 1.797937e+01
1	 1.260072e+00	 4.358850e-01	 2.142778e+01
1	 1.252243e+00	 4.578915e-01	 2.078764e+01
1	 1.243997e+00	 4.798421e-01	 2.008435e+01
1	 1.235334e+00	 5.017255e-01	 1.931942e+01
1	 1.226252e+00	 5.235303e-01	 1.849456e+01
1	 1.216752e+00	 5.452448e-01	 1.761163e+01
1	 1.166054e+00	 5.225263e-01	 1.938985e+01
1	 1.156550e+00	 5.432384e-01	 1.786483e+01
1	 1.146647e+00	 5.638417e-01	 1.629921e+01
1	 1.136345e+00	 5.843250e-01	 1.469565e+01
1	 1.125647e+00	 6.046770e-01	 1.305697e+01
1	 1.114555e+00	 6.248866e-01	 1.138610e+01
1	 1.176194e+00	 5.270700e-01	 1.904661e+01
1	 1.166607e+00	 5.479622e-01	 1.751691e+01
1	 1.156618e+00	 5.687447e-01	 1.594636e+01
1	 1.146226e+00	 5.894061e-01	 1.433747e+01
1	 1.135435e+00	 6.099351e-01	 1.269287e+01
1	 1.124247e+00	 6.303204e-01	 1.101531e+01
1	 1.186333e+00	 5.316137e-01	 1.869701e+01
1	 1.176664e+00	 5.526860e-01	 1.716095e+01
1	 1.166588e+00	 5.736477e-01	 1.558379e+01
1	 1.156108e+00	 5.944872e-01	 1.396786e+01
1	 1.145224e+00	 6.151932e-01	 1.231563e+01
1	 1.133939e+00	 6.357542e-01	 1.062967e+01
1	 1.196473e+00	 5.361574e-01	 1.834121e+01
1	 1.186721e+00	 5.574098e-01	 1.679716e+01
1	 1.176559e+00	 5.785506e-01	 1.521173e+01
1	 1.165989e+00	 5.995683e-01	 1.358711e+01
1	 1.155012e+00	 6.204512e-01	 1.192559e+01
1	 1.143630e+00	 6.411880e-01	 1.022958e+01
1	 1.206613e+00	 5.407011e-01	 1.797937e+01
1	 1.196778e+00	 5.621336e-01	 1.642572e+01
1	 1.186530e+00	 5.834536e-01	 1.483043e+01
1	 1.175870e+00	 6.046494e-01	 1.319551e+01
1	 1.164800e+00	 6.257093e-01	 1.152308e+01
1	 1.153322e+00	 6.466218e-01	 9.815382e+00
1	 1.216752e+00	 5.452448e-01	 1.761163e+01
1	 1.206835e+00	 5.668575e-01	 1.604684e+01
1	 1.196501e+00	 5.883566e-01	 1.444012e+01
1	 1.185751e+00	 6.097304e-01	 1.279332e+01
1	 1.174588e+00	 6.309674e-01	 1.110841e+01
1	 1.163014e+00	 6.520556e-01	 9.387443e+00
1	 1.114555e+00	 6.248866e-01	 1.138610e+01
1	 1.103071e+00	 6.449424e-01	 9.313823e+00
1	 1.091198e+00	 6.648334e-01	 7.189453e+00
1	 1.078939e+00	 6.845484e-01	 5.008600e+00
1	 1.066299e+00	 7.040763e-01	 2.766951e+00
1	 1.053280e+00	 7.234064e-01	 4.602888e-01
1	 1.124247e+00	 6.303204e-01	 1.101531e+01
1	 1.112663e+00	 6.505506e-01	 8.870038e+00
1	 1.100686e+00	 6.706145e-01	 6.669787e+00
1	 1.088321e+00	 6.905010e-01	 4.410718e+00
1	 1.075571e+00	 7.101987e-01	 2.089088e+00
1	 1.062439e+00	 7.296968e-01	-2.987342e-01
1	 1.133939e+00	 6.357542e-01	 1.062967e+01
1	 1.122255e+00	 6.561588e-01	 8.416385e+00
1	 1.110175e+00	 6.763957e-01	 6.145272e+00
1	 1.097703e+00	 6.964535e-01	 3.813046e+00
1	 1.084843e+00	 7.163211e-01	 1.416530e+00
1	 1.071598e+00	 7.359873e-01	-1.047333e+00
1	 1.143630e+00	 6.411880e-01	 1.022958e+01
1	 1.131847e+00	 6.617670e-01	 7.953115e+00
1	 1.119664e+00	 6.821769e-01	 5.616030e+00
1	 1.107085e+00	 7.024061e-01	 3.215580e+00
1	 1.094115e+00	 7.224435e-01	 7.491409e-01
1	 1.080757e+00	 7.422778e-01	-1.785774e+00
1	 1.153322e+00	 6.466218e-01	 9.815382e+00
1	 1.141439e+00	 6.673752e-01	 7.480470e+00
1	 1.129153e+00	 6.879580e-01	 5.082183e+00
1	 1.116467e+00	 7.083587e-01	 2.618314e+00
1	 1.103387e+00	 7.285659e-01	 8.679091e-02
1	 1.089916e+00	 7.485683e-01	-2.514312e+00
1	 1.163014e+00	 6.520556e-01	 9.387443e+00
1	 1.151030e+00	 6.729834e-01	 6.998685e+00
1	 1.138641e+00	 6.937392e-01	 4.543844e+00
1	 1.125850e+00	 7.143113e-01	 2.021243e+00
1	 1.112659e+00	 7.346883e-01	-5.706460e-01
1	 1.099075e+00	 7.548588e-01	-3.233195e+00
1	 1.053280e+00	 7.234064e-01	 4.602888e-01
1	 1.039889e+00	 7.425276e-01	-1.222418e+00
1	 1.026129e+00	 7.614295e-01	-2.915576e+00
1	 1.012007e+00	 7.801014e-01	-4.616320e+00
1	 9.975274e-01	 7.985331e-01	-6.321780e+00
1	 9.826972e-01	 8.167143e-01	-8.029083e+00
1	 1.062439e+00	 7.296968e-01	-2.987342e-01
1	 1.048931e+00	 7.489844e-01	-2.004334e+00
1	 1.035052e+00	 7.680506e-01	-3.717762e+00
1	 1.020807e+00	 7.868849e-01	-5.436204e+00
1	 1.006202e+00	 8.054769e-01	-7.156847e+00
1	 9.912424e-01	 8.238162e-01	-8.876887e+00
1	 1.071598e+00	 7.359873e-01	-1.047333e+00
1	 1.057974e+00	 7.554412e-01	-2.776547e+00
1	 1.043975e+00	 7.746717e-01	-4.511008e+00
1	 1.029607e+00	 7.936684e-01	-6.247954e+00
1	 1.014876e+00	 8.124206e-01	-7.984630e+00
1	 9.997876e-01	 8.309181e-01	-9.718298e+00
1	 1.080757e+00	 7.422778e-01	-1.785774e+00
1	 1.067016e+00	 7.618979e-01	-3.539301e+00
1	 1.052898e+00	 7.812929e-01	-5.295540e+00
1	 1.038407e+00	 8.004519e-01	-7.051777e+00
1	 1.023550e+00	 8.193644e-01	-8.805314e+00
1	 1.008333e+00	 8.380199e-01	-1.055348e+01
1	 1.089916e+00	 7.485683e-01	-2.514312e+00
1	 1.076059e+00	 7.683547e-01	-4.292837e+00
1	 1.061821e+00	 7.879140e-01	-6.071580e+00
1	 1.047207e+00	 8.072354e-01	-7.847874e+00
1	 1.032224e+00	 8.263082e-01	-9.619079e+00
1	 1.016878e+00	 8.451218e-01	-1.138259e+01
1	 1.099075e+00	 7.548588e-01	-3.233195e+00
1	 1.085101e+00	 7.748114e-01	-5.037384e+00
1	 1.070744e+00	 7.945351e-01	-6.839338e+00
1	 1.056007e+00	 8.140189e-01	-8.636438e+00
1	 1.040898e+00	 8.332519e-01	-1.042610e+01
1	 1.025423e+00	 8.522237e-01	-1.220577e+01
1	 9.826972e-01	 8.167143e-01	-8.029083e+00
1	 9.675226e-01	 8.346352e-01	-8.783060e+00
1	 9.520107e-01	 8.522861e-01	-9.524318e+00
1	 9.361687e-01	 8.696575e-01	-1.024805e+01
1	 9.200043e-01	 8.867402e-01	-1.094952e+01
1	 9.035253e-01	 9.035253e-01	-1.162411e+01
1	 9.912424e-01	 8.238162e-01	-8.876887e+00
1	 9.759359e-01	 8.418929e-01	-9.623835e+00
1	 9.602891e-01	 8.596973e-01	-1.036246e+01
1	 9.443093e-01	 8.772197e-01	-1.108823e+01
1	 9.280043e-01	 8.944510e-01	-1.179665e+01
1	 9.113821e-01	 9.113821e-01	-1.248334e+01
1	 9.997876e-01	 8.309181e-01	-9.718298e+00
1	 9.843491e-01	 8.491506e-01	-1.046075e+01
1	 9.685674e-01	 8.671085e-01	-1.119921e+01
1	 9.524499e-01	 8.847820e-01	-1.192939e+01
1	 9.360043e-01	 9.021618e-01	-1.264706e+01
1	 9.192388e-01	 9.192388e-01	-1.334806e+01
1	 1.008333e+00	 8.380199e-01	-1.055348e+01
1	 9.927624e-01	 8.564083e-01	-1.129390e+01
1	 9.768458e-01	 8.745197e-01	-1.203458e+01
1	 9.605905e-01	 8.923442e-01	-1.277150e+01
1	 9.440044e-01	 9.098726e-01	-1.350067e+01
1	 9.270956e-01	 9.270956e-01	-1.421814e+01
1	 1.016878e+00	 8.451218e-01	-1.138259e+01
1	 1.001176e+00	 8.636660e-01	-1.212339e+01
1	 9.851241e-01	 8.819309e-01	-1.286863e+01
1	 9.687311e-01	 8.999065e-01	-1.361455e+01
1	 9.520044e-01	 9.175833e-01	-1.435739e+01
1	 9.349523e-01	 9.349523e-01	-1.509344e+01
1	 1.025423e+00	 8.522237e-01	-1.220577e+01
1	 1.009589e+00	 8.709237e-01	-1.294930e+01
1	 9.934025e-01	 8.893420e-01	-1.370138e+01
1	 9.768717e-01	 9.074687e-01	-1.445850e+01
1	 9.600045e-01	 9.252941e-01	-1.521714e+01
1	 9.428090e-01	 9.428090e-01	-1.597383e+01
1	 9.035253e-01	 9.035253e-01	-1.162411e+01
1	 8.867402e-01	 9.200043e-01	-1.247130e+01
1	 8.696575e-01	 9.361687e-01	-1.329382e+01
1	 8.522861e-01	 9.520107e-01	-1.408792e+01
1	 8.346352e-01	 9.675226e-01	-1.484995e+01
1	 8.167143e-01	 9.826972e-01	-1.557639e+01
1	 9.113821e-01	 9.113821e-01	-1.248334e+01
1	 8.944510e-01	 9.280043e-01	-1.335026e+01
1	 8.772197e-01	 9.443093e-01	-1.419287e+01
1	 8.596973e-01	 9.602891e-01	-1.500740e+01
1	 8.418929e-01	 9.759359e-01	-1.579016e+01
1	 8.238162e-01	 9.912424e-01	-1.653761e+01
1	 9.192388e-01	 9.192388e-01	-1.334806e+01
1	 9.021618e-01	 9.360043e-01	-1.423480e+01
1	 8.847820e-01	 9.524499e-01	-1.509759e+01
1	 8.671085e-01	 9.685674e-01	-1.593264e+01
1	 8.491506e-01	 9.843491e-01	-1.673622e+01
1	 8.309181e-01	 9.997876e-01	-1.750476e+01
1	 9.270956e-01	 9.270956e-01	-1.421814e+01
1	 9.098726e-01	 9.440044e-01	-1.512479e+01
1	 8.923442e-01	 9.605905e-01	-1.600785e+01
1	 8.745197e-01	 9.768458e-01	-1.686349e+01
1	 8.564083e-01	 9.927624e-01	-1.768798e+01
1	 8.380199e-01	 1.008333e+00	-1.847768e+01
1	 9.349523e-01	 9.349523e-01	-1.509344e+01
1	 9.175833e-01	 9.520044e-01	-1.602009e+01
1	 8.999065e-01	 9.687311e-01	-1.692351e+01
1	 8.819309e-01	 9.851241e-01	-1.779983e+01
1	 8.636660e-01	 1.001176e+00	-1.864529e+01
1	 8.451218e-01	 1.016878e+00	-1.945624e+01
1	 9.428090e-01	 9.428090e-01	-1.597383e+01
1	 9.252941e-01	 9.600045e-01	-1.692056e+01
1	 9.074687e-01	 9.768717e-01	-1.784442e+01
1	 8.893420e-01	 9.934025e-01	-1.874150e+01
1	 8.709237e-01	 1.009589e+00	-1.960801e+01
1	 8.522237e-01	 1.025423e+00	-2.044029e+01
1	 8.167143e-01	 9.826972e-01	-1.557639e+01
1	 7.985331e-01	 9.975274e-01	-1.736822e+01
1	 7.801014e-01	 1.012007e+00	-1.919000e+01
1	 7.614295e-01	 1.026129e+00	-2.104138e+01
1	 7.425276e-01	 1.039889e+00	-2.292188e+01
1	 7.234064e-01	 1.053280e+00	-2.483089e+01
1	 8.238162e-01	 9.912424e-01	-1.653761e+01
1	 8.054769e-01	 1.006202e+00	-1.839190e+01
1	 7.868849e-01	 1.020807e+00	-2.028723e+01
1	 7.680506e-01	 1.035052e+00	-2.222370e+01
1	 7.489844e-01	 1.048931e+00	-2.420121e+01
1	 7.296968e-01	 1.062439e+00	-2.621948e+01
1	 8.309181e-01	 9.997876e-01	-1.750476e+01
1	 8.124206e-01	 1.014876e+00	-1.942587e+01
1	 7.936684e-01	 1.029607e+00	-2.139894e+01
1	 7.746717e-01	 1.043975e+00	-2.342448e+01
1	 7.554412e-01	 1.057974e+00	-2.550277e+01
1	 7.359873e-01	 1.071598e+00	-2.763390e+01
1	 8.380199e-01	 1.008333e+00	-1.847768e+01
1	 8.193644e-01	 1.023550e+00	-2.046988e+01
1	 8.004519e-01	 1.038407e+00	-2.252477e+01
1	 7.812929e-01	 1.052898e+00	-2.464326e+01
1	 7.618979e-01	 1.067016e+00	-2.682603e+01
1	 7.422778e-01	 1.080757e+00	-2.907348e+01
1	 8.451218e-01	 1.016878e+00	-1.945624e+01
1	 8.263082e-01	 1.032224e+00	-2.152368e+01
1	 8.072354e-01	 1.047207e+00	-2.366435e+01
1	 7.879140e-01	 1.061821e+00	-2.587958e+01
1	 7.683547e-01	 1.076059e+00	-2.817041e+01
1	 7.485683e-01	 1.089916e+00	-3.053760e+01
1	 8.522237e-01	 1.025423e+00	-2.044029e+01
1	 8.332519e-01	 1.040898e+00	-2.258702e+01
1	 8.140189e-01	 1.056007e+00	-2.481735e+01
1	 7.945351e-01	 1.070744e+00	-2.713301e+01
1	 7.748114e-01	 1.085101e+00	-2.953541e+01
1	 7.548588e-01	 1.099075e+00	-3.202563e+01
1	 7.234064e-01	 1.053280e+00	-2.483089e+01
1	 7.040763e-01	 1.066299e+00	-2.749140e+01
1	 6.845484e-01	 1.078939e+00	-3.032197e+01
1	 6.648334e-01	 1.091198e+00	-3.332688e+01
1	 6.449424e-01	 1.103071e+00	-3.650977e+01
1	 6.248866e-01	 1.114555e+00	-3.987359e+01
1	 7.296968e-01	 1.062439e+00	-2.621948e+01
1	 7.101987e-01	 1.075571e+00	-2.903236e+01
1	 6.905010e-01	 1.088321e+00	-3.198061e+01
1	 6.706145e-01	 1.100686e+00	-3.506738e+01
1	 6.505506e-01	 1.112663e+00	-3.829530e+01
1	 6.303204e-01	 1.124247e+00	-4.166641e+01
1	 7.359873e-01	 1.071598e+00	-2.763390e+01
1	 7.163211e-01	 1.084843e+00	-3.058709e+01
1	 6.964535e-01	 1.097703e+00	-3.364158e+01
1	 6.763957e-01	 1.110175e+00	-3.679941e+01
1	 6.561588e-01	 1.122255e+00	-4.006218e+01
1	 6.357542e-01	 1.133939e+00	-4.343106e+01
1	 7.422778e-01	 1.080757e+00	-2.907348e+01
1	 7.224435e-01	 1.094115e+00	-3.215524e+01
1	 7.024061e-01	 1.107085e+00	-3.530483e+01
1	 6.821769e-01	 1.119664e+00	-3.852317e+01
1	 6.617670e-01	 1.131847e+00	-4.181088e+01
1	 6.411880e-01	 1.143630e+00	-4.516826e+01
1	 7.485683e-01	 1.089916e+00	-3.053760e+01
1	 7.285659e-01	 1.103387e+00	-3.373647e+01
1	 7.083587e-01	 1.116467e+00	-3.697029e+01
1	 6.879580e-01	 1.129153e+00	-4.023887e+01
1	 6.673752e-01	 1.141439e+00	-4.354187e+01
1	 6.466218e-01	 1.153322e+00	-4.687870e+01
1	 7.548588e-01	 1.099075e+00	-3.202563e+01
1	 7.346883e-01	 1.112659e+00	-3.533046e+01
1	 7.143113e-01	 1.125850e+00	-3.863790e+01
1	 6.937392e-01	 1.138641e+00	-4.194672e+01
1	 6.729834e-01	 1.151030e+00	-4.525558e+01
1	 6.520556e-01	 1.163014e+00	-4.856305e+01
1	 6.248866e-01	 1.114555e+00	-3.987359e+01
1	 6.046770e-01	 1.125647e+00	-4.278567e+01
1	 5.843250e-01	 1.136345e+00	-4.557938e+01
1	 5.638417e-01	 1.146647e+00	-4.824969e+01
1	 5.432384e-01	 1.156550e+00	-5.079192e+01
1	 5.225263e-01	 1.166054e+00	-5.320179e+01
1	 6.303204e-01	 1.124247e+00	-4.166641e+01
1	 6.099351e-01	 1.135435e+00	-4.448892e+01
1	 5.894061e-01	 1.146226e+00	-4.720183e+01
1	 5.687447e-01	 1.156618e+00	-4.980054e+01
1	 5.479622e-01	 1.166607e+00	-5.228079e+01
1	 5.270700e-01	 1.176194e+00	-5.463870e+01
1	 6.357542e-01	 1.133939e+00	-4.343106e+01
1	 6.151932e-01	 1.145224e+00	-4.616877e+01
1	 5.944872e-01	 1.156108e+00	-4.880547e+01
1	 5.736477e-01	 1.166588e+00	-5.133700e+01
1	 5.526860e-01	 1.176664e+00	-5.375951e+01
1	 5.316137e-01	 1.186333e+00	-5.606950e+01
1	 6.411880e-01	 1.143630e+00	-4.516826e+01
1	 6.204512e-01	 1.155012e+00	-4.782583e+01
1	 5.995683e-01	 1.165989e+00	-5.039079e+01
1	 5.785506e-01	 1.176559e+00	-5.285944e+01
1	 5.574098e-01	 1.186721e+00	-5.522833e+01
1	 5.361574e-01	 1.196473e+00	-5.749433e+01
1	 6.466218e-01	 1.153322e+00	-4.687870e+01
1	 6.257093e-01	 1.164800e+00	-4.946066e+01
1	 6.046494e-01	 1.175870e+00	-5.195826e+01
1	 5.834536e-01	 1.186530e+00	-5.436822e+01
1	 5.621336e-01	 1.196778e+00	-5.668751e+01
1	 5.407011e-01	 1.206613e+00	-5.891335e+01
1	 6.520556e-01	 1.163014e+00	-4.856305e+01
1	 6.309674e-01	 1.174588e+00	-5.107381e+01
1	 6.097304e-01	 1.185751e+00	-5.350831e+01
1	 5.883566e-01	 1.196501e+00	-5.586367e+01
1	 5.668575e-01	 1.206835e+00	-5.813727e+01
1	 5.452448e-01	 1.216752e+00	-6.032670e+01
1	 5.225263e-01	 1.166054e+00	-5.320179e+01
1	 5.017165e-01	 1.175158e+00	-5.465161e+01
1	 4.808203e-01	 1.183861e+00	-5.594267e+01
1	 4.598487e-01	 1.192164e+00	-5.707184e+01
1	 4.388127e-01	 1.200066e+00	-5.803653e+01
1	 4.177231e-01	 1.207569e+00	-5.883467e+01
1	 5.270700e-01	 1.176194e+00	-5.463870e+01
1	 5.060793e-01	 1.185377e+00	-5.603470e+01
1	 4.850014e-01	 1.194156e+00	-5.727607e+01
1	 4.638474e-01	 1.202531e+00	-5.835971e+01
1	 4.426284e-01	 1.210502e+00	-5.928299e+01
1	 4.213555e-01	 1.218070e+00	-6.004384e+01
1	 5.316137e-01	 1.186333e+00	-5.606950e+01
1	 5.104420e-01	 1.195596e+00	-5.741224e+01
1	 4.891824e-01	 1.204450e+00	-5.860443e+01
1	 4.678461e-01	 1.212897e+00	-5.964294e+01
1	 4.464442e-01	 1.220937e+00	-6.052517e+01
1	 4.249879e-01	 1.228570e+00	-6.124898e+01
1	 5.361574e-01	 1.196473e+00	-5.749433e+01
1	 5.148048e-01	 1.205814e+00	-5.878438e+01
1	 4.933634e-01	 1.214745e+00	-5.992787e+01
1	 4.718447e-01	 1.223264e+00	-6.092167e+01
1	 4.502600e-01	 1.231373e+00	-6.176316e+01
1	 4.286202e-01	 1.239071e+00	-6.245021e+01
1	 5.407011e-01	 1.206613e+00	-5.891335e+01
1	 5.191675e-01	 1.216033e+00	-6.015126e+01
1	 4.975445e-01	 1.225039e+00	-6.124651e+01
1	 4.758434e-01	 1.233631e+00	-6.219600e+01
1	 4.540757e-01	 1.241808e+00	-6.299708e+01
1	 4.322526e-01	 1.249572e+00	-6.364761e+01
1	 5.452448e-01	 1.216752e+00	-6.032670e+01
1	 5.235303e-01	 1.226252e+00	-6.151299e+01
1	 5.017255e-01	 1.235334e+00	-6.256048e+01
1	 4.798421e-01	 1.243997e+00	-6.346604e+01
1	 4.578915e-01	 1.252243e+00	-6.422703e+01
1	 4.358850e-01	 1.260072e+00	-6.484129e+01
1	 4.177231e-01	 1.207569e+00	-5.883467e+01
1	 3.965908e-01	 1.214674e+00	-5.886924e+01
1	 3.754264e-01	 1.221381e+00	-5.863245e+01
1	 3.542403e-01	 1.227693e+00	-5.812331e+01
1	 3.330430e-01	 1.233612e+00	-5.734169e+01
1	 3.118445e-01	 1.239140e+00	-5.628827e+01
1	 4.213555e-01	 1.218070e+00	-6.004384e+01
1	 4.000394e-01	 1.225236e+00	-6.002591e+01
1	 3.786909e-01	 1.232002e+00	-5.974634e+01
1	 3.573207e-01	 1.238368e+00	-5.920424e+01
1	 3.359390e-01	 1.244339e+00	-5.839952e+01
1	 3.145562e-01	 1.249916e+00	-5.733291e+01
1	 4.249879e-01	 1.228570e+00	-6.124898e+01
1	 4.034880e-01	 1.235798e+00	-6.118089e+01
1	 3.819555e-01	 1.242622e+00	-6.086071e+01
1	 3.604010e-01	 1.249044e+00	-6.028762e+01
1	 3.388350e-01	 1.255066e+00	-5.946161e+01
1	 3.172679e-01	 1.260691e+00	-5.838344e+01
1	 4.286202e-01	 1.239071e+00	-6.245021e+01
1	 4.069366e-01	 1.246361e+00	-6.233424e+01
1	 3.852201e-01	 1.253243e+00	-6.197554e+01
1	 3.634814e-01	 1.259720e+00	-6.137340e+01
1	 3.417311e-01	 1.265793e+00	-6.052785e+01
1	 3.199796e-01	 1.271466e+00	-5.943969e+01
1	 4.322526e-01	 1.249572e+00	-6.364761e+01
1	 4.103853e-01	 1.256923e+00	-6.348598e+01
1	 3.884847e-01	 1.263864e+00	-6.309083e+01
1	 3.665617e-01	 1.270395e+00	-6.246152e+01
1	 3.446271e-01	 1.276520e+00	-6.159814e+01
1	 3.226913e-01	 1.282241e+00	-6.050153e+01
1	 4.358850e-01	 1.260072e+00	-6.484129e+01
1	 4.138339e-01	 1.267485e+00	-6.463617e+01
1	 3.917493e-01	 1.274484e+00	-6.420656e+01
1	 3.696421e-01	 1.281071e+00	-6.355191e+01
1	 3.475231e-01	 1.287247e+00	-6.267237e+01
1	 3.254030e-01	 1.293016e+00	-6.156881e+01
1	 3.118445e-01	 1.239140e+00	-5.628827e+01
1	 2.906549e-01	 1.244281e+00	-5.508204e+01
1	 2.694840e-01	 1.249037e+00	-5.365490e+01
1	 2.483412e-01	 1.253412e+00	-5.200901e+01
1	 2.272361e-01	 1.257410e+00	-5.014709e+01
1	 2.061777e-01	 1.261034e+00	-4.807241e+01
1	 3.145562e-01	 1.249916e+00	-5.733291e+01
1	 2.931823e-01	 1.255101e+00	-5.612077e+01
1	 2.718273e-01	 1.259899e+00	-5.469090e+01
1	 2.505007e-01	 1.264312e+00	-5.304544e+01
1	 2.292121e-01	 1.268344e+00	-5.118709e+01
1	 2.079705e-01	 1.272000e+00	-4.911910e+01
1	 3.172679e-01	 1.260691e+00	-5.838344e+01
1	 2.957098e-01	 1.265921e+00	-5.716586e+01
1	 2.741706e-01	 1.270760e+00	-5.573368e+01
1	 2.526602e-01	 1.275211e+00	-5.408901e+01
1	 2.311880e-01	 1.279278e+00	-5.223454e+01
1	 2.097634e-01	 1.282965e+00	-5.017348e+01
1	 3.199796e-01	 1.271466e+00	-5.943969e+01
1	 2.982372e-01	 1.276741e+00	-5.821715e+01
1	 2.765140e-01	 1.281621e+00	-5.678306e+01
1	 2.548197e-01	 1.286110e+00	-5.513954e+01
1	 2.331640e-01	 1.290212e+00	-5.328924e+01
1	 2.115562e-01	 1.293931e+00	-5.123536e+01
1	 3.226913e-01	 1.282241e+00	-6.050153e+01
1	 3.007647e-01	 1.287561e+00	-5.927448e+01
1	 2.788573e-01	 1.292482e+00	-5.783889e+01
1	 2.569792e-01	 1.297009e+00	-5.619686e+01
1	 2.351400e-01	 1.301146e+00	-5.435102e+01
1	 2.133491e-01	 1.304896e+00	-5.230453e+01
1	 3.254030e-01	 1.293016e+00	-6.156881e+01
1	 3.032921e-01	 1.298380e+00	-6.033770e+01
1	 2.812007e-01	 1.303343e+00	-5.890100e+01
1	 2.591387e-01	 1.307909e+00	-5.726080e+01
1	 2.371159e-01	 1.312080e+00	-5.541969e+01
1	 2.151419e-01	 1.315862e+00	-5.338083e+01
1	 2.061777e-01	 1.261034e+00	-4.807241e+01
1	 1.851749e-01	 1.264289e+00	-4.603970e+01
1	 1.642364e-01	 1.267179e+00	-4.393209e+01
1	 1.433707e-01	 1.269709e+00	-4.175224e+01
1	 1.225858e-01	 1.271884e+00	-3.950293e+01
1	 1.018898e-01	 1.273709e+00	-3.718704e+01
1	 2.079705e-01	 1.272000e+00	-4.911910e+01
1	 1.867851e-01	 1.275283e+00	-4.710266e+01
1	 1.656646e-01	 1.278198e+00	-4.501415e+01
1	 1.446174e-01	 1.280750e+00	-4.285622e+01
1	 1.236518e-01	 1.282944e+00	-4.063156e+01
1	 1.027758e-01	 1.284785e+00	-3.834299e+01
1	 2.097634e-01	 1.282965e+00	-5.017348e+01
1	 1.883953e-01	 1.286276e+00	-4.817337e+01
1	 1.670927e-01	 1.289217e+00	-4.610400e+01
1	 1.458641e-01	 1.291791e+00	-4.396793e+01
1	 1.247178e-01	 1.294004e+00	-4.176784e+01
1	 1.036618e-01	 1.295860e+00	-3.950647e+01
1	 2.115562e-01	 1.293931e+00	-5.123536e+01
1	 1.900056e-01	 1.297270e+00	-4.925165e+01
1	 1.685209e-01	 1.300236e+00	-4.720143e+01
1	 1.471108e-01	 1.302832e+00	-4.508720e+01
1	 1.257837e-01	 1.305064e+00	-4.291159e+01
1	 1.045478e-01	 1.306936e+00	-4.067728e+01
1	 2.133491e-01	 1.304896e+00	-5.230453e+01
1	 1.916158e-01	 1.308264e+00	-5.033730e+01
1	 1.699490e-01	 1.311255e+00	-4.830624e+01
1	 1.483575e-01	 1.313873e+00	-4.621383e+01
1	 1.268497e-01	 1.316123e+00	-4.406262e+01
1	 1.054338e-01	 1.318012e+00	-4.185524e+01
1	 2.151419e-01	 1.315862e+00	-5.338083e+01
1	 1.932260e-01	 1.319258e+00	-5.143014e+01
1	 1.713771e-01	 1.322274e+00	-4.941827e+01
1	 1.496042e-01	 1.324914e+00	-4.734763e+01
1	 1.279157e-01	 1.327183e+00	-4.522074e+01
1	 1.063198e-01	 1.329088e+00	-4.304017e+01
1	 1.018898e-01	 1.273709e+00	-3.718704e+01
1	 8.129021e-02	 1.275189e+00	-3.492950e+01
1	 6.079446e-02	 1.276331e+00	-3.270843e+01
1	 4.040965e-02	 1.277139e+00	-3.052452e+01
1	 2.014264e-02	 1.277619e+00	-2.837832e+01
1	 0.000000e+00	 1.277778e+00	-2.627025e+01
1	 1.027758e-01	 1.284785e+00	-3.834299e+01
1	 8.199708e-02	 1.286278e+00	-3.610978e+01
1	 6.132310e-02	 1.287429e+00	-3.391043e+01
1	 4.076104e-02	 1.288244e+00	-3.174566e+01
1	 2.031780e-02	 1.288729e+00	-2.961603e+01
1	 0.000000e+00	 1.288889e+00	-2.752195e+01
1	 1.036618e-01	 1.295860e+00	-3.950647e+01
1	 8.270395e-02	 1.297367e+00	-3.729714e+01
1	 6.185175e-02	 1.298528e+00	-3.511913e+01
1	 4.111243e-02	 1.299350e+00	-3.297315e+01
1	 2.049295e-02	 1.299838e+00	-3.085976e+01
1	 0.000000e+00	 1.300000e+00	-2.877941e+01
1	 1.045478e-01	 1.306936e+00	-4.067728e+01
1	 8.341082e-02	 1.308455e+00	-3.849142e+01
1	 6.238040e-02	 1.309626e+00	-3.633436e+01
1	 4.146382e-02	 1.310455e+00	-3.420682e+01
1	 2.066811e-02	 1.310948e+00	-3.210937e+01
1	 0.000000e+00	 1.311111e+00	-3.004249e+01
1	 1.054338e-01	 1.318012e+00	-4.185524e+01
1	 8.411770e-02	 1.319544e+00	-3.969243e+01
1	 6.290905e-02	 1.320725e+00	-3.755595e+01
1	 4.181521e-02	 1.321561e+00	-3.544651e+01
1	 2.084326e-02	 1.322058e+00	-3.336472e+01
1	 0.000000e+00	 1.322222e+00	-3.131103e+01
1	 1.063198e-01	 1.329088e+00	-4.304017e+01
1	 8.482457e-02	 1.330632e+00	-4.090001e+01
1	 6.343769e-02	 1.331823e+00	-3.878374e+01
1	 4.216660e-02	 1.332666e+00	-3.669208e+01
1	 2.101841e-02	 1.333168e+00	-3.462565e+01
1	 0.000000e+00	 1.333333e+00	-3.258491e+01
1	 1.333333e+00	 0.000000e+00	 1.618495e+01
1	 1.333168e+00	 2.101841e-02	 1.673886e+01
1	 1.332666e+00	 4.216660e-02	 1.726546e+01
1	 1.331823e+00	 6.343769e-02	 1.776470e+01
1	 1.330632e+00	 8.482457e-02	 1.823653e+01
1	 1.329088e+00	 1.063198e-01	 1.868095e+01
1	 1.344444e+00	 0.000000e+00	 1.591309e+01
1	 1.344277e+00	 2.119357e-02	 1.646165e+01
1	 1.343772e+00	 4.251798e-02	 1.698251e+01
1	 1.342922e+00	 6.396634e-02	 1.747555e+01
1	 1.341721e+00	 8.553144e-02	 1.794071e+01
1	 1.340163e+00	 1.072058e-01	 1.837792e+01
1	 1.355556e+00	 0.000000e+00	 1.565771e+01
1	 1.355387e+00	 2.136872e-02	 1.620047e+01
1	 1.354878e+00	 4.286937e-02	 1.671514e+01
1	 1.354020e+00	 6.449499e-02	 1.720155e+01
1	 1.352810e+00	 8.623831e-02	 1.765959e+01
1	 1.351239e+00	 1.080918e-01	 1.808917e+01
1	 1.366667e+00	 0.000000e+00	 1.541840e+01
1	 1.366497e+00	 2.154387e-02	 1.595493e+01
1	 1.365983e+00	 4.322076e-02	 1.646296e+01
1	 1.365119e+00	 6.502364e-02	 1.694231e+01
1	 1.363898e+00	 8.694518e-02	 1.739281e+01
1	 1.362315e+00	 1.089778e-01	 1.781435e+01
1	 1.377778e+00	 0.000000e+00	 1.519478e+01
1	 1.377607e+00	 2.171903e-02	 1.572464e+01
1	 1.377089e+00	 4.357215e-02	 1.622562e+01
1	 1.376217e+00	 6.555228e-02	 1.669748e+01
1	 1.374987e+00	 8.765205e-02	 1.714004e+01
1	 1.373391e+00	 1.098638e-01	 1.755312e+01
1	 1.388889e+00	 0.000000e+00	 1.498647e+01
1	 1.388716e+00	 2.189418e-02	 1.550924e+01
1	 1.388194e+00	 4.392354e-02	 1.600275e+01
1	 1.387316e+00	 6.608093e-02	 1.646673e+01
1	 1.386075e+00	 8.835892e-02	 1.690093e+01
1	 1.384466e+00	 1.107498e-01	 1.730515e+01
1	 1.329088e+00	 1.063198e-01	 1.868095e+01
1	 1.327183e+00	 1.279157e-01	 1.916152e+01
1	 1.324914e+00	 1.496042e-01	 1.959654e+01
1	 1.322274e+00	 1.713771e-01	 1.998511e+01
1	 1.319258e+00	 1.932260e-01	 2.032639e+01
1	 1.315862e+00	 2.151419e-01	 2.061964e+01
1	 1.340163e+00	 1.072058e-01	 1.837792e+01
1	 1.338243e+00	 1.289816e-01	 1.884378e+01
1	 1.335955e+00	 1.508509e-01	 1.926502e+01
1	 1.333293e+00	 1.728053e-01	 1.964070e+01
1	 1.330252e+00	 1.948362e-01	 1.996995e+01
1	 1.326827e+00	 2.169348e-01	 2.025196e+01
1	 1.351239e+00	 1.080918e-01	 1.808917e+01
1	 1.349303e+00	 1.300476e-01	 1.853965e+01
1	 1.346996e+00	 1.520976e-01	 1.894643e+01
1	 1.344312e+00	 1.742334e-01	 1.930853e+01
1	 1.341246e+00	 1.964464e-01	 1.962503e+01
1	 1.337793e+00	 2.187276e-01	 1.989507e+01
1	 1.362315e+00	 1.089778e-01	 1.781435e+01
1	 1.360363e+00	 1.311136e-01	 1.824880e+01
1	 1.358037e+00	 1.533443e-01	 1.864046e+01
1	 1.355331e+00	 1.756616e-01	 1.898831e+01
1	 1.352239e+00	 1.980566e-01	 1.929136e+01
1	 1.348758e+00	 2.205205e-01	 1.954871e+01
1	 1.373391e+00	 1.098638e-01	 1.755312e+01
1	 1.371423e+00	 1.321795e-01	 1.797092e+01
1	 1.369078e+00	 1.545910e-01	 1.834682e+01
1	 1.366349e+00	 1.770897e-01	 1.867974e+01
1	 1.363233e+00	 1.996669e-01	 1.896866e+01
1	 1.359724e+00	 2.223133e-01	 1.921263e+01
1	 1.384466e+00	 1.107498e-01	 1.730515e+01
1	 1.382483e+00	 1.332455e-01	 1.770570e+01
1	 1.380118e+00	 1.558377e-01	 1.806520e+01
1	 1.377368e+00	 1.785179e-01	 1.838254e+01
1	 1.374227e+00	 2.012771e-01	 1.865667e+01
1	 1.370689e+00	 2.241062e-01	 1.888657e+01
1	 1.315862e+00	 2.151419e-01	 2.061964e+01
1	 1.312080e+00	 2.371159e-01	 2.099593e+01
1	 1.307909e+00	 2.591387e-01	 2.129705e+01
1	 1.303343e+00	 2.812007e-01	 2.152197e+01
1	 1.298380e+00	 3.032921e-01	 2.166981e+01
1	 1.293016e+00	 3.254030e-01	 2.173987e+01
1	 1.326827e+00	 2.169348e-01	 2.025196e+01
1	 1.323014e+00	 2.390919e-01	 2.061611e+01
1	 1.318808e+00	 2.612982e-01	 2.090592e+01
1	 1.314205e+00	 2.835440e-01	 2.112022e+01
1	 1.309200e+00	 3.058195e-01	 2.125801e+01
1	 1.303791e+00	 3.281147e-01	 2.131841e+01
1	 1.337793e+00	 2.187276e-01	 1.989507e+01
1	 1.333948e+00	 2.410678e-01	 2.024554e+01
1	 1.329707e+00	 2.634577e-01	 2.052250e+01
1	 1.325066e+00	 2.858873e-01	 2.072462e+01
1	 1.320020e+00	 3.083470e-01	 2.085075e+01
1	 1.314566e+00	 3.308264e-01	 2.089988e+01
1	 1.348758e+00	 2.205205e-01	 1.954871e+01
1	 1.344882e+00	 2.430438e-01	 1.988402e+01
1	 1.340606e+00	 2.656171e-01	 2.014659e+01
1	 1.335927e+00	 2.882307e-01	 2.033500e+01
1	 1.330840e+00	 3.108744e-01	 2.044792e+01
1	 1.325342e+00	 3.335380e-01	 2.048420e+01
1	 1.359724e+00	 2.223133e-01	 1.921263e+01
1	 1.355816e+00	 2.450198e-01	 1.953131e+01
1	 1.351506e+00	 2.677766e-01	 1.977803e+01
1	 1.346788e+00	 2.905740e-01	 1.995121e+01
1	 1.341660e+00	 3.134018e-01	 2.004940e+01
1	 1.336117e+00	 3.362497e-01	 2.007130e+01
1	 1.370689e+00	 2.241062e-01	 1.888657e+01
1	 1.366750e+00	 2.469957e-01	 1.918721e+01
1	 1.362405e+00	 2.699361e-01	 1.941663e+01
1	 1.357649e+00	 2.929173e-01	 1.957313e+01
1	 1.352480e+00	 3.159293e-01	 1.965511e+01
1	 1.346892e+00	 3.389614e-01	 1.966112e+01
1	 1.293016e+00	 3.254030e-01	 2.173987e+01
1	 1.287247e+00	 3.475231e-01	 2.185243e+01
1	 1.281071e+00	 3.696421e-01	 2.187816e+01
1	 1.274484e+00	 3.917493e-01	 2.181630e+01
1	 1.267485e+00	 4.138339e-01	 2.166629e+01
1	 1.260072e+00	 4.358850e-01	 2.142778e+01
1	 1.303791e+00	 3.281147e-01	 2.131841e+01
1	 1.297974e+00	 3.504191e-01	 2.141844e+01
1	 1.291746e+00	 3.727224e-01	 2.143322e+01
1	 1.285105e+00	 3.950138e-01	 2.136190e+01
1	 1.278048e+00	 4.172825e-01	 2.120385e+01
1	 1.270573e+00	 4.395174e-01	 2.095864e+01
1	 1.314566e+00	 3.308264e-01	 2.089988e+01
1	 1.308701e+00	 3.533152e-01	 2.098643e+01
1	 1.302422e+00	 3.758028e-01	 2.098926e+01
1	 1.295726e+00	 3.982784e-01	 2.090747e+01
1	 1.288610e+00	 4.207311e-01	 2.074032e+01
1	 1.281073e+00	 4.431497e-01	 2.048730e+01
1	 1.325342e+00	 3.335380e-01	 2.048420e+01
1	 1.319428e+00	 3.562112e-01	 2.055634e+01
1	 1.313098e+00	 3.788831e-01	 2.054627e+01
1	 1.306346e+00	 4.015430e-01	 2.045300e+01
1	 1.299173e+00	 4.241797e-01	 2.027572e+01
1	 1.291574e+00	 4.467821e-01	 2.001383e+01
1	 1.336117e+00	 3.362497e-01	 2.007130e+01
1	 1.330155e+00	 3.591072e-01	 2.012812e+01
1	 1.323773e+00	 3.819635e-01	 2.010421e+01
1	 1.316967e+00	 4.048076e-01	 1.999849e+01
1	 1.309735e+00	 4.276283e-01	 1.981008e+01
1	 1.302075e+00	 4.504145e-01	 1.953829e+01
1	 1.346892e+00	 3.389614e-01	 1.966112e+01
1	 1.340883e+00	 3.620032e-01	 1.970174e+01
1	 1.334449e+00	 3.850438e-01	 1.966306e+01
1	 1.327588e+00	 4.080721e-01	 1.954395e+01
1	 1.320297e+00	 4.310770e-01	 1.934342e+01
1	 1.312575e+00	 4.540469e-01	 1.906071e+01
1	 1.260072e+00	 4.358850e-01	 2.142778e+01
1	 1.252243e+00	 4.578915e-01	 2.078764e+01
1	 1.243997e+00	 4.798421e-01	 2.008435e+01
1	 1.235334e+00	 5.017255e-01	 1.931942e+01
1	 1.226252e+00	 5.235303e-01	 1.849456e+01
1	 1.216752e+00	 5.452448e-01	 1.761163e+01
1	 1.270573e+00	 4.395174e-01	 2.095864e+01
1	 1.262679e+00	 4.617072e-01	 2.032091e+01
1	 1.254364e+00	 4.838408e-01	 1.962091e+01
1	 1.245628e+00	 5.059066e-01	 1.886018e+01
1	 1.236471e+00	 5.278930e-01	 1.804042e+01
1	 1.226892e+00	 5.497885e-01	 1.716352e+01
1	 1.281073e+00	 4.431497e-01	 2.048730e+01
1	 1.273114e+00	 4.655230e-01	 1.985200e+01
1	 1.264731e+00	 4.878395e-01	 1.915527e+01
1	 1.255923e+00	 5.100876e-01	 1.839868e+01
1	 1.246689e+00	 5.322558e-01	 1.758396e+01
1	 1.237031e+00	 5.543322e-01	 1.671302e+01
1	 1.291574e+00	 4.467821e-01	 2.001383e+01
1	 1.283549e+00	 4.693388e-01	 1.938095e+01
1	 1.275097e+00	 4.918382e-01	 1.868747e+01
1	 1.266217e+00	 5.142687e-01	 1.793499e+01
1	 1.256908e+00	 5.366185e-01	 1.712525e+01
1	 1.247171e+00	 5.588759e-01	 1.626017e+01
1	 1.302075e+00	 4.504145e-01	 1.953829e+01
1	 1.293985e+00	 4.731545e-01	 1.890782e+01
1	 1.285464e+00	 4.958369e-01	 1.821757e+01
1	 1.276511e+00	 5.184497e-01	 1.746915e+01
1	 1.267127e+00	 5.409813e-01	 1.666433e+01
1	 1.257311e+00	 5.634196e-01	 1.580504e+01
1	 1.312575e+00	 4.540469e-01	 1.906071e+01
1	 1.304420e+00	 4.769703e-01	 1.843266e+01
1	 1.295831e+00	 4.998355e-01	 1.774563e+01
1	 1.286806e+00	 5.226308e-01	 1.700123e+01
1	 1.277346e+00	 5.453440e-01	 1.620127e+01
1	 1.267450e+00	 5.679633e-01	 1.534769e+01
1	 1.216752e+00	 5.452448e-01	 1.761163e+01
1	 1.206835e+00	 5.668575e-01	 1.604684e+01
1	 1.196501e+00	 5.883566e-01	 1.444012e+01
1	 1.185751e+00	 6.097304e-01	 1.279332e+01
1	 1.174588e+00	 6.309674e-01	 1.110841e+01
1	 1.163014e+00	 6.520556e-01	 9.387443e+00
1	 1.226892e+00	 5.497885e-01	 1.716352e+01
1	 1.216892e+00	 5.715813e-01	 1.559644e+01
1	 1.206472e+00	 5.932595e-01	 1.398651e+01
1	 1.195633e+00	 6.148115e-01	 1.233540e+01
1	 1.184377e+00	 6.362254e-01	 1.064488e+01
1	 1.172706e+00	 6.574894e-01	 8.916834e+00
1	 1.237031e+00	 5.543322e-01	 1.671302e+01
1	 1.226949e+00	 5.763051e-01	 1.514207e+01
1	 1.216443e+00	 5.981625e-01	 1.352734e+01
1	 1.205514e+00	 6.198926e-01	 1.187034e+01
1	 1.194165e+00	 6.414835e-01	 1.017264e+01
1	 1.182397e+00	 6.629232e-01	 8.435959e+00
1	 1.247171e+00	 5.588759e-01	 1.626017e+01
1	 1.237006e+00	 5.810289e-01	 1.468381e+01
1	 1.226413e+00	 6.030655e-01	 1.306275e+01
1	 1.215395e+00	 6.249737e-01	 1.139831e+01
1	 1.203953e+00	 6.467415e-01	 9.691903e+00
1	 1.192089e+00	 6.683570e-01	 7.945068e+00
1	 1.257311e+00	 5.634196e-01	 1.580504e+01
1	 1.247063e+00	 5.857527e-01	 1.422175e+01
1	 1.236384e+00	 6.079685e-01	 1.259285e+01
1	 1.225277e+00	 6.300548e-01	 1.091948e+01
1	 1.213741e+00	 6.519996e-01	 9.202878e+00
1	 1.201781e+00	 6.737908e-01	 7.444403e+00
1	 1.267450e+00	 5.679633e-01	 1.534769e+01
1	 1.257120e+00	 5.904765e-01	 1.375600e+01
1	 1.246355e+00	 6.128714e-01	 1.211779e+01
1	 1.235158e+00	 6.351359e-01	 1.043402e+01
1	 1.223530e+00	 6.572577e-01	 8.705762e+00
1	 1.211473e+00	 6.792246e-01	 6.934199e+00
1	 1.163014e+00	 6.520556e-01	 9.387443e+00
1	 1.151030e+00	 6.729834e-01	 6.998685e+00
1	 1.138641e+00	 6.937392e-01	 4.543844e+00
1	 1.125850e+00	 7.143113e-01	 2.021243e+00
1	 1.112659e+00	 7.346883e-01	-5.706460e-01
1	 1.099075e+00	 7.548588e-01	-3.233195e+00
1	 1.172706e+00	 6.574894e-01	 8.916834e+00
1	 1.160622e+00	 6.785916e-01	 6.488627e+00
1	 1.148130e+00	 6.995203e-01	 3.996858e+00
1	 1.135232e+00	 7.202639e-01	 1.440367e+00
1	 1.121932e+00	 7.408107e-01	-1.181865e+00
1	 1.108234e+00	 7.611493e-01	-3.870701e+00
1	 1.182397e+00	 6.629232e-01	 8.435959e+00
1	 1.170214e+00	 6.841998e-01	 5.972464e+00
1	 1.157619e+00	 7.053015e-01	 3.447889e+00
1	 1.144614e+00	 7.262165e-01	 8.615791e-01
1	 1.131204e+00	 7.469331e-01	-1.786976e+00
1	 1.117393e+00	 7.674398e-01	-4.498139e+00
1	 1.192089e+00	 6.683570e-01	 7.945068e+00
1	 1.179806e+00	 6.898080e-01	 5.450345e+00
1	 1.167107e+00	 7.110827e-01	 2.896983e+00
1	 1.153996e+00	 7.321691e-01	 2.848296e-01
1	 1.140476e+00	 7.530555e-01	-2.386128e+00
1	 1.126552e+00	 7.737303e-01	-5.115756e+00
1	 1.201781e+00	 6.737908e-01	 7.444403e+00
1	 1.189398e+00	 6.954162e-01	 4.922415e+00
1	 1.176596e+00	 7.168638e-01	 2.344189e+00
1	 1.163378e+00	 7.381217e-01	-2.899313e-01
1	 1.149748e+00	 7.591779e-01	-2.979464e+00
1	 1.135711e+00	 7.800208e-01	-5.723789e+00
1	 1.211473e+00	 6.792246e-01	 6.934199e+00
1	 1.198990e+00	 7.010244e-01	 4.388812e+00
1	 1.186085e+00	 7.226450e-01	 1.789551e+00
1	 1.172760e+00	 7.440743e-01	-8.627514e-01
1	 1.159020e+00	 7.653004e-01	-3.567126e+00
1	 1.144870e+00	 7.863113e-01	-6.322467e+00
1	 1.099075e+00	 7.548588e-01	-3.233195e+00
1	 1.085101e+00	 7.748114e-01	-5.037384e+00
1	 1.070744e+00	 7.945351e-01	-6.839338e+00
1	 1.056007e+00	 8.140189e-01	-8.636438e+00
1	 1.040898e+00	 8.332519e-01	-1.042610e+01
1	 1.025423e+00	 8.522237e-01	-1.220577e+01
1	 1.108234e+00	 7.611493e-01	-3.870701e+00
1	 1.094144e+00	 7.812682e-01	-5.671318e+00
1	 1.079666e+00	 8.011563e-01	-7.474138e+00
1	 1.064807e+00	 8.208024e-01	-9.276628e+00
1	 1.049572e+00	 8.401957e-01	-1.107628e+01
1	 1.033968e+00	 8.593255e-01	-1.287060e+01
1	 1.117393e+00	 7.674398e-01	-4.498139e+00
1	 1.103186e+00	 7.877250e-01	-6.295930e+00
1	 1.088589e+00	 8.077774e-01	-8.100285e+00
1	 1.073607e+00	 8.275859e-01	-9.908760e+00
1	 1.058246e+00	 8.471394e-01	-1.171891e+01
1	 1.042514e+00	 8.664274e-01	-1.352832e+01
1	 1.126552e+00	 7.737303e-01	-5.115756e+00
1	 1.112229e+00	 7.941817e-01	-6.911445e+00
1	 1.097512e+00	 8.143985e-01	-8.717991e+00
1	 1.082407e+00	 8.343694e-01	-1.053303e+01
1	 1.066921e+00	 8.540832e-01	-1.235420e+01
1	 1.051059e+00	 8.735292e-01	-1.417913e+01
1	 1.135711e+00	 7.800208e-01	-5.723789e+00
1	 1.121271e+00	 8.006385e-01	-7.518085e+00
1	 1.106435e+00	 8.210196e-01	-9.327459e+00
1	 1.091207e+00	 8.411528e-01	-1.114963e+01
1	 1.075595e+00	 8.610270e-01	-1.298231e+01
1	 1.059604e+00	 8.806311e-01	-1.482318e+01
1	 1.144870e+00	 7.863113e-01	-6.322467e+00
1	 1.130314e+00	 8.070953e-01	-8.116062e+00
1	 1.115358e+00	 8.276408e-01	-9.928887e+00
1	 1.100007e+00	 8.479363e-01	-1.175874e+01
1	 1.084269e+00	 8.679707e-01	-1.360341e+01
1	 1.068149e+00	 8.877330e-01	-1.546063e+01
1	 1.025423e+00	 8.522237e-01	-1.220577e+01
1	 1.009589e+00	 8.709237e-01	-1.294930e+01
1	 9.934025e-01	 8.893420e-01	-1.370138e+01
1	 9.768717e-01	 9.074687e-01	-1.445850e+01
1	 9.600045e-01	 9.252941e-01	-1.521714e+01
1	 9.428090e-01	 9.428090e-01	-1.597383e+01
1	 1.033968e+00	 8.593255e-01	-1.287060e+01
1	 1.018002e+00	 8.781814e-01	-1.361724e+01
1	 1.001681e+00	 8.967532e-01	-1.437121e+01
1	 9.850123e-01	 9.150309e-01	-1.512907e+01
1	 9.680045e-01	 9.330049e-01	-1.588744e+01
1	 9.506658e-01	 9.506658e-01	-1.664292e+01
1	 1.042514e+00	 8.664274e-01	-1.352832e+01
1	 1.026415e+00	 8.854391e-01	-1.427911e+01
1	 1.009959e+00	 9.041644e-01	-1.503600e+01
1	 9.931529e-01	 9.225932e-01	-1.579568e+01
1	 9.760045e-01	 9.407157e-01	-1.655485e+01
1	 9.585225e-01	 9.585225e-01	-1.731023e+01
1	 1.051059e+00	 8.735292e-01	-1.417913e+01
1	 1.034829e+00	 8.926968e-01	-1.493505e+01
1	 1.018238e+00	 9.115756e-01	-1.569590e+01
1	 1.001294e+00	 9.301554e-01	-1.645842e+01
1	 9.840046e-01	 9.484265e-01	-1.721944e+01
1	 9.663793e-01	 9.663793e-01	-1.797578e+01
1	 1.059604e+00	 8.806311e-01	-1.482318e+01
1	 1.043242e+00	 8.999545e-01	-1.558522e+01
1	 1.026516e+00	 9.189868e-01	-1.635100e+01
1	 1.009434e+00	 9.377177e-01	-1.711739e+01
1	 9.920046e-01	 9.561373e-01	-1.788129e+01
1	 9.742360e-01	 9.742360e-01	-1.863964e+01
1	 1.068149e+00	 8.877330e-01	-1.546063e+01
1	 1.051655e+00	 9.072122e-01	-1.622974e+01
1	 1.034794e+00	 9.263980e-01	-1.700144e+01
1	 1.017575e+00	 9.452799e-01	-1.777268e+01
1	 1.000005e+00	 9.638480e-01	-1.854046e+01
1	 9.820928e-01	 9.820928e-01	-1.930182e+01
1	 9.428090e-01	 9.428090e-01	-1.597383e+01
1	 9.252941e-01	 9.600045e-01	-1.692056e+01
1	 9.074687e-01	 9.768717e-01	-1.784442e+01
1	 8.893420e-01	 9.934025e-01	-1.874150e+01
1	 8.709237e-01	 1.009589e+00	-1.960801e+01
1	 8.522237e-01	 1.025423e+00	-2.044029e+01
1	 9.506658e-01	 9.506658e-01	-1.664292e+01
1	 9.330049e-01	 9.680045e-01	-1.759069e+01
1	 9.150309e-01	 9.850123e-01	-1.852617e+01
1	 8.967532e-01	 1.001681e+00	-1.944594e+01
1	 8.781814e-01	 1.018002e+00	-2.034665e+01
1	 8.593255e-01	 1.033968e+00	-2.122503e+01
1	 9.585225e-01	 9.585225e-01	-1.731023e+01
1	 9.407157e-01	 9.760045e-01	-1.826336e+01
1	 9.225932e-01	 9.931529e-01	-1.921462e+01
1	 9.041644e-01	 1.009959e+00	-2.016107e+01
1	 8.854391e-01	 1.026415e+00	-2.109977e+01
1	 8.664274e-01	 1.042514e+00	-2.202787e+01
1	 9.663793e-01	 9.663793e-01	-1.797578e+01
1	 9.484265e-01	 9.840046e-01	-1.893851e+01
1	 9.301554e-01	 1.001294e+00	-1.990962e+01
1	 9.115756e-01	 1.018238e+00	-2.088663e+01
1	 8.926968e-01	 1.034829e+00	-2.186704e+01
1	 8.735292e-01	 1.051059e+00	-2.284838e+01
1	 9.742360e-01	 9.742360e-01	-1.863964e+01
1	 9.561373e-01	 9.920046e-01	-1.961609e+01
1	 9.377177e-01	 1.009434e+00	-2.061101e+01
1	 9.189868e-01	 1.026516e+00	-2.162237e+01
1	 8.999545e-01	 1.043242e+00	-2.264810e+01
1	 8.806311e-01	 1.059604e+00	-2.368613e+01
1	 9.820928e-01	 9.820928e-01	-1.930182e+01
1	 9.638480e-01	 1.000005e+00	-2.029603e+01
1	 9.452799e-01	 1.017575e+00	-2.131863e+01
1	 9.263980e-01	 1.034794e+00	-2.236805e+01
1	 9.072122e-01	 1.051655e+00	-2.344264e+01
1	 8.877330e-01	 1.068149e+00	-2.454070e+01
1	 8.522237e-01	 1.025423e+00	-2.044029e+01
1	 8.332519e-01	 1.040898e+00	-2.258702e+01
1	 8.140189e-01	 1.056007e+00	-2.481735e+01
1	 7.945351e-01	 1.070744e+00	-2.713301e+01
1	 7.748114e-01	 1.085101e+00	-2.953541e+01
1	 7.548588e-01	 1.099075e+00	-3.202563e+01
1	 8.593255e-01	 1.033968e+00	-2.122503e+01
1	 8.401957e-01	 1.049572e+00	-2.346774e+01
1	 8.208024e-01	 1.064807e+00	-2.578045e+01
1	 8.011563e-01	 1.079666e+00	-2.816432e+01
1	 7.812682e-01	 1.094144e+00	-3.062025e+01
1	 7.611493e-01	 1.108234e+00	-3.314882e+01
1	 8.664274e-01	 1.042514e+00	-2.202787e+01
1	 8.471394e-01	 1.058246e+00	-2.436144e+01
1	 8.275859e-01	 1.073607e+00	-2.675165e+01
1	 8.077774e-01	 1.088589e+00	-2.919910e+01
1	 7.877250e-01	 1.103186e+00	-3.170416e+01
1	 7.674398e-01	 1.117393e+00	-3.426695e+01
1	 8.735292e-01	 1.051059e+00	-2.284838e+01
1	 8.540832e-01	 1.066921e+00	-2.526781e+01
1	 8.343694e-01	 1.082407e+00	-2.773076e+01
1	 8.143985e-01	 1.097512e+00	-3.023726e+01
1	 7.941817e-01	 1.112229e+00	-3.278716e+01
1	 7.737303e-01	 1.126552e+00	-3.538011e+01
1	 8.806311e-01	 1.059604e+00	-2.368613e+01
1	 8.610270e-01	 1.075595e+00	-2.618655e+01
1	 8.411528e-01	 1.091207e+00	-2.871759e+01
1	 8.210196e-01	 1.106435e+00	-3.127871e+01
1	 8.006385e-01	 1.121271e+00	-3.386927e+01
1	 7.800208e-01	 1.135711e+00	-3.648845e+01
1	 8.877330e-01	 1.068149e+00	-2.454070e+01
1	 8.679707e-01	 1.084269e+00	-2.711736e+01
1	 8.479363e-01	 1.100007e+00	-2.971195e+01
1	 8.276408e-01	 1.115358e+00	-3.232339e+01
1	 8.070953e-01	 1.130314e+00	-3.495052e+01
1	 7.863113e-01	 1.144870e+00	-3.759207e+01
1	 7.548588e-01	 1.099075e+00	-3.202563e+01
1	 7.346883e-01	 1.112659e+00	-3.533046e+01
1	 7.143113e-01	 1.125850e+00	-3.863790e+01
1	 6.937392e-01	 1.138641e+00	-4.194672e+01
1	 6.729834e-01	 1.151030e+00	-4.525558e+01
1	 6.520556e-01	 1.163014e+00	-4.856305e+01
1	 7.611493e-01	 1.108234e+00	-3.314882e+01
1	 7.408107e-01	 1.121932e+00	-3.646268e+01
1	 7.202639e-01	 1.135232e+00	-3.976418e+01
1	 6.995203e-01	 1.148130e+00	-4.305175e+01
1	 6.785916e-01	 1.160622e+00	-4.632378e+01
1	 6.574894e-01	 1.172706e+00	-4.957862e+01
1	 7.674398e-01	 1.117393e+00	-3.426695e+01
1	 7.469331e-01	 1.131204e+00	-3.758620e+01
1	 7.262165e-01	 1.144614e+00	-4.087834e+01
1	 7.053015e-01	 1.157619e+00	-4.414151e+01
1	 6.841998e-01	 1.170214e+00	-4.737382e+01
1	 6.629232e-01	 1.182397e+00	-5.057341e+01
1	 7.737303e-01	 1.126552e+00	-3.538011e+01
1	 7.530555e-01	 1.140476e+00	-3.870120e+01
1	 7.321691e-01	 1.153996e+00	-4.198069e+01
1	 7.110827e-01	 1.167107e+00	-4.521639e+01
1	 6.898080e-01	 1.179806e+00	-4.840616e+01
1	 6.683570e-01	 1.192089e+00	-5.154791e+01
1	 7.800208e-01	 1.135711e+00	-3.648845e+01
1	 7.591779e-01	 1.149748e+00	-3.980792e+01
1	 7.381217e-01	 1.163378e+00	-4.307152e+01
1	 7.168638e-01	 1.176596e+00	-4.627675e+01
1	 6.954162e-01	 1.189398e+00	-4.942122e+01
1	 6.737908e-01	 1.201781e+00	-5.250262e+01
1	 7.863113e-01	 1.144870e+00	-3.759207e+01
1	 7.653004e-01	 1.159020e+00	-4.090653e+01
1	 7.440743e-01	 1.172760e+00	-4.415109e+01
1	 7.226450e-01	 1.186085e+00	-4.732294e+01
1	 7.010244e-01	 1.198990e+00	-5.041942e+01
1	 6.792246e-01	 1.211473e+00	-5.343801e+01
1	 6.520556e-01	 1.163014e+00	-4.856305e+01
1	 6.309674e-01	 1.174588e+00	-5.107381e+01
1	 6.097304e-01	 1.185751e+00	-5.350831e+01
1	 5.883566e-01	 1.196501e+00	-5.586367e+01
1	 5.668575e-01	 1.206835e+00	-5.813727e+01
1	 5.452448e-01	 1.216752e+00	-6.032670e+01
1	 6.574894e-01	 1.172706e+00	-4.957862e+01
1	 6.362254e-01	 1.184377e+00	-5.201356e+01
1	 6.148115e-01	 1.195633e+00	-5.437970e+01
1	 5.932595e-01	 1.206472e+00	-5.667441e+01
1	 5.715813e-01	 1.216892e+00	-5.889525e+01
1	 5.497885e-01	 1.226892e+00	-6.103998e+01
1	 6.629232e-01	 1.182397e+00	-5.057341e+01
1	 6.414835e-01	 1.194165e+00	-5.293489e+01
1	 6.198926e-01	 1.205514e+00	-5.523493e+01
1	 5.981625e-01	 1.216443e+00	-5.747109e+01
1	 5.763051e-01	 1.226949e+00	-5.964114e+01
1	 5.543322e-01	 1.237031e+00	-6.174300e+01
1	 6.683570e-01	 1.192089e+00	-5.154791e+01
1	 6.467415e-01	 1.203953e+00	-5.383828e+01
1	 6.249737e-01	 1.215395e+00	-5.607440e+01
1	 6.030655e-01	 1.226413e+00	-5.825407e+01
1	 5.810289e-01	 1.237006e+00	-6.037525e+01
1	 5.588759e-01	 1.247171e+00	-6.243600e+01
1	 6.737908e-01	 1.201781e+00	-5.250262e+01
1	 6.519996e-01	 1.213741e+00	-5.472414e+01
1	 6.300548e-01	 1.225277e+00	-5.689848e+01
1	 6.079685e-01	 1.236384e+00	-5.902368e+01
1	 5.857527e-01	 1.247063e+00	-6.109784e+01
1	 5.634196e-01	 1.257311e+00	-6.311922e+01
1	 6.792246e-01	 1.211473e+00	-5.343801e+01
1	 6.572577e-01	 1.223530e+00	-5.559290e+01
1	 6.351359e-01	 1.235158e+00	-5.770756e+01
1	 6.128714e-01	 1.246355e+00	-5.978022e+01
1	 5.904765e-01	 1.257120e+00	-6.180921e+01
1	 5.679633e-01	 1.267450e+00	-6.379291e+01
1	 5.452448e-01	 1.216752e+00	-6.032670e+01
1	 5.235303e-01	 1.226252e+00	-6.151299e+01
1	 5.017255e-01	 1.235334e+00	-6.256048e+01
1	 4.798421e-01	 1.243997e+00	-6.346604e+01
1	 4.578915e-01	 1.252243e+00	-6.422703e+01
1	 4.358850e-01	 1.260072e+00	-6.484129e+01
1	 5.497885e-01	 1.226892e+00	-6.103998e+01
1	 5.278930e-01	 1.236471e+00	-6.216466e+01
1	 5.059066e-01	 1.245628e+00	-6.315527e+01
1	 4.838408e-01	 1.254364e+00	-6.400883e+01
1	 4.617072e-01	 1.262679e+00	-6.472282e+01
1	 4.395174e-01	 1.270573e+00	-6.529520e+01
1	 5.543322e-01	 1.237031e+00	-6.174300e+01
1	 5.322558e-01	 1.246689e+00	-6.280793e+01
1	 5.100876e-01	 1.255923e+00	-6.374342e+01
1	 4.878395e-01	 1.264731e+00	-6.454665e+01
1	 4.655230e-01	 1.273114e+00	-6.521524e+01
1	 4.431497e-01	 1.281073e+00	-6.574725e+01
1	 5.588759e-01	 1.247171e+00	-6.243600e+01
1	 5.366185e-01	 1.256908e+00	-6.344298e+01
1	 5.142687e-01	 1.266217e+00	-6.432509e+01
1	 4.918382e-01	 1.275097e+00	-6.507964e+01
1	 4.693388e-01	 1.283549e+00	-6.570438e+01
1	 4.467821e-01	 1.291574e+00	-6.619748e+01
1	 5.634196e-01	 1.257311e+00	-6.311922e+01
1	 5.409813e-01	 1.267127e+00	-6.407003e+01
1	 5.184497e-01	 1.276511e+00	-6.490044e+01
1	 4.958369e-01	 1.285464e+00	-6.560791e+01
1	 4.731545e-01	 1.293985e+00	-6.619031e+01
1	 4.504145e-01	 1.302075e+00	-6.664593e+01
1	 5.679633e-01	 1.267450e+00	-6.379291e+01
1	 5.453440e-01	 1.277346e+00	-6.468927e+01
1	 5.226308e-01	 1.286806e+00	-6.546962e+01
1	 4.998355e-01	 1.295831e+00	-6.613157e+01
1	 4.769703e-01	 1.304420e+00	-6.667311e+01
1	 4.540469e-01	 1.312575e+00	-6.709265e+01
1	 4.358850e-01	 1.260072e+00	-6.484129e+01
1	 4.138339e-01	 1.267485e+00	-6.463617e+01
1	 3.917493e-01	 1.274484e+00	-6.420656e+01
1	 3.696421e-01	 1.281071e+00	-6.355191e+01
1	 3.475231e-01	 1.287247e+00	-6.267237e+01
1	 3.254030e-01	 1.293016e+00	-6.156881e+01
1	 4.395174e-01	 1.270573e+00	-6.529520e+01
1	 4.172825e-01	 1.278048e+00	-6.504648e+01
1	 3.950138e-01	 1.285105e+00	-6.458888e+01
1	 3.727224e-01	 1.291746e+00	-6.392185e+01
1	 3.504191e-01	 1.297974e+00	-6.304552e+01
1	 3.281147e-01	 1.303791e+00	-6.196066e+01
1	 4.431497e-01	 1.281073e+00	-6.574725e+01
1	 4.207311e-01	 1.288610e+00	-6.545718e+01
1	 3.982784e-01	 1.295726e+00	-6.497356e+01
1	 3.758028e-01	 1.302422e+00	-6.429587e+01
1	 3.533152e-01	 1.308701e+00	-6.342419e+01
1	 3.308264e-01	 1.314566e+00	-6.235923e+01
1	 4.467821e-01	 1.291574e+00	-6.619748e+01
1	 4.241797e-01	 1.299173e+00	-6.586823e+01
1	 4.015430e-01	 1.306346e+00	-6.536054e+01
1	 3.788831e-01	 1.313098e+00	-6.467386e+01
1	 3.562112e-01	 1.319428e+00	-6.380825e+01
1	 3.335380e-01	 1.325342e+00	-6.276435e+01
1	 4.504145e-01	 1.302075e+00	-6.664593e+01
1	 4.276283e-01	 1.309735e+00	-6.627965e+01
1	 4.048076e-01	 1.316967e+00	-6.574976e+01
1	 3.819635e-01	 1.323773e+00	-6.505572e+01
1	 3.591072e-01	 1.330155e+00	-6.419757e+01
1	 3.362497e-01	 1.336117e+00	-6.317587e+01
1	 4.540469e-01	 1.312575e+00	-6.709265e+01
1	 4.310770e-01	 1.320297e+00	-6.669142e+01
1	 4.080721e-01	 1.327588e+00	-6.614117e+01
1	 3.850438e-01	 1.334449e+00	-6.544137e+01
1	 3.620032e-01	 1.340883e+00	-6.459203e+01
1	 3.389614e-01	 1.346892e+00	-6.359363e+01
1	 3.254030e-01	 1.293016e+00	-6.156881e+01
1	 3.032921e-01	 1.298380e+00	-6.033770e+01
1	 2.812007e-01	 1.303343e+00	-5.890100e+01
1	 2.591387e-01	 1.307909e+00	-5.726080e+01
1	 2.371159e-01	 1.312080e+00	-5.541969e+01
1	 2.151419e-01	 1.315862e+00	-5.338083e+01
1	 3.281147e-01	 1.303791e+00	-6.196066e+01
1	 3.058195e-01	 1.309200e+00	-6.075680e+01
1	 2.835440e-01	 1.314205e+00	-5.935627e+01
1	 2.612982e-01	 1.318808e+00	-5.776109e+01
1	 2.390919e-01	 1.323014e+00	-5.597376e+01
1	 2.169348e-01	 1.326827e+00	-5.399734e+01
1	 3.308264e-01	 1.314566e+00	-6.235923e+01
1	 3.083470e-01	 1.320020e+00	-6.118364e+01
1	 2.858873e-01	 1.325066e+00	-5.982016e+01
1	 2.634577e-01	 1.329707e+00	-5.827071e+01
1	 2.410678e-01	 1.333948e+00	-5.653775e+01
1	 2.187276e-01	 1.337793e+00	-5.462419e+01
1	 3.335380e-01	 1.325342e+00	-6.276435e+01
1	 3.108744e-01	 1.330840e+00	-6.161804e+01
1	 2.882307e-01	 1.335927e+00	-6.029245e+01
1	 2.656171e-01	 1.340606e+00	-5.878946e+01
1	 2.430438e-01	 1.344882e+00	-5.711140e+01
1	 2.205205e-01	 1.348758e+00	-5.526111e+01
1	 3.362497e-01	 1.336117e+00	-6.317587e+01
1	 3.134018e-01	 1.341660e+00	-6.205981e+01
1	 2.905740e-01	 1.346788e+00	-6.077295e+01
1	 2.677766e-01	 1.351506e+00	-5.931709e+01
1	 2.450198e-01	 1.355816e+00	-5.769449e+01
1	 2.223133e-01	 1.359724e+00	-5.590788e+01
1	 3.389614e-01	 1.346892e+00	-6.359363e+01
1	 3.159293e-01	 1.352480e+00	-6.250878e+01
1	 2.929173e-01	 1.357649e+00	-6.126146e+01
1	 2.699361e-01	 1.362405e+00	-5.985340e+01
1	 2.469957e-01	 1.366750e+00	-5.828679e+01
1	 2.241062e-01	 1.370689e+00	-5.656424e+01
1	 2.151419e-01	 1.315862e+00	-5.338083e+01
1	 1.932260e-01	 1.319258e+00	-5.143014e+01
1	 1.713771e-01	 1.322274e+00	-4.941827e+01
1	 1.496042e-01	 1.324914e+00	-4.734763e+01
1	 1.279157e-01	 1.327183e+00	-4.522074e+01
1	 1.063198e-01	 1.329088e+00	-4.304017e+01
1	 2.169348e-01	 1.326827e+00	-5.399734e+01
1	 1.948362e-01	 1.330252e+00	-5.212152e+01
1	 1.728053e-01	 1.333293e+00	-5.018890e+01
1	 1.508509e-01	 1.335955e+00	-4.820178e+01
1	 1.289816e-01	 1.338243e+00	-4.616255e+01
1	 1.072058e-01	 1.340163e+00	-4.407365e+01
1	 2.187276e-01	 1.337793e+00	-5.462419e+01
1	 1.964464e-01	 1.341246e+00	-5.282314e+01
1	 1.742334e-01	 1.344312e+00	-5.096962e+01
1	 1.520976e-01	 1.346996e+00	-4.906578e+01
1	 1.300476e-01	 1.349303e+00	-4.711390e+01
1	 1.080918e-01	 1.351239e+00	-4.511628e+01
1	 2.205205e-01	 1.348758e+00	-5.526111e+01
1	 1.980566e-01	 1.352239e+00	-5.353477e+01
1	 1.756616e-01	 1.355331e+00	-5.176017e+01
1	 1.533443e-01	 1.358037e+00	-4.993939e+01
1	 1.311136e-01	 1.360363e+00	-4.807456e+01
1	 1.089778e-01	 1.362315e+00	-4.616784e+01
1	 2.223133e-01	 1.359724e+00	-5.590788e+01
1	 1.996669e-01	 1.363233e+00	-5.425615e+01
1	 1.770897e-01	 1.366349e+00	-5.256034e+01
1	 1.545910e-01	 1.369078e+00	-5.082238e+01
1	 1.321795e-01	 1.371423e+00	-4.904429e+01
1	 1.098638e-01	 1.373391e+00	-4.722811e+01
1	 2.241062e-01	 1.370689e+00	-5.656424e+01
1	 2.012771e-01	 1.374227e+00	-5.498706e+01
1	 1.785179e-01	 1.377368e+00	-5.336988e+01
1	 1.558377e-01	 1.380118e+00	-5.171452e+01
1	 1.332455e-01	 1.382483e+00	-5.002289e+01
1	 1.107498e-01	 1.384466e+00	-4.829689e+01
1	 1.063198e-01	 1.329088e+00	-4.304017e+01
1	 8.482457e-02	 1.330632e+00	-4.090001e+01
1	 6.343769e-02	 1.331823e+00	-3.878374e+01
1	 4.216660e-02	 1.332666e+00	-3.669208e+01
1	 2.101841e-02	 1.333168e+00	-3.462565e+01
1	 0.000000e+00	 1.333333e+00	-3.258491e+01
1	 1.072058e-01	 1.340163e+00	-4.407365e+01
1	 8.553144e-02	 1.341721e+00	-4.202001e+01
1	 6.396634e-02	 1.342922e+00	-3.998488e+01
1	 4.251798e-02	 1.343772e+00	-3.796898e+01
1	 2.119357e-02	 1.344277e+00	-3.597295e+01
1	 0.000000e+00	 1.344444e+00	-3.399730e+01
1	 1.080918e-01	 1.351239e+00	-4.511628e+01
1	 8.623831e-02	 1.352810e+00	-4.314858e+01
1	 6.449499e-02	 1.354020e+00	-4.119406e+01
1	 4.286937e-02	 1.354878e+00	-3.925348e+01
1	 2.136872e-02	 1.355387e+00	-3.732750e+01
1	 0.000000e+00	 1.355556e+00	-3.541667e+01
1	 1.089778e-01	 1.362315e+00	-4.616784e+01
1	 8.694518e-02	 1.363898e+00	-4.428549e+01
1	 6.502364e-02	 1.365119e+00	-4.241109e+01
1	 4.322076e-02	 1.365983e+00	-4.054541e+01
1	 2.154387e-02	 1.366497e+00	-3.868913e+01
1	 0.000000e+00	 1.366667e+00	-3.684284e+01
1	 1.098638e-01	 1.373391e+00	-4.722811e+01
1	 8.765205e-02	 1.374987e+00	-4.543054e+01
1	 6.555228e-02	 1.376217e+00	-4.363577e+01
1	 4.357215e-02	 1.377089e+00	-4.184457e+01
1	 2.171903e-02	 1.377607e+00	-4.005766e+01
1	 0.000000e+00	 1.377778e+00	-3.827566e+01
1	 1.107498e-01	 1.384466e+00	-4.829689e+01
1	 8.835892e-02	 1.386075e+00	-4.658355e+01
1	 6.608093e-02	 1.387316e+00	-4.486792e+01
1	 4.392354e-02	 1.388194e+00	-4.315081e+01
1	 2.189418e-02	 1.388716e+00	-4.143293e+01
1	 0.000000e+00	 1.388889e+00	-3.971495e+01
1	 1.388889e+00	 0.000000e+00	 1.498647e+01
1	 1.388716e+00	 2.189418e-02	 1.550924e+01
1	 1.388194e+00	 4.392354e-02	 1.600275e+01
1	 1.387316e+00	 6.608093e-02	 1.646673e+01
1	 1.386075e+00	 8.835892e-02	 1.690093e+01
1	 1.384466e+00	 1.107498e-01	 1.730515e+01
1	 1.400000e+00	 0.000000e+00	 1.481023e+01
1	 1.399826e+00	 2.206933e-02	 1.531464e+01
1	 1.399300e+00	 4.427493e-02	 1.578907e+01
1	 1.398415e+00	 6.660958e-02	 1.623316e+01
1	 1.397164e+00	 8.906580e-02	 1.664663e+01
1	 1.395542e+00	 1.116358e-01	 1.702919e+01
1	 1.411111e+00	 0.000000e+00	 1.465290e+01
1	 1.410936e+00	 2.224449e-02	 1.513829e+01
1	 1.410405e+00	 4.462631e-02	 1.559298e+01
1	 1.409513e+00	 6.713823e-02	 1.601656e+01
1	 1.408253e+00	 8.977267e-02	 1.640866e+01
1	 1.406618e+00	 1.125218e-01	 1.676895e+01
1	 1.422222e+00	 0.000000e+00	 1.451402e+01
1	 1.422046e+00	 2.241964e-02	 1.497976e+01
1	 1.421511e+00	 4.497770e-02	 1.541408e+01
1	 1.420612e+00	 6.766687e-02	 1.581652e+01
1	 1.419341e+00	 9.047954e-02	 1.618664e+01
1	 1.417693e+00	 1.134078e-01	 1.652405e+01
1	 1.433333e+00	 0.000000e+00	 1.439318e+01
1	 1.433155e+00	 2.259479e-02	 1.483863e+01
1	 1.432616e+00	 4.532909e-02	 1.525197e+01
1	 1.431710e+00	 6.819552e-02	 1.563265e+01
1	 1.430430e+00	 9.118641e-02	 1.598019e+01
1	 1.428769e+00	 1.142938e-01	 1.629414e+01
1	 1.444444e+00	 0.000000e+00	 1.428995e+01
1	 1.444265e+00	 2.276995e-02	 1.471451e+01
1	 1.443722e+00	 4.568048e-02	 1.510625e+01
1	 1.442809e+00	 6.872417e-02	 1.546459e+01
1	 1.441518e+00	 9.189328e-02	 1.578897e+01
1	 1.439845e+00	 1.151798e-01	 1.607888e+01
1	 1.384466e+00	 1.107498e-01	 1.730515e+01
1	 1.382483e+00	 1.332455e-01	 1.770570e+01
1	 1.380118e+00	 1.558377e-01	 1.806520e+01
1	 1.377368e+00	 1.785179e-01	 1.838254e+01
1	 1.374227e+00	 2.012771e-01	 1.865667e+01
1	 1.370689e+00	 2.241062e-01	 1.888657e+01
1	 1.395542e+00	 1.116358e-01	 1.702919e+01
1	 1.393542e+00	 1.343114e-01	 1.739973e+01
1	 1.391159e+00	 1.570844e-01	 1.773075e+01
1	 1.388387e+00	 1.799460e-01	 1.802113e+01
1	 1.385221e+00	 2.028873e-01	 1.826978e+01
1	 1.381655e+00	 2.258990e-01	 1.847567e+01
1	 1.406618e+00	 1.125218e-01	 1.676895e+01
1	 1.404602e+00	 1.353774e-01	 1.710897e+01
1	 1.402200e+00	 1.583311e-01	 1.741098e+01
1	 1.399406e+00	 1.813741e-01	 1.767383e+01
1	 1.396215e+00	 2.044975e-01	 1.789642e+01
1	 1.392620e+00	 2.276919e-01	 1.807768e+01
1	 1.417693e+00	 1.134078e-01	 1.652405e+01
1	 1.415662e+00	 1.364434e-01	 1.683306e+01
1	 1.413241e+00	 1.595778e-01	 1.710554e+01
1	 1.410425e+00	 1.828023e-01	 1.734032e+01
1	 1.407208e+00	 2.061077e-01	 1.753627e+01
1	 1.403586e+00	 2.294847e-01	 1.769230e+01
1	 1.428769e+00	 1.142938e-01	 1.629414e+01
1	 1.426722e+00	 1.375093e-01	 1.657166e+01
1	 1.424282e+00	 1.608245e-01	 1.681410e+01
1	 1.421444e+00	 1.842304e-01	 1.702027e+01
1	 1.418202e+00	 2.077179e-01	 1.718902e+01
1	 1.414551e+00	 2.312776e-01	 1.731924e+01
1	 1.439845e+00	 1.151798e-01	 1.607888e+01
1	 1.437782e+00	 1.385753e-01	 1.632444e+01
1	 1.435323e+00	 1.620712e-01	 1.653633e+01
1	 1.432463e+00	 1.856586e-01	 1.671337e+01
1	 1.429196e+00	 2.093282e-01	 1.685438e+01
1	 1.425517e+00	 2.330704e-01	 1.695822e+01
1	 1.370689e+00	 2.241062e-01	 1.888657e+01
1	 1.366750e+00	 2.469957e-01	 1.918721e+01
1	 1.362405e+00	 2.699361e-01	 1.941663e+01
1	 1.357649e+00	 2.929173e-01	 1.957313e+01
1	 1.352480e+00	 3.159293e-01	 1.965511e+01
1	 1.346892e+00	 3.389614e-01	 1.966112e+01
1	 1.381655e+00	 2.258990e-01	 1.847567e+01
1	 1.377684e+00	 2.489717e-01	 1.874879e+01
1	 1.373304e+00	 2.720956e-01	 1.895309e+01
1	 1.368511e+00	 2.952607e-01	 1.908676e+01
1	 1.363299e+00	 3.184567e-01	 1.914807e+01
1	 1.357667e+00	 3.416731e-01	 1.913547e+01
1	 1.392620e+00	 2.276919e-01	 1.807768e+01
1	 1.388618e+00	 2.509477e-01	 1.832194e+01
1	 1.384203e+00	 2.742551e-01	 1.849973e+01
1	 1.379372e+00	 2.976040e-01	 1.860913e+01
1	 1.374119e+00	 3.209841e-01	 1.864831e+01
1	 1.368442e+00	 3.443848e-01	 1.861557e+01
1	 1.403586e+00	 2.294847e-01	 1.769230e+01
1	 1.399552e+00	 2.529236e-01	 1.790639e+01
1	 1.395103e+00	 2.764146e-01	 1.805632e+01
1	 1.390233e+00	 2.999474e-01	 1.814005e+01
1	 1.384939e+00	 3.235116e-01	 1.815565e+01
1	 1.379217e+00	 3.470965e-01	 1.810130e+01
1	 1.414551e+00	 2.312776e-01	 1.731924e+01
1	 1.410486e+00	 2.548996e-01	 1.750188e+01
1	 1.406002e+00	 2.785741e-01	 1.762262e+01
1	 1.401094e+00	 3.022907e-01	 1.767931e+01
1	 1.395759e+00	 3.260390e-01	 1.766992e+01
1	 1.389992e+00	 3.498082e-01	 1.759250e+01
1	 1.425517e+00	 2.330704e-01	 1.695822e+01
1	 1.421420e+00	 2.568756e-01	 1.710815e+01
1	 1.416901e+00	 2.807336e-01	 1.719840e+01
1	 1.411955e+00	 3.046340e-01	 1.722673e+01
1	 1.406579e+00	 3.285664e-01	 1.719097e+01
1	 1.400767e+00	 3.525199e-01	 1.708908e+01
1	 1.346892e+00	 3.389614e-01	 1.966112e+01
1	 1.340883e+00	 3.620032e-01	 1.970174e+01
1	 1.334449e+00	 3.850438e-01	 1.966306e+01
1	 1.327588e+00	 4.080721e-01	 1.954395e+01
1	 1.320297e+00	 4.310770e-01	 1.934342e+01
1	 1.312575e+00	 4.540469e-01	 1.906071e+01
1	 1.357667e+00	 3.416731e-01	 1.913547e+01
1	 1.351610e+00	 3.648993e-01	 1.915945e+01
1	 1.345124e+00	 3.881242e-01	 1.910717e+01
1	 1.338209e+00	 4.113367e-01	 1.897743e+01
1	 1.330860e+00	 4.345256e-01	 1.876917e+01
1	 1.323076e+00	 4.576792e-01	 1.848153e+01
1	 1.368442e+00	 3.443848e-01	 1.861557e+01
1	 1.362337e+00	 3.677953e-01	 1.862196e+01
1	 1.355800e+00	 3.912045e-01	 1.855506e+01
1	 1.348829e+00	 4.146013e-01	 1.841362e+01
1	 1.341422e+00	 4.379742e-01	 1.819651e+01
1	 1.333576e+00	 4.613116e-01	 1.790276e+01
1	 1.379217e+00	 3.470965e-01	 1.810130e+01
1	 1.373064e+00	 3.706913e-01	 1.808915e+01
1	 1.366476e+00	 3.942849e-01	 1.800665e+01
1	 1.359450e+00	 4.178659e-01	 1.785247e+01
1	 1.351984e+00	 4.414228e-01	 1.762541e+01
1	 1.344077e+00	 4.649440e-01	 1.732441e+01
1	 1.389992e+00	 3.498082e-01	 1.759250e+01
1	 1.383791e+00	 3.735873e-01	 1.756091e+01
1	 1.377151e+00	 3.973652e-01	 1.746185e+01
1	 1.370071e+00	 4.211304e-01	 1.729391e+01
1	 1.362547e+00	 4.448714e-01	 1.705582e+01
1	 1.354578e+00	 4.685764e-01	 1.674645e+01
1	 1.400767e+00	 3.525199e-01	 1.708908e+01
1	 1.394518e+00	 3.764834e-01	 1.703715e+01
1	 1.387827e+00	 4.004456e-01	 1.692057e+01
1	 1.380691e+00	 4.243950e-01	 1.673788e+01
1	 1.373109e+00	 4.483200e-01	 1.648773e+01
1	 1.365078e+00	 4.722087e-01	 1.616889e+01
1	 1.312575e+00	 4.540469e-01	 1.906071e+01
1	 1.304420e+00	 4.769703e-01	 1.843266e+01
1	 1.295831e+00	 4.998355e-01	 1.774563e+01
1	 1.286806e+00	 5.226308e-01	 1.700123e+01
1	 1.277346e+00	 5.453440e-01	 1.620127e+01
1	 1.267450e+00	 5.679633e-01	 1.534769e+01
1	 1.323076e+00	 4.576792e-01	 1.848153e+01
1	 1.314855e+00	 4.807861e-01	 1.786429e+01
1	 1.306197e+00	 5.038342e-01	 1.718976e+01
1	 1.297100e+00	 5.268118e-01	 1.645960e+01
1	 1.287565e+00	 5.497068e-01	 1.567561e+01
1	 1.277590e+00	 5.725070e-01	 1.483977e+01
1	 1.333576e+00	 4.613116e-01	 1.790276e+01
1	 1.325291e+00	 4.846018e-01	 1.729640e+01
1	 1.316564e+00	 5.078329e-01	 1.663439e+01
1	 1.307395e+00	 5.309929e-01	 1.591845e+01
1	 1.297783e+00	 5.540696e-01	 1.515040e+01
1	 1.287729e+00	 5.770507e-01	 1.433225e+01
1	 1.344077e+00	 4.649440e-01	 1.732441e+01
1	 1.335726e+00	 4.884176e-01	 1.672896e+01
1	 1.326930e+00	 5.118316e-01	 1.607951e+01
1	 1.317689e+00	 5.351739e-01	 1.537778e+01
1	 1.308002e+00	 5.584323e-01	 1.462563e+01
1	 1.297869e+00	 5.815945e-01	 1.382509e+01
1	 1.354578e+00	 4.685764e-01	 1.674645e+01
1	 1.346162e+00	 4.922333e-01	 1.616198e+01
1	 1.337297e+00	 5.158303e-01	 1.552510e+01
1	 1.327984e+00	 5.393550e-01	 1.483757e+01
1	 1.318221e+00	 5.627951e-01	 1.410129e+01
1	 1.308009e+00	 5.861382e-01	 1.331830e+01
1	 1.365078e+00	 4.722087e-01	 1.616889e+01
1	 1.356597e+00	 4.960491e-01	 1.559544e+01
1	 1.347664e+00	 5.198290e-01	 1.497115e+01
1	 1.338278e+00	 5.435360e-01	 1.429783e+01
1	 1.328440e+00	 5.671578e-01	 1.357737e+01
1	 1.318148e+00	 5.906819e-01	 1.281186e+01
1	 1.267450e+00	 5.679633e-01	 1.534769e+01
1	 1.257120e+00	 5.904765e-01	 1.375600e+01
1	 1.246355e+00	 6.128714e-01	 1.211779e+01
1	 1.235158e+00	 6.351359e-01	 1.043402e+01
1	 1.223530e+00	 6.572577e-01	 8.705762e+00
1	 1.211473e+00	 6.792246e-01	 6.934199e+00
1	 1.277590e+00	 5.725070e-01	 1.483977e+01
1	 1.267177e+00	 5.952003e-01	 1.325143e+01
1	 1.256326e+00	 6.177744e-01	 1.161570e+01
1	 1.245039e+00	 6.402170e-01	 9.933533e+00
1	 1.233318e+00	 6.625157e-01	 8.205966e+00
1	 1.221165e+00	 6.846583e-01	 6.434151e+00
1	 1.287729e+00	 5.770507e-01	 1.433225e+01
1	 1.277234e+00	 5.999241e-01	 1.274701e+01
1	 1.266297e+00	 6.226774e-01	 1.111355e+01
1	 1.254920e+00	 6.452981e-01	 9.432777e+00
1	 1.243106e+00	 6.677738e-01	 7.705700e+00
1	 1.230856e+00	 6.900921e-01	 5.933444e+00
1	 1.297869e+00	 5.815945e-01	 1.382509e+01
1	 1.287291e+00	 6.046479e-01	 1.224274e+01
1	 1.276268e+00	 6.275803e-01	 1.061134e+01
1	 1.264802e+00	 6.503791e-01	 8.931756e+00
1	 1.252894e+00	 6.730318e-01	 7.204974e+00
1	 1.240548e+00	 6.955259e-01	 5.432092e+00
1	 1.308009e+00	 5.861382e-01	 1.331830e+01
1	 1.297347e+00	 6.093718e-01	 1.173863e+01
1	 1.286238e+00	 6.324833e-01	 1.010907e+01
1	 1.274683e+00	 6.554602e-01	 8.430477e+00
1	 1.262683e+00	 6.782899e-01	 6.703800e+00
1	 1.250240e+00	 7.009597e-01	 4.930111e+00
1	 1.318148e+00	 5.906819e-01	 1.281186e+01
1	 1.307404e+00	 6.140956e-01	 1.123465e+01
1	 1.296209e+00	 6.373863e-01	 9.606744e+00
1	 1.284564e+00	 6.605413e-01	 7.928946e+00
1	 1.272471e+00	 6.835480e-01	 6.202187e+00
1	 1.259932e+00	 7.063935e-01	 4.427515e+00
1	 1.211473e+00	 6.792246e-01	 6.934199e+00
1	 1.198990e+00	 7.010244e-01	 4.388812e+00
1	 1.186085e+00	 7.226450e-01	 1.789551e+00
1	 1.172760e+00	 7.440743e-01	-8.627514e-01
1	 1.159020e+00	 7.653004e-01	-3.567126e+00
1	 1.144870e+00	 7.863113e-01	-6.322467e+00
1	 1.221165e+00	 6.846583e-01	 6.434151e+00
1	 1.208582e+00	 7.066326e-01	 3.884811e+00
1	 1.195573e+00	 7.284261e-01	 1.287410e+00
1	 1.182142e+00	 7.500269e-01	-1.356732e+00
1	 1.168292e+00	 7.714228e-01	-4.046170e+00
1	 1.154029e+00	 7.926017e-01	-6.779337e+00
1	 1.230856e+00	 6.900921e-01	 5.933444e+00
1	 1.218174e+00	 7.122408e-01	 3.383807e+00
1	 1.205062e+00	 7.342073e-01	 7.918356e-01
1	 1.191524e+00	 7.559795e-01	-1.840667e+00
1	 1.177564e+00	 7.775452e-01	-4.511786e+00
1	 1.163188e+00	 7.988922e-01	-7.219499e+00
1	 1.240548e+00	 6.955259e-01	 5.432092e+00
1	 1.227766e+00	 7.178490e-01	 2.885729e+00
1	 1.214551e+00	 7.399885e-01	 3.026743e-01
1	 1.200906e+00	 7.619321e-01	-2.314791e+00
1	 1.186837e+00	 7.836676e-01	-4.964288e+00
1	 1.172347e+00	 8.051827e-01	-7.643343e+00
1	 1.250240e+00	 7.009597e-01	 4.930111e+00
1	 1.237358e+00	 7.234571e-01	 2.390508e+00
1	 1.224039e+00	 7.457696e-01	-1.802234e-01
1	 1.210288e+00	 7.678847e-01	-2.779332e+00
1	 1.196109e+00	 7.897900e-01	-5.403981e+00
1	 1.181506e+00	 8.114732e-01	-8.051251e+00
1	 1.259932e+00	 7.063935e-01	 4.427515e+00
1	 1.246950e+00	 7.290653e-01	 1.898079e+00
1	 1.233528e+00	 7.515508e-01	-6.570019e-01
1	 1.219670e+00	 7.738373e-01	-3.234513e+00
1	 1.205381e+00	 7.959124e-01	-5.831162e+00
1	 1.190665e+00	 8.177637e-01	-8.443590e+00
1	 1.144870e+00	 7.863113e-01	-6.322467e+00
1	 1.130314e+00	 8.070953e-01	-8.116062e+00
1	 1.115358e+00	 8.276408e-01	-9.928887e+00
1	 1.100007e+00	 8.479363e-01	-1.175874e+01
1	 1.084269e+00	 8.679707e-01	-1.360341e+01
1	 1.068149e+00	 8.877330e-01	-1.546063e+01
1	 1.154029e+00	 7.926017e-01	-6.779337e+00
1	 1.139356e+00	 8.135520e-01	-8.544168e+00
1	 1.124281e+00	 8.342619e-01	-1.033583e+01
1	 1.108807e+00	 8.547198e-01	-1.215249e+01
1	 1.092943e+00	 8.749145e-01	-1.399227e+01
1	 1.076694e+00	 8.948348e-01	-1.585323e+01
1	 1.163188e+00	 7.988922e-01	-7.219499e+00
1	 1.148399e+00	 8.200088e-01	-8.958281e+00
1	 1.133204e+00	 8.408830e-01	-1.073137e+01
1	 1.117608e+00	 8.615033e-01	-1.253731e+01
1	 1.101617e+00	 8.818583e-01	-1.437453e+01
1	 1.085239e+00	 9.019367e-01	-1.624144e+01
1	 1.172347e+00	 8.051827e-01	-7.643343e+00
1	 1.157441e+00	 8.264655e-01	-9.358728e+00
1	 1.142126e+00	 8.475041e-01	-1.111578e+01
1	 1.126408e+00	 8.682868e-01	-1.291340e+01
1	 1.110291e+00	 8.888020e-01	-1.475036e+01
1	 1.093785e+00	 9.090386e-01	-1.662536e+01
1	 1.181506e+00	 8.114732e-01	-8.051251e+00
1	 1.166484e+00	 8.329223e-01	-9.745828e+00
1	 1.151049e+00	 8.541253e-01	-1.148932e+01
1	 1.135208e+00	 8.750703e-01	-1.328097e+01
1	 1.118966e+00	 8.957458e-01	-1.511989e+01
1	 1.102330e+00	 9.161404e-01	-1.700510e+01
1	 1.190665e+00	 8.177637e-01	-8.443590e+00
1	 1.175526e+00	 8.393791e-01	-1.011989e+01
1	 1.159972e+00	 8.607464e-01	-1.185224e+01
1	 1.144008e+00	 8.818538e-01	-1.364022e+01
1	 1.127640e+00	 9.026896e-01	-1.548328e+01
1	 1.110875e+00	 9.232423e-01	-1.738074e+01
1	 1.068149e+00	 8.877330e-01	-1.546063e+01
1	 1.051655e+00	 9.072122e-01	-1.622974e+01
1	 1.034794e+00	 9.263980e-01	-1.700144e+01
1	 1.017575e+00	 9.452799e-01	-1.777268e+01
1	 1.000005e+00	 9.638480e-01	-1.854046e+01
1	 9.820928e-01	 9.820928e-01	-1.930182e+01
1	 1.076694e+00	 8.948348e-01	-1.585323e+01
1	 1.060068e+00	 9.144699e-01	-1.661934e+01
1	 1.043073e+00	 9.338091e-01	-1.738836e+01
1	 1.025715e+00	 9.528421e-01	-1.815734e+01
1	 1.008005e+00	 9.715588e-01	-1.892333e+01
1	 9.899495e-01	 9.899495e-01	-1.968346e+01
1	 1.085239e+00	 9.019367e-01	-1.624144e+01
1	 1.068482e+00	 9.217276e-01	-1.700527e+01
1	 1.051351e+00	 9.412203e-01	-1.777235e+01
1	 1.033856e+00	 9.604044e-01	-1.853977e+01
1	 1.016005e+00	 9.792696e-01	-1.930469e+01
1	 9.978062e-01	 9.978062e-01	-2.006429e+01
1	 1.093785e+00	 9.090386e-01	-1.662536e+01
1	 1.076895e+00	 9.289853e-01	-1.738763e+01
1	 1.059629e+00	 9.486315e-01	-1.815346e+01
1	 1.041996e+00	 9.679666e-01	-1.892003e+01
1	 1.024005e+00	 9.869804e-01	-1.968457e+01
1	 1.005663e+00	 1.005663e+00	-2.044433e+01
1	 1.102330e+00	 9.161404e-01	-1.700510e+01
1	 1.085308e+00	 9.362430e-01	-1.776649e+01
1	 1.067908e+00	 9.560427e-01	-1.853176e+01
1	 1.050137e+00	 9.755288e-01	-1.929817e+01
1	 1.032005e+00	 9.946912e-01	-2.006301e+01
1	 1.013520e+00	 1.013520e+00	-2.082360e+01
1	 1.110875e+00	 9.232423e-01	-1.738074e+01
1	 1.093721e+00	 9.435007e-01	-1.814193e+01
1	 1.076186e+00	 9.634539e-01	-1.890732e+01
1	 1.058278e+00	 9.830911e-01	-1.967424e+01
1	 1.040005e+00	 1.002402e+00	-2.044004e+01
1	 1.021376e+00	 1.021376e+00	-2.120212e+01
1	 9.820928e-01	 9.820928e-01	-1.930182e+01
1	 9.638480e-01	 1.000005e+00	-2.029603e+01
1	 9.452799e-01	 1.017575e+00	-2.131863e+01
1	 9.263980e-01	 1.034794e+00	-2.236805e+01
1	 9.072122e-01	 1.051655e+00	-2.344264e+01
1	 8.877330e-01	 1.068149e+00	-2.454070e+01
1	 9.899495e-01	 9.899495e-01	-1.968346e+01
1	 9.715588e-01	 1.008005e+00	-2.069071e+01
1	 9.528421e-01	 1.025715e+00	-2.172987e+01
1	 9.338091e-01	 1.043073e+00	-2.279953e+01
1	 9.144699e-01	 1.060068e+00	-2.389822e+01
1	 8.948348e-01	 1.076694e+00	-2.502439e+01
1	 9.978062e-01	 9.978062e-01	-2.006429e+01
1	 9.792696e-01	 1.016005e+00	-2.108609e+01
1	 9.604044e-01	 1.033856e+00	-2.214328e+01
1	 9.412203e-01	 1.051351e+00	-2.323461e+01
1	 9.217276e-01	 1.068482e+00	-2.435876e+01
1	 9.019367e-01	 1.085239e+00	-2.551432e+01
1	 1.005663e+00	 1.005663e+00	-2.044433e+01
1	 9.869804e-01	 1.024005e+00	-2.148218e+01
1	 9.679666e-01	 1.041996e+00	-2.255882e+01
1	 9.486315e-01	 1.059629e+00	-2.367320e+01
1	 9.289853e-01	 1.076895e+00	-2.482412e+01
1	 9.090386e-01	 1.093785e+00	-2.601034e+01
1	 1.013520e+00	 1.013520e+00	-2.082360e+01
1	 9.946912e-01	 1.032005e+00	-2.187894e+01
1	 9.755288e-01	 1.050137e+00	-2.297645e+01
1	 9.560427e-01	 1.067908e+00	-2.411521e+01
1	 9.362430e-01	 1.085308e+00	-2.529421e+01
1	 9.161404e-01	 1.102330e+00	-2.651232e+01
1	 1.021376e+00	 1.021376e+00	-2.120212e+01
1	 1.002402e+00	 1.040005e+00	-2.227637e+01
1	 9.830911e-01	 1.058278e+00	-2.339610e+01
1	 9.634539e-01	 1.076186e+00	-2.456056e+01
1	 9.435007e-01	 1.093721e+00	-2.576890e+01
1	 9.232423e-01	 1.110875e+00	-2.702012e+01
1	 8.877330e-01	 1.068149e+00	-2.454070e+01
1	 8.679707e-01	 1.084269e+00	-2.711736e+01
1	 8.479363e-01	 1.100007e+00	-2.971195e+01
1	 8.276408e-01	 1.115358e+00	-3.232339e+01
1	 8.070953e-01	 1.130314e+00	-3.495052e+01
1	 7.863113e-01	 1.144870e+00	-3.759207e+01
1	 8.948348e-01	 1.076694e+00	-2.502439e+01
1	 8.749145e-01	 1.092943e+00	-2.763504e+01
1	 8.547198e-01	 1.108807e+00	-3.025085e+01
1	 8.342619e-01	 1.124281e+00	-3.287035e+01
1	 8.135520e-01	 1.139356e+00	-3.549199e+01
1	 7.926017e-01	 1.154029e+00	-3.811417e+01
1	 9.019367e-01	 1.085239e+00	-2.551432e+01
1	 8.818583e-01	 1.101617e+00	-2.815528e+01
1	 8.615033e-01	 1.117608e+00	-3.078884e+01
1	 8.408830e-01	 1.133204e+00	-3.341312e+01
1	 8.200088e-01	 1.148399e+00	-3.602622e+01
1	 7.988922e-01	 1.163188e+00	-3.862620e+01
1	 9.090386e-01	 1.093785e+00	-2.601034e+01
1	 8.888020e-01	 1.110291e+00	-2.867801e+01
1	 8.682868e-01	 1.126408e+00	-3.132593e+01
1	 8.475041e-01	 1.142126e+00	-3.395181e+01
1	 8.264655e-01	 1.157441e+00	-3.655338e+01
1	 8.051827e-01	 1.172347e+00	-3.912840e+01
1	 9.161404e-01	 1.102330e+00	-2.651232e+01
1	 8.957458e-01	 1.118966e+00	-2.920318e+01
1	 8.750703e-01	 1.135208e+00	-3.186213e+01
1	 8.541253e-01	 1.151049e+00	-3.448649e+01
1	 8.329223e-01	 1.166484e+00	-3.707363e+01
1	 8.114732e-01	 1.181506e+00	-3.962099e+01
1	 9.232423e-01	 1.110875e+00	-2.702012e+01
1	 9.026896e-01	 1.127640e+00	-2.973073e+01
1	 8.818538e-01	 1.144008e+00	-3.239748e+01
1	 8.607464e-01	 1.159972e+00	-3.501728e+01
1	 8.393791e-01	 1.175526e+00	-3.758714e+01
1	 8.177637e-01	 1.190665e+00	-4.010420e+01
1	 7.863113e-01	 1.144870e+00	-3.759207e+01
1	 7.653004e-01	 1.159020e+00	-4.090653e+01
1	 7.440743e-01	 1.172760e+00	-4.415109e+01
1	 7.226450e-01	 1.186085e+00	-4.732294e+01
1	 7.010244e-01	 1.198990e+00	-5.041942e+01
1	 6.792246e-01	 1.211473e+00	-5.343801e+01
1	 7.926017e-01	 1.154029e+00	-3.811417e+01
1	 7.714228e-01	 1.168292e+00	-4.138831e+01
1	 7.500269e-01	 1.182142e+00	-4.458899e+01
1	 7.284261e-01	 1.195573e+00	-4.771334e+01
1	 7.066326e-01	 1.208582e+00	-5.075863e+01
1	 6.846583e-01	 1.221165e+00	-5.372231e+01
1	 7.988922e-01	 1.163188e+00	-3.862620e+01
1	 7.775452e-01	 1.177564e+00	-4.185917e+01
1	 7.559795e-01	 1.191524e+00	-4.501518e+01
1	 7.342073e-01	 1.205062e+00	-4.809129e+01
1	 7.122408e-01	 1.218174e+00	-5.108472e+01
1	 6.900921e-01	 1.230856e+00	-5.399285e+01
1	 8.051827e-01	 1.172347e+00	-3.912840e+01
1	 7.836676e-01	 1.186837e+00	-4.231938e+01
1	 7.619321e-01	 1.200906e+00	-4.542995e+01
1	 7.399885e-01	 1.214551e+00	-4.845710e+01
1	 7.178490e-01	 1.227766e+00	-5.139799e+01
1	 6.955259e-01	 1.240548e+00	-5.424996e+01
1	 8.114732e-01	 1.181506e+00	-3.962099e+01
1	 7.897900e-01	 1.196109e+00	-4.276918e+01
1	 7.678847e-01	 1.210288e+00	-4.583355e+01
1	 7.457696e-01	 1.224039e+00	-4.881104e+01
1	 7.234571e-01	 1.237358e+00	-5.169874e+01
1	 7.009597e-01	 1.250240e+00	-5.449396e+01
1	 8.177637e-01	 1.190665e+00	-4.010420e+01
1	 7.959124e-01	 1.205381e+00	-4.320880e+01
1	 7.738373e-01	 1.219670e+00	-4.622625e+01
1	 7.515508e-01	 1.233528e+00	-4.915338e+01
1	 7.290653e-01	 1.246950e+00	-5.198726e+01
1	 7.063935e-01	 1.259932e+00	-5.472514e+01
1	 6.792246e-01	 1.211473e+00	-5.343801e+01
1	 6.572577e-01	 1.223530e+00	-5.559290e+01
1	 6.351359e-01	 1.235158e+00	-5.770756e+01
1	 6.128714e-01	 1.246355e+00	-5.978022e+01
1	 5.904765e-01	 1.257120e+00	-6.180921e+01
1	 5.679633e-01	 1.267450e+00	-6.379291e+01
1	 6.846583e-01	 1.221165e+00	-5.372231e+01
1	 6.625157e-01	 1.233318e+00	-5.582246e+01
1	 6.402170e-01	 1.245039e+00	-5.788066e+01
1	 6.177744e-01	 1.256326e+00	-5.989522e+01
1	 5.952003e-01	 1.267177e+00	-6.186451e+01
1	 5.725070e-01	 1.277590e+00	-6.378702e+01
1	 6.900921e-01	 1.230856e+00	-5.399285e+01
1	 6.677738e-01	 1.243106e+00	-5.603849e+01
1	 6.452981e-01	 1.254920e+00	-5.804050e+01
1	 6.226774e-01	 1.266297e+00	-5.999723e+01
1	 5.999241e-01	 1.277234e+00	-6.190713e+01
1	 5.770507e-01	 1.287729e+00	-6.376876e+01
1	 6.955259e-01	 1.240548e+00	-5.424996e+01
1	 6.730318e-01	 1.252894e+00	-5.624133e+01
1	 6.503791e-01	 1.264802e+00	-5.818739e+01
1	 6.275803e-01	 1.276268e+00	-6.008656e+01
1	 6.046479e-01	 1.287291e+00	-6.193737e+01
1	 5.815945e-01	 1.297869e+00	-6.373842e+01
1	 7.009597e-01	 1.250240e+00	-5.449396e+01
1	 6.782899e-01	 1.262683e+00	-5.643128e+01
1	 6.554602e-01	 1.274683e+00	-5.832163e+01
1	 6.324833e-01	 1.286238e+00	-6.016351e+01
1	 6.093718e-01	 1.297347e+00	-6.195550e+01
1	 5.861382e-01	 1.308009e+00	-6.369628e+01
1	 7.063935e-01	 1.259932e+00	-5.472514e+01
1	 6.835480e-01	 1.272471e+00	-5.660863e+01
1	 6.605413e-01	 1.284564e+00	-5.844352e+01
1	 6.373863e-01	 1.296209e+00	-6.022836e+01
1	 6.140956e-01	 1.307404e+00	-6.196181e+01
1	 5.906819e-01	 1.318148e+00	-6.364262e+01
1	 5.679633e-01	 1.267450e+00	-6.379291e+01
1	 5.453440e-01	 1.277346e+00	-6.468927e+01
1	 5.226308e-01	 1.286806e+00	-6.546962e+01
1	 4.998355e-01	 1.295831e+00	-6.613157e+01
1	 4.769703e-01	 1.304420e+00	-6.667311e+01
1	 4.540469e-01	 1.312575e+00	-6.709265e+01
1	 5.725070e-01	 1.277590e+00	-6.378702e+01
1	 5.497068e-01	 1.287565e+00	-6.460340e+01
1	 5.268118e-01	 1.297100e+00	-6.531138e+01
1	 5.038342e-01	 1.306197e+00	-6.590870e+01
1	 4.807861e-01	 1.314855e+00	-6.639349e+01
1	 4.576792e-01	 1.323076e+00	-6.676426e+01
1	 5.770507e-01	 1.287729e+00	-6.376876e+01
1	 5.540696e-01	 1.297783e+00	-6.450713e+01
1	 5.309929e-01	 1.307395e+00	-6.514457e+01
1	 5.078329e-01	 1.316564e+00	-6.567897e+01
1	 4.846018e-01	 1.325291e+00	-6.610859e+01
1	 4.613116e-01	 1.333576e+00	-6.643203e+01
1	 5.815945e-01	 1.297869e+00	-6.373842e+01
1	 5.584323e-01	 1.308002e+00	-6.440069e+01
1	 5.351739e-01	 1.317689e+00	-6.496938e+01
1	 5.118316e-01	 1.326930e+00	-6.544253e+01
1	 4.884176e-01	 1.335726e+00	-6.581852e+01
1	 4.649440e-01	 1.344077e+00	-6.609606e+01
1	 5.861382e-01	 1.308009e+00	-6.369628e+01
1	 5.627951e-01	 1.318221e+00	-6.428433e+01
1	 5.393550e-01	 1.327984e+00	-6.478602e+01
1	 5.158303e-01	 1.337297e+00	-6.519955e+01
1	 4.922333e-01	 1.346162e+00	-6.552342e+01
1	 4.685764e-01	 1.354578e+00	-6.575642e+01
1	 5.906819e-01	 1.318148e+00	-6.364262e+01
1	 5.671578e-01	 1.328440e+00	-6.415827e+01
1	 5.435360e-01	 1.338278e+00	-6.459468e+01
1	 5.198290e-01	 1.347664e+00	-6.495018e+01
1	 4.960491e-01	 1.356597e+00	-6.522339e+01
1	 4.722087e-01	 1.365078e+00	-6.541322e+01
1	 4.540469e-01	 1.312575e+00	-6.709265e+01
1	 4.310770e-01	 1.320297e+00	-6.669142e+01
1	 4.080721e-01	 1.327588e+00	-6.614117e+01
1	 3.850438e-01	 1.334449e+00	-6.544137e+01
1	 3.620032e-01	 1.340883e+00	-6.459203e+01
1	 3.389614e-01	 1.346892e+00	-6.359363e+01
1	 4.576792e-01	 1.323076e+00	-6.676426e+01
1	 4.345256e-01	 1.330860e+00	-6.632160e+01
1	 4.113367e-01	 1.338209e+00	-6.575107e+01
1	 3.881242e-01	 1.345124e+00	-6.505216e+01
1	 3.648993e-01	 1.351610e+00	-6.422485e+01
1	 3.416731e-01	 1.357667e+00	-6.326955e+01
1	 4.613116e-01	 1.333576e+00	-6.643203e+01
1	 4.379742e-01	 1.341422e+00	-6.595100e+01
1	 4.146013e-01	 1.348829e+00	-6.536289e+01
1	 3.912045e-01	 1.355800e+00	-6.466724e+01
1	 3.677953e-01	 1.362337e+00	-6.386399e+01
1	 3.443848e-01	 1.368442e+00	-6.295347e+01
1	 4.649440e-01	 1.344077e+00	-6.609606e+01
1	 4.414228e-01	 1.351984e+00	-6.557964e+01
1	 4.178659e-01	 1.359450e+00	-6.497660e+01
1	 3.942849e-01	 1.366476e+00	-6.428652e+01
1	 3.706913e-01	 1.373064e+00	-6.350931e+01
1	 3.470965e-01	 1.379217e+00	-6.264523e+01
1	 4.685764e-01	 1.354578e+00	-6.575642e+01
1	 4.448714e-01	 1.362547e+00	-6.520753e+01
1	 4.211304e-01	 1.370071e+00	-6.459214e+01
1	 3.973652e-01	 1.377151e+00	-6.390989e+01
1	 3.735873e-01	 1.383791e+00	-6.316066e+01
1	 3.498082e-01	 1.389992e+00	-6.234462e+01
1	 4.722087e-01	 1.365078e+00	-6.541322e+01
1	 4.483200e-01	 1.373109e+00	-6.483468e+01
1	 4.243950e-01	 1.380691e+00	-6.420948e+01
1	 4.004456e-01	 1.387827e+00	-6.353726e+01
1	 3.764834e-01	 1.394518e+00	-6.281789e+01
1	 3.525199e-01	 1.400767e+00	-6.205149e+01
1	 3.389614e-01	 1.346892e+00	-6.359363e+01
1	 3.159293e-01	 1.352480e+00	-6.250878e+01
1	 2.929173e-01	 1.357649e+00	-6.126146e+01
1	 2.699361e-01	 1.362405e+00	-5.985340e+01
1	 2.469957e-01	 1.366750e+00	-5.828679e+01
1	 2.241062e-01	 1.370689e+00	-5.656424e+01
1	 3.416731e-01	 1.357667e+00	-6.326955e+01
1	 3.184567e-01	 1.363299e+00	-6.224298e+01
1	 2.952607e-01	 1.368511e+00	-6.107007e+01
1	 2.720956e-01	 1.373304e+00	-5.975241e+01
1	 2.489717e-01	 1.377684e+00	-5.829200e+01
1	 2.258990e-01	 1.381655e+00	-5.669125e+01
1	 3.443848e-01	 1.368442e+00	-6.295347e+01
1	 3.209841e-01	 1.374119e+00	-6.198675e+01
1	 2.976040e-01	 1.379372e+00	-6.088954e+01
1	 2.742551e-01	 1.384203e+00	-5.966330e+01
1	 2.509477e-01	 1.388618e+00	-5.830987e+01
1	 2.276919e-01	 1.392620e+00	-5.683144e+01
1	 3.470965e-01	 1.379217e+00	-6.264523e+01
1	 3.235116e-01	 1.384939e+00	-6.173986e+01
1	 2.999474e-01	 1.390233e+00	-6.071961e+01
1	 2.764146e-01	 1.395103e+00	-5.958581e+01
1	 2.529236e-01	 1.399552e+00	-5.834011e+01
1	 2.294847e-01	 1.403586e+00	-5.698451e+01
1	 3.498082e-01	 1.389992e+00	-6.234462e+01
1	 3.260390e-01	 1.395759e+00	-6.150209e+01
1	 3.022907e-01	 1.401094e+00	-6.056003e+01
1	 2.785741e-01	 1.406002e+00	-5.951965e+01
1	 2.548996e-01	 1.410486e+00	-5.838243e+01
1	 2.312776e-01	 1.414551e+00	-5.715016e+01
1	 3.525199e-01	 1.400767e+00	-6.205149e+01
1	 3.285664e-01	 1.406579e+00	-6.127323e+01
1	 3.046340e-01	 1.411955e+00	-6.041057e+01
1	 2.807336e-01	 1.416901e+00	-5.946457e+01
1	 2.568756e-01	 1.421420e+00	-5.843656e+01
1	 2.330704e-01	 1.425517e+00	-5.732810e+01
1	 2.241062e-01	 1.370689e+00	-5.656424e+01
1	 2.012771e-01	 1.374227e+00	-5.498706e+01
1	 1.785179e-01	 1.377368e+00	-5.336988e+01
1	 1.558377e-01	 1.380118e+00	-5.171452e+01
1	 1.332455e-01	 1.382483e+00	-5.002289e+01
1	 1.107498e-01	 1.384466e+00	-4.829689e+01
1	 2.258990e-01	 1.381655e+00	-5.669125e+01
1	 2.028873e-01	 1.385221e+00	-5.525100e+01
1	 1.799460e-01	 1.388387e+00	-5.377772e+01
1	 1.570844e-01	 1.391159e+00	-5.227301e+01
1	 1.343114e-01	 1.393542e+00	-5.073853e+01
1	 1.116358e-01	 1.395542e+00	-4.917594e+01
1	 2.276919e-01	 1.392620e+00	-5.683144e+01
1	 2.044975e-01	 1.396215e+00	-5.552782e+01
1	 1.813741e-01	 1.399406e+00	-5.419800e+01
1	 1.583311e-01	 1.402200e+00	-5.284340e+01
1	 1.353774e-01	 1.404602e+00	-5.146541e+01
1	 1.125218e-01	 1.406618e+00	-5.006547e+01
1	 2.294847e-01	 1.403586e+00	-5.698451e+01
1	 2.061077e-01	 1.407208e+00	-5.581720e+01
1	 1.828023e-01	 1.410425e+00	-5.463043e+01
1	 1.595778e-01	 1.413241e+00	-5.342539e+01
1	 1.364434e-01	 1.415662e+00	-5.220326e+01
1	 1.134078e-01	 1.417693e+00	-5.096523e+01
1	 2.312776e-01	 1.414551e+00	-5.715016e+01
1	 2.077179e-01	 1.418202e+00	-5.611886e+01
1	 1.842304e-01	 1.421444e+00	-5.507473e+01
1	 1.608245e-01	 1.424282e+00	-5.401874e+01
1	 1.375093e-01	 1.426722e+00	-5.295183e+01
1	 1.142938e-01	 1.428769e+00	-5.187498e+01
1	 2.330704e-01	 1.425517e+00	-5.732810e+01
1	 2.093282e-01	 1.429196e+00	-5.643251e+01
1	 1.856586e-01	 1.432463e+00	-5.553062e+01
1	 1.620712e-01	 1.435323e+00	-5.462316e+01
1	 1.385753e-01	 1.437782e+00	-5.371088e+01
1	 1.151798e-01	 1.439845e+00	-5.279450e+01
1	 1.107498e-01	 1.384466e+00	-4.829689e+01
1	 8.835892e-02	 1.386075e+00	-4.658355e+01
1	 6.608093e-02	 1.387316e+00	-4.486792e+01
1	 4.392354e-02	 1.388194e+00	-4.315081e+01
1	 2.189418e-02	 1.388716e+00	-4.143293e+01
1	 0.000000e+00	 1.388889e+00	-3.971495e+01
1	 1.116358e-01	 1.395542e+00	-4.917594e+01
1	 8.906580e-02	 1.397164e+00	-4.761974e+01
1	 6.660958e-02	 1.398415e+00	-4.605316e+01
1	 4.427493e-02	 1.399300e+00	-4.447703e+01
1	 2.206933e-02	 1.399826e+00	-4.289212e+01
1	 0.000000e+00	 1.400000e+00	-4.129916e+01
1	 1.125218e-01	 1.406618e+00	-5.006547e+01
1	 8.977267e-02	 1.408253e+00	-4.866571e+01
1	 6.713823e-02	 1.409513e+00	-4.724761e+01
1	 4.462631e-02	 1.410405e+00	-4.581202e+01
1	 2.224449e-02	 1.410936e+00	-4.435975e+01
1	 0.000000e+00	 1.411111e+00	-4.289158e+01
1	 1.134078e-01	 1.417693e+00	-5.096523e+01
1	 9.047954e-02	 1.419341e+00	-4.972125e+01
1	 6.766687e-02	 1.420612e+00	-4.845108e+01
1	 4.497770e-02	 1.421511e+00	-4.715558e+01
1	 2.241964e-02	 1.422046e+00	-4.583561e+01
1	 0.000000e+00	 1.422222e+00	-4.449202e+01
1	 1.142938e-01	 1.428769e+00	-5.187498e+01
1	 9.118641e-02	 1.430430e+00	-5.078613e+01
1	 6.819552e-02	 1.431710e+00	-4.966334e+01
1	 4.532909e-02	 1.432616e+00	-4.850751e+01
1	 2.259479e-02	 1.433155e+00	-4.731952e+01
1	 0.000000e+00	 1.433333e+00	-4.610028e+01
1	 1.151798e-01	 1.439845e+00	-5.279450e+01
1	 9.189328e-02	 1.441518e+00	-5.186014e+01
1	 6.872417e-02	 1.442809e+00	-5.088421e+01
1	 4.568048e-02	 1.443722e+00	-4.986761e+01
1	 2.276995e-02	 1.444265e+00	-4.881129e+01
1	 0.000000e+00	 1.444444e+00	-4.771619e+01
1	 1.444444e+00	 0.000000e+00	 1.428995e+01
1	 1.444265e+00	 2.276995e-02	 1.471451e+01
1	 1.443722e+00	 4.568048e-02	 1.510625e+01
1	 1.442809e+00	 6.872417e-02	 1.546459e+01
1	 1.441518e+00	 9.189328e-02	 1.578897e+01
1	 1.439845e+00	 1.151798e-01	 1.607888e+01
1	 1.455556e+00	 0.000000e+00	 1.422606e+01
1	 1.455375e+00	 2.294510e-02	 1.461762e+01
1	 1.454827e+00	 4.603187e-02	 1.497498e+01
1	 1.453907e+00	 6.925282e-02	 1.529746e+01
1	 1.452607e+00	 9.260015e-02	 1.558444e+01
1	 1.450921e+00	 1.160658e-01	 1.583531e+01
1	 1.466667e+00	 0.000000e+00	 1.418457e+01
1	 1.466484e+00	 2.312025e-02	 1.454238e+01
1	 1.465933e+00	 4.638326e-02	 1.486462e+01
1	 1.465006e+00	 6.978146e-02	 1.515054e+01
1	 1.463696e+00	 9.330702e-02	 1.539942e+01
1	 1.461996e+00	 1.169518e-01	 1.561058e+01
1	 1.477778e+00	 0.000000e+00	 1.416498e+01
1	 1.477594e+00	 2.329541e-02	 1.448831e+01
1	 1.477039e+00	 4.673464e-02	 1.477471e+01
1	 1.476104e+00	 7.031011e-02	 1.502337e+01
1	 1.474784e+00	 9.401390e-02	 1.523347e+01
1	 1.473072e+00	 1.178378e-01	 1.540426e+01
1	 1.488889e+00	 0.000000e+00	 1.416681e+01
1	 1.488704e+00	 2.347056e-02	 1.445492e+01
1	 1.488144e+00	 4.708603e-02	 1.470479e+01
1	 1.487203e+00	 7.083876e-02	 1.491549e+01
1	 1.485873e+00	 9.472077e-02	 1.508615e+01
1	 1.484148e+00	 1.187238e-01	 1.521594e+01
1	 1.500000e+00	 0.000000e+00	 1.418956e+01
1	 1.499814e+00	 2.364571e-02	 1.444176e+01
1	 1.499250e+00	 4.743742e-02	 1.465441e+01
1	 1.498301e+00	 7.136741e-02	 1.482649e+01
1	 1.496961e+00	 9.542764e-02	 1.495707e+01
1	 1.495224e+00	 1.196098e-01	 1.504522e+01
1	 1.439845e+00	 1.151798e-01	 1.607888e+01
1	 1.437782e+00	 1.385753e-01	 1.632444e+01
1	 1.435323e+00	 1.620712e-01	 1.653633e+01
1	 1.432463e+00	 1.856586e-01	 1.671337e+01
1	 1.429196e+00	 2.093282e-01	 1.685438e+01
1	 1.425517e+00	 2.330704e-01	 1.695822e+01
1	 1.450921e+00	 1.160658e-01	 1.583531e+01
1	 1.448842e+00	 1.396413e-01	 1.603402e+01
1	 1.446364e+00	 1.633179e-01	 1.620134e+01
1	 1.443482e+00	 1.870867e-01	 1.633605e+01
1	 1.440190e+00	 2.109384e-01	 1.643697e+01
1	 1.436482e+00	 2.348633e-01	 1.650293e+01
1	 1.461996e+00	 1.169518e-01	 1.561058e+01
1	 1.459902e+00	 1.407072e-01	 1.576180e+01
1	 1.457405e+00	 1.645646e-01	 1.588388e+01
1	 1.454501e+00	 1.885149e-01	 1.597557e+01
1	 1.451184e+00	 2.125486e-01	 1.603566e+01
1	 1.447448e+00	 2.366561e-01	 1.606296e+01
1	 1.473072e+00	 1.178378e-01	 1.540426e+01
1	 1.470961e+00	 1.417732e-01	 1.550739e+01
1	 1.468446e+00	 1.658113e-01	 1.558356e+01
1	 1.465520e+00	 1.899430e-01	 1.563154e+01
1	 1.462178e+00	 2.141588e-01	 1.565008e+01
1	 1.458413e+00	 2.384490e-01	 1.563796e+01
1	 1.484148e+00	 1.187238e-01	 1.521594e+01
1	 1.482021e+00	 1.428392e-01	 1.527037e+01
1	 1.479487e+00	 1.670580e-01	 1.530000e+01
1	 1.476539e+00	 1.913711e-01	 1.530359e+01
1	 1.473171e+00	 2.157690e-01	 1.527987e+01
1	 1.469379e+00	 2.402418e-01	 1.522760e+01
1	 1.495224e+00	 1.196098e-01	 1.504522e+01
1	 1.493081e+00	 1.439051e-01	 1.505036e+01
1	 1.490528e+00	 1.683047e-01	 1.503283e+01
1	 1.487558e+00	 1.927993e-01	 1.499137e+01
1	 1.484165e+00	 2.173792e-01	 1.492470e+01
1	 1.480344e+00	 2.420347e-01	 1.483154e+01
1	 1.425517e+00	 2.330704e-01	 1.695822e+01
1	 1.421420e+00	 2.568756e-01	 1.710815e+01
1	 1.416901e+00	 2.807336e-01	 1.719840e+01
1	 1.411955e+00	 3.046340e-01	 1.722673e+01
1	 1.406579e+00	 3.285664e-01	 1.719097e+01
1	 1.400767e+00	 3.525199e-01	 1.708908e+01
1	 1.436482e+00	 2.348633e-01	 1.650293e+01
1	 1.432354e+00	 2.588515e-01	 1.660989e+01
1	 1.427800e+00	 2.828931e-01	 1.666236e+01
1	 1.422817e+00	 3.069774e-01	 1.665800e+01
1	 1.417399e+00	 3.310939e-01	 1.659455e+01
1	 1.411543e+00	 3.552316e-01	 1.646981e+01
1	 1.447448e+00	 2.366561e-01	 1.606296e+01
1	 1.443288e+00	 2.608275e-01	 1.612540e+01
1	 1.438699e+00	 2.850525e-01	 1.613845e+01
1	 1.433678e+00	 3.093207e-01	 1.609969e+01
1	 1.428218e+00	 3.336213e-01	 1.600674e+01
1	 1.422318e+00	 3.579433e-01	 1.585728e+01
1	 1.458413e+00	 2.384490e-01	 1.563796e+01
1	 1.454222e+00	 2.628035e-01	 1.565436e+01
1	 1.449599e+00	 2.872120e-01	 1.562641e+01
1	 1.444539e+00	 3.116641e-01	 1.555156e+01
1	 1.439038e+00	 3.361487e-01	 1.542735e+01
1	 1.433093e+00	 3.606550e-01	 1.525132e+01
1	 1.469379e+00	 2.402418e-01	 1.522760e+01
1	 1.465156e+00	 2.647794e-01	 1.519649e+01
1	 1.460498e+00	 2.893715e-01	 1.512596e+01
1	 1.455400e+00	 3.140074e-01	 1.501339e+01
1	 1.449858e+00	 3.386762e-01	 1.485619e+01
1	 1.443868e+00	 3.633667e-01	 1.465178e+01
1	 1.480344e+00	 2.420347e-01	 1.483154e+01
1	 1.476090e+00	 2.667554e-01	 1.475148e+01
1	 1.471397e+00	 2.915310e-01	 1.463685e+01
1	 1.466261e+00	 3.163507e-01	 1.448495e+01
1	 1.460678e+00	 3.412036e-01	 1.429308e+01
1	 1.454643e+00	 3.660783e-01	 1.405853e+01
1	 1.400767e+00	 3.525199e-01	 1.708908e+01
1	 1.394518e+00	 3.764834e-01	 1.703715e+01
1	 1.387827e+00	 4.004456e-01	 1.692057e+01
1	 1.380691e+00	 4.243950e-01	 1.673788e+01
1	 1.373109e+00	 4.483200e-01	 1.648773e+01
1	 1.365078e+00	 4.722087e-01	 1.616889e+01
1	 1.411543e+00	 3.552316e-01	 1.646981e+01
1	 1.405245e+00	 3.793794e-01	 1.640244e+01
1	 1.398502e+00	 4.035259e-01	 1.627445e+01
1	 1.391312e+00	 4.276596e-01	 1.608440e+01
1	 1.383672e+00	 4.517686e-01	 1.583097e+01
1	 1.375579e+00	 4.758411e-01	 1.551294e+01
1	 1.422318e+00	 3.579433e-01	 1.585728e+01
1	 1.415972e+00	 3.822754e-01	 1.577431e+01
1	 1.409178e+00	 4.066063e-01	 1.563469e+01
1	 1.401933e+00	 4.309242e-01	 1.543701e+01
1	 1.394234e+00	 4.552173e-01	 1.517996e+01
1	 1.386079e+00	 4.794735e-01	 1.486234e+01
1	 1.433093e+00	 3.606550e-01	 1.525132e+01
1	 1.426699e+00	 3.851714e-01	 1.515261e+01
1	 1.419854e+00	 4.096866e-01	 1.500116e+01
1	 1.412553e+00	 4.341888e-01	 1.479558e+01
1	 1.404796e+00	 4.586659e-01	 1.453458e+01
1	 1.396580e+00	 4.831059e-01	 1.421698e+01
1	 1.443868e+00	 3.633667e-01	 1.465178e+01
1	 1.437426e+00	 3.880675e-01	 1.453719e+01
1	 1.430529e+00	 4.127670e-01	 1.437371e+01
1	 1.423174e+00	 4.374533e-01	 1.415997e+01
1	 1.415359e+00	 4.621145e-01	 1.389470e+01
1	 1.407081e+00	 4.867382e-01	 1.357672e+01
1	 1.454643e+00	 3.660783e-01	 1.405853e+01
1	 1.448153e+00	 3.909635e-01	 1.392793e+01
1	 1.441205e+00	 4.158473e-01	 1.375221e+01
1	 1.433795e+00	 4.407179e-01	 1.353005e+01
1	 1.425921e+00	 4.655631e-01	 1.326019e+01
1	 1.417581e+00	 4.903706e-01	 1.294147e+01
1	 1.365078e+00	 4.722087e-01	 1.616889e+01
1	 1.356597e+00	 4.960491e-01	 1.559544e+01
1	 1.347664e+00	 5.198290e-01	 1.497115e+01
1	 1.338278e+00	 5.435360e-01	 1.429783e+01
1	 1.328440e+00	 5.671578e-01	 1.357737e+01
1	 1.318148e+00	 5.906819e-01	 1.281186e+01
1	 1.375579e+00	 4.758411e-01	 1.551294e+01
1	 1.367032e+00	 4.998649e-01	 1.496190e+01
1	 1.358030e+00	 5.238276e-01	 1.436146e+01
1	 1.348573e+00	 5.477171e-01	 1.371332e+01
1	 1.338658e+00	 5.715206e-01	 1.301930e+01
1	 1.328288e+00	 5.952256e-01	 1.228135e+01
1	 1.386079e+00	 4.794735e-01	 1.486234e+01
1	 1.377468e+00	 5.036806e-01	 1.433282e+01
1	 1.368397e+00	 5.278263e-01	 1.375531e+01
1	 1.358867e+00	 5.518981e-01	 1.313141e+01
1	 1.348877e+00	 5.758833e-01	 1.246285e+01
1	 1.338427e+00	 5.997693e-01	 1.175148e+01
1	 1.396580e+00	 4.831059e-01	 1.421698e+01
1	 1.387903e+00	 5.074964e-01	 1.370810e+01
1	 1.378764e+00	 5.318250e-01	 1.315261e+01
1	 1.369161e+00	 5.560791e-01	 1.255203e+01
1	 1.359096e+00	 5.802461e-01	 1.190799e+01
1	 1.348567e+00	 6.043130e-01	 1.122224e+01
1	 1.407081e+00	 4.867382e-01	 1.357672e+01
1	 1.398338e+00	 5.113122e-01	 1.308763e+01
1	 1.389130e+00	 5.358237e-01	 1.255330e+01
1	 1.379456e+00	 5.602602e-01	 1.197514e+01
1	 1.369315e+00	 5.846088e-01	 1.135469e+01
1	 1.358707e+00	 6.088567e-01	 1.069360e+01
1	 1.417581e+00	 4.903706e-01	 1.294147e+01
1	 1.408774e+00	 5.151279e-01	 1.247133e+01
1	 1.399497e+00	 5.398224e-01	 1.195729e+01
1	 1.389750e+00	 5.644412e-01	 1.140067e+01
1	 1.379533e+00	 5.889716e-01	 1.080291e+01
1	 1.368846e+00	 6.134004e-01	 1.016556e+01
1	 1.318148e+00	 5.906819e-01	 1.281186e+01
1	 1.307404e+00	 6.140956e-01	 1.123465e+01
1	 1.296209e+00	 6.373863e-01	 9.606744e+00
1	 1.284564e+00	 6.605413e-01	 7.928946e+00
1	 1.272471e+00	 6.835480e-01	 6.202187e+00
1	 1.259932e+00	 7.063935e-01	 4.427515e+00
1	 1.328288e+00	 5.952256e-01	 1.228135e+01
1	 1.317461e+00	 6.188194e-01	 1.071849e+01
1	 1.306180e+00	 6.422893e-01	 9.106028e+00
1	 1.294445e+00	 6.656224e-01	 7.444983e+00
1	 1.282259e+00	 6.888060e-01	 5.736474e+00
1	 1.269623e+00	 7.118273e-01	 3.981743e+00
1	 1.338427e+00	 5.997693e-01	 1.175148e+01
1	 1.327518e+00	 6.235432e-01	 1.020445e+01
1	 1.316151e+00	 6.471922e-01	 8.608909e+00
1	 1.304327e+00	 6.707035e-01	 6.966071e+00
1	 1.292047e+00	 6.940641e-01	 5.277250e+00
1	 1.279315e+00	 7.172611e-01	 3.543875e+00
1	 1.348567e+00	 6.043130e-01	 1.122224e+01
1	 1.337575e+00	 6.282670e-01	 9.692481e+00
1	 1.326122e+00	 6.520952e-01	 8.115304e+00
1	 1.314208e+00	 6.757846e-01	 6.492098e+00
1	 1.301836e+00	 6.993221e-01	 4.824368e+00
1	 1.289007e+00	 7.226949e-01	 3.113732e+00
1	 1.358707e+00	 6.088567e-01	 1.069360e+01
1	 1.347632e+00	 6.329908e-01	 9.182546e+00
1	 1.336093e+00	 6.569982e-01	 7.625136e+00
1	 1.324089e+00	 6.808657e-01	 6.022952e+00
1	 1.311624e+00	 7.045802e-01	 4.377686e+00
1	 1.298699e+00	 7.281287e-01	 2.691143e+00
1	 1.368846e+00	 6.134004e-01	 1.016556e+01
1	 1.357689e+00	 6.377146e-01	 8.674596e+00
1	 1.346063e+00	 6.619011e-01	 7.138329e+00
1	 1.333970e+00	 6.859468e-01	 5.558526e+00
1	 1.321412e+00	 7.098383e-01	 3.937066e+00
1	 1.308391e+00	 7.335625e-01	 2.275939e+00
1	 1.259932e+00	 7.063935e-01	 4.427515e+00
1	 1.246950e+00	 7.290653e-01	 1.898079e+00
1	 1.233528e+00	 7.515508e-01	-6.570019e-01
1	 1.219670e+00	 7.738373e-01	-3.234513e+00
1	 1.205381e+00	 7.959124e-01	-5.831162e+00
1	 1.190665e+00	 8.177637e-01	-8.443590e+00
1	 1.269623e+00	 7.118273e-01	 3.981743e+00
1	 1.256542e+00	 7.346735e-01	 1.486362e+00
1	 1.243017e+00	 7.573319e-01	-1.030876e+00
1	 1.229052e+00	 7.797899e-01	-3.566395e+00
1	 1.214653e+00	 8.020348e-01	-6.116552e+00
1	 1.199824e+00	 8.240542e-01	-8.677644e+00
1	 1.279315e+00	 7.172611e-01	 3.543875e+00
1	 1.266134e+00	 7.402817e-01	 1.085162e+00
1	 1.252505e+00	 7.631131e-01	-1.391666e+00
1	 1.238434e+00	 7.857425e-01	-3.882679e+00
1	 1.223925e+00	 8.081572e-01	-6.383885e+00
1	 1.208983e+00	 8.303447e-01	-8.891242e+00
1	 1.289007e+00	 7.226949e-01	 3.113732e+00
1	 1.275725e+00	 7.458899e-01	 6.942420e-01
1	 1.261994e+00	 7.688943e-01	-1.739668e+00
1	 1.247817e+00	 7.916951e-01	-4.183717e+00
1	 1.233197e+00	 8.142796e-01	-6.633570e+00
1	 1.218142e+00	 8.366352e-01	-9.084846e+00
1	 1.298699e+00	 7.281287e-01	 2.691143e+00
1	 1.285317e+00	 7.514981e-01	 3.133724e-01
1	 1.271483e+00	 7.746754e-01	-2.075168e+00
1	 1.257199e+00	 7.976476e-01	-4.469851e+00
1	 1.242470e+00	 8.204020e-01	-6.866000e+00
1	 1.227300e+00	 8.429257e-01	-9.258903e+00
1	 1.308391e+00	 7.335625e-01	 2.275939e+00
1	 1.294909e+00	 7.571063e-01	-5.767034e-02
1	 1.280971e+00	 7.804566e-01	-2.398444e+00
1	 1.266581e+00	 8.036002e-01	-4.741411e+00
1	 1.251742e+00	 8.265244e-01	-7.081559e+00
1	 1.236459e+00	 8.492162e-01	-9.413848e+00
1	 1.190665e+00	 8.177637e-01	-8.443590e+00
1	 1.175526e+00	 8.393791e-01	-1.011989e+01
1	 1.159972e+00	 8.607464e-01	-1.185224e+01
1	 1.144008e+00	 8.818538e-01	-1.364022e+01
1	 1.127640e+00	 9.026896e-01	-1.548328e+01
1	 1.110875e+00	 9.232423e-01	-1.738074e+01
1	 1.199824e+00	 8.240542e-01	-8.677644e+00
1	 1.184569e+00	 8.458358e-01	-1.032325e+01
1	 1.168895e+00	 8.673675e-01	-1.202783e+01
1	 1.152808e+00	 8.886373e-01	-1.379130e+01
1	 1.136314e+00	 9.096333e-01	-1.561343e+01
1	 1.119420e+00	 9.303442e-01	-1.749385e+01
1	 1.208983e+00	 8.303447e-01	-8.891242e+00
1	 1.193612e+00	 8.522926e-01	-1.050849e+01
1	 1.177818e+00	 8.739886e-01	-1.218758e+01
1	 1.161608e+00	 8.954208e-01	-1.392877e+01
1	 1.144988e+00	 9.165771e-01	-1.573213e+01
1	 1.127965e+00	 9.374460e-01	-1.759762e+01
1	 1.218142e+00	 8.366352e-01	-9.084846e+00
1	 1.202654e+00	 8.587493e-01	-1.067601e+01
1	 1.186741e+00	 8.806098e-01	-1.233185e+01
1	 1.170408e+00	 9.022043e-01	-1.405292e+01
1	 1.153662e+00	 9.235209e-01	-1.583965e+01
1	 1.136511e+00	 9.445479e-01	-1.769226e+01
1	 1.227300e+00	 8.429257e-01	-9.258903e+00
1	 1.211697e+00	 8.652061e-01	-1.082622e+01
1	 1.195664e+00	 8.872309e-01	-1.246097e+01
1	 1.179208e+00	 9.089877e-01	-1.416407e+01
1	 1.162336e+00	 9.304646e-01	-1.593623e+01
1	 1.145056e+00	 9.516498e-01	-1.777799e+01
1	 1.236459e+00	 8.492162e-01	-9.413848e+00
1	 1.220739e+00	 8.716629e-01	-1.095948e+01
1	 1.204586e+00	 8.938520e-01	-1.257529e+01
1	 1.188008e+00	 9.157712e-01	-1.426249e+01
1	 1.171010e+00	 9.374084e-01	-1.602211e+01
1	 1.153601e+00	 9.587516e-01	-1.785500e+01
1	 1.110875e+00	 9.232423e-01	-1.738074e+01
1	 1.093721e+00	 9.435007e-01	-1.814193e+01
1	 1.076186e+00	 9.634539e-01	-1.890732e+01
1	 1.058278e+00	 9.830911e-01	-1.967424e+01
1	 1.040005e+00	 1.002402e+00	-2.044004e+01
1	 1.021376e+00	 1.021376e+00	-2.120212e+01
1	 1.119420e+00	 9.303442e-01	-1.749385e+01
1	 1.102134e+00	 9.507584e-01	-1.822580e+01
1	 1.084464e+00	 9.708651e-01	-1.896821e+01
1	 1.066418e+00	 9.906533e-01	-1.971871e+01
1	 1.048005e+00	 1.010113e+00	-2.047493e+01
1	 1.029233e+00	 1.029233e+00	-2.123453e+01
1	 1.127965e+00	 9.374460e-01	-1.759762e+01
1	 1.110548e+00	 9.580161e-01	-1.830262e+01
1	 1.092743e+00	 9.782762e-01	-1.902425e+01
1	 1.074559e+00	 9.982156e-01	-1.976042e+01
1	 1.056005e+00	 1.017824e+00	-2.050905e+01
1	 1.037090e+00	 1.037090e+00	-2.126806e+01
1	 1.136511e+00	 9.445479e-01	-1.769226e+01
1	 1.118961e+00	 9.652738e-01	-1.837255e+01
1	 1.101021e+00	 9.856874e-01	-1.907553e+01
1	 1.082699e+00	 1.005778e+00	-1.979942e+01
1	 1.064005e+00	 1.025534e+00	-2.054242e+01
1	 1.044947e+00	 1.044947e+00	-2.130268e+01
1	 1.145056e+00	 9.516498e-01	-1.777799e+01
1	 1.127374e+00	 9.725315e-01	-1.843574e+01
1	 1.109299e+00	 9.930986e-01	-1.912216e+01
1	 1.090840e+00	 1.013340e+00	-1.983578e+01
1	 1.072005e+00	 1.033245e+00	-2.057504e+01
1	 1.052803e+00	 1.052803e+00	-2.133837e+01
1	 1.153601e+00	 9.587516e-01	-1.785500e+01
1	 1.135787e+00	 9.797892e-01	-1.849234e+01
1	 1.117578e+00	 1.000510e+00	-1.916426e+01
1	 1.098981e+00	 1.020902e+00	-1.986955e+01
1	 1.080005e+00	 1.040956e+00	-2.060694e+01
1	 1.060660e+00	 1.060660e+00	-2.137509e+01
1	 1.021376e+00	 1.021376e+00	-2.120212e+01
1	 1.002402e+00	 1.040005e+00	-2.227637e+01
1	 9.830911e-01	 1.058278e+00	-2.339610e+01
1	 9.634539e-01	 1.076186e+00	-2.456056e+01
1	 9.435007e-01	 1.093721e+00	-2.576890e+01
1	 9.232423e-01	 1.110875e+00	-2.702012e+01
1	 1.029233e+00	 1.029233e+00	-2.123453e+01
1	 1.010113e+00	 1.048005e+00	-2.232137e+01
1	 9.906533e-01	 1.066418e+00	-2.344801e+01
1	 9.708651e-01	 1.084464e+00	-2.461350e+01
1	 9.507584e-01	 1.102134e+00	-2.581682e+01
1	 9.303442e-01	 1.119420e+00	-2.705683e+01
1	 1.037090e+00	 1.037090e+00	-2.126806e+01
1	 1.017824e+00	 1.056005e+00	-2.236600e+01
1	 9.982156e-01	 1.074559e+00	-2.349815e+01
1	 9.782762e-01	 1.092743e+00	-2.466337e+01
1	 9.580161e-01	 1.110548e+00	-2.586046e+01
1	 9.374460e-01	 1.127965e+00	-2.708814e+01
1	 1.044947e+00	 1.044947e+00	-2.130268e+01
1	 1.025534e+00	 1.064005e+00	-2.241027e+01
1	 1.005778e+00	 1.082699e+00	-2.354655e+01
1	 9.856874e-01	 1.101021e+00	-2.471022e+01
1	 9.652738e-01	 1.118961e+00	-2.589990e+01
1	 9.445479e-01	 1.136511e+00	-2.711416e+01
1	 1.052803e+00	 1.052803e+00	-2.133837e+01
1	 1.033245e+00	 1.072005e+00	-2.245418e+01
1	 1.013340e+00	 1.090840e+00	-2.359326e+01
1	 9.930986e-01	 1.109299e+00	-2.475413e+01
1	 9.725315e-01	 1.127374e+00	-2.593524e+01
1	 9.516498e-01	 1.145056e+00	-2.713502e+01
1	 1.060660e+00	 1.060660e+00	-2.137509e+01
1	 1.040956e+00	 1.080005e+00	-2.249774e+01
1	 1.020902e+00	 1.098981e+00	-2.363832e+01
1	 1.000510e+00	 1.117578e+00	-2.479516e+01
1	 9.797892e-01	 1.135787e+00	-2.596657e+01
1	 9.587516e-01	 1.153601e+00	-2.715082e+01
1	 9.232423e-01	 1.110875e+00	-2.702012e+01
1	 9.026896e-01	 1.127640e+00	-2.973073e+01
1	 8.818538e-01	 1.144008e+00	-3.239748e+01
1	 8.607464e-01	 1.159972e+00	-3.501728e+01
1	 8.393791e-01	 1.175526e+00	-3.758714e+01
1	 8.177637e-01	 1.190665e+00	-4.010420e+01
1	 9.303442e-01	 1.119420e+00	-2.705683e+01
1	 9.096333e-01	 1.136314e+00	-2.974219e+01
1	 8.886373e-01	 1.152808e+00	-3.238367e+01
1	 8.673675e-01	 1.168895e+00	-3.497830e+01
1	 8.458358e-01	 1.184569e+00	-3.752316e+01
1	 8.240542e-01	 1.199824e+00	-4.001547e+01
1	 9.374460e-01	 1.127965e+00	-2.708814e+01
1	 9.165771e-01	 1.144988e+00	-2.974889e+01
1	 8.954208e-01	 1.161608e+00	-3.236578e+01
1	 8.739886e-01	 1.177818e+00	-3.493589e+01
1	 8.522926e-01	 1.193612e+00	-3.745641e+01
1	 8.303447e-01	 1.208983e+00	-3.992463e+01
1	 9.445479e-01	 1.136511e+00	-2.711416e+01
1	 9.235209e-01	 1.153662e+00	-2.975096e+01
1	 9.022043e-01	 1.170408e+00	-3.234389e+01
1	 8.806098e-01	 1.186741e+00	-3.489013e+01
1	 8.587493e-01	 1.202654e+00	-3.738695e+01
1	 8.366352e-01	 1.218142e+00	-3.983173e+01
1	 9.516498e-01	 1.145056e+00	-2.713502e+01
1	 9.304646e-01	 1.162336e+00	-2.974849e+01
1	 9.089877e-01	 1.179208e+00	-3.231810e+01
1	 8.872309e-01	 1.195664e+00	-3.484110e+01
1	 8.652061e-01	 1.211697e+00	-3.731485e+01
1	 8.429257e-01	 1.227300e+00	-3.973680e+01
1	 9.587516e-01	 1.153601e+00	-2.715082e+01
1	 9.374084e-01	 1.171010e+00	-2.974159e+01
1	 9.157712e-01	 1.188008e+00	-3.228849e+01
1	 8.938520e-01	 1.204586e+00	-3.478887e+01
1	 8.716629e-01	 1.220739e+00	-3.724016e+01
1	 8.492162e-01	 1.236459e+00	-3.963990e+01
1	 8.177637e-01	 1.190665e+00	-4.010420e+01
1	 7.959124e-01	 1.205381e+00	-4.320880e+01
1	 7.738373e-01	 1.219670e+00	-4.622625e+01
1	 7.515508e-01	 1.233528e+00	-4.915338e+01
1	 7.290653e-01	 1.246950e+00	-5.198726e+01
1	 7.063935e-01	 1.259932e+00	-5.472514e+01
1	 8.240542e-01	 1.199824e+00	-4.001547e+01
1	 8.020348e-01	 1.214653e+00	-4.308599e+01
1	 7.797899e-01	 1.229052e+00	-4.606156e+01
1	 7.573319e-01	 1.243017e+00	-4.893878e+01
1	 7.346735e-01	 1.256542e+00	-5.171452e+01
1	 7.118273e-01	 1.269623e+00	-5.438584e+01
1	 8.303447e-01	 1.208983e+00	-3.992463e+01
1	 8.081572e-01	 1.223925e+00	-4.295879e+01
1	 7.857425e-01	 1.238434e+00	-4.589032e+01
1	 7.631131e-01	 1.252505e+00	-4.871561e+01
1	 7.402817e-01	 1.266134e+00	-5.143131e+01
1	 7.172611e-01	 1.279315e+00	-5.403431e+01
1	 8.366352e-01	 1.218142e+00	-3.983173e+01
1	 8.142796e-01	 1.233197e+00	-4.282730e+01
1	 7.916951e-01	 1.247817e+00	-4.571269e+01
1	 7.688943e-01	 1.261994e+00	-4.848407e+01
1	 7.458899e-01	 1.275725e+00	-5.113787e+01
1	 7.226949e-01	 1.289007e+00	-5.367082e+01
1	 8.429257e-01	 1.227300e+00	-3.973680e+01
1	 8.204020e-01	 1.242470e+00	-4.269161e+01
1	 7.976476e-01	 1.257199e+00	-4.552881e+01
1	 7.746754e-01	 1.271483e+00	-4.824434e+01
1	 7.514981e-01	 1.285317e+00	-5.083443e+01
1	 7.281287e-01	 1.298699e+00	-5.329565e+01
1	 8.492162e-01	 1.236459e+00	-3.963990e+01
1	 8.265244e-01	 1.251742e+00	-4.255182e+01
1	 8.036002e-01	 1.266581e+00	-4.533882e+01
1	 7.804566e-01	 1.280971e+00	-4.799660e+01
1	 7.571063e-01	 1.294909e+00	-5.052121e+01
1	 7.335625e-01	 1.308391e+00	-5.290904e+01
1	 7.063935e-01	 1.259932e+00	-5.472514e+01
1	 6.835480e-01	 1.272471e+00	-5.660863e+01
1	 6.605413e-01	 1.284564e+00	-5.844352e+01
1	 6.373863e-01	 1.296209e+00	-6.022836e+01
1	 6.140956e-01	 1.307404e+00	-6.196181e+01
1	 5.906819e-01	 1.318148e+00	-6.364262e+01
1	 7.118273e-01	 1.269623e+00	-5.438584e+01
1	 6.888060e-01	 1.282259e+00	-5.620313e+01
1	 6.656224e-01	 1.294445e+00	-5.796713e+01
1	 6.422893e-01	 1.306180e+00	-5.967636e+01
1	 6.188194e-01	 1.317461e+00	-6.132947e+01
1	 5.952256e-01	 1.328288e+00	-6.292521e+01
1	 7.172611e-01	 1.279315e+00	-5.403431e+01
1	 6.940641e-01	 1.292047e+00	-5.578458e+01
1	 6.707035e-01	 1.304327e+00	-5.747694e+01
1	 6.471922e-01	 1.316151e+00	-5.910990e+01
1	 6.235432e-01	 1.327518e+00	-6.068207e+01
1	 5.997693e-01	 1.338427e+00	-6.219221e+01
1	 7.226949e-01	 1.289007e+00	-5.367082e+01
1	 6.993221e-01	 1.301836e+00	-5.535328e+01
1	 6.757846e-01	 1.314208e+00	-5.697328e+01
1	 6.520952e-01	 1.326122e+00	-5.852930e+01
1	 6.282670e-01	 1.337575e+00	-6.001995e+01
1	 6.043130e-01	 1.348567e+00	-6.144398e+01
1	 7.281287e-01	 1.298699e+00	-5.329565e+01
1	 7.045802e-01	 1.311624e+00	-5.490951e+01
1	 6.808657e-01	 1.324089e+00	-5.645645e+01
1	 6.569982e-01	 1.336093e+00	-5.793489e+01
1	 6.329908e-01	 1.347632e+00	-5.934344e+01
1	 6.088567e-01	 1.358707e+00	-6.068086e+01
1	 7.335625e-01	 1.308391e+00	-5.290904e+01
1	 7.098383e-01	 1.321412e+00	-5.445356e+01
1	 6.859468e-01	 1.333970e+00	-5.592673e+01
1	 6.619011e-01	 1.346063e+00	-5.732697e+01
1	 6.377146e-01	 1.357689e+00	-5.865287e+01
1	 6.134004e-01	 1.368846e+00	-5.990318e+01
1	 5.906819e-01	 1.318148e+00	-6.364262e+01
1	 5.671578e-01	 1.328440e+00	-6.415827e+01
1	 5.435360e-01	 1.338278e+00	-6.459468e+01
1	 5.198290e-01	 1.347664e+00	-6.495018e+01
1	 4.960491e-01	 1.356597e+00	-6.522339e+01
1	 4.722087e-01	 1.365078e+00	-6.541322e+01
1	 5.952256e-01	 1.328288e+00	-6.292521e+01
1	 5.715206e-01	 1.338658e+00	-6.334486e+01
1	 5.477171e-01	 1.348573e+00	-6.369400e+01
1	 5.238276e-01	 1.358030e+00	-6.397122e+01
1	 4.998649e-01	 1.367032e+00	-6.417533e+01
1	 4.758411e-01	 1.375579e+00	-6.430543e+01
1	 5.997693e-01	 1.338427e+00	-6.219221e+01
1	 5.758833e-01	 1.348877e+00	-6.251847e+01
1	 5.518981e-01	 1.358867e+00	-6.278282e+01
1	 5.278263e-01	 1.368397e+00	-6.298407e+01
1	 5.036806e-01	 1.377468e+00	-6.312127e+01
1	 4.794735e-01	 1.386079e+00	-6.319367e+01
1	 6.043130e-01	 1.348567e+00	-6.144398e+01
1	 5.802461e-01	 1.359096e+00	-6.167940e+01
1	 5.560791e-01	 1.369161e+00	-6.186137e+01
1	 5.318250e-01	 1.378764e+00	-6.198893e+01
1	 5.074964e-01	 1.387903e+00	-6.206134e+01
1	 4.831059e-01	 1.396580e+00	-6.207804e+01
1	 6.088567e-01	 1.358707e+00	-6.068086e+01
1	 5.846088e-01	 1.369315e+00	-6.082793e+01
1	 5.602602e-01	 1.379456e+00	-6.092987e+01
1	 5.358237e-01	 1.389130e+00	-6.098597e+01
1	 5.113122e-01	 1.398338e+00	-6.099568e+01
1	 4.867382e-01	 1.407081e+00	-6.095863e+01
1	 6.134004e-01	 1.368846e+00	-5.990318e+01
1	 5.889716e-01	 1.379533e+00	-5.996433e+01
1	 5.644412e-01	 1.389750e+00	-5.998856e+01
1	 5.398224e-01	 1.399497e+00	-5.997536e+01
1	 5.151279e-01	 1.408774e+00	-5.992442e+01
1	 4.903706e-01	 1.417581e+00	-5.983551e+01
1	 4.722087e-01	 1.365078e+00	-6.541322e+01
1	 4.483200e-01	 1.373109e+00	-6.483468e+01
1	 4.243950e-01	 1.380691e+00	-6.420948e+01
1	 4.004456e-01	 1.387827e+00	-6.353726e+01
1	 3.764834e-01	 1.394518e+00	-6.281789e+01
1	 3.525199e-01	 1.400767e+00	-6.205149e+01
1	 4.758411e-01	 1.375579e+00	-6.430543e+01
1	 4.517686e-01	 1.383672e+00	-6.368395e+01
1	 4.276596e-01	 1.391312e+00	-6.303765e+01
1	 4.035259e-01	 1.398502e+00	-6.236617e+01
1	 3.793794e-01	 1.405245e+00	-6.166931e+01
1	 3.552316e-01	 1.411543e+00	-6.094706e+01
1	 4.794735e-01	 1.386079e+00	-6.319367e+01
1	 4.552173e-01	 1.394234e+00	-6.253188e+01
1	 4.309242e-01	 1.401933e+00	-6.186676e+01
1	 4.066063e-01	 1.409178e+00	-6.119795e+01
1	 3.822754e-01	 1.415972e+00	-6.052522e+01
1	 3.579433e-01	 1.422318e+00	-5.984841e+01
1	 4.831059e-01	 1.396580e+00	-6.207804e+01
1	 4.586659e-01	 1.404796e+00	-6.137848e+01
1	 4.341888e-01	 1.412553e+00	-6.069677e+01
1	 4.096866e-01	 1.419854e+00	-6.003256e+01
1	 3.851714e-01	 1.426699e+00	-5.938552e+01
1	 3.606550e-01	 1.433093e+00	-5.875541e+01
1	 4.867382e-01	 1.407081e+00	-6.095863e+01
1	 4.621145e-01	 1.415359e+00	-6.022380e+01
1	 4.374533e-01	 1.423174e+00	-5.952768e+01
1	 4.127670e-01	 1.430529e+00	-5.886991e+01
1	 3.880675e-01	 1.437426e+00	-5.825012e+01
1	 3.633667e-01	 1.443868e+00	-5.766794e+01
1	 4.903706e-01	 1.417581e+00	-5.983551e+01
1	 4.655631e-01	 1.425921e+00	-5.906786e+01
1	 4.407179e-01	 1.433795e+00	-5.835946e+01
1	 4.158473e-01	 1.441205e+00	-5.770995e+01
1	 3.909635e-01	 1.448153e+00	-5.711892e+01
1	 3.660783e-01	 1.454643e+00	-5.658587e+01
1	 3.525199e-01	 1.400767e+00	-6.205149e+01
1	 3.285664e-01	 1.406579e+00	-6.127323e+01
1	 3.046340e-01	 1.411955e+00	-6.041057e+01
1	 2.807336e-01	 1.416901e+00	-5.946457e+01
1	 2.568756e-01	 1.421420e+00	-5.843656e+01
1	 2.330704e-01	 1.425517e+00	-5.732810e+01
1	 3.552316e-01	 1.411543e+00	-6.094706e+01
1	 3.310939e-01	 1.417399e+00	-6.023761e+01
1	 3.069774e-01	 1.422817e+00	-5.947485e+01
1	 2.828931e-01	 1.427800e+00	-5.865959e+01
1	 2.588515e-01	 1.432354e+00	-5.779283e+01
1	 2.348633e-01	 1.436482e+00	-5.687576e+01
1	 3.579433e-01	 1.422318e+00	-5.984841e+01
1	 3.336213e-01	 1.428218e+00	-5.921060e+01
1	 3.093207e-01	 1.433678e+00	-5.855007e+01
1	 2.850525e-01	 1.438699e+00	-5.786741e+01
1	 2.608275e-01	 1.443288e+00	-5.716331e+01
1	 2.366561e-01	 1.447448e+00	-5.643857e+01
1	 3.606550e-01	 1.433093e+00	-5.875541e+01
1	 3.361487e-01	 1.439038e+00	-5.819200e+01
1	 3.116641e-01	 1.444539e+00	-5.763600e+01
1	 2.872120e-01	 1.449599e+00	-5.708776e+01
1	 2.628035e-01	 1.454222e+00	-5.654768e+01
1	 2.384490e-01	 1.458413e+00	-5.601616e+01
1	 3.633667e-01	 1.443868e+00	-5.766794e+01
1	 3.386762e-01	 1.449858e+00	-5.718162e+01
1	 3.140074e-01	 1.455400e+00	-5.673239e+01
1	 2.893715e-01	 1.460498e+00	-5.632036e+01
1	 2.647794e-01	 1.465156e+00	-5.594562e+01
1	 2.402418e-01	 1.469379e+00	-5.560821e+01
1	 3.660783e-01	 1.454643e+00	-5.658587e+01
1	 3.412036e-01	 1.460678e+00	-5.617928e+01
1	 3.163507e-01	 1.466261e+00	-5.583900e+01
1	 2.915310e-01	 1.471397e+00	-5.556492e+01
1	 2.667554e-01	 1.476090e+00	-5.535684e+01
1	 2.420347e-01	 1.480344e+00	-5.521441e+01
1	 2.330704e-01	 1.425517e+00	-5.732810e+01
1	 2.093282e-01	 1.429196e+00	-5.643251e+01
1	 1.856586e-01	 1.432463e+00	-5.553062e+01
1	 1.620712e-01	 1.435323e+00	-5.462316e+01
1	 1.385753e-01	 1.437782e+00	-5.371088e+01
1	 1.151798e-01	 1.439845e+00	-5.279450e+01
1	 2.348633e-01	 1.436482e+00	-5.687576e+01
1	 2.109384e-01	 1.440190e+00	-5.619198e+01
1	 1.870867e-01	 1.443482e+00	-5.551138e+01
1	 1.633179e-01	 1.446364e+00	-5.483442e+01
1	 1.396413e-01	 1.448842e+00	-5.416154e+01
1	 1.160658e-01	 1.450921e+00	-5.349314e+01
1	 2.366561e-01	 1.447448e+00	-5.643857e+01
1	 2.125486e-01	 1.451184e+00	-5.596641e+01
1	 1.885149e-01	 1.454501e+00	-5.550679e+01
1	 1.645646e-01	 1.457405e+00	-5.505987e+01
1	 1.407072e-01	 1.459902e+00	-5.462578e+01
1	 1.169518e-01	 1.461996e+00	-5.420461e+01
1	 2.384490e-01	 1.458413e+00	-5.601616e+01
1	 2.141588e-01	 1.462178e+00	-5.575548e+01
1	 1.899430e-01	 1.465520e+00	-5.551652e+01
1	 1.658113e-01	 1.468446e+00	-5.529919e+01
1	 1.417732e-01	 1.470961e+00	-5.510330e+01
1	 1.178378e-01	 1.473072e+00	-5.492862e+01
1	 2.402418e-01	 1.469379e+00	-5.560821e+01
1	 2.157690e-01	 1.473171e+00	-5.555885e+01
1	 1.913711e-01	 1.476539e+00	-5.554026e+01
1	 1.670580e-01	 1.479487e+00	-5.555207e+01
1	 1.428392e-01	 1.482021e+00	-5.559379e+01
1	 1.187238e-01	 1.484148e+00	-5.566488e+01
1	 2.420347e-01	 1.480344e+00	-5.521441e+01
1	 2.173792e-01	 1.484165e+00	-5.537621e+01
1	 1.927993e-01	 1.487558e+00	-5.557769e+01
1	 1.683047e-01	 1.490528e+00	-5.581820e+01
1	 1.439051e-01	 1.493081e+00	-5.609696e+01
1	 1.196098e-01	 1.495224e+00	-5.641312e+01
1	 1.151798e-01	 1.439845e+00	-5.279450e+01
1	 9.189328e-02	 1.441518e+00	-5.186014e+01
1	 6.872417e-02	 1.442809e+00	-5.088421e+01
1	 4.568048e-02	 1.443722e+00	-4.986761e+01
1	 2.276995e-02	 1.444265e+00	-4.881129e+01
1	 0.000000e+00	 1.444444e+00	-4.771619e+01
1	 1.160658e-01	 1.450921e+00	-5.349314e+01
1	 9.260015e-02	 1.452607e+00	-5.279944e+01
1	 6.925282e-02	 1.453907e+00	-5.205126e+01
1	 4.603187e-02	 1.454827e+00	-5.124958e+01
1	 2.294510e-02	 1.455375e+00	-5.039541e+01
1	 0.000000e+00	 1.455556e+00	-4.948983e+01
1	 1.169518e-01	 1.461996e+00	-5.420461e+01
1	 9.330702e-02	 1.463696e+00	-5.375069e+01
1	 6.978146e-02	 1.465006e+00	-5.322956e+01
1	 4.638326e-02	 1.465933e+00	-5.264226e+01
1	 2.312025e-02	 1.466484e+00	-5.198990e+01
1	 0.000000e+00	 1.466667e+00	-5.127367e+01
1	 1.178378e-01	 1.473072e+00	-5.492862e+01
1	 9.401390e-02	 1.474784e+00	-5.471361e+01
1	 7.031011e-02	 1.476104e+00	-5.441884e+01
1	 4.673464e-02	 1.477039e+00	-5.404542e+01
1	 2.329541e-02	 1.477594e+00	-5.359453e+01
1	 0.000000e+00	 1.477778e+00	-5.306747e+01
1	 1.187238e-01	 1.484148e+00	-5.566488e+01
1	 9.472077e-02	 1.485873e+00	-5.568794e+01
1	 7.083876e-02	 1.487203e+00	-5.561887e+01
1	 4.708603e-02	 1.488144e+00	-5.545882e+01
1	 2.347056e-02	 1.488704e+00	-5.520907e+01
1	 0.000000e+00	 1.488889e+00	-5.487101e+01
1	 1.196098e-01	 1.495224e+00	-5.641312e+01
1	 9.542764e-02	 1.496961e+00	-5.667342e+01
1	 7.136741e-02	 1.498301e+00	-5.682939e+01
1	 4.743742e-02	 1.499250e+00	-5.688223e+01
1	 2.364571e-02	 1.499814e+00	-5.683329e+01
1	 0.000000e+00	 1.500000e+00	-5.668408e+01
1	 1.500000e+00	 0.000000e+00	 1.418956e+01
1	 1.499814e+00	 2.364571e-02	 1.444176e+01
1	 1.499250e+00	 4.743742e-02	 1.465441e+01
1	 1.498301e+00	 7.136741e-02	 1.482649e+01
1	 1.496961e+00	 9.542764e-02	 1.495707e+01
1	 1.495224e+00	 1.196098e-01	 1.504522e+01
1	 1.511111e+00	 0.000000e+00	 1.412351e+01
1	 1.510923e+00	 2.382087e-02	 1.434079e+01
1	 1.510355e+00	 4.778881e-02	 1.451769e+01
1	 1.509400e+00	 7.189605e-02	 1.465315e+01
1	 1.508050e+00	 9.613451e-02	 1.474618e+01
1	 1.506299e+00	 1.204958e-01	 1.479582e+01
1	 1.522222e+00	 0.000000e+00	 1.407688e+01
1	 1.522033e+00	 2.399602e-02	 1.425879e+01
1	 1.521461e+00	 4.814020e-02	 1.439950e+01
1	 1.520498e+00	 7.242470e-02	 1.449791e+01
1	 1.519139e+00	 9.684138e-02	 1.455298e+01
1	 1.517375e+00	 1.213818e-01	 1.456371e+01
1	 1.533333e+00	 0.000000e+00	 1.404925e+01
1	 1.533143e+00	 2.417117e-02	 1.419534e+01
1	 1.532566e+00	 4.849159e-02	 1.429943e+01
1	 1.531597e+00	 7.295335e-02	 1.436038e+01
1	 1.530227e+00	 9.754825e-02	 1.437708e+01
1	 1.528451e+00	 1.222678e-01	 1.434850e+01
1	 1.544444e+00	 0.000000e+00	 1.404020e+01
1	 1.544253e+00	 2.434633e-02	 1.415005e+01
1	 1.543672e+00	 4.884297e-02	 1.421710e+01
1	 1.542695e+00	 7.348200e-02	 1.424016e+01
1	 1.541316e+00	 9.825512e-02	 1.421810e+01
1	 1.539526e+00	 1.231538e-01	 1.414984e+01
1	 1.555556e+00	 0.000000e+00	 1.404935e+01
1	 1.555362e+00	 2.452148e-02	 1.412252e+01
1	 1.554777e+00	 4.919436e-02	 1.415211e+01
1	 1.553794e+00	 7.401064e-02	 1.413690e+01
1	 1.552404e+00	 9.896200e-02	 1.407569e+01
1	 1.550602e+00	 1.240398e-01	 1.396736e+01
1	 1.495224e+00	 1.196098e-01	 1.504522e+01
1	 1.493081e+00	 1.439051e-01	 1.505036e+01
1	 1.490528e+00	 1.683047e-01	 1.503283e+01
1	 1.487558e+00	 1.927993e-01	 1.499137e+01
1	 1.484165e+00	 2.173792e-01	 1.492470e+01
1	 1.480344e+00	 2.420347e-01	 1.483154e+01
1	 1.506299e+00	 1.204958e-01	 1.479582e+01
1	 1.504141e+00	 1.449711e-01	 1.475465e+01
1	 1.501569e+00	 1.695514e-01	 1.469113e+01
1	 1.498577e+00	 1.942274e-01	 1.460406e+01
1	 1.495159e+00	 2.189895e-01	 1.449225e+01
1	 1.491310e+00	 2.438275e-01	 1.435451e+01
1	 1.517375e+00	 1.213818e-01	 1.456371e+01
1	 1.515201e+00	 1.460370e-01	 1.447679e+01
1	 1.512610e+00	 1.707981e-01	 1.436783e+01
1	 1.509596e+00	 1.956556e-01	 1.423571e+01
1	 1.506153e+00	 2.205997e-01	 1.407932e+01
1	 1.502275e+00	 2.456204e-01	 1.389756e+01
1	 1.528451e+00	 1.222678e-01	 1.434850e+01
1	 1.526261e+00	 1.471030e-01	 1.421639e+01
1	 1.523651e+00	 1.720448e-01	 1.406253e+01
1	 1.520615e+00	 1.970837e-01	 1.388591e+01
1	 1.517147e+00	 2.222099e-01	 1.368550e+01
1	 1.513241e+00	 2.474132e-01	 1.346027e+01
1	 1.539526e+00	 1.231538e-01	 1.414984e+01
1	 1.537321e+00	 1.481690e-01	 1.397306e+01
1	 1.534692e+00	 1.732915e-01	 1.377485e+01
1	 1.531634e+00	 1.985119e-01	 1.355427e+01
1	 1.528140e+00	 2.238201e-01	 1.331037e+01
1	 1.524206e+00	 2.492061e-01	 1.304221e+01
1	 1.550602e+00	 1.240398e-01	 1.396736e+01
1	 1.548380e+00	 1.492349e-01	 1.374644e+01
1	 1.545733e+00	 1.745382e-01	 1.350441e+01
1	 1.542653e+00	 1.999400e-01	 1.324039e+01
1	 1.539134e+00	 2.254303e-01	 1.295353e+01
1	 1.535172e+00	 2.509989e-01	 1.264296e+01
1	 1.480344e+00	 2.420347e-01	 1.483154e+01
1	 1.476090e+00	 2.667554e-01	 1.475148e+01
1	 1.471397e+00	 2.915310e-01	 1.463685e+01
1	 1.466261e+00	 3.163507e-01	 1.448495e+01
1	 1.460678e+00	 3.412036e-01	 1.429308e+01
1	 1.454643e+00	 3.660783e-01	 1.405853e+01
1	 1.491310e+00	 2.438275e-01	 1.435451e+01
1	 1.487024e+00	 2.687314e-01	 1.422063e+01
1	 1.482296e+00	 2.936905e-01	 1.405757e+01
1	 1.477122e+00	 3.186941e-01	 1.386267e+01
1	 1.471498e+00	 3.437310e-01	 1.363330e+01
1	 1.465418e+00	 3.687900e-01	 1.336680e+01
1	 1.502275e+00	 2.456204e-01	 1.389756e+01
1	 1.497958e+00	 2.707073e-01	 1.370977e+01
1	 1.493196e+00	 2.958500e-01	 1.349808e+01
1	 1.487984e+00	 3.210374e-01	 1.325994e+01
1	 1.482318e+00	 3.462585e-01	 1.299273e+01
1	 1.476193e+00	 3.715017e-01	 1.269385e+01
1	 1.513241e+00	 2.474132e-01	 1.346027e+01
1	 1.508892e+00	 2.726833e-01	 1.321845e+01
1	 1.504095e+00	 2.980095e-01	 1.295797e+01
1	 1.498845e+00	 3.233808e-01	 1.267631e+01
1	 1.493137e+00	 3.487859e-01	 1.237094e+01
1	 1.486969e+00	 3.742134e-01	 1.203929e+01
1	 1.524206e+00	 2.492061e-01	 1.304221e+01
1	 1.519826e+00	 2.746593e-01	 1.274626e+01
1	 1.514994e+00	 3.001690e-01	 1.243680e+01
1	 1.509706e+00	 3.257241e-01	 1.211139e+01
1	 1.503957e+00	 3.513133e-01	 1.176753e+01
1	 1.497744e+00	 3.769251e-01	 1.140271e+01
1	 1.535172e+00	 2.509989e-01	 1.264296e+01
1	 1.530760e+00	 2.766352e-01	 1.229278e+01
1	 1.525893e+00	 3.023285e-01	 1.193417e+01
1	 1.520567e+00	 3.280674e-01	 1.156476e+01
1	 1.514777e+00	 3.538408e-01	 1.118211e+01
1	 1.508519e+00	 3.796368e-01	 1.078373e+01
1	 1.454643e+00	 3.660783e-01	 1.405853e+01
1	 1.448153e+00	 3.909635e-01	 1.392793e+01
1	 1.441205e+00	 4.158473e-01	 1.375221e+01
1	 1.433795e+00	 4.407179e-01	 1.353005e+01
1	 1.425921e+00	 4.655631e-01	 1.326019e+01
1	 1.417581e+00	 4.903706e-01	 1.294147e+01
1	 1.465418e+00	 3.687900e-01	 1.336680e+01
1	 1.458880e+00	 3.938595e-01	 1.322045e+01
1	 1.451880e+00	 4.189277e-01	 1.303653e+01
1	 1.444416e+00	 4.439825e-01	 1.281343e+01
1	 1.436483e+00	 4.690117e-01	 1.254958e+01
1	 1.428082e+00	 4.940030e-01	 1.224346e+01
1	 1.476193e+00	 3.715017e-01	 1.269385e+01
1	 1.469607e+00	 3.967555e-01	 1.252872e+01
1	 1.462556e+00	 4.220080e-01	 1.233345e+01
1	 1.455036e+00	 4.472471e-01	 1.210614e+01
1	 1.447046e+00	 4.724603e-01	 1.184490e+01
1	 1.438582e+00	 4.976354e-01	 1.154787e+01
1	 1.486969e+00	 3.742134e-01	 1.203929e+01
1	 1.480334e+00	 3.996516e-01	 1.185240e+01
1	 1.473231e+00	 4.250884e-01	 1.164268e+01
1	 1.465657e+00	 4.505116e-01	 1.140795e+01
1	 1.457608e+00	 4.759090e-01	 1.114601e+01
1	 1.449083e+00	 5.012677e-01	 1.085466e+01
1	 1.497744e+00	 3.769251e-01	 1.140271e+01
1	 1.491061e+00	 4.025476e-01	 1.119115e+01
1	 1.483907e+00	 4.281687e-01	 1.096396e+01
1	 1.476278e+00	 4.537762e-01	 1.071868e+01
1	 1.468171e+00	 4.793576e-01	 1.045279e+01
1	 1.459584e+00	 5.049001e-01	 1.016378e+01
1	 1.508519e+00	 3.796368e-01	 1.078373e+01
1	 1.501788e+00	 4.054436e-01	 1.054466e+01
1	 1.494583e+00	 4.312491e-01	 1.029704e+01
1	 1.486898e+00	 4.570408e-01	 1.003813e+01
1	 1.478733e+00	 4.828062e-01	 9.765130e+00
1	 1.470084e+00	 5.085325e-01	 9.475171e+00
1	 1.417581e+00	 4.903706e-01	 1.294147e+01
1	 1.408774e+00	 5.151279e-01	 1.247133e+01
1	 1.399497e+00	 5.398224e-01	 1.195729e+01
1	 1.389750e+00	 5.644412e-01	 1.140067e+01
1	 1.379533e+00	 5.889716e-01	 1.080291e+01
1	 1.368846e+00	 6.134004e-01	 1.016556e+01
1	 1.428082e+00	 4.940030e-01	 1.224346e+01
1	 1.419209e+00	 5.189437e-01	 1.180778e+01
1	 1.409864e+00	 5.438211e-01	 1.132820e+01
1	 1.400045e+00	 5.686223e-01	 1.080602e+01
1	 1.389752e+00	 5.933343e-01	 1.024270e+01
1	 1.378986e+00	 6.179441e-01	 9.639762e+00
1	 1.438582e+00	 4.976354e-01	 1.154787e+01
1	 1.429644e+00	 5.227594e-01	 1.114666e+01
1	 1.420230e+00	 5.478198e-01	 1.070154e+01
1	 1.410339e+00	 5.728033e-01	 1.021381e+01
1	 1.399971e+00	 5.976971e-01	 9.684906e+00
1	 1.389125e+00	 6.224878e-01	 9.116381e+00
1	 1.449083e+00	 5.012677e-01	 1.085466e+01
1	 1.440080e+00	 5.265752e-01	 1.048792e+01
1	 1.430597e+00	 5.518184e-01	 1.007725e+01
1	 1.420634e+00	 5.769844e-01	 9.623960e+00
1	 1.410190e+00	 6.020598e-01	 9.129488e+00
1	 1.399265e+00	 6.270315e-01	 8.595369e+00
1	 1.459584e+00	 5.049001e-01	 1.016378e+01
1	 1.450515e+00	 5.303910e-01	 9.831495e+00
1	 1.440964e+00	 5.558171e-01	 9.455278e+00
1	 1.430928e+00	 5.811654e-01	 9.036435e+00
1	 1.420408e+00	 6.064226e-01	 8.576389e+00
1	 1.409405e+00	 6.315752e-01	 8.076674e+00
1	 1.470084e+00	 5.085325e-01	 9.475171e+00
1	 1.460950e+00	 5.342067e-01	 9.177346e+00
1	 1.451330e+00	 5.598158e-01	 8.835583e+00
1	 1.441223e+00	 5.853465e-01	 8.451182e+00
1	 1.430627e+00	 6.107853e-01	 8.025560e+00
1	 1.419544e+00	 6.361189e-01	 7.560247e+00
1	 1.368846e+00	 6.134004e-01	 1.016556e+01
1	 1.357689e+00	 6.377146e-01	 8.674596e+00
1	 1.346063e+00	 6.619011e-01	 7.138329e+00
1	 1.333970e+00	 6.859468e-01	 5.558526e+00
1	 1.321412e+00	 7.098383e-01	 3.937066e+00
1	 1.308391e+00	 7.335625e-01	 2.275939e+00
1	 1.378986e+00	 6.179441e-01	 9.639762e+00
1	 1.367746e+00	 6.424384e-01	 8.181955e+00
1	 1.356034e+00	 6.668041e-01	 6.681301e+00
1	 1.343852e+00	 6.910278e-01	 5.139858e+00
1	 1.331200e+00	 7.150963e-01	 3.559801e+00
1	 1.318082e+00	 7.389963e-01	 1.943412e+00
1	 1.389125e+00	 6.224878e-01	 9.116381e+00
1	 1.377803e+00	 6.471623e-01	 7.693890e+00
1	 1.366005e+00	 6.717071e-01	 6.230974e+00
1	 1.353733e+00	 6.961089e-01	 4.729986e+00
1	 1.340988e+00	 7.203544e-01	 3.193391e+00
1	 1.327774e+00	 7.444301e-01	 1.623760e+00
1	 1.399265e+00	 6.270315e-01	 8.595369e+00
1	 1.387860e+00	 6.518861e-01	 7.210302e+00
1	 1.375976e+00	 6.766101e-01	 5.787204e+00
1	 1.363614e+00	 7.011900e-01	 4.328719e+00
1	 1.350777e+00	 7.256125e-01	 2.837600e+00
1	 1.337466e+00	 7.498639e-01	 1.316704e+00
1	 1.409405e+00	 6.315752e-01	 8.076674e+00
1	 1.397917e+00	 6.566099e-01	 6.731093e+00
1	 1.385947e+00	 6.815130e-01	 5.349848e+00
1	 1.373495e+00	 7.062711e-01	 3.935870e+00
1	 1.360565e+00	 7.308705e-01	 2.492199e+00
1	 1.347158e+00	 7.552977e-01	 1.021971e+00
1	 1.419544e+00	 6.361189e-01	 7.560247e+00
1	 1.407974e+00	 6.613337e-01	 6.256170e+00
1	 1.395918e+00	 6.864160e-01	 4.918769e+00
1	 1.383377e+00	 7.113522e-01	 3.551261e+00
1	 1.370353e+00	 7.361286e-01	 2.156964e+00
1	 1.356850e+00	 7.607315e-01	 7.392971e-01
1	 1.308391e+00	 7.335625e-01	 2.275939e+00
1	 1.294909e+00	 7.571063e-01	-5.767034e-02
1	 1.280971e+00	 7.804566e-01	-2.398444e+00
1	 1.266581e+00	 8.036002e-01	-4.741411e+00
1	 1.251742e+00	 8.265244e-01	-7.081559e+00
1	 1.236459e+00	 8.492162e-01	-9.413848e+00
1	 1.318082e+00	 7.389963e-01	 1.943412e+00
1	 1.304501e+00	 7.627145e-01	-3.271943e-01
1	 1.290460e+00	 7.862377e-01	-2.604223e+00
1	 1.275963e+00	 8.095528e-01	-4.882588e+00
1	 1.261014e+00	 8.326468e-01	-7.157161e+00
1	 1.245618e+00	 8.555066e-01	-9.422790e+00
1	 1.327774e+00	 7.444301e-01	 1.623760e+00
1	 1.314093e+00	 7.683227e-01	-5.830076e-01
1	 1.299949e+00	 7.920189e-01	-2.795457e+00
1	 1.285345e+00	 8.155054e-01	-5.008389e+00
1	 1.270286e+00	 8.387692e-01	-7.216562e+00
1	 1.254777e+00	 8.617971e-01	-9.414709e+00
1	 1.337466e+00	 7.498639e-01	 1.316704e+00
1	 1.323685e+00	 7.739309e-01	-8.254083e-01
1	 1.309437e+00	 7.978001e-01	-2.972463e+00
1	 1.294727e+00	 8.214580e-01	-5.119149e+00
1	 1.279558e+00	 8.448916e-01	-7.260113e+00
1	 1.263936e+00	 8.680876e-01	-9.389975e+00
1	 1.347158e+00	 7.552977e-01	 1.021971e+00
1	 1.333277e+00	 7.795391e-01	-1.054686e+00
1	 1.318926e+00	 8.035812e-01	-3.135548e+00
1	 1.304109e+00	 8.274106e-01	-5.215193e+00
1	 1.288830e+00	 8.510140e-01	-7.288156e+00
1	 1.273095e+00	 8.743781e-01	-9.348948e+00
1	 1.356850e+00	 7.607315e-01	 7.392971e-01
1	 1.342869e+00	 7.851473e-01	-1.271121e+00
1	 1.328415e+00	 8.093624e-01	-3.285010e+00
1	 1.313491e+00	 8.333632e-01	-5.296836e+00
1	 1.298103e+00	 8.571364e-01	-7.301024e+00
1	 1.282254e+00	 8.806686e-01	-9.291976e+00
1	 1.236459e+00	 8.492162e-01	-9.413848e+00
1	 1.220739e+00	 8.716629e-01	-1.095948e+01
1	 1.204586e+00	 8.938520e-01	-1.257529e+01
1	 1.188008e+00	 9.157712e-01	-1.426249e+01
1	 1.171010e+00	 9.374084e-01	-1.602211e+01
1	 1.153601e+00	 9.587516e-01	-1.785500e+01
1	 1.245618e+00	 8.555066e-01	-9.422790e+00
1	 1.229782e+00	 8.781196e-01	-1.094263e+01
1	 1.213509e+00	 9.004731e-01	-1.253036e+01
1	 1.196808e+00	 9.225547e-01	-1.418719e+01
1	 1.179685e+00	 9.443522e-01	-1.591416e+01
1	 1.162146e+00	 9.658535e-01	-1.771212e+01
1	 1.254777e+00	 8.617971e-01	-9.414709e+00
1	 1.238824e+00	 8.845764e-01	-1.090858e+01
1	 1.222432e+00	 9.070943e-01	-1.246808e+01
1	 1.205608e+00	 9.293382e-01	-1.409442e+01
1	 1.188359e+00	 9.512959e-01	-1.578864e+01
1	 1.170691e+00	 9.729553e-01	-1.755159e+01
1	 1.263936e+00	 8.680876e-01	-9.389975e+00
1	 1.247867e+00	 8.910332e-01	-1.085771e+01
1	 1.231355e+00	 9.137154e-01	-1.238883e+01
1	 1.214408e+00	 9.361217e-01	-1.398456e+01
1	 1.197033e+00	 9.582397e-01	-1.564593e+01
1	 1.179237e+00	 9.800572e-01	-1.737380e+01
1	 1.273095e+00	 8.743781e-01	-9.348948e+00
1	 1.256909e+00	 8.974899e-01	-1.079037e+01
1	 1.240278e+00	 9.203365e-01	-1.229298e+01
1	 1.223208e+00	 9.429052e-01	-1.385798e+01
1	 1.205707e+00	 9.651835e-01	-1.548640e+01
1	 1.187782e+00	 9.871591e-01	-1.717912e+01
1	 1.282254e+00	 8.806686e-01	-9.291976e+00
1	 1.265952e+00	 9.039467e-01	-1.070693e+01
1	 1.249201e+00	 9.269576e-01	-1.218088e+01
1	 1.232008e+00	 9.496887e-01	-1.371503e+01
1	 1.214381e+00	 9.721272e-01	-1.531041e+01
1	 1.196327e+00	 9.942609e-01	-1.696792e+01
1	 1.153601e+00	 9.587516e-01	-1.785500e+01
1	 1.135787e+00	 9.797892e-01	-1.849234e+01
1	 1.117578e+00	 1.000510e+00	-1.916426e+01
1	 1.098981e+00	 1.020902e+00	-1.986955e+01
1	 1.080005e+00	 1.040956e+00	-2.060694e+01
1	 1.060660e+00	 1.060660e+00	-2.137509e+01
1	 1.162146e+00	 9.658535e-01	-1.771212e+01
1	 1.144201e+00	 9.870469e-01	-1.830149e+01
1	 1.125856e+00	 1.007921e+00	-1.893136e+01
1	 1.107121e+00	 1.028465e+00	-1.960093e+01
1	 1.088005e+00	 1.048667e+00	-2.030930e+01
1	 1.068517e+00	 1.068517e+00	-2.105551e+01
1	 1.170691e+00	 9.729553e-01	-1.755159e+01
1	 1.152614e+00	 9.943046e-01	-1.809578e+01
1	 1.134135e+00	 1.015332e+00	-1.868631e+01
1	 1.115262e+00	 1.036027e+00	-1.932276e+01
1	 1.096005e+00	 1.056377e+00	-2.000462e+01
1	 1.076374e+00	 1.076374e+00	-2.073129e+01
1	 1.179237e+00	 9.800572e-01	-1.737380e+01
1	 1.161027e+00	 1.001562e+00	-1.787555e+01
1	 1.142413e+00	 1.022743e+00	-1.842937e+01
1	 1.123402e+00	 1.043589e+00	-1.903525e+01
1	 1.104005e+00	 1.064088e+00	-1.969306e+01
1	 1.084230e+00	 1.084230e+00	-2.040254e+01
1	 1.187782e+00	 9.871591e-01	-1.717912e+01
1	 1.169440e+00	 1.008820e+00	-1.764109e+01
1	 1.150691e+00	 1.030155e+00	-1.816080e+01
1	 1.131543e+00	 1.051151e+00	-1.873861e+01
1	 1.112005e+00	 1.071799e+00	-1.937476e+01
1	 1.092087e+00	 1.092087e+00	-2.006936e+01
1	 1.196327e+00	 9.942609e-01	-1.696792e+01
1	 1.177854e+00	 1.016078e+00	-1.739272e+01
1	 1.158970e+00	 1.037566e+00	-1.788084e+01
1	 1.139684e+00	 1.058713e+00	-1.843302e+01
1	 1.120005e+00	 1.079510e+00	-1.904987e+01
1	 1.099944e+00	 1.099944e+00	-1.973184e+01
1	 1.060660e+00	 1.060660e+00	-2.137509e+01
1	 1.040956e+00	 1.080005e+00	-2.249774e+01
1	 1.020902e+00	 1.098981e+00	-2.363832e+01
1	 1.000510e+00	 1.117578e+00	-2.479516e+01
1	 9.797892e-01	 1.135787e+00	-2.596657e+01
1	 9.587516e-01	 1.153601e+00	-2.715082e+01
1	 1.068517e+00	 1.068517e+00	-2.105551e+01
1	 1.048667e+00	 1.088005e+00	-2.215870e+01
1	 1.028465e+00	 1.107121e+00	-2.327981e+01
1	 1.007921e+00	 1.125856e+00	-2.441729e+01
1	 9.870469e-01	 1.144201e+00	-2.556958e+01
1	 9.658535e-01	 1.162146e+00	-2.673507e+01
1	 1.076374e+00	 1.076374e+00	-2.073129e+01
1	 1.056377e+00	 1.096005e+00	-2.181594e+01
1	 1.036027e+00	 1.115262e+00	-2.291848e+01
1	 1.015332e+00	 1.134135e+00	-2.403751e+01
1	 9.943046e-01	 1.152614e+00	-2.517158e+01
1	 9.729553e-01	 1.170691e+00	-2.631922e+01
1	 1.084230e+00	 1.084230e+00	-2.040254e+01
1	 1.064088e+00	 1.104005e+00	-2.146952e+01
1	 1.043589e+00	 1.123402e+00	-2.255439e+01
1	 1.022743e+00	 1.142413e+00	-2.365586e+01
1	 1.001562e+00	 1.161027e+00	-2.477261e+01
1	 9.800572e-01	 1.179237e+00	-2.590329e+01
1	 1.092087e+00	 1.092087e+00	-2.006936e+01
1	 1.071799e+00	 1.112005e+00	-2.111954e+01
1	 1.051151e+00	 1.131543e+00	-2.218761e+01
1	 1.030155e+00	 1.150691e+00	-2.327238e+01
1	 1.008820e+00	 1.169440e+00	-2.437268e+01
1	 9.871591e-01	 1.187782e+00	-2.548727e+01
1	 1.099944e+00	 1.099944e+00	-1.973184e+01
1	 1.079510e+00	 1.120005e+00	-2.076607e+01
1	 1.058713e+00	 1.139684e+00	-2.181818e+01
1	 1.037566e+00	 1.158970e+00	-2.288712e+01
1	 1.016078e+00	 1.177854e+00	-2.397181e+01
1	 9.942609e-01	 1.196327e+00	-2.507117e+01
1	 9.587516e-01	 1.153601e+00	-2.715082e+01
1	 9.374084e-01	 1.171010e+00	-2.974159e+01
1	 9.157712e-01	 1.188008e+00	-3.228849e+01
1	 8.938520e-01	 1.204586e+00	-3.478887e+01
1	 8.716629e-01	 1.220739e+00	-3.724016e+01
1	 8.492162e-01	 1.236459e+00	-3.963990e+01
1	 9.658535e-01	 1.162146e+00	-2.673507e+01
1	 9.443522e-01	 1.179685e+00	-2.930237e+01
1	 9.225547e-01	 1.196808e+00	-3.182421e+01
1	 9.004731e-01	 1.213509e+00	-3.429786e+01
1	 8.781196e-01	 1.229782e+00	-3.672069e+01
1	 8.555066e-01	 1.245618e+00	-3.909020e+01
1	 9.729553e-01	 1.170691e+00	-2.631922e+01
1	 9.512959e-01	 1.188359e+00	-2.886251e+01
1	 9.293382e-01	 1.205608e+00	-3.135875e+01
1	 9.070943e-01	 1.222432e+00	-3.380518e+01
1	 8.845764e-01	 1.238824e+00	-3.619908e+01
1	 8.617971e-01	 1.254777e+00	-3.853792e+01
1	 9.800572e-01	 1.179237e+00	-2.590329e+01
1	 9.582397e-01	 1.197033e+00	-2.842201e+01
1	 9.361217e-01	 1.214408e+00	-3.089215e+01
1	 9.137154e-01	 1.231355e+00	-3.331086e+01
1	 8.910332e-01	 1.247867e+00	-3.567539e+01
1	 8.680876e-01	 1.263936e+00	-3.798312e+01
1	 9.871591e-01	 1.187782e+00	-2.548727e+01
1	 9.651835e-01	 1.205707e+00	-2.798089e+01
1	 9.429052e-01	 1.223208e+00	-3.042443e+01
1	 9.203365e-01	 1.240278e+00	-3.281494e+01
1	 8.974899e-01	 1.256909e+00	-3.514964e+01
1	 8.743781e-01	 1.273095e+00	-3.742586e+01
1	 9.942609e-01	 1.196327e+00	-2.507117e+01
1	 9.721272e-01	 1.214381e+00	-2.753917e+01
1	 9.496887e-01	 1.232008e+00	-2.995560e+01
1	 9.269576e-01	 1.249201e+00	-3.231746e+01
1	 9.039467e-01	 1.265952e+00	-3.462190e+01
1	 8.806686e-01	 1.282254e+00	-3.686619e+01
1	 8.492162e-01	 1.236459e+00	-3.963990e+01
1	 8.265244e-01	 1.251742e+00	-4.255182e+01
1	 8.036002e-01	 1.266581e+00	-4.533882e+01
1	 7.804566e-01	 1.280971e+00	-4.799660e+01
1	 7.571063e-01	 1.294909e+00	-5.052121e+01
1	 7.335625e-01	 1.308391e+00	-5.290904e+01
1	 8.555066e-01	 1.245618e+00	-3.909020e+01
1	 8.326468e-01	 1.261014e+00	-4.194796e+01
1	 8.095528e-01	 1.275963e+00	-4.467361e+01
1	 7.862377e-01	 1.290460e+00	-4.726263e+01
1	 7.627145e-01	 1.304501e+00	-4.971089e+01
1	 7.389963e-01	 1.318082e+00	-5.201457e+01
1	 8.617971e-01	 1.254777e+00	-3.853792e+01
1	 8.387692e-01	 1.270286e+00	-4.133941e+01
1	 8.155054e-01	 1.285345e+00	-4.400173e+01
1	 7.920189e-01	 1.299949e+00	-4.652013e+01
1	 7.683227e-01	 1.314093e+00	-4.889027e+01
1	 7.444301e-01	 1.327774e+00	-5.110818e+01
1	 8.680876e-01	 1.263936e+00	-3.798312e+01
1	 8.448916e-01	 1.279558e+00	-4.072630e+01
1	 8.214580e-01	 1.294727e+00	-4.332334e+01
1	 7.978001e-01	 1.309437e+00	-4.576928e+01
1	 7.739309e-01	 1.323685e+00	-4.805958e+01
1	 7.498639e-01	 1.337466e+00	-5.019011e+01
1	 8.743781e-01	 1.273095e+00	-3.742586e+01
1	 8.510140e-01	 1.288830e+00	-4.010871e+01
1	 8.274106e-01	 1.304109e+00	-4.263857e+01
1	 8.035812e-01	 1.318926e+00	-4.501026e+01
1	 7.795391e-01	 1.333277e+00	-4.721904e+01
1	 7.552977e-01	 1.347158e+00	-4.926062e+01
1	 8.806686e-01	 1.282254e+00	-3.686619e+01
1	 8.571364e-01	 1.298103e+00	-3.948675e+01
1	 8.333632e-01	 1.313491e+00	-4.194756e+01
1	 8.093624e-01	 1.328415e+00	-4.424324e+01
1	 7.851473e-01	 1.342869e+00	-4.636886e+01
1	 7.607315e-01	 1.356850e+00	-4.831996e+01
1	 7.335625e-01	 1.308391e+00	-5.290904e+01
1	 7.098383e-01	 1.321412e+00	-5.445356e+01
1	 6.859468e-01	 1.333970e+00	-5.592673e+01
1	 6.619011e-01	 1.346063e+00	-5.732697e+01
1	 6.377146e-01	 1.357689e+00	-5.865287e+01
1	 6.134004e-01	 1.368846e+00	-5.990318e+01
1	 7.389963e-01	 1.318082e+00	-5.201457e+01
1	 7.150963e-01	 1.331200e+00	-5.347832e+01
1	 6.910278e-01	 1.343852e+00	-5.486333e+01
1	 6.668041e-01	 1.356034e+00	-5.616801e+01
1	 6.424384e-01	 1.367746e+00	-5.739097e+01
1	 6.179441e-01	 1.378986e+00	-5.853103e+01
1	 7.444301e-01	 1.327774e+00	-5.110818e+01
1	 7.203544e-01	 1.340988e+00	-5.249038e+01
1	 6.961089e-01	 1.353733e+00	-5.378655e+01
1	 6.717071e-01	 1.366005e+00	-5.499510e+01
1	 6.471623e-01	 1.377803e+00	-5.611468e+01
1	 6.224878e-01	 1.389125e+00	-5.714414e+01
1	 7.498639e-01	 1.337466e+00	-5.019011e+01
1	 7.256125e-01	 1.350777e+00	-5.149000e+01
1	 7.011900e-01	 1.363614e+00	-5.269667e+01
1	 6.766101e-01	 1.375976e+00	-5.380855e+01
1	 6.518861e-01	 1.387860e+00	-5.482430e+01
1	 6.270315e-01	 1.399265e+00	-5.574283e+01
1	 7.552977e-01	 1.347158e+00	-4.926062e+01
1	 7.308705e-01	 1.360565e+00	-5.047745e+01
1	 7.062711e-01	 1.373495e+00	-5.159398e+01
1	 6.815130e-01	 1.385947e+00	-5.260865e+01
1	 6.566099e-01	 1.397917e+00	-5.352014e+01
1	 6.315752e-01	 1.409405e+00	-5.432741e+01
1	 7.607315e-01	 1.356850e+00	-4.831996e+01
1	 7.361286e-01	 1.370353e+00	-4.945299e+01
1	 7.113522e-01	 1.383377e+00	-5.047876e+01
1	 6.864160e-01	 1.395918e+00	-5.139569e+01
1	 6.613337e-01	 1.407974e+00	-5.220250e+01
1	 6.361189e-01	 1.419544e+00	-5.289819e+01
1	 6.134004e-01	 1.368846e+00	-5.990318e+01
1	 5.889716e-01	 1.379533e+00	-5.996433e+01
1	 5.644412e-01	 1.389750e+00	-5.998856e+01
1	 5.398224e-01	 1.399497e+00	-5.997536e+01
1	 5.151279e-01	 1.408774e+00	-5.992442e+01
1	 4.903706e-01	 1.417581e+00	-5.983551e+01
1	 6.179441e-01	 1.378986e+00	-5.853103e+01
1	 5.933343e-01	 1.389752e+00	-5.847959e+01
1	 5.686223e-01	 1.400045e+00	-5.839180e+01
1	 5.438211e-01	 1.409864e+00	-5.826723e+01
1	 5.189437e-01	 1.419209e+00	-5.810558e+01
1	 4.940030e-01	 1.428082e+00	-5.790668e+01
1	 6.224878e-01	 1.389125e+00	-5.714414e+01
1	 5.976971e-01	 1.399971e+00	-5.698016e+01
1	 5.728033e-01	 1.410339e+00	-5.678042e+01
1	 5.478198e-01	 1.420230e+00	-5.654451e+01
1	 5.227594e-01	 1.429644e+00	-5.627218e+01
1	 4.976354e-01	 1.438582e+00	-5.596333e+01
1	 6.270315e-01	 1.399265e+00	-5.574283e+01
1	 6.020598e-01	 1.410190e+00	-5.546637e+01
1	 5.769844e-01	 1.420634e+00	-5.515471e+01
1	 5.518184e-01	 1.430597e+00	-5.480750e+01
1	 5.265752e-01	 1.440080e+00	-5.442454e+01
1	 5.012677e-01	 1.449083e+00	-5.400577e+01
1	 6.315752e-01	 1.409405e+00	-5.432741e+01
1	 6.064226e-01	 1.420408e+00	-5.393852e+01
1	 5.811654e-01	 1.430928e+00	-5.351499e+01
1	 5.558171e-01	 1.440964e+00	-5.305653e+01
1	 5.303910e-01	 1.450515e+00	-5.256297e+01
1	 5.049001e-01	 1.459584e+00	-5.203431e+01
1	 6.361189e-01	 1.419544e+00	-5.289819e+01
1	 6.107853e-01	 1.430627e+00	-5.239692e+01
1	 5.853465e-01	 1.441223e+00	-5.186157e+01
1	 5.598158e-01	 1.451330e+00	-5.129189e+01
1	 5.342067e-01	 1.460950e+00	-5.068777e+01
1	 5.085325e-01	 1.470084e+00	-5.004923e+01
1	 4.903706e-01	 1.417581e+00	-5.983551e+01
1	 4.655631e-01	 1.425921e+00	-5.906786e+01
1	 4.407179e-01	 1.433795e+00	-5.835946e+01
1	 4.158473e-01	 1.441205e+00	-5.770995e+01
1	 3.909635e-01	 1.448153e+00	-5.711892e+01
1	 3.660783e-01	 1.454643e+00	-5.658587e+01
1	 4.940030e-01	 1.428082e+00	-5.790668e+01
1	 4.690117e-01	 1.436483e+00	-5.706007e+01
1	 4.439825e-01	 1.444416e+00	-5.631751e+01
1	 4.189277e-01	 1.451880e+00	-5.567885e+01
1	 3.938595e-01	 1.458880e+00	-5.514378e+01
1	 3.687900e-01	 1.465418e+00	-5.471176e+01
1	 4.976354e-01	 1.438582e+00	-5.596333e+01
1	 4.724603e-01	 1.447046e+00	-5.504465e+01
1	 4.472471e-01	 1.455036e+00	-5.427414e+01
1	 4.220080e-01	 1.462556e+00	-5.365189e+01
1	 3.967555e-01	 1.469607e+00	-5.317766e+01
1	 3.715017e-01	 1.476193e+00	-5.285087e+01
1	 5.012677e-01	 1.449083e+00	-5.400577e+01
1	 4.759090e-01	 1.457608e+00	-5.302176e+01
1	 4.505116e-01	 1.465657e+00	-5.222940e+01
1	 4.250884e-01	 1.473231e+00	-5.162898e+01
1	 3.996516e-01	 1.480334e+00	-5.122035e+01
1	 3.742134e-01	 1.486969e+00	-5.100292e+01
1	 5.049001e-01	 1.459584e+00	-5.203431e+01
1	 4.793576e-01	 1.468171e+00	-5.099158e+01
1	 4.537762e-01	 1.476278e+00	-5.018331e+01
1	 4.281687e-01	 1.483907e+00	-4.961003e+01
1	 4.025476e-01	 1.491061e+00	-4.927168e+01
1	 3.769251e-01	 1.497744e+00	-4.916761e+01
1	 5.085325e-01	 1.470084e+00	-5.004923e+01
1	 4.828062e-01	 1.478733e+00	-4.895424e+01
1	 4.570408e-01	 1.486898e+00	-4.813590e+01
1	 4.312491e-01	 1.494583e+00	-4.759496e+01
1	 4.054436e-01	 1.501788e+00	-4.733145e+01
1	 3.796368e-01	 1.508519e+00	-4.734469e+01
1	 3.660783e-01	 1.454643e+00	-5.658587e+01
1	 3.412036e-01	 1.460678e+00	-5.617928e+01
1	 3.163507e-01	 1.466261e+00	-5.583900e+01
1	 2.915310e-01	 1.471397e+00	-5.556492e+01
1	 2.667554e-01	 1.476090e+00	-5.535684e+01
1	 2.420347e-01	 1.480344e+00	-5.521441e+01
1	 3.687900e-01	 1.465418e+00	-5.471176e+01
1	 3.437310e-01	 1.471498e+00	-5.444688e+01
1	 3.186941e-01	 1.477122e+00	-5.427335e+01
1	 2.936905e-01	 1.482296e+00	-5.419076e+01
1	 2.687314e-01	 1.487024e+00	-5.419852e+01
1	 2.438275e-01	 1.491310e+00	-5.429589e+01
1	 3.715017e-01	 1.476193e+00	-5.285087e+01
1	 3.462585e-01	 1.482318e+00	-5.272918e+01
1	 3.210374e-01	 1.487984e+00	-5.272352e+01
1	 2.958500e-01	 1.493196e+00	-5.283317e+01
1	 2.707073e-01	 1.497958e+00	-5.305718e+01
1	 2.456204e-01	 1.502275e+00	-5.339439e+01
1	 3.742134e-01	 1.486969e+00	-5.100292e+01
1	 3.487859e-01	 1.493137e+00	-5.102587e+01
1	 3.233808e-01	 1.498845e+00	-5.118918e+01
1	 2.980095e-01	 1.504095e+00	-5.149181e+01
1	 2.726833e-01	 1.508892e+00	-5.193246e+01
1	 2.474132e-01	 1.513241e+00	-5.250955e+01
1	 3.769251e-01	 1.497744e+00	-4.916761e+01
1	 3.513133e-01	 1.503957e+00	-4.933664e+01
1	 3.257241e-01	 1.509706e+00	-4.966998e+01
1	 3.001690e-01	 1.514994e+00	-5.016631e+01
1	 2.746593e-01	 1.519826e+00	-5.082398e+01
1	 2.492061e-01	 1.524206e+00	-5.164100e+01
1	 3.796368e-01	 1.508519e+00	-4.734469e+01
1	 3.538408e-01	 1.514777e+00	-4.766118e+01
1	 3.280674e-01	 1.520567e+00	-4.816560e+01
1	 3.023285e-01	 1.525893e+00	-4.885635e+01
1	 2.766352e-01	 1.530760e+00	-4.973141e+01
1	 2.509989e-01	 1.535172e+00	-5.078839e+01
1	 2.420347e-01	 1.480344e+00	-5.521441e+01
1	 2.173792e-01	 1.484165e+00	-5.537621e+01
1	 1.927993e-01	 1.487558e+00	-5.557769e+01
1	 1.683047e-01	 1.490528e+00	-5.581820e+01
1	 1.439051e-01	 1.493081e+00	-5.609696e+01
1	 1.196098e-01	 1.495224e+00	-5.641312e+01
1	 2.438275e-01	 1.491310e+00	-5.429589e+01
1	 2.189895e-01	 1.495159e+00	-5.470412e+01
1	 1.942274e-01	 1.498577e+00	-5.514844e+01
1	 1.695514e-01	 1.501569e+00	-5.562794e+01
1	 1.449711e-01	 1.504141e+00	-5.614169e+01
1	 1.204958e-01	 1.506299e+00	-5.668863e+01
1	 2.456204e-01	 1.502275e+00	-5.339439e+01
1	 2.205997e-01	 1.506153e+00	-5.404759e+01
1	 1.956556e-01	 1.509596e+00	-5.473330e+01
1	 1.707981e-01	 1.512610e+00	-5.545044e+01
1	 1.460370e-01	 1.515201e+00	-5.619786e+01
1	 1.213818e-01	 1.517375e+00	-5.697432e+01
1	 2.474132e-01	 1.513241e+00	-5.250955e+01
1	 2.222099e-01	 1.517147e+00	-5.340627e+01
1	 1.970837e-01	 1.520615e+00	-5.433199e+01
1	 1.720448e-01	 1.523651e+00	-5.528543e+01
1	 1.471030e-01	 1.526261e+00	-5.626522e+01
1	 1.222678e-01	 1.528451e+00	-5.726997e+01
1	 2.492061e-01	 1.524206e+00	-5.164100e+01
1	 2.238201e-01	 1.528140e+00	-5.277983e+01
1	 1.985119e-01	 1.531634e+00	-5.394420e+01
1	 1.732915e-01	 1.534692e+00	-5.513262e+01
1	 1.481690e-01	 1.537321e+00	-5.634354e+01
1	 1.231538e-01	 1.539526e+00	-5.757538e+01
1	 2.509989e-01	 1.535172e+00	-5.078839e+01
1	 2.254303e-01	 1.539134e+00	-5.216795e+01
1	 1.999400e-01	 1.542653e+00	-5.356964e+01
1	 1.745382e-01	 1.545733e+00	-5.499176e+01
1	 1.492349e-01	 1.548380e+00	-5.643257e+01
1	 1.240398e-01	 1.550602e+00	-5.789032e+01
1	 1.196098e-01	 1.495224e+00	-5.641312e+01
1	 9.542764e-02	 1.496961e+00	-5.667342e+01
1	 7.136741e-02	 1.498301e+00	-5.682939e+01
1	 4.743742e-02	 1.499250e+00	-5.688223e+01
1	 2.364571e-02	 1.499814e+00	-5.683329e+01
1	 0.000000e+00	 1.500000e+00	-5.668408e+01
1	 1.204958e-01	 1.506299e+00	-5.668863e+01
1	 9.613451e-02	 1.508050e+00	-5.716745e+01
1	 7.189605e-02	 1.509400e+00	-5.753261e+01
1	 4.778881e-02	 1.510355e+00	-5.778530e+01
1	 2.382087e-02	 1.510923e+00	-5.792694e+01
1	 0.000000e+00	 1.511111e+00	-5.795907e+01
1	 1.213818e-01	 1.517375e+00	-5.697432e+01
1	 9.684138e-02	 1.519139e+00	-5.767098e+01
1	 7.242470e-02	 1.520498e+00	-5.824475e+01
1	 4.814020e-02	 1.521461e+00	-5.869687e+01
1	 2.399602e-02	 1.522033e+00	-5.902875e+01
1	 0.000000e+00	 1.522222e+00	-5.924202e+01
1	 1.222678e-01	 1.528451e+00	-5.726997e+01
1	 9.754825e-02	 1.530227e+00	-5.818379e+01
1	 7.295335e-02	 1.531597e+00	-5.896563e+01
1	 4.849159e-02	 1.532566e+00	-5.961673e+01
1	 2.417117e-02	 1.533143e+00	-6.013856e+01
1	 0.000000e+00	 1.533333e+00	-6.053277e+01
1	 1.231538e-01	 1.539526e+00	-5.757538e+01
1	 9.825512e-02	 1.541316e+00	-5.870569e+01
1	 7.348200e-02	 1.542695e+00	-5.969506e+01
1	 4.884297e-02	 1.543672e+00	-6.054473e+01
1	 2.434633e-02	 1.544253e+00	-6.125618e+01
1	 0.000000e+00	 1.544444e+00	-6.183115e+01
1	 1.240398e-01	 1.550602e+00	-5.789032e+01
1	 9.896200e-02	 1.552404e+00	-5.923649e+01
1	 7.401064e-02	 1.553794e+00	-6.043286e+01
1	 4.919436e-02	 1.554777e+00	-6.148067e+01
1	 2.452148e-02	 1.555362e+00	-6.238146e+01
1	 0.000000e+00	 1.555556e+00	-6.313699e+01
1	 1.555556e+00	 0.000000e+00	 1.404935e+01
1	 1.555362e+00	 2.452148e-02	 1.412252e+01
1	 1.554777e+00	 4.919436e-02	 1.415211e+01
1	 1.553794e+00	 7.401064e-02	 1.413690e+01
1	 1.552404e+00	 9.896200e-02	 1.407569e+01
1	 1.550602e+00	 1.240398e-01	 1.396736e+01
1	 1.566667e+00	 0.000000e+00	 1.393139e+01
1	 1.566472e+00	 2.469663e-02	 1.397443e+01
1	 1.565883e+00	 4.954575e-02	 1.397329e+01
1	 1.564892e+00	 7.453929e-02	 1.392671e+01
1	 1.563493e+00	 9.966887e-02	 1.383346e+01
1	 1.561678e+00	 1.249258e-01	 1.369241e+01
1	 1.577778e+00	 0.000000e+00	 1.382934e+01
1	 1.577582e+00	 2.487179e-02	 1.384201e+01
1	 1.576989e+00	 4.989714e-02	 1.380989e+01
1	 1.575991e+00	 7.506794e-02	 1.373170e+01
1	 1.574582e+00	 1.003757e-01	 1.360620e+01
1	 1.572754e+00	 1.258118e-01	 1.343221e+01
1	 1.588889e+00	 0.000000e+00	 1.374289e+01
1	 1.588691e+00	 2.504694e-02	 1.372493e+01
1	 1.588094e+00	 5.024853e-02	 1.366159e+01
1	 1.587089e+00	 7.559659e-02	 1.355156e+01
1	 1.585670e+00	 1.010826e-01	 1.339358e+01
1	 1.583829e+00	 1.266978e-01	 1.318645e+01
1	 1.600000e+00	 0.000000e+00	 1.367170e+01
1	 1.599801e+00	 2.522209e-02	 1.362287e+01
1	 1.599200e+00	 5.059991e-02	 1.352807e+01
1	 1.598188e+00	 7.612523e-02	 1.338598e+01
1	 1.596759e+00	 1.017895e-01	 1.319531e+01
1	 1.594905e+00	 1.275838e-01	 1.295483e+01
1	 1.611111e+00	 0.000000e+00	 1.361546e+01
1	 1.610911e+00	 2.539725e-02	 1.353551e+01
1	 1.610305e+00	 5.095130e-02	 1.340903e+01
1	 1.609287e+00	 7.665388e-02	 1.323466e+01
1	 1.607847e+00	 1.024964e-01	 1.301108e+01
1	 1.605981e+00	 1.284697e-01	 1.273705e+01
1	 1.550602e+00	 1.240398e-01	 1.396736e+01
1	 1.548380e+00	 1.492349e-01	 1.374644e+01
1	 1.545733e+00	 1.745382e-01	 1.350441e+01
1	 1.542653e+00	 1.999400e-01	 1.324039e+01
1	 1.539134e+00	 2.254303e-01	 1.295353e+01
1	 1.535172e+00	 2.509989e-01	 1.264296e+01
1	 1.561678e+00	 1.249258e-01	 1.369241e+01
1	 1.559440e+00	 1.503009e-01	 1.343575e+01
1	 1.556774e+00	 1.757849e-01	 1.315896e+01
1	 1.553672e+00	 2.013681e-01	 1.286122e+01
1	 1.550128e+00	 2.270405e-01	 1.254170e+01
1	 1.546137e+00	 2.527918e-01	 1.219958e+01
1	 1.572754e+00	 1.258118e-01	 1.343221e+01
1	 1.570500e+00	 1.513669e-01	 1.313987e+01
1	 1.567815e+00	 1.770316e-01	 1.282838e+01
1	 1.564691e+00	 2.027963e-01	 1.249696e+01
1	 1.561122e+00	 2.286507e-01	 1.214482e+01
1	 1.557103e+00	 2.545846e-01	 1.177115e+01
1	 1.583829e+00	 1.266978e-01	 1.318645e+01
1	 1.581560e+00	 1.524328e-01	 1.285849e+01
1	 1.578856e+00	 1.782783e-01	 1.251236e+01
1	 1.575709e+00	 2.042244e-01	 1.214730e+01
1	 1.572116e+00	 2.302610e-01	 1.176255e+01
1	 1.568068e+00	 2.563775e-01	 1.135736e+01
1	 1.594905e+00	 1.275838e-01	 1.295483e+01
1	 1.592620e+00	 1.534988e-01	 1.259130e+01
1	 1.589896e+00	 1.795250e-01	 1.221058e+01
1	 1.586728e+00	 2.056526e-01	 1.181192e+01
1	 1.583110e+00	 2.318712e-01	 1.139461e+01
1	 1.579034e+00	 2.581703e-01	 1.095791e+01
1	 1.605981e+00	 1.284697e-01	 1.273705e+01
1	 1.603680e+00	 1.545648e-01	 1.233803e+01
1	 1.600937e+00	 1.807717e-01	 1.192276e+01
1	 1.597747e+00	 2.070807e-01	 1.149054e+01
1	 1.594103e+00	 2.334814e-01	 1.104069e+01
1	 1.589999e+00	 2.599632e-01	 1.057250e+01
1	 1.535172e+00	 2.509989e-01	 1.264296e+01
1	 1.530760e+00	 2.766352e-01	 1.229278e+01
1	 1.525893e+00	 3.023285e-01	 1.193417e+01
1	 1.520567e+00	 3.280674e-01	 1.156476e+01
1	 1.514777e+00	 3.538408e-01	 1.118211e+01
1	 1.508519e+00	 3.796368e-01	 1.078373e+01
1	 1.546137e+00	 2.527918e-01	 1.219958e+01
1	 1.541694e+00	 2.786112e-01	 1.180595e+01
1	 1.536793e+00	 3.044879e-01	 1.140739e+01
1	 1.531428e+00	 3.304108e-01	 1.100178e+01
1	 1.525597e+00	 3.563682e-01	 1.058693e+01
1	 1.519294e+00	 3.823485e-01	 1.016060e+01
1	 1.557103e+00	 2.545846e-01	 1.177115e+01
1	 1.552628e+00	 2.805872e-01	 1.133572e+01
1	 1.547692e+00	 3.066474e-01	 1.089882e+01
1	 1.542290e+00	 3.327541e-01	 1.045858e+01
1	 1.536417e+00	 3.588956e-01	 1.001307e+01
1	 1.530069e+00	 3.850602e-01	 9.560277e+00
1	 1.568068e+00	 2.563775e-01	 1.135736e+01
1	 1.563562e+00	 2.825631e-01	 1.088174e+01
1	 1.558591e+00	 3.088069e-01	 1.040808e+01
1	 1.553151e+00	 3.350974e-01	 9.934753e+00
1	 1.547237e+00	 3.614231e-01	 9.460067e+00
1	 1.540844e+00	 3.877719e-01	 8.982265e+00
1	 1.579034e+00	 2.581703e-01	 1.095791e+01
1	 1.574496e+00	 2.845391e-01	 1.044368e+01
1	 1.569490e+00	 3.109664e-01	 9.934797e+00
1	 1.564012e+00	 3.374408e-01	 9.429886e+00
1	 1.558056e+00	 3.639505e-01	 8.927494e+00
1	 1.551619e+00	 3.904836e-01	 8.426104e+00
1	 1.589999e+00	 2.599632e-01	 1.057250e+01
1	 1.585430e+00	 2.865151e-01	 1.002120e+01
1	 1.580390e+00	 3.131259e-01	 9.478611e+00
1	 1.574873e+00	 3.397841e-01	 8.943590e+00
1	 1.568876e+00	 3.664779e-01	 8.414927e+00
1	 1.562394e+00	 3.931953e-01	 7.891343e+00
1	 1.508519e+00	 3.796368e-01	 1.078373e+01
1	 1.501788e+00	 4.054436e-01	 1.054466e+01
1	 1.494583e+00	 4.312491e-01	 1.029704e+01
1	 1.486898e+00	 4.570408e-01	 1.003813e+01
1	 1.478733e+00	 4.828062e-01	 9.765130e+00
1	 1.470084e+00	 5.085325e-01	 9.475171e+00
1	 1.519294e+00	 3.823485e-01	 1.016060e+01
1	 1.512516e+00	 4.083396e-01	 9.896479e+00
1	 1.505258e+00	 4.343294e-01	 9.629008e+00
1	 1.497519e+00	 4.603054e-01	 9.355560e+00
1	 1.489295e+00	 4.862548e-01	 9.073433e+00
1	 1.480585e+00	 5.121649e-01	 8.779852e+00
1	 1.530069e+00	 3.850602e-01	 9.560277e+00
1	 1.523243e+00	 4.112357e-01	 9.271560e+00
1	 1.515934e+00	 4.374098e-01	 8.984637e+00
1	 1.508140e+00	 4.635699e-01	 8.696990e+00
1	 1.499858e+00	 4.897034e-01	 8.406012e+00
1	 1.491085e+00	 5.157972e-01	 8.109020e+00
1	 1.540844e+00	 3.877719e-01	 8.982265e+00
1	 1.533970e+00	 4.141317e-01	 8.669411e+00
1	 1.526609e+00	 4.404901e-01	 8.363432e+00
1	 1.518760e+00	 4.668345e-01	 8.061916e+00
1	 1.510420e+00	 4.931520e-01	 7.762359e+00
1	 1.501586e+00	 5.194296e-01	 7.462161e+00
1	 1.551619e+00	 3.904836e-01	 8.426104e+00
1	 1.544697e+00	 4.170277e-01	 8.089559e+00
1	 1.537285e+00	 4.435705e-01	 7.764908e+00
1	 1.529381e+00	 4.700991e-01	 7.449851e+00
1	 1.520983e+00	 4.966006e-01	 7.141978e+00
1	 1.512087e+00	 5.230620e-01	 6.838776e+00
1	 1.562394e+00	 3.931953e-01	 7.891343e+00
1	 1.555424e+00	 4.199238e-01	 7.531542e+00
1	 1.547961e+00	 4.466508e-01	 7.188598e+00
1	 1.540002e+00	 4.733637e-01	 6.860317e+00
1	 1.531545e+00	 5.000493e-01	 6.544387e+00
1	 1.522587e+00	 5.266944e-01	 6.238380e+00
1	 1.470084e+00	 5.085325e-01	 9.475171e+00
1	 1.460950e+00	 5.342067e-01	 9.177346e+00
1	 1.451330e+00	 5.598158e-01	 8.835583e+00
1	 1.441223e+00	 5.853465e-01	 8.451182e+00
1	 1.430627e+00	 6.107853e-01	 8.025560e+00
1	 1.419544e+00	 6.361189e-01	 7.560247e+00
1	 1.480585e+00	 5.121649e-01	 8.779852e+00
1	 1.471386e+00	 5.380225e-01	 8.514600e+00
1	 1.461697e+00	 5.638145e-01	 8.209624e+00
1	 1.451517e+00	 5.895275e-01	 7.865487e+00
1	 1.440846e+00	 6.151481e-01	 7.482840e+00
1	 1.429684e+00	 6.406626e-01	 7.062427e+00
1	 1.491085e+00	 5.157972e-01	 8.109020e+00
1	 1.481821e+00	 5.418382e-01	 7.870546e+00
1	 1.472063e+00	 5.678132e-01	 7.596489e+00
1	 1.461812e+00	 5.937086e-01	 7.286682e+00
1	 1.451065e+00	 6.195108e-01	 6.941021e+00
1	 1.439823e+00	 6.452063e-01	 6.559471e+00
1	 1.501586e+00	 5.194296e-01	 7.462161e+00
1	 1.492257e+00	 5.456540e-01	 7.244790e+00
1	 1.482430e+00	 5.718119e-01	 6.995907e+00
1	 1.472106e+00	 5.978896e-01	 6.714623e+00
1	 1.461284e+00	 6.238736e-01	 6.400085e+00
1	 1.449963e+00	 6.497500e-01	 6.051485e+00
1	 1.512087e+00	 5.230620e-01	 6.838776e+00
1	 1.502692e+00	 5.494698e-01	 6.636952e+00
1	 1.492797e+00	 5.758105e-01	 6.407618e+00
1	 1.482400e+00	 6.020707e-01	 6.149169e+00
1	 1.471502e+00	 6.282363e-01	 5.860013e+00
1	 1.460103e+00	 6.542938e-01	 5.538576e+00
1	 1.522587e+00	 5.266944e-01	 6.238380e+00
1	 1.513127e+00	 5.532855e-01	 6.046661e+00
1	 1.503163e+00	 5.798092e-01	 5.831368e+00
1	 1.492695e+00	 6.062517e-01	 5.590185e+00
1	 1.481721e+00	 6.325991e-01	 5.320786e+00
1	 1.470242e+00	 6.588375e-01	 5.020844e+00
1	 1.419544e+00	 6.361189e-01	 7.560247e+00
1	 1.407974e+00	 6.613337e-01	 6.256170e+00
1	 1.395918e+00	 6.864160e-01	 4.918769e+00
1	 1.383377e+00	 7.113522e-01	 3.551261e+00
1	 1.370353e+00	 7.361286e-01	 2.156964e+00
1	 1.356850e+00	 7.607315e-01	 7.392971e-01
1	 1.429684e+00	 6.406626e-01	 7.062427e+00
1	 1.418031e+00	 6.660575e-01	 5.816259e+00
1	 1.405889e+00	 6.913190e-01	 4.537423e+00
1	 1.393258e+00	 7.164333e-01	 3.229689e+00
1	 1.380141e+00	 7.413866e-01	 1.896940e+00
1	 1.366541e+00	 7.661653e-01	 5.431579e-01
1	 1.439823e+00	 6.452063e-01	 6.559471e+00
1	 1.428088e+00	 6.707813e-01	 5.375264e+00
1	 1.415859e+00	 6.962219e-01	 4.159048e+00
1	 1.403139e+00	 7.215144e-01	 2.915140e+00
1	 1.389930e+00	 7.466447e-01	 1.647978e+00
1	 1.376233e+00	 7.715991e-01	 3.621053e-01
1	 1.449963e+00	 6.497500e-01	 6.051485e+00
1	 1.438145e+00	 6.755051e-01	 4.933209e+00
1	 1.425830e+00	 7.011249e-01	 3.783582e+00
1	 1.413021e+00	 7.265954e-01	 2.607465e+00
1	 1.399718e+00	 7.519028e-01	 1.409846e+00
1	 1.385925e+00	 7.770329e-01	 1.958227e-01
1	 1.460103e+00	 6.542938e-01	 5.538576e+00
1	 1.448202e+00	 6.802289e-01	 4.490115e+00
1	 1.435801e+00	 7.060279e-01	 3.410965e+00
1	 1.422902e+00	 7.316765e-01	 2.306523e+00
1	 1.409506e+00	 7.571608e-01	 1.182320e+00
1	 1.395617e+00	 7.824667e-01	 4.400244e-02
1	 1.470242e+00	 6.588375e-01	 5.020844e+00
1	 1.458259e+00	 6.849528e-01	 4.046005e+00
1	 1.445772e+00	 7.109309e-01	 3.041138e+00
1	 1.432783e+00	 7.367576e-01	 2.012173e+00
1	 1.419294e+00	 7.624189e-01	 9.651788e-01
1	 1.405308e+00	 7.879005e-01	-9.365471e-02
1	 1.356850e+00	 7.607315e-01	 7.392971e-01
1	 1.342869e+00	 7.851473e-01	-1.271121e+00
1	 1.328415e+00	 8.093624e-01	-3.285010e+00
1	 1.313491e+00	 8.333632e-01	-5.296836e+00
1	 1.298103e+00	 8.571364e-01	-7.301024e+00
1	 1.282254e+00	 8.806686e-01	-9.291976e+00
1	 1.366541e+00	 7.661653e-01	 5.431579e-01
1	 1.352461e+00	 7.907555e-01	-1.393536e+00
1	 1.337903e+00	 8.151435e-01	-3.334078e+00
1	 1.322873e+00	 8.393158e-01	-5.273069e+00
1	 1.307375e+00	 8.632588e-01	-7.205068e+00
1	 1.291413e+00	 8.869591e-01	-9.124605e+00
1	 1.376233e+00	 7.715991e-01	 3.621053e-01
1	 1.362053e+00	 7.963637e-01	-1.501772e+00
1	 1.347392e+00	 8.209247e-01	-3.369864e+00
1	 1.332255e+00	 8.452684e-01	-5.236905e+00
1	 1.316647e+00	 8.693812e-01	-7.097583e+00
1	 1.300572e+00	 8.932496e-01	-8.946559e+00
1	 1.385925e+00	 7.770329e-01	 1.958227e-01
1	 1.371645e+00	 8.019719e-01	-1.596127e+00
1	 1.356881e+00	 8.267059e-01	-3.392647e+00
1	 1.341637e+00	 8.512210e-01	-5.188603e+00
1	 1.325919e+00	 8.755036e-01	-6.978811e+00
1	 1.309731e+00	 8.995401e-01	-8.758063e+00
1	 1.395617e+00	 7.824667e-01	 4.400244e-02
1	 1.381237e+00	 8.075801e-01	-1.676890e+00
1	 1.366369e+00	 8.324870e-01	-3.402698e+00
1	 1.351019e+00	 8.571736e-01	-5.128416e+00
1	 1.335191e+00	 8.816260e-01	-6.848989e+00
1	 1.318890e+00	 9.058306e-01	-8.559335e+00
1	 1.405308e+00	 7.879005e-01	-9.365471e-02
1	 1.390828e+00	 8.131883e-01	-1.744342e+00
1	 1.375858e+00	 8.382682e-01	-3.400280e+00
1	 1.360401e+00	 8.631262e-01	-5.056590e+00
1	 1.344463e+00	 8.877484e-01	-6.708344e+00
1	 1.328049e+00	 9.121211e-01	-8.350586e+00
1	 1.282254e+00	 8.806686e-01	-9.291976e+00
1	 1.265952e+00	 9.039467e-01	-1.070693e+01
1	 1.249201e+00	 9.269576e-01	-1.218088e+01
1	 1.232008e+00	 9.496887e-01	-1.371503e+01
1	 1.214381e+00	 9.721272e-01	-1.531041e+01
1	 1.196327e+00	 9.942609e-01	-1.696792e+01
1	 1.291413e+00	 8.869591e-01	-9.124605e+00
1	 1.274994e+00	 9.104034e-01	-1.050976e+01
1	 1.258124e+00	 9.335788e-01	-1.194889e+01
1	 1.240808e+00	 9.564722e-01	-1.344284e+01
1	 1.223055e+00	 9.790710e-01	-1.499231e+01
1	 1.204872e+00	 1.001363e+00	-1.659787e+01
1	 1.300572e+00	 8.932496e-01	-8.946559e+00
1	 1.284037e+00	 9.168602e-01	-1.029938e+01
1	 1.267047e+00	 9.401999e-01	-1.170120e+01
1	 1.249608e+00	 9.632557e-01	-1.315252e+01
1	 1.231730e+00	 9.860148e-01	-1.465373e+01
1	 1.213417e+00	 1.008465e+00	-1.620506e+01
1	 1.309731e+00	 8.995401e-01	-8.758063e+00
1	 1.293079e+00	 9.233170e-01	-1.007604e+01
1	 1.275969e+00	 9.468210e-01	-1.143812e+01
1	 1.258408e+00	 9.700392e-01	-1.284446e+01
1	 1.240404e+00	 9.929585e-01	-1.429510e+01
1	 1.221963e+00	 1.015567e+00	-1.578996e+01
1	 1.318890e+00	 9.058306e-01	-8.559335e+00
1	 1.302122e+00	 9.297737e-01	-9.840039e+00
1	 1.284892e+00	 9.534421e-01	-1.115999e+01
1	 1.267209e+00	 9.768227e-01	-1.251901e+01
1	 1.249078e+00	 9.999023e-01	-1.391683e+01
1	 1.230508e+00	 1.022668e+00	-1.535305e+01
1	 1.328049e+00	 9.121211e-01	-8.350586e+00
1	 1.311164e+00	 9.362305e-01	-9.591620e+00
1	 1.293815e+00	 9.600633e-01	-1.086711e+01
1	 1.276009e+00	 9.836061e-01	-1.217655e+01
1	 1.257752e+00	 1.006846e+00	-1.351933e+01
1	 1.239053e+00	 1.029770e+00	-1.489476e+01
1	 1.196327e+00	 9.942609e-01	-1.696792e+01
1	 1.177854e+00	 1.016078e+00	-1.739272e+01
1	 1.158970e+00	 1.037566e+00	-1.788084e+01
1	 1.139684e+00	 1.058713e+00	-1.843302e+01
1	 1.120005e+00	 1.079510e+00	-1.904987e+01
1	 1.099944e+00	 1.099944e+00	-1.973184e+01
1	 1.204872e+00	 1.001363e+00	-1.659787e+01
1	 1.186267e+00	 1.023335e+00	-1.696974e+01
1	 1.167248e+00	 1.044977e+00	-1.740856e+01
1	 1.147824e+00	 1.066276e+00	-1.791554e+01
1	 1.128005e+00	 1.087221e+00	-1.849172e+01
1	 1.107801e+00	 1.107801e+00	-1.913800e+01
1	 1.213417e+00	 1.008465e+00	-1.620506e+01
1	 1.194680e+00	 1.030593e+00	-1.652696e+01
1	 1.175526e+00	 1.052388e+00	-1.691939e+01
1	 1.155965e+00	 1.073838e+00	-1.738401e+01
1	 1.136005e+00	 1.094931e+00	-1.792231e+01
1	 1.115657e+00	 1.115657e+00	-1.853560e+01
1	 1.221963e+00	 1.015567e+00	-1.578996e+01
1	 1.203093e+00	 1.037851e+00	-1.606480e+01
1	 1.183805e+00	 1.059799e+00	-1.641369e+01
1	 1.164105e+00	 1.081400e+00	-1.683873e+01
1	 1.144005e+00	 1.102642e+00	-1.734187e+01
1	 1.123514e+00	 1.123514e+00	-1.792483e+01
1	 1.230508e+00	 1.022668e+00	-1.535305e+01
1	 1.211507e+00	 1.045108e+00	-1.558366e+01
1	 1.192083e+00	 1.067210e+00	-1.589179e+01
1	 1.172246e+00	 1.088962e+00	-1.627999e+01
1	 1.152005e+00	 1.110353e+00	-1.675063e+01
1	 1.131371e+00	 1.131371e+00	-1.730585e+01
1	 1.239053e+00	 1.029770e+00	-1.489476e+01
1	 1.219920e+00	 1.052366e+00	-1.508394e+01
1	 1.200361e+00	 1.074622e+00	-1.535404e+01
1	 1.180387e+00	 1.096525e+00	-1.570807e+01
1	 1.160005e+00	 1.118064e+00	-1.614881e+01
1	 1.139228e+00	 1.139228e+00	-1.667884e+01
1	 1.099944e+00	 1.099944e+00	-1.973184e+01
1	 1.079510e+00	 1.120005e+00	-2.076607e+01
1	 1.058713e+00	 1.139684e+00	-2.181818e+01
1	 1.037566e+00	 1.158970e+00	-2.288712e+01
1	 1.016078e+00	 1.177854e+00	-2.397181e+01
1	 9.942609e-01	 1.196327e+00	-2.507117e+01
1	 1.107801e+00	 1.107801e+00	-1.913800e+01
1	 1.087221e+00	 1.128005e+00	-2.013496e+01
1	 1.066276e+00	 1.147824e+00	-2.115617e+01
1	 1.044977e+00	 1.167248e+00	-2.220101e+01
1	 1.023335e+00	 1.186267e+00	-2.326879e+01
1	 1.001363e+00	 1.204872e+00	-2.435879e+01
1	 1.115657e+00	 1.115657e+00	-1.853560e+01
1	 1.094931e+00	 1.136005e+00	-1.949821e+01
1	 1.073838e+00	 1.155965e+00	-2.049136e+01
1	 1.052388e+00	 1.175526e+00	-2.151482e+01
1	 1.030593e+00	 1.194680e+00	-2.256833e+01
1	 1.008465e+00	 1.213417e+00	-2.365152e+01
1	 1.123514e+00	 1.123514e+00	-1.792483e+01
1	 1.102642e+00	 1.144005e+00	-1.885594e+01
1	 1.081400e+00	 1.164105e+00	-1.982379e+01
1	 1.059799e+00	 1.183805e+00	-2.082856e+01
1	 1.037851e+00	 1.203093e+00	-2.187038e+01
1	 1.015567e+00	 1.221963e+00	-2.294924e+01
1	 1.131371e+00	 1.131371e+00	-1.730585e+01
1	 1.110353e+00	 1.152005e+00	-1.820826e+01
1	 1.088962e+00	 1.172246e+00	-1.915352e+01
1	 1.067210e+00	 1.192083e+00	-2.014224e+01
1	 1.045108e+00	 1.211507e+00	-2.117490e+01
1	 1.022668e+00	 1.230508e+00	-2.225187e+01
1	 1.139228e+00	 1.139228e+00	-1.667884e+01
1	 1.118064e+00	 1.160005e+00	-1.755528e+01
1	 1.096525e+00	 1.180387e+00	-1.848062e+01
1	 1.074622e+00	 1.200361e+00	-1.945584e+01
1	 1.052366e+00	 1.219920e+00	-2.048182e+01
1	 1.029770e+00	 1.239053e+00	-2.155930e+01
1	 9.942609e-01	 1.196327e+00	-2.507117e+01
1	 9.721272e-01	 1.214381e+00	-2.753917e+01
1	 9.496887e-01	 1.232008e+00	-2.995560e+01
1	 9.269576e-01	 1.249201e+00	-3.231746e+01
1	 9.039467e-01	 1.265952e+00	-3.462190e+01
1	 8.806686e-01	 1.282254e+00	-3.686619e+01
1	 1.001363e+00	 1.204872e+00	-2.435879e+01
1	 9.790710e-01	 1.223055e+00	-2.680453e+01
1	 9.564722e-01	 1.240808e+00	-2.919155e+01
1	 9.335788e-01	 1.258124e+00	-3.151647e+01
1	 9.104034e-01	 1.274994e+00	-3.377607e+01
1	 8.869591e-01	 1.291413e+00	-3.596732e+01
1	 1.008465e+00	 1.213417e+00	-2.365152e+01
1	 9.860148e-01	 1.231730e+00	-2.607205e+01
1	 9.632557e-01	 1.249608e+00	-2.842682e+01
1	 9.401999e-01	 1.267047e+00	-3.071207e+01
1	 9.168602e-01	 1.284037e+00	-3.292423e+01
1	 8.932496e-01	 1.300572e+00	-3.505994e+01
1	 1.015567e+00	 1.221963e+00	-2.294924e+01
1	 9.929585e-01	 1.240404e+00	-2.534168e+01
1	 9.700392e-01	 1.258408e+00	-2.766141e+01
1	 9.468210e-01	 1.275969e+00	-2.990432e+01
1	 9.233170e-01	 1.293079e+00	-3.206650e+01
1	 8.995401e-01	 1.309731e+00	-3.414424e+01
1	 1.022668e+00	 1.230508e+00	-2.225187e+01
1	 9.999023e-01	 1.249078e+00	-2.461337e+01
1	 9.768227e-01	 1.267209e+00	-2.689535e+01
1	 9.534421e-01	 1.284892e+00	-2.909331e+01
1	 9.297737e-01	 1.302122e+00	-3.120299e+01
1	 9.058306e-01	 1.318890e+00	-3.322038e+01
1	 1.029770e+00	 1.239053e+00	-2.155930e+01
1	 1.006846e+00	 1.257752e+00	-2.388709e+01
1	 9.836061e-01	 1.276009e+00	-2.612864e+01
1	 9.600633e-01	 1.293815e+00	-2.827909e+01
1	 9.362305e-01	 1.311164e+00	-3.033384e+01
1	 9.121211e-01	 1.328049e+00	-3.228855e+01
1	 8.806686e-01	 1.282254e+00	-3.686619e+01
1	 8.571364e-01	 1.298103e+00	-3.948675e+01
1	 8.333632e-01	 1.313491e+00	-4.194756e+01
1	 8.093624e-01	 1.328415e+00	-4.424324e+01
1	 7.851473e-01	 1.342869e+00	-4.636886e+01
1	 7.607315e-01	 1.356850e+00	-4.831996e+01
1	 8.869591e-01	 1.291413e+00	-3.596732e+01
1	 8.632588e-01	 1.307375e+00	-3.850421e+01
1	 8.393158e-01	 1.322873e+00	-4.087973e+01
1	 8.151435e-01	 1.337903e+00	-4.308858e+01
1	 7.907555e-01	 1.352461e+00	-4.512592e+01
1	 7.661653e-01	 1.366541e+00	-4.698741e+01
1	 8.932496e-01	 1.300572e+00	-3.505994e+01
1	 8.693812e-01	 1.316647e+00	-3.751369e+01
1	 8.452684e-01	 1.332255e+00	-3.980447e+01
1	 8.209247e-01	 1.347392e+00	-4.192705e+01
1	 7.963637e-01	 1.362053e+00	-4.387671e+01
1	 7.715991e-01	 1.376233e+00	-4.564921e+01
1	 8.995401e-01	 1.309731e+00	-3.414424e+01
1	 8.755036e-01	 1.325919e+00	-3.651536e+01
1	 8.512210e-01	 1.341637e+00	-3.872192e+01
1	 8.267059e-01	 1.356881e+00	-4.075880e+01
1	 8.019719e-01	 1.371645e+00	-4.262136e+01
1	 7.770329e-01	 1.385925e+00	-4.430547e+01
1	 9.058306e-01	 1.318890e+00	-3.322038e+01
1	 8.816260e-01	 1.335191e+00	-3.550937e+01
1	 8.571736e-01	 1.351019e+00	-3.763225e+01
1	 8.324870e-01	 1.366369e+00	-3.958397e+01
1	 8.075801e-01	 1.381237e+00	-4.136000e+01
1	 7.824667e-01	 1.395617e+00	-4.295630e+01
1	 9.121211e-01	 1.328049e+00	-3.228855e+01
1	 8.877484e-01	 1.344463e+00	-3.449590e+01
1	 8.631262e-01	 1.360401e+00	-3.653559e+01
1	 8.382682e-01	 1.375858e+00	-3.840269e+01
1	 8.131883e-01	 1.390828e+00	-4.009275e+01
1	 7.879005e-01	 1.405308e+00	-4.160183e+01
1	 7.607315e-01	 1.356850e+00	-4.831996e+01
1	 7.361286e-01	 1.370353e+00	-4.945299e+01
1	 7.113522e-01	 1.383377e+00	-5.047876e+01
1	 6.864160e-01	 1.395918e+00	-5.139569e+01
1	 6.613337e-01	 1.407974e+00	-5.220250e+01
1	 6.361189e-01	 1.419544e+00	-5.289819e+01
1	 7.661653e-01	 1.366541e+00	-4.698741e+01
1	 7.413866e-01	 1.380141e+00	-4.803000e+01
1	 7.164333e-01	 1.393258e+00	-4.894257e+01
1	 6.913190e-01	 1.405889e+00	-4.972304e+01
1	 6.660575e-01	 1.418031e+00	-5.036973e+01
1	 6.406626e-01	 1.429684e+00	-5.088131e+01
1	 7.715991e-01	 1.376233e+00	-4.564921e+01
1	 7.466447e-01	 1.389930e+00	-4.659579e+01
1	 7.215144e-01	 1.403139e+00	-4.738993e+01
1	 6.962219e-01	 1.415859e+00	-4.802907e+01
1	 6.707813e-01	 1.428088e+00	-4.851110e+01
1	 6.452063e-01	 1.439823e+00	-4.883437e+01
1	 7.770329e-01	 1.385925e+00	-4.430547e+01
1	 7.519028e-01	 1.399718e+00	-4.515060e+01
1	 7.265954e-01	 1.413021e+00	-4.582119e+01
1	 7.011249e-01	 1.425830e+00	-4.631421e+01
1	 6.755051e-01	 1.438145e+00	-4.662715e+01
1	 6.497500e-01	 1.449963e+00	-4.675801e+01
1	 7.824667e-01	 1.395617e+00	-4.295630e+01
1	 7.571608e-01	 1.409506e+00	-4.369465e+01
1	 7.316765e-01	 1.422902e+00	-4.423669e+01
1	 7.060279e-01	 1.435801e+00	-4.457892e+01
1	 6.802289e-01	 1.448202e+00	-4.471841e+01
1	 6.542938e-01	 1.460103e+00	-4.465285e+01
1	 7.879005e-01	 1.405308e+00	-4.160183e+01
1	 7.624189e-01	 1.419294e+00	-4.222818e+01
1	 7.367576e-01	 1.432783e+00	-4.263676e+01
1	 7.109309e-01	 1.445772e+00	-4.282360e+01
1	 6.849528e-01	 1.458259e+00	-4.278538e+01
1	 6.588375e-01	 1.470242e+00	-4.251947e+01
1	 6.361189e-01	 1.419544e+00	-5.289819e+01
1	 6.107853e-01	 1.430627e+00	-5.239692e+01
1	 5.853465e-01	 1.441223e+00	-5.186157e+01
1	 5.598158e-01	 1.451330e+00	-5.129189e+01
1	 5.342067e-01	 1.460950e+00	-5.068777e+01
1	 5.085325e-01	 1.470084e+00	-5.004923e+01
1	 6.406626e-01	 1.429684e+00	-5.088131e+01
1	 6.151481e-01	 1.440846e+00	-5.021328e+01
1	 5.895275e-01	 1.451517e+00	-4.955212e+01
1	 5.638145e-01	 1.461697e+00	-4.889831e+01
1	 5.380225e-01	 1.471386e+00	-4.825237e+01
1	 5.121649e-01	 1.480585e+00	-4.761480e+01
1	 6.452063e-01	 1.439823e+00	-4.883437e+01
1	 6.195108e-01	 1.451065e+00	-4.800862e+01
1	 5.937086e-01	 1.461812e+00	-4.723006e+01
1	 5.678132e-01	 1.472063e+00	-4.649994e+01
1	 5.418382e-01	 1.481821e+00	-4.581938e+01
1	 5.157972e-01	 1.491085e+00	-4.518935e+01
1	 6.497500e-01	 1.449963e+00	-4.675801e+01
1	 6.238736e-01	 1.461284e+00	-4.578337e+01
1	 5.978896e-01	 1.472106e+00	-4.489567e+01
1	 5.718119e-01	 1.482430e+00	-4.409688e+01
1	 5.456540e-01	 1.492257e+00	-4.338874e+01
1	 5.194296e-01	 1.501586e+00	-4.277270e+01
1	 6.542938e-01	 1.460103e+00	-4.465285e+01
1	 6.282363e-01	 1.471502e+00	-4.353797e+01
1	 6.020707e-01	 1.482400e+00	-4.254919e+01
1	 5.758105e-01	 1.492797e+00	-4.168923e+01
1	 5.494698e-01	 1.502692e+00	-4.096041e+01
1	 5.230620e-01	 1.512087e+00	-4.036467e+01
1	 6.588375e-01	 1.470242e+00	-4.251947e+01
1	 6.325991e-01	 1.481721e+00	-4.127283e+01
1	 6.062517e-01	 1.492695e+00	-4.019089e+01
1	 5.798092e-01	 1.503163e+00	-3.927708e+01
1	 5.532855e-01	 1.513127e+00	-3.853434e+01
1	 5.266944e-01	 1.522587e+00	-3.796507e+01
1	 5.085325e-01	 1.470084e+00	-5.004923e+01
1	 4.828062e-01	 1.478733e+00	-4.895424e+01
1	 4.570408e-01	 1.486898e+00	-4.813590e+01
1	 4.312491e-01	 1.494583e+00	-4.759496e+01
1	 4.054436e-01	 1.501788e+00	-4.733145e+01
1	 3.796368e-01	 1.508519e+00	-4.734469e+01
1	 5.121649e-01	 1.480585e+00	-4.761480e+01
1	 4.862548e-01	 1.489295e+00	-4.658786e+01
1	 4.603054e-01	 1.497519e+00	-4.585468e+01
1	 4.343294e-01	 1.505258e+00	-4.541586e+01
1	 4.083396e-01	 1.512516e+00	-4.527127e+01
1	 3.823485e-01	 1.519294e+00	-4.542004e+01
1	 5.157972e-01	 1.491085e+00	-4.518935e+01
1	 4.897034e-01	 1.499858e+00	-4.423153e+01
1	 4.635699e-01	 1.508140e+00	-4.358433e+01
1	 4.374098e-01	 1.515934e+00	-4.324823e+01
1	 4.112357e-01	 1.523243e+00	-4.322294e+01
1	 3.850602e-01	 1.530069e+00	-4.350737e+01
1	 5.194296e-01	 1.501586e+00	-4.277270e+01
1	 4.931520e-01	 1.510420e+00	-4.188504e+01
1	 4.668345e-01	 1.518760e+00	-4.132463e+01
1	 4.404901e-01	 1.526609e+00	-4.109184e+01
1	 4.141317e-01	 1.533970e+00	-4.118620e+01
1	 3.877719e-01	 1.540844e+00	-4.160642e+01
1	 5.230620e-01	 1.512087e+00	-4.036467e+01
1	 4.966006e-01	 1.520983e+00	-3.954818e+01
1	 4.700991e-01	 1.529381e+00	-3.907535e+01
1	 4.435705e-01	 1.537285e+00	-3.894644e+01
1	 4.170277e-01	 1.544697e+00	-3.916081e+01
1	 3.904836e-01	 1.551619e+00	-3.971696e+01
1	 5.266944e-01	 1.522587e+00	-3.796507e+01
1	 5.000493e-01	 1.531545e+00	-3.722075e+01
1	 4.733637e-01	 1.540002e+00	-3.683629e+01
1	 4.466508e-01	 1.547961e+00	-3.681182e+01
1	 4.199238e-01	 1.555424e+00	-3.714654e+01
1	 3.931953e-01	 1.562394e+00	-3.783875e+01
1	 3.796368e-01	 1.508519e+00	-4.734469e+01
1	 3.538408e-01	 1.514777e+00	-4.766118e+01
1	 3.280674e-01	 1.520567e+00	-4.816560e+01
1	 3.023285e-01	 1.525893e+00	-4.885635e+01
1	 2.766352e-01	 1.530760e+00	-4.973141e+01
1	 2.509989e-01	 1.535172e+00	-5.078839e+01
1	 3.823485e-01	 1.519294e+00	-4.542004e+01
1	 3.563682e-01	 1.525597e+00	-4.588102e+01
1	 3.304108e-01	 1.531428e+00	-4.653931e+01
1	 3.044879e-01	 1.536793e+00	-4.739308e+01
1	 2.786112e-01	 1.541694e+00	-4.844007e+01
1	 2.527918e-01	 1.546137e+00	-4.967759e+01
1	 3.850602e-01	 1.530069e+00	-4.350737e+01
1	 3.588956e-01	 1.536417e+00	-4.411269e+01
1	 3.327541e-01	 1.542290e+00	-4.492459e+01
1	 3.066474e-01	 1.547692e+00	-4.594098e+01
1	 2.805872e-01	 1.552628e+00	-4.715937e+01
1	 2.545846e-01	 1.557103e+00	-4.857680e+01
1	 3.877719e-01	 1.540844e+00	-4.160642e+01
1	 3.614231e-01	 1.547237e+00	-4.235595e+01
1	 3.350974e-01	 1.553151e+00	-4.332118e+01
1	 3.088069e-01	 1.558591e+00	-4.449981e+01
1	 2.825631e-01	 1.563562e+00	-4.588909e+01
1	 2.563775e-01	 1.568068e+00	-4.748581e+01
1	 3.904836e-01	 1.551619e+00	-3.971696e+01
1	 3.639505e-01	 1.558056e+00	-4.061055e+01
1	 3.374408e-01	 1.564012e+00	-4.172885e+01
1	 3.109664e-01	 1.569490e+00	-4.306935e+01
1	 2.845391e-01	 1.574496e+00	-4.462903e+01
1	 2.581703e-01	 1.579034e+00	-4.640441e+01
1	 3.931953e-01	 1.562394e+00	-3.783875e+01
1	 3.664779e-01	 1.568876e+00	-3.887626e+01
1	 3.397841e-01	 1.574873e+00	-4.014738e+01
1	 3.131259e-01	 1.580390e+00	-4.164937e+01
1	 2.865151e-01	 1.585430e+00	-4.337896e+01
1	 2.599632e-01	 1.589999e+00	-4.533242e+01
1	 2.509989e-01	 1.535172e+00	-5.078839e+01
1	 2.254303e-01	 1.539134e+00	-5.216795e+01
1	 1.999400e-01	 1.542653e+00	-5.356964e+01
1	 1.745382e-01	 1.545733e+00	-5.499176e+01
1	 1.492349e-01	 1.548380e+00	-5.643257e+01
1	 1.240398e-01	 1.550602e+00	-5.789032e+01
1	 2.527918e-01	 1.546137e+00	-4.967759e+01
1	 2.270405e-01	 1.550128e+00	-5.123337e+01
1	 2.013681e-01	 1.553672e+00	-5.281261e+01
1	 1.757849e-01	 1.556774e+00	-5.441344e+01
1	 1.503009e-01	 1.559440e+00	-5.603397e+01
1	 1.249258e-01	 1.561678e+00	-5.767227e+01
1	 2.545846e-01	 1.557103e+00	-4.857680e+01
1	 2.286507e-01	 1.561122e+00	-5.030827e+01
1	 2.027963e-01	 1.564691e+00	-5.206453e+01
1	 1.770316e-01	 1.567815e+00	-5.384353e+01
1	 1.513669e-01	 1.570500e+00	-5.564321e+01
1	 1.258118e-01	 1.572754e+00	-5.746147e+01
1	 2.563775e-01	 1.568068e+00	-4.748581e+01
1	 2.302610e-01	 1.572116e+00	-4.939248e+01
1	 2.042244e-01	 1.575709e+00	-5.132523e+01
1	 1.782783e-01	 1.578856e+00	-5.328185e+01
1	 1.524328e-01	 1.581560e+00	-5.526011e+01
1	 1.266978e-01	 1.583829e+00	-5.725776e+01
1	 2.581703e-01	 1.579034e+00	-4.640441e+01
1	 2.318712e-01	 1.583110e+00	-4.848578e+01
1	 2.056526e-01	 1.586728e+00	-5.059451e+01
1	 1.795250e-01	 1.589896e+00	-5.272823e+01
1	 1.534988e-01	 1.592620e+00	-5.488454e+01
1	 1.275838e-01	 1.594905e+00	-5.706100e+01
1	 2.599632e-01	 1.589999e+00	-4.533242e+01
1	 2.334814e-01	 1.594103e+00	-4.758800e+01
1	 2.070807e-01	 1.597747e+00	-4.987221e+01
1	 1.807717e-01	 1.600937e+00	-5.218250e+01
1	 1.545648e-01	 1.603680e+00	-5.451631e+01
1	 1.284697e-01	 1.605981e+00	-5.687105e+01
1	 1.240398e-01	 1.550602e+00	-5.789032e+01
1	 9.896200e-02	 1.552404e+00	-5.923649e+01
1	 7.401064e-02	 1.553794e+00	-6.043286e+01
1	 4.919436e-02	 1.554777e+00	-6.148067e+01
1	 2.452148e-02	 1.555362e+00	-6.238146e+01
1	 0.000000e+00	 1.555556e+00	-6.313699e+01
1	 1.249258e-01	 1.561678e+00	-5.767227e+01
1	 9.966887e-02	 1.563493e+00	-5.919200e+01
1	 7.453929e-02	 1.564892e+00	-6.055383e+01
1	 4.954575e-02	 1.565883e+00	-6.175905e+01
1	 2.469663e-02	 1.566472e+00	-6.280923e+01
1	 0.000000e+00	 1.566667e+00	-6.370620e+01
1	 1.258118e-01	 1.572754e+00	-5.746147e+01
1	 1.003757e-01	 1.574582e+00	-5.915433e+01
1	 7.506794e-02	 1.575991e+00	-6.068131e+01
1	 4.989714e-02	 1.576989e+00	-6.204371e+01
1	 2.487179e-02	 1.577582e+00	-6.324317e+01
1	 0.000000e+00	 1.577778e+00	-6.428159e+01
1	 1.266978e-01	 1.583829e+00	-5.725776e+01
1	 1.010826e-01	 1.585670e+00	-5.912334e+01
1	 7.559659e-02	 1.587089e+00	-6.081515e+01
1	 5.024853e-02	 1.588094e+00	-6.233453e+01
1	 2.504694e-02	 1.588691e+00	-6.368316e+01
1	 0.000000e+00	 1.588889e+00	-6.486301e+01
1	 1.275838e-01	 1.594905e+00	-5.706100e+01
1	 1.017895e-01	 1.596759e+00	-5.909890e+01
1	 7.612523e-02	 1.598188e+00	-6.095523e+01
1	 5.059991e-02	 1.599200e+00	-6.263138e+01
1	 2.522209e-02	 1.599801e+00	-6.412907e+01
1	 0.000000e+00	 1.600000e+00	-6.545034e+01
1	 1.284697e-01	 1.605981e+00	-5.687105e+01
1	 1.024964e-01	 1.607847e+00	-5.908086e+01
1	 7.665388e-02	 1.609287e+00	-6.110142e+01
1	 5.095130e-02	 1.610305e+00	-6.293414e+01
1	 2.539725e-02	 1.610911e+00	-6.458079e+01
1	 0.000000e+00	 1.611111e+00	-6.604347e+01
1	 1.611111e+00	 0.000000e+00	 1.361546e+01
1	 1.610911e+00	 2.539725e-02	 1.353551e+01
1	 1.610305e+00	 5.095130e-02	 1.340903e+01
1	 1.609287e+00	 7.665388e-02	 1.323466e+01
1	 1.607847e+00	 1.024964e-01	 1.301108e+01
1	 1.605981e+00	 1.284697e-01	 1.273705e+01
1	 1.622222e+00	 0.000000e+00	 1.343883e+01
1	 1.622021e+00	 2.557240e-02	 1.333405e+01
1	 1.621411e+00	 5.130269e-02	 1.318293e+01
1	 1.620385e+00	 7.718253e-02	 1.298409e+01
1	 1.618936e+00	 1.032032e-01	 1.273621e+01
1	 1.617057e+00	 1.293557e-01	 1.243802e+01
1	 1.633333e+00	 0.000000e+00	 1.327519e+01
1	 1.633130e+00	 2.574755e-02	 1.314532e+01
1	 1.632516e+00	 5.165408e-02	 1.296930e+01
1	 1.631484e+00	 7.771118e-02	 1.274575e+01
1	 1.630025e+00	 1.039101e-01	 1.247332e+01
1	 1.628132e+00	 1.302417e-01	 1.215071e+01
1	 1.644444e+00	 0.000000e+00	 1.312428e+01
1	 1.644240e+00	 2.592271e-02	 1.296907e+01
1	 1.643622e+00	 5.200547e-02	 1.276791e+01
1	 1.642582e+00	 7.823982e-02	 1.251939e+01
1	 1.641113e+00	 1.046170e-01	 1.222215e+01
1	 1.639208e+00	 1.311277e-01	 1.187488e+01
1	 1.655556e+00	 0.000000e+00	 1.298585e+01
1	 1.655350e+00	 2.609786e-02	 1.280505e+01
1	 1.654727e+00	 5.235686e-02	 1.257850e+01
1	 1.653681e+00	 7.876847e-02	 1.230476e+01
1	 1.652202e+00	 1.053238e-01	 1.198247e+01
1	 1.650284e+00	 1.320137e-01	 1.161028e+01
1	 1.666667e+00	 0.000000e+00	 1.285964e+01
1	 1.666460e+00	 2.627302e-02	 1.265301e+01
1	 1.665833e+00	 5.270824e-02	 1.240083e+01
1	 1.664779e+00	 7.929712e-02	 1.210164e+01
1	 1.663290e+00	 1.060307e-01	 1.175404e+01
1	 1.661360e+00	 1.328997e-01	 1.135670e+01
1	 1.605981e+00	 1.284697e-01	 1.273705e+01
1	 1.603680e+00	 1.545648e-01	 1.233803e+01
1	 1.600937e+00	 1.807717e-01	 1.192276e+01
1	 1.597747e+00	 2.070807e-01	 1.149054e+01
1	 1.594103e+00	 2.334814e-01	 1.104069e+01
1	 1.589999e+00	 2.599632e-01	 1.057250e+01
1	 1.617057e+00	 1.293557e-01	 1.243802e+01
1	 1.614740e+00	 1.556307e-01	 1.201362e+01
1	 1.611978e+00	 1.820184e-01	 1.157365e+01
1	 1.608766e+00	 2.085089e-01	 1.111749e+01
1	 1.605097e+00	 2.350916e-01	 1.064452e+01
1	 1.600965e+00	 2.617560e-01	 1.015410e+01
1	 1.628132e+00	 1.302417e-01	 1.215071e+01
1	 1.625799e+00	 1.566967e-01	 1.170133e+01
1	 1.623019e+00	 1.832651e-01	 1.123708e+01
1	 1.619785e+00	 2.099370e-01	 1.075738e+01
1	 1.616091e+00	 2.367018e-01	 1.026169e+01
1	 1.611930e+00	 2.635489e-01	 9.749458e+00
1	 1.639208e+00	 1.311277e-01	 1.187488e+01
1	 1.636859e+00	 1.577627e-01	 1.140093e+01
1	 1.634060e+00	 1.845118e-01	 1.091279e+01
1	 1.630804e+00	 2.113652e-01	 1.040996e+01
1	 1.627085e+00	 2.383120e-01	 9.891955e+00
1	 1.622896e+00	 2.653417e-01	 9.358283e+00
1	 1.650284e+00	 1.320137e-01	 1.161028e+01
1	 1.647919e+00	 1.588286e-01	 1.111217e+01
1	 1.645101e+00	 1.857585e-01	 1.060054e+01
1	 1.641823e+00	 2.127933e-01	 1.007497e+01
1	 1.638079e+00	 2.399223e-01	 9.535032e+00
1	 1.633861e+00	 2.671346e-01	 8.980307e+00
1	 1.661360e+00	 1.328997e-01	 1.135670e+01
1	 1.658979e+00	 1.598946e-01	 1.083482e+01
1	 1.656142e+00	 1.870053e-01	 1.030009e+01
1	 1.652842e+00	 2.142214e-01	 9.752161e+00
1	 1.649072e+00	 2.415325e-01	 9.190669e+00
1	 1.644827e+00	 2.689274e-01	 8.615267e+00
1	 1.589999e+00	 2.599632e-01	 1.057250e+01
1	 1.585430e+00	 2.865151e-01	 1.002120e+01
1	 1.580390e+00	 3.131259e-01	 9.478611e+00
1	 1.574873e+00	 3.397841e-01	 8.943590e+00
1	 1.568876e+00	 3.664779e-01	 8.414927e+00
1	 1.562394e+00	 3.931953e-01	 7.891343e+00
1	 1.600965e+00	 2.617560e-01	 1.015410e+01
1	 1.596364e+00	 2.884910e-01	 9.576254e+00
1	 1.591289e+00	 3.152854e-01	 9.011125e+00
1	 1.585734e+00	 3.421275e-01	 8.457729e+00
1	 1.579696e+00	 3.690054e-01	 7.915006e+00
1	 1.573170e+00	 3.959069e-01	 7.381814e+00
1	 1.611930e+00	 2.635489e-01	 9.749458e+00
1	 1.607298e+00	 2.904670e-01	 9.145826e+00
1	 1.602188e+00	 3.174449e-01	 8.558881e+00
1	 1.596596e+00	 3.444708e-01	 7.987788e+00
1	 1.590516e+00	 3.715328e-01	 7.431632e+00
1	 1.583945e+00	 3.986186e-01	 6.889411e+00
1	 1.622896e+00	 2.653417e-01	 9.358283e+00
1	 1.618232e+00	 2.924430e-01	 8.729623e+00
1	 1.613087e+00	 3.196044e-01	 8.121570e+00
1	 1.607457e+00	 3.468141e-01	 7.533444e+00
1	 1.601336e+00	 3.740602e-01	 6.964471e+00
1	 1.594720e+00	 4.013303e-01	 6.413787e+00
1	 1.633861e+00	 2.671346e-01	 8.980307e+00
1	 1.629166e+00	 2.944189e-01	 8.327357e+00
1	 1.623987e+00	 3.217639e-01	 7.698893e+00
1	 1.618318e+00	 3.491575e-01	 7.094383e+00
1	 1.612156e+00	 3.765877e-01	 6.513196e+00
1	 1.605495e+00	 4.040420e-01	 5.954605e+00
1	 1.644827e+00	 2.689274e-01	 8.615267e+00
1	 1.640100e+00	 2.963949e-01	 7.938750e+00
1	 1.634886e+00	 3.239233e-01	 7.290555e+00
1	 1.629179e+00	 3.515008e-01	 6.670298e+00
1	 1.622976e+00	 3.791151e-01	 6.077490e+00
1	 1.616270e+00	 4.067537e-01	 5.511536e+00
1	 1.562394e+00	 3.931953e-01	 7.891343e+00
1	 1.555424e+00	 4.199238e-01	 7.531542e+00
1	 1.547961e+00	 4.466508e-01	 7.188598e+00
1	 1.540002e+00	 4.733637e-01	 6.860317e+00
1	 1.531545e+00	 5.000493e-01	 6.544387e+00
1	 1.522587e+00	 5.266944e-01	 6.238380e+00
1	 1.573170e+00	 3.959069e-01	 7.381814e+00
1	 1.566151e+00	 4.228198e-01	 7.010402e+00
1	 1.558636e+00	 4.497312e-01	 6.658548e+00
1	 1.550623e+00	 4.766283e-01	 6.324286e+00
1	 1.542107e+00	 5.034979e-01	 6.005529e+00
1	 1.533088e+00	 5.303267e-01	 5.700075e+00
1	 1.583945e+00	 3.986186e-01	 6.889411e+00
1	 1.576878e+00	 4.257158e-01	 6.507961e+00
1	 1.569312e+00	 4.528115e-01	 6.148749e+00
1	 1.561243e+00	 4.798928e-01	 5.810033e+00
1	 1.552670e+00	 5.069465e-01	 5.489952e+00
1	 1.543588e+00	 5.339591e-01	 5.186526e+00
1	 1.594720e+00	 4.013303e-01	 6.413787e+00
1	 1.587605e+00	 4.286118e-01	 6.023840e+00
1	 1.579987e+00	 4.558919e-01	 5.658788e+00
1	 1.571864e+00	 4.831574e-01	 5.317116e+00
1	 1.563232e+00	 5.103951e-01	 4.997183e+00
1	 1.554089e+00	 5.375915e-01	 4.697230e+00
1	 1.605495e+00	 4.040420e-01	 5.954605e+00
1	 1.598332e+00	 4.315079e-01	 5.557669e+00
1	 1.590663e+00	 4.589722e-01	 5.188267e+00
1	 1.582485e+00	 4.864220e-01	 4.845106e+00
1	 1.573794e+00	 5.138437e-01	 4.526764e+00
1	 1.564590e+00	 5.412239e-01	 4.231699e+00
1	 1.616270e+00	 4.067537e-01	 5.511536e+00
1	 1.609059e+00	 4.344039e-01	 5.109089e+00
1	 1.601339e+00	 4.620526e-01	 4.736798e+00
1	 1.593105e+00	 4.896866e-01	 4.393584e+00
1	 1.584357e+00	 5.172923e-01	 4.078247e+00
1	 1.575090e+00	 5.448562e-01	 3.789458e+00
1	 1.522587e+00	 5.266944e-01	 6.238380e+00
1	 1.513127e+00	 5.532855e-01	 6.046661e+00
1	 1.503163e+00	 5.798092e-01	 5.831368e+00
1	 1.492695e+00	 6.062517e-01	 5.590185e+00
1	 1.481721e+00	 6.325991e-01	 5.320786e+00
1	 1.470242e+00	 6.588375e-01	 5.020844e+00
1	 1.533088e+00	 5.303267e-01	 5.700075e+00
1	 1.523563e+00	 5.571013e-01	 5.516165e+00
1	 1.513530e+00	 5.838079e-01	 5.311526e+00
1	 1.502989e+00	 6.104327e-01	 5.083698e+00
1	 1.491940e+00	 6.369618e-01	 4.830202e+00
1	 1.480382e+00	 6.633812e-01	 4.548547e+00
1	 1.543588e+00	 5.339591e-01	 5.186526e+00
1	 1.533998e+00	 5.609171e-01	 5.009318e+00
1	 1.523897e+00	 5.878066e-01	 4.814196e+00
1	 1.513284e+00	 6.146138e-01	 4.598556e+00
1	 1.502159e+00	 6.413246e-01	 4.359768e+00
1	 1.490521e+00	 6.679249e-01	 4.095179e+00
1	 1.554089e+00	 5.375915e-01	 4.697230e+00
1	 1.544433e+00	 5.647328e-01	 4.525641e+00
1	 1.534263e+00	 5.918053e-01	 4.338921e+00
1	 1.523578e+00	 6.187948e-01	 4.134326e+00
1	 1.512377e+00	 6.456874e-01	 3.909076e+00
1	 1.500661e+00	 6.724686e-01	 3.660357e+00
1	 1.564590e+00	 5.412239e-01	 4.231699e+00
1	 1.554869e+00	 5.685486e-01	 4.064666e+00
1	 1.544630e+00	 5.958040e-01	 3.885257e+00
1	 1.533873e+00	 6.229759e-01	 3.690588e+00
1	 1.522596e+00	 6.500501e-01	 3.477728e+00
1	 1.510801e+00	 6.770123e-01	 3.243707e+00
1	 1.575090e+00	 5.448562e-01	 3.789458e+00
1	 1.565304e+00	 5.723643e-01	 3.625941e+00
1	 1.554997e+00	 5.998026e-01	 3.452773e+00
1	 1.544167e+00	 6.271569e-01	 3.266932e+00
1	 1.532815e+00	 6.544129e-01	 3.065338e+00
1	 1.520940e+00	 6.815560e-01	 2.844865e+00
1	 1.470242e+00	 6.588375e-01	 5.020844e+00
1	 1.458259e+00	 6.849528e-01	 4.046005e+00
1	 1.445772e+00	 7.109309e-01	 3.041138e+00
1	 1.432783e+00	 7.367576e-01	 2.012173e+00
1	 1.419294e+00	 7.624189e-01	 9.651788e-01
1	 1.405308e+00	 7.879005e-01	-9.365471e-02
1	 1.480382e+00	 6.633812e-01	 4.548547e+00
1	 1.468316e+00	 6.896766e-01	 3.649505e+00
1	 1.455743e+00	 7.158338e-01	 2.722956e+00
1	 1.442664e+00	 7.418387e-01	 1.774370e+00
1	 1.429083e+00	 7.676769e-01	 8.093367e-01
1	 1.415000e+00	 7.933343e-01	-1.664410e-01
1	 1.490521e+00	 6.679249e-01	 4.095179e+00
1	 1.478373e+00	 6.944004e-01	 3.268548e+00
1	 1.465714e+00	 7.207368e-01	 2.416897e+00
1	 1.452546e+00	 7.469198e-01	 1.545235e+00
1	 1.438871e+00	 7.729350e-01	 6.586851e-01
1	 1.424692e+00	 7.987681e-01	-2.375362e-01
1	 1.500661e+00	 6.724686e-01	 3.660357e+00
1	 1.488430e+00	 6.991242e-01	 2.902819e+00
1	 1.475684e+00	 7.256398e-01	 2.122713e+00
1	 1.462427e+00	 7.520009e-01	 1.324595e+00
1	 1.448659e+00	 7.781931e-01	 5.131189e-01
1	 1.434384e+00	 8.042019e-01	-3.069748e-01
1	 1.510801e+00	 6.770123e-01	 3.243707e+00
1	 1.498487e+00	 7.038480e-01	 2.552011e+00
1	 1.485655e+00	 7.305427e-01	 1.840165e+00
1	 1.472308e+00	 7.570820e-01	 1.112276e+00
1	 1.458447e+00	 7.834511e-01	 3.725356e-01
1	 1.444076e+00	 8.096357e-01	-3.747899e-01
1	 1.520940e+00	 6.815560e-01	 2.844865e+00
1	 1.508544e+00	 7.085718e-01	 2.215826e+00
1	 1.495626e+00	 7.354457e-01	 1.569022e+00
1	 1.482189e+00	 7.621631e-01	 9.081134e-01
1	 1.468236e+00	 7.887092e-01	 2.368358e-01
1	 1.453767e+00	 8.150695e-01	-4.410141e-01
1	 1.405308e+00	 7.879005e-01	-9.365471e-02
1	 1.390828e+00	 8.131883e-01	-1.744342e+00
1	 1.375858e+00	 8.382682e-01	-3.400280e+00
1	 1.360401e+00	 8.631262e-01	-5.056590e+00
1	 1.344463e+00	 8.877484e-01	-6.708344e+00
1	 1.328049e+00	 9.121211e-01	-8.350586e+00
1	 1.415000e+00	 7.933343e-01	-1.664410e-01
1	 1.400420e+00	 8.187965e-01	-1.744810e+00
1	 1.385347e+00	 8.440493e-01	-3.330168e+00
1	 1.369784e+00	 8.690788e-01	-4.917419e+00
1	 1.353736e+00	 8.938708e-01	-6.501413e+00
1	 1.337208e+00	 9.184115e-01	-8.076962e+00
1	 1.424692e+00	 7.987681e-01	-2.375362e-01
1	 1.410012e+00	 8.244047e-01	-1.742001e+00
1	 1.394835e+00	 8.498305e-01	-3.255165e+00
1	 1.379166e+00	 8.750314e-01	-4.771717e+00
1	 1.363008e+00	 8.999932e-01	-6.286286e+00
1	 1.346367e+00	 9.247020e-01	-7.793453e+00
1	 1.434384e+00	 8.042019e-01	-3.069748e-01
1	 1.419604e+00	 8.300129e-01	-1.735982e+00
1	 1.404324e+00	 8.556117e-01	-3.175370e+00
1	 1.388548e+00	 8.809840e-01	-4.619616e+00
1	 1.372280e+00	 9.061156e-01	-6.063128e+00
1	 1.355526e+00	 9.309925e-01	-7.500262e+00
1	 1.444076e+00	 8.096357e-01	-3.747899e-01
1	 1.429196e+00	 8.356210e-01	-1.726817e+00
1	 1.413813e+00	 8.613928e-01	-3.090879e+00
1	 1.397930e+00	 8.869366e-01	-4.461244e+00
1	 1.381552e+00	 9.122380e-01	-5.832101e+00
1	 1.364685e+00	 9.372830e-01	-7.197583e+00
1	 1.453767e+00	 8.150695e-01	-4.410141e-01
1	 1.438788e+00	 8.412292e-01	-1.714569e+00
1	 1.423301e+00	 8.671740e-01	-3.001787e+00
1	 1.407312e+00	 8.928892e-01	-4.296727e+00
1	 1.390824e+00	 9.183604e-01	-5.593363e+00
1	 1.373844e+00	 9.435735e-01	-6.885605e+00
1	 1.328049e+00	 9.121211e-01	-8.350586e+00
1	 1.311164e+00	 9.362305e-01	-9.591620e+00
1	 1.293815e+00	 9.600633e-01	-1.086711e+01
1	 1.276009e+00	 9.836061e-01	-1.217655e+01
1	 1.257752e+00	 1.006846e+00	-1.351933e+01
1	 1.239053e+00	 1.029770e+00	-1.489476e+01
1	 1.337208e+00	 9.184115e-01	-8.076962e+00
1	 1.320207e+00	 9.426873e-01	-9.277222e+00
1	 1.302738e+00	 9.666844e-01	-1.050569e+01
1	 1.284809e+00	 9.903896e-01	-1.176155e+01
1	 1.266426e+00	 1.013790e+00	-1.304391e+01
1	 1.247598e+00	 1.036872e+00	-1.435178e+01
1	 1.346367e+00	 9.247020e-01	-7.793453e+00
1	 1.329249e+00	 9.491440e-01	-8.950782e+00
1	 1.311661e+00	 9.733055e-01	-1.013015e+01
1	 1.293609e+00	 9.971731e-01	-1.133044e+01
1	 1.275100e+00	 1.020734e+00	-1.255045e+01
1	 1.256143e+00	 1.043974e+00	-1.378892e+01
1	 1.355526e+00	 9.309925e-01	-7.500262e+00
1	 1.338292e+00	 9.556008e-01	-8.612545e+00
1	 1.320584e+00	 9.799267e-01	-9.740775e+00
1	 1.302409e+00	 1.003957e+00	-1.088352e+01
1	 1.283774e+00	 1.027677e+00	-1.203930e+01
1	 1.264689e+00	 1.051076e+00	-1.320659e+01
1	 1.364685e+00	 9.372830e-01	-7.197583e+00
1	 1.347334e+00	 9.620575e-01	-8.262748e+00
1	 1.329507e+00	 9.865478e-01	-9.337839e+00
1	 1.311209e+00	 1.010740e+00	-1.042112e+01
1	 1.292449e+00	 1.034621e+00	-1.151083e+01
1	 1.273234e+00	 1.058178e+00	-1.260516e+01
1	 1.373844e+00	 9.435735e-01	-6.885605e+00
1	 1.356377e+00	 9.685143e-01	-7.901623e+00
1	 1.338429e+00	 9.931689e-01	-8.921616e+00
1	 1.320009e+00	 1.017524e+00	-9.943553e+00
1	 1.301123e+00	 1.041565e+00	-1.096538e+01
1	 1.281779e+00	 1.065280e+00	-1.198504e+01
1	 1.239053e+00	 1.029770e+00	-1.489476e+01
1	 1.219920e+00	 1.052366e+00	-1.508394e+01
1	 1.200361e+00	 1.074622e+00	-1.535404e+01
1	 1.180387e+00	 1.096525e+00	-1.570807e+01
1	 1.160005e+00	 1.118064e+00	-1.614881e+01
1	 1.139228e+00	 1.139228e+00	-1.667884e+01
1	 1.247598e+00	 1.036872e+00	-1.435178e+01
1	 1.228333e+00	 1.059624e+00	-1.449706e+01
1	 1.208640e+00	 1.082033e+00	-1.472713e+01
1	 1.188527e+00	 1.104087e+00	-1.504546e+01
1	 1.168005e+00	 1.125775e+00	-1.545528e+01
1	 1.147084e+00	 1.147084e+00	-1.595958e+01
1	 1.256143e+00	 1.043974e+00	-1.378892e+01
1	 1.236746e+00	 1.066882e+00	-1.389306e+01
1	 1.216918e+00	 1.089444e+00	-1.408582e+01
1	 1.196668e+00	 1.111649e+00	-1.437111e+01
1	 1.176005e+00	 1.133485e+00	-1.475259e+01
1	 1.154941e+00	 1.154941e+00	-1.523369e+01
1	 1.264689e+00	 1.051076e+00	-1.320659e+01
1	 1.245160e+00	 1.074139e+00	-1.327231e+01
1	 1.225196e+00	 1.096855e+00	-1.343042e+01
1	 1.204808e+00	 1.119211e+00	-1.368526e+01
1	 1.184005e+00	 1.141196e+00	-1.404094e+01
1	 1.162798e+00	 1.162798e+00	-1.450129e+01
1	 1.273234e+00	 1.058178e+00	-1.260516e+01
1	 1.253573e+00	 1.081397e+00	-1.263514e+01
1	 1.233475e+00	 1.104266e+00	-1.276119e+01
1	 1.212949e+00	 1.126774e+00	-1.298814e+01
1	 1.192006e+00	 1.148907e+00	-1.332050e+01
1	 1.170655e+00	 1.170655e+00	-1.376252e+01
1	 1.281779e+00	 1.065280e+00	-1.198504e+01
1	 1.261986e+00	 1.088655e+00	-1.198186e+01
1	 1.241753e+00	 1.111678e+00	-1.207843e+01
1	 1.221090e+00	 1.134336e+00	-1.227997e+01
1	 1.200006e+00	 1.156618e+00	-1.259144e+01
1	 1.178511e+00	 1.178511e+00	-1.301750e+01
1	 1.139228e+00	 1.139228e+00	-1.667884e+01
1	 1.118064e+00	 1.160005e+00	-1.755528e+01
1	 1.096525e+00	 1.180387e+00	-1.848062e+01
1	 1.074622e+00	 1.200361e+00	-1.945584e+01
1	 1.052366e+00	 1.219920e+00	-2.048182e+01
1	 1.029770e+00	 1.239053e+00	-2.155930e+01
1	 1.147084e+00	 1.147084e+00	-1.595958e+01
1	 1.125775e+00	 1.168005e+00	-1.680698e+01
1	 1.104087e+00	 1.188527e+00	-1.770503e+01
1	 1.082033e+00	 1.208640e+00	-1.865486e+01
1	 1.059624e+00	 1.228333e+00	-1.965745e+01
1	 1.036872e+00	 1.247598e+00	-2.071365e+01
1	 1.154941e+00	 1.154941e+00	-1.523369e+01
1	 1.133485e+00	 1.176005e+00	-1.605276e+01
1	 1.111649e+00	 1.196668e+00	-1.692421e+01
1	 1.089444e+00	 1.216918e+00	-1.784930e+01
1	 1.066882e+00	 1.236746e+00	-1.882914e+01
1	 1.043974e+00	 1.256143e+00	-1.986468e+01
1	 1.162798e+00	 1.162798e+00	-1.450129e+01
1	 1.141196e+00	 1.184005e+00	-1.529272e+01
1	 1.119211e+00	 1.204808e+00	-1.613825e+01
1	 1.096855e+00	 1.225196e+00	-1.703926e+01
1	 1.074139e+00	 1.245160e+00	-1.799697e+01
1	 1.051076e+00	 1.264689e+00	-1.901246e+01
1	 1.170655e+00	 1.170655e+00	-1.376252e+01
1	 1.148907e+00	 1.192006e+00	-1.452699e+01
1	 1.126774e+00	 1.212949e+00	-1.534726e+01
1	 1.104266e+00	 1.233475e+00	-1.622482e+01
1	 1.081397e+00	 1.253573e+00	-1.716103e+01
1	 1.058178e+00	 1.273234e+00	-1.815705e+01
1	 1.178511e+00	 1.178511e+00	-1.301750e+01
1	 1.156618e+00	 1.200006e+00	-1.375568e+01
1	 1.134336e+00	 1.221090e+00	-1.455133e+01
1	 1.111678e+00	 1.241753e+00	-1.540608e+01
1	 1.088655e+00	 1.261986e+00	-1.632138e+01
1	 1.065280e+00	 1.281779e+00	-1.729852e+01
1	 1.029770e+00	 1.239053e+00	-2.155930e+01
1	 1.006846e+00	 1.257752e+00	-2.388709e+01
1	 9.836061e-01	 1.276009e+00	-2.612864e+01
1	 9.600633e-01	 1.293815e+00	-2.827909e+01
1	 9.362305e-01	 1.311164e+00	-3.033384e+01
1	 9.121211e-01	 1.328049e+00	-3.228855e+01
1	 1.036872e+00	 1.247598e+00	-2.071365e+01
1	 1.013790e+00	 1.266426e+00	-2.298453e+01
1	 9.903896e-01	 1.284809e+00	-2.517030e+01
1	 9.666844e-01	 1.302738e+00	-2.726617e+01
1	 9.426873e-01	 1.320207e+00	-2.926761e+01
1	 9.184115e-01	 1.337208e+00	-3.117035e+01
1	 1.043974e+00	 1.256143e+00	-1.986468e+01
1	 1.020734e+00	 1.275100e+00	-2.207920e+01
1	 9.971731e-01	 1.293609e+00	-2.420973e+01
1	 9.733055e-01	 1.311661e+00	-2.625154e+01
1	 9.491440e-01	 1.329249e+00	-2.820017e+01
1	 9.247020e-01	 1.346367e+00	-3.005145e+01
1	 1.051076e+00	 1.264689e+00	-1.901246e+01
1	 1.027677e+00	 1.283774e+00	-2.117116e+01
1	 1.003957e+00	 1.302409e+00	-2.324696e+01
1	 9.799267e-01	 1.320584e+00	-2.523522e+01
1	 9.556008e-01	 1.338292e+00	-2.713156e+01
1	 9.309925e-01	 1.355526e+00	-2.893186e+01
1	 1.058178e+00	 1.273234e+00	-1.815705e+01
1	 1.034621e+00	 1.292449e+00	-2.026045e+01
1	 1.010740e+00	 1.311209e+00	-2.228204e+01
1	 9.865478e-01	 1.329507e+00	-2.421726e+01
1	 9.620575e-01	 1.347334e+00	-2.606179e+01
1	 9.372830e-01	 1.364685e+00	-2.781160e+01
1	 1.065280e+00	 1.281779e+00	-1.729852e+01
1	 1.041565e+00	 1.301123e+00	-1.934713e+01
1	 1.017524e+00	 1.320009e+00	-2.131501e+01
1	 9.931689e-01	 1.338429e+00	-2.319768e+01
1	 9.685143e-01	 1.356377e+00	-2.499090e+01
1	 9.435735e-01	 1.373844e+00	-2.669068e+01
1	 9.121211e-01	 1.328049e+00	-3.228855e+01
1	 8.877484e-01	 1.344463e+00	-3.449590e+01
1	 8.631262e-01	 1.360401e+00	-3.653559e+01
1	 8.382682e-01	 1.375858e+00	-3.840269e+01
1	 8.131883e-01	 1.390828e+00	-4.009275e+01
1	 7.879005e-01	 1.405308e+00	-4.160183e+01
1	 9.184115e-01	 1.337208e+00	-3.117035e+01
1	 8.938708e-01	 1.353736e+00	-3.330120e+01
1	 8.690788e-01	 1.369784e+00	-3.524516e+01
1	 8.440493e-01	 1.385347e+00	-3.699670e+01
1	 8.187965e-01	 1.400420e+00	-3.855084e+01
1	 7.933343e-01	 1.415000e+00	-3.990316e+01
1	 9.247020e-01	 1.346367e+00	-3.005145e+01
1	 8.999932e-01	 1.363008e+00	-3.210052e+01
1	 8.750314e-01	 1.379166e+00	-3.394376e+01
1	 8.498305e-01	 1.394835e+00	-3.557503e+01
1	 8.244047e-01	 1.410012e+00	-3.698881e+01
1	 7.987681e-01	 1.424692e+00	-3.818023e+01
1	 9.309925e-01	 1.355526e+00	-2.893186e+01
1	 9.061156e-01	 1.372280e+00	-3.089399e+01
1	 8.809840e-01	 1.388548e+00	-3.263161e+01
1	 8.556117e-01	 1.404324e+00	-3.413798e+01
1	 8.300129e-01	 1.419604e+00	-3.540707e+01
1	 8.042019e-01	 1.434384e+00	-3.643354e+01
1	 9.372830e-01	 1.364685e+00	-2.781160e+01
1	 9.122380e-01	 1.381552e+00	-2.968173e+01
1	 8.869366e-01	 1.397930e+00	-3.130893e+01
1	 8.613928e-01	 1.413813e+00	-3.268588e+01
1	 8.356210e-01	 1.429196e+00	-3.380602e+01
1	 8.096357e-01	 1.444076e+00	-3.466357e+01
1	 9.435735e-01	 1.373844e+00	-2.669068e+01
1	 9.183604e-01	 1.390824e+00	-2.846384e+01
1	 8.928892e-01	 1.407312e+00	-2.997592e+01
1	 8.671740e-01	 1.423301e+00	-3.121901e+01
1	 8.412292e-01	 1.438788e+00	-3.218604e+01
1	 8.150695e-01	 1.453767e+00	-3.287078e+01
1	 7.879005e-01	 1.405308e+00	-4.160183e+01
1	 7.624189e-01	 1.419294e+00	-4.222818e+01
1	 7.367576e-01	 1.432783e+00	-4.263676e+01
1	 7.109309e-01	 1.445772e+00	-4.282360e+01
1	 6.849528e-01	 1.458259e+00	-4.278538e+01
1	 6.588375e-01	 1.470242e+00	-4.251947e+01
1	 7.933343e-01	 1.415000e+00	-3.990316e+01
1	 7.676769e-01	 1.429083e+00	-4.036176e+01
1	 7.418387e-01	 1.442664e+00	-4.062500e+01
1	 7.158338e-01	 1.455743e+00	-4.068958e+01
1	 6.896766e-01	 1.468316e+00	-4.055279e+01
1	 6.633812e-01	 1.480382e+00	-4.021252e+01
1	 7.987681e-01	 1.424692e+00	-3.818023e+01
1	 7.729350e-01	 1.438871e+00	-3.847722e+01
1	 7.469198e-01	 1.452546e+00	-3.860093e+01
1	 7.207368e-01	 1.465714e+00	-3.854873e+01
1	 6.944004e-01	 1.478373e+00	-3.831852e+01
1	 6.679249e-01	 1.490521e+00	-3.790869e+01
1	 8.042019e-01	 1.434384e+00	-3.643354e+01
1	 7.781931e-01	 1.448659e+00	-3.657492e+01
1	 7.520009e-01	 1.462427e+00	-3.656478e+01
1	 7.256398e-01	 1.475684e+00	-3.640118e+01
1	 6.991242e-01	 1.488430e+00	-3.608258e+01
1	 6.724686e-01	 1.500661e+00	-3.560793e+01
1	 8.096357e-01	 1.444076e+00	-3.466357e+01
1	 7.834511e-01	 1.458447e+00	-3.465521e+01
1	 7.570820e-01	 1.472308e+00	-3.451681e+01
1	 7.305427e-01	 1.485655e+00	-3.424705e+01
1	 7.038480e-01	 1.498487e+00	-3.384502e+01
1	 6.770123e-01	 1.510801e+00	-3.331016e+01
1	 8.150695e-01	 1.453767e+00	-3.287078e+01
1	 7.887092e-01	 1.468236e+00	-3.271845e+01
1	 7.621631e-01	 1.482189e+00	-3.245724e+01
1	 7.354457e-01	 1.495626e+00	-3.208650e+01
1	 7.085718e-01	 1.508544e+00	-3.160588e+01
1	 6.815560e-01	 1.520940e+00	-3.101533e+01
1	 6.588375e-01	 1.470242e+00	-4.251947e+01
1	 6.325991e-01	 1.481721e+00	-4.127283e+01
1	 6.062517e-01	 1.492695e+00	-4.019089e+01
1	 5.798092e-01	 1.503163e+00	-3.927708e+01
1	 5.532855e-01	 1.513127e+00	-3.853434e+01
1	 5.266944e-01	 1.522587e+00	-3.796507e+01
1	 6.633812e-01	 1.480382e+00	-4.021252e+01
1	 6.369618e-01	 1.491940e+00	-3.897516e+01
1	 6.104327e-01	 1.502989e+00	-3.791458e+01
1	 5.838079e-01	 1.513530e+00	-3.703423e+01
1	 5.571013e-01	 1.523563e+00	-3.633703e+01
1	 5.303267e-01	 1.533088e+00	-3.582533e+01
1	 6.679249e-01	 1.490521e+00	-3.790869e+01
1	 6.413246e-01	 1.502159e+00	-3.668166e+01
1	 6.146138e-01	 1.513284e+00	-3.564332e+01
1	 5.878066e-01	 1.523897e+00	-3.479715e+01
1	 5.609171e-01	 1.533998e+00	-3.414606e+01
1	 5.339591e-01	 1.543588e+00	-3.369233e+01
1	 6.724686e-01	 1.500661e+00	-3.560793e+01
1	 6.456874e-01	 1.512377e+00	-3.439223e+01
1	 6.187948e-01	 1.523578e+00	-3.337699e+01
1	 5.918053e-01	 1.534263e+00	-3.256573e+01
1	 5.647328e-01	 1.544433e+00	-3.196130e+01
1	 5.375915e-01	 1.554089e+00	-3.156594e+01
1	 6.770123e-01	 1.510801e+00	-3.331016e+01
1	 6.500501e-01	 1.522596e+00	-3.210680e+01
1	 6.229759e-01	 1.533873e+00	-3.111552e+01
1	 5.958040e-01	 1.544630e+00	-3.033984e+01
1	 5.685486e-01	 1.554869e+00	-2.978261e+01
1	 5.412239e-01	 1.564590e+00	-2.944603e+01
1	 6.815560e-01	 1.520940e+00	-3.101533e+01
1	 6.544129e-01	 1.532815e+00	-2.982528e+01
1	 6.271569e-01	 1.544167e+00	-2.885878e+01
1	 5.998026e-01	 1.554997e+00	-2.811937e+01
1	 5.723643e-01	 1.565304e+00	-2.760988e+01
1	 5.448562e-01	 1.575090e+00	-2.733246e+01
1	 5.266944e-01	 1.522587e+00	-3.796507e+01
1	 5.000493e-01	 1.531545e+00	-3.722075e+01
1	 4.733637e-01	 1.540002e+00	-3.683629e+01
1	 4.466508e-01	 1.547961e+00	-3.681182e+01
1	 4.199238e-01	 1.555424e+00	-3.714654e+01
1	 3.931953e-01	 1.562394e+00	-3.783875e+01
1	 5.303267e-01	 1.533088e+00	-3.582533e+01
1	 5.034979e-01	 1.542107e+00	-3.515803e+01
1	 4.766283e-01	 1.550623e+00	-3.484852e+01
1	 4.497312e-01	 1.558636e+00	-3.489692e+01
1	 4.228198e-01	 1.566151e+00	-3.530239e+01
1	 3.959069e-01	 1.573170e+00	-3.606319e+01
1	 5.339591e-01	 1.543588e+00	-3.369233e+01
1	 5.069465e-01	 1.552670e+00	-3.310157e+01
1	 4.798928e-01	 1.561243e+00	-3.286659e+01
1	 4.528115e-01	 1.569312e+00	-3.298745e+01
1	 4.257158e-01	 1.576878e+00	-3.346330e+01
1	 3.986186e-01	 1.583945e+00	-3.429235e+01
1	 5.375915e-01	 1.554089e+00	-3.156594e+01
1	 5.103951e-01	 1.563232e+00	-3.105125e+01
1	 4.831574e-01	 1.571864e+00	-3.089036e+01
1	 4.558919e-01	 1.579987e+00	-3.108329e+01
1	 4.286118e-01	 1.587605e+00	-3.162916e+01
1	 4.013303e-01	 1.594720e+00	-3.252615e+01
1	 5.412239e-01	 1.564590e+00	-2.944603e+01
1	 5.138437e-01	 1.573794e+00	-2.900695e+01
1	 4.864220e-01	 1.582485e+00	-2.891972e+01
1	 4.589722e-01	 1.590663e+00	-2.918433e+01
1	 4.315079e-01	 1.598332e+00	-2.979987e+01
1	 4.040420e-01	 1.605495e+00	-3.076449e+01
1	 5.448562e-01	 1.575090e+00	-2.733246e+01
1	 5.172923e-01	 1.584357e+00	-2.696853e+01
1	 4.896866e-01	 1.593105e+00	-2.695455e+01
1	 4.620526e-01	 1.601339e+00	-2.729048e+01
1	 4.344039e-01	 1.609059e+00	-2.797534e+01
1	 4.067537e-01	 1.616270e+00	-2.900728e+01
1	 3.931953e-01	 1.562394e+00	-3.783875e+01
1	 3.664779e-01	 1.568876e+00	-3.887626e+01
1	 3.397841e-01	 1.574873e+00	-4.014738e+01
1	 3.131259e-01	 1.580390e+00	-4.164937e+01
1	 2.865151e-01	 1.585430e+00	-4.337896e+01
1	 2.599632e-01	 1.589999e+00	-4.533242e+01
1	 3.959069e-01	 1.573170e+00	-3.606319e+01
1	 3.690054e-01	 1.579696e+00	-3.717165e+01
1	 3.421275e-01	 1.585734e+00	-3.852838e+01
1	 3.152854e-01	 1.591289e+00	-4.013043e+01
1	 2.884910e-01	 1.596364e+00	-4.197433e+01
1	 2.617560e-01	 1.600965e+00	-4.405610e+01
1	 3.986186e-01	 1.583945e+00	-3.429235e+01
1	 3.715328e-01	 1.590516e+00	-3.547246e+01
1	 3.444708e-01	 1.596596e+00	-3.691528e+01
1	 3.174449e-01	 1.602188e+00	-3.861770e+01
1	 2.904670e-01	 1.607298e+00	-4.057603e+01
1	 2.635489e-01	 1.611930e+00	-4.278602e+01
1	 4.013303e-01	 1.594720e+00	-3.252615e+01
1	 3.740602e-01	 1.601336e+00	-3.377858e+01
1	 3.468141e-01	 1.607457e+00	-3.530799e+01
1	 3.196044e-01	 1.613087e+00	-3.711107e+01
1	 2.924430e-01	 1.618232e+00	-3.918393e+01
1	 2.653417e-01	 1.622896e+00	-4.152206e+01
1	 4.040420e-01	 1.605495e+00	-3.076449e+01
1	 3.765877e-01	 1.612156e+00	-3.208991e+01
1	 3.491575e-01	 1.618318e+00	-3.370637e+01
1	 3.217639e-01	 1.623987e+00	-3.561040e+01
1	 2.944189e-01	 1.629166e+00	-3.779790e+01
1	 2.671346e-01	 1.633861e+00	-4.026411e+01
1	 4.067537e-01	 1.616270e+00	-2.900728e+01
1	 3.791151e-01	 1.622976e+00	-3.040633e+01
1	 3.515008e-01	 1.629179e+00	-3.211032e+01
1	 3.239233e-01	 1.634886e+00	-3.411559e+01
1	 2.963949e-01	 1.640100e+00	-3.641782e+01
1	 2.689274e-01	 1.644827e+00	-3.901202e+01
1	 2.599632e-01	 1.589999e+00	-4.533242e+01
1	 2.334814e-01	 1.594103e+00	-4.758800e+01
1	 2.070807e-01	 1.597747e+00	-4.987221e+01
1	 1.807717e-01	 1.600937e+00	-5.218250e+01
1	 1.545648e-01	 1.603680e+00	-5.451631e+01
1	 1.284697e-01	 1.605981e+00	-5.687105e+01
1	 2.617560e-01	 1.600965e+00	-4.405610e+01
1	 2.350916e-01	 1.605097e+00	-4.643786e+01
1	 2.085089e-01	 1.608766e+00	-4.884733e+01
1	 1.820184e-01	 1.611978e+00	-5.128187e+01
1	 1.556307e-01	 1.614740e+00	-5.373880e+01
1	 1.293557e-01	 1.617057e+00	-5.621544e+01
1	 2.635489e-01	 1.611930e+00	-4.278602e+01
1	 2.367018e-01	 1.616091e+00	-4.529350e+01
1	 2.099370e-01	 1.619785e+00	-4.782777e+01
1	 1.832651e-01	 1.623019e+00	-5.038610e+01
1	 1.566967e-01	 1.625799e+00	-5.296572e+01
1	 1.302417e-01	 1.628132e+00	-5.556385e+01
1	 2.653417e-01	 1.622896e+00	-4.152206e+01
1	 2.383120e-01	 1.627085e+00	-4.415479e+01
1	 2.113652e-01	 1.630804e+00	-4.681342e+01
1	 1.845118e-01	 1.634060e+00	-4.949511e+01
1	 1.577627e-01	 1.636859e+00	-5.219700e+01
1	 1.311277e-01	 1.639208e+00	-5.491621e+01
1	 2.671346e-01	 1.633861e+00	-4.026411e+01
1	 2.399223e-01	 1.638079e+00	-4.302162e+01
1	 2.127933e-01	 1.641823e+00	-4.580417e+01
1	 1.857585e-01	 1.645101e+00	-4.860879e+01
1	 1.588286e-01	 1.647919e+00	-5.143254e+01
1	 1.320137e-01	 1.650284e+00	-5.427244e+01
1	 2.689274e-01	 1.644827e+00	-3.901202e+01
1	 2.415325e-01	 1.649072e+00	-4.189388e+01
1	 2.142214e-01	 1.652842e+00	-4.479991e+01
1	 1.870053e-01	 1.656142e+00	-4.772706e+01
1	 1.598946e-01	 1.658979e+00	-5.067226e+01
1	 1.328997e-01	 1.661360e+00	-5.363246e+01
1	 1.284697e-01	 1.605981e+00	-5.687105e+01
1	 1.024964e-01	 1.607847e+00	-5.908086e+01
1	 7.665388e-02	 1.609287e+00	-6.110142e+01
1	 5.095130e-02	 1.610305e+00	-6.293414e+01
1	 2.539725e-02	 1.610911e+00	-6.458079e+01
1	 0.000000e+00	 1.611111e+00	-6.604347e+01
1	 1.293557e-01	 1.617057e+00	-5.621544e+01
1	 1.032032e-01	 1.618936e+00	-5.854248e+01
1	 7.718253e-02	 1.620385e+00	-6.067745e+01
1	 5.130269e-02	 1.621411e+00	-6.262174e+01
1	 2.557240e-02	 1.622021e+00	-6.437713e+01
1	 0.000000e+00	 1.622222e+00	-6.594571e+01
1	 1.302417e-01	 1.628132e+00	-5.556385e+01
1	 1.039101e-01	 1.630025e+00	-5.800807e+01
1	 7.771118e-02	 1.631484e+00	-6.025743e+01
1	 5.165408e-02	 1.632516e+00	-6.231331e+01
1	 2.574755e-02	 1.633130e+00	-6.417748e+01
1	 0.000000e+00	 1.633333e+00	-6.585204e+01
1	 1.311277e-01	 1.639208e+00	-5.491621e+01
1	 1.046170e-01	 1.641113e+00	-5.747756e+01
1	 7.823982e-02	 1.642582e+00	-5.984128e+01
1	 5.200547e-02	 1.643622e+00	-6.200876e+01
1	 2.592271e-02	 1.644240e+00	-6.398175e+01
1	 0.000000e+00	 1.644444e+00	-6.576238e+01
1	 1.320137e-01	 1.650284e+00	-5.427244e+01
1	 1.053238e-01	 1.652202e+00	-5.695086e+01
1	 7.876847e-02	 1.653681e+00	-5.942893e+01
1	 5.235686e-02	 1.654727e+00	-6.170801e+01
1	 2.609786e-02	 1.655350e+00	-6.378987e+01
1	 0.000000e+00	 1.655556e+00	-6.567663e+01
1	 1.328997e-01	 1.661360e+00	-5.363246e+01
1	 1.060307e-01	 1.663290e+00	-5.642790e+01
1	 7.929712e-02	 1.664779e+00	-5.902029e+01
1	 5.270824e-02	 1.665833e+00	-6.141100e+01
1	 2.627302e-02	 1.666460e+00	-6.360177e+01
1	 0.000000e+00	 1.666667e+00	-6.559472e+01
1	 1.666667e+00	 0.000000e+00	 1.285964e+01
1	 1.666460e+00	 2.627302e-02	 1.265301e+01
1	 1.665833e+00	 5.270824e-02	 1.240083e+01
1	 1.664779e+00	 7.929712e-02	 1.210164e+01
1	 1.663290e+00	 1.060307e-01	 1.175404e+01
1	 1.661360e+00	 1.328997e-01	 1.135670e+01
1	 1.677778e+00	 0.000000e+00	 1.260742e+01
1	 1.677569e+00	 2.644817e-02	 1.238418e+01
1	 1.676939e+00	 5.305963e-02	 1.211590e+01
1	 1.675878e+00	 7.982577e-02	 1.180115e+01
1	 1.674379e+00	 1.067376e-01	 1.143853e+01
1	 1.672435e+00	 1.337857e-01	 1.102672e+01
1	 1.688889e+00	 0.000000e+00	 1.236493e+01
1	 1.688679e+00	 2.662332e-02	 1.212511e+01
1	 1.688044e+00	 5.341102e-02	 1.184075e+01
1	 1.686976e+00	 8.035441e-02	 1.151043e+01
1	 1.685468e+00	 1.074445e-01	 1.113279e+01
1	 1.683511e+00	 1.346717e-01	 1.070650e+01
1	 1.700000e+00	 0.000000e+00	 1.213200e+01
1	 1.699789e+00	 2.679848e-02	 1.187559e+01
1	 1.699150e+00	 5.376241e-02	 1.157516e+01
1	 1.698075e+00	 8.088306e-02	 1.122929e+01
1	 1.696556e+00	 1.081513e-01	 1.083663e+01
1	 1.694587e+00	 1.355577e-01	 1.039588e+01
1	 1.711111e+00	 0.000000e+00	 1.190843e+01
1	 1.710898e+00	 2.697363e-02	 1.163546e+01
1	 1.710255e+00	 5.411380e-02	 1.131896e+01
1	 1.709173e+00	 8.141171e-02	 1.095755e+01
1	 1.707645e+00	 1.088582e-01	 1.054987e+01
1	 1.705662e+00	 1.364437e-01	 1.009465e+01
1	 1.722222e+00	 0.000000e+00	 1.169404e+01
1	 1.722008e+00	 2.714878e-02	 1.140451e+01
1	 1.721361e+00	 5.446519e-02	 1.107196e+01
1	 1.720272e+00	 8.194036e-02	 1.069501e+01
1	 1.718734e+00	 1.095651e-01	 1.027233e+01
1	 1.716738e+00	 1.373297e-01	 9.802634e+00
1	 1.661360e+00	 1.328997e-01	 1.135670e+01
1	 1.658979e+00	 1.598946e-01	 1.083482e+01
1	 1.656142e+00	 1.870053e-01	 1.030009e+01
1	 1.652842e+00	 2.142214e-01	 9.752161e+00
1	 1.649072e+00	 2.415325e-01	 9.190669e+00
1	 1.644827e+00	 2.689274e-01	 8.615267e+00
1	 1.672435e+00	 1.337857e-01	 1.102672e+01
1	 1.670039e+00	 1.609605e-01	 1.049251e+01
1	 1.667183e+00	 1.882520e-01	 9.946438e+00
1	 1.663861e+00	 2.156496e-01	 9.388182e+00
1	 1.660066e+00	 2.431427e-01	 8.817419e+00
1	 1.655793e+00	 2.707203e-01	 8.233828e+00
1	 1.683511e+00	 1.346717e-01	 1.070650e+01
1	 1.681099e+00	 1.620265e-01	 1.016010e+01
1	 1.678224e+00	 1.894987e-01	 9.602804e+00
1	 1.674880e+00	 2.170777e-01	 9.034335e+00
1	 1.671060e+00	 2.447529e-01	 8.454401e+00
1	 1.666758e+00	 2.725131e-01	 7.862714e+00
1	 1.694587e+00	 1.355577e-01	 1.039588e+01
1	 1.692159e+00	 1.630925e-01	 9.837395e+00
1	 1.689265e+00	 1.907454e-01	 9.268995e+00
1	 1.685899e+00	 2.185059e-01	 8.690420e+00
1	 1.682054e+00	 2.463631e-01	 8.101415e+00
1	 1.677724e+00	 2.743060e-01	 7.501722e+00
1	 1.705662e+00	 1.364437e-01	 1.009465e+01
1	 1.703218e+00	 1.641584e-01	 9.524213e+00
1	 1.700306e+00	 1.919921e-01	 8.944819e+00
1	 1.696918e+00	 2.199340e-01	 8.356244e+00
1	 1.693048e+00	 2.479733e-01	 7.758265e+00
1	 1.688689e+00	 2.760988e-01	 7.150655e+00
1	 1.716738e+00	 1.373297e-01	 9.802634e+00
1	 1.714278e+00	 1.652244e-01	 9.220365e+00
1	 1.711347e+00	 1.932388e-01	 8.630090e+00
1	 1.707937e+00	 2.213622e-01	 8.031619e+00
1	 1.704041e+00	 2.495836e-01	 7.424760e+00
1	 1.699655e+00	 2.778917e-01	 6.809321e+00
1	 1.644827e+00	 2.689274e-01	 8.615267e+00
1	 1.640100e+00	 2.963949e-01	 7.938750e+00
1	 1.634886e+00	 3.239233e-01	 7.290555e+00
1	 1.629179e+00	 3.515008e-01	 6.670298e+00
1	 1.622976e+00	 3.791151e-01	 6.077490e+00
1	 1.616270e+00	 4.067537e-01	 5.511536e+00
1	 1.655793e+00	 2.707203e-01	 8.233828e+00
1	 1.651034e+00	 2.983709e-01	 7.546376e+00
1	 1.645785e+00	 3.260828e-01	 6.889624e+00
1	 1.640040e+00	 3.538442e-01	 6.263385e+00
1	 1.633795e+00	 3.816425e-01	 5.667369e+00
1	 1.627045e+00	 4.094654e-01	 5.101178e+00
1	 1.666758e+00	 2.725131e-01	 7.862714e+00
1	 1.661968e+00	 3.003468e-01	 7.165609e+00
1	 1.656684e+00	 3.282423e-01	 6.501564e+00
1	 1.650902e+00	 3.561875e-01	 5.870586e+00
1	 1.644615e+00	 3.841700e-01	 5.272582e+00
1	 1.637820e+00	 4.121771e-01	 4.707347e+00
1	 1.677724e+00	 2.743060e-01	 7.501722e+00
1	 1.672902e+00	 3.023228e-01	 6.796222e+00
1	 1.667583e+00	 3.304018e-01	 6.126122e+00
1	 1.661763e+00	 3.585308e-01	 5.491624e+00
1	 1.655435e+00	 3.866974e-01	 4.892827e+00
1	 1.648596e+00	 4.148888e-01	 4.329721e+00
1	 1.688689e+00	 2.760988e-01	 7.150655e+00
1	 1.683836e+00	 3.042988e-01	 6.437993e+00
1	 1.678483e+00	 3.325613e-01	 5.763052e+00
1	 1.672624e+00	 3.608742e-01	 5.126228e+00
1	 1.666255e+00	 3.892248e-01	 4.527811e+00
1	 1.659371e+00	 4.176005e-01	 3.967981e+00
1	 1.699655e+00	 2.778917e-01	 6.809321e+00
1	 1.694770e+00	 3.062747e-01	 6.090706e+00
1	 1.689382e+00	 3.347208e-01	 5.412116e+00
1	 1.683485e+00	 3.632175e-01	 4.774137e+00
1	 1.677075e+00	 3.917523e-01	 4.177250e+00
1	 1.670146e+00	 4.203122e-01	 3.621822e+00
1	 1.616270e+00	 4.067537e-01	 5.511536e+00
1	 1.609059e+00	 4.344039e-01	 5.109089e+00
1	 1.601339e+00	 4.620526e-01	 4.736798e+00
1	 1.593105e+00	 4.896866e-01	 4.393584e+00
1	 1.584357e+00	 5.172923e-01	 4.078247e+00
1	 1.575090e+00	 5.448562e-01	 3.789458e+00
1	 1.627045e+00	 4.094654e-01	 5.101178e+00
1	 1.619786e+00	 4.372999e-01	 4.699568e+00
1	 1.612014e+00	 4.651329e-01	 4.330533e+00
1	 1.603726e+00	 4.929511e-01	 3.993011e+00
1	 1.594919e+00	 5.207410e-01	 3.685808e+00
1	 1.585591e+00	 5.484886e-01	 3.407603e+00
1	 1.637820e+00	 4.121771e-01	 4.707347e+00
1	 1.630513e+00	 4.401959e-01	 4.306559e+00
1	 1.622690e+00	 4.682133e-01	 3.940743e+00
1	 1.614347e+00	 4.962157e-01	 3.608851e+00
1	 1.605482e+00	 5.241896e-01	 3.309700e+00
1	 1.596092e+00	 5.521210e-01	 3.041970e+00
1	 1.648596e+00	 4.148888e-01	 4.329721e+00
1	 1.641240e+00	 4.430920e-01	 3.929740e+00
1	 1.633365e+00	 4.712936e-01	 3.567105e+00
1	 1.624968e+00	 4.994803e-01	 3.240784e+00
1	 1.616044e+00	 5.276382e-01	 2.949602e+00
1	 1.606592e+00	 5.557534e-01	 2.692242e+00
1	 1.659371e+00	 4.176005e-01	 3.967981e+00
1	 1.651967e+00	 4.459880e-01	 3.568794e+00
1	 1.644041e+00	 4.743740e-01	 3.209305e+00
1	 1.635588e+00	 5.027449e-01	 2.888497e+00
1	 1.626606e+00	 5.310868e-01	 2.605202e+00
1	 1.617093e+00	 5.593857e-01	 2.358107e+00
1	 1.670146e+00	 4.203122e-01	 3.621822e+00
1	 1.662694e+00	 4.488840e-01	 3.223415e+00
1	 1.654717e+00	 4.774543e-01	 2.867036e+00
1	 1.646209e+00	 5.060094e-01	 2.551682e+00
1	 1.637169e+00	 5.345354e-01	 2.276196e+00
1	 1.627593e+00	 5.630181e-01	 2.039266e+00
1	 1.575090e+00	 5.448562e-01	 3.789458e+00
1	 1.565304e+00	 5.723643e-01	 3.625941e+00
1	 1.554997e+00	 5.998026e-01	 3.452773e+00
1	 1.544167e+00	 6.271569e-01	 3.266932e+00
1	 1.532815e+00	 6.544129e-01	 3.065338e+00
1	 1.520940e+00	 6.815560e-01	 2.844865e+00
1	 1.585591e+00	 5.484886e-01	 3.407603e+00
1	 1.575739e+00	 5.761801e-01	 3.250165e+00
1	 1.565363e+00	 6.038013e-01	 3.084043e+00
1	 1.554462e+00	 6.313380e-01	 2.906443e+00
1	 1.543034e+00	 6.587756e-01	 2.714522e+00
1	 1.531080e+00	 6.860997e-01	 2.505388e+00
1	 1.596092e+00	 5.521210e-01	 3.041970e+00
1	 1.586175e+00	 5.799959e-01	 2.892318e+00
1	 1.575730e+00	 6.078000e-01	 2.734951e+00
1	 1.564756e+00	 6.355190e-01	 2.567304e+00
1	 1.553252e+00	 6.631384e-01	 2.386765e+00
1	 1.541219e+00	 6.906434e-01	 2.190676e+00
1	 1.606592e+00	 5.557534e-01	 2.692242e+00
1	 1.596610e+00	 5.838116e-01	 2.552049e+00
1	 1.586097e+00	 6.117987e-01	 2.405112e+00
1	 1.575050e+00	 6.397001e-01	 2.249095e+00
1	 1.563471e+00	 6.675011e-01	 2.081614e+00
1	 1.551359e+00	 6.951871e-01	 1.900242e+00
1	 1.617093e+00	 5.593857e-01	 2.358107e+00
1	 1.607046e+00	 5.876274e-01	 2.229014e+00
1	 1.596463e+00	 6.157974e-01	 2.094153e+00
1	 1.585345e+00	 6.438811e-01	 1.951410e+00
1	 1.573690e+00	 6.718639e-01	 1.798629e+00
1	 1.561499e+00	 6.997308e-01	 1.633615e+00
1	 1.627593e+00	 5.630181e-01	 2.039266e+00
1	 1.617481e+00	 5.914432e-01	 1.922880e+00
1	 1.606830e+00	 6.197961e-01	 1.801706e+00
1	 1.595639e+00	 6.480622e-01	 1.673851e+00
1	 1.583909e+00	 6.762266e-01	 1.537382e+00
1	 1.571638e+00	 7.042745e-01	 1.390332e+00
1	 1.520940e+00	 6.815560e-01	 2.844865e+00
1	 1.508544e+00	 7.085718e-01	 2.215826e+00
1	 1.495626e+00	 7.354457e-01	 1.569022e+00
1	 1.482189e+00	 7.621631e-01	 9.081134e-01
1	 1.468236e+00	 7.887092e-01	 2.368358e-01
1	 1.453767e+00	 8.150695e-01	-4.410141e-01
1	 1.531080e+00	 6.860997e-01	 2.505388e+00
1	 1.518601e+00	 7.132956e-01	 1.932893e+00
1	 1.505597e+00	 7.403487e-01	 1.344550e+00
1	 1.492071e+00	 7.672441e-01	 7.435465e-01
1	 1.478024e+00	 7.939673e-01	 1.331316e-01
1	 1.463459e+00	 8.205033e-01	-4.833916e-01
1	 1.541219e+00	 6.906434e-01	 2.190676e+00
1	 1.528658e+00	 7.180194e-01	 1.671445e+00
1	 1.515568e+00	 7.452517e-01	 1.138260e+00
1	 1.501952e+00	 7.723252e-01	 5.938399e-01
1	 1.487812e+00	 7.992253e-01	 4.095387e-02
1	 1.473151e+00	 8.259371e-01	-5.175852e-01
1	 1.551359e+00	 6.951871e-01	 1.900242e+00
1	 1.538714e+00	 7.227432e-01	 1.431059e+00
1	 1.525539e+00	 7.501546e-01	 9.497946e-01
1	 1.511833e+00	 7.774063e-01	 4.587023e-01
1	 1.497600e+00	 8.044834e-01	-3.992359e-02
1	 1.482843e+00	 8.313708e-01	-5.437555e-01
1	 1.561499e+00	 6.997308e-01	 1.633615e+00
1	 1.548771e+00	 7.274671e-01	 1.211326e+00
1	 1.535509e+00	 7.550576e-01	 7.788065e-01
1	 1.521714e+00	 7.824874e-01	 3.378499e-01
1	 1.507388e+00	 8.097414e-01	-1.097209e-01
1	 1.492534e+00	 8.368046e-01	-5.620586e-01
1	 1.571638e+00	 7.042745e-01	 1.390332e+00
1	 1.558828e+00	 7.321909e-01	 1.011845e+00
1	 1.545480e+00	 7.599606e-01	 6.249576e-01
1	 1.531596e+00	 7.875685e-01	 2.310062e-01
1	 1.517177e+00	 8.149995e-01	-1.686524e-01
1	 1.502226e+00	 8.422384e-01	-5.726470e-01
1	 1.453767e+00	 8.150695e-01	-4.410141e-01
1	 1.438788e+00	 8.412292e-01	-1.714569e+00
1	 1.423301e+00	 8.671740e-01	-3.001787e+00
1	 1.407312e+00	 8.928892e-01	-4.296727e+00
1	 1.390824e+00	 9.183604e-01	-5.593363e+00
1	 1.373844e+00	 9.435735e-01	-6.885605e+00
1	 1.463459e+00	 8.205033e-01	-4.833916e-01
1	 1.448380e+00	 8.468374e-01	-1.682230e+00
1	 1.432790e+00	 8.729551e-01	-2.894539e+00
1	 1.416694e+00	 8.988418e-01	-4.114495e+00
1	 1.400096e+00	 9.244828e-01	-5.336190e+00
1	 1.383003e+00	 9.498640e-01	-6.553653e+00
1	 1.473151e+00	 8.259371e-01	-5.175852e-01
1	 1.457972e+00	 8.524456e-01	-1.642478e+00
1	 1.442279e+00	 8.787363e-01	-2.780649e+00
1	 1.426076e+00	 9.047943e-01	-3.926391e+00
1	 1.409369e+00	 9.306052e-01	-5.073914e+00
1	 1.392162e+00	 9.561545e-01	-6.217362e+00
1	 1.482843e+00	 8.313708e-01	-5.437555e-01
1	 1.467564e+00	 8.580538e-01	-1.595458e+00
1	 1.451768e+00	 8.845175e-01	-2.660248e+00
1	 1.435458e+00	 9.107469e-01	-3.732532e+00
1	 1.418641e+00	 9.367276e-01	-4.806635e+00
1	 1.401321e+00	 9.624450e-01	-5.876817e+00
1	 1.492534e+00	 8.368046e-01	-5.620586e-01
1	 1.477156e+00	 8.636620e-01	-1.541313e+00
1	 1.461256e+00	 8.902986e-01	-2.533463e+00
1	 1.444840e+00	 9.166995e-01	-3.533029e+00
1	 1.427913e+00	 9.428500e-01	-4.534450e+00
1	 1.410480e+00	 9.687355e-01	-5.532102e+00
1	 1.502226e+00	 8.422384e-01	-5.726470e-01
1	 1.486748e+00	 8.692702e-01	-1.480179e+00
1	 1.470745e+00	 8.960798e-01	-2.400417e+00
1	 1.454222e+00	 9.226521e-01	-3.327991e+00
1	 1.437185e+00	 9.489724e-01	-4.257455e+00
1	 1.419639e+00	 9.750260e-01	-5.183298e+00
1	 1.373844e+00	 9.435735e-01	-6.885605e+00
1	 1.356377e+00	 9.685143e-01	-7.901623e+00
1	 1.338429e+00	 9.931689e-01	-8.921616e+00
1	 1.320009e+00	 1.017524e+00	-9.943553e+00
1	 1.301123e+00	 1.041565e+00	-1.096538e+01
1	 1.281779e+00	 1.065280e+00	-1.198504e+01
1	 1.383003e+00	 9.498640e-01	-6.553653e+00
1	 1.365419e+00	 9.749711e-01	-7.518844e+00
1	 1.347352e+00	 9.997900e-01	-8.485233e+00
1	 1.328809e+00	 1.024307e+00	-9.450563e+00
1	 1.309797e+00	 1.048509e+00	-1.041256e+01
1	 1.290324e+00	 1.072381e+00	-1.136895e+01
1	 1.392162e+00	 9.561545e-01	-6.217362e+00
1	 1.374462e+00	 9.814278e-01	-7.130187e+00
1	 1.356275e+00	 1.006411e+00	-8.041465e+00
1	 1.337609e+00	 1.031091e+00	-8.948716e+00
1	 1.318471e+00	 1.055452e+00	-9.849450e+00
1	 1.298869e+00	 1.079483e+00	-1.074118e+01
1	 1.401321e+00	 9.624450e-01	-5.876817e+00
1	 1.383504e+00	 9.878846e-01	-6.735768e+00
1	 1.365198e+00	 1.013032e+00	-7.590458e+00
1	 1.346409e+00	 1.037874e+00	-8.438184e+00
1	 1.327145e+00	 1.062396e+00	-9.276245e+00
1	 1.307415e+00	 1.086585e+00	-1.010194e+01
1	 1.410480e+00	 9.687355e-01	-5.532102e+00
1	 1.392547e+00	 9.943413e-01	-6.335699e+00
1	 1.374121e+00	 1.019653e+00	-7.132352e+00
1	 1.355209e+00	 1.044658e+00	-7.919139e+00
1	 1.335819e+00	 1.069340e+00	-8.693144e+00
1	 1.315960e+00	 1.093687e+00	-9.451467e+00
1	 1.419639e+00	 9.750260e-01	-5.183298e+00
1	 1.401589e+00	 1.000798e+00	-5.930089e+00
1	 1.383044e+00	 1.026275e+00	-6.667284e+00
1	 1.364009e+00	 1.051441e+00	-7.391743e+00
1	 1.344493e+00	 1.076284e+00	-8.100339e+00
1	 1.324505e+00	 1.100789e+00	-8.789969e+00
1	 1.281779e+00	 1.065280e+00	-1.198504e+01
1	 1.261986e+00	 1.088655e+00	-1.198186e+01
1	 1.241753e+00	 1.111678e+00	-1.207843e+01
1	 1.221090e+00	 1.134336e+00	-1.227997e+01
1	 1.200006e+00	 1.156618e+00	-1.259144e+01
1	 1.178511e+00	 1.178511e+00	-1.301750e+01
1	 1.290324e+00	 1.072381e+00	-1.136895e+01
1	 1.270399e+00	 1.095912e+00	-1.134728e+01
1	 1.250031e+00	 1.119089e+00	-1.142542e+01
1	 1.229230e+00	 1.141898e+00	-1.160878e+01
1	 1.208006e+00	 1.164328e+00	-1.190247e+01
1	 1.186368e+00	 1.186368e+00	-1.231131e+01
1	 1.298869e+00	 1.079483e+00	-1.074118e+01
1	 1.278813e+00	 1.103170e+00	-1.070177e+01
1	 1.258310e+00	 1.126500e+00	-1.076226e+01
1	 1.237371e+00	 1.149460e+00	-1.092820e+01
1	 1.216006e+00	 1.172039e+00	-1.120486e+01
1	 1.194225e+00	 1.194225e+00	-1.159723e+01
1	 1.307415e+00	 1.086585e+00	-1.010194e+01
1	 1.287226e+00	 1.110428e+00	-1.004556e+01
1	 1.266588e+00	 1.133911e+00	-1.008914e+01
1	 1.245511e+00	 1.157023e+00	-1.023841e+01
1	 1.224006e+00	 1.179750e+00	-1.049879e+01
1	 1.202082e+00	 1.202082e+00	-1.087541e+01
1	 1.315960e+00	 1.093687e+00	-9.451467e+00
1	 1.295639e+00	 1.117685e+00	-9.378853e+00
1	 1.274867e+00	 1.141322e+00	-9.406269e+00
1	 1.253652e+00	 1.164585e+00	-9.539592e+00
1	 1.232006e+00	 1.187461e+00	-9.784411e+00
1	 1.209938e+00	 1.209938e+00	-1.014601e+01
1	 1.324505e+00	 1.100789e+00	-8.789969e+00
1	 1.304052e+00	 1.124943e+00	-8.701849e+00
1	 1.283145e+00	 1.148733e+00	-8.713822e+00
1	 1.261793e+00	 1.172147e+00	-8.831920e+00
1	 1.240006e+00	 1.195172e+00	-9.061890e+00
1	 1.217795e+00	 1.217795e+00	-9.409167e+00
1	 1.178511e+00	 1.178511e+00	-1.301750e+01
1	 1.156618e+00	 1.200006e+00	-1.375568e+01
1	 1.134336e+00	 1.221090e+00	-1.455133e+01
1	 1.111678e+00	 1.241753e+00	-1.540608e+01
1	 1.088655e+00	 1.261986e+00	-1.632138e+01
1	 1.065280e+00	 1.281779e+00	-1.729852e+01
1	 1.186368e+00	 1.186368e+00	-1.231131e+01
1	 1.164328e+00	 1.208006e+00	-1.301841e+01
1	 1.141898e+00	 1.229230e+00	-1.378398e+01
1	 1.119089e+00	 1.250031e+00	-1.460976e+01
1	 1.095912e+00	 1.270399e+00	-1.549729e+01
1	 1.072381e+00	 1.290324e+00	-1.644797e+01
1	 1.194225e+00	 1.194225e+00	-1.159723e+01
1	 1.172039e+00	 1.216006e+00	-1.227372e+01
1	 1.149460e+00	 1.237371e+00	-1.300969e+01
1	 1.126500e+00	 1.258310e+00	-1.380695e+01
1	 1.103170e+00	 1.278813e+00	-1.466716e+01
1	 1.079483e+00	 1.298869e+00	-1.559179e+01
1	 1.202082e+00	 1.202082e+00	-1.087541e+01
1	 1.179750e+00	 1.224006e+00	-1.152177e+01
1	 1.157023e+00	 1.245511e+00	-1.222859e+01
1	 1.133911e+00	 1.266588e+00	-1.299778e+01
1	 1.110428e+00	 1.287226e+00	-1.383109e+01
1	 1.086585e+00	 1.307415e+00	-1.473010e+01
1	 1.209938e+00	 1.209938e+00	-1.014601e+01
1	 1.187461e+00	 1.232006e+00	-1.076270e+01
1	 1.164585e+00	 1.253652e+00	-1.144081e+01
1	 1.141322e+00	 1.274867e+00	-1.218237e+01
1	 1.117685e+00	 1.295639e+00	-1.298922e+01
1	 1.093687e+00	 1.315960e+00	-1.386301e+01
1	 1.217795e+00	 1.217795e+00	-9.409167e+00
1	 1.195172e+00	 1.240006e+00	-9.996639e+00
1	 1.172147e+00	 1.261793e+00	-1.064649e+01
1	 1.148733e+00	 1.283145e+00	-1.136085e+01
1	 1.124943e+00	 1.304052e+00	-1.214164e+01
1	 1.100789e+00	 1.324505e+00	-1.299061e+01
1	 1.065280e+00	 1.281779e+00	-1.729852e+01
1	 1.041565e+00	 1.301123e+00	-1.934713e+01
1	 1.017524e+00	 1.320009e+00	-2.131501e+01
1	 9.931689e-01	 1.338429e+00	-2.319768e+01
1	 9.685143e-01	 1.356377e+00	-2.499090e+01
1	 9.435735e-01	 1.373844e+00	-2.669068e+01
1	 1.072381e+00	 1.290324e+00	-1.644797e+01
1	 1.048509e+00	 1.309797e+00	-1.843025e+01
1	 1.024307e+00	 1.328809e+00	-2.032724e+01
1	 9.997900e-01	 1.347352e+00	-2.213430e+01
1	 9.749711e-01	 1.365419e+00	-2.384708e+01
1	 9.498640e-01	 1.383003e+00	-2.546150e+01
1	 1.079483e+00	 1.298869e+00	-1.559179e+01
1	 1.055452e+00	 1.318471e+00	-1.750667e+01
1	 1.031091e+00	 1.337609e+00	-1.933174e+01
1	 1.006411e+00	 1.356275e+00	-2.106223e+01
1	 9.814278e-01	 1.374462e+00	-2.269367e+01
1	 9.561545e-01	 1.392162e+00	-2.422190e+01
1	 1.086585e+00	 1.307415e+00	-1.473010e+01
1	 1.062396e+00	 1.327145e+00	-1.657651e+01
1	 1.037874e+00	 1.346409e+00	-1.832865e+01
1	 1.013032e+00	 1.365198e+00	-1.998163e+01
1	 9.878846e-01	 1.383504e+00	-2.153087e+01
1	 9.624450e-01	 1.401321e+00	-2.297210e+01
1	 1.093687e+00	 1.315960e+00	-1.386301e+01
1	 1.069340e+00	 1.335819e+00	-1.563989e+01
1	 1.044658e+00	 1.355209e+00	-1.731812e+01
1	 1.019653e+00	 1.374121e+00	-1.889267e+01
1	 9.943413e-01	 1.392547e+00	-2.035884e+01
1	 9.687355e-01	 1.410480e+00	-2.171229e+01
1	 1.100789e+00	 1.324505e+00	-1.299061e+01
1	 1.076284e+00	 1.344493e+00	-1.469695e+01
1	 1.051441e+00	 1.364009e+00	-1.630030e+01
1	 1.026275e+00	 1.383044e+00	-1.779551e+01
1	 1.000798e+00	 1.401589e+00	-1.917779e+01
1	 9.750260e-01	 1.419639e+00	-2.044267e+01
1	 9.435735e-01	 1.373844e+00	-2.669068e+01
1	 9.183604e-01	 1.390824e+00	-2.846384e+01
1	 8.928892e-01	 1.407312e+00	-2.997592e+01
1	 8.671740e-01	 1.423301e+00	-3.121901e+01
1	 8.412292e-01	 1.438788e+00	-3.218604e+01
1	 8.150695e-01	 1.453767e+00	-3.287078e+01
1	 9.498640e-01	 1.383003e+00	-2.546150e+01
1	 9.244828e-01	 1.400096e+00	-2.710728e+01
1	 8.988418e-01	 1.416694e+00	-2.849440e+01
1	 8.729551e-01	 1.432790e+00	-2.961506e+01
1	 8.468374e-01	 1.448380e+00	-3.046228e+01
1	 8.205033e-01	 1.463459e+00	-3.102992e+01
1	 9.561545e-01	 1.392162e+00	-2.422190e+01
1	 9.306052e-01	 1.409369e+00	-2.574107e+01
1	 9.047943e-01	 1.426076e+00	-2.700397e+01
1	 8.787363e-01	 1.442279e+00	-2.800290e+01
1	 8.524456e-01	 1.457972e+00	-2.873097e+01
1	 8.259371e-01	 1.473151e+00	-2.918215e+01
1	 9.624450e-01	 1.401321e+00	-2.297210e+01
1	 9.367276e-01	 1.418641e+00	-2.436540e+01
1	 9.107469e-01	 1.435458e+00	-2.550479e+01
1	 8.845175e-01	 1.451768e+00	-2.638268e+01
1	 8.580538e-01	 1.467564e+00	-2.699227e+01
1	 8.313708e-01	 1.482843e+00	-2.732761e+01
1	 9.687355e-01	 1.410480e+00	-2.171229e+01
1	 9.428500e-01	 1.427913e+00	-2.298045e+01
1	 9.166995e-01	 1.444840e+00	-2.399705e+01
1	 8.902986e-01	 1.461256e+00	-2.475457e+01
1	 8.636620e-01	 1.477156e+00	-2.524632e+01
1	 8.368046e-01	 1.492534e+00	-2.546643e+01
1	 9.750260e-01	 1.419639e+00	-2.044267e+01
1	 9.489724e-01	 1.437185e+00	-2.158641e+01
1	 9.226521e-01	 1.454222e+00	-2.248090e+01
1	 8.960798e-01	 1.470745e+00	-2.311871e+01
1	 8.692702e-01	 1.486748e+00	-2.349326e+01
1	 8.422384e-01	 1.502226e+00	-2.359875e+01
1	 8.150695e-01	 1.453767e+00	-3.287078e+01
1	 7.887092e-01	 1.468236e+00	-3.271845e+01
1	 7.621631e-01	 1.482189e+00	-3.245724e+01
1	 7.354457e-01	 1.495626e+00	-3.208650e+01
1	 7.085718e-01	 1.508544e+00	-3.160588e+01
1	 6.815560e-01	 1.520940e+00	-3.101533e+01
1	 8.205033e-01	 1.463459e+00	-3.102992e+01
1	 7.939673e-01	 1.478024e+00	-3.080717e+01
1	 7.672441e-01	 1.492071e+00	-3.049609e+01
1	 7.403487e-01	 1.505597e+00	-3.009647e+01
1	 7.132956e-01	 1.518601e+00	-2.960834e+01
1	 6.860997e-01	 1.531080e+00	-2.903196e+01
1	 8.259371e-01	 1.473151e+00	-2.918215e+01
1	 7.992253e-01	 1.487812e+00	-2.889326e+01
1	 7.723252e-01	 1.501952e+00	-2.853632e+01
1	 7.452517e-01	 1.515568e+00	-2.811156e+01
1	 7.180194e-01	 1.528658e+00	-2.761937e+01
1	 6.906434e-01	 1.541219e+00	-2.706030e+01
1	 8.313708e-01	 1.482843e+00	-2.732761e+01
1	 8.044834e-01	 1.497600e+00	-2.697677e+01
1	 7.774063e-01	 1.511833e+00	-2.657790e+01
1	 7.501546e-01	 1.525539e+00	-2.613165e+01
1	 7.227432e-01	 1.538714e+00	-2.563878e+01
1	 6.951871e-01	 1.551359e+00	-2.510014e+01
1	 8.368046e-01	 1.492534e+00	-2.546643e+01
1	 8.097414e-01	 1.507388e+00	-2.505777e+01
1	 7.824874e-01	 1.521714e+00	-2.462082e+01
1	 7.550576e-01	 1.535509e+00	-2.415666e+01
1	 7.274671e-01	 1.548771e+00	-2.366642e+01
1	 6.997308e-01	 1.561499e+00	-2.315124e+01
1	 8.422384e-01	 1.502226e+00	-2.359875e+01
1	 8.149995e-01	 1.517177e+00	-2.313629e+01
1	 7.875685e-01	 1.531596e+00	-2.266504e+01
1	 7.599606e-01	 1.545480e+00	-2.218649e+01
1	 7.321909e-01	 1.558828e+00	-2.170213e+01
1	 7.042745e-01	 1.571638e+00	-2.121338e+01
1	 6.815560e-01	 1.520940e+00	-3.101533e+01
1	 6.544129e-01	 1.532815e+00	-2.982528e+01
1	 6.271569e-01	 1.544167e+00	-2.885878e+01
1	 5.998026e-01	 1.554997e+00	-2.811937e+01
1	 5.723643e-01	 1.565304e+00	-2.760988e+01
1	 5.448562e-01	 1.575090e+00	-2.733246e+01
1	 6.860997e-01	 1.531080e+00	-2.903196e+01
1	 6.587756e-01	 1.543034e+00	-2.790808e+01
1	 6.313380e-01	 1.554462e+00	-2.699565e+01
1	 6.038013e-01	 1.565363e+00	-2.629798e+01
1	 5.761801e-01	 1.575739e+00	-2.581770e+01
1	 5.484886e-01	 1.585591e+00	-2.555680e+01
1	 6.906434e-01	 1.541219e+00	-2.706030e+01
1	 6.631384e-01	 1.553252e+00	-2.599985e+01
1	 6.355190e-01	 1.564756e+00	-2.513892e+01
1	 6.078000e-01	 1.575730e+00	-2.448058e+01
1	 5.799959e-01	 1.586175e+00	-2.402730e+01
1	 5.521210e-01	 1.596092e+00	-2.378090e+01
1	 6.951871e-01	 1.551359e+00	-2.510014e+01
1	 6.675011e-01	 1.563471e+00	-2.410041e+01
1	 6.397001e-01	 1.575050e+00	-2.328845e+01
1	 6.117987e-01	 1.586097e+00	-2.266711e+01
1	 5.838116e-01	 1.596610e+00	-2.223865e+01
1	 5.557534e-01	 1.606592e+00	-2.200475e+01
1	 6.997308e-01	 1.561499e+00	-2.315124e+01
1	 6.718639e-01	 1.573690e+00	-2.220959e+01
1	 6.438811e-01	 1.585345e+00	-2.144412e+01
1	 6.157974e-01	 1.596463e+00	-2.085747e+01
1	 5.876274e-01	 1.607046e+00	-2.045171e+01
1	 5.593857e-01	 1.617093e+00	-2.022836e+01
1	 7.042745e-01	 1.571638e+00	-2.121338e+01
1	 6.762266e-01	 1.583909e+00	-2.032722e+01
1	 6.480622e-01	 1.595639e+00	-1.960582e+01
1	 6.197961e-01	 1.606830e+00	-1.905160e+01
1	 5.914432e-01	 1.617481e+00	-1.866644e+01
1	 5.630181e-01	 1.627593e+00	-1.845173e+01
1	 5.448562e-01	 1.575090e+00	-2.733246e+01
1	 5.172923e-01	 1.584357e+00	-2.696853e+01
1	 4.896866e-01	 1.593105e+00	-2.695455e+01
1	 4.620526e-01	 1.601339e+00	-2.729048e+01
1	 4.344039e-01	 1.609059e+00	-2.797534e+01
1	 4.067537e-01	 1.616270e+00	-2.900728e+01
1	 5.484886e-01	 1.585591e+00	-2.555680e+01
1	 5.207410e-01	 1.594919e+00	-2.521717e+01
1	 4.929511e-01	 1.603726e+00	-2.523141e+01
1	 4.651329e-01	 1.612014e+00	-2.559952e+01
1	 4.372999e-01	 1.619786e+00	-2.632057e+01
1	 4.094654e-01	 1.627045e+00	-2.739273e+01
1	 5.521210e-01	 1.596092e+00	-2.378090e+01
1	 5.241896e-01	 1.605482e+00	-2.346621e+01
1	 4.962157e-01	 1.614347e+00	-2.350927e+01
1	 4.682133e-01	 1.622690e+00	-2.391012e+01
1	 4.401959e-01	 1.630513e+00	-2.466787e+01
1	 4.121771e-01	 1.637820e+00	-2.578069e+01
1	 5.557534e-01	 1.606592e+00	-2.200475e+01
1	 5.276382e-01	 1.616044e+00	-2.171564e+01
1	 4.994803e-01	 1.624968e+00	-2.178810e+01
1	 4.712936e-01	 1.633365e+00	-2.222224e+01
1	 4.430920e-01	 1.641240e+00	-2.301718e+01
1	 4.148888e-01	 1.648596e+00	-2.417113e+01
1	 5.593857e-01	 1.617093e+00	-2.022836e+01
1	 5.310868e-01	 1.626606e+00	-1.996546e+01
1	 5.027449e-01	 1.635588e+00	-2.006791e+01
1	 4.743740e-01	 1.644041e+00	-2.053586e+01
1	 4.459880e-01	 1.651967e+00	-2.136848e+01
1	 4.176005e-01	 1.659371e+00	-2.256398e+01
1	 5.630181e-01	 1.627593e+00	-1.845173e+01
1	 5.345354e-01	 1.637169e+00	-1.821565e+01
1	 5.060094e-01	 1.646209e+00	-1.834865e+01
1	 4.774543e-01	 1.654717e+00	-1.885094e+01
1	 4.488840e-01	 1.662694e+00	-1.972172e+01
1	 4.203122e-01	 1.670146e+00	-2.095921e+01
1	 4.067537e-01	 1.616270e+00	-2.900728e+01
1	 3.791151e-01	 1.622976e+00	-3.040633e+01
1	 3.515008e-01	 1.629179e+00	-3.211032e+01
1	 3.239233e-01	 1.634886e+00	-3.411559e+01
1	 2.963949e-01	 1.640100e+00	-3.641782e+01
1	 2.689274e-01	 1.644827e+00	-3.901202e+01
1	 4.094654e-01	 1.627045e+00	-2.739273e+01
1	 3.816425e-01	 1.633795e+00	-2.883662e+01
1	 3.538442e-01	 1.640040e+00	-3.058954e+01
1	 3.260828e-01	 1.645785e+00	-3.264774e+01
1	 2.983709e-01	 1.651034e+00	-3.500678e+01
1	 2.707203e-01	 1.655793e+00	-3.766154e+01
1	 4.121771e-01	 1.637820e+00	-2.578069e+01
1	 3.841700e-01	 1.644615e+00	-2.726920e+01
1	 3.561875e-01	 1.650902e+00	-2.907079e+01
1	 3.282423e-01	 1.656684e+00	-3.118161e+01
1	 3.003468e-01	 1.661968e+00	-3.359710e+01
1	 2.725131e-01	 1.666758e+00	-3.631201e+01
1	 4.148888e-01	 1.648596e+00	-2.417113e+01
1	 3.866974e-01	 1.655435e+00	-2.570404e+01
1	 3.585308e-01	 1.661763e+00	-2.755404e+01
1	 3.304018e-01	 1.667583e+00	-2.971716e+01
1	 3.023228e-01	 1.672902e+00	-3.218874e+01
1	 2.743060e-01	 1.677724e+00	-3.496341e+01
1	 4.176005e-01	 1.659371e+00	-2.256398e+01
1	 3.892248e-01	 1.666255e+00	-2.414108e+01
1	 3.608742e-01	 1.672624e+00	-2.603923e+01
1	 3.325613e-01	 1.678483e+00	-2.825436e+01
1	 3.042988e-01	 1.683836e+00	-3.078170e+01
1	 2.760988e-01	 1.688689e+00	-3.361573e+01
1	 4.203122e-01	 1.670146e+00	-2.095921e+01
1	 3.917523e-01	 1.677075e+00	-2.258029e+01
1	 3.632175e-01	 1.683485e+00	-2.452633e+01
1	 3.347208e-01	 1.689382e+00	-2.679318e+01
1	 3.062747e-01	 1.694770e+00	-2.937593e+01
1	 2.778917e-01	 1.699655e+00	-3.226896e+01
1	 2.689274e-01	 1.644827e+00	-3.901202e+01
1	 2.415325e-01	 1.649072e+00	-4.189388e+01
1	 2.142214e-01	 1.652842e+00	-4.479991e+01
1	 1.870053e-01	 1.656142e+00	-4.772706e+01
1	 1.598946e-01	 1.658979e+00	-5.067226e+01
1	 1.328997e-01	 1.661360e+00	-5.363246e+01
1	 2.707203e-01	 1.655793e+00	-3.766154e+01
1	 2.431427e-01	 1.660066e+00	-4.059671e+01
1	 2.156496e-01	 1.663861e+00	-4.355718e+01
1	 1.882520e-01	 1.667183e+00	-4.653984e+01
1	 1.609605e-01	 1.670039e+00	-4.954162e+01
1	 1.337857e-01	 1.672435e+00	-5.255941e+01
1	 2.725131e-01	 1.666758e+00	-3.631201e+01
1	 2.447529e-01	 1.671060e+00	-3.930066e+01
1	 2.170777e-01	 1.674880e+00	-4.231570e+01
1	 1.894987e-01	 1.678224e+00	-4.535403e+01
1	 1.620265e-01	 1.681099e+00	-4.841250e+01
1	 1.346717e-01	 1.683511e+00	-5.148799e+01
1	 2.743060e-01	 1.677724e+00	-3.496341e+01
1	 2.463631e-01	 1.682054e+00	-3.800570e+01
1	 2.185059e-01	 1.685899e+00	-4.107547e+01
1	 1.907454e-01	 1.689265e+00	-4.416959e+01
1	 1.630925e-01	 1.692159e+00	-4.728488e+01
1	 1.355577e-01	 1.694587e+00	-5.041817e+01
1	 2.760988e-01	 1.688689e+00	-3.361573e+01
1	 2.479733e-01	 1.693048e+00	-3.671181e+01
1	 2.199340e-01	 1.696918e+00	-3.983646e+01
1	 1.919921e-01	 1.700306e+00	-4.298650e+01
1	 1.641584e-01	 1.703218e+00	-4.615873e+01
1	 1.364437e-01	 1.705662e+00	-4.934994e+01
1	 2.778917e-01	 1.699655e+00	-3.226896e+01
1	 2.495836e-01	 1.704041e+00	-3.541897e+01
1	 2.213622e-01	 1.707937e+00	-3.859864e+01
1	 1.932388e-01	 1.711347e+00	-4.180473e+01
1	 1.652244e-01	 1.714278e+00	-4.503401e+01
1	 1.373297e-01	 1.716738e+00	-4.828324e+01
1	 1.328997e-01	 1.661360e+00	-5.363246e+01
1	 1.060307e-01	 1.663290e+00	-5.642790e+01
1	 7.929712e-02	 1.664779e+00	-5.902029e+01
1	 5.270824e-02	 1.665833e+00	-6.141100e+01
1	 2.627302e-02	 1.666460e+00	-6.360177e+01
1	 0.000000e+00	 1.666667e+00	-6.559472e+01
1	 1.337857e-01	 1.672435e+00	-5.255941e+01
1	 1.067376e-01	 1.674379e+00	-5.541157e+01
1	 7.982577e-02	 1.675878e+00	-5.806041e+01
1	 5.305963e-02	 1.676939e+00	-6.050723e+01
1	 2.644817e-02	 1.677569e+00	-6.275378e+01
1	 0.000000e+00	 1.677778e+00	-6.480217e+01
1	 1.346717e-01	 1.683511e+00	-5.148799e+01
1	 1.074445e-01	 1.685468e+00	-5.439693e+01
1	 8.035441e-02	 1.686976e+00	-5.710225e+01
1	 5.341102e-02	 1.688044e+00	-5.960524e+01
1	 2.662332e-02	 1.688679e+00	-6.190763e+01
1	 0.000000e+00	 1.688889e+00	-6.401151e+01
1	 1.355577e-01	 1.694587e+00	-5.041817e+01
1	 1.081513e-01	 1.696556e+00	-5.338394e+01
1	 8.088306e-02	 1.698075e+00	-5.614578e+01
1	 5.376241e-02	 1.699150e+00	-5.870500e+01
1	 2.679848e-02	 1.699789e+00	-6.106328e+01
1	 0.000000e+00	 1.700000e+00	-6.322271e+01
1	 1.364437e-01	 1.705662e+00	-4.934994e+01
1	 1.088582e-01	 1.707645e+00	-5.237255e+01
1	 8.141171e-02	 1.709173e+00	-5.519097e+01
1	 5.411380e-02	 1.710255e+00	-5.780646e+01
1	 2.697363e-02	 1.710898e+00	-6.022069e+01
1	 0.000000e+00	 1.711111e+00	-6.243573e+01
1	 1.373297e-01	 1.716738e+00	-4.828324e+01
1	 1.095651e-01	 1.718734e+00	-5.136276e+01
1	 8.194036e-02	 1.720272e+00	-5.423780e+01
1	 5.446519e-02	 1.721361e+00	-5.690961e+01
1	 2.714878e-02	 1.722008e+00	-5.937984e+01
1	 0.000000e+00	 1.722222e+00	-6.165054e+01
1	 1.722222e+00	 0.000000e+00	 1.169404e+01
1	 1.722008e+00	 2.714878e-02	 1.140451e+01
1	 1.721361e+00	 5.446519e-02	 1.107196e+01
1	 1.720272e+00	 8.194036e-02	 1.069501e+01
1	 1.718734e+00	 1.095651e-01	 1.027233e+01
1	 1.716738e+00	 1.373297e-01	 9.802634e+00
1	 1.733333e+00	 0.000000e+00	 1.135603e+01
1	 1.733118e+00	 2.732394e-02	 1.105926e+01
1	 1.732466e+00	 5.481657e-02	 1.072093e+01
1	 1.731370e+00	 8.246900e-02	 1.033965e+01
1	 1.729822e+00	 1.102719e-01	 9.914105e+00
1	 1.727814e+00	 1.382157e-01	 9.443026e+00
1	 1.744444e+00	 0.000000e+00	 1.102577e+01
1	 1.744228e+00	 2.749909e-02	 1.072167e+01
1	 1.743572e+00	 5.516796e-02	 1.037743e+01
1	 1.742469e+00	 8.299765e-02	 9.991685e+00
1	 1.740911e+00	 1.109788e-01	 9.563131e+00
1	 1.738890e+00	 1.391017e-01	 9.090500e+00
1	 1.755556e+00	 0.000000e+00	 1.070312e+01
1	 1.755337e+00	 2.767424e-02	 1.039158e+01
1	 1.754677e+00	 5.551935e-02	 1.004132e+01
1	 1.753567e+00	 8.352630e-02	 9.650979e+00
1	 1.751999e+00	 1.116857e-01	 9.219267e+00
1	 1.749965e+00	 1.399877e-01	 8.744922e+00
1	 1.766667e+00	 0.000000e+00	 1.038794e+01
1	 1.766447e+00	 2.784940e-02	 1.006886e+01
1	 1.765783e+00	 5.587074e-02	 9.712456e+00
1	 1.764666e+00	 8.405495e-02	 9.317395e+00
1	 1.763088e+00	 1.123926e-01	 8.882380e+00
1	 1.761041e+00	 1.408737e-01	 8.406160e+00
1	 1.777778e+00	 0.000000e+00	 1.008009e+01
1	 1.777557e+00	 2.802455e-02	 9.753367e+00
1	 1.776889e+00	 5.622213e-02	 9.390712e+00
1	 1.775764e+00	 8.458359e-02	 8.990799e+00
1	 1.774177e+00	 1.130994e-01	 8.552339e+00
1	 1.772117e+00	 1.417597e-01	 8.074086e+00
1	 1.716738e+00	 1.373297e-01	 9.802634e+00
1	 1.714278e+00	 1.652244e-01	 9.220365e+00
1	 1.711347e+00	 1.932388e-01	 8.630090e+00
1	 1.707937e+00	 2.213622e-01	 8.031619e+00
1	 1.704041e+00	 2.495836e-01	 7.424760e+00
1	 1.699655e+00	 2.778917e-01	 6.809321e+00
1	 1.727814e+00	 1.382157e-01	 9.443026e+00
1	 1.725338e+00	 1.662904e-01	 8.862522e+00
1	 1.722388e+00	 1.944855e-01	 8.274477e+00
1	 1.718956e+00	 2.227903e-01	 7.678743e+00
1	 1.715035e+00	 2.511938e-01	 7.075171e+00
1	 1.710620e+00	 2.796845e-01	 6.463608e+00
1	 1.738890e+00	 1.391017e-01	 9.090500e+00
1	 1.736398e+00	 1.673563e-01	 8.512046e+00
1	 1.733429e+00	 1.957322e-01	 7.926515e+00
1	 1.729975e+00	 2.242184e-01	 7.333802e+00
1	 1.726029e+00	 2.528040e-01	 6.733799e+00
1	 1.721586e+00	 2.814773e-01	 6.126396e+00
1	 1.749965e+00	 1.399877e-01	 8.744922e+00
1	 1.747458e+00	 1.684223e-01	 8.168795e+00
1	 1.744470e+00	 1.969789e-01	 7.586058e+00
1	 1.740994e+00	 2.256466e-01	 6.996644e+00
1	 1.737023e+00	 2.544142e-01	 6.400488e+00
1	 1.732551e+00	 2.832702e-01	 5.797522e+00
1	 1.761041e+00	 1.408737e-01	 8.406160e+00
1	 1.758518e+00	 1.694883e-01	 7.832634e+00
1	 1.755511e+00	 1.982256e-01	 7.252964e+00
1	 1.752013e+00	 2.270747e-01	 6.667124e+00
1	 1.748017e+00	 2.560244e-01	 6.075088e+00
1	 1.743517e+00	 2.850630e-01	 5.476829e+00
1	 1.772117e+00	 1.417597e-01	 8.074086e+00
1	 1.769578e+00	 1.705542e-01	 7.503430e+00
1	 1.766552e+00	 1.994723e-01	 6.927096e+00
1	 1.763032e+00	 2.285029e-01	 6.345097e+00
1	 1.759011e+00	 2.576346e-01	 5.757448e+00
1	 1.754482e+00	 2.868559e-01	 5.164165e+00
1	 1.699655e+00	 2.778917e-01	 6.809321e+00
1	 1.694770e+00	 3.062747e-01	 6.090706e+00
1	 1.689382e+00	 3.347208e-01	 5.412116e+00
1	 1.683485e+00	 3.632175e-01	 4.774137e+00
1	 1.677075e+00	 3.917523e-01	 4.177250e+00
1	 1.670146e+00	 4.203122e-01	 3.621822e+00
1	 1.710620e+00	 2.796845e-01	 6.463608e+00
1	 1.705704e+00	 3.082507e-01	 5.750861e+00
1	 1.700281e+00	 3.368803e-01	 5.079499e+00
1	 1.694346e+00	 3.655608e-01	 4.450220e+00
1	 1.687895e+00	 3.942797e-01	 3.863615e+00
1	 1.680921e+00	 4.230239e-01	 3.320162e+00
1	 1.721586e+00	 2.814773e-01	 6.126396e+00
1	 1.716638e+00	 3.102267e-01	 5.420229e+00
1	 1.711180e+00	 3.390398e-01	 4.756802e+00
1	 1.705208e+00	 3.679042e-01	 4.136921e+00
1	 1.698714e+00	 3.968071e-01	 3.561286e+00
1	 1.691696e+00	 4.257356e-01	 3.030483e+00
1	 1.732551e+00	 2.832702e-01	 5.797522e+00
1	 1.727572e+00	 3.122026e-01	 5.098637e+00
1	 1.722080e+00	 3.411993e-01	 4.443837e+00
1	 1.716069e+00	 3.702475e-01	 3.834038e+00
1	 1.709534e+00	 3.993346e-01	 3.270047e+00
1	 1.702471e+00	 4.284472e-01	 2.752557e+00
1	 1.743517e+00	 2.850630e-01	 5.476829e+00
1	 1.738506e+00	 3.141786e-01	 4.785914e+00
1	 1.732979e+00	 3.433587e-01	 4.140421e+00
1	 1.726930e+00	 3.725909e-01	 3.541374e+00
1	 1.720354e+00	 4.018620e-01	 2.989688e+00
1	 1.713246e+00	 4.311589e-01	 2.486164e+00
1	 1.754482e+00	 2.868559e-01	 5.164165e+00
1	 1.749440e+00	 3.161546e-01	 4.481893e+00
1	 1.743878e+00	 3.455182e-01	 3.846375e+00
1	 1.737791e+00	 3.749342e-01	 3.258739e+00
1	 1.731174e+00	 4.043894e-01	 2.720008e+00
1	 1.724021e+00	 4.338706e-01	 2.231086e+00
1	 1.670146e+00	 4.203122e-01	 3.621822e+00
1	 1.662694e+00	 4.488840e-01	 3.223415e+00
1	 1.654717e+00	 4.774543e-01	 2.867036e+00
1	 1.646209e+00	 5.060094e-01	 2.551682e+00
1	 1.637169e+00	 5.345354e-01	 2.276196e+00
1	 1.627593e+00	 5.630181e-01	 2.039266e+00
1	 1.680921e+00	 4.230239e-01	 3.320162e+00
1	 1.673421e+00	 4.517800e-01	 2.927918e+00
1	 1.665392e+00	 4.805347e-01	 2.578036e+00
1	 1.656830e+00	 5.092740e-01	 2.269598e+00
1	 1.647731e+00	 5.379840e-01	 2.001535e+00
1	 1.638094e+00	 5.666505e-01	 1.772624e+00
1	 1.691696e+00	 4.257356e-01	 3.030483e+00
1	 1.684148e+00	 4.546761e-01	 2.645078e+00
1	 1.676068e+00	 4.836150e-01	 2.302374e+00
1	 1.667450e+00	 5.125386e-01	 2.001539e+00
1	 1.658293e+00	 5.414327e-01	 1.741591e+00
1	 1.648595e+00	 5.702829e-01	 1.521396e+00
1	 1.702471e+00	 4.284472e-01	 2.752557e+00
1	 1.694876e+00	 4.575721e-01	 2.374655e+00
1	 1.686743e+00	 4.866954e-01	 2.039798e+00
1	 1.678071e+00	 5.158032e-01	 1.747241e+00
1	 1.668856e+00	 5.448813e-01	 1.496086e+00
1	 1.659095e+00	 5.739152e-01	 1.285290e+00
1	 1.713246e+00	 4.311589e-01	 2.486164e+00
1	 1.705603e+00	 4.604681e-01	 2.116413e+00
1	 1.697419e+00	 4.897757e-01	 1.790060e+00
1	 1.688692e+00	 5.190678e-01	 1.506442e+00
1	 1.679418e+00	 5.483299e-01	 1.264748e+00
1	 1.669596e+00	 5.775476e-01	 1.064019e+00
1	 1.724021e+00	 4.338706e-01	 2.231086e+00
1	 1.716330e+00	 4.633641e-01	 1.870126e+00
1	 1.708094e+00	 4.928561e-01	 1.552920e+00
1	 1.699312e+00	 5.223323e-01	 1.278890e+00
1	 1.689981e+00	 5.517785e-01	 1.047309e+00
1	 1.680096e+00	 5.811800e-01	 8.573055e-01
1	 1.627593e+00	 5.630181e-01	 2.039266e+00
1	 1.617481e+00	 5.914432e-01	 1.922880e+00
1	 1.606830e+00	 6.197961e-01	 1.801706e+00
1	 1.595639e+00	 6.480622e-01	 1.673851e+00
1	 1.583909e+00	 6.762266e-01	 1.537382e+00
1	 1.571638e+00	 7.042745e-01	 1.390332e+00
1	 1.638094e+00	 5.666505e-01	 1.772624e+00
1	 1.627916e+00	 5.952589e-01	 1.666794e+00
1	 1.617197e+00	 6.237948e-01	 1.557673e+00
1	 1.605934e+00	 6.522432e-01	 1.443371e+00
1	 1.594128e+00	 6.805894e-01	 1.321952e+00
1	 1.581778e+00	 7.088182e-01	 1.191441e+00
1	 1.648595e+00	 5.702829e-01	 1.521396e+00
1	 1.638352e+00	 5.990747e-01	 1.426143e+00
1	 1.627563e+00	 6.277934e-01	 1.329087e+00
1	 1.616228e+00	 6.564243e-01	 1.228337e+00
1	 1.604346e+00	 6.849521e-01	 1.121957e+00
1	 1.591917e+00	 7.133619e-01	 1.007966e+00
1	 1.659095e+00	 5.739152e-01	 1.285290e+00
1	 1.648787e+00	 6.028904e-01	 1.200634e+00
1	 1.637930e+00	 6.317921e-01	 1.115653e+00
1	 1.626523e+00	 6.606053e-01	 1.028457e+00
1	 1.614565e+00	 6.893149e-01	 9.371059e-01
1	 1.602057e+00	 7.179056e-01	 8.396140e-01
1	 1.669596e+00	 5.775476e-01	 1.064019e+00
1	 1.659222e+00	 6.067062e-01	 9.899805e-01
1	 1.648296e+00	 6.357908e-01	 9.170852e-01
1	 1.636817e+00	 6.647863e-01	 8.434434e-01
1	 1.624784e+00	 6.936776e-01	 7.671120e-01
1	 1.612197e+00	 7.224494e-01	 6.860993e-01
1	 1.680096e+00	 5.811800e-01	 8.573055e-01
1	 1.669658e+00	 6.105220e-01	 7.939049e-01
1	 1.658663e+00	 6.397895e-01	 7.331056e-01
1	 1.647112e+00	 6.689674e-01	 6.730183e-01
1	 1.635003e+00	 6.980404e-01	 6.116970e-01
1	 1.622336e+00	 7.269931e-01	 5.471440e-01
1	 1.571638e+00	 7.042745e-01	 1.390332e+00
1	 1.558828e+00	 7.321909e-01	 1.011845e+00
1	 1.545480e+00	 7.599606e-01	 6.249576e-01
1	 1.531596e+00	 7.875685e-01	 2.310062e-01
1	 1.517177e+00	 8.149995e-01	-1.686524e-01
1	 1.502226e+00	 8.422384e-01	-5.726470e-01
1	 1.581778e+00	 7.088182e-01	 1.191441e+00
1	 1.568885e+00	 7.369147e-01	 8.511884e-01
1	 1.555451e+00	 7.648635e-01	 5.016331e-01
1	 1.541477e+00	 7.926496e-01	 1.440395e-01
1	 1.526965e+00	 8.202576e-01	-2.203066e-01
1	 1.511918e+00	 8.476722e-01	-5.901009e-01
1	 1.591917e+00	 7.133619e-01	 1.007966e+00
1	 1.578942e+00	 7.416385e-01	 7.055694e-01
1	 1.565422e+00	 7.697665e-01	 3.929879e-01
1	 1.551358e+00	 7.977307e-01	 7.141323e-02
1	 1.536753e+00	 8.255156e-01	-2.579385e-01
1	 1.521610e+00	 8.531060e-01	-5.938297e-01
1	 1.602057e+00	 7.179056e-01	 8.396140e-01
1	 1.588999e+00	 7.463623e-01	 5.747027e-01
1	 1.575393e+00	 7.746695e-01	 2.987433e-01
1	 1.561239e+00	 8.028118e-01	 1.285526e-02
1	 1.546541e+00	 8.307737e-01	-2.818143e-01
1	 1.531302e+00	 8.585398e-01	-5.840938e-01
1	 1.612197e+00	 7.224494e-01	 6.860993e-01
1	 1.599056e+00	 7.510861e-01	 4.583100e-01
1	 1.585364e+00	 7.795725e-01	 2.186275e-01
1	 1.571121e+00	 8.078928e-01	-3.189989e-02
1	 1.556330e+00	 8.360317e-01	-2.921936e-01
1	 1.540993e+00	 8.639736e-01	-5.611473e-01
1	 1.622336e+00	 7.269931e-01	 5.471440e-01
1	 1.609113e+00	 7.558099e-01	 3.561198e-01
1	 1.595334e+00	 7.844754e-01	 1.523757e-01
1	 1.581002e+00	 8.129739e-01	-6.311103e-02
1	 1.566118e+00	 8.412898e-01	-2.893294e-01
1	 1.550685e+00	 8.694074e-01	-5.252380e-01
1	 1.502226e+00	 8.422384e-01	-5.726470e-01
1	 1.486748e+00	 8.692702e-01	-1.480179e+00
1	 1.470745e+00	 8.960798e-01	-2.400417e+00
1	 1.454222e+00	 9.226521e-01	-3.327991e+00
1	 1.437185e+00	 9.489724e-01	-4.257455e+00
1	 1.419639e+00	 9.750260e-01	-5.183298e+00
1	 1.511918e+00	 8.476722e-01	-5.901009e-01
1	 1.496340e+00	 8.748784e-01	-1.438404e+00
1	 1.480234e+00	 9.018609e-01	-2.295648e+00
1	 1.463604e+00	 9.286047e-01	-3.156724e+00
1	 1.446457e+00	 9.550948e-01	-4.016456e+00
1	 1.428798e+00	 9.813164e-01	-4.869617e+00
1	 1.521610e+00	 8.531060e-01	-5.938297e-01
1	 1.505932e+00	 8.804866e-01	-1.384685e+00
1	 1.489722e+00	 9.076421e-01	-2.180763e+00
1	 1.472986e+00	 9.345573e-01	-2.977211e+00
1	 1.455729e+00	 9.612172e-01	-3.769121e+00
1	 1.437957e+00	 9.876069e-01	-4.551548e+00
1	 1.531302e+00	 8.585398e-01	-5.840938e-01
1	 1.515523e+00	 8.860948e-01	-1.319250e+00
1	 1.499211e+00	 9.134233e-01	-2.055955e+00
1	 1.482369e+00	 9.405099e-01	-2.789609e+00
1	 1.465001e+00	 9.673396e-01	-3.515570e+00
1	 1.447115e+00	 9.938974e-01	-4.229173e+00
1	 1.540993e+00	 8.639736e-01	-5.611473e-01
1	 1.525115e+00	 8.917030e-01	-1.242321e+00
1	 1.508700e+00	 9.192044e-01	-1.921411e+00
1	 1.491751e+00	 9.464625e-01	-2.594071e+00
1	 1.474274e+00	 9.734620e-01	-3.255922e+00
1	 1.456274e+00	 1.000188e+00	-3.902575e+00
1	 1.550685e+00	 8.694074e-01	-5.252380e-01
1	 1.534707e+00	 8.973112e-01	-1.154112e+00
1	 1.518188e+00	 9.249856e-01	-1.777314e+00
1	 1.501133e+00	 9.524151e-01	-2.390745e+00
1	 1.483546e+00	 9.795844e-01	-2.990290e+00
1	 1.465433e+00	 1.006478e+00	-3.571832e+00
1	 1.419639e+00	 9.750260e-01	-5.183298e+00
1	 1.401589e+00	 1.000798e+00	-5.930089e+00
1	 1.383044e+00	 1.026275e+00	-6.667284e+00
1	 1.364009e+00	 1.051441e+00	-7.391743e+00
1	 1.344493e+00	 1.076284e+00	-8.100339e+00
1	 1.324505e+00	 1.100789e+00	-8.789969e+00
1	 1.428798e+00	 9.813164e-01	-4.869617e+00
1	 1.410632e+00	 1.007255e+00	-5.557699e+00
1	 1.391967e+00	 1.032896e+00	-6.238269e+00
1	 1.372809e+00	 1.058225e+00	-6.908286e+00
1	 1.353168e+00	 1.083227e+00	-7.564715e+00
1	 1.333050e+00	 1.107891e+00	-8.204537e+00
1	 1.437957e+00	 9.876069e-01	-4.551548e+00
1	 1.419674e+00	 1.013712e+00	-5.181437e+00
1	 1.400889e+00	 1.039517e+00	-5.805872e+00
1	 1.381609e+00	 1.065008e+00	-6.421908e+00
1	 1.361842e+00	 1.090171e+00	-7.026601e+00
1	 1.341595e+00	 1.114993e+00	-7.617017e+00
1	 1.447115e+00	 9.938974e-01	-4.229173e+00
1	 1.428717e+00	 1.020168e+00	-4.801377e+00
1	 1.409812e+00	 1.046138e+00	-5.370157e+00
1	 1.390409e+00	 1.071792e+00	-5.932664e+00
1	 1.370516e+00	 1.097115e+00	-6.486046e+00
1	 1.350140e+00	 1.122094e+00	-7.027451e+00
1	 1.456274e+00	 1.000188e+00	-3.902575e+00
1	 1.437759e+00	 1.026625e+00	-4.417590e+00
1	 1.418735e+00	 1.052759e+00	-4.931186e+00
1	 1.399209e+00	 1.078575e+00	-5.440609e+00
1	 1.379190e+00	 1.104059e+00	-5.943095e+00
1	 1.358686e+00	 1.129196e+00	-6.435876e+00
1	 1.465433e+00	 1.006478e+00	-3.571832e+00
1	 1.446802e+00	 1.033082e+00	-4.030147e+00
1	 1.427658e+00	 1.059380e+00	-4.489022e+00
1	 1.408009e+00	 1.085359e+00	-4.945796e+00
1	 1.387864e+00	 1.111003e+00	-5.397793e+00
1	 1.367231e+00	 1.136298e+00	-5.842330e+00
1	 1.324505e+00	 1.100789e+00	-8.789969e+00
1	 1.304052e+00	 1.124943e+00	-8.701849e+00
1	 1.283145e+00	 1.148733e+00	-8.713822e+00
1	 1.261793e+00	 1.172147e+00	-8.831920e+00
1	 1.240006e+00	 1.195172e+00	-9.061890e+00
1	 1.217795e+00	 1.217795e+00	-9.409167e+00
1	 1.333050e+00	 1.107891e+00	-8.204537e+00
1	 1.312465e+00	 1.132201e+00	-8.120615e+00
1	 1.291423e+00	 1.156145e+00	-8.132430e+00
1	 1.269933e+00	 1.179709e+00	-8.245800e+00
1	 1.248006e+00	 1.202882e+00	-8.466267e+00
1	 1.225652e+00	 1.225652e+00	-8.799077e+00
1	 1.341595e+00	 1.114993e+00	-7.617017e+00
1	 1.320879e+00	 1.139459e+00	-7.535704e+00
1	 1.299702e+00	 1.163556e+00	-7.545826e+00
1	 1.278074e+00	 1.187272e+00	-7.652989e+00
1	 1.256006e+00	 1.210593e+00	-7.862535e+00
1	 1.233508e+00	 1.233508e+00	-8.179519e+00
1	 1.350140e+00	 1.122094e+00	-7.027451e+00
1	 1.329292e+00	 1.146716e+00	-6.947187e+00
1	 1.307980e+00	 1.170967e+00	-6.954110e+00
1	 1.286214e+00	 1.194834e+00	-7.053616e+00
1	 1.264006e+00	 1.218304e+00	-7.250847e+00
1	 1.241365e+00	 1.241365e+00	-7.550674e+00
1	 1.358686e+00	 1.129196e+00	-6.435876e+00
1	 1.337705e+00	 1.153974e+00	-6.355130e+00
1	 1.316258e+00	 1.178378e+00	-6.357377e+00
1	 1.294355e+00	 1.202396e+00	-6.447803e+00
1	 1.272006e+00	 1.226015e+00	-6.631354e+00
1	 1.249222e+00	 1.249222e+00	-6.912717e+00
1	 1.367231e+00	 1.136298e+00	-5.842330e+00
1	 1.346118e+00	 1.161232e+00	-5.759601e+00
1	 1.324537e+00	 1.185789e+00	-5.755721e+00
1	 1.302496e+00	 1.209958e+00	-5.835671e+00
1	 1.280006e+00	 1.233726e+00	-6.004202e+00
1	 1.257079e+00	 1.257079e+00	-6.265819e+00
1	 1.217795e+00	 1.217795e+00	-9.409167e+00
1	 1.195172e+00	 1.240006e+00	-9.996639e+00
1	 1.172147e+00	 1.261793e+00	-1.064649e+01
1	 1.148733e+00	 1.283145e+00	-1.136085e+01
1	 1.124943e+00	 1.304052e+00	-1.214164e+01
1	 1.100789e+00	 1.324505e+00	-1.299061e+01
1	 1.225652e+00	 1.225652e+00	-8.799077e+00
1	 1.202882e+00	 1.248006e+00	-9.354668e+00
1	 1.179709e+00	 1.269933e+00	-9.972756e+00
1	 1.156145e+00	 1.291423e+00	-1.065556e+01
1	 1.132201e+00	 1.312465e+00	-1.140511e+01
1	 1.107891e+00	 1.333050e+00	-1.222325e+01
1	 1.233508e+00	 1.233508e+00	-8.179519e+00
1	 1.210593e+00	 1.256006e+00	-8.703651e+00
1	 1.187272e+00	 1.278074e+00	-9.290391e+00
1	 1.163556e+00	 1.299702e+00	-9.942054e+00
1	 1.139459e+00	 1.320879e+00	-1.066077e+01
1	 1.114993e+00	 1.341595e+00	-1.144848e+01
1	 1.241365e+00	 1.241365e+00	-7.550674e+00
1	 1.218304e+00	 1.264006e+00	-8.043760e+00
1	 1.194834e+00	 1.286214e+00	-8.599561e+00
1	 1.170967e+00	 1.307980e+00	-9.220493e+00
1	 1.146716e+00	 1.329292e+00	-9.908780e+00
1	 1.122094e+00	 1.350140e+00	-1.066646e+01
1	 1.249222e+00	 1.249222e+00	-6.912717e+00
1	 1.226015e+00	 1.272006e+00	-7.375161e+00
1	 1.202396e+00	 1.294355e+00	-7.900427e+00
1	 1.178378e+00	 1.316258e+00	-8.491025e+00
1	 1.153974e+00	 1.337705e+00	-9.149278e+00
1	 1.129196e+00	 1.358686e+00	-9.877312e+00
1	 1.257079e+00	 1.257079e+00	-6.265819e+00
1	 1.233726e+00	 1.280006e+00	-6.698018e+00
1	 1.209958e+00	 1.302496e+00	-7.193143e+00
1	 1.185789e+00	 1.324537e+00	-7.753799e+00
1	 1.161232e+00	 1.346118e+00	-8.382405e+00
1	 1.136298e+00	 1.367231e+00	-9.081180e+00
1	 1.100789e+00	 1.324505e+00	-1.299061e+01
1	 1.076284e+00	 1.344493e+00	-1.469695e+01
1	 1.051441e+00	 1.364009e+00	-1.630030e+01
1	 1.026275e+00	 1.383044e+00	-1.779551e+01
1	 1.000798e+00	 1.401589e+00	-1.917779e+01
1	 9.750260e-01	 1.419639e+00	-2.044267e+01
1	 1.107891e+00	 1.333050e+00	-1.222325e+01
1	 1.083227e+00	 1.353168e+00	-1.385054e+01
1	 1.058225e+00	 1.372809e+00	-1.536969e+01
1	 1.032896e+00	 1.391967e+00	-1.677537e+01
1	 1.007255e+00	 1.410632e+00	-1.806260e+01
1	 9.813164e-01	 1.428798e+00	-1.922677e+01
1	 1.114993e+00	 1.341595e+00	-1.144848e+01
1	 1.090171e+00	 1.361842e+00	-1.299529e+01
1	 1.065008e+00	 1.381609e+00	-1.442887e+01
1	 1.039517e+00	 1.400889e+00	-1.574371e+01
1	 1.013712e+00	 1.419674e+00	-1.693466e+01
1	 9.876069e-01	 1.437957e+00	-1.799697e+01
1	 1.122094e+00	 1.350140e+00	-1.066646e+01
1	 1.097115e+00	 1.370516e+00	-1.213136e+01
1	 1.071792e+00	 1.390409e+00	-1.347803e+01
1	 1.046138e+00	 1.409812e+00	-1.470075e+01
1	 1.020168e+00	 1.428717e+00	-1.579422e+01
1	 9.938974e-01	 1.447115e+00	-1.675354e+01
1	 1.129196e+00	 1.358686e+00	-9.877312e+00
1	 1.104059e+00	 1.379190e+00	-1.125893e+01
1	 1.078575e+00	 1.399209e+00	-1.251736e+01
1	 1.052759e+00	 1.418735e+00	-1.364671e+01
1	 1.026625e+00	 1.437759e+00	-1.464151e+01
1	 1.000188e+00	 1.456274e+00	-1.549671e+01
1	 1.136298e+00	 1.367231e+00	-9.081180e+00
1	 1.111003e+00	 1.387864e+00	-1.037815e+01
1	 1.085359e+00	 1.408009e+00	-1.154704e+01
1	 1.059380e+00	 1.427658e+00	-1.258179e+01
1	 1.033082e+00	 1.446802e+00	-1.347676e+01
1	 1.006478e+00	 1.465433e+00	-1.422676e+01
1	 9.750260e-01	 1.419639e+00	-2.044267e+01
1	 9.489724e-01	 1.437185e+00	-2.158641e+01
1	 9.226521e-01	 1.454222e+00	-2.248090e+01
1	 8.960798e-01	 1.470745e+00	-2.311871e+01
1	 8.692702e-01	 1.486748e+00	-2.349326e+01
1	 8.422384e-01	 1.502226e+00	-2.359875e+01
1	 9.813164e-01	 1.428798e+00	-1.922677e+01
1	 9.550948e-01	 1.446457e+00	-2.024710e+01
1	 9.286047e-01	 1.463604e+00	-2.103969e+01
1	 9.018609e-01	 1.480234e+00	-2.159787e+01
1	 8.748784e-01	 1.496340e+00	-2.191569e+01
1	 8.476722e-01	 1.511918e+00	-2.198793e+01
1	 9.876069e-01	 1.437957e+00	-1.799697e+01
1	 9.612172e-01	 1.455729e+00	-1.889959e+01
1	 9.345573e-01	 1.472986e+00	-1.959573e+01
1	 9.076421e-01	 1.489722e+00	-2.007942e+01
1	 8.804866e-01	 1.505932e+00	-2.034536e+01
1	 8.531060e-01	 1.521610e+00	-2.038891e+01
1	 9.938974e-01	 1.447115e+00	-1.675354e+01
1	 9.673396e-01	 1.465001e+00	-1.754404e+01
1	 9.405099e-01	 1.482369e+00	-1.814906e+01
1	 9.134233e-01	 1.499211e+00	-1.856330e+01
1	 8.860948e-01	 1.515523e+00	-1.878212e+01
1	 8.585398e-01	 1.531302e+00	-1.880144e+01
1	 1.000188e+00	 1.456274e+00	-1.549671e+01
1	 9.734620e-01	 1.474274e+00	-1.618062e+01
1	 9.464625e-01	 1.491751e+00	-1.669973e+01
1	 9.192044e-01	 1.508700e+00	-1.704949e+01
1	 8.917030e-01	 1.525115e+00	-1.722585e+01
1	 8.639736e-01	 1.540993e+00	-1.722532e+01
1	 1.006478e+00	 1.465433e+00	-1.422676e+01
1	 9.795844e-01	 1.483546e+00	-1.480945e+01
1	 9.524151e-01	 1.501133e+00	-1.524780e+01
1	 9.249856e-01	 1.518188e+00	-1.553792e+01
1	 8.973112e-01	 1.534707e+00	-1.567642e+01
1	 8.694074e-01	 1.550685e+00	-1.566034e+01
1	 8.422384e-01	 1.502226e+00	-2.359875e+01
1	 8.149995e-01	 1.517177e+00	-2.313629e+01
1	 7.875685e-01	 1.531596e+00	-2.266504e+01
1	 7.599606e-01	 1.545480e+00	-2.218649e+01
1	 7.321909e-01	 1.558828e+00	-2.170213e+01
1	 7.042745e-01	 1.571638e+00	-2.121338e+01
1	 8.476722e-01	 1.511918e+00	-2.198793e+01
1	 8.202576e-01	 1.526965e+00	-2.155002e+01
1	 7.926496e-01	 1.541477e+00	-2.109809e+01
1	 7.648635e-01	 1.555451e+00	-2.063338e+01
1	 7.369147e-01	 1.568885e+00	-2.015712e+01
1	 7.088182e-01	 1.581778e+00	-1.967055e+01
1	 8.531060e-01	 1.521610e+00	-2.038891e+01
1	 8.255156e-01	 1.536753e+00	-1.997351e+01
1	 7.977307e-01	 1.551358e+00	-1.953894e+01
1	 7.697665e-01	 1.565422e+00	-1.908619e+01
1	 7.416385e-01	 1.578942e+00	-1.861626e+01
1	 7.133619e-01	 1.591917e+00	-1.813017e+01
1	 8.585398e-01	 1.531302e+00	-1.880144e+01
1	 8.307737e-01	 1.546541e+00	-1.840656e+01
1	 8.028118e-01	 1.561239e+00	-1.798744e+01
1	 7.746695e-01	 1.575393e+00	-1.754481e+01
1	 7.463623e-01	 1.588999e+00	-1.707946e+01
1	 7.179056e-01	 1.602057e+00	-1.659219e+01
1	 8.639736e-01	 1.540993e+00	-1.722532e+01
1	 8.360317e-01	 1.556330e+00	-1.684900e+01
1	 8.078928e-01	 1.571121e+00	-1.644344e+01
1	 7.795725e-01	 1.585364e+00	-1.600914e+01
1	 7.510861e-01	 1.599056e+00	-1.554665e+01
1	 7.224494e-01	 1.612197e+00	-1.505656e+01
1	 8.694074e-01	 1.550685e+00	-1.566034e+01
1	 8.412898e-01	 1.566118e+00	-1.530064e+01
1	 8.129739e-01	 1.581002e+00	-1.490681e+01
1	 7.844754e-01	 1.595334e+00	-1.447907e+01
1	 7.558099e-01	 1.609113e+00	-1.401775e+01
1	 7.269931e-01	 1.622336e+00	-1.352324e+01
1	 7.042745e-01	 1.571638e+00	-2.121338e+01
1	 6.762266e-01	 1.583909e+00	-2.032722e+01
1	 6.480622e-01	 1.595639e+00	-1.960582e+01
1	 6.197961e-01	 1.606830e+00	-1.905160e+01
1	 5.914432e-01	 1.617481e+00	-1.866644e+01
1	 5.630181e-01	 1.627593e+00	-1.845173e+01
1	 7.088182e-01	 1.581778e+00	-1.967055e+01
1	 6.805894e-01	 1.594128e+00	-1.880521e+01
1	 6.522432e-01	 1.605934e+00	-1.810325e+01
1	 6.237948e-01	 1.617197e+00	-1.756710e+01
1	 5.952589e-01	 1.627916e+00	-1.719868e+01
1	 5.666505e-01	 1.638094e+00	-1.699940e+01
1	 7.133619e-01	 1.591917e+00	-1.813017e+01
1	 6.849521e-01	 1.604346e+00	-1.728560e+01
1	 6.564243e-01	 1.616228e+00	-1.660305e+01
1	 6.277934e-01	 1.627563e+00	-1.608498e+01
1	 5.990747e-01	 1.638352e+00	-1.573332e+01
1	 5.702829e-01	 1.648595e+00	-1.554952e+01
1	 7.179056e-01	 1.602057e+00	-1.659219e+01
1	 6.893149e-01	 1.614565e+00	-1.576835e+01
1	 6.606053e-01	 1.626523e+00	-1.510520e+01
1	 6.317921e-01	 1.637930e+00	-1.460520e+01
1	 6.028904e-01	 1.648787e+00	-1.427033e+01
1	 5.739152e-01	 1.659095e+00	-1.410206e+01
1	 7.224494e-01	 1.612197e+00	-1.505656e+01
1	 6.936776e-01	 1.624784e+00	-1.425342e+01
1	 6.647863e-01	 1.636817e+00	-1.360963e+01
1	 6.357908e-01	 1.648296e+00	-1.312771e+01
1	 6.067062e-01	 1.659222e+00	-1.280965e+01
1	 5.775476e-01	 1.669596e+00	-1.265697e+01
1	 7.269931e-01	 1.622336e+00	-1.352324e+01
1	 6.980404e-01	 1.635003e+00	-1.274075e+01
1	 6.689674e-01	 1.647112e+00	-1.211632e+01
1	 6.397895e-01	 1.658663e+00	-1.165248e+01
1	 6.105220e-01	 1.669658e+00	-1.135126e+01
1	 5.811800e-01	 1.680096e+00	-1.121419e+01
1	 5.630181e-01	 1.627593e+00	-1.845173e+01
1	 5.345354e-01	 1.637169e+00	-1.821565e+01
1	 5.060094e-01	 1.646209e+00	-1.834865e+01
1	 4.774543e-01	 1.654717e+00	-1.885094e+01
1	 4.488840e-01	 1.662694e+00	-1.972172e+01
1	 4.203122e-01	 1.670146e+00	-2.095921e+01
1	 5.666505e-01	 1.638094e+00	-1.699940e+01
1	 5.379840e-01	 1.647731e+00	-1.679731e+01
1	 5.092740e-01	 1.656830e+00	-1.695683e+01
1	 4.805347e-01	 1.665392e+00	-1.747812e+01
1	 4.517800e-01	 1.673421e+00	-1.836035e+01
1	 4.230239e-01	 1.680921e+00	-1.960176e+01
1	 5.702829e-01	 1.648595e+00	-1.554952e+01
1	 5.414327e-01	 1.658293e+00	-1.538022e+01
1	 5.125386e-01	 1.667450e+00	-1.556516e+01
1	 4.836150e-01	 1.676068e+00	-1.610445e+01
1	 4.546761e-01	 1.684148e+00	-1.699726e+01
1	 4.257356e-01	 1.691696e+00	-1.824179e+01
1	 5.739152e-01	 1.659095e+00	-1.410206e+01
1	 5.448813e-01	 1.668856e+00	-1.396437e+01
1	 5.158032e-01	 1.678071e+00	-1.417364e+01
1	 4.866954e-01	 1.686743e+00	-1.472996e+01
1	 4.575721e-01	 1.694876e+00	-1.563247e+01
1	 4.284472e-01	 1.702471e+00	-1.687936e+01
1	 5.775476e-01	 1.669596e+00	-1.265697e+01
1	 5.483299e-01	 1.679418e+00	-1.254972e+01
1	 5.190678e-01	 1.688692e+00	-1.278227e+01
1	 4.897757e-01	 1.697419e+00	-1.335467e+01
1	 4.604681e-01	 1.705603e+00	-1.426601e+01
1	 4.311589e-01	 1.713246e+00	-1.551450e+01
1	 5.811800e-01	 1.680096e+00	-1.121419e+01
1	 5.517785e-01	 1.689981e+00	-1.113625e+01
1	 5.223323e-01	 1.699312e+00	-1.139105e+01
1	 4.928561e-01	 1.708094e+00	-1.197858e+01
1	 4.633641e-01	 1.716330e+00	-1.289792e+01
1	 4.338706e-01	 1.724021e+00	-1.414728e+01
1	 4.203122e-01	 1.670146e+00	-2.095921e+01
1	 3.917523e-01	 1.677075e+00	-2.258029e+01
1	 3.632175e-01	 1.683485e+00	-2.452633e+01
1	 3.347208e-01	 1.689382e+00	-2.679318e+01
1	 3.062747e-01	 1.694770e+00	-2.937593e+01
1	 2.778917e-01	 1.699655e+00	-3.226896e+01
1	 4.230239e-01	 1.680921e+00	-1.960176e+01
1	 3.942797e-01	 1.687895e+00	-2.122087e+01
1	 3.655608e-01	 1.694346e+00	-2.316437e+01
1	 3.368803e-01	 1.700281e+00	-2.542813e+01
1	 3.082507e-01	 1.705704e+00	-2.800727e+01
1	 2.796845e-01	 1.710620e+00	-3.089620e+01
1	 4.257356e-01	 1.691696e+00	-1.824179e+01
1	 3.968071e-01	 1.698714e+00	-1.985899e+01
1	 3.679042e-01	 1.705208e+00	-2.180002e+01
1	 3.390398e-01	 1.711180e+00	-2.406077e+01
1	 3.102267e-01	 1.716638e+00	-2.663639e+01
1	 2.814773e-01	 1.721586e+00	-2.952133e+01
1	 4.284472e-01	 1.702471e+00	-1.687936e+01
1	 3.993346e-01	 1.709534e+00	-1.849469e+01
1	 3.702475e-01	 1.716069e+00	-2.043331e+01
1	 3.411993e-01	 1.722080e+00	-2.269114e+01
1	 3.122026e-01	 1.727572e+00	-2.526334e+01
1	 2.832702e-01	 1.732551e+00	-2.814438e+01
1	 4.311589e-01	 1.713246e+00	-1.551450e+01
1	 4.018620e-01	 1.720354e+00	-1.712804e+01
1	 3.725909e-01	 1.726930e+00	-1.906431e+01
1	 3.433587e-01	 1.732979e+00	-2.131929e+01
1	 3.141786e-01	 1.738506e+00	-2.388815e+01
1	 2.850630e-01	 1.743517e+00	-2.676540e+01
1	 4.338706e-01	 1.724021e+00	-1.414728e+01
1	 4.043894e-01	 1.731174e+00	-1.575905e+01
1	 3.749342e-01	 1.737791e+00	-1.769305e+01
1	 3.455182e-01	 1.743878e+00	-1.994525e+01
1	 3.161546e-01	 1.749440e+00	-2.251087e+01
1	 2.868559e-01	 1.754482e+00	-2.538442e+01
1	 2.778917e-01	 1.699655e+00	-3.226896e+01
1	 2.495836e-01	 1.704041e+00	-3.541897e+01
1	 2.213622e-01	 1.707937e+00	-3.859864e+01
1	 1.932388e-01	 1.711347e+00	-4.180473e+01
1	 1.652244e-01	 1.714278e+00	-4.503401e+01
1	 1.373297e-01	 1.716738e+00	-4.828324e+01
1	 2.796845e-01	 1.710620e+00	-3.089620e+01
1	 2.511938e-01	 1.715035e+00	-3.403414e+01
1	 2.227903e-01	 1.718956e+00	-3.720048e+01
1	 1.944855e-01	 1.722388e+00	-4.039201e+01
1	 1.662904e-01	 1.725338e+00	-4.360554e+01
1	 1.382157e-01	 1.727814e+00	-4.683786e+01
1	 2.814773e-01	 1.721586e+00	-2.952133e+01
1	 2.528040e-01	 1.726029e+00	-3.264727e+01
1	 2.242184e-01	 1.729975e+00	-3.580036e+01
1	 1.957322e-01	 1.733429e+00	-3.897744e+01
1	 1.673563e-01	 1.736398e+00	-4.217535e+01
1	 1.391017e-01	 1.738890e+00	-4.539090e+01
1	 2.832702e-01	 1.732551e+00	-2.814438e+01
1	 2.544142e-01	 1.737023e+00	-3.125838e+01
1	 2.256466e-01	 1.740994e+00	-3.439831e+01
1	 1.969789e-01	 1.744470e+00	-3.756105e+01
1	 1.684223e-01	 1.747458e+00	-4.074346e+01
1	 1.399877e-01	 1.749965e+00	-4.394239e+01
1	 2.850630e-01	 1.743517e+00	-2.676540e+01
1	 2.560244e-01	 1.748017e+00	-2.986751e+01
1	 2.270747e-01	 1.752013e+00	-3.299437e+01
1	 1.982256e-01	 1.755511e+00	-3.614287e+01
1	 1.694883e-01	 1.758518e+00	-3.930991e+01
1	 1.408737e-01	 1.761041e+00	-4.249237e+01
1	 2.868559e-01	 1.754482e+00	-2.538442e+01
1	 2.576346e-01	 1.759011e+00	-2.847471e+01
1	 2.285029e-01	 1.763032e+00	-3.158857e+01
1	 1.994723e-01	 1.766552e+00	-3.472294e+01
1	 1.705542e-01	 1.769578e+00	-3.787472e+01
1	 1.417597e-01	 1.772117e+00	-4.104084e+01
1	 1.373297e-01	 1.716738e+00	-4.828324e+01
1	 1.095651e-01	 1.718734e+00	-5.136276e+01
1	 8.194036e-02	 1.720272e+00	-5.423780e+01
1	 5.446519e-02	 1.721361e+00	-5.690961e+01
1	 2.714878e-02	 1.722008e+00	-5.937984e+01
1	 0.000000e+00	 1.722222e+00	-6.165054e+01
1	 1.382157e-01	 1.727814e+00	-4.683786e+01
1	 1.102719e-01	 1.729822e+00	-4.990121e+01
1	 8.246900e-02	 1.731370e+00	-5.276518e+01
1	 5.481657e-02	 1.732466e+00	-5.543099e+01
1	 2.732394e-02	 1.733118e+00	-5.790026e+01
1	 0.000000e+00	 1.733333e+00	-6.017498e+01
1	 1.391017e-01	 1.738890e+00	-4.539090e+01
1	 1.109788e-01	 1.740911e+00	-4.843868e+01
1	 8.299765e-02	 1.742469e+00	-5.129212e+01
1	 5.516796e-02	 1.743572e+00	-5.395242e+01
1	 2.749909e-02	 1.744228e+00	-5.642114e+01
1	 0.000000e+00	 1.744444e+00	-5.870024e+01
1	 1.399877e-01	 1.749965e+00	-4.394239e+01
1	 1.116857e-01	 1.751999e+00	-4.697519e+01
1	 8.352630e-02	 1.753567e+00	-4.981864e+01
1	 5.551935e-02	 1.754677e+00	-5.247389e+01
1	 2.767424e-02	 1.755337e+00	-5.494248e+01
1	 0.000000e+00	 1.755556e+00	-5.722630e+01
1	 1.408737e-01	 1.761041e+00	-4.249237e+01
1	 1.123926e-01	 1.763088e+00	-4.551076e+01
1	 8.405495e-02	 1.764666e+00	-4.834473e+01
1	 5.587074e-02	 1.765783e+00	-5.099540e+01
1	 2.784940e-02	 1.766447e+00	-5.346425e+01
1	 0.000000e+00	 1.766667e+00	-5.575314e+01
1	 1.417597e-01	 1.772117e+00	-4.104084e+01
1	 1.130994e-01	 1.774177e+00	-4.404541e+01
1	 8.458359e-02	 1.775764e+00	-4.687041e+01
1	 5.622213e-02	 1.776889e+00	-4.951694e+01
1	 2.802455e-02	 1.777557e+00	-5.198646e+01
1	 0.000000e+00	 1.777778e+00	-5.428076e+01
1	 1.777778e+00	 0.000000e+00	 1.008009e+01
1	 1.777557e+00	 2.802455e-02	 9.753367e+00
1	 1.776889e+00	 5.622213e-02	 9.390712e+00
1	 1.775764e+00	 8.458359e-02	 8.990799e+00
1	 1.774177e+00	 1.130994e-01	 8.552339e+00
1	 1.772117e+00	 1.417597e-01	 8.074086e+00
1	 1.788889e+00	 0.000000e+00	 9.634968e+00
1	 1.788667e+00	 2.819970e-02	 9.313275e+00
1	 1.787994e+00	 5.657352e-02	 8.957829e+00
1	 1.786863e+00	 8.511224e-02	 8.567377e+00
1	 1.785265e+00	 1.138063e-01	 8.140697e+00
1	 1.783193e+00	 1.426457e-01	 7.676609e+00
1	 1.800000e+00	 0.000000e+00	 9.193992e+00
1	 1.799776e+00	 2.837486e-02	 8.877642e+00
1	 1.799100e+00	 5.692490e-02	 8.529699e+00
1	 1.797962e+00	 8.564089e-02	 8.148978e+00
1	 1.796354e+00	 1.145132e-01	 7.734328e+00
1	 1.794268e+00	 1.435317e-01	 7.284630e+00
1	 1.811111e+00	 0.000000e+00	 8.757085e+00
1	 1.810886e+00	 2.855001e-02	 8.446386e+00
1	 1.810205e+00	 5.727629e-02	 8.106233e+00
1	 1.809060e+00	 8.616954e-02	 7.735512e+00
1	 1.807442e+00	 1.152200e-01	 7.333135e+00
1	 1.805344e+00	 1.444177e-01	 6.898047e+00
1	 1.822222e+00	 0.000000e+00	 8.324171e+00
1	 1.821996e+00	 2.872516e-02	 8.019426e+00
1	 1.821311e+00	 5.762768e-02	 7.687347e+00
1	 1.820159e+00	 8.669818e-02	 7.326886e+00
1	 1.818531e+00	 1.159269e-01	 6.937022e+00
1	 1.816420e+00	 1.453037e-01	 6.516763e+00
1	 1.833333e+00	 0.000000e+00	 7.895177e+00
1	 1.833106e+00	 2.890032e-02	 7.596685e+00
1	 1.832416e+00	 5.797907e-02	 7.272957e+00
1	 1.831257e+00	 8.722683e-02	 6.923014e+00
1	 1.829620e+00	 1.166338e-01	 6.545899e+00
1	 1.827495e+00	 1.461897e-01	 6.140681e+00
1	 1.772117e+00	 1.417597e-01	 8.074086e+00
1	 1.769578e+00	 1.705542e-01	 7.503430e+00
1	 1.766552e+00	 1.994723e-01	 6.927096e+00
1	 1.763032e+00	 2.285029e-01	 6.345097e+00
1	 1.759011e+00	 2.576346e-01	 5.757448e+00
1	 1.754482e+00	 2.868559e-01	 5.164165e+00
1	 1.783193e+00	 1.426457e-01	 7.676609e+00
1	 1.780638e+00	 1.716202e-01	 7.125298e+00
1	 1.777593e+00	 2.007190e-01	 6.568007e+00
1	 1.774051e+00	 2.299310e-01	 6.004746e+00
1	 1.770004e+00	 2.592449e-01	 5.435527e+00
1	 1.765448e+00	 2.886487e-01	 4.860364e+00
1	 1.794268e+00	 1.435317e-01	 7.284630e+00
1	 1.791697e+00	 1.726861e-01	 6.752739e+00
1	 1.788634e+00	 2.019657e-01	 6.214576e+00
1	 1.785069e+00	 2.313592e-01	 5.670145e+00
1	 1.780998e+00	 2.608551e-01	 5.119458e+00
1	 1.776413e+00	 2.904416e-01	 4.562527e+00
1	 1.805344e+00	 1.444177e-01	 6.898047e+00
1	 1.802757e+00	 1.737521e-01	 6.385650e+00
1	 1.799674e+00	 2.032124e-01	 5.866696e+00
1	 1.796088e+00	 2.327873e-01	 5.341188e+00
1	 1.791992e+00	 2.624653e-01	 4.809133e+00
1	 1.787379e+00	 2.922344e-01	 4.270544e+00
1	 1.816420e+00	 1.453037e-01	 6.516763e+00
1	 1.813817e+00	 1.748181e-01	 6.023932e+00
1	 1.810715e+00	 2.044591e-01	 5.524268e+00
1	 1.807107e+00	 2.342154e-01	 5.017772e+00
1	 1.802986e+00	 2.640755e-01	 4.504448e+00
1	 1.798344e+00	 2.940273e-01	 3.984308e+00
1	 1.827495e+00	 1.461897e-01	 6.140681e+00
1	 1.824877e+00	 1.758840e-01	 5.667485e+00
1	 1.821756e+00	 2.057058e-01	 5.187191e+00
1	 1.818126e+00	 2.356436e-01	 4.699795e+00
1	 1.813980e+00	 2.656857e-01	 4.205299e+00
1	 1.809310e+00	 2.958201e-01	 3.703715e+00
1	 1.754482e+00	 2.868559e-01	 5.164165e+00
1	 1.749440e+00	 3.161546e-01	 4.481893e+00
1	 1.743878e+00	 3.455182e-01	 3.846375e+00
1	 1.737791e+00	 3.749342e-01	 3.258739e+00
1	 1.731174e+00	 4.043894e-01	 2.720008e+00
1	 1.724021e+00	 4.338706e-01	 2.231086e+00
1	 1.765448e+00	 2.886487e-01	 4.860364e+00
1	 1.760374e+00	 3.181305e-01	 4.198799e+00
1	 1.754777e+00	 3.476777e-01	 3.583193e+00
1	 1.748652e+00	 3.772775e-01	 3.014736e+00
1	 1.741994e+00	 4.069169e-01	 2.494513e+00
1	 1.734797e+00	 4.365823e-01	 2.023497e+00
1	 1.776413e+00	 2.904416e-01	 4.562527e+00
1	 1.771308e+00	 3.201065e-01	 3.922229e+00
1	 1.765677e+00	 3.498372e-01	 3.327115e+00
1	 1.759514e+00	 3.796209e-01	 2.778433e+00
1	 1.752814e+00	 4.094443e-01	 2.277332e+00
1	 1.745572e+00	 4.392940e-01	 1.824851e+00
1	 1.787379e+00	 2.922344e-01	 4.270544e+00
1	 1.782242e+00	 3.220825e-01	 3.652063e+00
1	 1.776576e+00	 3.519967e-01	 3.078008e+00
1	 1.770375e+00	 3.819642e-01	 2.549687e+00
1	 1.763633e+00	 4.119717e-01	 2.068310e+00
1	 1.756347e+00	 4.420057e-01	 1.634982e+00
1	 1.798344e+00	 2.940273e-01	 3.984308e+00
1	 1.793176e+00	 3.240584e-01	 3.388184e+00
1	 1.787475e+00	 3.541562e-01	 2.835747e+00
1	 1.781236e+00	 3.843076e-01	 2.328361e+00
1	 1.774453e+00	 4.144992e-01	 1.867298e+00
1	 1.767122e+00	 4.447174e-01	 1.453731e+00
1	 1.809310e+00	 2.958201e-01	 3.703715e+00
1	 1.804110e+00	 3.260344e-01	 3.130478e+00
1	 1.798374e+00	 3.563157e-01	 2.600205e+00
1	 1.792097e+00	 3.866509e-01	 2.114318e+00
1	 1.785273e+00	 4.170266e-01	 1.674151e+00
1	 1.777897e+00	 4.474291e-01	 1.280940e+00
1	 1.724021e+00	 4.338706e-01	 2.231086e+00
1	 1.716330e+00	 4.633641e-01	 1.870126e+00
1	 1.708094e+00	 4.928561e-01	 1.552920e+00
1	 1.699312e+00	 5.223323e-01	 1.278890e+00
1	 1.689981e+00	 5.517785e-01	 1.047309e+00
1	 1.680096e+00	 5.811800e-01	 8.573055e-01
1	 1.734797e+00	 4.365823e-01	 2.023497e+00
1	 1.727057e+00	 4.662602e-01	 1.672983e+00
1	 1.718770e+00	 4.959364e-01	 1.365727e+00
1	 1.709933e+00	 5.255969e-01	 1.101197e+00
1	 1.700543e+00	 5.552271e-01	 8.787217e-01
1	 1.690597e+00	 5.848124e-01	 6.974817e-01
1	 1.745572e+00	 4.392940e-01	 1.824851e+00
1	 1.737784e+00	 4.691562e-01	 1.485239e+00
1	 1.729446e+00	 4.990168e-01	 1.188404e+00
1	 1.720554e+00	 5.288615e-01	 9.338613e-01
1	 1.711105e+00	 5.586757e-01	 7.209895e-01
1	 1.701098e+00	 5.884447e-01	 5.490251e-01
1	 1.756347e+00	 4.420057e-01	 1.634982e+00
1	 1.748511e+00	 4.720522e-01	 1.306723e+00
1	 1.740121e+00	 5.020971e-01	 1.020771e+00
1	 1.731175e+00	 5.321261e-01	 7.766914e-01
1	 1.721668e+00	 5.621243e-01	 5.739132e-01
1	 1.711598e+00	 5.920771e-01	 4.117267e-01
1	 1.767122e+00	 4.447174e-01	 1.453731e+00
1	 1.759238e+00	 4.749482e-01	 1.137264e+00
1	 1.750797e+00	 5.051775e-01	 8.626500e-01
1	 1.741795e+00	 5.353906e-01	 6.295016e-01
1	 1.732230e+00	 5.655730e-01	 4.372978e-01
1	 1.722099e+00	 5.957095e-01	 2.853823e-01
1	 1.777897e+00	 4.474291e-01	 1.280940e+00
1	 1.769965e+00	 4.778443e-01	 9.766983e-01
1	 1.761472e+00	 5.082578e-01	 7.138686e-01
1	 1.752416e+00	 5.386552e-01	 4.921105e-01
1	 1.742792e+00	 5.690216e-01	 3.109530e-01
1	 1.732599e+00	 5.993419e-01	 1.697928e-01
1	 1.680096e+00	 5.811800e-01	 8.573055e-01
1	 1.669658e+00	 6.105220e-01	 7.939049e-01
1	 1.658663e+00	 6.397895e-01	 7.331056e-01
1	 1.647112e+00	 6.689674e-01	 6.730183e-01
1	 1.635003e+00	 6.980404e-01	 6.116970e-01
1	 1.622336e+00	 7.269931e-01	 5.471440e-01
1	 1.690597e+00	 5.848124e-01	 6.974817e-01
1	 1.680093e+00	 6.143377e-01	 6.414727e-01
1	 1.669030e+00	 6.437882e-01	 5.887559e-01
1	 1.657406e+00	 6.731484e-01	 5.374858e-01
1	 1.645221e+00	 7.024031e-01	 4.857600e-01
1	 1.632476e+00	 7.315368e-01	 4.316241e-01
1	 1.701098e+00	 5.884447e-01	 5.490251e-01
1	 1.690528e+00	 6.181535e-01	 5.007511e-01
1	 1.679396e+00	 6.477869e-01	 4.564597e-01
1	 1.667700e+00	 6.773295e-01	 4.143487e-01
1	 1.655440e+00	 7.067659e-01	 3.725589e-01
1	 1.642615e+00	 7.360805e-01	 3.291785e-01
1	 1.711598e+00	 5.920771e-01	 4.117267e-01
1	 1.700964e+00	 6.219693e-01	 3.715245e-01
1	 1.689763e+00	 6.517855e-01	 3.359950e-01
1	 1.677995e+00	 6.815105e-01	 3.033788e-01
1	 1.665659e+00	 7.111286e-01	 2.718591e-01
1	 1.652755e+00	 7.406242e-01	 2.395666e-01
1	 1.722099e+00	 5.957095e-01	 2.853823e-01
1	 1.711399e+00	 6.257850e-01	 2.535828e-01
1	 1.700130e+00	 6.557842e-01	 2.271456e-01
1	 1.688289e+00	 6.856916e-01	 2.043535e-01
1	 1.675878e+00	 7.154914e-01	 1.834321e-01
1	 1.662895e+00	 7.451679e-01	 1.625537e-01
1	 1.732599e+00	 5.993419e-01	 1.697928e-01
1	 1.721834e+00	 6.296008e-01	 1.467207e-01
1	 1.710496e+00	 6.597829e-01	 1.297001e-01
1	 1.698584e+00	 6.898726e-01	 1.170557e-01
1	 1.686096e+00	 7.198541e-01	 1.070546e-01
1	 1.673034e+00	 7.497116e-01	 9.791056e-02
1	 1.622336e+00	 7.269931e-01	 5.471440e-01
1	 1.609113e+00	 7.558099e-01	 3.561198e-01
1	 1.595334e+00	 7.844754e-01	 1.523757e-01
1	 1.581002e+00	 8.129739e-01	-6.311103e-02
1	 1.566118e+00	 8.412898e-01	-2.893294e-01
1	 1.550685e+00	 8.694074e-01	-5.252380e-01
1	 1.632476e+00	 7.315368e-01	 4.316241e-01
1	 1.619170e+00	 7.605337e-01	 2.699619e-01
1	 1.605305e+00	 7.893784e-01	 9.441829e-02
1	 1.590883e+00	 8.180550e-01	-9.422931e-02
1	 1.575906e+00	 8.465479e-01	-2.951687e-01
1	 1.560377e+00	 8.748412e-01	-5.075547e-01
1	 1.642615e+00	 7.360805e-01	 3.291785e-01
1	 1.629227e+00	 7.652576e-01	 1.957009e-01
1	 1.615276e+00	 7.942814e-01	 4.719836e-02
1	 1.600764e+00	 8.231361e-01	-1.157502e-01
1	 1.585694e+00	 8.518059e-01	-2.925291e-01
1	 1.570069e+00	 8.802750e-01	-4.824879e-01
1	 1.652755e+00	 7.406242e-01	 2.395666e-01
1	 1.639284e+00	 7.699814e-01	 1.331181e-01
1	 1.625247e+00	 7.991843e-01	 1.051824e-02
1	 1.610646e+00	 8.282172e-01	-1.278502e-01
1	 1.595483e+00	 8.570640e-01	-2.815668e-01
1	 1.579761e+00	 8.857088e-01	-4.501736e-01
1	 1.662895e+00	 7.451679e-01	 1.625537e-01
1	 1.649341e+00	 7.747052e-01	 8.199961e-02
1	 1.635218e+00	 8.040873e-01	-1.581486e-02
1	 1.620527e+00	 8.332983e-01	-1.307018e-01
1	 1.605271e+00	 8.623220e-01	-2.624339e-01
1	 1.589452e+00	 8.911426e-01	-4.107442e-01
1	 1.673034e+00	 7.497116e-01	 9.791056e-02
1	 1.659398e+00	 7.794290e-01	 4.213715e-02
1	 1.645189e+00	 8.089903e-01	-3.198907e-02
1	 1.630408e+00	 8.383794e-01	-1.244731e-01
1	 1.615059e+00	 8.675801e-01	-2.352791e-01
1	 1.599144e+00	 8.965764e-01	-3.643292e-01
1	 1.550685e+00	 8.694074e-01	-5.252380e-01
1	 1.534707e+00	 8.973112e-01	-1.154112e+00
1	 1.518188e+00	 9.249856e-01	-1.777314e+00
1	 1.501133e+00	 9.524151e-01	-2.390745e+00
1	 1.483546e+00	 9.795844e-01	-2.990290e+00
1	 1.465433e+00	 1.006478e+00	-3.571832e+00
1	 1.560377e+00	 8.748412e-01	-5.075547e-01
1	 1.544299e+00	 9.029194e-01	-1.094690e+00
1	 1.527677e+00	 9.307667e-01	-1.673233e+00
1	 1.510515e+00	 9.583677e-01	-2.239097e+00
1	 1.492818e+00	 9.857069e-01	-2.788189e+00
1	 1.474592e+00	 1.012769e+00	-3.316420e+00
1	 1.570069e+00	 8.802750e-01	-4.824879e-01
1	 1.553891e+00	 9.085276e-01	-1.028058e+00
1	 1.537166e+00	 9.365479e-01	-1.562149e+00
1	 1.519897e+00	 9.643203e-01	-2.080686e+00
1	 1.502090e+00	 9.918293e-01	-2.579595e+00
1	 1.483751e+00	 1.019059e+00	-3.054818e+00
1	 1.579761e+00	 8.857088e-01	-4.501736e-01
1	 1.563483e+00	 9.141358e-01	-9.543506e-01
1	 1.546654e+00	 9.423291e-01	-1.444192e+00
1	 1.529279e+00	 9.702729e-01	-1.915635e+00
1	 1.511362e+00	 9.979517e-01	-2.364628e+00
1	 1.492910e+00	 1.025350e+00	-2.787140e+00
1	 1.589452e+00	 8.911426e-01	-4.107442e-01
1	 1.573075e+00	 9.197440e-01	-8.736959e-01
1	 1.556143e+00	 9.481102e-01	-1.319487e+00
1	 1.538661e+00	 9.762255e-01	-1.744067e+00
1	 1.520634e+00	 1.004074e+00	-2.143405e+00
1	 1.502069e+00	 1.031640e+00	-2.513497e+00
1	 1.599144e+00	 8.965764e-01	-3.643292e-01
1	 1.582667e+00	 9.253522e-01	-7.862206e-01
1	 1.565632e+00	 9.538914e-01	-1.188157e+00
1	 1.548043e+00	 9.821781e-01	-1.566100e+00
1	 1.529907e+00	 1.010196e+00	-1.916038e+00
1	 1.511228e+00	 1.037931e+00	-2.233998e+00
1	 1.465433e+00	 1.006478e+00	-3.571832e+00
1	 1.446802e+00	 1.033082e+00	-4.030147e+00
1	 1.427658e+00	 1.059380e+00	-4.489022e+00
1	 1.408009e+00	 1.085359e+00	-4.945796e+00
1	 1.387864e+00	 1.111003e+00	-5.397793e+00
1	 1.367231e+00	 1.136298e+00	-5.842330e+00
1	 1.474592e+00	 1.012769e+00	-3.316420e+00
1	 1.455844e+00	 1.039539e+00	-3.729186e+00
1	 1.436581e+00	 1.066001e+00	-4.143606e+00
1	 1.416810e+00	 1.092142e+00	-4.557282e+00
1	 1.396538e+00	 1.117946e+00	-4.967799e+00
1	 1.375776e+00	 1.143400e+00	-5.372730e+00
1	 1.483751e+00	 1.019059e+00	-3.054818e+00
1	 1.464887e+00	 1.045995e+00	-3.423582e+00
1	 1.445504e+00	 1.072622e+00	-3.795080e+00
1	 1.425610e+00	 1.098925e+00	-4.167176e+00
1	 1.405213e+00	 1.124890e+00	-4.537712e+00
1	 1.384321e+00	 1.150502e+00	-4.904516e+00
1	 1.492910e+00	 1.025350e+00	-2.787140e+00
1	 1.473929e+00	 1.052452e+00	-3.113421e+00
1	 1.454427e+00	 1.079244e+00	-3.443503e+00
1	 1.434410e+00	 1.105709e+00	-3.775508e+00
1	 1.413887e+00	 1.131834e+00	-4.107534e+00
1	 1.392866e+00	 1.157604e+00	-4.437662e+00
1	 1.502069e+00	 1.031640e+00	-2.513497e+00
1	 1.482972e+00	 1.058909e+00	-2.798786e+00
1	 1.463349e+00	 1.085865e+00	-3.088930e+00
1	 1.443210e+00	 1.112492e+00	-3.382306e+00
1	 1.422561e+00	 1.138778e+00	-3.677267e+00
1	 1.401412e+00	 1.164706e+00	-3.972143e+00
1	 1.511228e+00	 1.037931e+00	-2.233998e+00
1	 1.492014e+00	 1.065366e+00	-2.479758e+00
1	 1.472272e+00	 1.092486e+00	-2.731414e+00
1	 1.452010e+00	 1.119276e+00	-2.987598e+00
1	 1.431235e+00	 1.145721e+00	-3.246912e+00
1	 1.409957e+00	 1.171808e+00	-3.507935e+00
1	 1.367231e+00	 1.136298e+00	-5.842330e+00
1	 1.346118e+00	 1.161232e+00	-5.759601e+00
1	 1.324537e+00	 1.185789e+00	-5.755721e+00
1	 1.302496e+00	 1.209958e+00	-5.835671e+00
1	 1.280006e+00	 1.233726e+00	-6.004202e+00
1	 1.257079e+00	 1.257079e+00	-6.265819e+00
1	 1.375776e+00	 1.143400e+00	-5.372730e+00
1	 1.354532e+00	 1.168489e+00	-5.294484e+00
1	 1.332815e+00	 1.193201e+00	-5.291893e+00
1	 1.310636e+00	 1.217520e+00	-5.369692e+00
1	 1.288006e+00	 1.241436e+00	-5.532394e+00
1	 1.264935e+00	 1.264935e+00	-5.784278e+00
1	 1.384321e+00	 1.150502e+00	-4.904516e+00
1	 1.362945e+00	 1.175747e+00	-4.829073e+00
1	 1.341093e+00	 1.200612e+00	-4.826132e+00
1	 1.318777e+00	 1.225083e+00	-4.900184e+00
1	 1.296006e+00	 1.249147e+00	-5.055506e+00
1	 1.272792e+00	 1.272792e+00	-5.296152e+00
1	 1.392866e+00	 1.157604e+00	-4.437662e+00
1	 1.371358e+00	 1.183005e+00	-4.363375e+00
1	 1.349372e+00	 1.208023e+00	-4.358475e+00
1	 1.326917e+00	 1.232645e+00	-4.427212e+00
1	 1.304006e+00	 1.256858e+00	-4.573632e+00
1	 1.280649e+00	 1.280649e+00	-4.801563e+00
1	 1.401412e+00	 1.164706e+00	-3.972143e+00
1	 1.379771e+00	 1.190262e+00	-3.897394e+00
1	 1.357650e+00	 1.215434e+00	-3.888956e+00
1	 1.335058e+00	 1.240207e+00	-3.950840e+00
1	 1.312006e+00	 1.264569e+00	-4.086862e+00
1	 1.288506e+00	 1.288506e+00	-4.300629e+00
1	 1.409957e+00	 1.171808e+00	-3.507935e+00
1	 1.388185e+00	 1.197520e+00	-3.431135e+00
1	 1.365928e+00	 1.222845e+00	-3.417609e+00
1	 1.343199e+00	 1.247769e+00	-3.471129e+00
1	 1.320006e+00	 1.272279e+00	-3.595286e+00
1	 1.296362e+00	 1.296362e+00	-3.793466e+00
1	 1.257079e+00	 1.257079e+00	-6.265819e+00
1	 1.233726e+00	 1.280006e+00	-6.698018e+00
1	 1.209958e+00	 1.302496e+00	-7.193143e+00
1	 1.185789e+00	 1.324537e+00	-7.753799e+00
1	 1.161232e+00	 1.346118e+00	-8.382405e+00
1	 1.136298e+00	 1.367231e+00	-9.081180e+00
1	 1.264935e+00	 1.264935e+00	-5.784278e+00
1	 1.241436e+00	 1.288006e+00	-6.195230e+00
1	 1.217520e+00	 1.310636e+00	-6.664412e+00
1	 1.193201e+00	 1.332815e+00	-7.194262e+00
1	 1.168489e+00	 1.354532e+00	-7.787044e+00
1	 1.143400e+00	 1.375776e+00	-8.444838e+00
1	 1.272792e+00	 1.272792e+00	-5.296152e+00
1	 1.249147e+00	 1.296006e+00	-5.684575e+00
1	 1.225083e+00	 1.318777e+00	-6.126587e+00
1	 1.200612e+00	 1.341093e+00	-6.624461e+00
1	 1.175747e+00	 1.362945e+00	-7.180309e+00
1	 1.150502e+00	 1.384321e+00	-7.796074e+00
1	 1.280649e+00	 1.280649e+00	-4.801563e+00
1	 1.256858e+00	 1.304006e+00	-5.166196e+00
1	 1.232645e+00	 1.326917e+00	-5.579834e+00
1	 1.208023e+00	 1.349372e+00	-6.044585e+00
1	 1.183005e+00	 1.371358e+00	-6.562411e+00
1	 1.157604e+00	 1.392866e+00	-7.135119e+00
1	 1.288506e+00	 1.288506e+00	-4.300629e+00
1	 1.264569e+00	 1.312006e+00	-4.640236e+00
1	 1.240207e+00	 1.335058e+00	-5.024316e+00
1	 1.215434e+00	 1.357650e+00	-5.454817e+00
1	 1.190262e+00	 1.379771e+00	-5.933553e+00
1	 1.164706e+00	 1.401412e+00	-6.462195e+00
1	 1.296362e+00	 1.296362e+00	-3.793466e+00
1	 1.272279e+00	 1.320006e+00	-4.106831e+00
1	 1.247769e+00	 1.343199e+00	-4.460193e+00
1	 1.222845e+00	 1.365928e+00	-4.855339e+00
1	 1.197520e+00	 1.388185e+00	-5.293934e+00
1	 1.171808e+00	 1.409957e+00	-5.777520e+00
1	 1.136298e+00	 1.367231e+00	-9.081180e+00
1	 1.111003e+00	 1.387864e+00	-1.037815e+01
1	 1.085359e+00	 1.408009e+00	-1.154704e+01
1	 1.059380e+00	 1.427658e+00	-1.258179e+01
1	 1.033082e+00	 1.446802e+00	-1.347676e+01
1	 1.006478e+00	 1.465433e+00	-1.422676e+01
1	 1.143400e+00	 1.375776e+00	-8.444838e+00
1	 1.117946e+00	 1.396538e+00	-9.648768e+00
1	 1.092142e+00	 1.416810e+00	-1.073095e+01
1	 1.066001e+00	 1.436581e+00	-1.168563e+01
1	 1.039539e+00	 1.455844e+00	-1.250748e+01
1	 1.012769e+00	 1.474592e+00	-1.319161e+01
1	 1.150502e+00	 1.384321e+00	-7.796074e+00
1	 1.124890e+00	 1.405213e+00	-8.909117e+00
1	 1.098925e+00	 1.425610e+00	-9.906649e+00
1	 1.072622e+00	 1.445504e+00	-1.078325e+01
1	 1.045995e+00	 1.464887e+00	-1.153390e+01
1	 1.019059e+00	 1.483751e+00	-1.215396e+01
1	 1.157604e+00	 1.392866e+00	-7.135119e+00
1	 1.131834e+00	 1.413887e+00	-8.159387e+00
1	 1.105709e+00	 1.434410e+00	-9.074308e+00
1	 1.079244e+00	 1.454427e+00	-9.874784e+00
1	 1.052452e+00	 1.473929e+00	-1.055608e+01
1	 1.025350e+00	 1.492910e+00	-1.111386e+01
1	 1.164706e+00	 1.401412e+00	-6.462195e+00
1	 1.138778e+00	 1.422561e+00	-7.399762e+00
1	 1.112492e+00	 1.443210e+00	-8.234067e+00
1	 1.085865e+00	 1.463349e+00	-8.960330e+00
1	 1.058909e+00	 1.482972e+00	-9.574117e+00
1	 1.031640e+00	 1.502069e+00	-1.007135e+01
1	 1.171808e+00	 1.409957e+00	-5.777520e+00
1	 1.145721e+00	 1.431235e+00	-6.630423e+00
1	 1.119276e+00	 1.452010e+00	-7.386072e+00
1	 1.092486e+00	 1.472272e+00	-8.040002e+00
1	 1.065366e+00	 1.492014e+00	-8.588073e+00
1	 1.037931e+00	 1.511228e+00	-9.026485e+00
1	 1.006478e+00	 1.465433e+00	-1.422676e+01
1	 9.795844e-01	 1.483546e+00	-1.480945e+01
1	 9.524151e-01	 1.501133e+00	-1.524780e+01
1	 9.249856e-01	 1.518188e+00	-1.553792e+01
1	 8.973112e-01	 1.534707e+00	-1.567642e+01
1	 8.694074e-01	 1.550685e+00	-1.566034e+01
1	 1.012769e+00	 1.474592e+00	-1.319161e+01
1	 9.857069e-01	 1.492818e+00	-1.371714e+01
1	 9.583677e-01	 1.510515e+00	-1.410816e+01
1	 9.307667e-01	 1.527677e+00	-1.436104e+01
1	 9.029194e-01	 1.544299e+00	-1.447259e+01
1	 8.748412e-01	 1.560377e+00	-1.444005e+01
1	 1.019059e+00	 1.483751e+00	-1.215396e+01
1	 9.918293e-01	 1.502090e+00	-1.262434e+01
1	 9.643203e-01	 1.519897e+00	-1.296992e+01
1	 9.365479e-01	 1.537166e+00	-1.318734e+01
1	 9.085276e-01	 1.553891e+00	-1.327360e+01
1	 8.802750e-01	 1.570069e+00	-1.322613e+01
1	 1.025350e+00	 1.492910e+00	-1.111386e+01
1	 9.979517e-01	 1.511362e+00	-1.153106e+01
1	 9.702729e-01	 1.529279e+00	-1.183308e+01
1	 9.423291e-01	 1.546654e+00	-1.201677e+01
1	 9.141358e-01	 1.563483e+00	-1.207936e+01
1	 8.857088e-01	 1.579761e+00	-1.201844e+01
1	 1.031640e+00	 1.502069e+00	-1.007135e+01
1	 1.004074e+00	 1.520634e+00	-1.043733e+01
1	 9.762255e-01	 1.538661e+00	-1.069760e+01
1	 9.481102e-01	 1.556143e+00	-1.084927e+01
1	 9.197440e-01	 1.573075e+00	-1.088978e+01
1	 8.911426e-01	 1.589452e+00	-1.081689e+01
1	 1.037931e+00	 1.511228e+00	-9.026485e+00
1	 1.010196e+00	 1.529907e+00	-9.343130e+00
1	 9.821781e-01	 1.548043e+00	-9.563453e+00
1	 9.538914e-01	 1.565632e+00	-9.684785e+00
1	 9.253522e-01	 1.582667e+00	-9.704768e+00
1	 8.965764e-01	 1.599144e+00	-9.621353e+00
1	 8.694074e-01	 1.550685e+00	-1.566034e+01
1	 8.412898e-01	 1.566118e+00	-1.530064e+01
1	 8.129739e-01	 1.581002e+00	-1.490681e+01
1	 7.844754e-01	 1.595334e+00	-1.447907e+01
1	 7.558099e-01	 1.609113e+00	-1.401775e+01
1	 7.269931e-01	 1.622336e+00	-1.352324e+01
1	 8.748412e-01	 1.560377e+00	-1.444005e+01
1	 8.465479e-01	 1.575906e+00	-1.408819e+01
1	 8.180550e-01	 1.590883e+00	-1.370157e+01
1	 7.893784e-01	 1.605305e+00	-1.328037e+01
1	 7.605337e-01	 1.619170e+00	-1.282486e+01
1	 7.315368e-01	 1.632476e+00	-1.233541e+01
1	 8.802750e-01	 1.570069e+00	-1.322613e+01
1	 8.518059e-01	 1.585694e+00	-1.288178e+01
1	 8.231361e-01	 1.600764e+00	-1.250205e+01
1	 7.942814e-01	 1.615276e+00	-1.208709e+01
1	 7.652576e-01	 1.629227e+00	-1.163713e+01
1	 7.360805e-01	 1.642615e+00	-1.115247e+01
1	 8.857088e-01	 1.579761e+00	-1.201844e+01
1	 8.570640e-01	 1.595483e+00	-1.168129e+01
1	 8.282172e-01	 1.610646e+00	-1.130815e+01
1	 7.991843e-01	 1.625247e+00	-1.089915e+01
1	 7.699814e-01	 1.639284e+00	-1.045445e+01
1	 7.406242e-01	 1.652755e+00	-9.974335e+00
1	 8.911426e-01	 1.589452e+00	-1.081689e+01
1	 8.623220e-01	 1.605271e+00	-1.048661e+01
1	 8.332983e-01	 1.620527e+00	-1.011977e+01
1	 8.040873e-01	 1.635218e+00	-9.716433e+00
1	 7.747052e-01	 1.649341e+00	-9.276733e+00
1	 7.451679e-01	 1.662895e+00	-8.800905e+00
1	 8.965764e-01	 1.599144e+00	-9.621353e+00
1	 8.675801e-01	 1.615059e+00	-9.297634e+00
1	 8.383794e-01	 1.630408e+00	-8.936801e+00
1	 8.089903e-01	 1.645189e+00	-8.538853e+00
1	 7.794290e-01	 1.659398e+00	-8.103888e+00
1	 7.497116e-01	 1.673034e+00	-7.632100e+00
1	 7.269931e-01	 1.622336e+00	-1.352324e+01
1	 6.980404e-01	 1.635003e+00	-1.274075e+01
1	 6.689674e-01	 1.647112e+00	-1.211632e+01
1	 6.397895e-01	 1.658663e+00	-1.165248e+01
1	 6.105220e-01	 1.669658e+00	-1.135126e+01
1	 5.811800e-01	 1.680096e+00	-1.121419e+01
1	 7.315368e-01	 1.632476e+00	-1.233541e+01
1	 7.024031e-01	 1.645221e+00	-1.158423e+01
1	 6.731484e-01	 1.657406e+00	-1.098648e+01
1	 6.437882e-01	 1.669030e+00	-1.054459e+01
1	 6.143377e-01	 1.680093e+00	-1.026052e+01
1	 5.848124e-01	 1.690597e+00	-1.013576e+01
1	 7.360805e-01	 1.642615e+00	-1.115247e+01
1	 7.067659e-01	 1.655440e+00	-1.043159e+01
1	 6.773295e-01	 1.667700e+00	-9.859556e+00
1	 6.477869e-01	 1.679396e+00	-9.438731e+00
1	 6.181535e-01	 1.690528e+00	-9.171006e+00
1	 5.884447e-01	 1.701098e+00	-9.057801e+00
1	 7.406242e-01	 1.652755e+00	-9.974335e+00
1	 7.111286e-01	 1.665659e+00	-9.282750e+00
1	 6.815105e-01	 1.677995e+00	-8.735504e+00
1	 6.517855e-01	 1.689763e+00	-8.334877e+00
1	 6.219693e-01	 1.700964e+00	-8.082687e+00
1	 5.920771e-01	 1.711598e+00	-7.980300e+00
1	 7.451679e-01	 1.662895e+00	-8.800905e+00
1	 7.154914e-01	 1.675878e+00	-8.137641e+00
1	 6.856916e-01	 1.688289e+00	-7.614269e+00
1	 6.557842e-01	 1.700130e+00	-7.232986e+00
1	 6.257850e-01	 1.711399e+00	-6.995543e+00
1	 5.957095e-01	 1.722099e+00	-6.903250e+00
1	 7.497116e-01	 1.673034e+00	-7.632100e+00
1	 7.198541e-01	 1.686096e+00	-6.996194e+00
1	 6.898726e-01	 1.698584e+00	-6.495797e+00
1	 6.597829e-01	 1.710496e+00	-6.133023e+00
1	 6.296008e-01	 1.721834e+00	-5.909554e+00
1	 5.993419e-01	 1.732599e+00	-5.826645e+00
1	 5.811800e-01	 1.680096e+00	-1.121419e+01
1	 5.517785e-01	 1.689981e+00	-1.113625e+01
1	 5.223323e-01	 1.699312e+00	-1.139105e+01
1	 4.928561e-01	 1.708094e+00	-1.197858e+01
1	 4.633641e-01	 1.716330e+00	-1.289792e+01
1	 4.338706e-01	 1.724021e+00	-1.414728e+01
1	 5.848124e-01	 1.690597e+00	-1.013576e+01
1	 5.552271e-01	 1.700543e+00	-1.007953e+01
1	 5.255969e-01	 1.709933e+00	-1.034579e+01
1	 4.959364e-01	 1.718770e+00	-1.093454e+01
1	 4.662602e-01	 1.727057e+00	-1.184490e+01
1	 4.365823e-01	 1.734797e+00	-1.307515e+01
1	 5.884447e-01	 1.701098e+00	-9.057801e+00
1	 5.586757e-01	 1.711105e+00	-9.022193e+00
1	 5.288615e-01	 1.720554e+00	-9.298956e+00
1	 4.990168e-01	 1.729446e+00	-9.888107e+00
1	 4.691562e-01	 1.737784e+00	-1.078881e+01
1	 4.392940e-01	 1.745572e+00	-1.199938e+01
1	 5.920771e-01	 1.711598e+00	-7.980300e+00
1	 5.621243e-01	 1.721668e+00	-7.964246e+00
1	 5.321261e-01	 1.731175e+00	-8.250580e+00
1	 5.020971e-01	 1.740121e+00	-8.839329e+00
1	 4.720522e-01	 1.748511e+00	-9.729688e+00
1	 4.420057e-01	 1.756347e+00	-1.092005e+01
1	 5.957095e-01	 1.722099e+00	-6.903250e+00
1	 5.655730e-01	 1.732230e+00	-6.905703e+00
1	 5.353906e-01	 1.741795e+00	-7.200688e+00
1	 5.051775e-01	 1.750797e+00	-7.788245e+00
1	 4.749482e-01	 1.759238e+00	-8.667603e+00
1	 4.447174e-01	 1.767122e+00	-9.837210e+00
1	 5.993419e-01	 1.732599e+00	-5.826645e+00
1	 5.690216e-01	 1.742792e+00	-5.846575e+00
1	 5.386552e-01	 1.752416e+00	-6.149310e+00
1	 5.082578e-01	 1.761472e+00	-6.734898e+00
1	 4.778443e-01	 1.769965e+00	-7.602604e+00
1	 4.474291e-01	 1.777897e+00	-8.750934e+00
1	 4.338706e-01	 1.724021e+00	-1.414728e+01
1	 4.043894e-01	 1.731174e+00	-1.575905e+01
1	 3.749342e-01	 1.737791e+00	-1.769305e+01
1	 3.455182e-01	 1.743878e+00	-1.994525e+01
1	 3.161546e-01	 1.749440e+00	-2.251087e+01
1	 2.868559e-01	 1.754482e+00	-2.538442e+01
1	 4.365823e-01	 1.734797e+00	-1.307515e+01
1	 4.069169e-01	 1.741994e+00	-1.465864e+01
1	 3.772775e-01	 1.748652e+00	-1.655334e+01
1	 3.476777e-01	 1.754777e+00	-1.875530e+01
1	 3.181305e-01	 1.760374e+00	-2.125990e+01
1	 2.886487e-01	 1.765448e+00	-2.406180e+01
1	 4.392940e-01	 1.745572e+00	-1.199938e+01
1	 4.094443e-01	 1.752814e+00	-1.355386e+01
1	 3.796209e-01	 1.759514e+00	-1.540865e+01
1	 3.498372e-01	 1.765677e+00	-1.755993e+01
1	 3.201065e-01	 1.771308e+00	-2.000320e+01
1	 2.904416e-01	 1.776413e+00	-2.273326e+01
1	 4.420057e-01	 1.756347e+00	-1.092005e+01
1	 4.119717e-01	 1.763633e+00	-1.244478e+01
1	 3.819642e-01	 1.770375e+00	-1.425908e+01
1	 3.519967e-01	 1.776576e+00	-1.635923e+01
1	 3.220825e-01	 1.782242e+00	-1.874086e+01
1	 2.922344e-01	 1.787379e+00	-2.139892e+01
1	 4.447174e-01	 1.767122e+00	-9.837210e+00
1	 4.144992e-01	 1.774453e+00	-1.133148e+01
1	 3.843076e-01	 1.781236e+00	-1.310472e+01
1	 3.541562e-01	 1.787475e+00	-1.515331e+01
1	 3.240584e-01	 1.793176e+00	-1.747299e+01
1	 2.940273e-01	 1.798344e+00	-2.005889e+01
1	 4.474291e-01	 1.777897e+00	-8.750934e+00
1	 4.170266e-01	 1.785273e+00	-1.021405e+01
1	 3.866509e-01	 1.792097e+00	-1.194565e+01
1	 3.563157e-01	 1.798374e+00	-1.394225e+01
1	 3.260344e-01	 1.804110e+00	-1.619970e+01
1	 2.958201e-01	 1.809310e+00	-1.871327e+01
1	 2.868559e-01	 1.754482e+00	-2.538442e+01
1	 2.576346e-01	 1.759011e+00	-2.847471e+01
1	 2.285029e-01	 1.763032e+00	-3.158857e+01
1	 1.994723e-01	 1.766552e+00	-3.472294e+01
1	 1.705542e-01	 1.769578e+00	-3.787472e+01
1	 1.417597e-01	 1.772117e+00	-4.104084e+01
1	 2.886487e-01	 1.765448e+00	-2.406180e+01
1	 2.592449e-01	 1.770004e+00	-2.706525e+01
1	 2.299310e-01	 1.774051e+00	-3.008689e+01
1	 2.007190e-01	 1.777593e+00	-3.312381e+01
1	 1.716202e-01	 1.780638e+00	-3.617310e+01
1	 1.426457e-01	 1.783193e+00	-3.923189e+01
1	 2.904416e-01	 1.776413e+00	-2.273326e+01
1	 2.608551e-01	 1.780998e+00	-2.565018e+01
1	 2.313592e-01	 1.785069e+00	-2.857996e+01
1	 2.019657e-01	 1.788634e+00	-3.151986e+01
1	 1.726861e-01	 1.791697e+00	-3.446717e+01
1	 1.435317e-01	 1.794268e+00	-3.741920e+01
1	 2.922344e-01	 1.787379e+00	-2.139892e+01
1	 2.624653e-01	 1.791992e+00	-2.422958e+01
1	 2.327873e-01	 1.796088e+00	-2.706786e+01
1	 2.032124e-01	 1.799674e+00	-2.991118e+01
1	 1.737521e-01	 1.802757e+00	-3.275701e+01
1	 1.444177e-01	 1.805344e+00	-3.560283e+01
1	 2.940273e-01	 1.798344e+00	-2.005889e+01
1	 2.640755e-01	 1.802986e+00	-2.280357e+01
1	 2.342154e-01	 1.807107e+00	-2.555069e+01
1	 2.044591e-01	 1.810715e+00	-2.829785e+01
1	 1.748181e-01	 1.813817e+00	-3.104268e+01
1	 1.453037e-01	 1.816420e+00	-3.378285e+01
1	 2.958201e-01	 1.809310e+00	-1.871327e+01
1	 2.656857e-01	 1.813980e+00	-2.137224e+01
1	 2.356436e-01	 1.818126e+00	-2.402855e+01
1	 2.057058e-01	 1.821756e+00	-2.667995e+01
1	 1.758840e-01	 1.824877e+00	-2.932426e+01
1	 1.461897e-01	 1.827495e+00	-3.195933e+01
1	 1.417597e-01	 1.772117e+00	-4.104084e+01
1	 1.130994e-01	 1.774177e+00	-4.404541e+01
1	 8.458359e-02	 1.775764e+00	-4.687041e+01
1	 5.622213e-02	 1.776889e+00	-4.951694e+01
1	 2.802455e-02	 1.777557e+00	-5.198646e+01
1	 0.000000e+00	 1.777778e+00	-5.428076e+01
1	 1.426457e-01	 1.783193e+00	-3.923189e+01
1	 1.138063e-01	 1.785265e+00	-4.213279e+01
1	 8.511224e-02	 1.786863e+00	-4.486446e+01
1	 5.657352e-02	 1.787994e+00	-4.742791e+01
1	 2.819970e-02	 1.788667e+00	-4.982447e+01
1	 0.000000e+00	 1.788889e+00	-5.205582e+01
1	 1.435317e-01	 1.794268e+00	-3.741920e+01
1	 1.145132e-01	 1.796354e+00	-4.021700e+01
1	 8.564089e-02	 1.797962e+00	-4.285581e+01
1	 5.692490e-02	 1.799100e+00	-4.533652e+01
1	 2.837486e-02	 1.799776e+00	-4.766036e+01
1	 0.000000e+00	 1.800000e+00	-4.982888e+01
1	 1.444177e-01	 1.805344e+00	-3.560283e+01
1	 1.152200e-01	 1.807442e+00	-3.829811e+01
1	 8.616954e-02	 1.809060e+00	-4.084450e+01
1	 5.727629e-02	 1.810205e+00	-4.324282e+01
1	 2.855001e-02	 1.810886e+00	-4.549417e+01
1	 0.000000e+00	 1.811111e+00	-4.759996e+01
1	 1.453037e-01	 1.816420e+00	-3.378285e+01
1	 1.159269e-01	 1.818531e+00	-3.637617e+01
1	 8.669818e-02	 1.820159e+00	-3.883060e+01
1	 5.762768e-02	 1.821311e+00	-4.114685e+01
1	 2.872516e-02	 1.821996e+00	-4.332593e+01
1	 0.000000e+00	 1.822222e+00	-4.536912e+01
1	 1.461897e-01	 1.827495e+00	-3.195933e+01
1	 1.166338e-01	 1.829620e+00	-3.445124e+01
1	 8.722683e-02	 1.831257e+00	-3.681413e+01
1	 5.797907e-02	 1.832416e+00	-3.904865e+01
1	 2.890032e-02	 1.833106e+00	-4.115568e+01
1	 0.000000e+00	 1.833333e+00	-4.313637e+01
1	 1.833333e+00	 0.000000e+00	 7.895177e+00
1	 1.833106e+00	 2.890032e-02	 7.596685e+00
1	 1.832416e+00	 5.797907e-02	 7.272957e+00
1	 1.831257e+00	 8.722683e-02	 6.923014e+00
1	 1.829620e+00	 1.166338e-01	 6.545899e+00
1	 1.827495e+00	 1.461897e-01	 6.140681e+00
1	 1.844444e+00	 0.000000e+00	 7.379230e+00
1	 1.844215e+00	 2.907547e-02	 7.094984e+00
1	 1.843522e+00	 5.833046e-02	 6.788353e+00
1	 1.842356e+00	 8.775548e-02	 6.458412e+00
1	 1.840708e+00	 1.173407e-01	 6.104256e+00
1	 1.838571e+00	 1.470757e-01	 5.725002e+00
1	 1.855556e+00	 0.000000e+00	 6.866405e+00
1	 1.855325e+00	 2.925062e-02	 6.596535e+00
1	 1.854627e+00	 5.868185e-02	 6.307099e+00
1	 1.853454e+00	 8.828412e-02	 5.997230e+00
1	 1.851797e+00	 1.180475e-01	 5.666073e+00
1	 1.849647e+00	 1.479617e-01	 5.312789e+00
1	 1.866667e+00	 0.000000e+00	 6.356646e+00
1	 1.866435e+00	 2.942578e-02	 6.101278e+00
1	 1.865733e+00	 5.903323e-02	 5.829136e+00
1	 1.864553e+00	 8.881277e-02	 5.539407e+00
1	 1.862885e+00	 1.187544e-01	 5.231288e+00
1	 1.860723e+00	 1.488477e-01	 4.903983e+00
1	 1.877778e+00	 0.000000e+00	 5.849900e+00
1	 1.877544e+00	 2.960093e-02	 5.609157e+00
1	 1.876839e+00	 5.938462e-02	 5.354405e+00
1	 1.875651e+00	 8.934142e-02	 5.084884e+00
1	 1.873974e+00	 1.194613e-01	 4.799839e+00
1	 1.871798e+00	 1.497337e-01	 4.498521e+00
1	 1.888889e+00	 0.000000e+00	 5.346112e+00
1	 1.888654e+00	 2.977608e-02	 5.120118e+00
1	 1.887944e+00	 5.973601e-02	 4.882850e+00
1	 1.886750e+00	 8.987007e-02	 4.633603e+00
1	 1.885063e+00	 1.201681e-01	 4.371670e+00
1	 1.882874e+00	 1.506197e-01	 4.096345e+00
1	 1.827495e+00	 1.461897e-01	 6.140681e+00
1	 1.824877e+00	 1.758840e-01	 5.667485e+00
1	 1.821756e+00	 2.057058e-01	 5.187191e+00
1	 1.818126e+00	 2.356436e-01	 4.699795e+00
1	 1.813980e+00	 2.656857e-01	 4.205299e+00
1	 1.809310e+00	 2.958201e-01	 3.703715e+00
1	 1.838571e+00	 1.470757e-01	 5.725002e+00
1	 1.835937e+00	 1.769500e-01	 5.282687e+00
1	 1.832797e+00	 2.069525e-01	 4.833270e+00
1	 1.829145e+00	 2.370717e-01	 4.376704e+00
1	 1.824973e+00	 2.672959e-01	 3.912949e+00
1	 1.820275e+00	 2.976130e-01	 3.441972e+00
1	 1.849647e+00	 1.479617e-01	 5.312789e+00
1	 1.846997e+00	 1.780160e-01	 4.901149e+00
1	 1.843838e+00	 2.081992e-01	 4.482405e+00
1	 1.840164e+00	 2.384999e-01	 4.056470e+00
1	 1.835967e+00	 2.689062e-01	 3.623260e+00
1	 1.831241e+00	 2.994058e-01	 3.182701e+00
1	 1.860723e+00	 1.488477e-01	 4.903983e+00
1	 1.858057e+00	 1.790819e-01	 4.522813e+00
1	 1.854879e+00	 2.094459e-01	 4.134542e+00
1	 1.851183e+00	 2.399280e-01	 3.739042e+00
1	 1.846961e+00	 2.705164e-01	 3.336186e+00
1	 1.842206e+00	 3.011987e-01	 2.925856e+00
1	 1.871798e+00	 1.497337e-01	 4.498521e+00
1	 1.869116e+00	 1.801479e-01	 4.147621e+00
1	 1.865920e+00	 2.106926e-01	 3.789628e+00
1	 1.862202e+00	 2.413562e-01	 3.424370e+00
1	 1.857955e+00	 2.721266e-01	 3.051679e+00
1	 1.853172e+00	 3.029915e-01	 2.671396e+00
1	 1.882874e+00	 1.506197e-01	 4.096345e+00
1	 1.880176e+00	 1.812139e-01	 3.775520e+00
1	 1.876961e+00	 2.119393e-01	 3.447611e+00
1	 1.873221e+00	 2.427843e-01	 3.112405e+00
1	 1.868949e+00	 2.737368e-01	 2.769695e+00
1	 1.864137e+00	 3.047844e-01	 2.419277e+00
1	 1.809310e+00	 2.958201e-01	 3.703715e+00
1	 1.804110e+00	 3.260344e-01	 3.130478e+00
1	 1.798374e+00	 3.563157e-01	 2.600205e+00
1	 1.792097e+00	 3.866509e-01	 2.114318e+00
1	 1.785273e+00	 4.170266e-01	 1.674151e+00
1	 1.777897e+00	 4.474291e-01	 1.280940e+00
1	 1.820275e+00	 2.976130e-01	 3.441972e+00
1	 1.815044e+00	 3.280104e-01	 2.903036e+00
1	 1.809274e+00	 3.584752e-01	 2.403734e+00
1	 1.802958e+00	 3.889942e-01	 1.945519e+00
1	 1.796093e+00	 4.195541e-01	 1.529765e+00
1	 1.788672e+00	 4.501408e-01	 1.157764e+00
1	 1.831241e+00	 2.994058e-01	 3.182701e+00
1	 1.825978e+00	 3.299863e-01	 2.678683e+00
1	 1.820173e+00	 3.606347e-01	 2.211015e+00
1	 1.813820e+00	 3.913376e-01	 1.781183e+00
1	 1.806913e+00	 4.220815e-01	 1.390602e+00
1	 1.799447e+00	 4.528525e-01	 1.040617e+00
1	 1.842206e+00	 3.011987e-01	 2.925856e+00
1	 1.836912e+00	 3.319623e-01	 2.457362e+00
1	 1.831072e+00	 3.627941e-01	 2.021982e+00
1	 1.824681e+00	 3.936809e-01	 1.621231e+00
1	 1.817733e+00	 4.246089e-01	 1.256569e+00
1	 1.810223e+00	 4.555642e-01	 9.293908e-01
1	 1.853172e+00	 3.029915e-01	 2.671396e+00
1	 1.847846e+00	 3.339383e-01	 2.239021e+00
1	 1.841971e+00	 3.649536e-01	 1.836568e+00
1	 1.835542e+00	 3.960243e-01	 1.465586e+00
1	 1.828552e+00	 4.271364e-01	 1.127574e+00
1	 1.820998e+00	 4.582759e-01	 8.239801e-01
1	 1.864137e+00	 3.047844e-01	 2.419277e+00
1	 1.858780e+00	 3.359142e-01	 2.023605e+00
1	 1.852871e+00	 3.671131e-01	 1.654711e+00
1	 1.846403e+00	 3.983676e-01	 1.314172e+00
1	 1.839372e+00	 4.296638e-01	 1.003529e+00
1	 1.831773e+00	 4.609875e-01	 7.242825e-01
1	 1.777897e+00	 4.474291e-01	 1.280940e+00
1	 1.769965e+00	 4.778443e-01	 9.766983e-01
1	 1.761472e+00	 5.082578e-01	 7.138686e-01
1	 1.752416e+00	 5.386552e-01	 4.921105e-01
1	 1.742792e+00	 5.690216e-01	 3.109530e-01
1	 1.732599e+00	 5.993419e-01	 1.697928e-01
1	 1.788672e+00	 4.501408e-01	 1.157764e+00
1	 1.780692e+00	 4.807403e-01	 8.646392e-01
1	 1.772148e+00	 5.113382e-01	 6.117908e-01
1	 1.763037e+00	 5.419198e-01	 3.989238e-01
1	 1.753355e+00	 5.724702e-01	 2.256170e-01
1	 1.743100e+00	 6.029742e-01	 9.132180e-02
1	 1.799447e+00	 4.528525e-01	 1.040617e+00
1	 1.791419e+00	 4.836363e-01	 7.590660e-01
1	 1.782824e+00	 5.144185e-01	 5.166766e-01
1	 1.773657e+00	 5.451844e-01	 3.131983e-01
1	 1.763917e+00	 5.759188e-01	 1.482594e-01
1	 1.753601e+00	 6.066066e-01	 2.136516e-02
1	 1.810223e+00	 4.555642e-01	 9.293908e-01
1	 1.802146e+00	 4.865323e-01	 6.598630e-01
1	 1.793499e+00	 5.174989e-01	 4.284017e-01
1	 1.784278e+00	 5.484490e-01	 2.348008e-01
1	 1.774480e+00	 5.793674e-01	 7.873760e-02
1	 1.764101e+00	 6.102390e-01	-4.022917e-02
1	 1.820998e+00	 4.582759e-01	 8.239801e-01
1	 1.812873e+00	 4.894284e-01	 5.669169e-01
1	 1.804175e+00	 5.205792e-01	 3.468447e-01
1	 1.794899e+00	 5.517135e-01	 1.636012e-01
1	 1.785042e+00	 5.828160e-01	 1.691253e-02
1	 1.774602e+00	 6.138714e-01	-9.360965e-02
1	 1.831773e+00	 4.609875e-01	 7.242825e-01
1	 1.823600e+00	 4.923244e-01	 4.801175e-01
1	 1.814850e+00	 5.236596e-01	 2.718870e-01
1	 1.805519e+00	 5.549781e-01	 9.947260e-02
1	 1.795604e+00	 5.862647e-01	-3.735163e-02
1	 1.785102e+00	 6.175037e-01	-1.389212e-01
1	 1.732599e+00	 5.993419e-01	 1.697928e-01
1	 1.721834e+00	 6.296008e-01	 1.467207e-01
1	 1.710496e+00	 6.597829e-01	 1.297001e-01
1	 1.698584e+00	 6.898726e-01	 1.170557e-01
1	 1.686096e+00	 7.198541e-01	 1.070546e-01
1	 1.673034e+00	 7.497116e-01	 9.791056e-02
1	 1.743100e+00	 6.029742e-01	 9.132180e-02
1	 1.732270e+00	 6.334165e-01	 7.222018e-02
1	 1.720863e+00	 6.637816e-01	 5.920897e-02
1	 1.708878e+00	 6.940537e-01	 5.065184e-02
1	 1.696315e+00	 7.242169e-01	 4.485628e-02
1	 1.683174e+00	 7.542553e-01	 4.007763e-02
1	 1.753601e+00	 6.066066e-01	 2.136516e-02
1	 1.742705e+00	 6.372323e-01	 6.555059e-03
1	 1.731230e+00	 6.677803e-01	-2.119788e-03
1	 1.719173e+00	 6.982347e-01	-6.257116e-03
1	 1.706534e+00	 7.285796e-01	-7.509505e-03
1	 1.693313e+00	 7.587990e-01	-7.580361e-03
1	 1.764101e+00	 6.102390e-01	-4.022917e-02
1	 1.753141e+00	 6.410481e-01	-5.043244e-02
1	 1.741596e+00	 6.717790e-01	-5.444976e-02
1	 1.729467e+00	 7.024158e-01	-5.384070e-02
1	 1.716753e+00	 7.329424e-01	-5.021829e-02
1	 1.703453e+00	 7.633427e-01	-4.524511e-02
1	 1.774602e+00	 6.138714e-01	-9.360965e-02
1	 1.763576e+00	 6.448638e-01	-9.889636e-02
1	 1.751963e+00	 6.757776e-01	-9.794070e-02
1	 1.739762e+00	 7.065968e-01	-9.226445e-02
1	 1.726971e+00	 7.373052e-01	-8.344149e-02
1	 1.713593e+00	 7.678864e-01	-7.309400e-02
1	 1.785102e+00	 6.175037e-01	-1.389212e-01
1	 1.774011e+00	 6.486796e-01	-1.389871e-01
1	 1.762330e+00	 6.797763e-01	-1.327486e-01
1	 1.750056e+00	 7.107779e-01	-1.216900e-01
1	 1.737190e+00	 7.416679e-01	-1.073465e-01
1	 1.723732e+00	 7.724301e-01	-9.130027e-02
1	 1.673034e+00	 7.497116e-01	 9.791056e-02
1	 1.659398e+00	 7.794290e-01	 4.213715e-02
1	 1.645189e+00	 8.089903e-01	-3.198907e-02
1	 1.630408e+00	 8.383794e-01	-1.244731e-01
1	 1.615059e+00	 8.675801e-01	-2.352791e-01
1	 1.599144e+00	 8.965764e-01	-3.643292e-01
1	 1.683174e+00	 7.542553e-01	 4.007763e-02
1	 1.669455e+00	 7.841528e-01	 5.478611e-04
1	 1.655160e+00	 8.138933e-01	-5.730729e-02
1	 1.640290e+00	 8.434605e-01	-1.336612e-01
1	 1.624847e+00	 8.728382e-01	-2.286480e-01
1	 1.608836e+00	 9.020102e-01	-3.423611e-01
1	 1.693313e+00	 7.587990e-01	-7.580361e-03
1	 1.679512e+00	 7.888766e-01	-3.186695e-02
1	 1.665130e+00	 8.187962e-01	-7.444964e-02
1	 1.650171e+00	 8.485415e-01	-1.356687e-01
1	 1.634636e+00	 8.780962e-01	-2.158267e-01
1	 1.618528e+00	 9.074440e-01	-3.151869e-01
1	 1.703453e+00	 7.633427e-01	-4.524511e-02
1	 1.689569e+00	 7.936004e-01	-5.527113e-02
1	 1.675101e+00	 8.236992e-01	-8.356211e-02
1	 1.660052e+00	 8.536226e-01	-1.306238e-01
1	 1.644424e+00	 8.833543e-01	-1.969258e-01
1	 1.628219e+00	 9.128778e-01	-2.828995e-01
1	 1.713593e+00	 7.678864e-01	-7.309400e-02
1	 1.699626e+00	 7.983242e-01	-6.982461e-02
1	 1.685072e+00	 8.286022e-01	-8.478726e-02
1	 1.669933e+00	 8.587037e-01	-1.186517e-01
1	 1.654212e+00	 8.886124e-01	-1.720532e-01
1	 1.637911e+00	 9.183116e-01	-2.455898e-01
1	 1.723732e+00	 7.724301e-01	-9.130027e-02
1	 1.709683e+00	 8.030481e-01	-7.568359e-02
1	 1.695043e+00	 8.335051e-01	-7.826426e-02
1	 1.679815e+00	 8.637848e-01	-9.987463e-02
1	 1.664000e+00	 8.938704e-01	-1.413142e-01
1	 1.647603e+00	 9.237454e-01	-2.033465e-01
1	 1.599144e+00	 8.965764e-01	-3.643292e-01
1	 1.582667e+00	 9.253522e-01	-7.862206e-01
1	 1.565632e+00	 9.538914e-01	-1.188157e+00
1	 1.548043e+00	 9.821781e-01	-1.566100e+00
1	 1.529907e+00	 1.010196e+00	-1.916038e+00
1	 1.511228e+00	 1.037931e+00	-2.233998e+00
1	 1.608836e+00	 9.020102e-01	-3.423611e-01
1	 1.592259e+00	 9.309604e-01	-7.275890e-01
1	 1.575120e+00	 9.596725e-01	-1.093287e+00
1	 1.557425e+00	 9.881307e-01	-1.435558e+00
1	 1.539179e+00	 1.016319e+00	-1.750527e+00
1	 1.520387e+00	 1.044221e+00	-2.034360e+00
1	 1.618528e+00	 9.074440e-01	-3.151869e-01
1	 1.601851e+00	 9.365686e-01	-6.646058e-01
1	 1.584609e+00	 9.654537e-01	-9.949149e-01
1	 1.566807e+00	 9.940833e-01	-1.302354e+00
1	 1.548451e+00	 1.022441e+00	-1.583187e+00
1	 1.529546e+00	 1.050512e+00	-1.833718e+00
1	 1.628219e+00	 9.128778e-01	-2.828995e-01
1	 1.611443e+00	 9.421768e-01	-5.973487e-01
1	 1.594098e+00	 9.712349e-01	-8.931022e-01
1	 1.576189e+00	 1.000036e+00	-1.166536e+00
1	 1.557723e+00	 1.028564e+00	-1.414053e+00
1	 1.538705e+00	 1.056802e+00	-1.632091e+00
1	 1.637911e+00	 9.183116e-01	-2.455898e-01
1	 1.621035e+00	 9.477849e-01	-5.258935e-01
1	 1.603586e+00	 9.770160e-01	-7.879102e-01
1	 1.585571e+00	 1.005988e+00	-1.028152e+00
1	 1.566995e+00	 1.034686e+00	-1.243155e+00
1	 1.547864e+00	 1.063093e+00	-1.429495e+00
1	 1.647603e+00	 9.237454e-01	-2.033465e-01
1	 1.630626e+00	 9.533931e-01	-4.503143e-01
1	 1.613075e+00	 9.827972e-01	-6.793985e-01
1	 1.594953e+00	 1.011941e+00	-8.872451e-01
1	 1.576267e+00	 1.040808e+00	-1.070525e+00
1	 1.557023e+00	 1.069383e+00	-1.225947e+00
1	 1.511228e+00	 1.037931e+00	-2.233998e+00
1	 1.492014e+00	 1.065366e+00	-2.479758e+00
1	 1.472272e+00	 1.092486e+00	-2.731414e+00
1	 1.452010e+00	 1.119276e+00	-2.987598e+00
1	 1.431235e+00	 1.145721e+00	-3.246912e+00
1	 1.409957e+00	 1.171808e+00	-3.507935e+00
1	 1.520387e+00	 1.044221e+00	-2.034360e+00
1	 1.501057e+00	 1.071822e+00	-2.259255e+00
1	 1.481195e+00	 1.099107e+00	-2.488158e+00
1	 1.460810e+00	 1.126059e+00	-2.719720e+00
1	 1.439909e+00	 1.152665e+00	-2.952571e+00
1	 1.418502e+00	 1.178909e+00	-3.185319e+00
1	 1.529546e+00	 1.050512e+00	-1.833718e+00
1	 1.510099e+00	 1.078279e+00	-2.037866e+00
1	 1.490118e+00	 1.105728e+00	-2.244157e+00
1	 1.469610e+00	 1.132843e+00	-2.451262e+00
1	 1.448583e+00	 1.159609e+00	-2.657836e+00
1	 1.427047e+00	 1.186011e+00	-2.862518e+00
1	 1.538705e+00	 1.056802e+00	-1.632091e+00
1	 1.519142e+00	 1.084736e+00	-1.815608e+00
1	 1.499041e+00	 1.112349e+00	-1.999426e+00
1	 1.478410e+00	 1.139626e+00	-2.182235e+00
1	 1.457257e+00	 1.166553e+00	-2.362713e+00
1	 1.435592e+00	 1.193113e+00	-2.539533e+00
1	 1.547864e+00	 1.063093e+00	-1.429495e+00
1	 1.528184e+00	 1.091193e+00	-1.592495e+00
1	 1.507964e+00	 1.118970e+00	-1.753976e+00
1	 1.487210e+00	 1.146410e+00	-1.912647e+00
1	 1.465932e+00	 1.173496e+00	-2.067211e+00
1	 1.444138e+00	 1.200215e+00	-2.216370e+00
1	 1.557023e+00	 1.069383e+00	-1.225947e+00
1	 1.537227e+00	 1.097650e+00	-1.368544e+00
1	 1.516887e+00	 1.125591e+00	-1.507822e+00
1	 1.496010e+00	 1.153193e+00	-1.642510e+00
1	 1.474606e+00	 1.180440e+00	-1.771335e+00
1	 1.452683e+00	 1.207317e+00	-1.893030e+00
1	 1.409957e+00	 1.171808e+00	-3.507935e+00
1	 1.388185e+00	 1.197520e+00	-3.431135e+00
1	 1.365928e+00	 1.222845e+00	-3.417609e+00
1	 1.343199e+00	 1.247769e+00	-3.471129e+00
1	 1.320006e+00	 1.272279e+00	-3.595286e+00
1	 1.296362e+00	 1.296362e+00	-3.793466e+00
1	 1.418502e+00	 1.178909e+00	-3.185319e+00
1	 1.396598e+00	 1.204778e+00	-3.108411e+00
1	 1.374207e+00	 1.230256e+00	-3.092506e+00
1	 1.351339e+00	 1.255332e+00	-3.141227e+00
1	 1.328006e+00	 1.279990e+00	-3.258018e+00
1	 1.304219e+00	 1.304219e+00	-3.446128e+00
1	 1.427047e+00	 1.186011e+00	-2.862518e+00
1	 1.405011e+00	 1.212036e+00	-2.784469e+00
1	 1.382485e+00	 1.237668e+00	-2.765181e+00
1	 1.359480e+00	 1.262894e+00	-2.808127e+00
1	 1.336006e+00	 1.287701e+00	-2.916606e+00
1	 1.312076e+00	 1.312076e+00	-3.093730e+00
1	 1.435592e+00	 1.193113e+00	-2.539533e+00
1	 1.413424e+00	 1.219293e+00	-2.459331e+00
1	 1.390763e+00	 1.245079e+00	-2.435674e+00
1	 1.367620e+00	 1.270456e+00	-2.471885e+00
1	 1.344006e+00	 1.295412e+00	-2.571123e+00
1	 1.319933e+00	 1.319933e+00	-2.736362e+00
1	 1.444138e+00	 1.200215e+00	-2.216370e+00
1	 1.421838e+00	 1.226551e+00	-2.133019e+00
1	 1.399042e+00	 1.252490e+00	-2.104023e+00
1	 1.375761e+00	 1.278018e+00	-2.132559e+00
1	 1.352006e+00	 1.303123e+00	-2.221642e+00
1	 1.327789e+00	 1.327789e+00	-2.374114e+00
1	 1.452683e+00	 1.207317e+00	-1.893030e+00
1	 1.430251e+00	 1.233809e+00	-1.805554e+00
1	 1.407320e+00	 1.259901e+00	-1.770267e+00
1	 1.383902e+00	 1.285581e+00	-1.790201e+00
1	 1.360006e+00	 1.310833e+00	-1.868233e+00
1	 1.335646e+00	 1.335646e+00	-2.007071e+00
1	 1.296362e+00	 1.296362e+00	-3.793466e+00
1	 1.272279e+00	 1.320006e+00	-4.106831e+00
1	 1.247769e+00	 1.343199e+00	-4.460193e+00
1	 1.222845e+00	 1.365928e+00	-4.855339e+00
1	 1.197520e+00	 1.388185e+00	-5.293934e+00
1	 1.171808e+00	 1.409957e+00	-5.777520e+00
1	 1.304219e+00	 1.304219e+00	-3.446128e+00
1	 1.279990e+00	 1.328006e+00	-3.740012e+00
1	 1.255332e+00	 1.351339e+00	-4.070717e+00
1	 1.230256e+00	 1.374207e+00	-4.439910e+00
1	 1.204778e+00	 1.396598e+00	-4.849148e+00
1	 1.178909e+00	 1.418502e+00	-5.299875e+00
1	 1.312076e+00	 1.312076e+00	-3.093730e+00
1	 1.287701e+00	 1.336006e+00	-3.367248e+00
1	 1.262894e+00	 1.359480e+00	-3.674447e+00
1	 1.237668e+00	 1.382485e+00	-4.016876e+00
1	 1.212036e+00	 1.405011e+00	-4.395987e+00
1	 1.186011e+00	 1.427047e+00	-4.813122e+00
1	 1.319933e+00	 1.319933e+00	-2.736362e+00
1	 1.295412e+00	 1.344006e+00	-2.988646e+00
1	 1.270456e+00	 1.367620e+00	-3.271505e+00
1	 1.245079e+00	 1.390763e+00	-3.586375e+00
1	 1.219293e+00	 1.413424e+00	-3.934599e+00
1	 1.193113e+00	 1.435592e+00	-4.317425e+00
1	 1.327789e+00	 1.327789e+00	-2.374114e+00
1	 1.303123e+00	 1.352006e+00	-2.604308e+00
1	 1.278018e+00	 1.375761e+00	-2.862009e+00
1	 1.252490e+00	 1.399042e+00	-3.148538e+00
1	 1.226551e+00	 1.421838e+00	-3.465132e+00
1	 1.200215e+00	 1.444138e+00	-3.812943e+00
1	 1.335646e+00	 1.335646e+00	-2.007071e+00
1	 1.310833e+00	 1.360006e+00	-2.214337e+00
1	 1.285581e+00	 1.383902e+00	-2.446076e+00
1	 1.259901e+00	 1.407320e+00	-2.703495e+00
1	 1.233809e+00	 1.430251e+00	-2.987727e+00
1	 1.207317e+00	 1.452683e+00	-3.299830e+00
1	 1.171808e+00	 1.409957e+00	-5.777520e+00
1	 1.145721e+00	 1.431235e+00	-6.630423e+00
1	 1.119276e+00	 1.452010e+00	-7.386072e+00
1	 1.092486e+00	 1.472272e+00	-8.040002e+00
1	 1.065366e+00	 1.492014e+00	-8.588073e+00
1	 1.037931e+00	 1.511228e+00	-9.026485e+00
1	 1.178909e+00	 1.418502e+00	-5.299875e+00
1	 1.152665e+00	 1.439909e+00	-6.084010e+00
1	 1.126059e+00	 1.460810e+00	-6.777194e+00
1	 1.099107e+00	 1.481195e+00	-7.375249e+00
1	 1.071822e+00	 1.501057e+00	-7.874302e+00
1	 1.044221e+00	 1.520387e+00	-8.270797e+00
1	 1.186011e+00	 1.427047e+00	-4.813122e+00
1	 1.159609e+00	 1.448583e+00	-5.530366e+00
1	 1.132843e+00	 1.469610e+00	-6.162883e+00
1	 1.105728e+00	 1.490118e+00	-6.706780e+00
1	 1.078279e+00	 1.510099e+00	-7.158448e+00
1	 1.050512e+00	 1.529546e+00	-7.514576e+00
1	 1.193113e+00	 1.435592e+00	-4.317425e+00
1	 1.166553e+00	 1.457257e+00	-4.969620e+00
1	 1.139626e+00	 1.478410e+00	-5.543236e+00
1	 1.112349e+00	 1.499041e+00	-6.034661e+00
1	 1.084736e+00	 1.519142e+00	-6.440550e+00
1	 1.056802e+00	 1.538705e+00	-6.757833e+00
1	 1.200215e+00	 1.444138e+00	-3.812943e+00
1	 1.173496e+00	 1.465932e+00	-4.401898e+00
1	 1.146410e+00	 1.487210e+00	-4.918346e+00
1	 1.118970e+00	 1.507964e+00	-5.358956e+00
1	 1.091193e+00	 1.528184e+00	-5.720643e+00
1	 1.063093e+00	 1.547864e+00	-6.000575e+00
1	 1.207317e+00	 1.452683e+00	-3.299830e+00
1	 1.180440e+00	 1.474606e+00	-3.827324e+00
1	 1.153193e+00	 1.496010e+00	-4.288308e+00
1	 1.125591e+00	 1.516887e+00	-4.679730e+00
1	 1.097650e+00	 1.537227e+00	-4.998763e+00
1	 1.069383e+00	 1.557023e+00	-5.242813e+00
1	 1.037931e+00	 1.511228e+00	-9.026485e+00
1	 1.010196e+00	 1.529907e+00	-9.343130e+00
1	 9.821781e-01	 1.548043e+00	-9.563453e+00
1	 9.538914e-01	 1.565632e+00	-9.684785e+00
1	 9.253522e-01	 1.582667e+00	-9.704768e+00
1	 8.965764e-01	 1.599144e+00	-9.621353e+00
1	 1.044221e+00	 1.520387e+00	-8.270797e+00
1	 1.016319e+00	 1.539179e+00	-8.552675e+00
1	 9.881307e-01	 1.557425e+00	-8.742911e+00
1	 9.596725e-01	 1.575120e+00	-8.838949e+00
1	 9.309604e-01	 1.592259e+00	-8.838527e+00
1	 9.020102e-01	 1.608836e+00	-8.739677e+00
1	 1.050512e+00	 1.529546e+00	-7.514576e+00
1	 1.022441e+00	 1.548451e+00	-7.762591e+00
1	 9.940833e-01	 1.566807e+00	-7.923591e+00
1	 9.654537e-01	 1.584609e+00	-7.995130e+00
1	 9.365686e-01	 1.601851e+00	-7.975042e+00
1	 9.074440e-01	 1.618528e+00	-7.861442e+00
1	 1.056802e+00	 1.538705e+00	-6.757833e+00
1	 1.028564e+00	 1.557723e+00	-6.972871e+00
1	 1.000036e+00	 1.576189e+00	-7.105470e+00
1	 9.712349e-01	 1.594098e+00	-7.153292e+00
1	 9.421768e-01	 1.611443e+00	-7.114265e+00
1	 9.128778e-01	 1.628219e+00	-6.986584e+00
1	 1.063093e+00	 1.547864e+00	-6.000575e+00
1	 1.034686e+00	 1.566995e+00	-6.183510e+00
1	 1.005988e+00	 1.585571e+00	-6.288528e+00
1	 9.770160e-01	 1.603586e+00	-6.313400e+00
1	 9.477849e-01	 1.621035e+00	-6.256147e+00
1	 9.183116e-01	 1.637911e+00	-6.115046e+00
1	 1.069383e+00	 1.557023e+00	-5.242813e+00
1	 1.040808e+00	 1.576267e+00	-5.394500e+00
1	 1.011941e+00	 1.594953e+00	-5.472744e+00
1	 9.827972e-01	 1.613075e+00	-5.475419e+00
1	 9.533931e-01	 1.630626e+00	-5.400641e+00
1	 9.237454e-01	 1.647603e+00	-5.246767e+00
1	 8.965764e-01	 1.599144e+00	-9.621353e+00
1	 8.675801e-01	 1.615059e+00	-9.297634e+00
1	 8.383794e-01	 1.630408e+00	-8.936801e+00
1	 8.089903e-01	 1.645189e+00	-8.538853e+00
1	 7.794290e-01	 1.659398e+00	-8.103888e+00
1	 7.497116e-01	 1.673034e+00	-7.632100e+00
1	 9.020102e-01	 1.608836e+00	-8.739677e+00
1	 8.728382e-01	 1.624847e+00	-8.416160e+00
1	 8.434605e-01	 1.640290e+00	-8.058975e+00
1	 8.138933e-01	 1.655160e+00	-7.668169e+00
1	 7.841528e-01	 1.669455e+00	-7.243878e+00
1	 7.542553e-01	 1.683174e+00	-6.786323e+00
1	 9.074440e-01	 1.618528e+00	-7.861442e+00
1	 8.780962e-01	 1.634636e+00	-7.538662e+00
1	 8.485415e-01	 1.650171e+00	-7.185622e+00
1	 8.187962e-01	 1.665130e+00	-6.802418e+00
1	 7.888766e-01	 1.679512e+00	-6.389221e+00
1	 7.587990e-01	 1.693313e+00	-5.946282e+00
1	 9.128778e-01	 1.628219e+00	-6.986584e+00
1	 8.833543e-01	 1.644424e+00	-6.665067e+00
1	 8.536226e-01	 1.660052e+00	-6.316662e+00
1	 8.236992e-01	 1.675101e+00	-5.941510e+00
1	 7.936004e-01	 1.689569e+00	-5.539822e+00
1	 7.633427e-01	 1.703453e+00	-5.111874e+00
1	 9.183116e-01	 1.637911e+00	-6.115046e+00
1	 8.886124e-01	 1.654212e+00	-5.795308e+00
1	 8.587037e-01	 1.669933e+00	-5.452017e+00
1	 8.286022e-01	 1.685072e+00	-5.085361e+00
1	 7.983242e-01	 1.699626e+00	-4.695587e+00
1	 7.678864e-01	 1.713593e+00	-4.282999e+00
1	 9.237454e-01	 1.647603e+00	-5.246767e+00
1	 8.938704e-01	 1.664000e+00	-4.929316e+00
1	 8.637848e-01	 1.679815e+00	-4.591611e+00
1	 8.335051e-01	 1.695043e+00	-4.233886e+00
1	 8.030481e-01	 1.709683e+00	-3.856425e+00
1	 7.724301e-01	 1.723732e+00	-3.459558e+00
1	 7.497116e-01	 1.673034e+00	-7.632100e+00
1	 7.198541e-01	 1.686096e+00	-6.996194e+00
1	 6.898726e-01	 1.698584e+00	-6.495797e+00
1	 6.597829e-01	 1.710496e+00	-6.133023e+00
1	 6.296008e-01	 1.721834e+00	-5.909554e+00
1	 5.993419e-01	 1.732599e+00	-5.826645e+00
1	 7.542553e-01	 1.683174e+00	-6.786323e+00
1	 7.242169e-01	 1.696315e+00	-6.188345e+00
1	 6.940537e-01	 1.708878e+00	-5.720279e+00
1	 6.637816e-01	 1.720863e+00	-5.384127e+00
1	 6.334165e-01	 1.732270e+00	-5.181477e+00
1	 6.029742e-01	 1.743100e+00	-5.113506e+00
1	 7.587990e-01	 1.693313e+00	-5.946282e+00
1	 7.285796e-01	 1.706534e+00	-5.385037e+00
1	 6.982347e-01	 1.719173e+00	-4.948182e+00
1	 6.677803e-01	 1.731230e+00	-4.637609e+00
1	 6.372323e-01	 1.742705e+00	-4.454809e+00
1	 6.066066e-01	 1.753601e+00	-4.400884e+00
1	 7.633427e-01	 1.703453e+00	-5.111874e+00
1	 7.329424e-01	 1.716753e+00	-4.586188e+00
1	 7.024158e-01	 1.729467e+00	-4.179445e+00
1	 6.717790e-01	 1.741596e+00	-3.893425e+00
1	 6.410481e-01	 1.753141e+00	-3.729525e+00
1	 6.102390e-01	 1.764101e+00	-3.688770e+00
1	 7.678864e-01	 1.713593e+00	-4.282999e+00
1	 7.373052e-01	 1.726971e+00	-3.791720e+00
1	 7.065968e-01	 1.739762e+00	-3.414009e+00
1	 6.757776e-01	 1.751963e+00	-3.151534e+00
1	 6.448638e-01	 1.763576e+00	-3.005599e+00
1	 6.138714e-01	 1.774602e+00	-2.977156e+00
1	 7.724301e-01	 1.723732e+00	-3.459558e+00
1	 7.416679e-01	 1.737190e+00	-3.001556e+00
1	 7.107779e-01	 1.750056e+00	-2.651816e+00
1	 6.797763e-01	 1.762330e+00	-2.411896e+00
1	 6.486796e-01	 1.774011e+00	-2.283010e+00
1	 6.175037e-01	 1.785102e+00	-2.266031e+00
1	 5.993419e-01	 1.732599e+00	-5.826645e+00
1	 5.690216e-01	 1.742792e+00	-5.846575e+00
1	 5.386552e-01	 1.752416e+00	-6.149310e+00
1	 5.082578e-01	 1.761472e+00	-6.734898e+00
1	 4.778443e-01	 1.769965e+00	-7.602604e+00
1	 4.474291e-01	 1.777897e+00	-8.750934e+00
1	 6.029742e-01	 1.743100e+00	-5.113506e+00
1	 5.724702e-01	 1.753355e+00	-5.153960e+00
1	 5.419198e-01	 1.763037e+00	-5.464626e+00
1	 5.113382e-01	 1.772148e+00	-6.045573e+00
1	 4.807403e-01	 1.780692e+00	-6.896119e+00
1	 4.501408e-01	 1.788672e+00	-8.014853e+00
1	 6.066066e-01	 1.753601e+00	-4.400884e+00
1	 5.759188e-01	 1.763917e+00	-4.460655e+00
1	 5.451844e-01	 1.773657e+00	-4.778203e+00
1	 5.144185e-01	 1.782824e+00	-5.353617e+00
1	 4.836363e-01	 1.791419e+00	-6.186264e+00
1	 4.528525e-01	 1.799447e+00	-7.274819e+00
1	 6.102390e-01	 1.764101e+00	-3.688770e+00
1	 5.793674e-01	 1.774480e+00	-3.766673e+00
1	 5.484490e-01	 1.784278e+00	-4.090073e+00
1	 5.174989e-01	 1.793499e+00	-4.659075e+00
1	 4.865323e-01	 1.802146e+00	-5.473101e+00
1	 4.555642e-01	 1.810223e+00	-6.530905e+00
1	 6.138714e-01	 1.774602e+00	-2.977156e+00
1	 5.828160e-01	 1.785042e+00	-3.072026e+00
1	 5.517135e-01	 1.794899e+00	-3.400264e+00
1	 5.205792e-01	 1.804175e+00	-3.961995e+00
1	 4.894284e-01	 1.812873e+00	-4.756688e+00
1	 4.582759e-01	 1.820998e+00	-5.783179e+00
1	 6.175037e-01	 1.785102e+00	-2.266031e+00
1	 5.862647e-01	 1.795604e+00	-2.376726e+00
1	 5.549781e-01	 1.805519e+00	-2.708808e+00
1	 5.236596e-01	 1.814850e+00	-3.262420e+00
1	 4.923244e-01	 1.823600e+00	-4.037082e+00
1	 4.609875e-01	 1.831773e+00	-5.031708e+00
1	 4.474291e-01	 1.777897e+00	-8.750934e+00
1	 4.170266e-01	 1.785273e+00	-1.021405e+01
1	 3.866509e-01	 1.792097e+00	-1.194565e+01
1	 3.563157e-01	 1.798374e+00	-1.394225e+01
1	 3.260344e-01	 1.804110e+00	-1.619970e+01
1	 2.958201e-01	 1.809310e+00	-1.871327e+01
1	 4.501408e-01	 1.788672e+00	-8.014853e+00
1	 4.195541e-01	 1.796093e+00	-9.429544e+00
1	 3.889942e-01	 1.802958e+00	-1.108888e+01
1	 3.584752e-01	 1.809274e+00	-1.298956e+01
1	 3.280104e-01	 1.815044e+00	-1.512768e+01
1	 2.976130e-01	 1.820275e+00	-1.749881e+01
1	 4.528525e-01	 1.799447e+00	-7.274819e+00
1	 4.220815e-01	 1.806913e+00	-8.639369e+00
1	 3.913376e-01	 1.813820e+00	-1.022502e+01
1	 3.606347e-01	 1.820173e+00	-1.202865e+01
1	 3.299863e-01	 1.825978e+00	-1.404661e+01
1	 2.994058e-01	 1.831241e+00	-1.627475e+01
1	 4.555642e-01	 1.810223e+00	-6.530905e+00
1	 4.246089e-01	 1.817733e+00	-7.843626e+00
1	 3.936809e-01	 1.824681e+00	-9.354201e+00
1	 3.627941e-01	 1.831072e+00	-1.105968e+01
1	 3.319623e-01	 1.836912e+00	-1.295665e+01
1	 3.011987e-01	 1.842206e+00	-1.504127e+01
1	 4.582759e-01	 1.820998e+00	-5.783179e+00
1	 4.271364e-01	 1.828552e+00	-7.042414e+00
1	 3.960243e-01	 1.835542e+00	-8.476537e+00
1	 3.649536e-01	 1.841971e+00	-1.008278e+01
1	 3.339383e-01	 1.847846e+00	-1.185796e+01
1	 3.029915e-01	 1.853172e+00	-1.379854e+01
1	 4.609875e-01	 1.831773e+00	-5.031708e+00
1	 4.296638e-01	 1.839372e+00	-6.235828e+00
1	 3.983676e-01	 1.846403e+00	-7.592153e+00
1	 3.671131e-01	 1.852871e+00	-9.098088e+00
1	 3.359142e-01	 1.858780e+00	-1.075069e+01
1	 3.047844e-01	 1.864137e+00	-1.254670e+01
1	 2.958201e-01	 1.809310e+00	-1.871327e+01
1	 2.656857e-01	 1.813980e+00	-2.137224e+01
1	 2.356436e-01	 1.818126e+00	-2.402855e+01
1	 2.057058e-01	 1.821756e+00	-2.667995e+01
1	 1.758840e-01	 1.824877e+00	-2.932426e+01
1	 1.461897e-01	 1.827495e+00	-3.195933e+01
1	 2.976130e-01	 1.820275e+00	-1.749881e+01
1	 2.672959e-01	 1.824973e+00	-1.999747e+01
1	 2.370717e-01	 1.829145e+00	-2.249087e+01
1	 2.069525e-01	 1.832797e+00	-2.497700e+01
1	 1.769500e-01	 1.835937e+00	-2.745386e+01
1	 1.470757e-01	 1.838571e+00	-2.991953e+01
1	 2.994058e-01	 1.831241e+00	-1.627475e+01
1	 2.689062e-01	 1.835967e+00	-1.861382e+01
1	 2.384999e-01	 1.840164e+00	-2.094508e+01
1	 2.081992e-01	 1.843838e+00	-2.326671e+01
1	 1.780160e-01	 1.846997e+00	-2.557695e+01
1	 1.479617e-01	 1.849647e+00	-2.787408e+01
1	 3.011987e-01	 1.842206e+00	-1.504127e+01
1	 2.705164e-01	 1.846961e+00	-1.722145e+01
1	 2.399280e-01	 1.851183e+00	-1.939130e+01
1	 2.094459e-01	 1.854879e+00	-2.154922e+01
1	 1.790819e-01	 1.858057e+00	-2.369364e+01
1	 1.488477e-01	 1.860723e+00	-2.582308e+01
1	 3.029915e-01	 1.853172e+00	-1.379854e+01
1	 2.721266e-01	 1.857955e+00	-1.582051e+01
1	 2.413562e-01	 1.862202e+00	-1.782968e+01
1	 2.106926e-01	 1.865920e+00	-1.982465e+01
1	 1.801479e-01	 1.869116e+00	-2.180406e+01
1	 1.497337e-01	 1.871798e+00	-2.376663e+01
1	 3.047844e-01	 1.864137e+00	-1.254670e+01
1	 2.737368e-01	 1.868949e+00	-1.441116e+01
1	 2.427843e-01	 1.873221e+00	-1.626037e+01
1	 2.119393e-01	 1.876961e+00	-1.809313e+01
1	 1.812139e-01	 1.880176e+00	-1.990831e+01
1	 1.506197e-01	 1.882874e+00	-2.170483e+01
1	 1.461897e-01	 1.827495e+00	-3.195933e+01
1	 1.166338e-01	 1.829620e+00	-3.445124e+01
1	 8.722683e-02	 1.831257e+00	-3.681413e+01
1	 5.797907e-02	 1.832416e+00	-3.904865e+01
1	 2.890032e-02	 1.833106e+00	-4.115568e+01
1	 0.000000e+00	 1.833333e+00	-4.313637e+01
1	 1.470757e-01	 1.838571e+00	-2.991953e+01
1	 1.173407e-01	 1.840708e+00	-3.224944e+01
1	 8.775548e-02	 1.842356e+00	-3.446475e+01
1	 5.833046e-02	 1.843522e+00	-3.656599e+01
1	 2.907547e-02	 1.844215e+00	-3.855395e+01
1	 0.000000e+00	 1.844444e+00	-4.042961e+01
1	 1.479617e-01	 1.849647e+00	-2.787408e+01
1	 1.180475e-01	 1.851797e+00	-3.004302e+01
1	 8.828412e-02	 1.853454e+00	-3.211160e+01
1	 5.868185e-02	 1.854627e+00	-3.408028e+01
1	 2.925062e-02	 1.855325e+00	-3.594971e+01
1	 0.000000e+00	 1.855556e+00	-3.772073e+01
1	 1.488477e-01	 1.860723e+00	-2.582308e+01
1	 1.187544e-01	 1.862885e+00	-2.783206e+01
1	 8.881277e-02	 1.864553e+00	-2.975477e+01
1	 5.903323e-02	 1.865733e+00	-3.159157e+01
1	 2.942578e-02	 1.866435e+00	-3.334300e+01
1	 0.000000e+00	 1.866667e+00	-3.500977e+01
1	 1.497337e-01	 1.871798e+00	-2.376663e+01
1	 1.194613e-01	 1.873974e+00	-2.561664e+01
1	 8.934142e-02	 1.875651e+00	-2.739431e+01
1	 5.938462e-02	 1.876839e+00	-2.909992e+01
1	 2.960093e-02	 1.877544e+00	-3.073389e+01
1	 0.000000e+00	 1.877778e+00	-3.229677e+01
1	 1.506197e-01	 1.882874e+00	-2.170483e+01
1	 1.201681e-01	 1.885063e+00	-2.339684e+01
1	 8.987007e-02	 1.886750e+00	-2.503029e+01
1	 5.973601e-02	 1.887944e+00	-2.660537e+01
1	 2.977608e-02	 1.888654e+00	-2.812239e+01
1	 0.000000e+00	 1.888889e+00	-2.958177e+01
1	 1.888889e+00	 0.000000e+00	 5.346112e+00
1	 1.888654e+00	 2.977608e-02	 5.120118e+00
1	 1.887944e+00	 5.973601e-02	 4.882850e+00
1	 1.886750e+00	 8.987007e-02	 4.633603e+00
1	 1.885063e+00	 1.201681e-01	 4.371670e+00
1	 1.882874e+00	 1.506197e-01	 4.096345e+00
1	 1.900000e+00	 0.000000e+00	 4.934211e+00
1	 1.899764e+00	 2.995124e-02	 4.719672e+00
1	 1.899050e+00	 6.008740e-02	 4.496112e+00
1	 1.897848e+00	 9.039871e-02	 4.262882e+00
1	 1.896151e+00	 1.208750e-01	 4.019328e+00
1	 1.893950e+00	 1.515057e-01	 3.764798e+00
1	 1.911111e+00	 0.000000e+00	 4.524349e+00
1	 1.910874e+00	 3.012639e-02	 4.321469e+00
1	 1.910155e+00	 6.043879e-02	 4.111797e+00
1	 1.908947e+00	 9.092736e-02	 3.894742e+00
1	 1.907240e+00	 1.215819e-01	 3.669704e+00
1	 1.905026e+00	 1.523917e-01	 3.436079e+00
1	 1.922222e+00	 0.000000e+00	 4.116490e+00
1	 1.921983e+00	 3.030154e-02	 3.925468e+00
1	 1.921261e+00	 6.079018e-02	 3.729863e+00
1	 1.920045e+00	 9.145601e-02	 3.529138e+00
1	 1.918328e+00	 1.222888e-01	 3.322749e+00
1	 1.916101e+00	 1.532777e-01	 3.110139e+00
1	 1.933333e+00	 0.000000e+00	 3.710601e+00
1	 1.933093e+00	 3.047670e-02	 3.531633e+00
1	 1.932366e+00	 6.114156e-02	 3.350268e+00
1	 1.931144e+00	 9.198466e-02	 3.166028e+00
1	 1.929417e+00	 1.229956e-01	 2.978418e+00
1	 1.927177e+00	 1.541637e-01	 2.786932e+00
1	 1.944444e+00	 0.000000e+00	 3.306647e+00
1	 1.944203e+00	 3.065185e-02	 3.139924e+00
1	 1.943472e+00	 6.149295e-02	 2.972973e+00
1	 1.942242e+00	 9.251330e-02	 2.805367e+00
1	 1.940506e+00	 1.237025e-01	 2.636665e+00
1	 1.938253e+00	 1.550497e-01	 2.466409e+00
1	 1.882874e+00	 1.506197e-01	 4.096345e+00
1	 1.880176e+00	 1.812139e-01	 3.775520e+00
1	 1.876961e+00	 2.119393e-01	 3.447611e+00
1	 1.873221e+00	 2.427843e-01	 3.112405e+00
1	 1.868949e+00	 2.737368e-01	 2.769695e+00
1	 1.864137e+00	 3.047844e-01	 2.419277e+00
1	 1.893950e+00	 1.515057e-01	 3.764798e+00
1	 1.891236e+00	 1.822798e-01	 3.468619e+00
1	 1.888002e+00	 2.131860e-01	 3.165935e+00
1	 1.884240e+00	 2.442124e-01	 2.856493e+00
1	 1.879943e+00	 2.753470e-01	 2.540041e+00
1	 1.875103e+00	 3.065772e-01	 2.216331e+00
1	 1.905026e+00	 1.523917e-01	 3.436079e+00
1	 1.902296e+00	 1.833458e-01	 3.164279e+00
1	 1.899043e+00	 2.144327e-01	 2.886548e+00
1	 1.895259e+00	 2.456406e-01	 2.602592e+00
1	 1.890936e+00	 2.769572e-01	 2.312118e+00
1	 1.886068e+00	 3.083701e-01	 2.014832e+00
1	 1.916101e+00	 1.532777e-01	 3.110139e+00
1	 1.913356e+00	 1.844117e-01	 2.862454e+00
1	 1.910084e+00	 2.156794e-01	 2.609409e+00
1	 1.906278e+00	 2.470687e-01	 2.350668e+00
1	 1.901930e+00	 2.785675e-01	 2.085895e+00
1	 1.897034e+00	 3.101629e-01	 1.814753e+00
1	 1.927177e+00	 1.541637e-01	 2.786932e+00
1	 1.924416e+00	 1.854777e-01	 2.563103e+00
1	 1.921125e+00	 2.169261e-01	 2.334479e+00
1	 1.917297e+00	 2.484969e-01	 2.100685e+00
1	 1.912924e+00	 2.801777e-01	 1.861343e+00
1	 1.907999e+00	 3.119558e-01	 1.616071e+00
1	 1.938253e+00	 1.550497e-01	 2.466409e+00
1	 1.935476e+00	 1.865437e-01	 2.266182e+00
1	 1.932166e+00	 2.181728e-01	 2.061721e+00
1	 1.928316e+00	 2.499250e-01	 1.852612e+00
1	 1.923918e+00	 2.817879e-01	 1.638434e+00
1	 1.918965e+00	 3.137486e-01	 1.418761e+00
1	 1.864137e+00	 3.047844e-01	 2.419277e+00
1	 1.858780e+00	 3.359142e-01	 2.023605e+00
1	 1.852871e+00	 3.671131e-01	 1.654711e+00
1	 1.846403e+00	 3.983676e-01	 1.314172e+00
1	 1.839372e+00	 4.296638e-01	 1.003529e+00
1	 1.831773e+00	 4.609875e-01	 7.242825e-01
1	 1.875103e+00	 3.065772e-01	 2.216331e+00
1	 1.869714e+00	 3.378902e-01	 1.855119e+00
1	 1.863770e+00	 3.692726e-01	 1.518225e+00
1	 1.857264e+00	 4.007109e-01	 1.207108e+00
1	 1.850192e+00	 4.321912e-01	 9.231908e-01
1	 1.842548e+00	 4.636992e-01	 6.678626e-01
1	 1.886068e+00	 3.083701e-01	 2.014832e+00
1	 1.880648e+00	 3.398661e-01	 1.687560e+00
1	 1.874669e+00	 3.714321e-01	 1.382176e+00
1	 1.868126e+00	 4.030543e-01	 1.100018e+00
1	 1.861012e+00	 4.347187e-01	 8.423973e-01
1	 1.853323e+00	 4.664109e-01	 6.105898e-01
1	 1.897034e+00	 3.101629e-01	 1.814753e+00
1	 1.891582e+00	 3.418421e-01	 1.520910e+00
1	 1.885568e+00	 3.735916e-01	 1.246554e+00
1	 1.878987e+00	 4.053976e-01	 9.929037e-01
1	 1.871832e+00	 4.372461e-01	 7.611565e-01
1	 1.864098e+00	 4.691226e-01	 5.524788e-01
1	 1.907999e+00	 3.119558e-01	 1.616071e+00
1	 1.902516e+00	 3.438181e-01	 1.355156e+00
1	 1.896467e+00	 3.757511e-01	 1.111352e+00
1	 1.889848e+00	 4.077409e-01	 8.857648e-01
1	 1.882652e+00	 4.397735e-01	 6.794762e-01
1	 1.874873e+00	 4.718343e-01	 4.935441e-01
1	 1.918965e+00	 3.137486e-01	 1.418761e+00
1	 1.913450e+00	 3.457940e-01	 1.190280e+00
1	 1.907367e+00	 3.779106e-01	 9.765642e-01
1	 1.900709e+00	 4.100843e-01	 7.786018e-01
1	 1.893471e+00	 4.423010e-01	 5.973638e-01
1	 1.885649e+00	 4.745460e-01	 4.337997e-01
1	 1.831773e+00	 4.609875e-01	 7.242825e-01
1	 1.823600e+00	 4.923244e-01	 4.801175e-01
1	 1.814850e+00	 5.236596e-01	 2.718870e-01
1	 1.805519e+00	 5.549781e-01	 9.947260e-02
1	 1.795604e+00	 5.862647e-01	-3.735163e-02
1	 1.785102e+00	 6.175037e-01	-1.389212e-01
1	 1.842548e+00	 4.636992e-01	 6.678626e-01
1	 1.834327e+00	 4.952204e-01	 4.362168e-01
1	 1.825526e+00	 5.267399e-01	 2.378681e-01
1	 1.816140e+00	 5.582427e-01	 7.291611e-02
1	 1.806167e+00	 5.897133e-01	-5.863369e-02
1	 1.795603e+00	 6.211361e-01	-1.568731e-01
1	 1.853323e+00	 4.664109e-01	 6.105898e-01
1	 1.845054e+00	 4.981164e-01	 3.931266e-01
1	 1.836202e+00	 5.298203e-01	 2.063625e-01
1	 1.826761e+00	 5.615073e-01	 5.061390e-02
1	 1.816729e+00	 5.931619e-01	-7.388469e-02
1	 1.806104e+00	 6.247685e-01	-1.669833e-01
1	 1.864098e+00	 4.691226e-01	 5.524788e-01
1	 1.855781e+00	 5.010125e-01	 3.508327e-01
1	 1.846877e+00	 5.329006e-01	 1.773269e-01
1	 1.837382e+00	 5.647718e-01	 3.249221e-02
1	 1.827291e+00	 5.966105e-01	-8.320920e-02
1	 1.816604e+00	 6.284009e-01	-1.693877e-01
1	 1.874873e+00	 4.718343e-01	 4.935441e-01
1	 1.866509e+00	 5.039085e-01	 3.093215e-01
1	 1.857553e+00	 5.359810e-01	 1.507185e-01
1	 1.848002e+00	 5.680364e-01	 1.847896e-02
1	 1.837854e+00	 6.000591e-01	-8.670942e-02
1	 1.827105e+00	 6.320332e-01	-1.642192e-01
1	 1.885649e+00	 4.745460e-01	 4.337997e-01
1	 1.877236e+00	 5.068045e-01	 2.685795e-01
1	 1.868228e+00	 5.390613e-01	 1.264957e-01
1	 1.858623e+00	 5.713010e-01	 8.503714e-03
1	 1.848416e+00	 6.035077e-01	-8.448518e-02
1	 1.837605e+00	 6.356656e-01	-1.516076e-01
1	 1.785102e+00	 6.175037e-01	-1.389212e-01
1	 1.774011e+00	 6.486796e-01	-1.389871e-01
1	 1.762330e+00	 6.797763e-01	-1.327486e-01
1	 1.750056e+00	 7.107779e-01	-1.216900e-01
1	 1.737190e+00	 7.416679e-01	-1.073465e-01
1	 1.723732e+00	 7.724301e-01	-9.130027e-02
1	 1.795603e+00	 6.211361e-01	-1.568731e-01
1	 1.784447e+00	 6.524954e-01	-1.586454e-01
1	 1.772696e+00	 6.837750e-01	-1.537412e-01
1	 1.760350e+00	 7.149589e-01	-1.436461e-01
1	 1.747409e+00	 7.460307e-01	-1.298970e-01
1	 1.733872e+00	 7.769738e-01	-1.140781e-01
1	 1.806104e+00	 6.247685e-01	-1.669833e-01
1	 1.794882e+00	 6.563111e-01	-1.704440e-01
1	 1.783063e+00	 6.877737e-01	-1.668557e-01
1	 1.770645e+00	 7.191399e-01	-1.577055e-01
1	 1.757628e+00	 7.503934e-01	-1.445318e-01
1	 1.744011e+00	 7.815175e-01	-1.289213e-01
1	 1.816604e+00	 6.284009e-01	-1.693877e-01
1	 1.805317e+00	 6.601269e-01	-1.745191e-01
1	 1.793429e+00	 6.917724e-01	-1.722288e-01
1	 1.780939e+00	 7.233210e-01	-1.640050e-01
1	 1.767847e+00	 7.547562e-01	-1.513882e-01
1	 1.754151e+00	 7.860612e-01	-1.359672e-01
1	 1.827105e+00	 6.320332e-01	-1.642192e-01
1	 1.815753e+00	 6.639426e-01	-1.710038e-01
1	 1.803796e+00	 6.957711e-01	-1.699938e-01
1	 1.791234e+00	 7.275020e-01	-1.626786e-01
1	 1.778065e+00	 7.591189e-01	-1.506004e-01
1	 1.764291e+00	 7.906050e-01	-1.353505e-01
1	 1.837605e+00	 6.356656e-01	-1.516076e-01
1	 1.826188e+00	 6.677584e-01	-1.600284e-01
1	 1.814163e+00	 6.997698e-01	-1.602812e-01
1	 1.801528e+00	 7.316831e-01	-1.538568e-01
1	 1.788284e+00	 7.634817e-01	-1.422994e-01
1	 1.774430e+00	 7.951487e-01	-1.272023e-01
1	 1.723732e+00	 7.724301e-01	-9.130027e-02
1	 1.709683e+00	 8.030481e-01	-7.568359e-02
1	 1.695043e+00	 8.335051e-01	-7.826426e-02
1	 1.679815e+00	 8.637848e-01	-9.987463e-02
1	 1.664000e+00	 8.938704e-01	-1.413142e-01
1	 1.647603e+00	 9.237454e-01	-2.033465e-01
1	 1.733872e+00	 7.769738e-01	-1.140781e-01
1	 1.719740e+00	 8.077719e-01	-9.255262e-02
1	 1.705014e+00	 8.384081e-01	-8.848446e-02
1	 1.689696e+00	 8.688659e-01	-1.028008e-01
1	 1.673789e+00	 8.991285e-01	-1.363988e-01
1	 1.657295e+00	 9.291792e-01	-1.901420e-01
1	 1.744011e+00	 7.815175e-01	-1.289213e-01
1	 1.729797e+00	 8.124957e-01	-1.020480e-01
1	 1.714985e+00	 8.433111e-01	-9.189829e-02
1	 1.699577e+00	 8.739470e-01	-9.949325e-02
1	 1.683577e+00	 9.043865e-01	-1.258268e-01
1	 1.666987e+00	 9.346130e-01	-1.718620e-01
1	 1.754151e+00	 7.860612e-01	-1.359672e-01
1	 1.739854e+00	 8.172195e-01	-1.042976e-01
1	 1.724955e+00	 8.482141e-01	-8.862377e-02
1	 1.709458e+00	 8.790281e-01	-9.006007e-02
1	 1.693365e+00	 9.096446e-01	-1.096965e-01
1	 1.676678e+00	 9.400468e-01	-1.485946e-01
1	 1.764291e+00	 7.906050e-01	-1.353505e-01
1	 1.749911e+00	 8.219433e-01	-9.942640e-02
1	 1.734926e+00	 8.531170e-01	-7.877622e-02
1	 1.719340e+00	 8.841091e-01	-7.460687e-02
1	 1.703153e+00	 9.149027e-01	-8.810359e-02
1	 1.686370e+00	 9.454806e-01	-1.204256e-01
1	 1.774430e+00	 7.951487e-01	-1.272023e-01
1	 1.759968e+00	 8.266671e-01	-8.755639e-02
1	 1.744897e+00	 8.580200e-01	-6.246833e-02
1	 1.729221e+00	 8.891902e-01	-5.323686e-02
1	 1.712941e+00	 9.201607e-01	-6.114176e-02
1	 1.696062e+00	 9.509144e-01	-8.743925e-02
1	 1.647603e+00	 9.237454e-01	-2.033465e-01
1	 1.630626e+00	 9.533931e-01	-4.503143e-01
1	 1.613075e+00	 9.827972e-01	-6.793985e-01
1	 1.594953e+00	 1.011941e+00	-8.872451e-01
1	 1.576267e+00	 1.040808e+00	-1.070525e+00
1	 1.557023e+00	 1.069383e+00	-1.225947e+00
1	 1.657295e+00	 9.291792e-01	-1.901420e-01
1	 1.640218e+00	 9.590013e-01	-4.077882e-01
1	 1.622564e+00	 9.885783e-01	-6.095948e-01
1	 1.604336e+00	 1.017894e+00	-7.925010e-01
1	 1.585540e+00	 1.046931e+00	-9.534684e-01
1	 1.566182e+00	 1.075674e+00	-1.089491e+00
1	 1.666987e+00	 9.346130e-01	-1.718620e-01
1	 1.649810e+00	 9.646095e-01	-3.618742e-01
1	 1.632052e+00	 9.943595e-01	-5.380686e-01
1	 1.613718e+00	 1.023846e+00	-6.976755e-01
1	 1.594812e+00	 1.053053e+00	-8.379439e-01
1	 1.575341e+00	 1.081964e+00	-9.561510e-01
1	 1.676678e+00	 9.400468e-01	-1.485946e-01
1	 1.659402e+00	 9.702177e-01	-3.126308e-01
1	 1.641541e+00	 1.000141e+00	-4.648498e-01
1	 1.623100e+00	 1.029799e+00	-6.027700e-01
1	 1.604084e+00	 1.059176e+00	-7.239253e-01
1	 1.584500e+00	 1.088255e+00	-8.258738e-01
1	 1.686370e+00	 9.454806e-01	-1.204256e-01
1	 1.668994e+00	 9.758259e-01	-2.601156e-01
1	 1.651030e+00	 1.005922e+00	-3.899677e-01
1	 1.632482e+00	 1.035751e+00	-5.077858e-01
1	 1.613356e+00	 1.065298e+00	-6.113865e-01
1	 1.593659e+00	 1.094545e+00	-6.986064e-01
1	 1.696062e+00	 9.509144e-01	-8.743925e-02
1	 1.678586e+00	 9.814341e-01	-2.043846e-01
1	 1.660518e+00	 1.011703e+00	-3.134506e-01
1	 1.641864e+00	 1.041704e+00	-4.127243e-01
1	 1.622628e+00	 1.071420e+00	-5.003023e-01
1	 1.602818e+00	 1.100836e+00	-5.742972e-01
1	 1.557023e+00	 1.069383e+00	-1.225947e+00
1	 1.537227e+00	 1.097650e+00	-1.368544e+00
1	 1.516887e+00	 1.125591e+00	-1.507822e+00
1	 1.496010e+00	 1.153193e+00	-1.642510e+00
1	 1.474606e+00	 1.180440e+00	-1.771335e+00
1	 1.452683e+00	 1.207317e+00	-1.893030e+00
1	 1.566182e+00	 1.075674e+00	-1.089491e+00
1	 1.546269e+00	 1.104106e+00	-1.222791e+00
1	 1.525810e+00	 1.132213e+00	-1.350848e+00
1	 1.504810e+00	 1.159977e+00	-1.472258e+00
1	 1.483280e+00	 1.187384e+00	-1.585620e+00
1	 1.461228e+00	 1.214419e+00	-1.689547e+00
1	 1.575341e+00	 1.081964e+00	-9.561510e-01
1	 1.555312e+00	 1.110563e+00	-1.079420e+00
1	 1.534732e+00	 1.138834e+00	-1.195546e+00
1	 1.513610e+00	 1.166760e+00	-1.302992e+00
1	 1.491954e+00	 1.194328e+00	-1.400231e+00
1	 1.469773e+00	 1.221521e+00	-1.485755e+00
1	 1.584500e+00	 1.088255e+00	-8.258738e-01
1	 1.564354e+00	 1.117020e+00	-9.383914e-01
1	 1.543655e+00	 1.145455e+00	-1.041888e+00
1	 1.522410e+00	 1.173544e+00	-1.134695e+00
1	 1.500628e+00	 1.201272e+00	-1.215162e+00
1	 1.478318e+00	 1.228622e+00	-1.281661e+00
1	 1.593659e+00	 1.094545e+00	-6.986064e-01
1	 1.573397e+00	 1.123477e+00	-7.996640e-01
1	 1.552578e+00	 1.152076e+00	-8.898443e-01
1	 1.531210e+00	 1.180327e+00	-9.673506e-01
1	 1.509302e+00	 1.208215e+00	-1.030408e+00
1	 1.486864e+00	 1.235724e+00	-1.077269e+00
1	 1.602818e+00	 1.100836e+00	-5.742972e-01
1	 1.582440e+00	 1.129933e+00	-6.631984e-01
1	 1.561501e+00	 1.158697e+00	-7.393886e-01
1	 1.540010e+00	 1.187111e+00	-8.009427e-01
1	 1.517977e+00	 1.215159e+00	-8.459628e-01
1	 1.495409e+00	 1.242826e+00	-8.725839e-01
1	 1.452683e+00	 1.207317e+00	-1.893030e+00
1	 1.430251e+00	 1.233809e+00	-1.805554e+00
1	 1.407320e+00	 1.259901e+00	-1.770267e+00
1	 1.383902e+00	 1.285581e+00	-1.790201e+00
1	 1.360006e+00	 1.310833e+00	-1.868233e+00
1	 1.335646e+00	 1.335646e+00	-2.007071e+00
1	 1.461228e+00	 1.214419e+00	-1.689547e+00
1	 1.438664e+00	 1.241066e+00	-1.605862e+00
1	 1.415599e+00	 1.267312e+00	-1.570876e+00
1	 1.392042e+00	 1.293143e+00	-1.587468e+00
1	 1.368006e+00	 1.318544e+00	-1.658373e+00
1	 1.343503e+00	 1.343503e+00	-1.786167e+00
1	 1.469773e+00	 1.221521e+00	-1.485755e+00
1	 1.447077e+00	 1.248324e+00	-1.404894e+00
1	 1.423877e+00	 1.274724e+00	-1.369279e+00
1	 1.400183e+00	 1.300705e+00	-1.381641e+00
1	 1.376006e+00	 1.326255e+00	-1.444573e+00
1	 1.351360e+00	 1.351360e+00	-1.560523e+00
1	 1.478318e+00	 1.228622e+00	-1.281661e+00
1	 1.455491e+00	 1.255582e+00	-1.202671e+00
1	 1.432155e+00	 1.282135e+00	-1.165515e+00
1	 1.408323e+00	 1.308267e+00	-1.172774e+00
1	 1.384006e+00	 1.333966e+00	-1.226903e+00
1	 1.359216e+00	 1.359216e+00	-1.330219e+00
1	 1.486864e+00	 1.235724e+00	-1.077269e+00
1	 1.463904e+00	 1.262839e+00	-9.992139e-01
1	 1.440434e+00	 1.289546e+00	-9.596192e-01
1	 1.416464e+00	 1.315830e+00	-9.609183e-01
1	 1.392006e+00	 1.341676e+00	-1.005427e+00
1	 1.367073e+00	 1.367073e+00	-1.095338e+00
1	 1.495409e+00	 1.242826e+00	-8.725839e-01
1	 1.472317e+00	 1.270097e+00	-7.945449e-01
1	 1.448712e+00	 1.296957e+00	-7.516298e-01
1	 1.424605e+00	 1.323392e+00	-7.461259e-01
1	 1.400006e+00	 1.349387e+00	-7.802129e-01
1	 1.374930e+00	 1.374930e+00	-8.559555e-01
1	 1.335646e+00	 1.335646e+00	-2.007071e+00
1	 1.310833e+00	 1.360006e+00	-2.214337e+00
1	 1.285581e+00	 1.383902e+00	-2.446076e+00
1	 1.259901e+00	 1.407320e+00	-2.703495e+00
1	 1.233809e+00	 1.430251e+00	-2.987727e+00
1	 1.207317e+00	 1.452683e+00	-3.299830e+00
1	 1.343503e+00	 1.343503e+00	-1.786167e+00
1	 1.318544e+00	 1.368006e+00	-1.974510e+00
1	 1.293143e+00	 1.392042e+00	-2.187672e+00
1	 1.267312e+00	 1.415599e+00	-2.426894e+00
1	 1.241066e+00	 1.438664e+00	-2.693338e+00
1	 1.214419e+00	 1.461228e+00	-2.988091e+00
1	 1.351360e+00	 1.351360e+00	-1.560523e+00
1	 1.326255e+00	 1.376006e+00	-1.730032e+00
1	 1.300705e+00	 1.400183e+00	-1.924703e+00
1	 1.274724e+00	 1.423877e+00	-2.145806e+00
1	 1.248324e+00	 1.447077e+00	-2.394536e+00
1	 1.221521e+00	 1.469773e+00	-2.672006e+00
1	 1.359216e+00	 1.359216e+00	-1.330219e+00
1	 1.333966e+00	 1.384006e+00	-1.480985e+00
1	 1.308267e+00	 1.408323e+00	-1.657247e+00
1	 1.282135e+00	 1.432155e+00	-1.860310e+00
1	 1.255582e+00	 1.455491e+00	-2.091397e+00
1	 1.228622e+00	 1.478318e+00	-2.351651e+00
1	 1.367073e+00	 1.367073e+00	-1.095338e+00
1	 1.341676e+00	 1.392006e+00	-1.227446e+00
1	 1.315830e+00	 1.416464e+00	-1.385383e+00
1	 1.289546e+00	 1.440434e+00	-1.570481e+00
1	 1.262839e+00	 1.463904e+00	-1.783996e+00
1	 1.235724e+00	 1.486864e+00	-2.027098e+00
1	 1.374930e+00	 1.374930e+00	-8.559555e-01
1	 1.349387e+00	 1.400006e+00	-9.694933e-01
1	 1.323392e+00	 1.424605e+00	-1.109184e+00
1	 1.296957e+00	 1.448712e+00	-1.276394e+00
1	 1.270097e+00	 1.472317e+00	-1.472407e+00
1	 1.242826e+00	 1.495409e+00	-1.698421e+00
1	 1.207317e+00	 1.452683e+00	-3.299830e+00
1	 1.180440e+00	 1.474606e+00	-3.827324e+00
1	 1.153193e+00	 1.496010e+00	-4.288308e+00
1	 1.125591e+00	 1.516887e+00	-4.679730e+00
1	 1.097650e+00	 1.537227e+00	-4.998763e+00
1	 1.069383e+00	 1.557023e+00	-5.242813e+00
1	 1.214419e+00	 1.461228e+00	-2.988091e+00
1	 1.187384e+00	 1.483280e+00	-3.473860e+00
1	 1.159977e+00	 1.504810e+00	-3.895007e+00
1	 1.132213e+00	 1.525810e+00	-4.248550e+00
1	 1.104106e+00	 1.546269e+00	-4.531728e+00
1	 1.075674e+00	 1.566182e+00	-4.742008e+00
1	 1.221521e+00	 1.469773e+00	-2.672006e+00
1	 1.194328e+00	 1.491954e+00	-3.116506e+00
1	 1.166760e+00	 1.513610e+00	-3.498248e+00
1	 1.138834e+00	 1.534732e+00	-3.814322e+00
1	 1.110563e+00	 1.555312e+00	-4.062033e+00
1	 1.081964e+00	 1.575341e+00	-4.238904e+00
1	 1.228622e+00	 1.478318e+00	-2.351651e+00
1	 1.201272e+00	 1.500628e+00	-2.755329e+00
1	 1.173544e+00	 1.522410e+00	-3.098092e+00
1	 1.145455e+00	 1.543655e+00	-3.377101e+00
1	 1.117020e+00	 1.564354e+00	-3.589723e+00
1	 1.088255e+00	 1.584500e+00	-3.733543e+00
1	 1.235724e+00	 1.486864e+00	-2.027098e+00
1	 1.208215e+00	 1.509302e+00	-2.390395e+00
1	 1.180327e+00	 1.531210e+00	-2.694598e+00
1	 1.152076e+00	 1.552578e+00	-2.936936e+00
1	 1.123477e+00	 1.573397e+00	-3.114843e+00
1	 1.094545e+00	 1.593659e+00	-3.225962e+00
1	 1.242826e+00	 1.495409e+00	-1.698421e+00
1	 1.215159e+00	 1.517977e+00	-2.021768e+00
1	 1.187111e+00	 1.540010e+00	-2.287822e+00
1	 1.158697e+00	 1.561501e+00	-2.493880e+00
1	 1.129933e+00	 1.582440e+00	-2.637439e+00
1	 1.100836e+00	 1.602818e+00	-2.716200e+00
1	 1.069383e+00	 1.557023e+00	-5.242813e+00
1	 1.040808e+00	 1.576267e+00	-5.394500e+00
1	 1.011941e+00	 1.594953e+00	-5.472744e+00
1	 9.827972e-01	 1.613075e+00	-5.475419e+00
1	 9.533931e-01	 1.630626e+00	-5.400641e+00
1	 9.237454e-01	 1.647603e+00	-5.246767e+00
1	 1.075674e+00	 1.566182e+00	-4.742008e+00
1	 1.046931e+00	 1.585540e+00	-4.862749e+00
1	 1.017894e+00	 1.604336e+00	-4.915305e+00
1	 9.885783e-01	 1.622564e+00	-4.897729e+00
1	 9.590013e-01	 1.640218e+00	-4.808295e+00
1	 9.291792e-01	 1.657295e+00	-4.645504e+00
1	 1.081964e+00	 1.575341e+00	-4.238904e+00
1	 1.053053e+00	 1.594812e+00	-4.329989e+00
1	 1.023846e+00	 1.613718e+00	-4.358084e+00
1	 9.943595e-01	 1.632052e+00	-4.321419e+00
1	 9.646095e-01	 1.649810e+00	-4.218428e+00
1	 9.346130e-01	 1.666987e+00	-4.047753e+00
1	 1.088255e+00	 1.584500e+00	-3.733543e+00
1	 1.059176e+00	 1.604084e+00	-3.796236e+00
1	 1.029799e+00	 1.623100e+00	-3.801076e+00
1	 1.000141e+00	 1.641541e+00	-3.746465e+00
1	 9.702177e-01	 1.659402e+00	-3.630997e+00
1	 9.400468e-01	 1.676678e+00	-3.453453e+00
1	 1.094545e+00	 1.593659e+00	-3.225962e+00
1	 1.065298e+00	 1.613356e+00	-3.261508e+00
1	 1.035751e+00	 1.632482e+00	-3.244277e+00
1	 1.005922e+00	 1.651030e+00	-3.172845e+00
1	 9.758259e-01	 1.668994e+00	-3.045961e+00
1	 9.454806e-01	 1.686370e+00	-2.862546e+00
1	 1.100836e+00	 1.602818e+00	-2.716200e+00
1	 1.071420e+00	 1.622628e+00	-2.725822e+00
1	 1.041704e+00	 1.641864e+00	-2.687684e+00
1	 1.011703e+00	 1.660518e+00	-2.600534e+00
1	 9.814341e-01	 1.678586e+00	-2.463277e+00
1	 9.509144e-01	 1.696062e+00	-2.274973e+00
1	 9.237454e-01	 1.647603e+00	-5.246767e+00
1	 8.938704e-01	 1.664000e+00	-4.929316e+00
1	 8.637848e-01	 1.679815e+00	-4.591611e+00
1	 8.335051e-01	 1.695043e+00	-4.233886e+00
1	 8.030481e-01	 1.709683e+00	-3.856425e+00
1	 7.724301e-01	 1.723732e+00	-3.459558e+00
1	 9.291792e-01	 1.657295e+00	-4.645504e+00
1	 8.991285e-01	 1.673789e+00	-4.334726e+00
1	 8.688659e-01	 1.689696e+00	-4.007696e+00
1	 8.384081e-01	 1.705014e+00	-3.664671e+00
1	 8.077719e-01	 1.719740e+00	-3.305939e+00
1	 7.769738e-01	 1.733872e+00	-2.931830e+00
1	 9.346130e-01	 1.666987e+00	-4.047753e+00
1	 9.043865e-01	 1.683577e+00	-3.744041e+00
1	 8.739470e-01	 1.699577e+00	-3.428037e+00
1	 8.433111e-01	 1.714985e+00	-3.100015e+00
1	 8.124957e-01	 1.729797e+00	-2.760275e+00
1	 7.815175e-01	 1.744011e+00	-2.409142e+00
1	 9.400468e-01	 1.676678e+00	-3.453453e+00
1	 9.096446e-01	 1.693365e+00	-3.157194e+00
1	 8.790281e-01	 1.709458e+00	-2.852559e+00
1	 8.482141e-01	 1.724955e+00	-2.539842e+00
1	 8.172195e-01	 1.739854e+00	-2.219350e+00
1	 7.860612e-01	 1.754151e+00	-1.891405e+00
1	 9.454806e-01	 1.686370e+00	-2.862546e+00
1	 9.149027e-01	 1.703153e+00	-2.574119e+00
1	 8.841091e-01	 1.719340e+00	-2.281190e+00
1	 8.531170e-01	 1.734926e+00	-1.984072e+00
1	 8.219433e-01	 1.749911e+00	-1.683080e+00
1	 7.906050e-01	 1.764291e+00	-1.378534e+00
1	 9.509144e-01	 1.696062e+00	-2.274973e+00
1	 9.201607e-01	 1.712941e+00	-1.994751e+00
1	 8.891902e-01	 1.729221e+00	-1.713860e+00
1	 8.580200e-01	 1.744897e+00	-1.432631e+00
1	 8.266671e-01	 1.759968e+00	-1.151388e+00
1	 7.951487e-01	 1.774430e+00	-8.704469e-01
1	 7.724301e-01	 1.723732e+00	-3.459558e+00
1	 7.416679e-01	 1.737190e+00	-3.001556e+00
1	 7.107779e-01	 1.750056e+00	-2.651816e+00
1	 6.797763e-01	 1.762330e+00	-2.411896e+00
1	 6.486796e-01	 1.774011e+00	-2.283010e+00
1	 6.175037e-01	 1.785102e+00	-2.266031e+00
1	 7.769738e-01	 1.733872e+00	-2.931830e+00
1	 7.460307e-01	 1.747409e+00	-2.515146e+00
1	 7.149589e-01	 1.760350e+00	-2.204909e+00
1	 6.837750e-01	 1.772696e+00	-2.002645e+00
1	 6.524954e-01	 1.784447e+00	-1.909542e+00
1	 6.211361e-01	 1.795603e+00	-1.926450e+00
1	 7.815175e-01	 1.744011e+00	-2.409142e+00
1	 7.503934e-01	 1.757628e+00	-2.033464e+00
1	 7.191399e-01	 1.770645e+00	-1.762442e+00
1	 6.877737e-01	 1.783063e+00	-1.597572e+00
1	 6.563111e-01	 1.794882e+00	-1.540013e+00
1	 6.247685e-01	 1.806104e+00	-1.590596e+00
1	 7.860612e-01	 1.754151e+00	-1.891405e+00
1	 7.547562e-01	 1.767847e+00	-1.556426e+00
1	 7.233210e-01	 1.780939e+00	-1.324338e+00
1	 6.917724e-01	 1.793429e+00	-1.196603e+00
1	 6.601269e-01	 1.805317e+00	-1.174355e+00
1	 6.284009e-01	 1.816604e+00	-1.258403e+00
1	 7.906050e-01	 1.764291e+00	-1.378534e+00
1	 7.591189e-01	 1.778065e+00	-1.083954e+00
1	 7.275020e-01	 1.791234e+00	-8.905206e-01
1	 6.957711e-01	 1.803796e+00	-7.996674e-01
1	 6.639426e-01	 1.815753e+00	-8.125010e-01
1	 6.320332e-01	 1.827105e+00	-9.298087e-01
1	 7.951487e-01	 1.774430e+00	-8.704469e-01
1	 7.634817e-01	 1.788284e+00	-6.159676e-01
1	 7.316831e-01	 1.801528e+00	-4.609172e-01
1	 6.997698e-01	 1.814163e+00	-4.066962e-01
1	 6.677584e-01	 1.826188e+00	-4.543856e-01
1	 6.356656e-01	 1.837605e+00	-6.047510e-01
1	 6.175037e-01	 1.785102e+00	-2.266031e+00
1	 5.862647e-01	 1.795604e+00	-2.376726e+00
1	 5.549781e-01	 1.805519e+00	-2.708808e+00
1	 5.236596e-01	 1.814850e+00	-3.262420e+00
1	 4.923244e-01	 1.823600e+00	-4.037082e+00
1	 4.609875e-01	 1.831773e+00	-5.031708e+00
1	 6.211361e-01	 1.795603e+00	-1.926450e+00
1	 5.897133e-01	 1.806167e+00	-2.070093e+00
1	 5.582427e-01	 1.816140e+00	-2.411899e+00
1	 5.267399e-01	 1.825526e+00	-2.951930e+00
1	 4.952204e-01	 1.834327e+00	-3.689692e+00
1	 4.636992e-01	 1.842548e+00	-4.624150e+00
1	 6.247685e-01	 1.806104e+00	-1.590596e+00
1	 5.931619e-01	 1.816729e+00	-1.764413e+00
1	 5.615073e-01	 1.826761e+00	-2.113450e+00
1	 5.298203e-01	 1.836202e+00	-2.637690e+00
1	 4.981164e-01	 1.845054e+00	-3.336623e+00
1	 4.664109e-01	 1.853323e+00	-4.209265e+00
1	 6.284009e-01	 1.816604e+00	-1.258403e+00
1	 5.966105e-01	 1.827291e+00	-1.459669e+00
1	 5.647718e-01	 1.837382e+00	-1.813489e+00
1	 5.329006e-01	 1.846877e+00	-2.319766e+00
1	 5.010125e-01	 1.855781e+00	-2.977976e+00
1	 4.691226e-01	 1.864098e+00	-3.787181e+00
1	 6.320332e-01	 1.827105e+00	-9.298087e-01
1	 6.000591e-01	 1.837854e+00	-1.155845e+00
1	 5.680364e-01	 1.848002e+00	-1.512042e+00
1	 5.359810e-01	 1.857553e+00	-1.998222e+00
1	 5.039085e-01	 1.866509e+00	-2.613845e+00
1	 4.718343e-01	 1.874873e+00	-3.358021e+00
1	 6.356656e-01	 1.837605e+00	-6.047510e-01
1	 6.035077e-01	 1.848416e+00	-8.529252e-01
1	 5.713010e-01	 1.858623e+00	-1.209134e+00
1	 5.390613e-01	 1.868228e+00	-1.673119e+00
1	 5.068045e-01	 1.877236e+00	-2.244325e+00
1	 4.745460e-01	 1.885649e+00	-2.921907e+00
1	 4.609875e-01	 1.831773e+00	-5.031708e+00
1	 4.296638e-01	 1.839372e+00	-6.235828e+00
1	 3.983676e-01	 1.846403e+00	-7.592153e+00
1	 3.671131e-01	 1.852871e+00	-9.098088e+00
1	 3.359142e-01	 1.858780e+00	-1.075069e+01
1	 3.047844e-01	 1.864137e+00	-1.254670e+01
1	 4.636992e-01	 1.842548e+00	-4.624150e+00
1	 4.321912e-01	 1.850192e+00	-5.743231e+00
1	 4.007109e-01	 1.857264e+00	-7.000334e+00
1	 3.692726e-01	 1.863770e+00	-8.393080e+00
1	 3.378902e-01	 1.869714e+00	-9.918781e+00
1	 3.065772e-01	 1.875103e+00	-1.157445e+01
1	 4.664109e-01	 1.853323e+00	-4.209265e+00
1	 4.347187e-01	 1.861012e+00	-5.242879e+00
1	 4.030543e-01	 1.868126e+00	-6.400502e+00
1	 3.714321e-01	 1.874669e+00	-7.679970e+00
1	 3.398661e-01	 1.880648e+00	-9.078842e+00
1	 3.083701e-01	 1.886068e+00	-1.059441e+01
1	 4.691226e-01	 1.864098e+00	-3.787181e+00
1	 4.372461e-01	 1.871832e+00	-4.734907e+00
1	 4.053976e-01	 1.878987e+00	-5.792796e+00
1	 3.735916e-01	 1.885568e+00	-6.958898e+00
1	 3.418421e-01	 1.891582e+00	-8.231015e+00
1	 3.101629e-01	 1.897034e+00	-9.606714e+00
1	 4.718343e-01	 1.874873e+00	-3.358021e+00
1	 4.397735e-01	 1.882652e+00	-4.219447e+00
1	 4.077409e-01	 1.889848e+00	-5.177353e+00
1	 3.757511e-01	 1.896467e+00	-6.230002e+00
1	 3.438181e-01	 1.902516e+00	-7.375436e+00
1	 3.119558e-01	 1.907999e+00	-8.611495e+00
1	 4.745460e-01	 1.885649e+00	-2.921907e+00
1	 4.423010e-01	 1.893471e+00	-3.696626e+00
1	 4.100843e-01	 1.900709e+00	-4.554305e+00
1	 3.779106e-01	 1.907367e+00	-5.493414e+00
1	 3.457940e-01	 1.913450e+00	-6.512237e+00
1	 3.137486e-01	 1.918965e+00	-7.608882e+00
1	 3.047844e-01	 1.864137e+00	-1.254670e+01
1	 2.737368e-01	 1.868949e+00	-1.441116e+01
1	 2.427843e-01	 1.873221e+00	-1.626037e+01
1	 2.119393e-01	 1.876961e+00	-1.809313e+01
1	 1.812139e-01	 1.880176e+00	-1.990831e+01
1	 1.506197e-01	 1.882874e+00	-2.170483e+01
1	 3.065772e-01	 1.875103e+00	-1.157445e+01
1	 2.753470e-01	 1.879943e+00	-1.329265e+01
1	 2.442124e-01	 1.884240e+00	-1.499730e+01
1	 2.131860e-01	 1.888002e+00	-1.668731e+01
1	 1.822798e-01	 1.891236e+00	-1.836167e+01
1	 1.515057e-01	 1.893950e+00	-2.001941e+01
1	 3.083701e-01	 1.886068e+00	-1.059441e+01
1	 2.769572e-01	 1.890936e+00	-1.216700e+01
1	 2.456406e-01	 1.895259e+00	-1.372770e+01
1	 2.144327e-01	 1.899043e+00	-1.527558e+01
1	 1.833458e-01	 1.902296e+00	-1.680973e+01
1	 1.523917e-01	 1.905026e+00	-1.832927e+01
1	 3.101629e-01	 1.897034e+00	-9.606714e+00
1	 2.785675e-01	 1.901930e+00	-1.103431e+01
1	 2.470687e-01	 1.906278e+00	-1.245170e+01
1	 2.156794e-01	 1.910084e+00	-1.385805e+01
1	 1.844117e-01	 1.913356e+00	-1.525256e+01
1	 1.532777e-01	 1.916101e+00	-1.663448e+01
1	 3.119558e-01	 1.907999e+00	-8.611495e+00
1	 2.801777e-01	 1.912924e+00	-9.894726e+00
1	 2.484969e-01	 1.917297e+00	-1.116940e+01
1	 2.169261e-01	 1.921125e+00	-1.243480e+01
1	 1.854777e-01	 1.924416e+00	-1.369025e+01
1	 1.541637e-01	 1.927177e+00	-1.493511e+01
1	 3.137486e-01	 1.918965e+00	-7.608882e+00
1	 2.817879e-01	 1.923918e+00	-8.748352e+00
1	 2.499250e-01	 1.928316e+00	-9.880901e+00
1	 2.181728e-01	 1.932166e+00	-1.100594e+01
1	 1.865437e-01	 1.935476e+00	-1.212291e+01
1	 1.550497e-01	 1.938253e+00	-1.323126e+01
1	 1.506197e-01	 1.882874e+00	-2.170483e+01
1	 1.201681e-01	 1.885063e+00	-2.339684e+01
1	 8.987007e-02	 1.886750e+00	-2.503029e+01
1	 5.973601e-02	 1.887944e+00	-2.660537e+01
1	 2.977608e-02	 1.888654e+00	-2.812239e+01
1	 0.000000e+00	 1.888889e+00	-2.958177e+01
1	 1.515057e-01	 1.893950e+00	-2.001941e+01
1	 1.208750e-01	 1.896151e+00	-2.158146e+01
1	 9.039871e-02	 1.897848e+00	-2.309591e+01
1	 6.008740e-02	 1.899050e+00	-2.456291e+01
1	 2.995124e-02	 1.899764e+00	-2.598269e+01
1	 0.000000e+00	 1.900000e+00	-2.735557e+01
1	 1.523917e-01	 1.905026e+00	-1.832927e+01
1	 1.215819e-01	 1.907240e+00	-1.976217e+01
1	 9.092736e-02	 1.908947e+00	-2.115833e+01
1	 6.043879e-02	 1.910155e+00	-2.251784e+01
1	 3.012639e-02	 1.910874e+00	-2.384086e+01
1	 0.000000e+00	 1.911111e+00	-2.512761e+01
1	 1.532777e-01	 1.916101e+00	-1.663448e+01
1	 1.222888e-01	 1.918328e+00	-1.793905e+01
1	 9.145601e-02	 1.920045e+00	-1.921762e+01
1	 6.079018e-02	 1.921261e+00	-2.047023e+01
1	 3.030154e-02	 1.921983e+00	-2.169696e+01
1	 0.000000e+00	 1.922222e+00	-2.289792e+01
1	 1.541637e-01	 1.927177e+00	-1.493511e+01
1	 1.229956e-01	 1.929417e+00	-1.611216e+01
1	 9.198466e-02	 1.931144e+00	-1.727383e+01
1	 6.114156e-02	 1.932366e+00	-1.842011e+01
1	 3.047670e-02	 1.933093e+00	-1.955101e+01
1	 0.000000e+00	 1.933333e+00	-2.066654e+01
1	 1.550497e-01	 1.938253e+00	-1.323126e+01
1	 1.237025e-01	 1.940506e+00	-1.428157e+01
1	 9.251330e-02	 1.942242e+00	-1.532702e+01
1	 6.149295e-02	 1.943472e+00	-1.636753e+01
1	 3.065185e-02	 1.944203e+00	-1.740305e+01
1	 0.000000e+00	 1.944444e+00	-1.843350e+01
1	 1.944444e+00	 0.000000e+00	 3.306647e+00
1	 1.944203e+00	 3.065185e-02	 3.139924e+00
1	 1.943472e+00	 6.149295e-02	 2.972973e+00
1	 1.942242e+00	 9.251330e-02	 2.805367e+00
1	 1.940506e+00	 1.237025e-01	 2.636665e+00
1	 1.938253e+00	 1.550497e-01	 2.466409e+00
1	 1.955556e+00	 0.000000e+00	 2.993532e+00
1	 1.955313e+00	 3.082700e-02	 2.834334e+00
1	 1.954577e+00	 6.184434e-02	 2.677789e+00
1	 1.953341e+00	 9.304195e-02	 2.523375e+00
1	 1.951594e+00	 1.244094e-01	 2.370539e+00
1	 1.949328e+00	 1.559357e-01	 2.218704e+00
1	 1.966667e+00	 0.000000e+00	 2.685464e+00
1	 1.966422e+00	 3.100216e-02	 2.532743e+00
1	 1.965683e+00	 6.219573e-02	 2.385523e+00
1	 1.964439e+00	 9.357060e-02	 2.243181e+00
1	 1.962683e+00	 1.251162e-01	 2.105060e+00
1	 1.960404e+00	 1.568217e-01	 1.970459e+00
1	 1.977778e+00	 0.000000e+00	 2.382358e+00
1	 1.977532e+00	 3.117731e-02	 2.235085e+00
1	 1.976789e+00	 6.254712e-02	 2.096124e+00
1	 1.975538e+00	 9.409925e-02	 1.964756e+00
1	 1.973771e+00	 1.258231e-01	 1.840216e+00
1	 1.971480e+00	 1.577077e-01	 1.721684e+00
1	 1.988889e+00	 0.000000e+00	 2.084130e+00
1	 1.988642e+00	 3.135246e-02	 1.941293e+00
1	 1.987894e+00	 6.289851e-02	 1.809544e+00
1	 1.986636e+00	 9.462789e-02	 1.688070e+00
1	 1.984860e+00	 1.265300e-01	 1.575996e+00
1	 1.982556e+00	 1.585937e-01	 1.472386e+00
1	 2.000000e+00	 0.000000e+00	 1.790699e+00
1	 1.999751e+00	 3.152762e-02	 1.651302e+00
1	 1.999000e+00	 6.324989e-02	 1.525737e+00
1	 1.997735e+00	 9.515654e-02	 1.413094e+00
1	 1.995949e+00	 1.272369e-01	 1.312390e+00
1	 1.993631e+00	 1.594797e-01	 1.222575e+00
1	 1.938253e+00	 1.550497e-01	 2.466409e+00
1	 1.935476e+00	 1.865437e-01	 2.266182e+00
1	 1.932166e+00	 2.181728e-01	 2.061721e+00
1	 1.928316e+00	 2.499250e-01	 1.852612e+00
1	 1.923918e+00	 2.817879e-01	 1.638434e+00
1	 1.918965e+00	 3.137486e-01	 1.418761e+00
1	 1.949328e+00	 1.559357e-01	 2.218704e+00
1	 1.946535e+00	 1.876096e-01	 2.039551e+00
1	 1.943207e+00	 2.194195e-01	 1.855676e+00
1	 1.939335e+00	 2.513532e-01	 1.666747e+00
1	 1.934912e+00	 2.833981e-01	 1.472429e+00
1	 1.929930e+00	 3.155415e-01	 1.272386e+00
1	 1.960404e+00	 1.568217e-01	 1.970459e+00
1	 1.957595e+00	 1.886756e-01	 1.813076e+00
1	 1.954248e+00	 2.206662e-01	 1.650496e+00
1	 1.950354e+00	 2.527813e-01	 1.482466e+00
1	 1.945905e+00	 2.850083e-01	 1.308738e+00
1	 1.940896e+00	 3.173343e-01	 1.129063e+00
1	 1.971480e+00	 1.577077e-01	 1.721684e+00
1	 1.968655e+00	 1.897416e-01	 1.586756e+00
1	 1.965289e+00	 2.219129e-01	 1.446166e+00
1	 1.961373e+00	 2.542094e-01	 1.299742e+00
1	 1.956899e+00	 2.866185e-01	 1.147320e+00
1	 1.951861e+00	 3.191272e-01	 9.887394e-01
1	 1.982556e+00	 1.585937e-01	 1.472386e+00
1	 1.979715e+00	 1.908075e-01	 1.360586e+00
1	 1.976330e+00	 2.231596e-01	 1.242671e+00
1	 1.972392e+00	 2.556376e-01	 1.118549e+00
1	 1.967893e+00	 2.882288e-01	 9.881376e-01
1	 1.962827e+00	 3.209200e-01	 8.513663e-01
1	 1.993631e+00	 1.594797e-01	 1.222575e+00
1	 1.990775e+00	 1.918735e-01	 1.134565e+00
1	 1.987371e+00	 2.244063e-01	 1.039998e+00
1	 1.983411e+00	 2.570657e-01	 9.388612e-01
1	 1.978887e+00	 2.898390e-01	 8.311541e-01
1	 1.973792e+00	 3.227129e-01	 7.168940e-01
1	 1.918965e+00	 3.137486e-01	 1.418761e+00
1	 1.913450e+00	 3.457940e-01	 1.190280e+00
1	 1.907367e+00	 3.779106e-01	 9.765642e-01
1	 1.900709e+00	 4.100843e-01	 7.786018e-01
1	 1.893471e+00	 4.423010e-01	 5.973638e-01
1	 1.885649e+00	 4.745460e-01	 4.337997e-01
1	 1.929930e+00	 3.155415e-01	 1.272386e+00
1	 1.924384e+00	 3.477700e-01	 1.069367e+00
1	 1.918266e+00	 3.800701e-01	 8.795659e-01
1	 1.911570e+00	 4.124276e-01	 7.037452e-01
1	 1.904291e+00	 4.448284e-01	 5.426477e-01
1	 1.896424e+00	 4.772577e-01	 3.969942e-01
1	 1.940896e+00	 3.173343e-01	 1.129063e+00
1	 1.935318e+00	 3.497460e-01	 9.502098e-01
1	 1.929165e+00	 3.822295e-01	 7.830415e-01
1	 1.922431e+00	 4.147710e-01	 6.280956e-01
1	 1.915111e+00	 4.473558e-01	 4.858891e-01
1	 1.907199e+00	 4.799694e-01	 3.569155e-01
1	 1.951861e+00	 3.191272e-01	 9.887394e-01
1	 1.946252e+00	 3.517219e-01	 8.327792e-01
1	 1.940064e+00	 3.843890e-01	 6.869830e-01
1	 1.933293e+00	 4.171143e-01	 5.516665e-01
1	 1.925931e+00	 4.498833e-01	 4.271223e-01
1	 1.917974e+00	 4.826811e-01	 3.136189e-01
1	 1.962827e+00	 3.209200e-01	 8.513663e-01
1	 1.957186e+00	 3.536979e-01	 7.170463e-01
1	 1.950964e+00	 3.865485e-01	 5.913827e-01
1	 1.944154e+00	 4.194576e-01	 4.744708e-01
1	 1.936751e+00	 4.524107e-01	 3.663809e-01
1	 1.928749e+00	 4.853928e-01	 2.671583e-01
1	 1.973792e+00	 3.227129e-01	 7.168940e-01
1	 1.968120e+00	 3.556739e-01	 6.029827e-01
1	 1.961863e+00	 3.887080e-01	 4.962330e-01
1	 1.955015e+00	 4.218010e-01	 3.965213e-01
1	 1.947571e+00	 4.549381e-01	 3.036980e-01
1	 1.939524e+00	 4.881045e-01	 2.175865e-01
1	 1.885649e+00	 4.745460e-01	 4.337997e-01
1	 1.877236e+00	 5.068045e-01	 2.685795e-01
1	 1.868228e+00	 5.390613e-01	 1.264957e-01
1	 1.858623e+00	 5.713010e-01	 8.503714e-03
1	 1.848416e+00	 6.035077e-01	-8.448518e-02
1	 1.837605e+00	 6.356656e-01	-1.516076e-01
1	 1.896424e+00	 4.772577e-01	 3.969942e-01
1	 1.887963e+00	 5.097006e-01	 2.483759e-01
1	 1.878904e+00	 5.421417e-01	 1.204537e-01
1	 1.869244e+00	 5.745656e-01	 1.422502e-02
1	 1.858979e+00	 6.069563e-01	-6.934852e-02
1	 1.848106e+00	 6.392980e-01	-1.293456e-01
1	 1.907199e+00	 4.799694e-01	 3.569155e-01
1	 1.898690e+00	 5.125966e-01	 2.253681e-01
1	 1.889580e+00	 5.452220e-01	 1.121052e-01
1	 1.879864e+00	 5.778301e-01	 1.816653e-02
1	 1.869541e+00	 6.104050e-01	-5.543664e-02
1	 1.858607e+00	 6.429304e-01	-1.077253e-01
1	 1.917974e+00	 4.826811e-01	 3.136189e-01
1	 1.909417e+00	 5.154926e-01	 1.996033e-01
1	 1.900255e+00	 5.483024e-01	 1.014893e-01
1	 1.890485e+00	 5.810947e-01	 2.035825e-02
1	 1.880103e+00	 6.138536e-01	-4.272890e-02
1	 1.869107e+00	 6.465627e-01	-8.673595e-02
1	 1.928749e+00	 4.853928e-01	 2.671583e-01
1	 1.920144e+00	 5.183886e-01	 1.711277e-01
1	 1.910931e+00	 5.513827e-01	 8.864377e-02
1	 1.901106e+00	 5.843593e-01	 2.082950e-02
1	 1.890666e+00	 6.173022e-01	-3.120511e-02
1	 1.879608e+00	 6.501951e-01	-6.636699e-02
1	 1.939524e+00	 4.881045e-01	 2.175865e-01
1	 1.930871e+00	 5.212847e-01	 1.399865e-01
1	 1.921606e+00	 5.544631e-01	 7.360590e-02
1	 1.911726e+00	 5.876239e-01	 1.960895e-02
1	 1.901228e+00	 6.207508e-01	-2.084554e-02
1	 1.890108e+00	 6.538275e-01	-4.660808e-02
1	 1.837605e+00	 6.356656e-01	-1.516076e-01
1	 1.826188e+00	 6.677584e-01	-1.600284e-01
1	 1.814163e+00	 6.997698e-01	-1.602812e-01
1	 1.801528e+00	 7.316831e-01	-1.538568e-01
1	 1.788284e+00	 7.634817e-01	-1.422994e-01
1	 1.774430e+00	 7.951487e-01	-1.272023e-01
1	 1.848106e+00	 6.392980e-01	-1.293456e-01
1	 1.836623e+00	 6.715742e-01	-1.433081e-01
1	 1.824529e+00	 7.037684e-01	-1.491371e-01
1	 1.811823e+00	 7.358641e-01	-1.479575e-01
1	 1.798503e+00	 7.678444e-01	-1.409399e-01
1	 1.784570e+00	 7.996924e-01	-1.292975e-01
1	 1.858607e+00	 6.429304e-01	-1.077253e-01
1	 1.847059e+00	 6.753899e-01	-1.249890e-01
1	 1.834896e+00	 7.077671e-01	-1.341437e-01
1	 1.822117e+00	 7.400452e-01	-1.359515e-01
1	 1.808722e+00	 7.722072e-01	-1.312127e-01
1	 1.794709e+00	 8.042361e-01	-1.207636e-01
1	 1.869107e+00	 6.465627e-01	-8.673595e-02
1	 1.857494e+00	 6.792057e-01	-1.050979e-01
1	 1.845263e+00	 7.117658e-01	-1.153657e-01
1	 1.832412e+00	 7.442262e-01	-1.179417e-01
1	 1.818940e+00	 7.765699e-01	-1.132588e-01
1	 1.804849e+00	 8.087798e-01	-1.017797e-01
1	 1.879608e+00	 6.501951e-01	-6.636699e-02
1	 1.867930e+00	 6.830215e-01	-8.366121e-02
1	 1.855629e+00	 7.157645e-01	-9.286666e-02
1	 1.842706e+00	 7.484073e-01	-9.402875e-02
1	 1.829159e+00	 7.809327e-01	-8.721614e-02
1	 1.814989e+00	 8.133235e-01	-7.252109e-02
1	 1.890108e+00	 6.538275e-01	-4.660808e-02
1	 1.878365e+00	 6.868372e-01	-6.070472e-02
1	 1.865996e+00	 7.197632e-01	-6.670852e-02
1	 1.853000e+00	 7.525883e-01	-6.431096e-02
1	 1.839378e+00	 7.852954e-01	-5.321950e-02
1	 1.825128e+00	 8.178672e-01	-3.315888e-02
1	 1.774430e+00	 7.951487e-01	-1.272023e-01
1	 1.759968e+00	 8.266671e-01	-8.755639e-02
1	 1.744897e+00	 8.580200e-01	-6.246833e-02
1	 1.729221e+00	 8.891902e-01	-5.323686e-02
1	 1.712941e+00	 9.201607e-01	-6.114176e-02
1	 1.696062e+00	 9.509144e-01	-8.743925e-02
1	 1.784570e+00	 7.996924e-01	-1.292975e-01
1	 1.770024e+00	 8.313909e-01	-9.050842e-02
1	 1.754868e+00	 8.629230e-01	-6.493600e-02
1	 1.739102e+00	 8.942713e-01	-5.411795e-02
1	 1.722730e+00	 9.254188e-01	-5.957964e-02
1	 1.705754e+00	 9.563482e-01	-8.282891e-02
1	 1.794709e+00	 8.042361e-01	-1.207636e-01
1	 1.780081e+00	 8.361147e-01	-8.424540e-02
1	 1.764839e+00	 8.678259e-01	-5.961673e-02
1	 1.748983e+00	 8.993524e-01	-4.865230e-02
1	 1.732518e+00	 9.306768e-01	-5.312111e-02
1	 1.715445e+00	 9.617820e-01	-7.478053e-02
1	 1.804849e+00	 8.087798e-01	-1.017797e-01
1	 1.790138e+00	 8.408386e-01	-6.892263e-02
1	 1.774810e+00	 8.727289e-01	-4.664174e-02
1	 1.758865e+00	 9.044335e-01	-3.694687e-02
1	 1.742306e+00	 9.359349e-01	-4.184868e-02
1	 1.725137e+00	 9.672158e-01	-6.335204e-02
1	 1.814989e+00	 8.133235e-01	-7.252109e-02
1	 1.800195e+00	 8.455624e-01	-4.469195e-02
1	 1.784780e+00	 8.776319e-01	-2.613934e-02
1	 1.768746e+00	 9.095146e-01	-1.910625e-02
1	 1.752094e+00	 9.411930e-01	-2.584304e-02
1	 1.734829e+00	 9.726496e-01	-4.860011e-02
1	 1.825128e+00	 8.178672e-01	-3.315888e-02
1	 1.810252e+00	 8.502862e-01	-1.170184e-02
1	 1.794751e+00	 8.825349e-01	 1.765005e-03
1	 1.778627e+00	 9.145957e-01	 4.767316e-03
1	 1.761883e+00	 9.464510e-01	-5.183068e-03
1	 1.744521e+00	 9.780834e-01	-3.058012e-02
1	 1.696062e+00	 9.509144e-01	-8.743925e-02
1	 1.678586e+00	 9.814341e-01	-2.043846e-01
1	 1.660518e+00	 1.011703e+00	-3.134506e-01
1	 1.641864e+00	 1.041704e+00	-4.127243e-01
1	 1.622628e+00	 1.071420e+00	-5.003023e-01
1	 1.602818e+00	 1.100836e+00	-5.742972e-01
1	 1.705754e+00	 9.563482e-01	-8.282891e-02
1	 1.688178e+00	 9.870423e-01	-1.807792e-01
1	 1.670007e+00	 1.017484e+00	-2.733547e-01
1	 1.651246e+00	 1.047657e+00	-3.589093e-01
1	 1.631900e+00	 1.077543e+00	-4.358020e-01
1	 1.611977e+00	 1.107126e+00	-5.024015e-01
1	 1.715445e+00	 9.617820e-01	-7.478053e-02
1	 1.697770e+00	 9.926505e-01	-1.551973e-01
1	 1.679496e+00	 1.023265e+00	-2.327177e-01
1	 1.660628e+00	 1.053609e+00	-3.059605e-01
1	 1.641173e+00	 1.083665e+00	-3.735443e-01
1	 1.621136e+00	 1.113417e+00	-4.340922e-01
1	 1.725137e+00	 9.672158e-01	-6.335204e-02
1	 1.707362e+00	 9.982587e-01	-1.276721e-01
1	 1.688984e+00	 1.029046e+00	-1.915488e-01
1	 1.670010e+00	 1.059562e+00	-2.538632e-01
1	 1.650445e+00	 1.089788e+00	-3.134916e-01
1	 1.630295e+00	 1.119707e+00	-3.693089e-01
1	 1.734829e+00	 9.726496e-01	-4.860011e-02
1	 1.716954e+00	 1.003867e+00	-9.823634e-02
1	 1.698473e+00	 1.034828e+00	-1.498570e-01
1	 1.679392e+00	 1.065514e+00	-2.026032e-01
1	 1.659717e+00	 1.095910e+00	-2.556068e-01
1	 1.639454e+00	 1.125998e+00	-3.079924e-01
1	 1.744521e+00	 9.780834e-01	-3.058012e-02
1	 1.726546e+00	 1.009475e+00	-6.692172e-02
1	 1.707962e+00	 1.040609e+00	-1.076508e-01
1	 1.688774e+00	 1.071467e+00	-1.521665e-01
1	 1.668989e+00	 1.102033e+00	-1.998538e-01
1	 1.648613e+00	 1.132288e+00	-2.500850e-01
1	 1.602818e+00	 1.100836e+00	-5.742972e-01
1	 1.582440e+00	 1.129933e+00	-6.631984e-01
1	 1.561501e+00	 1.158697e+00	-7.393886e-01
1	 1.540010e+00	 1.187111e+00	-8.009427e-01
1	 1.517977e+00	 1.215159e+00	-8.459628e-01
1	 1.495409e+00	 1.242826e+00	-8.725839e-01
1	 1.611977e+00	 1.107126e+00	-5.024015e-01
1	 1.591482e+00	 1.136390e+00	-5.835159e-01
1	 1.570424e+00	 1.165318e+00	-6.508920e-01
1	 1.548810e+00	 1.193894e+00	-7.024755e-01
1	 1.526651e+00	 1.222103e+00	-7.362418e-01
1	 1.503954e+00	 1.249928e+00	-7.502032e-01
1	 1.621136e+00	 1.113417e+00	-4.340922e-01
1	 1.600525e+00	 1.142847e+00	-5.067410e-01
1	 1.579347e+00	 1.171939e+00	-5.646371e-01
1	 1.557611e+00	 1.200678e+00	-6.055977e-01
1	 1.535325e+00	 1.229047e+00	-6.274730e-01
1	 1.512499e+00	 1.257030e+00	-6.281531e-01
1	 1.630295e+00	 1.119707e+00	-3.693089e-01
1	 1.609567e+00	 1.149304e+00	-4.328248e-01
1	 1.588270e+00	 1.178560e+00	-4.805860e-01
1	 1.566411e+00	 1.207461e+00	-5.102826e-01
1	 1.543999e+00	 1.235990e+00	-5.196403e-01
1	 1.521044e+00	 1.264132e+00	-5.064280e-01
1	 1.639454e+00	 1.125998e+00	-3.079924e-01
1	 1.618610e+00	 1.155760e+00	-3.617193e-01
1	 1.597192e+00	 1.185182e+00	-3.987019e-01
1	 1.575211e+00	 1.214245e+00	-4.165041e-01
1	 1.552673e+00	 1.242934e+00	-4.127279e-01
1	 1.529590e+00	 1.271234e+00	-3.850225e-01
1	 1.648613e+00	 1.132288e+00	-2.500850e-01
1	 1.627652e+00	 1.162217e+00	-2.933778e-01
1	 1.606115e+00	 1.191803e+00	-3.189487e-01
1	 1.584011e+00	 1.221028e+00	-3.242363e-01
1	 1.561347e+00	 1.249878e+00	-3.067206e-01
1	 1.538135e+00	 1.278335e+00	-2.639313e-01
1	 1.495409e+00	 1.242826e+00	-8.725839e-01
1	 1.472317e+00	 1.270097e+00	-7.945449e-01
1	 1.448712e+00	 1.296957e+00	-7.516298e-01
1	 1.424605e+00	 1.323392e+00	-7.461259e-01
1	 1.400006e+00	 1.349387e+00	-7.802129e-01
1	 1.374930e+00	 1.374930e+00	-8.559555e-01
1	 1.503954e+00	 1.249928e+00	-7.502032e-01
1	 1.480730e+00	 1.277355e+00	-6.797381e-01
1	 1.456990e+00	 1.304368e+00	-6.407890e-01
1	 1.432745e+00	 1.330954e+00	-6.355102e-01
1	 1.408007e+00	 1.357098e+00	-6.659588e-01
1	 1.382787e+00	 1.382787e+00	-7.340877e-01
1	 1.512499e+00	 1.257030e+00	-6.281531e-01
1	 1.489144e+00	 1.284613e+00	-5.644602e-01
1	 1.465269e+00	 1.311780e+00	-5.287155e-01
1	 1.440886e+00	 1.338516e+00	-5.229415e-01
1	 1.416007e+00	 1.364809e+00	-5.490738e-01
1	 1.390643e+00	 1.390643e+00	-6.089549e-01
1	 1.521044e+00	 1.264132e+00	-5.064280e-01
1	 1.497557e+00	 1.291870e+00	-4.487190e-01
1	 1.473547e+00	 1.319191e+00	-4.154300e-01
1	 1.449026e+00	 1.346079e+00	-4.084526e-01
1	 1.424007e+00	 1.372520e+00	-4.296023e-01
1	 1.398500e+00	 1.398500e+00	-4.806120e-01
1	 1.529590e+00	 1.271234e+00	-3.850225e-01
1	 1.505970e+00	 1.299128e+00	-3.325224e-01
1	 1.481825e+00	 1.326602e+00	-3.009528e-01
1	 1.457167e+00	 1.353641e+00	-2.920758e-01
1	 1.432007e+00	 1.380230e+00	-3.075877e-01
1	 1.406357e+00	 1.406357e+00	-3.491128e-01
1	 1.538135e+00	 1.278335e+00	-2.639313e-01
1	 1.514383e+00	 1.306386e+00	-2.158780e-01
1	 1.490104e+00	 1.334013e+00	-1.853038e-01
1	 1.465308e+00	 1.361203e+00	-1.738425e-01
1	 1.440007e+00	 1.387941e+00	-1.830722e-01
1	 1.414214e+00	 1.414214e+00	-2.145099e-01
1	 1.374930e+00	 1.374930e+00	-8.559555e-01
1	 1.349387e+00	 1.400006e+00	-9.694933e-01
1	 1.323392e+00	 1.424605e+00	-1.109184e+00
1	 1.296957e+00	 1.448712e+00	-1.276394e+00
1	 1.270097e+00	 1.472317e+00	-1.472407e+00
1	 1.242826e+00	 1.495409e+00	-1.698421e+00
1	 1.382787e+00	 1.382787e+00	-7.340877e-01
1	 1.357098e+00	 1.408007e+00	-8.362287e-01
1	 1.330954e+00	 1.432745e+00	-9.648649e-01
1	 1.304368e+00	 1.456990e+00	-1.121373e+00
1	 1.277355e+00	 1.480730e+00	-1.307046e+00
1	 1.249928e+00	 1.503954e+00	-1.523089e+00
1	 1.390643e+00	 1.390643e+00	-6.089549e-01
1	 1.364809e+00	 1.416007e+00	-6.996877e-01
1	 1.338516e+00	 1.440886e+00	-8.172527e-01
1	 1.311780e+00	 1.465269e+00	-9.630369e-01
1	 1.284613e+00	 1.489144e+00	-1.138343e+00
1	 1.257030e+00	 1.512499e+00	-1.344384e+00
1	 1.398500e+00	 1.398500e+00	-4.806120e-01
1	 1.372520e+00	 1.424007e+00	-5.599255e-01
1	 1.346079e+00	 1.449026e+00	-6.664030e-01
1	 1.319191e+00	 1.473547e+00	-8.014422e-01
1	 1.291870e+00	 1.497557e+00	-9.663547e-01
1	 1.264132e+00	 1.521044e+00	-1.162361e+00
1	 1.406357e+00	 1.406357e+00	-3.491128e-01
1	 1.380230e+00	 1.432007e+00	-4.169961e-01
1	 1.353641e+00	 1.457167e+00	-5.123700e-01
1	 1.326602e+00	 1.481825e+00	-6.366432e-01
1	 1.299128e+00	 1.505970e+00	-7.911363e-01
1	 1.271234e+00	 1.529590e+00	-9.770779e-01
1	 1.414214e+00	 1.414214e+00	-2.145099e-01
1	 1.387941e+00	 1.440007e+00	-2.709523e-01
1	 1.361203e+00	 1.465308e+00	-3.552070e-01
1	 1.334013e+00	 1.490104e+00	-4.686934e-01
1	 1.306386e+00	 1.514383e+00	-6.127416e-01
1	 1.278335e+00	 1.538135e+00	-7.885877e-01
1	 1.242826e+00	 1.495409e+00	-1.698421e+00
1	 1.215159e+00	 1.517977e+00	-2.021768e+00
1	 1.187111e+00	 1.540010e+00	-2.287822e+00
1	 1.158697e+00	 1.561501e+00	-2.493880e+00
1	 1.129933e+00	 1.582440e+00	-2.637439e+00
1	 1.100836e+00	 1.602818e+00	-2.716200e+00
1	 1.249928e+00	 1.503954e+00	-1.523089e+00
1	 1.222103e+00	 1.526651e+00	-1.814393e+00
1	 1.193894e+00	 1.548810e+00	-2.050738e+00
1	 1.165318e+00	 1.570424e+00	-2.229535e+00
1	 1.136390e+00	 1.591482e+00	-2.348384e+00
1	 1.107126e+00	 1.611977e+00	-2.405080e+00
1	 1.257030e+00	 1.512499e+00	-1.344384e+00
1	 1.229047e+00	 1.535325e+00	-1.604337e+00
1	 1.200678e+00	 1.557611e+00	-1.811642e+00
1	 1.171939e+00	 1.579347e+00	-1.963816e+00
1	 1.142847e+00	 1.600525e+00	-2.058563e+00
1	 1.113417e+00	 1.621136e+00	-2.093774e+00
1	 1.264132e+00	 1.521044e+00	-1.162361e+00
1	 1.235990e+00	 1.543999e+00	-1.391647e+00
1	 1.207461e+00	 1.566411e+00	-1.570565e+00
1	 1.178560e+00	 1.588270e+00	-1.696745e+00
1	 1.149304e+00	 1.609567e+00	-1.767990e+00
1	 1.119707e+00	 1.630295e+00	-1.782285e+00
1	 1.271234e+00	 1.529590e+00	-9.770779e-01
1	 1.242934e+00	 1.552673e+00	-1.176366e+00
1	 1.214245e+00	 1.575211e+00	-1.327543e+00
1	 1.185182e+00	 1.597192e+00	-1.428345e+00
1	 1.155760e+00	 1.618610e+00	-1.476676e+00
1	 1.125998e+00	 1.639454e+00	-1.470617e+00
1	 1.278335e+00	 1.538135e+00	-7.885877e-01
1	 1.249878e+00	 1.561347e+00	-9.585381e-01
1	 1.221028e+00	 1.584011e+00	-1.082607e+00
1	 1.191803e+00	 1.606115e+00	-1.158638e+00
1	 1.162217e+00	 1.627652e+00	-1.184635e+00
1	 1.132288e+00	 1.648613e+00	-1.158771e+00
1	 1.100836e+00	 1.602818e+00	-2.716200e+00
1	 1.071420e+00	 1.622628e+00	-2.725822e+00
1	 1.041704e+00	 1.641864e+00	-2.687684e+00
1	 1.011703e+00	 1.660518e+00	-2.600534e+00
1	 9.814341e-01	 1.678586e+00	-2.463277e+00
1	 9.509144e-01	 1.696062e+00	-2.274973e+00
1	 1.107126e+00	 1.611977e+00	-2.405080e+00
1	 1.077543e+00	 1.631900e+00	-2.398271e+00
1	 1.047657e+00	 1.651246e+00	-2.345793e+00
1	 1.017484e+00	 1.670007e+00	-2.246410e+00
1	 9.870423e-01	 1.688178e+00	-2.099037e+00
1	 9.563482e-01	 1.705754e+00	-1.902736e+00
1	 1.113417e+00	 1.621136e+00	-2.093774e+00
1	 1.083665e+00	 1.641173e+00	-2.070720e+00
1	 1.053609e+00	 1.660628e+00	-2.004066e+00
1	 1.023265e+00	 1.679496e+00	-1.892592e+00
1	 9.926505e-01	 1.697770e+00	-1.735220e+00
1	 9.617820e-01	 1.715445e+00	-1.531018e+00
1	 1.119707e+00	 1.630295e+00	-1.782285e+00
1	 1.089788e+00	 1.650445e+00	-1.743170e+00
1	 1.059562e+00	 1.670010e+00	-1.662501e+00
1	 1.029046e+00	 1.688984e+00	-1.539074e+00
1	 9.982587e-01	 1.707362e+00	-1.371821e+00
1	 9.672158e-01	 1.725137e+00	-1.159811e+00
1	 1.125998e+00	 1.639454e+00	-1.470617e+00
1	 1.095910e+00	 1.659717e+00	-1.415620e+00
1	 1.065514e+00	 1.679392e+00	-1.321096e+00
1	 1.034828e+00	 1.698473e+00	-1.185852e+00
1	 1.003867e+00	 1.716954e+00	-1.008831e+00
1	 9.726496e-01	 1.734829e+00	-7.891062e-01
1	 1.132288e+00	 1.648613e+00	-1.158771e+00
1	 1.102033e+00	 1.668989e+00	-1.088071e+00
1	 1.071467e+00	 1.688774e+00	-9.798461e-01
1	 1.040609e+00	 1.707962e+00	-8.329204e-01
1	 1.009475e+00	 1.726546e+00	-6.462440e-01
1	 9.780834e-01	 1.744521e+00	-4.188951e-01
1	 9.509144e-01	 1.696062e+00	-2.274973e+00
1	 9.201607e-01	 1.712941e+00	-1.994751e+00
1	 8.891902e-01	 1.729221e+00	-1.713860e+00
1	 8.580200e-01	 1.744897e+00	-1.432631e+00
1	 8.266671e-01	 1.759968e+00	-1.151388e+00
1	 7.951487e-01	 1.774430e+00	-8.704469e-01
1	 9.563482e-01	 1.705754e+00	-1.902736e+00
1	 9.254188e-01	 1.722730e+00	-1.629648e+00
1	 8.942713e-01	 1.739102e+00	-1.365902e+00
1	 8.629230e-01	 1.754868e+00	-1.112071e+00
1	 8.313909e-01	 1.770024e+00	-8.686893e-01
1	 7.996924e-01	 1.784570e+00	-6.362469e-01
1	 9.617820e-01	 1.715445e+00	-1.531018e+00
1	 9.306768e-01	 1.732518e+00	-1.267115e+00
1	 8.993524e-01	 1.748983e+00	-1.022447e+00
1	 8.678259e-01	 1.764839e+00	-7.978304e-01
1	 8.361147e-01	 1.780081e+00	-5.940053e-01
1	 8.042361e-01	 1.794709e+00	-4.116360e-01
1	 9.672158e-01	 1.725137e+00	-1.159811e+00
1	 9.359349e-01	 1.742306e+00	-9.071073e-01
1	 9.044335e-01	 1.758865e+00	-6.834195e-01
1	 8.727289e-01	 1.774810e+00	-4.898019e-01
1	 8.408386e-01	 1.790138e+00	-3.272007e-01
1	 8.087798e-01	 1.804849e+00	-1.964525e-01
1	 9.726496e-01	 1.734829e+00	-7.891062e-01
1	 9.411930e-01	 1.752094e+00	-5.495839e-01
1	 9.095146e-01	 1.768746e+00	-3.487452e-01
1	 8.776319e-01	 1.784780e+00	-1.878817e-01
1	 8.455624e-01	 1.800195e+00	-6.814364e-02
1	 8.133235e-01	 1.814989e+00	 9.461475e-03
1	 9.780834e-01	 1.744521e+00	-4.188951e-01
1	 9.464510e-01	 1.761883e+00	-1.945031e-01
1	 9.145957e-01	 1.778627e+00	-1.835154e-02
1	 8.825349e-01	 1.794751e+00	 1.080321e-01
1	 8.502862e-01	 1.810252e+00	 1.832951e-01
1	 8.178672e-01	 1.825128e+00	 2.062605e-01
1	 7.951487e-01	 1.774430e+00	-8.704469e-01
1	 7.634817e-01	 1.788284e+00	-6.159676e-01
1	 7.316831e-01	 1.801528e+00	-4.609172e-01
1	 6.997698e-01	 1.814163e+00	-4.066962e-01
1	 6.677584e-01	 1.826188e+00	-4.543856e-01
1	 6.356656e-01	 1.837605e+00	-6.047510e-01
1	 7.996924e-01	 1.784570e+00	-6.362469e-01
1	 7.678444e-01	 1.798503e+00	-4.419357e-01
1	 7.358641e-01	 1.811823e+00	-3.334200e-01
1	 7.037684e-01	 1.824529e+00	-3.118153e-01
1	 6.715742e-01	 1.836623e+00	-3.779624e-01
1	 6.392980e-01	 1.848106e+00	-5.324325e-01
1	 8.042361e-01	 1.794709e+00	-4.116360e-01
1	 7.722072e-01	 1.808722e+00	-2.748075e-01
1	 7.400452e-01	 1.822117e+00	-2.103069e-01
1	 7.077671e-01	 1.834896e+00	-2.189660e-01
1	 6.753899e-01	 1.847059e+00	-3.013875e-01
1	 6.429304e-01	 1.858607e+00	-4.579489e-01
1	 8.087798e-01	 1.804849e+00	-1.964525e-01
1	 7.765699e-01	 1.818940e+00	-1.144667e-01
1	 7.442262e-01	 1.832412e+00	-9.150387e-02
1	 7.117658e-01	 1.845263e+00	-1.281142e-01
1	 6.792057e-01	 1.857494e+00	-2.246635e-01
1	 6.465627e-01	 1.869107e+00	-3.813368e-01
1	 8.133235e-01	 1.814989e+00	 9.461475e-03
1	 7.809327e-01	 1.829159e+00	 3.920043e-02
1	 7.484073e-01	 1.842706e+00	 2.306123e-02
1	 7.157645e-01	 1.855629e+00	-3.922634e-02
1	 6.830215e-01	 1.867930e+00	-1.477928e-01
1	 6.501951e-01	 1.879608e+00	-3.026318e-01
1	 8.178672e-01	 1.825128e+00	 2.062605e-01
1	 7.852954e-01	 1.839378e+00	 1.863051e-01
1	 7.525883e-01	 1.853000e+00	 1.334590e-01
1	 7.197632e-01	 1.865996e+00	 4.773023e-02
1	 6.868372e-01	 1.878365e+00	-7.077788e-02
1	 6.538275e-01	 1.890108e+00	-2.218688e-01
1	 6.356656e-01	 1.837605e+00	-6.047510e-01
1	 6.035077e-01	 1.848416e+00	-8.529252e-01
1	 5.713010e-01	 1.858623e+00	-1.209134e+00
1	 5.390613e-01	 1.868228e+00	-1.673119e+00
1	 5.068045e-01	 1.877236e+00	-2.244325e+00
1	 4.745460e-01	 1.885649e+00	-2.921907e+00
1	 6.392980e-01	 1.848106e+00	-5.324325e-01
1	 6.069563e-01	 1.858979e+00	-7.702292e-01
1	 5.745656e-01	 1.869244e+00	-1.101367e+00
1	 5.421417e-01	 1.878904e+00	-1.525643e+00
1	 5.097006e-01	 1.887963e+00	-2.042594e+00
1	 4.772577e-01	 1.896424e+00	-2.651509e+00
1	 6.429304e-01	 1.858607e+00	-4.579489e-01
1	 6.104050e-01	 1.869541e+00	-6.842592e-01
1	 5.778301e-01	 1.879864e+00	-9.893870e-01
1	 5.452220e-01	 1.889580e+00	-1.373183e+00
1	 5.125966e-01	 1.898690e+00	-1.835277e+00
1	 4.799694e-01	 1.907199e+00	-2.375088e+00
1	 6.465627e-01	 1.869107e+00	-3.813368e-01
1	 6.138536e-01	 1.880103e+00	-5.950706e-01
1	 5.810947e-01	 1.890485e+00	-8.732649e-01
1	 5.483024e-01	 1.900255e+00	-1.215823e+00
1	 5.154926e-01	 1.909417e+00	-1.622468e+00
1	 4.826811e-01	 1.917974e+00	-2.092747e+00
1	 6.501951e-01	 1.879608e+00	-3.026318e-01
1	 6.173022e-01	 1.890666e+00	-5.027172e-01
1	 5.843593e-01	 1.901106e+00	-7.530702e-01
1	 5.513827e-01	 1.910931e+00	-1.053647e+00
1	 5.183886e-01	 1.920144e+00	-1.404260e+00
1	 4.853928e-01	 1.928749e+00	-1.804584e+00
1	 6.538275e-01	 1.890108e+00	-2.218688e-01
1	 6.207508e-01	 1.901228e+00	-4.072518e-01
1	 5.876239e-01	 1.911726e+00	-6.288708e-01
1	 5.544631e-01	 1.921606e+00	-8.867332e-01
1	 5.212847e-01	 1.930871e+00	-1.180742e+00
1	 4.881045e-01	 1.939524e+00	-1.510697e+00
1	 4.745460e-01	 1.885649e+00	-2.921907e+00
1	 4.423010e-01	 1.893471e+00	-3.696626e+00
1	 4.100843e-01	 1.900709e+00	-4.554305e+00
1	 3.779106e-01	 1.907367e+00	-5.493414e+00
1	 3.457940e-01	 1.913450e+00	-6.512237e+00
1	 3.137486e-01	 1.918965e+00	-7.608882e+00
1	 4.772577e-01	 1.896424e+00	-2.651509e+00
1	 4.448284e-01	 1.904291e+00	-3.346037e+00
1	 4.124276e-01	 1.911570e+00	-4.117887e+00
1	 3.800701e-01	 1.918266e+00	-4.965694e+00
1	 3.477700e-01	 1.924384e+00	-5.887916e+00
1	 3.155415e-01	 1.929930e+00	-6.882845e+00
1	 4.799694e-01	 1.907199e+00	-2.375088e+00
1	 4.473558e-01	 1.915111e+00	-2.989628e+00
1	 4.147710e-01	 1.922431e+00	-3.675917e+00
1	 3.822295e-01	 1.929165e+00	-4.432754e+00
1	 3.497460e-01	 1.935318e+00	-5.258769e+00
1	 3.173343e-01	 1.940896e+00	-6.152438e+00
1	 4.826811e-01	 1.917974e+00	-2.092747e+00
1	 4.498833e-01	 1.925931e+00	-2.627496e+00
1	 4.171143e-01	 1.933293e+00	-3.228488e+00
1	 3.843890e-01	 1.940064e+00	-3.894680e+00
1	 3.517219e-01	 1.946252e+00	-4.624877e+00
1	 3.191272e-01	 1.951861e+00	-5.417733e+00
1	 4.853928e-01	 1.928749e+00	-1.804584e+00
1	 4.524107e-01	 1.936751e+00	-2.259738e+00
1	 4.194576e-01	 1.944154e+00	-2.775691e+00
1	 3.865485e-01	 1.950964e+00	-3.351560e+00
1	 3.536979e-01	 1.957186e+00	-3.986319e+00
1	 3.209200e-01	 1.962827e+00	-4.678803e+00
1	 4.881045e-01	 1.939524e+00	-1.510697e+00
1	 4.549381e-01	 1.947571e+00	-1.886449e+00
1	 4.218010e-01	 1.955015e+00	-2.317617e+00
1	 3.887080e-01	 1.961863e+00	-2.803478e+00
1	 3.556739e-01	 1.968120e+00	-3.343173e+00
1	 3.227129e-01	 1.973792e+00	-3.935718e+00
1	 3.137486e-01	 1.918965e+00	-7.608882e+00
1	 2.817879e-01	 1.923918e+00	-8.748352e+00
1	 2.499250e-01	 1.928316e+00	-9.880901e+00
1	 2.181728e-01	 1.932166e+00	-1.100594e+01
1	 1.865437e-01	 1.935476e+00	-1.212291e+01
1	 1.550497e-01	 1.938253e+00	-1.323126e+01
1	 3.155415e-01	 1.929930e+00	-6.882845e+00
1	 2.833981e-01	 1.934912e+00	-7.916246e+00
1	 2.513532e-01	 1.939335e+00	-8.937556e+00
1	 2.194195e-01	 1.943207e+00	-9.946238e+00
1	 1.876096e-01	 1.946535e+00	-1.094179e+01
1	 1.559357e-01	 1.949328e+00	-1.192375e+01
1	 3.173343e-01	 1.940896e+00	-6.152438e+00
1	 2.850083e-01	 1.945905e+00	-7.079116e+00
1	 2.527813e-01	 1.950354e+00	-7.988602e+00
1	 2.206662e-01	 1.954248e+00	-8.880409e+00
1	 1.886756e-01	 1.957595e+00	-9.754097e+00
1	 1.568217e-01	 1.960404e+00	-1.060928e+01
1	 3.191272e-01	 1.951861e+00	-5.417733e+00
1	 2.866185e-01	 1.956899e+00	-6.237046e+00
1	 2.542094e-01	 1.961373e+00	-7.034134e+00
1	 2.219129e-01	 1.965289e+00	-7.808557e+00
1	 1.897416e-01	 1.968655e+00	-8.559942e+00
1	 1.577077e-01	 1.971480e+00	-9.287972e+00
1	 3.209200e-01	 1.962827e+00	-4.678803e+00
1	 2.882288e-01	 1.967893e+00	-5.390119e+00
1	 2.556376e-01	 1.972392e+00	-6.074243e+00
1	 2.231596e-01	 1.976330e+00	-6.730785e+00
1	 1.908075e-01	 1.979715e+00	-7.359432e+00
1	 1.585937e-01	 1.982556e+00	-7.959945e+00
1	 3.227129e-01	 1.973792e+00	-3.935718e+00
1	 2.898390e-01	 1.978887e+00	-4.538417e+00
1	 2.570657e-01	 1.983411e+00	-5.109022e+00
1	 2.244063e-01	 1.987371e+00	-5.647191e+00
1	 1.918735e-01	 1.990775e+00	-6.152674e+00
1	 1.594797e-01	 1.993631e+00	-6.625307e+00
1	 1.550497e-01	 1.938253e+00	-1.323126e+01
1	 1.237025e-01	 1.940506e+00	-1.428157e+01
1	 9.251330e-02	 1.942242e+00	-1.532702e+01
1	 6.149295e-02	 1.943472e+00	-1.636753e+01
1	 3.065185e-02	 1.944203e+00	-1.740305e+01
1	 0.000000e+00	 1.944444e+00	-1.843350e+01
1	 1.559357e-01	 1.949328e+00	-1.192375e+01
1	 1.244094e-01	 1.951594e+00	-1.285681e+01
1	 9.304195e-02	 1.953341e+00	-1.379834e+01
1	 6.184434e-02	 1.954577e+00	-1.474834e+01
1	 3.082700e-02	 1.955313e+00	-1.570681e+01
1	 0.000000e+00	 1.955556e+00	-1.667369e+01
1	 1.568217e-01	 1.960404e+00	-1.060928e+01
1	 1.251162e-01	 1.962683e+00	-1.142734e+01
1	 9.357060e-02	 1.964439e+00	-1.226703e+01
1	 6.219573e-02	 1.965683e+00	-1.312845e+01
1	 3.100216e-02	 1.966422e+00	-1.401166e+01
1	 0.000000e+00	 1.966667e+00	-1.491661e+01
1	 1.577077e-01	 1.971480e+00	-9.287972e+00
1	 1.258231e-01	 1.973771e+00	-9.993231e+00
1	 9.409925e-02	 1.975538e+00	-1.073314e+01
1	 6.254712e-02	 1.976789e+00	-1.150789e+01
1	 3.117731e-02	 1.977532e+00	-1.231758e+01
1	 0.000000e+00	 1.977778e+00	-1.316220e+01
1	 1.585937e-01	 1.982556e+00	-7.959945e+00
1	 1.265300e-01	 1.984860e+00	-8.554569e+00
1	 9.462789e-02	 1.986636e+00	-9.196708e+00
1	 6.289851e-02	 1.987894e+00	-9.886655e+00
1	 3.135246e-02	 1.988642e+00	-1.062456e+01
1	 0.000000e+00	 1.988889e+00	-1.141042e+01
1	 1.594797e-01	 1.993631e+00	-6.625307e+00
1	 1.272369e-01	 1.995949e+00	-7.111427e+00
1	 9.515654e-02	 1.997735e+00	-7.657787e+00
1	 6.324989e-02	 1.999000e+00	-8.264767e+00
1	 3.152762e-02	 1.999751e+00	-8.932570e+00
1	 0.000000e+00	 2.000000e+00	-9.661222e+00
