x	y	stress_yy
 1.000000000000000e+00	 0.000000000000000e+00	 3.153269191615232e+01
 9.974284469059532e-01	 7.166933307989243e-02	 3.064784708782588e+01
 9.894434504816298e-01	 1.449194890387739e-01	 2.938629406701612e+01
 9.756838834611086e-01	 2.191824800515997e-01	 2.768992569921276e+01
 9.558632461068471e-01	 2.938119377281626e-01	 2.547452572517446e+01
 9.297883010623589e-01	 3.680947095758919e-01	 2.262843019600404e+01
 8.973756499953162e-01	 4.412674277632060e-01	 1.925209723828096e+01
 8.586647592086445e-01	 5.125376389107853e-01	 1.570921428990398e+01
 8.138260360508662e-01	 5.811085811189265e-01	 1.228625331661312e+01
 7.631628410841520e-01	 6.462062193992625e-01	 9.277284753151918e+00
 7.071067811868699e-01	 7.071067811868699e-01	 6.877661911955835e+00
 1.075000000000000e+00	 0.000000000000000e+00	 2.683618547270660e+01
 1.072235580423897e+00	 7.704453305765518e-02	 2.620809980861799e+01
 1.063651709267727e+00	 1.557884507110800e-01	 2.530379187134892e+01
 1.048860174720603e+00	 2.356211660483044e-01	 2.409566639962826e+01
 1.027552989564645e+00	 3.158478330497876e-01	 2.250986834503295e+01
 9.995224236416065e-01	 3.957018127859281e-01	 2.041718615327193e+01
 9.646788237442117e-01	 4.743624848376666e-01	 1.784578602830497e+01
 9.230646161480831e-01	 5.509779618221077e-01	 1.500745951714051e+01
 8.748629887528598e-01	 6.246917246969276e-01	 1.219367649391196e+01
 8.204000541628570e-01	 6.946716858494774e-01	 9.708784196217763e+00
 7.601397897723038e-01	 7.601397897723037e-01	 7.708478363108606e+00
 1.150000000000000e+00	 0.000000000000000e+00	 2.303265822815050e+01
 1.147042713941840e+00	 8.241973303606141e-02	 2.259330439376190e+01
 1.137859968053828e+00	 1.666574123845024e-01	 2.196183542037407e+01
 1.122036465980114e+00	 2.520598520464369e-01	 2.116595034369421e+01
 1.099242733022485e+00	 3.378837283730043e-01	 2.018954273297699e+01
 1.069256546220940e+00	 4.233089159975895e-01	 1.885920854326103e+01
 1.031981997493258e+00	 5.074575419136776e-01	 1.701922966351416e+01
 9.874644730877626e-01	 5.894182847348221e-01	 1.481985182786086e+01
 9.358999414552172e-01	 6.682748682761077e-01	 1.255652612926683e+01
 8.776372672420815e-01	 7.431371523006348e-01	 1.057080973586699e+01
 8.131727983584517e-01	 8.131727983584517e-01	 8.832436586271504e+00
 1.225000000000000e+00	 0.000000000000000e+00	 2.032390405399104e+01
 1.221849847459785e+00	 8.779493301503960e-02	 2.003142527284377e+01
 1.212068226839934e+00	 1.775263740589171e-01	 1.957743696749880e+01
 1.195212757239641e+00	 2.684985380458384e-01	 1.902571759868922e+01
 1.170932476480365e+00	 3.599196236976357e-01	 1.842582808531251e+01
 1.138990668800349e+00	 4.509160192106954e-01	 1.763194936735932e+01
 1.099285171242437e+00	 5.405525989910663e-01	 1.643625596758918e+01
 1.051864330027657e+00	 6.278586076487742e-01	 1.484701521079468e+01
 9.969368941578959e-01	 7.118580118563361e-01	 1.310778078088183e+01
 9.348744803217679e-01	 7.916026187526299e-01	 1.150498419003009e+01
 8.662058069452333e-01	 8.662058069452333e-01	 9.920989721307146e+00
 1.300000000000000e+00	 0.000000000000000e+00	 1.847386146410612e+01
 1.296656980977730e+00	 9.317013299451823e-02	 1.830170175753057e+01
 1.286276485626044e+00	 1.883953357341998e-01	 1.797985908392909e+01
 1.268389048499183e+00	 2.849372240463505e-01	 1.759909194291516e+01
 1.242622219938277e+00	 3.819555190235049e-01	 1.725974546969622e+01
 1.208724791379824e+00	 4.785231224250655e-01	 1.674429146060477e+01
 1.166588344991733e+00	 5.736476560696609e-01	 1.590567227567742e+01
 1.116264186967738e+00	 6.662989305638091e-01	 1.481852379211797e+01
 1.057973846860858e+00	 7.554411554374821e-01	 1.360055616978098e+01
 9.921116934018577e-01	 8.400680852053579e-01	 1.222693164205656e+01
 9.192388155325706e-01	 9.192388155325706e-01	 1.079818643045785e+01
 1.375000000000000e+00	 0.000000000000000e+00	 1.721240690185699e+01
 1.371464114495675e+00	 9.854533297442584e-02	 1.713166360683346e+01
 1.360484744412158e+00	 1.992642974102268e-01	 1.690551536977365e+01
 1.341565339758736e+00	 3.013759100478144e-01	 1.663640015066617e+01
 1.314311963396217e+00	 4.039914143504350e-01	 1.644065475330016e+01
 1.278458913959357e+00	 5.061302256405186e-01	 1.607857646484118e+01
 1.233891518741129e+00	 6.067427131492892e-01	 1.547939022549122e+01
 1.180664043907980e+00	 7.047392534797717e-01	 1.470096936839319e+01
 1.119010799564061e+00	 7.990242990194144e-01	 1.381540141166769e+01
 1.049348906482294e+00	 8.885335516587144e-01	 1.266462345246488e+01
 9.722718241203830e-01	 9.722718241203829e-01	 1.139574613767587e+01
 1.450000000000000e+00	 0.000000000000000e+00	 1.630252241741187e+01
 1.446271248013621e+00	 1.039205329546909e-01	 1.628059355340370e+01
 1.434693003198274e+00	 2.101332590868739e-01	 1.612919834307489e+01
 1.414741631018299e+00	 3.178145960500714e-01	 1.593888175290234e+01
 1.386001706854183e+00	 4.260273096782494e-01	 1.580369089192831e+01
 1.348193036538937e+00	 5.337373288568749e-01	 1.552362264123968e+01
 1.301194692490608e+00	 6.398377702297785e-01	 1.509186238568954e+01
 1.245063900848356e+00	 7.431795763965081e-01	 1.455668809573339e+01
 1.180047752267466e+00	 8.426074426020015e-01	 1.383123141363314e+01
 1.106586119563019e+00	 9.369990181125943e-01	 1.283863469208368e+01
 1.025304832708592e+00	 1.025304832708592e+00	 1.172761719492781e+01
 1.525000000000000e+00	 0.000000000000000e+00	 1.553948743139178e+01
 1.521078381531567e+00	 1.092957329352419e-01	 1.554258276792222e+01
 1.508901261984392e+00	 2.210022207640170e-01	 1.546320301379668e+01
 1.487917922277870e+00	 3.342532820529632e-01	 1.535811088894880e+01
 1.457691450312167e+00	 4.480632050067711e-01	 1.526026888270433e+01
 1.417927159118556e+00	 5.613444320739530e-01	 1.503176990596621e+01
 1.368497866240154e+00	 6.729328273109567e-01	 1.472271352317621e+01
 1.309463757788840e+00	 7.816198993138632e-01	 1.436596561016541e+01
 1.241084704971033e+00	 8.861905861851129e-01	 1.375052433723855e+01
 1.163823332643974e+00	 9.854644845668933e-01	 1.285384149604659e+01
 1.078337841297118e+00	 1.078337841297118e+00	 1.186327215869009e+01
 1.600000000000000e+00	 0.000000000000000e+00	 1.481946911684380e+01
 1.595885515049513e+00	 1.146709329160075e-01	 1.483290263016425e+01
 1.583109520770513e+00	 2.318711824415323e-01	 1.481893486046802e+01
 1.561094213537447e+00	 3.506919680563308e-01	 1.480735856444952e+01
 1.529381193770165e+00	 4.700991003358233e-01	 1.477208243166571e+01
 1.487661281698202e+00	 5.889515352915732e-01	 1.460031804933940e+01
 1.435801039989750e+00	 7.060278843926517e-01	 1.438013442389646e+01
 1.373863614729403e+00	 8.200602222316823e-01	 1.412739441639956e+01
 1.302121657674719e+00	 9.297737297686171e-01	 1.360557143663340e+01
 1.221060545725103e+00	 1.033929951021506e+00	 1.280941113177023e+01
 1.131370849885882e+00	 1.131370849885883e+00	 1.189284995998503e+01
 1.675000000000000e+00	 0.000000000000000e+00	 1.410049824095439e+01
 1.670692648567460e+00	 1.200461328969160e-01	 1.411984514118522e+01
 1.657317779556635e+00	 2.427401441192957e-01	 1.416323472638398e+01
 1.634270504797028e+00	 3.671306540600157e-01	 1.424382068092109e+01
 1.601070937228173e+00	 4.921349956652292e-01	 1.428620358380844e+01
 1.557395404277869e+00	 6.165586385095544e-01	 1.420284314572225e+01
 1.503104213739380e+00	 7.391229414746914e-01	 1.407689776596459e+01
 1.438263471670020e+00	 8.585005451498104e-01	 1.384973189036011e+01
 1.363158610378488e+00	 9.733568733523841e-01	 1.341745651230818e+01
 1.278297758806347e+00	 1.082395417476329e+00	 1.274776765366125e+01
 1.184403858474805e+00	 1.184403858474805e+00	 1.185350804025710e+01
 1.750000000000000e+00	 0.000000000000000e+00	 1.335244005424260e+01
 1.745499782085407e+00	 1.254213328778960e-01	 1.337993480843992e+01
 1.731526038342757e+00	 2.536091057971830e-01	 1.346619933428811e+01
 1.707446796056611e+00	 3.835693400638593e-01	 1.362425229643769e+01
 1.672760680686186e+00	 5.141708909948119e-01	 1.374377961436689e+01
 1.627129526857544e+00	 6.441657417277161e-01	 1.376232685679668e+01
 1.570407387489025e+00	 7.722179985569031e-01	 1.374421794319394e+01
 1.502663328610663e+00	 8.969408680680937e-01	 1.352780698154422e+01
 1.424195563082296e+00	 1.016940016936282e+00	 1.319710770052626e+01
 1.335534971887649e+00	 1.130860883931256e+00	 1.270049530976804e+01
 1.237436867063807e+00	 1.237436867063807e+00	 1.183898780923548e+01
 7.071067811868699e-01	 7.071067811868699e-01	 6.877661911955835e+00
 6.462062193992625e-01	 7.631628410841519e-01	 5.003197823775791e+00
 5.811085811189264e-01	 8.138260360508661e-01	 3.459868439535469e+00
 5.125376389107852e-01	 8.586647592086446e-01	 2.332869964264153e+00
 4.412674277632058e-01	 8.973756499953163e-01	 1.712620757601692e+00
 3.680947095758915e-01	 9.297883010623589e-01	 1.611302564685676e+00
 2.938119377281621e-01	 9.558632461068473e-01	 1.899822040080158e+00
 2.191824800515992e-01	 9.756838834611086e-01	 2.214699260711973e+00
 1.449194890387733e-01	 9.894434504816300e-01	 2.153195050912359e+00
 7.166933307989184e-02	 9.974284469059531e-01	 1.376701541003149e+00
 0.000000000000000e+00	 1.000000000000000e+00	-3.694236171304039e-01
 7.601397897723038e-01	 7.601397897723037e-01	 7.708478363108606e+00
 6.946716858494775e-01	 8.204000541628572e-01	 5.828071138905559e+00
 6.246917246969276e-01	 8.748629887528601e-01	 3.916366070527871e+00
 5.509779618221076e-01	 9.230646161480829e-01	 2.169362953313818e+00
 4.743624848376664e-01	 9.646788237442120e-01	 8.192268204859059e-01
 3.957018127859278e-01	 9.995224236416067e-01	 6.378245707094887e-03
 3.158478330497873e-01	 1.027552989564645e+00	-2.934965067994337e-01
 2.356211660483039e-01	 1.048860174720603e+00	-3.473666205503139e-01
 1.557884507110794e-01	 1.063651709267727e+00	-4.976277114137342e-01
 7.704453305765459e-02	 1.072235580423897e+00	-9.902148303322411e-01
 0.000000000000000e+00	 1.075000000000000e+00	-1.970834665878165e+00
 8.131727983584517e-01	 8.131727983584517e-01	 8.832436586271504e+00
 7.431371523006347e-01	 8.776372672420815e-01	 6.997356004091597e+00
 6.682748682761077e-01	 9.358999414552172e-01	 4.934616134766767e+00
 5.894182847348219e-01	 9.874644730877628e-01	 2.923333110969316e+00
 5.074575419136773e-01	 1.031981997493258e+00	 1.329162867124405e+00
 4.233089159975891e-01	 1.069256546220940e+00	 3.823611557424913e-01
 3.378837283730039e-01	 1.099242733022485e+00	 6.270075695799449e-02
 2.520598520464364e-01	 1.122036465980114e+00	 5.895417544606074e-02
 1.666574123845018e-01	 1.137859968053828e+00	-8.855130988942106e-02
 8.241973303606075e-02	 1.147042713941841e+00	-3.846496052839878e-01
 0.000000000000000e+00	 1.150000000000000e+00	-7.327484306193746e-01
 8.662058069452333e-01	 8.662058069452333e-01	 9.920989721307146e+00
 7.916026187526300e-01	 9.348744803217679e-01	 8.199641281178391e+00
 7.118580118563360e-01	 9.969368941578959e-01	 6.239151640642660e+00
 6.278586076487739e-01	 1.051864330027657e+00	 4.353117848178736e+00
 5.405525989910660e-01	 1.099285171242437e+00	 3.044211843978543e+00
 4.509160192106950e-01	 1.138990668800349e+00	 2.403050825477764e+00
 3.599196236976353e-01	 1.170932476480365e+00	 1.848630123216916e+00
 2.684985380458378e-01	 1.195212757239642e+00	 1.270162541092824e+00
 1.775263740589164e-01	 1.212068226839934e+00	 7.066534439889240e-01
 8.779493301503889e-02	 1.221849847459785e+00	 3.299107775421815e-01
 0.000000000000000e+00	 1.225000000000000e+00	 3.624641418925520e-01
 9.192388155325706e-01	 9.192388155325706e-01	 1.079818643045785e+01
 8.400680852053579e-01	 9.921116934018575e-01	 9.244726863336616e+00
 7.554411554374822e-01	 1.057973846860858e+00	 7.572638407481772e+00
 6.662989305638090e-01	 1.116264186967739e+00	 6.188924634737550e+00
 5.736476560696607e-01	 1.166588344991733e+00	 5.080478436472248e+00
 4.785231224250650e-01	 1.208724791379825e+00	 4.042771373821687e+00
 3.819555190235043e-01	 1.242622219938277e+00	 3.058215507206202e+00
 2.849372240463498e-01	 1.268389048499183e+00	 2.078444698650421e+00
 1.883953357341991e-01	 1.286276485626044e+00	 1.218499362187858e+00
 9.317013299451750e-02	 1.296656980977730e+00	 7.477112753475814e-01
 0.000000000000000e+00	 1.300000000000000e+00	 9.758745478882176e-01
 9.722718241203830e-01	 9.722718241203829e-01	 1.139574613767587e+01
 8.885335516587143e-01	 1.049348906482294e+00	 1.004875690620657e+01
 7.990242990194144e-01	 1.119010799564061e+00	 8.775527975189249e+00
 7.047392534797717e-01	 1.180664043907981e+00	 7.567705002838032e+00
 6.067427131492888e-01	 1.233891518741129e+00	 6.252947999192411e+00
 5.061302256405180e-01	 1.278458913959357e+00	 4.968330743346856e+00
 4.039914143504345e-01	 1.314311963396218e+00	 3.746591697996213e+00
 3.013759100478138e-01	 1.341565339758737e+00	 2.562966376793368e+00
 1.992642974102260e-01	 1.360484744412158e+00	 1.536474505558113e+00
 9.854533297442503e-02	 1.371464114495676e+00	 9.798491815060959e-01
 0.000000000000000e+00	 1.375000000000000e+00	 1.230068320792342e+00
 1.025304832708592e+00	 1.025304832708592e+00	 1.172761719492781e+01
 9.369990181125946e-01	 1.106586119563019e+00	 1.060579082416947e+01
 8.426074426020014e-01	 1.180047752267466e+00	 9.466696721523418e+00
 7.431795763965079e-01	 1.245063900848357e+00	 8.180650263010794e+00
 6.398377702297781e-01	 1.301194692490608e+00	 6.767045632523869e+00
 5.337373288568743e-01	 1.348193036538938e+00	 5.352688480987965e+00
 4.260273096782488e-01	 1.386001706854183e+00	 4.021160569883806e+00
 3.178145960500708e-01	 1.414741631018299e+00	 2.786631113059808e+00
 2.101332590868731e-01	 1.434693003198274e+00	 1.726384175395697e+00
 1.039205329546901e-01	 1.446271248013622e+00	 1.114738897487436e+00
 0.000000000000000e+00	 1.450000000000000e+00	 1.227891904474188e+00
 1.078337841297118e+00	 1.078337841297118e+00	 1.186327215869009e+01
 9.854644845668933e-01	 1.163823332643974e+00	 1.085952965095442e+01
 8.861905861851129e-01	 1.241084704971033e+00	 9.662747639341745e+00
 7.816198993138629e-01	 1.309463757788840e+00	 8.327858463566013e+00
 6.729328273109563e-01	 1.368497866240154e+00	 6.863745895919592e+00
 5.613444320739526e-01	 1.417927159118556e+00	 5.377175431501751e+00
 4.480632050067705e-01	 1.457691450312167e+00	 3.998309144181055e+00
 3.342532820529625e-01	 1.487917922277871e+00	 2.806974451598796e+00
 2.210022207640163e-01	 1.508901261984393e+00	 1.864117845062472e+00
 1.092957329352411e-01	 1.521078381531567e+00	 1.281421647015681e+00
 0.000000000000000e+00	 1.525000000000000e+00	 1.169189768224537e+00
 1.131370849885882e+00	 1.131370849885883e+00	 1.189284995998503e+01
 1.033929951021506e+00	 1.221060545725103e+00	 1.084296533885661e+01
 9.297737297686171e-01	 1.302121657674719e+00	 9.634338078068721e+00
 8.200602222316820e-01	 1.373863614729403e+00	 8.289407134807567e+00
 7.060278843926514e-01	 1.435801039989750e+00	 6.782924871734830e+00
 5.889515352915726e-01	 1.487661281698203e+00	 5.230731541726873e+00
 4.700991003358226e-01	 1.529381193770165e+00	 3.918607590155243e+00
 3.506919680563301e-01	 1.561094213537447e+00	 2.973662140467432e+00
 2.318711824415315e-01	 1.583109520770513e+00	 2.293650151515104e+00
 1.146709329160066e-01	 1.595885515049514e+00	 1.837764982700808e+00
 0.000000000000000e+00	 1.600000000000000e+00	 1.600245605565976e+00
 1.184403858474805e+00	 1.184403858474805e+00	 1.185350804025710e+01
 1.082395417476329e+00	 1.278297758806347e+00	 1.076455454127333e+01
 9.733568733523839e-01	 1.363158610378488e+00	 9.612459919515551e+00
 8.585005451498103e-01	 1.438263471670020e+00	 8.308458963775603e+00
 7.391229414746907e-01	 1.503104213739380e+00	 6.770872363322841e+00
 6.165586385095539e-01	 1.557395404277869e+00	 5.347741454624142e+00
 4.921349956652285e-01	 1.601070937228173e+00	 4.287590512742472e+00
 3.671306540600148e-01	 1.634270504797028e+00	 3.593987212520764e+00
 2.427401441192949e-01	 1.657317779556636e+00	 3.154726038626320e+00
 1.200461328969151e-01	 1.670692648567460e+00	 2.849918805114927e+00
 0.000000000000000e+00	 1.675000000000000e+00	 2.590171171615221e+00
 1.237436867063807e+00	 1.237436867063807e+00	 1.183898780923548e+01
 1.130860883931256e+00	 1.335534971887649e+00	 1.079332144023385e+01
 1.016940016936282e+00	 1.424195563082296e+00	 9.792781247750785e+00
 8.969408680680935e-01	 1.502663328610664e+00	 8.603773029807147e+00
 7.722179985569027e-01	 1.570407387489026e+00	 7.215142551354813e+00
 6.441657417277156e-01	 1.627129526857544e+00	 6.050518113782072e+00
 5.141708909948112e-01	 1.672760680686186e+00	 5.261887825918578e+00
 3.835693400638585e-01	 1.707446796056611e+00	 4.778857803394280e+00
 2.536091057971822e-01	 1.731526038342757e+00	 4.509808938038274e+00
 1.254213328778950e-01	 1.745499782085407e+00	 4.335330866021868e+00
 0.000000000000000e+00	 1.750000000000000e+00	 4.140740000630393e+00
 1.750000000000000e+00	 0.000000000000000e+00	 1.335244005424260e+01
 1.745499782085407e+00	 1.254213328778960e-01	 1.337993480843992e+01
 1.731526038342757e+00	 2.536091057971830e-01	 1.346619933428811e+01
 1.707446796056611e+00	 3.835693400638593e-01	 1.362425229643769e+01
 1.672760680686186e+00	 5.141708909948119e-01	 1.374377961436689e+01
 1.627129526857544e+00	 6.441657417277161e-01	 1.376232685679668e+01
 1.570407387489025e+00	 7.722179985569031e-01	 1.374421794319394e+01
 1.502663328610663e+00	 8.969408680680937e-01	 1.352780698154422e+01
 1.424195563082296e+00	 1.016940016936282e+00	 1.319710770052626e+01
 1.335534971887649e+00	 1.130860883931256e+00	 1.270049530976804e+01
 1.237436867063807e+00	 1.237436867063807e+00	 1.183898780923548e+01
 1.825000000000000e+00	 0.000000000000000e+00	 1.277943494503046e+01
 1.820306915603353e+00	 1.307965328588760e-01	 1.282169432581507e+01
 1.805734297128880e+00	 2.644780674750705e-01	 1.291654230140618e+01
 1.780623087316193e+00	 4.000080260677027e-01	 1.310075248515593e+01
 1.744450424144199e+00	 5.362067863243947e-01	 1.326129210354483e+01
 1.696863649437219e+00	 6.717728449458781e-01	 1.336403209328810e+01
 1.637710561238671e+00	 8.053130556391148e-01	 1.341778502835995e+01
 1.567063185551308e+00	 9.353811909863771e-01	 1.322691446554366e+01
 1.485232515786104e+00	 1.060523160520179e+00	 1.299071368694480e+01
 1.392772184968951e+00	 1.179326350386183e+00	 1.264493949901681e+01
 1.290469875652809e+00	 1.290469875652809e+00	 1.186160285518527e+01
 1.900000000000000e+00	 0.000000000000000e+00	 1.253285900517470e+01
 1.895114049121300e+00	 1.361717328397846e-01	 1.261217974849043e+01
 1.879942555915001e+00	 2.753470291528338e-01	 1.269564981870486e+01
 1.853799378575775e+00	 4.164467120713877e-01	 1.283563137901812e+01
 1.816140167602207e+00	 5.582426816538009e-01	 1.296401931245496e+01
 1.766597772016885e+00	 6.993799481638593e-01	 1.310584609986525e+01
 1.705013734988301e+00	 8.384081127211545e-01	 1.318017662100759e+01
 1.631463042491925e+00	 9.738215139045051e-01	 1.300866782065401e+01
 1.546269468489872e+00	 1.104106304103946e+00	 1.285759931791525e+01
 1.450009398050195e+00	 1.227791816841006e+00	 1.257853907289155e+01
 1.343502884241732e+00	 1.343502884241732e+00	 1.188528435416054e+01
 1.975000000000000e+00	 0.000000000000000e+00	 1.235515814804047e+01
 1.969921182639246e+00	 1.415469328205501e-01	 1.247933114190371e+01
 1.954150814701122e+00	 2.862159908303491e-01	 1.256515004592291e+01
 1.926975669835351e+00	 4.328853980747553e-01	 1.267894726067541e+01
 1.887829911060205e+00	 5.802785769828528e-01	 1.278437104293608e+01
 1.836331894596532e+00	 7.269870513814793e-01	 1.294092577659898e+01
 1.772316908737897e+00	 8.715031698028494e-01	 1.300451823216754e+01
 1.695862899432489e+00	 1.012261836822325e+00	 1.285441593557382e+01
 1.607306421193559e+00	 1.147689447687451e+00	 1.277878591986734e+01
 1.507246611131324e+00	 1.276257283295619e+00	 1.249763739407309e+01
 1.396535892830496e+00	 1.396535892830496e+00	 1.191163631445503e+01
 2.050000000000000e+00	 0.000000000000000e+00	 1.220981889910996e+01
 2.044728316157192e+00	 1.469221328011012e-01	 1.237111844951713e+01
 2.028359073487240e+00	 2.970849525074922e-01	 1.244937455932291e+01
 2.000151961094923e+00	 4.493240840776471e-01	 1.251631585868001e+01
 1.959519654518189e+00	 6.023144723113747e-01	 1.260111284917855e+01
 1.906066017176151e+00	 7.545941545985581e-01	 1.280938457598681e+01
 1.839620082487442e+00	 9.045982268840275e-01	 1.287248536933885e+01
 1.760262756372972e+00	 1.050702159739680e+00	 1.274939554293173e+01
 1.668343373897126e+00	 1.191272591270562e+00	 1.269279696875101e+01
 1.564483824212279e+00	 1.324722749749918e+00	 1.239494287116899e+01
 1.449568901419023e+00	 1.449568901419023e+00	 1.191842048518928e+01
 2.125000000000000e+00	 0.000000000000000e+00	 1.208437536980610e+01
 2.119535449675138e+00	 1.522973327813662e-01	 1.226820078596151e+01
 2.102567332273357e+00	 3.079539141841394e-01	 1.233562218432222e+01
 2.073328252354485e+00	 4.657627700799043e-01	 1.235172495743156e+01
 2.031209397976154e+00	 6.243503676391891e-01	 1.241134193344143e+01
 1.975800139755730e+00	 7.822012578149141e-01	 1.264957633508512e+01
 1.906923256236922e+00	 9.376932839645170e-01	 1.274787116594988e+01
 1.824662613313348e+00	 1.089142482656416e+00	 1.267951658269923e+01
 1.729380326600531e+00	 1.234855734853149e+00	 1.258283633462861e+01
 1.621721037293004e+00	 1.373188216203798e+00	 1.224255823354005e+01
 1.502601910007232e+00	 1.502601910007232e+00	 1.185680450965448e+01
 2.200000000000000e+00	 0.000000000000000e+00	 1.196821043042334e+01
 2.194342583193083e+00	 1.576725327612739e-01	 1.215241518306599e+01
 2.176775591059471e+00	 3.188228758601663e-01	 1.221522162590873e+01
 2.146504543614039e+00	 4.822014560813682e-01	 1.219518579710593e+01
 2.102899141434095e+00	 6.463862629661192e-01	 1.223368839956345e+01
 2.045534262335263e+00	 8.098083610303674e-01	 1.247638888495898e+01
 1.974226429986318e+00	 9.707883410441449e-01	 1.258623609084422e+01
 1.889062470253590e+00	 1.127582805572379e+00	 1.261055094517435e+01
 1.790417279303735e+00	 1.278438878435081e+00	 1.244823610612439e+01
 1.678958250373440e+00	 1.421653682657154e+00	 1.202670009544418e+01
 1.555634918595044e+00	 1.555634918595044e+00	 1.167927077149750e+01
 2.275000000000000e+00	 0.000000000000000e+00	 1.183725667910173e+01
 2.269149716711028e+00	 1.630477327407525e-01	 1.199634019086194e+01
 2.250983849845581e+00	 3.296918375354492e-01	 1.207742906891578e+01
 2.219680834873580e+00	 4.986401420818802e-01	 1.206179529599006e+01
 2.174588884892009e+00	 6.684221582919886e-01	 1.208878537852006e+01
 2.115268384914739e+00	 8.374154642447373e-01	 1.230867650051906e+01
 2.041529603735614e+00	 1.003883398122740e+00	 1.240247041156829e+01
 1.953462327193672e+00	 1.166023128487414e+00	 1.246218360092856e+01
 1.851454232006696e+00	 1.322022022016228e+00	 1.231475116679420e+01
 1.736195463453530e+00	 1.470119149109883e+00	 1.176427333165296e+01
 1.608667927182382e+00	 1.608667927182381e+00	 1.147172842380329e+01
 2.350000000000001e+00	 0.000000000000000e+00	 1.164309765366568e+01
 2.343956850228973e+00	 1.684229327197307e-01	 1.175717735106915e+01
 2.325192108631687e+00	 3.405607992098638e-01	 1.186374242161927e+01
 2.292857126133108e+00	 5.150788280812819e-01	 1.191249015690151e+01
 2.246278628349887e+00	 6.904580536166198e-01	 1.199004559504414e+01
 2.185002507494149e+00	 8.650225674578433e-01	 1.216755246860939e+01
 2.108832777484793e+00	 1.036978455200129e+00	 1.222155974104087e+01
 2.017862184133566e+00	 1.204463451401366e+00	 1.228707805848229e+01
 1.912491184709375e+00	 1.365605165596456e+00	 1.221246876344125e+01
 1.793432676533217e+00	 1.518584615561878e+00	 1.155453253684088e+01
 1.661700935769163e+00	 1.661700935769163e+00	 1.137561158737709e+01
 2.425000000000001e+00	 0.000000000000000e+00	 1.138088686135680e+01
 2.418763983746917e+00	 1.737981326981369e-01	 1.144275173270799e+01
 2.399400367417789e+00	 3.514297608832863e-01	 1.157419164858827e+01
 2.366033417392620e+00	 5.315175140794144e-01	 1.169709186799940e+01
 2.317968371807728e+00	 7.124939489398363e-01	 1.185756601051607e+01
 2.254736630073483e+00	 8.926296706695047e-01	 1.206761420226464e+01
 2.176135951233839e+00	 1.070073512276140e+00	 1.208115955171296e+01
 2.082262041073245e+00	 1.242903774314080e+00	 1.216949536633398e+01
 1.973528137411732e+00	 1.409188309175636e+00	 1.221044523518544e+01
 1.850669889612441e+00	 1.567050082013035e+00	 1.161594945136768e+01
 1.714733944355311e+00	 1.714733944355311e+00	 1.154422699690075e+01
 2.500000000000000e+00	 0.000000000000000e+00	 1.104942349274408e+01
 2.493571117264860e+00	 1.791733326758997e-01	 1.106683702233126e+01
 2.473608626203884e+00	 3.622987225555924e-01	 1.122548763459244e+01
 2.439209708652113e+00	 5.479562000761188e-01	 1.142892437722658e+01
 2.389658115265525e+00	 7.345298442614614e-01	 1.167752825192697e+01
 2.324470752652729e+00	 9.202367738795407e-01	 1.196426950807140e+01
 2.243439124982734e+00	 1.103168569350600e+00	 1.203288543803101e+01
 2.146661898012684e+00	 1.281344097225402e+00	 1.219384578625450e+01
 2.034565090113726e+00	 1.452771452753637e+00	 1.241286000870085e+01
 1.907907102691146e+00	 1.615515548463250e+00	 1.206364540699258e+01
 1.767766952940745e+00	 1.767766952940745e+00	 1.211261493900286e+01
 1.237436867063807e+00	 1.237436867063807e+00	 1.183898780923548e+01
 1.130860883931256e+00	 1.335534971887649e+00	 1.079332144023385e+01
 1.016940016936282e+00	 1.424195563082296e+00	 9.792781247750785e+00
 8.969408680680935e-01	 1.502663328610664e+00	 8.603773029807147e+00
 7.722179985569027e-01	 1.570407387489026e+00	 7.215142551354813e+00
 6.441657417277156e-01	 1.627129526857544e+00	 6.050518113782072e+00
 5.141708909948112e-01	 1.672760680686186e+00	 5.261887825918578e+00
 3.835693400638585e-01	 1.707446796056611e+00	 4.778857803394280e+00
 2.536091057971822e-01	 1.731526038342757e+00	 4.509808938038274e+00
 1.254213328778950e-01	 1.745499782085407e+00	 4.335330866021868e+00
 0.000000000000000e+00	 1.750000000000000e+00	 4.140740000630393e+00
 1.290469875652809e+00	 1.290469875652809e+00	 1.186160285518527e+01
 1.179326350386184e+00	 1.392772184968951e+00	 1.092638475633234e+01
 1.060523160520179e+00	 1.485232515786104e+00	 1.009949930988617e+01
 9.353811909863766e-01	 1.567063185551308e+00	 9.047862417940692e+00
 8.053130556391142e-01	 1.637710561238671e+00	 7.838567764594480e+00
 6.717728449458775e-01	 1.696863649437219e+00	 6.894517277416300e+00
 5.362067863243939e-01	 1.744450424144199e+00	 6.285829178499339e+00
 4.000080260677019e-01	 1.780623087316193e+00	 5.854144756053802e+00
 2.644780674750695e-01	 1.805734297128879e+00	 5.547501986626193e+00
 1.307965328588750e-01	 1.820306915603354e+00	 5.352536245907332e+00
 0.000000000000000e+00	 1.825000000000000e+00	 5.223199775934050e+00
 1.343502884241732e+00	 1.343502884241732e+00	 1.188528435416054e+01
 1.227791816841006e+00	 1.450009398050194e+00	 1.108074646188698e+01
 1.104106304103946e+00	 1.546269468489872e+00	 1.033968499970730e+01
 9.738215139045050e-01	 1.631463042491925e+00	 9.351594703799872e+00
 8.384081127211539e-01	 1.705013734988301e+00	 8.239525784177285e+00
 6.993799481638587e-01	 1.766597772016886e+00	 7.388924729703244e+00
 5.582426816537996e-01	 1.816140167602207e+00	 6.767056918120804e+00
 4.164467120713868e-01	 1.853799378575775e+00	 6.113976238875673e+00
 2.753470291528328e-01	 1.879942555915001e+00	 5.526606100624239e+00
 1.361717328397835e-01	 1.895114049121300e+00	 5.199020224514937e+00
 0.000000000000000e+00	 1.900000000000000e+00	 5.114917956346231e+00
 1.396535892830496e+00	 1.396535892830496e+00	 1.191163631445503e+01
 1.276257283295619e+00	 1.507246611131323e+00	 1.126178868259688e+01
 1.147689447687451e+00	 1.607306421193560e+00	 1.048999610072393e+01
 1.012261836822324e+00	 1.695862899432489e+00	 9.511680849466490e+00
 8.715031698028489e-01	 1.772316908737897e+00	 8.434843406511320e+00
 7.269870513814788e-01	 1.836331894596532e+00	 7.578251969065058e+00
 5.802785769828521e-01	 1.887829911060206e+00	 6.834528917789499e+00
 4.328853980747543e-01	 1.926975669835352e+00	 6.062577483609886e+00
 2.862159908303480e-01	 1.954150814701121e+00	 5.382158733450028e+00
 1.415469328205490e-01	 1.969921182639246e+00	 5.011476235899639e+00
 0.000000000000000e+00	 1.975000000000000e+00	 4.965368218303444e+00
 1.449568901419023e+00	 1.449568901419023e+00	 1.191842048518928e+01
 1.324722749749918e+00	 1.564483824212279e+00	 1.136262674499142e+01
 1.191272591270562e+00	 1.668343373897126e+00	 1.054040322291580e+01
 1.050702159739679e+00	 1.760262756372972e+00	 9.514781820619714e+00
 9.045982268840272e-01	 1.839620082487443e+00	 8.427983206530534e+00
 7.545941545985573e-01	 1.906066017176150e+00	 7.590480972414947e+00
 6.023144723113738e-01	 1.959519654518190e+00	 6.897182121960600e+00
 4.493240840776461e-01	 2.000151961094923e+00	 6.079000778735077e+00
 2.970849525074912e-01	 2.028359073487241e+00	 5.321945040376812e+00
 1.469221328011000e-01	 2.044728316157192e+00	 4.913497094917520e+00
 0.000000000000000e+00	 2.050000000000000e+00	 4.884052814889022e+00
 1.502601910007232e+00	 1.502601910007232e+00	 1.185680450965448e+01
 1.373188216203798e+00	 1.621721037293004e+00	 1.135003620060942e+01
 1.234855734853149e+00	 1.729380326600531e+00	 1.045876864057771e+01
 1.089142482656416e+00	 1.824662613313348e+00	 9.338964998725109e+00
 9.376932839645163e-01	 1.906923256236921e+00	 8.313723857855903e+00
 7.822012578149131e-01	 1.975800139755730e+00	 7.640416621377996e+00
 6.243503676391881e-01	 2.031209397976155e+00	 6.971942680500234e+00
 4.657627700799032e-01	 2.073328252354486e+00	 6.106460800066933e+00
 3.079539141841383e-01	 2.102567332273357e+00	 5.305739760411079e+00
 1.522973327813650e-01	 2.119535449675138e+00	 4.890615563232001e+00
 0.000000000000000e+00	 2.125000000000000e+00	 4.879231271992008e+00
 1.555634918595044e+00	 1.555634918595044e+00	 1.167927077149750e+01
 1.421653682657154e+00	 1.678958250373440e+00	 1.123584582005895e+01
 1.278438878435082e+00	 1.790417279303735e+00	 1.022773547001555e+01
 1.127582805572378e+00	 1.889062470253590e+00	 9.027176186384333e+00
 9.707883410441444e-01	 1.974226429986318e+00	 8.303358292368834e+00
 8.098083610303667e-01	 2.045534262335264e+00	 7.724010972183958e+00
 6.463862629661183e-01	 2.102899141434096e+00	 7.015290832507886e+00
 4.822014560813671e-01	 2.146504543614040e+00	 6.091758534862181e+00
 3.188228758601652e-01	 2.176775591059471e+00	 5.292841360897448e+00
 1.576725327612726e-01	 2.194342583193083e+00	 4.927792922214319e+00
 0.000000000000000e+00	 2.200000000000000e+00	 4.959549427600805e+00
 1.608667927182382e+00	 1.608667927182381e+00	 1.147172842380329e+01
 1.470119149109883e+00	 1.736195463453530e+00	 1.107144175057306e+01
 1.322022022016228e+00	 1.851454232006696e+00	 9.857028053472582e+00
 1.166023128487413e+00	 1.953462327193672e+00	 8.914032075752170e+00
 1.003883398122739e+00	 2.041529603735614e+00	 8.444029562747435e+00
 8.374154642447366e-01	 2.115268384914740e+00	 7.845381398508554e+00
 6.684221582919875e-01	 2.174588884892009e+00	 6.994298132882660e+00
 4.986401420818791e-01	 2.219680834873581e+00	 5.985597883125914e+00
 3.296918375354480e-01	 2.250983849845581e+00	 5.289018905818915e+00
 1.630477327407512e-01	 2.269149716711028e+00	 5.092817728326839e+00
 0.000000000000000e+00	 2.275000000000000e+00	 5.202472445846939e+00
 1.661700935769163e+00	 1.661700935769163e+00	 1.137561158737709e+01
 1.518584615561878e+00	 1.793432676533216e+00	 1.096014215802282e+01
 1.365605165596456e+00	 1.912491184709376e+00	 9.655103678532548e+00
 1.204463451401365e+00	 2.017862184133566e+00	 9.127370352811774e+00
 1.036978455200128e+00	 2.108832777484793e+00	 8.796132530821250e+00
 8.650225674578425e-01	 2.185002507494149e+00	 8.025260596984003e+00
 6.904580536166188e-01	 2.246278628349887e+00	 6.936175708416942e+00
 5.150788280812806e-01	 2.292857126133109e+00	 6.120342826941748e+00
 3.405607992098625e-01	 2.325192108631687e+00	 5.726825867085322e+00
 1.684229327197294e-01	 2.343956850228973e+00	 5.687536688913106e+00
 0.000000000000000e+00	 2.350000000000001e+00	 5.809259950134161e+00
 1.714733944355311e+00	 1.714733944355311e+00	 1.154422699690075e+01
 1.567050082013035e+00	 1.850669889612441e+00	 1.106374931029069e+01
 1.409188309175636e+00	 1.973528137411732e+00	 9.988534047735063e+00
 1.242903774314080e+00	 2.082262041073246e+00	 9.774196375420352e+00
 1.070073512276139e+00	 2.176135951233839e+00	 9.437012607639943e+00
 8.926296706695038e-01	 2.254736630073483e+00	 8.377978766755311e+00
 7.124939489398354e-01	 2.317968371807728e+00	 7.456624225170982e+00
 5.315175140794132e-01	 2.366033417392621e+00	 6.921001804276138e+00
 3.514297608832849e-01	 2.399400367417789e+00	 6.725991522050212e+00
 1.737981326981355e-01	 2.418763983746917e+00	 6.741296308687915e+00
 0.000000000000000e+00	 2.425000000000001e+00	 6.793969154898452e+00
 1.767766952940745e+00	 1.767766952940745e+00	 1.211261493900286e+01
 1.615515548463250e+00	 1.907907102691145e+00	 1.169148789054462e+01
 1.452771452753637e+00	 2.034565090113726e+00	 1.094646993840247e+01
 1.281344097225402e+00	 2.146661898012684e+00	 1.096085474504658e+01
 1.103168569350599e+00	 2.243439124982734e+00	 1.047700872466309e+01
 9.202367738795398e-01	 2.324470752652729e+00	 9.454231610823260e+00
 7.345298442614605e-01	 2.389658115265525e+00	 8.746603403539055e+00
 5.479562000761176e-01	 2.439209708652114e+00	 8.401153733777681e+00
 3.622987225555909e-01	 2.473608626203884e+00	 8.294326922836007e+00
 1.791733326758982e-01	 2.493571117264860e+00	 8.254924318400022e+00
 0.000000000000000e+00	 2.500000000000000e+00	 8.158649255293115e+00
