patch_n	x	y	stress_yy
0	 0.000000000000000e+00	 0.000000000000000e+00	 2.151260945468149e-01
0	 3.703751761278757e-02	 0.000000000000000e+00	 4.551911773545126e-01
0	 7.407591860629409e-02	 0.000000000000000e+00	 6.024416194312431e-01
0	 1.111150863032353e-01	 0.000000000000000e+00	 6.696999879758962e-01
0	 1.481549040263268e-01	 0.000000000000000e+00	 6.697887492412542e-01
0	 1.851952550982844e-01	 0.000000000000000e+00	 6.155302685547891e-01
0	 2.222360228418238e-01	 0.000000000000000e+00	 5.197468103346901e-01
0	 2.592770905796607e-01	 0.000000000000000e+00	 3.952605381011205e-01
0	 2.963183416345107e-01	 0.000000000000000e+00	 2.548935144827084e-01
0	 3.333596593290896e-01	 0.000000000000000e+00	 1.114677012182675e-01
0	 3.704009269861132e-01	 0.000000000000000e+00	-2.219504084624539e-02
0	 3.704009269861132e-01	 0.000000000000000e+00	-2.219504084624539e-02
0	 4.074320498716263e-01	 0.000000000000000e+00	-1.265117632631803e-01
0	 4.444630227948896e-01	 0.000000000000000e+00	-1.929788265718432e-01
0	 4.814938624184864e-01	 0.000000000000000e+00	-2.252925938640921e-01
0	 5.185245854050001e-01	 0.000000000000000e+00	-2.271494650480665e-01
0	 5.555552084170138e-01	 0.000000000000000e+00	-2.022458768494363e-01
0	 5.925857481171107e-01	 0.000000000000000e+00	-1.542783028124010e-01
0	 6.296162211678745e-01	 0.000000000000000e+00	-8.694325330044020e-02
0	 6.666466442318879e-01	 0.000000000000000e+00	-3.937275496817716e-03
0	 7.036770339717346e-01	 0.000000000000000e+00	 9.104304659516650e-02
0	 7.407074070499978e-01	 0.000000000000000e+00	 1.943010921521696e-01
0	 7.407074070499978e-01	 0.000000000000000e+00	 1.943010921521695e-01
0	 7.777477718965361e-01	 0.000000000000000e+00	 2.503078536820056e-01
0	 8.147881034103083e-01	 0.000000000000000e+00	 2.122066770614321e-01
0	 8.518283682575469e-01	 0.000000000000000e+00	 8.939507117479488e-02
0	 8.888685331044861e-01	 0.000000000000000e+00	-1.087299650640867e-01
0	 9.259085646173584e-01	 0.000000000000000e+00	-3.727719427266656e-01
0	 9.629484294623976e-01	 0.000000000000000e+00	-6.933348828913006e-01
0	 9.999880943058367e-01	 0.000000000000000e+00	-1.061023316671771e+00
0	 1.037027525813909e+00	 0.000000000000000e+00	-1.466442285252675e+00
0	 1.074066690652848e+00	 0.000000000000000e+00	-1.900197339931725e+00
0	 1.111105555488888e+00	 0.000000000000000e+00	-2.352894542168926e+00
0	 1.111105555488888e+00	 0.000000000000000e+00	-2.352894542168926e+00
0	 1.148144103655110e+00	 0.000000000000000e+00	-2.739754309897386e+00
0	 1.185182385152000e+00	 0.000000000000000e+00	-2.991091054573441e+00
0	 1.222220466646889e+00	 0.000000000000000e+00	-3.120152727726939e+00
0	 1.259258414807111e+00	 0.000000000000000e+00	-3.140187970485289e+00
0	 1.296296296300000e+00	 0.000000000000000e+00	-3.064446113670903e+00
0	 1.333334177792889e+00	 0.000000000000000e+00	-2.906177177880043e+00
0	 1.370372125953112e+00	 0.000000000000000e+00	-2.678631873543066e+00
0	 1.407410207448001e+00	 0.000000000000000e+00	-2.395061600965988e+00
0	 1.444448488944890e+00	 0.000000000000000e+00	-2.068718450353487e+00
0	 1.481487037111112e+00	 0.000000000000000e+00	-1.712855201813212e+00
0	 1.481487037111112e+00	 0.000000000000000e+00	-1.712855201813212e+00
0	 1.518525901947152e+00	 0.000000000000000e+00	-1.335892904195191e+00
0	 1.555565066786090e+00	 0.000000000000000e+00	-9.353109416530252e-01
0	 1.592604498294163e+00	 0.000000000000000e+00	-5.079498389461659e-01
0	 1.629644163137602e+00	 0.000000000000000e+00	-5.064975322570042e-02
0	 1.666684027982641e+00	 0.000000000000000e+00	 4.397495259400124e-01
0	 1.703724059495513e+00	 0.000000000000000e+00	 9.664085765446480e-01
0	 1.740764224342452e+00	 0.000000000000000e+00	 1.532488344128225e+00
0	 1.777804489189690e+00	 0.000000000000000e+00	 2.141150141766344e+00
0	 1.814844820703462e+00	 0.000000000000000e+00	 2.795555650064351e+00
0	 1.851885185550002e+00	 0.000000000000000e+00	 3.498866917156623e+00
0	 1.851885185550002e+00	 0.000000000000000e+00	 3.498866917156623e+00
0	 1.888915555851201e+00	 0.000000000000000e+00	 4.211771071352336e+00
0	 1.925945926151601e+00	 0.000000000000000e+00	 4.893328153243723e+00
0	 1.962976296451401e+00	 0.000000000000000e+00	 5.543669559476220e+00
0	 2.000006666750801e+00	 0.000000000000000e+00	 6.162926686695759e+00
0	 2.037037037050001e+00	 0.000000000000000e+00	 6.751230931548787e+00
0	 2.074067407349200e+00	 0.000000000000000e+00	 7.308713690682228e+00
0	 2.111097777648601e+00	 0.000000000000000e+00	 7.835506360743530e+00
0	 2.148128147948400e+00	 0.000000000000000e+00	 8.331740338380637e+00
0	 2.185158518248799e+00	 0.000000000000000e+00	 8.797547020241996e+00
0	 2.222188888549998e+00	 0.000000000000000e+00	 9.233057802976543e+00
0	 2.222188888549998e+00	 0.000000000000000e+00	 9.233057802976541e+00
0	 2.259229258952148e+00	 0.000000000000000e+00	 9.631094546332449e+00
0	 2.296269629355197e+00	 0.000000000000000e+00	 9.984617133968417e+00
0	 2.333309999759047e+00	 0.000000000000000e+00	 1.029430459248406e+01
0	 2.370350370163597e+00	 0.000000000000000e+00	 1.056083594847850e+01
0	 2.407390740568747e+00	 0.000000000000000e+00	 1.078489022855035e+01
0	 2.444431110974397e+00	 0.000000000000000e+00	 1.096714645929775e+01
0	 2.481471481380447e+00	 0.000000000000000e+00	 1.110828366731834e+01
0	 2.518511851786798e+00	 0.000000000000000e+00	 1.120898087920926e+01
0	 2.555552222193348e+00	 0.000000000000000e+00	 1.126991712156715e+01
0	 2.592592592600000e+00	 0.000000000000000e+00	 1.129177142098816e+01
0	 2.592592592600000e+00	 0.000000000000000e+00	 1.129177142098816e+01
0	 2.629632963006650e+00	 0.000000000000000e+00	 1.128859776672949e+01
0	 2.666673333413201e+00	 0.000000000000000e+00	 1.127494123010070e+01
0	 2.703713703819551e+00	 0.000000000000000e+00	 1.125221746077613e+01
0	 2.740754074225602e+00	 0.000000000000000e+00	 1.122184210843003e+01
0	 2.777794444631251e+00	 0.000000000000000e+00	 1.118523082273657e+01
0	 2.814834815036402e+00	 0.000000000000000e+00	 1.114379925336990e+01
0	 2.851875185440952e+00	 0.000000000000000e+00	 1.109896305000408e+01
0	 2.888915555844801e+00	 0.000000000000000e+00	 1.105213786231308e+01
0	 2.925955926247851e+00	 0.000000000000000e+00	 1.100473933997084e+01
0	 2.962996296650002e+00	 0.000000000000000e+00	 1.095818313265124e+01
0	 2.962996296650002e+00	 0.000000000000000e+00	 1.095818313265124e+01
0	 3.000026666951201e+00	 0.000000000000000e+00	 1.091637983029758e+01
0	 3.037057037251600e+00	 0.000000000000000e+00	 1.088169753336864e+01
0	 3.074087407551401e+00	 0.000000000000000e+00	 1.085327514151761e+01
0	 3.111117777850801e+00	 0.000000000000000e+00	 1.083025155439758e+01
0	 3.148148148150001e+00	 0.000000000000000e+00	 1.081176567166165e+01
0	 3.185178518449201e+00	 0.000000000000000e+00	 1.079695639296280e+01
0	 3.222208888748601e+00	 0.000000000000000e+00	 1.078496261795398e+01
0	 3.259239259048400e+00	 0.000000000000000e+00	 1.077492324628810e+01
0	 3.296269629348799e+00	 0.000000000000000e+00	 1.076597717761799e+01
0	 3.333299999649998e+00	 0.000000000000000e+00	 1.075726331159645e+01
0	 3.333299999649998e+00	 0.000000000000000e+00	 1.075726331159645e+01
0	 3.370340370052147e+00	 0.000000000000000e+00	 1.074719281287295e+01
0	 3.407380740455197e+00	 0.000000000000000e+00	 1.073500856677185e+01
0	 3.444421110859047e+00	 0.000000000000000e+00	 1.072108985590407e+01
0	 3.481461481263596e+00	 0.000000000000000e+00	 1.070581596288052e+01
0	 3.518501851668747e+00	 0.000000000000000e+00	 1.068956617031212e+01
0	 3.555542222074398e+00	 0.000000000000000e+00	 1.067271976080976e+01
0	 3.592582592480448e+00	 0.000000000000000e+00	 1.065565601698437e+01
0	 3.629622962886798e+00	 0.000000000000000e+00	 1.063875422144683e+01
0	 3.666663333293348e+00	 0.000000000000000e+00	 1.062239365680805e+01
0	 3.703703703700000e+00	 0.000000000000000e+00	 1.060695360567892e+01
0	 3.703703703700000e+00	 0.000000000000000e+00	 1.060695360567892e+01
0	 3.740744074106651e+00	 0.000000000000000e+00	 1.059287545707911e+01
0	 3.777784444513201e+00	 0.000000000000000e+00	 1.058022030331006e+01
0	 3.814824814919551e+00	 0.000000000000000e+00	 1.056879698190541e+01
0	 3.851865185325602e+00	 0.000000000000000e+00	 1.055841433039878e+01
0	 3.888905555731252e+00	 0.000000000000000e+00	 1.054888118632381e+01
0	 3.925945926136402e+00	 0.000000000000000e+00	 1.054000638721412e+01
0	 3.962986296540952e+00	 0.000000000000000e+00	 1.053159877060335e+01
0	 4.000026666944802e+00	 0.000000000000000e+00	 1.052346717402515e+01
0	 4.037067037347851e+00	 0.000000000000000e+00	 1.051542043501316e+01
0	 4.074107407750003e+00	 0.000000000000000e+00	 1.050726739110101e+01
0	 4.074107407750003e+00	 0.000000000000000e+00	 1.050726739110101e+01
0	 4.111137778051202e+00	 0.000000000000000e+00	 1.049886880372588e+01
0	 4.148168148351601e+00	 0.000000000000000e+00	 1.049025779990527e+01
0	 4.185198518651401e+00	 0.000000000000000e+00	 1.048150846364026e+01
0	 4.222228888950800e+00	 0.000000000000000e+00	 1.047269487893200e+01
0	 4.259259259250000e+00	 0.000000000000000e+00	 1.046389112978158e+01
0	 4.296289629549201e+00	 0.000000000000000e+00	 1.045517130019012e+01
0	 4.333319999848601e+00	 0.000000000000000e+00	 1.044660947415871e+01
0	 4.370350370148401e+00	 0.000000000000000e+00	 1.043827973568845e+01
0	 4.407380740448801e+00	 0.000000000000000e+00	 1.043025616878042e+01
0	 4.444411110749998e+00	 0.000000000000000e+00	 1.042261285743572e+01
0	 4.444411110749998e+00	 0.000000000000000e+00	 1.042261285743572e+01
0	 4.481451475596535e+00	 0.000000000000000e+00	 1.041532918525052e+01
0	 4.518491807110308e+00	 0.000000000000000e+00	 1.040831622770013e+01
0	 4.555532071957548e+00	 0.000000000000000e+00	 1.040153958853527e+01
0	 4.592572236804486e+00	 0.000000000000000e+00	 1.039496487170736e+01
0	 4.629612268317358e+00	 0.000000000000000e+00	 1.038855768136832e+01
0	 4.666652133162397e+00	 0.000000000000000e+00	 1.038228362187052e+01
0	 4.703691798005836e+00	 0.000000000000000e+00	 1.037610829776669e+01
0	 4.740731229513909e+00	 0.000000000000000e+00	 1.036999731380984e+01
0	 4.777770394352848e+00	 0.000000000000000e+00	 1.036391627495313e+01
0	 4.814809259188888e+00	 0.000000000000000e+00	 1.035783078634985e+01
0	 4.814809259188888e+00	 0.000000000000000e+00	 1.035783078634984e+01
0	 4.851847807355111e+00	 0.000000000000000e+00	 1.035175174251261e+01
0	 4.888886088852000e+00	 0.000000000000000e+00	 1.034572010144361e+01
0	 4.925924170346889e+00	 0.000000000000000e+00	 1.033974656276839e+01
0	 4.962962118507111e+00	 0.000000000000000e+00	 1.033384182489601e+01
0	 4.999999999999999e+00	 0.000000000000000e+00	 1.032801658501865e+01
0	 5.037037881492887e+00	 0.000000000000000e+00	 1.032228153911126e+01
0	 5.074075829653110e+00	 0.000000000000000e+00	 1.031664738193122e+01
0	 5.111113911148001e+00	 0.000000000000000e+00	 1.031112480701799e+01
0	 5.148152192644890e+00	 0.000000000000000e+00	 1.030572450669289e+01
0	 5.185190740811112e+00	 0.000000000000000e+00	 1.030045717205883e+01
0	 5.185190740811112e+00	 0.000000000000000e+00	 1.030045717205883e+01
0	 5.222229605647151e+00	 0.000000000000000e+00	 1.029529186242815e+01
0	 5.259268770486091e+00	 0.000000000000000e+00	 1.029018731326036e+01
0	 5.296308201994164e+00	 0.000000000000000e+00	 1.028513872910604e+01
0	 5.333347866837603e+00	 0.000000000000000e+00	 1.028014131470334e+01
0	 5.370387731682643e+00	 0.000000000000000e+00	 1.027519027497796e+01
0	 5.407427763195515e+00	 0.000000000000000e+00	 1.027028081504302e+01
0	 5.444467928042457e+00	 0.000000000000000e+00	 1.026540814019903e+01
0	 5.481508192889694e+00	 0.000000000000000e+00	 1.026056745593378e+01
0	 5.518548524403467e+00	 0.000000000000000e+00	 1.025575396792231e+01
0	 5.555588889250002e+00	 0.000000000000000e+00	 1.025096288202685e+01
0	 5.555588889250002e+00	 0.000000000000000e+00	 1.025096288202685e+01
0	 5.592619259551202e+00	 0.000000000000000e+00	 1.024620355901432e+01
0	 5.629649629851602e+00	 0.000000000000000e+00	 1.024148623917313e+01
0	 5.666680000151401e+00	 0.000000000000000e+00	 1.023681132047925e+01
0	 5.703710370450801e+00	 0.000000000000000e+00	 1.023217920090867e+01
0	 5.740740740750002e+00	 0.000000000000000e+00	 1.022759027843739e+01
0	 5.777771111049200e+00	 0.000000000000000e+00	 1.022304495104137e+01
0	 5.814801481348600e+00	 0.000000000000000e+00	 1.021854361669662e+01
0	 5.851831851648401e+00	 0.000000000000000e+00	 1.021408667337908e+01
0	 5.888862221948800e+00	 0.000000000000000e+00	 1.020967451906476e+01
0	 5.925892592249998e+00	 0.000000000000000e+00	 1.020530755172962e+01
0	 5.925892592249998e+00	 0.000000000000000e+00	 1.020530755172962e+01
0	 5.962932962652147e+00	 0.000000000000000e+00	 1.020097107951147e+01
0	 5.999973333055197e+00	 0.000000000000000e+00	 1.019665218198613e+01
0	 6.037013703459048e+00	 0.000000000000000e+00	 1.019235039478258e+01
0	 6.074054073863598e+00	 0.000000000000000e+00	 1.018806525352978e+01
0	 6.111094444268749e+00	 0.000000000000000e+00	 1.018379629385671e+01
0	 6.148134814674400e+00	 0.000000000000000e+00	 1.017954305139231e+01
0	 6.185175185080451e+00	 0.000000000000000e+00	 1.017530506176556e+01
0	 6.222215555486802e+00	 0.000000000000000e+00	 1.017108186060544e+01
0	 6.259255925893352e+00	 0.000000000000000e+00	 1.016687298354091e+01
0	 6.296296296300000e+00	 0.000000000000000e+00	 1.016267796620094e+01
0	 6.296296296300000e+00	 0.000000000000000e+00	 1.016267796620094e+01
0	 6.333336666706651e+00	 0.000000000000000e+00	 1.015849808815476e+01
0	 6.370377037113201e+00	 0.000000000000000e+00	 1.015433444126918e+01
0	 6.407417407519554e+00	 0.000000000000000e+00	 1.015018627961948e+01
0	 6.444457777925605e+00	 0.000000000000000e+00	 1.014605285728096e+01
0	 6.481498148331255e+00	 0.000000000000000e+00	 1.014193342832890e+01
0	 6.518538518736407e+00	 0.000000000000000e+00	 1.013782724683859e+01
0	 6.555578889140956e+00	 0.000000000000000e+00	 1.013373356688536e+01
0	 6.592619259544807e+00	 0.000000000000000e+00	 1.012965164254446e+01
0	 6.629659629947858e+00	 0.000000000000000e+00	 1.012558072789119e+01
0	 6.666700000350003e+00	 0.000000000000000e+00	 1.012152007700088e+01
0	 6.666700000350003e+00	 0.000000000000000e+00	 1.012152007700088e+01
0	 6.703730370651201e+00	 0.000000000000000e+00	 1.011746566424467e+01
0	 6.740760740951601e+00	 0.000000000000000e+00	 1.011341155378232e+01
0	 6.777791111251401e+00	 0.000000000000000e+00	 1.010935741928096e+01
0	 6.814821481550801e+00	 0.000000000000000e+00	 1.010530293440770e+01
0	 6.851851851850000e+00	 0.000000000000000e+00	 1.010124777282968e+01
0	 6.888882222149200e+00	 0.000000000000000e+00	 1.009719160821403e+01
0	 6.925912592448602e+00	 0.000000000000000e+00	 1.009313411422786e+01
0	 6.962942962748400e+00	 0.000000000000000e+00	 1.008907496453833e+01
0	 6.999973333048802e+00	 0.000000000000000e+00	 1.008501383281253e+01
0	 7.037003703349997e+00	 0.000000000000000e+00	 1.008095039271761e+01
0	 7.037003703349997e+00	 0.000000000000000e+00	 1.008095039271761e+01
0	 7.074044073752147e+00	 0.000000000000000e+00	 1.007688301592257e+01
0	 7.111084444155199e+00	 0.000000000000000e+00	 1.007281188697373e+01
0	 7.148124814559049e+00	 0.000000000000000e+00	 1.006873610581900e+01
0	 7.185165184963600e+00	 0.000000000000000e+00	 1.006465477240628e+01
0	 7.222205555368750e+00	 0.000000000000000e+00	 1.006056698668349e+01
0	 7.259245925774400e+00	 0.000000000000000e+00	 1.005647184859854e+01
0	 7.296286296180451e+00	 0.000000000000000e+00	 1.005236845809934e+01
0	 7.333326666586802e+00	 0.000000000000000e+00	 1.004825591513380e+01
0	 7.370367036993352e+00	 0.000000000000000e+00	 1.004413331964981e+01
0	 7.407407407399999e+00	 0.000000000000000e+00	 1.003999977159532e+01
0	 7.407407407399999e+00	 0.000000000000000e+00	 1.003999977159532e+01
0	 7.444447777806652e+00	 0.000000000000000e+00	 1.003585338646777e+01
0	 7.481488148213201e+00	 0.000000000000000e+00	 1.003169233663688e+01
0	 7.518528518619553e+00	 0.000000000000000e+00	 1.002751580735900e+01
0	 7.555568889025603e+00	 0.000000000000000e+00	 1.002332298389046e+01
0	 7.592609259431255e+00	 0.000000000000000e+00	 1.001911305148760e+01
0	 7.629649629836405e+00	 0.000000000000000e+00	 1.001488519540676e+01
0	 7.666690000240954e+00	 0.000000000000000e+00	 1.001063860090427e+01
0	 7.703730370644806e+00	 0.000000000000000e+00	 1.000637245323647e+01
0	 7.740770741047855e+00	 0.000000000000000e+00	 1.000208593765971e+01
0	 7.777811111450003e+00	 0.000000000000000e+00	 9.997778239430307e+00
0	 7.777811111450003e+00	 0.000000000000000e+00	 9.997778239430307e+00
0	 7.814841481751202e+00	 0.000000000000000e+00	 9.993450172078891e+00
0	 7.851871852051601e+00	 0.000000000000000e+00	 9.989099894475361e+00
0	 7.888902222351401e+00	 0.000000000000000e+00	 9.984726107639810e+00
0	 7.925932592650801e+00	 0.000000000000000e+00	 9.980327512592241e+00
0	 7.962962962950000e+00	 0.000000000000000e+00	 9.975902810352711e+00
0	 7.999993333249201e+00	 0.000000000000000e+00	 9.971450701941281e+00
0	 8.037023703548602e+00	 0.000000000000000e+00	 9.966969888377973e+00
0	 8.074054073848401e+00	 0.000000000000000e+00	 9.962459070682836e+00
0	 8.111084444148801e+00	 0.000000000000000e+00	 9.957916949875921e+00
0	 8.148114814450000e+00	 0.000000000000000e+00	 9.953342226977249e+00
0	 8.148114814450000e+00	 0.000000000000000e+00	 9.953342226977249e+00
0	 8.185155179296538e+00	 0.000000000000000e+00	 9.948733342489597e+00
0	 8.222195510810311e+00	 0.000000000000000e+00	 9.944091030858218e+00
0	 8.259235775657549e+00	 0.000000000000000e+00	 9.939413714338217e+00
0	 8.296275940504488e+00	 0.000000000000000e+00	 9.934699815328944e+00
0	 8.333315972017362e+00	 0.000000000000000e+00	 9.929947756374009e+00
0	 8.370355836862398e+00	 0.000000000000000e+00	 9.925155960161247e+00
0	 8.407395501705842e+00	 0.000000000000000e+00	 9.920322849522764e+00
0	 8.444434933213913e+00	 0.000000000000000e+00	 9.915446847434936e+00
0	 8.481474098052853e+00	 0.000000000000000e+00	 9.910526377018378e+00
0	 8.518512962888888e+00	 0.000000000000000e+00	 9.905559861538020e+00
0	 8.518512962888888e+00	 0.000000000000000e+00	 9.905559861538020e+00
0	 8.555551511055112e+00	 0.000000000000000e+00	 9.900547804628808e+00
0	 8.592589792551999e+00	 0.000000000000000e+00	 9.895490294853493e+00
0	 8.629627874046889e+00	 0.000000000000000e+00	 9.890385132725157e+00
0	 8.666665822207115e+00	 0.000000000000000e+00	 9.885230118421116e+00
0	 8.703703703700002e+00	 0.000000000000000e+00	 9.880023051782970e+00
0	 8.740741585192893e+00	 0.000000000000000e+00	 9.874761732316626e+00
0	 8.777779533353117e+00	 0.000000000000000e+00	 9.869443959192301e+00
0	 8.814817614848005e+00	 0.000000000000000e+00	 9.864067531244530e+00
0	 8.851855896344894e+00	 0.000000000000000e+00	 9.858630246972240e+00
0	 8.888894444511113e+00	 0.000000000000000e+00	 9.853129904538800e+00
0	 8.888894444511113e+00	 0.000000000000000e+00	 9.853129904538800e+00
0	 8.925933309347151e+00	 0.000000000000000e+00	 9.847567517533101e+00
0	 8.962972474186092e+00	 0.000000000000000e+00	 9.841943653370032e+00
0	 9.000011905694164e+00	 0.000000000000000e+00	 9.836255440853069e+00
0	 9.037051570537605e+00	 0.000000000000000e+00	 9.830500008989354e+00
0	 9.074091435382645e+00	 0.000000000000000e+00	 9.824674486989762e+00
0	 9.111131466895516e+00	 0.000000000000000e+00	 9.818776004268841e+00
0	 9.148171631742454e+00	 0.000000000000000e+00	 9.812801690444857e+00
0	 9.185211896589696e+00	 0.000000000000000e+00	 9.806748675339794e+00
0	 9.222252228103468e+00	 0.000000000000000e+00	 9.800614088979351e+00
0	 9.259292592950004e+00	 0.000000000000000e+00	 9.794395061592954e+00
0	 9.259292592950004e+00	 0.000000000000000e+00	 9.794395061592953e+00
0	 9.296322966028265e+00	 0.000000000000000e+00	 9.788095322474348e+00
0	 9.333353355768113e+00	 0.000000000000000e+00	 9.781714526869770e+00
0	 9.370383778832126e+00	 0.000000000000000e+00	 9.775248765973197e+00
0	 9.407414251882889e+00	 0.000000000000000e+00	 9.768694130849514e+00
0	 9.444444791582987e+00	 0.000000000000000e+00	 9.762046712434415e+00
0	 9.481475414595002e+00	 0.000000000000000e+00	 9.755302601534556e+00
0	 9.518506137581515e+00	 0.000000000000000e+00	 9.748457888827431e+00
0	 9.555536977205113e+00	 0.000000000000000e+00	 9.741508664861477e+00
0	 9.592567950128375e+00	 0.000000000000000e+00	 9.734451020056014e+00
0	 9.629599073013889e+00	 0.000000000000000e+00	 9.727281044701320e+00
0	 9.629599073013889e+00	 0.000000000000000e+00	 9.727281044701320e+00
0	 9.666640340670911e+00	 0.000000000000000e+00	 9.719999400812247e+00
0	 9.703681658365491e+00	 0.000000000000000e+00	 9.712609837937162e+00
0	 9.740722909420342e+00	 0.000000000000000e+00	 9.705107223097666e+00
0	 9.777763977158179e+00	 0.000000000000000e+00	 9.697486424475578e+00
0	 9.814804744901718e+00	 0.000000000000000e+00	 9.689742311413477e+00
0	 9.851845095973676e+00	 0.000000000000000e+00	 9.681869754415084e+00
0	 9.888884913696767e+00	 0.000000000000000e+00	 9.673863625146044e+00
0	 9.925924081393710e+00	 0.000000000000000e+00	 9.665718796434334e+00
0	 9.962962482387216e+00	 0.000000000000000e+00	 9.657430142271050e+00
0	 1.000000000000000e+01	 0.000000000000000e+00	 9.648992537811228e+00
1	 1.000000000000000e+00	 0.000000000000000e+00	 3.259383998871331e+01
1	 1.075000000000000e+00	 0.000000000000000e+00	 2.874759666587708e+01
1	 1.150000000000000e+00	 0.000000000000000e+00	 2.578812122150811e+01
1	 1.225000000000000e+00	 0.000000000000000e+00	 2.344917951623147e+01
1	 1.300000000000000e+00	 0.000000000000000e+00	 2.152597605813489e+01
1	 1.375000000000000e+00	 0.000000000000000e+00	 1.985839800803221e+01
1	 1.450000000000000e+00	 0.000000000000000e+00	 1.831945932101641e+01
1	 1.525000000000000e+00	 0.000000000000000e+00	 1.680715481345099e+01
1	 1.600000000000000e+00	 0.000000000000000e+00	 1.523860527361679e+01
1	 1.675000000000000e+00	 0.000000000000000e+00	 1.354577552770539e+01
1	 1.750000000000000e+00	 0.000000000000000e+00	 1.167229357455553e+01
1	 1.750000000000000e+00	 0.000000000000000e+00	 1.167229357455553e+01
1	 1.825000000000000e+00	 0.000000000000000e+00	 9.796055505556271e+00
1	 1.900000000000000e+00	 0.000000000000000e+00	 8.113793521529171e+00
1	 1.975000000000000e+00	 0.000000000000000e+00	 6.607015210060302e+00
1	 2.050000000000000e+00	 0.000000000000000e+00	 5.259934365429793e+00
1	 2.125000000000000e+00	 0.000000000000000e+00	 4.058993422725147e+00
1	 2.200000000000000e+00	 0.000000000000000e+00	 2.992483575885825e+00
1	 2.275000000000000e+00	 0.000000000000000e+00	 2.050240037233444e+00
1	 2.350000000000001e+00	 0.000000000000000e+00	 1.223395651559964e+00
1	 2.425000000000001e+00	 0.000000000000000e+00	 5.041802313128834e-01
1	 2.500000000000000e+00	 0.000000000000000e+00	-1.142439885529501e-01
