label=Stress xy
num_items=11728

0:3.0881086504552614e-02
1:-7.5001483675491707e-03
2:1.9923767956789881e-01
3:3.5236744837995598e-01
4:1.0376311958157351e-01
5:-1.7293457474760670e-02
6:-1.0187984690160740e-01
7:-1.0112013200969058e-01
8:-1.1336665125419916e-01
9:-1.0930485687975385e-02
10:-8.3874937111212078e-02
11:-1.7169271143249695e-01
12:-2.7680545607963053e-01
13:2.7288300636434254e-02
14:1.0952390959533445e-01
15:2.5854314563634614e-02
16:3.6995213460592441e-01
17:2.4620289673058685e-01
18:-4.7206874914157544e-02
19:-2.0856707012808290e-01
20:-7.7568104047407660e-02
21:-4.0110350136303700e-02
22:-1.6863136157998490e-02
23:-2.0241460669696183e-02
24:-1.8994886905308286e-01
25:-1.3122221395422537e-01
26:1.5372043485303310e-02
27:7.2654761086376224e-02
28:-3.5068366045819963e-02
29:-5.0449790838985126e-02
30:3.3218732975159190e-02
31:7.0117210404069194e-02
32:-2.2125158318853658e-01
33:-8.3326671238933836e-02
34:2.2484610048495207e-01
35:3.8279209517499940e-01
36:-2.4427959775810894e-02
37:5.0409766986343814e-02
38:2.6668990668008963e-01
39:4.6516315409220016e-01
40:5.8040303630488038e-02
41:5.7338965032841908e-02
42:1.9092341189958459e-01
43:4.4774889625442360e-01
44:5.2447760499908840e-02
45:2.4263107145783832e-02
46:1.2430240029189764e-01
47:4.0685819922879846e-01
48:3.8380169939323933e-01
49:1.7779018514122955e-01
50:-3.4462652876998057e-01
51:-7.9088688745762237e-01
52:5.5456484191539346e-01
53:5.1522139976613290e-01
54:1.4266805966785973e-01
55:-2.7673647360546244e-01
56:6.3779048995684917e-01
57:8.1423525915138306e-01
58:6.8810155823229091e-01
59:3.7223237040032375e-01
60:6.4294859706502172e-01
61:9.5205244086642971e-01
62:1.0281260682832774e+00
63:8.3622204813481638e-01
64:-9.9834436104581081e-01
65:-1.2625903830674490e+00
66:-1.3615154171663129e+00
67:-1.2555722265769105e+00
68:-5.0628429848455392e-01
69:-7.9461525262144050e-01
70:-9.0741698771817614e-01
71:-8.3245576768236629e-01
72:1.5490679817891354e-01
73:-1.2223527521811717e-01
74:-2.4744581411716077e-01
75:-2.2226123641107648e-01
76:6.5927017939986132e-01
77:4.2197488580734699e-01
78:2.8718070294846409e-01
79:2.6162996807193534e-01
80:-1.1369065211382576e+00
81:-8.2501287027345049e-01
82:-3.5968972559398921e-01
83:-6.3372712918873364e-02
84:-7.4748833672150750e-01
85:-5.2693275498492609e-01
86:-1.8963961332843721e-01
87:4.3271917517633630e-02
88:-1.8368568406693866e-01
89:-7.8605121889193136e-02
90:9.6487614514021283e-02
91:2.3547538112373362e-01
92:2.5943530077343147e-01
93:2.7602791365732776e-01
94:3.3456799286584915e-01
95:4.0201455023616761e-01
96:4.1093214147229204e-02
97:1.2033584089466164e-01
98:7.7985664947635688e-02
99:1.1471683074676071e-02
100:1.3728368585987466e-01
101:2.2042849607496420e-01
102:2.0306059352843822e-01
103:1.5180148745765931e-01
104:3.0107580822534863e-01
105:3.6028424969131906e-01
106:3.4608586343977160e-01
107:3.0547887966682591e-01
108:4.4110843976749869e-01
109:4.6973190456858105e-01
110:4.4266620182909805e-01
111:4.0424711147195019e-01
112:-1.2543417335334251e-02
113:-2.1105556822217316e-02
114:9.6414000199254966e-03
115:3.7544943345214028e-02
116:1.2900623864731550e-01
117:1.1106751492967037e-01
118:1.1667997672475393e-01
119:1.2382324512549368e-01
120:2.8562819195990602e-01
121:2.6203821339240718e-01
122:2.4596372149468435e-01
123:2.3313902759053029e-01
124:3.8685468171999926e-01
125:3.6235122112992596e-01
126:3.3646918548968907e-01
127:3.1282007666455053e-01
128:4.5626861591440880e-02
129:4.4765669156745437e-02
130:2.6120355488141591e-02
131:1.1047929523419498e-02
132:1.2295950950223314e-01
133:1.1259596517237230e-01
134:9.1759244799312675e-02
135:7.8672585351798621e-02
136:2.2292569060347295e-01
137:2.0167976837731469e-01
138:1.7602483687561093e-01
139:1.6243702869991353e-01
140:2.9682635152148940e-01
141:2.6808613101028367e-01
142:2.3769696720512606e-01
143:2.2237568786716294e-01
144:6.4886969280265423e-03
145:5.2501574640288484e-03
146:1.1498737690708758e-02
147:1.6549444074879696e-02
148:7.5076504233164490e-02
149:7.2304801926654588e-02
150:7.1449089318438949e-02
151:6.8957368769342609e-02
152:1.5840463386583575e-01
153:1.5217713316824261e-01
154:1.4320701198244221e-01
155:1.3350128366698791e-01
156:2.1744671343933886e-01
157:2.0838924089597374e-01
158:1.9426328521286423e-01
159:1.8038090843007548e-01
160:1.7646119085558930e-02
161:1.6703566324398143e-02
162:1.2429439560065269e-02
163:9.2692509734905656e-03
164:6.5953984838715785e-02
165:5.9489860115999688e-02
166:5.1715700547871599e-02
167:4.7807280241427601e-02
168:1.2688978554867283e-01
169:1.1534137373480841e-01
170:1.0347610357129906e-01
171:9.7487860954532560e-02
172:1.7174748159164341e-01
173:1.5714813175858403e-01
174:1.4230439161080588e-01
175:1.3433735559937424e-01
176:8.3318528984612835e-03
177:7.7950148397221003e-03
178:8.3240502938660525e-03
179:8.7038563742954118e-03
180:4.6811353466718060e-02
181:4.5354648208578388e-02
182:4.3199830424457845e-02
183:4.0730157916963945e-02
184:9.5465314866782308e-02
185:9.1665702941110788e-02
186:8.5897254311296439e-02
187:8.0551353841268547e-02
188:1.3123316148354258e-01
189:1.2535774224135665e-01
190:1.1696632529362996e-01
191:1.0982158316621596e-01
192:8.6246747038085120e-03
193:8.1191675250055148e-03
194:7.1711584214212620e-03
195:6.5392173833138008e-03
196:3.8998287099425467e-02
197:3.5954196942817845e-02
198:3.2780144001989059e-02
199:3.1113155453988382e-02
200:7.7355712717758637e-02
201:7.1925141521566482e-02
202:6.6221016436314686e-02
203:6.2914006236143585e-02
204:1.0577979573440374e-01
205:9.8878074390154835e-02
206:9.1387851807413309e-02
207:8.6748305223810579e-02
208:6.3207653702530529e-03
209:6.0097336376229065e-03
210:5.6813829896296738e-03
211:5.4159643748775653e-03
212:3.0509751499462914e-02
213:2.9353497717323918e-02
214:2.7636298682378505e-02
215:2.6122856672426965e-02
216:6.1494960450176946e-02
217:5.8831483905378332e-02
218:5.5205074672881688e-02
219:5.2293840542688555e-02
220:8.4618162379526823e-02
221:8.0707707688186206e-02
222:7.5644301972683500e-02
223:7.1774684455167007e-02
224:5.2529801835170028e-03
225:4.9815692638592330e-03
226:4.6986392882289139e-03
227:4.5222016453138510e-03
228:2.5252084723163877e-02
229:2.3784726566882398e-02
230:2.2227433030640429e-02
231:2.1278724319932517e-02
232:5.0708790768600520e-02
233:4.7977603614715335e-02
234:4.4914420510583378e-02
235:4.2911693426785275e-02
236:6.9725177179321474e-02
237:6.6143905866212507e-02
238:6.2000581594733747e-02
239:5.9192421534321769e-02
240:4.4356483098346609e-03
241:4.2436264933481873e-03
242:3.9570234967658338e-03
243:3.7384243931578970e-03
244:2.0843159100045680e-02
245:2.0009947703428337e-02
246:1.8882399711014481e-02
247:1.8005928937393442e-02
248:4.1947159846974197e-02
249:4.0178711369351604e-02
250:3.7927505445982716e-02
251:3.6249126532047711e-02
252:5.7808889578236523e-02
253:5.5310053985992987e-02
254:5.2209759145198410e-02
255:4.9947657254477383e-02
256:3.6321544097962680e-03
257:3.4745043408248369e-03
258:3.3252638652500636e-03
259:3.2268500470607740e-03
260:1.7543853533230441e-02
261:1.6751938192285529e-02
262:1.5854266707396852e-02
263:1.5246851687004150e-02
264:3.5376132081113988e-02
265:3.3838228598501864e-02
266:3.2020826793441863e-02
267:3.0754157473445655e-02
268:4.8782478389011036e-02
269:4.6709628664205499e-02
270:4.4219662186917877e-02
271:4.2460031325196428e-02
272:3.1713259696814723e-03
273:3.0492041320406196e-03
274:2.8721297461582100e-03
275:2.7405339453811664e-03
276:1.4943111416744511e-02
277:1.4378340074779261e-02
278:1.3655627790814168e-02
279:1.3121630051721062e-02
280:3.0116820745872543e-02
281:2.8961063430178065e-02
282:2.7525877477393455e-02
283:2.6481049928660044e-02
284:4.1569435962131925e-02
285:3.9965200379074577e-02
286:3.7992567656618029e-02
287:3.6566194013911632e-02
288:2.6774033213395800e-03
289:2.5774467550496397e-03
290:2.4711556094940985e-03
291:2.3963503656035355e-03
292:1.2847455518185332e-02
293:1.2363476238620975e-02
294:1.1783954587818434e-02
295:1.1370342116890569e-02
296:2.5944112039657265e-02
297:2.4980784309402551e-02
298:2.3804544944948210e-02
299:2.2957636541072621e-02
300:3.5834586528014842e-02
301:3.4516395325993071e-02
302:3.2897304975212267e-02
303:3.1726992873518718e-02
304:2.3552045504496252e-03
305:2.2725895211697655e-03
306:2.1606243209135170e-03
307:2.0777789992624442e-03
308:1.1157713931539155e-02
309:1.0766916418535579e-02
310:1.0274398063918560e-02
311:9.9122965791296255e-03
312:2.2523260486263311e-02
313:2.1733340528333672e-02
314:2.0748772522683343e-02
315:2.0027283156818950e-02
316:3.1126188522272228e-02
317:3.0035846546591263e-02
318:2.8680187028297353e-02
319:2.7687851361004386e-02
320:2.0365497577711730e-03
321:1.9655070979059312e-03
322:1.8810935572689019e-03
323:1.8189279220942618e-03
324:9.7254192238367017e-03
325:9.3861507714357931e-03
326:8.9623866579043657e-03
327:8.6488618327366217e-03
328:1.9653821260223858e-02
329:1.8971383944474320e-02
330:1.8113369531092303e-02
331:1.7477479291276476e-02
332:2.7174069516111215e-02
333:2.6234008148770992e-02
334:2.5050309355518462e-02
335:2.4172392288430947e-02
336:1.7855332458150005e-03
337:1.7214950247359452e-03
338:1.6369351121517319e-03
339:1.5729581270078673e-03
340:8.4847345128378250e-03
341:8.1801273648123875e-03
342:7.7888448417422138e-03
343:7.4934923562073024e-03
344:1.7145244456861421e-02
345:1.6530598927857819e-02
346:1.5743150142119047e-02
347:1.5148701923917828e-02
348:2.3713698769728505e-02
349:2.2865291428331613e-02
350:2.1778429232213761e-02
351:2.0957704183492607e-02
352:1.5396207640510694e-03
353:1.4782315321647858e-03
354:1.3991341080537272e-03
355:1.3381683167520472e-03
356:7.3375569666749591e-03
357:7.0455504111972172e-03
358:6.6638806983486277e-03
359:6.3694686886503872e-03
360:1.4834333841213602e-02
361:1.4244555899924063e-02
362:1.3472463951554887e-02
363:1.2876781134903783e-02
364:2.0523499083990034e-02
365:1.9708657952388697e-02
366:1.8641616939139238e-02
367:1.7818255894091722e-02
368:1.3052019054135768e-03
369:1.2418202022434583e-03
370:1.1563142920079496e-03
371:1.0888629240517486e-03
372:6.2113828373556194e-03
373:5.9099558408352614e-03
374:5.5060383575979395e-03
375:5.1875473882869562e-03
376:1.2557127013877692e-02
377:1.1947945079190272e-02
378:1.1131796214957501e-02
379:1.0488015535384363e-02
380:1.7376412615850514e-02
381:1.6534243471041134e-02
382:1.5405656376669392e-02
383:1.4515178045347910e-02
384:1.0522729098598094e-03
385:9.8170296087985885e-04
386:8.8529360197587843e-04
387:8.0766599058980902e-04
388:5.0142629067555745e-03
389:4.6789182378073127e-03
390:4.2195899082127994e-03
391:3.8497504459156294e-03
392:1.0137561992643145e-02
393:9.4591170849454443e-03
394:8.5296016770789913e-03
395:7.7811774087583304e-03
396:1.4030344558821560e-02
397:1.3091705597156212e-02
398:1.1805648491619601e-02
399:1.0770109908564262e-02
400:7.6480287055823409e-04
401:6.8059318815020728e-04
402:5.6295026369157530e-04
403:4.6665481745058140e-04
404:3.6458034957535393e-03
405:3.2456818972493012e-03
406:2.6872987537855351e-03
407:2.2302664263211566e-03
408:7.3685060500889273e-03
409:6.5589046952484135e-03
410:5.4290231150195215e-03
411:4.5041253831596892e-03
412:1.0199115167943815e-02
413:9.0788414543978846e-03
414:7.5152683647086525e-03
415:6.2352899676677278e-03
416:4.1305075171523204e-04
417:3.0692277881014452e-04
418:1.5700726665025640e-04
419:3.3018083181063858e-05
420:1.9757435037420839e-03
421:1.4715381773281961e-03
422:7.5865054880504506e-04
423:1.6848139485148349e-04
424:3.9890012698597238e-03
425:2.9685394520764978e-03
426:1.5257112766421394e-03
427:3.3123422141466424e-04
428:5.5223883810804975e-03
429:4.1101893455514878e-03
430:2.1136190564139492e-03
431:4.6081359702579823e-04
432:-2.8965980131494284e-01
433:6.3015038263813161e-02
434:2.2500206299733386e-01
435:1.6010570353139383e-01
436:-1.5262056330856866e-01
437:1.1965126755616930e-01
438:2.7102437945287827e-01
439:1.9198302259011343e-01
440:1.3104454017028411e-01
441:1.3092780258870021e-01
442:9.2638167467099380e-02
443:-3.8613777087703860e-02
444:2.3493929106911540e-01
445:6.0119006575060682e-02
446:-1.0354006472968039e-01
447:-2.2590178674861927e-01
448:8.0185680353673738e-02
449:1.2598306082335881e-02
450:3.5119038354918371e-02
451:5.8119152204861836e-02
452:8.1850589440704447e-02
453:-4.0589439496719101e-02
454:-2.6661343910724535e-02
455:8.2232118346594218e-02
456:-1.5369670793213222e-01
457:-2.4326616864732559e-01
458:-6.9783902788256039e-02
459:2.8166172439488107e-01
460:-2.9444066325197105e-01
461:-2.7081926658130978e-01
462:9.2302218214168175e-02
463:6.2432068602952384e-01
464:5.0110295681545992e-02
465:2.9466771619252374e-02
466:1.2425097276915031e-01
467:4.0601122953048219e-01
468:1.5851625234884920e-01
469:2.4704220530852000e-01
470:3.7676922240567690e-01
471:6.1765128171779504e-01
472:5.2942626185269415e-01
473:8.5258820881063568e-01
474:1.0770065542972651e+00
475:1.2238527929016716e+00
476:9.7825260539790904e-01
477:1.4535653756755171e+00
478:1.7474874253602697e+00
479:1.8270198424105766e+00
480:6.4864707118723597e-01
481:1.0046496611651783e+00
482:1.1813472042848288e+00
483:1.0663039668536025e+00
484:8.2449733934506142e-01
485:1.1802681342949779e+00
486:1.4603057401476185e+00
487:1.4602218801464772e+00
488:1.3298817793798343e+00
489:1.5679605042333202e+00
490:1.8408238716610903e+00
491:1.9205644260612629e+00
492:1.8542276883394793e+00
493:1.9719522366740359e+00
494:2.1677363563947507e+00
495:2.2521692269670353e+00
496:9.2079878676814575e-01
497:7.1470109729638209e-01
498:5.7379890642216347e-01
499:5.1569462794775334e-01
500:1.3734096611870099e+00
501:1.2277682539261470e+00
502:1.0758300138949468e+00
503:9.5442855283240746e-01
504:1.8938173554639091e+00
505:1.8077287827575554e+00
506:1.6274335451833677e+00
507:1.4170032597565663e+00
508:2.2474666566760839e+00
509:2.1736210954995023e+00
510:1.9462878113020410e+00
511:1.6588826655681528e+00
512:4.8912132604919389e-01
513:4.5780230507908282e-01
514:4.5799670620716737e-01
515:4.9004340869417451e-01
516:8.8009265482327315e-01
517:7.5890672754884603e-01
518:6.5550171417635372e-01
519:6.2744234568552493e-01
520:1.2776290583650556e+00
521:1.0427596178080600e+00
522:8.2301172690513613e-01
523:7.3752221585830058e-01
524:1.4680245704067214e+00
525:1.1516550419798419e+00
526:8.6443777993587734e-01
527:7.5927024525863196e-01
528:5.1531564781028161e-01
529:5.2646808503394849e-01
530:4.8966705794384746e-01
531:4.5089167830420246e-01
532:6.2994904396749418e-01
533:6.1273525495440062e-01
534:5.6112772332564342e-01
535:5.2335249968490283e-01
536:7.2222189779416912e-01
537:6.8507165494625266e-01
538:6.2604166795127203e-01
539:5.9175943567809464e-01
540:7.4456448463290514e-01
541:7.1228242826866639e-01
542:6.6007383437347888e-01
543:6.2828408820766468e-01
544:4.3472229569466253e-01
545:4.1053461279298636e-01
546:3.8132090417981107e-01
547:3.5316364922568227e-01
548:5.1027751817663647e-01
549:4.8852975503078233e-01
550:4.5571428400496217e-01
551:4.2082673801281656e-01
552:5.8201671020692380e-01
553:5.6363521980096098e-01
554:5.2953409182950262e-01
555:4.9018812756809299e-01
556:6.1818566211510972e-01
557:5.9914043042435328e-01
558:5.6509090586625421e-01
559:5.2660388308569972e-01
560:3.3445268830776204e-01
561:3.0192981424987680e-01
562:2.6882167603691581e-01
563:2.5243552391497742e-01
564:3.9768684965501411e-01
565:3.5884711004916114e-01
566:3.2115872618991576e-01
567:3.0318588062819879e-01
568:4.6385104653870196e-01
569:4.2017887874479104e-01
570:3.7852630578155416e-01
571:3.5886583111285592e-01
572:5.0097782380414135e-01
573:4.5789978858159713e-01
574:4.1552949448301496e-01
575:3.9437757729902151e-01
576:2.4706308652647269e-01
577:2.3672899761717706e-01
578:2.2029492446801408e-01
579:2.0447185943372920e-01
580:2.9731435945824247e-01
581:2.8532357067483105e-01
582:2.6550138144367058e-01
583:2.4654812684881461e-01
584:3.5238811963681077e-01
585:3.3880910236224876e-01
586:3.1602139739146268e-01
587:2.9427877240976813e-01
588:3.8687280451459100e-01
589:3.7166727380681347e-01
590:3.4733302413603151e-01
591:3.2469735699702462e-01
592:1.9484984651773768e-01
593:1.7869826545629500e-01
594:1.6227270983918068e-01
595:1.5326163304637691e-01
596:2.3521948819522578e-01
597:2.1634531241332508e-01
598:1.9717159682092994e-01
599:1.8644982281278294e-01
600:2.8135866959010186e-01
601:2.5981010796841353e-01
602:2.3775324903710621e-01
603:2.2518846628708647e-01
604:3.1134860789184560e-01
605:2.8885785283493576e-01
606:2.6533584162898993e-01
607:2.5153800271741117e-01
608:1.4961017512597091e-01
609:1.4271230663899270e-01
610:1.3304746307317677e-01
611:1.2501746781716983e-01
612:1.8195494816279617e-01
613:1.7346054863173058e-01
614:1.6171896194253527e-01
615:1.5215229030470459e-01
616:2.1980378786689370e-01
617:2.0964472108368790e-01
618:1.9571811364793437e-01
619:1.8447375611748035e-01
620:2.4548432777610890e-01
621:2.3416067699868393e-01
622:2.1887125777567740e-01
623:2.0666302853195370e-01
624:1.2054704545255476e-01
625:1.1288586093943108e-01
626:1.0446310063758912e-01
627:9.9134354197077487e-02
628:1.4689863816515958e-01
629:1.3786017494868380e-01
630:1.2779837744099332e-01
631:1.2130939357614179e-01
632:1.7833225289188429e-01
633:1.6772945261053901e-01
634:1.5582847138444703e-01
635:1.4806946088875397e-01
636:2.0002486196916067e-01
637:1.8851766647558443e-01
638:1.7549368534064411e-01
639:1.6691954472536125e-01
640:9.6642685321564656e-02
641:9.2102590208453280e-02
642:8.6314119449682286e-02
643:8.1955246017643882e-02
644:1.1822709200356162e-01
645:1.1264299490646806e-01
646:1.0560907420299584e-01
647:1.0037264590786901e-01
648:1.4435366277037295e-01
649:1.3762713029063867e-01
650:1.2917588685634190e-01
651:1.2289882811643264e-01
652:1.6278576997617084e-01
653:1.5529962112887619e-01
654:1.4590060601129645e-01
655:1.3892670962074277e-01
656:7.9664852260310504e-02
657:7.5641180131107072e-02
658:7.0936687307636762e-02
659:6.7713113991032137e-02
660:9.7637490777287894e-02
661:9.2807725687863774e-02
662:8.7107151820390957e-02
663:8.3164842812648049e-02
664:1.1962355711290076e-01
665:1.1382915625029312e-01
666:1.0696716681191264e-01
667:1.0220567638756201e-01
668:1.3529058624915707e-01
669:1.2885598449500543e-01
670:1.2122704534448132e-01
671:1.1592269505794647e-01
672:6.6115042645269226e-02
673:6.3241755709846970e-02
674:5.9703798964732289e-02
675:5.7138319835318502e-02
676:8.1200781650504580e-02
677:7.7681125817017083e-02
678:7.3370285246297809e-02
679:7.0256525320594759e-02
680:9.9828620164795864e-02
681:9.5566135086782369e-02
682:9.0340447585271128e-02
683:8.6561099793505195e-02
684:1.1326951426882727e-01
685:1.0850233009788007e-01
686:1.0264318795764270e-01
687:9.8398141407513962e-02
688:5.5820317175829880e-02
689:5.3468267577523383e-02
690:5.0628797469688736e-02
691:4.8614011032618185e-02
692:6.8658798818553191e-02
693:6.5799661581067093e-02
694:6.2333804099154913e-02
695:5.9866858082639245e-02
696:8.4619959904646866e-02
697:8.1144359251801843e-02
698:7.6928214214510793e-02
699:7.3925288128653913e-02
700:9.6216537942674013e-02
701:9.2312322695213195e-02
702:8.7578195251792057e-02
703:8.4205358408551728e-02
704:4.7592575863788400e-02
705:4.5755852826377910e-02
706:4.3503100311392269e-02
707:4.1876989601840102e-02
708:5.8614737951116103e-02
709:5.6365403214081317e-02
710:5.3609946797130804e-02
711:5.1621808713997817e-02
712:7.2400464137377274e-02
713:6.9658511910579923e-02
714:6.6293980729412755e-02
715:6.3862095230024674e-02
716:8.2491434111061829e-02
717:7.9404708675110777e-02
718:7.5609146016427417e-02
719:7.2861189252884595e-02
720:4.1043303378351520e-02
721:3.9539491335466179e-02
722:3.7689465059583031e-02
723:3.6350733427973868e-02
724:5.0602204576429839e-02
725:4.8761215419978146e-02
726:4.6493475604096557e-02
727:4.4851030002249402e-02
728:6.2613523438782931e-02
729:6.0358577279942774e-02
730:5.7580170327329851e-02
731:5.5567164726049285e-02
732:7.1449354361856593e-02
733:6.8899853146581938e-02
734:6.5758562280703370e-02
735:6.3481795524373233e-02
736:3.5663221362765792e-02
737:3.4415928243278888e-02
738:3.2865727154706821e-02
739:3.1731124068855296e-02
740:4.4007289361093799e-02
741:4.2476381813999438e-02
742:4.0573062627929486e-02
743:3.9179241796610406e-02
744:5.4532718104078226e-02
745:5.2654146284360812e-02
746:5.0315340327473979e-02
747:4.8600268438143579e-02
748:6.2311187194335795e-02
749:6.0183382359631617e-02
750:5.7530808525480946e-02
751:5.5583451160347561e-02
752:3.1143622746552815e-02
753:3.0068391561555597e-02
754:2.8714018757678254e-02
755:2.7709260278720449e-02
756:3.8457168605494647e-02
757:3.7135203852136700e-02
758:3.5469297970670589e-02
759:3.4232918787418291e-02
760:4.7711032530674442e-02
761:4.6082449147393727e-02
762:4.4029063652048034e-02
763:4.2504170367306818e-02
764:5.4573177331757997e-02
765:5.2722392759227792e-02
766:5.0387696649133104e-02
767:4.8652802547340224e-02
768:2.7184234647678055e-02
769:2.6213021660439737e-02
770:2.4968593295938434e-02
771:2.4028688063268553e-02
772:3.3586693029351064e-02
773:3.2390804548835674e-02
774:3.0857565168386693e-02
775:2.9698844790648254e-02
776:4.1706762550032583e-02
777:4.0230087189097929e-02
778:3.8334916708684670e-02
779:3.6901293698752793e-02
780:4.7745120798495598e-02
781:4.6063241546215668e-02
782:4.3902865528928178e-02
783:4.2267327953894353e-02
784:2.3531362732142101e-02
785:2.2598016512411518e-02
786:2.1375689023799094e-02
787:2.0432409446703891e-02
788:2.9085519829275337e-02
789:2.7934235018461595e-02
790:2.6426025750413203e-02
791:2.5261744311629204e-02
792:3.6142015914974478e-02
793:3.4716156888689197e-02
794:3.2847089670437410e-02
795:3.1403338342874440e-02
796:4.1400695698348672e-02
797:3.9772586098065443e-02
798:3.7637150369337499e-02
799:3.5986689055468091e-02
800:1.9926172977203015e-02
801:1.8961145220240425e-02
802:1.7667697160559982e-02
803:1.6647003340524071e-02
804:2.4636753439255588e-02
805:2.3445007788845951e-02
806:2.1847072122430575e-02
807:2.0585693774723805e-02
808:3.0628004056601314e-02
809:2.9148958464121220e-02
810:2.7164654877565746e-02
811:2.5597487999422172e-02
812:3.5100012271637303e-02
813:3.3407986675778843e-02
814:3.1136870524610404e-02
815:2.9342417260763073e-02
816:1.6091235901131165e-02
817:1.5015254762146621e-02
818:1.3540987904204134e-02
819:1.2353862248706262e-02
820:1.9898754211001197e-02
821:1.8568686573050566e-02
822:1.6746026632734987e-02
823:1.5278164820930536e-02
824:2.4743765292055957e-02
825:2.3090400154571002e-02
826:2.0824040817443719e-02
827:1.8998377119482338e-02
828:2.8364629316485340e-02
829:2.6470604254097835e-02
830:2.3873663416929387e-02
831:2.1781221950364228e-02
832:1.1699264097451418e-02
833:1.0414922593230692e-02
834:8.6222993029883930e-03
835:7.1547882848445260e-03
836:1.4468694477034036e-02
837:1.2880384364411190e-02
838:1.0663339296321543e-02
839:8.8483004106573154e-03
840:1.7991442385146578e-02
841:1.6015498358517941e-02
842:1.3257102617461587e-02
843:1.0998719434665115e-02
844:2.0627000987595602e-02
845:1.8361882358370715e-02
846:1.5199571558351936e-02
847:1.2610351704242814e-02
848:6.3374363845497264e-03
849:4.7183769826300457e-03
850:2.4294483533678001e-03
851:5.3469778190912024e-04
852:7.8373763110044705e-03
853:5.8349617375835173e-03
854:3.0042678310122617e-03
855:6.6121168268581628e-04
856:9.7408344825193095e-03
857:7.2493538967462363e-03
858:3.7275813718415361e-03
859:8.1274717913753147e-04
860:1.1168165063780223e-02
861:8.3117343306180272e-03
862:4.2743492912774763e-03
863:9.3298810167472034e-04
864:1.9206355844624337e-01
865:-1.2879433066395805e-02
866:-1.8416321800618349e-01
867:-2.5812446816912671e-01
868:-6.4203880409714184e-02
869:-1.6012432527001311e-01
870:-1.3710331781727317e-01
871:1.6953706547962567e-02
872:-4.8890585926285612e-01
873:-2.5273094508327643e-01
874:2.5571991041963793e-01
875:8.2982649373528428e-01
876:-6.5283513005638871e-01
877:-1.4661228366136320e-01
878:7.3148584215439427e-01
879:1.5752950629358740e+00
880:-2.7571146456442358e-01
881:-1.5816868067512202e-01
882:3.0774175533836490e-01
883:8.9863834430406364e-01
884:1.5313825297057365e-01
885:4.9302010184218736e-01
886:1.0859516509692868e+00
887:1.6441895487259344e+00
888:1.1993040170020504e+00
889:1.8194582640849128e+00
890:2.4372512181688575e+00
891:2.7577239870191343e+00
892:2.0709033176941318e+00
893:2.8072836655858318e+00
894:3.3360071749934193e+00
895:3.4154900620029292e+00
896:1.2761541592720491e+00
897:1.7887620779891458e+00
898:2.1012734380604945e+00
899:2.1548077037835127e+00
900:1.9627180635388661e+00
901:2.3867451736584653e+00
902:2.6181622154563389e+00
903:2.6078415580951129e+00
904:2.8722006844730861e+00
905:2.9843412637565461e+00
906:2.9655342987247213e+00
907:2.8580055004909148e+00
908:3.3525101660907231e+00
909:3.1943847959105121e+00
910:2.9657838211383636e+00
911:2.7959244029964681e+00
912:2.1507781351950195e+00
913:2.2117058026844618e+00
914:2.3540159458926242e+00
915:2.4219719191883509e+00
916:2.5617036418229717e+00
917:2.5426490050926414e+00
918:2.5993773393610833e+00
919:2.6317300134527333e+00
920:2.7831928315556813e+00
921:2.7026371632168793e+00
922:2.6714843061053428e+00
923:2.6465764146965576e+00
924:2.7158437066267327e+00
925:2.6121473670660755e+00
926:2.5210879783920888e+00
927:2.4363392844594562e+00
928:2.4180300231556782e+00
929:2.3347382674992700e+00
930:2.0703898693280718e+00
931:1.7384831947298822e+00
932:2.6217048403085537e+00
933:2.5123110723891879e+00
934:2.1806631779604979e+00
935:1.7757260319169734e+00
936:2.6132957585730221e+00
937:2.4583637229588255e+00
938:2.0629355956218105e+00
939:1.6088445714454191e+00
940:2.3699205008164115e+00
941:2.1709876572808091e+00
942:1.7583953092398206e+00
943:1.3226791433734779e+00
944:1.5200482561144191e+00
945:1.1634915137654973e+00
946:8.5040136208959638e-01
947:7.4587637932679440e-01
948:1.5137364557033961e+00
949:1.0989315291981416e+00
950:7.6209631763988239e-01
951:6.7915941175133177e-01
952:1.3225925339080384e+00
953:8.8606974813540762e-01
954:5.7062196367342943e-01
955:5.4122732024137810e-01
956:1.0567391390993961e+00
957:6.6260492428075357e-01
958:4.0634146461985809e-01
959:4.2407102603196722e-01
960:7.3806850184450645e-01
961:7.1764147145239177e-01
962:6.7452987914194629e-01
963:6.4344462701154548e-01
964:6.9520998422142444e-01
965:7.1239120684536028e-01
966:6.9555173683657445e-01
967:6.6477258102618986e-01
968:5.9680683762622511e-01
969:6.7442542186031673e-01
970:6.9962671215247052e-01
971:6.7019841110981049e-01
972:5.0458556474398630e-01
973:6.2019488829227554e-01
974:6.7419350252248866e-01
975:6.4920464402414801e-01
976:6.3140712459055315e-01
977:6.0980565635318951e-01
978:5.7560662708213395e-01
979:5.3933566138032196e-01
980:6.4610199509788702e-01
981:6.1552423547603663e-01
982:5.7977419300720057e-01
983:5.5000931604139236e-01
984:6.4191615579387395e-01
985:5.9847205052957930e-01
986:5.6146785725030779e-01
987:5.4284359073534738e-01
988:6.1731285979649464e-01
989:5.6964662977136937e-01
990:5.3547027815205794e-01
991:5.2579717471620524e-01
992:5.1554989510079186e-01
993:4.7481658938628468e-01
994:4.3314895076691129e-01
995:4.1101028390651539e-01
996:5.3198225998799287e-01
997:4.9916184117974399e-01
998:4.6119339761248057e-01
999:4.3731410501236251e-01
1000:5.3446193980727197e-01
1001:5.1544010453438993e-01
1002:4.8526992386781753e-01
1003:4.6007891803141526e-01
1004:5.2431772282306399e-01
1005:5.1543327755039992e-01
1006:4.9187844115929874e-01
1007:4.6700584942728773e-01
1008:4.0258856950627953e-01
1009:3.8611975930180276e-01
1010:3.6109030591559377e-01
1011:3.3848430522881257e-01
1012:4.2668987955338256e-01
1013:4.0724662487469110e-01
1014:3.8099654454021070e-01
1015:3.5918832720013139e-01
1016:4.4664385715339966e-01
1017:4.2356975622814408e-01
1018:3.9657679839566368e-01
1019:3.7691704978089491e-01
1020:4.5235111797934907e-01
1021:4.2797883845933898e-01
1022:4.0172977694797907e-01
1023:3.8428735008493653e-01
1024:3.2527489598513354e-01
1025:3.0280389882413145e-01
1026:2.7883329594808787e-01
1027:2.6441326603875720e-01
1028:3.4684530099624494e-01
1029:3.2534434577182197e-01
1030:3.0124681287898675e-01
1031:2.8583847722887307e-01
1032:3.6644489287055038e-01
1033:3.4739699833871995e-01
1034:3.2420259070556856e-01
1035:3.0797278314083087e-01
1036:3.7542430169635055e-01
1037:3.5858636438983338e-01
1038:3.3657881977657472e-01
1039:3.2016100506014999e-01
1040:2.5796626916566878e-01
1041:2.4600248683972661e-01
1042:2.3007241481913873e-01
1043:2.1748636938561430e-01
1044:2.7863812390802156e-01
1045:2.6550456645541931e-01
1046:2.4857498395691158e-01
1047:2.3554894706810184e-01
1048:2.9993326420445776e-01
1049:2.8558914880982600e-01
1050:2.6788960252470573e-01
1051:2.5477608454905831e-01
1052:3.1173604244542708e-01
1053:2.9692414368036790e-01
1054:2.7916092600115894e-01
1055:2.6631468982432177e-01
1056:2.1067306339658826e-01
1057:1.9882337535920383e-01
1058:1.8532028344189916e-01
1059:1.7636020307352268e-01
1060:2.2858115810683233e-01
1061:2.1636015052512012e-01
1062:2.0219392029393363e-01
1063:1.9261270597925709e-01
1064:2.4788202671613596e-01
1065:2.3561010334589011e-01
1066:2.2098623738347875e-01
1067:2.1081170063381635e-01
1068:2.5962757501091926e-01
1069:2.4755850474534744e-01
1070:2.3284413905246945e-01
1071:2.2239174252384547e-01
1072:1.7201708868741256e-01
1073:1.6415324165002393e-01
1074:1.5429449115671054e-01
1075:1.4699271505371592e-01
1076:1.8791081022882902e-01
1077:1.7941461675607540e-01
1078:1.6882058409061826e-01
1079:1.6101588056980465e-01
1080:2.0573456110684762e-01
1081:1.9660448128982094e-01
1082:1.8532932185093290e-01
1083:1.7708910777695652e-01
1084:2.1711954057900729e-01
1085:2.0768198531788962e-01
1086:1.9611562529635521e-01
1087:1.8770588634976476e-01
1088:1.4319036552717854e-01
1089:1.3645995917132436e-01
1090:1.2847128356623999e-01
1091:1.2290611937651028e-01
1092:1.5696352974492339e-01
1093:1.4977678826508287e-01
1094:1.4120949613453168e-01
1095:1.3520960887838029e-01
1096:1.7282496097840688e-01
1097:1.6522499357839224e-01
1098:1.5608530769365686e-01
1099:1.4962854146851853e-01
1100:1.8335877250027635e-01
1101:1.7556948859376617e-01
1102:1.6612457449260140e-01
1103:1.5940455434574402e-01
1104:1.2011760912096361e-01
1105:1.1510136964606403e-01
1106:1.0892869488326047e-01
1107:1.0445398498234316e-01
1108:1.3219173826815914e-01
1109:1.2675648016097757e-01
1110:1.2006221529601414e-01
1111:1.1520808090533968e-01
1112:1.4636427770015081e-01
1113:1.4048552285425386e-01
1114:1.3324956532161863e-01
1115:1.2800407864470473e-01
1116:1.5599549025665474e-01
1117:1.4986119789658525e-01
1118:1.4231954352526771e-01
1119:1.3685300917169610e-01
1120:1.0215451538018440e-01
1121:9.8040618495755558e-02
1122:9.3052632170380054e-02
1123:8.9497155953227520e-02
1124:1.1271405877151659e-01
1125:1.0825066963642678e-01
1126:1.0283317883044268e-01
1127:9.8964751588882918e-02
1128:1.2530841036778342e-01
1129:1.2047503877928752e-01
1130:1.1458967365354017e-01
1131:1.1037318045635763e-01
1132:1.3404158406103295e-01
1133:1.2898897790863442e-01
1134:1.2281567936939575e-01
1135:1.1837980990912900e-01
1136:8.7689105807247480e-02
1137:8.4429923837611151e-02
1138:8.0417857492458791e-02
1139:7.7511013130397377e-02
1140:9.6994466918307612e-02
1141:9.3438541229857799e-02
1142:8.9054756483957914e-02
1143:8.5875190941755872e-02
1144:1.0822107536460333e-01
1145:1.0433371989222234e-01
1146:9.9535990382359815e-02
1147:9.6052102309092058e-02
1148:1.1611230909208049e-01
1149:1.1201530354264233e-01
1150:1.0695593391335821e-01
1151:1.0327842094212757e-01
1152:7.6017222349902838e-02
1153:7.3319893099103431e-02
1154:6.9996200246202289e-02
1155:6.7586356136272660e-02
1156:8.4240538321549485e-02
1157:8.1287906933127582e-02
1158:7.7646935815848764e-02
1159:7.5004150613234802e-02
1160:9.4259499269319480e-02
1161:9.1017931669225491e-02
1162:8.7013314154469334e-02
1163:8.4100852214180497e-02
1164:1.0138440662547099e-01
1165:9.7955154872913716e-02
1166:9.3710821593436647e-02
1167:9.0618663010410883e-02
1168:6.6346794985628330e-02
1169:6.4092477489693461e-02
1170:6.1280228766127078e-02
1171:5.9214482441468971e-02
1172:7.3643498073863251e-02
1173:7.1166869406201344e-02
1174:6.8073741264936732e-02
1175:6.5799380834678886e-02
1176:8.2599360979987810e-02
1177:7.9863852303837399e-02
1178:7.6442790052681106e-02
1179:7.3923844799217764e-02
1180:8.9022896887576516e-02
1181:8.6113718145814894e-02
1182:8.2471631508008514e-02
1183:7.9786725818243920e-02
1184:5.8142490910894747e-02
1185:5.6178291617710166e-02
1186:5.3699719364862647e-02
1187:5.1857148817381654e-02
1188:6.4618455327764140e-02
1189:6.2453517282261575e-02
1190:5.9719231599159761e-02
1191:5.7684545201176732e-02
1192:7.2614713624118754e-02
1193:7.0212369018697471e-02
1194:6.7173559813049649e-02
1195:6.4908668238607012e-02
1196:7.8390110644750322e-02
1197:7.5824855401027944e-02
1198:7.2575485800021891e-02
1199:7.0150370306804807e-02
1200:5.0892817794657694e-02
1201:4.9105384402559016e-02
1202:4.6808353674174762e-02
1203:4.5068611203224425e-02
1204:5.6618909361968055e-02
1205:5.4642440233515145e-02
1206:5.2100149682374815e-02
1207:5.0172969094013746e-02
1208:6.3721210261123373e-02
1209:6.1516818700603847e-02
1210:5.8677626630843943e-02
1211:5.6522590857277989e-02
1212:6.8877806410938117e-02
1213:6.6513655283386916e-02
1214:6.3465280773005173e-02
1215:6.1148856331031065e-02
1216:4.4146522062419299e-02
1217:4.2413819925661726e-02
1218:4.0140409190882430e-02
1219:3.8382708394652534e-02
1220:4.9150973179613568e-02
1221:4.7229517286004156e-02
1222:4.4706484280576962e-02
1223:4.2754317147886460e-02
1224:5.5378797272655912e-02
1225:5.3226564794051190e-02
1226:5.0397089497974404e-02
1227:4.8205297766988855e-02
1228:5.9918486890728845e-02
1229:5.7601694941726928e-02
1230:5.4552747728834262e-02
1231:5.2188655811914376e-02
1232:3.7438212173527601e-02
1233:3.5635508471005314e-02
1234:3.3215199215916542e-02
1235:3.1302408305194665e-02
1236:4.1704824115314669e-02
1237:3.9700906913055757e-02
1238:3.7008943961495455e-02
1239:3.4880381185645827e-02
1240:4.7026132489038829e-02
1241:4.4773234642919317e-02
1242:4.1744240787957278e-02
1243:3.9347342601653366e-02
1244:5.0916026224117186e-02
1245:4.8483279648958370e-02
1246:4.5210106845518835e-02
1247:4.2618278400002228e-02
1248:3.0259988478378113e-02
1249:2.8240530895787330e-02
1250:2.5471183621123886e-02
1251:2.3239540022274716e-02
1252:3.3720015536177074e-02
1253:3.1471493680165559e-02
1254:2.8387001476618181e-02
1255:2.5900702695496304e-02
1256:3.8040091039011646e-02
1257:3.5505973363713327e-02
1258:3.2027972150546258e-02
1259:2.9223287990437538e-02
1260:4.1204153086618393e-02
1261:3.8461988146015105e-02
1262:3.4696884196771152e-02
1263:3.1659599081271000e-02
1264:2.2008445803929178e-02
1265:1.9592382780360830e-02
1266:1.6219211502311898e-02
1267:1.3457265057136108e-02
1268:2.4528913677145617e-02
1269:2.1836516654008077e-02
1270:1.8077212031975081e-02
1271:1.4998901264527827e-02
1272:2.7675467010468947e-02
1273:2.4637185365026293e-02
1274:2.0394339657977188e-02
1275:1.6919732450147936e-02
1276:2.9983079602869937e-02
1277:2.6691811086950328e-02
1278:2.2095131133030663e-02
1279:1.8330439781195335e-02
1280:1.1918852314368086e-02
1281:8.8718908324609477e-03
1282:4.5653544140799853e-03
1283:1.0013757051476494e-03
1284:1.3284228267362501e-02
1285:9.8882905375930370e-03
1286:5.0888502472854419e-03
1287:1.1172563080051408e-03
1288:1.4984240272624235e-02
1289:1.1151176747836236e-02
1290:5.7345205533566642e-03
1291:1.2526794063126144e-03
1292:1.6233293366452784e-02
1293:1.2080305202927525e-02
1294:6.2121157848006600e-03
1295:1.3571581275147030e-03
1296:-6.1353211309946742e-01
1297:1.7231592924473900e-03
1298:1.0175893482876333e+00
1299:1.9394057989140083e+00
1300:-2.8875829471965941e-01
1301:4.1876535637588658e-01
1302:1.4848292667245158e+00
1303:2.3612980683001896e+00
1304:4.1727535506881830e-01
1305:1.0535324714188119e+00
1306:1.8634672845673250e+00
1307:2.4163355847695138e+00
1308:9.8315726279024906e-01
1309:1.4488187189325383e+00
1310:1.9097076236731780e+00
1311:2.1247019855511424e+00
1312:2.4590126890925905e+00
1313:3.1940983138661059e+00
1314:3.6377598456241724e+00
1315:3.5968497678986746e+00
1316:2.8206924679465062e+00
1317:3.4185012680850848e+00
1318:3.6574603829936119e+00
1319:3.4511860149064666e+00
1320:2.6648737054425440e+00
1321:2.9266686329906766e+00
1322:2.8740288071942022e+00
1323:2.5591364714071907e+00
1324:2.1818054899297259e+00
1325:2.1668834577158087e+00
1326:1.9273667835720290e+00
1327:1.5951982961807822e+00
1328:3.4557914032944406e+00
1329:3.1804180957109875e+00
1330:2.8640423454863413e+00
1331:2.6738013363127733e+00
1332:3.2244434301126454e+00
1333:2.8317015587284868e+00
1334:2.4495823985003398e+00
1335:2.2709149768922741e+00
1336:2.3137341834773717e+00
1337:1.9195709836261037e+00
1338:1.5868161566058918e+00
1339:1.4792690549858190e+00
1340:1.3794413965016421e+00
1341:1.0482504052437329e+00
1342:7.9447966270427772e-01
1343:7.4089843761562890e-01
1344:2.5965149658297499e+00
1345:2.4873577278235603e+00
1346:2.3646556326101855e+00
1347:2.2404938538102357e+00
1348:2.2167985138419146e+00
1349:2.1217117674998263e+00
1350:1.9544212575605162e+00
1351:1.7546181424332785e+00
1352:1.4700651204853936e+00
1353:1.4196128019333349e+00
1354:1.2318803115136785e+00
1355:9.6529560570778405e-01
1356:7.5643534056987849e-01
1357:7.3750095641543834e-01
1358:5.6803913207335754e-01
1359:3.0524960986109689e-01
1360:2.1500915376798351e+00
1361:1.9245880997881801e+00
1362:1.5180676834224158e+00
1363:1.1180190457552832e+00
1364:1.6147285949100019e+00
1365:1.3425925294220780e+00
1366:9.7747783821356160e-01
1367:6.8636300387946814e-01
1368:7.7905188508554835e-01
1369:4.8310125749840538e-01
1370:2.2447965301422776e-01
1371:1.1744103905785754e-01
1372:1.2136181606217063e-01
1373:-1.3724567233806806e-01
1374:-2.7981539859320487e-01
1375:-2.4970201008087484e-01
1376:8.8071512869816915e-01
1377:5.3497578088766795e-01
1378:3.2576365620191439e-01
1379:3.6647456577602278e-01
1380:5.3032718228410658e-01
1381:3.1259998597373490e-01
1382:2.0791115952239111e-01
1383:2.8039032236067352e-01
1384:8.9160079184570654e-02
1385:6.3721171316315411e-02
1386:9.7339562603114105e-02
1387:1.9108832926005986e-01
1388:-1.9219511899003200e-01
1389:-9.3048629772754521e-02
1390:2.2423744174979492e-02
1391:1.1987558707165760e-01
1392:4.5472942360509677e-01
1393:5.8238691017656852e-01
1394:6.4762395944667006e-01
1395:6.2697396034847497e-01
1396:3.7004164675771900e-01
1397:5.0156018862103569e-01
1398:5.7824613508457967e-01
1399:5.6910054936734344e-01
1400:2.6585599972139989e-01
1401:3.7949055783910091e-01
1402:4.6026487796608473e-01
1403:4.7107471732865275e-01
1404:1.7902382530839597e-01
1405:2.7442674409456674e-01
1406:3.5762596054457091e-01
1407:3.8613761575584149e-01
1408:5.9581537836248133e-01
1409:5.4980034356302609e-01
1410:5.1935574455616718e-01
1411:5.1406593895435104e-01
1412:5.4426992399035579e-01
1413:5.0819700991757155e-01
1414:4.8771852665680016e-01
1415:4.8886419743604859e-01
1416:4.6084424401703389e-01
1417:4.4604321482811637e-01
1418:4.4133614995075721e-01
1419:4.4788975442028206e-01
1420:3.8896668987744526e-01
1421:3.9235083825750894e-01
1422:3.9934464643052425e-01
1423:4.0838689576886328e-01
1424:5.1543838833581646e-01
1425:5.1086208382938703e-01
1426:4.9057783850708953e-01
1427:4.6652898225266415e-01
1428:4.9353582273789398e-01
1429:4.9450671744719477e-01
1430:4.7989259276319080e-01
1431:4.5882337306607013e-01
1432:4.5402975391294081e-01
1433:4.5906139358665299e-01
1434:4.5191830025901214e-01
1435:4.3720560999018160e-01
1436:4.1461333064898326e-01
1437:4.2198981854231898e-01
1438:4.2149420708711399e-01
1439:4.1320482840092393e-01
1440:4.5182097604308219e-01
1441:4.2765843881250271e-01
1442:4.0244248704378405e-01
1443:3.8628188821322706e-01
1444:4.4521752089412736e-01
1445:4.2304574040759574e-01
1446:4.0052733008582919e-01
1447:3.8657978484628819e-01
1448:4.2685111535579540e-01
1449:4.0954862970877520e-01
1450:3.9144900122714577e-01
1451:3.8000909638050689e-01
1452:4.0623785311047272e-01
1453:3.9366672222388099e-01
1454:3.7919836190274353e-01
1455:3.6944965160293675e-01
1456:3.7821496894462664e-01
1457:3.6249581598725106e-01
1458:3.4120645746020595e-01
1459:3.2487617156728815e-01
1460:3.7973504648739892e-01
1461:3.6589429700799520e-01
1462:3.4620421858697853e-01
1463:3.3051112672082861e-01
1464:3.7437745689422991e-01
1465:3.6280323341493653e-01
1466:3.4585310590409973e-01
1467:3.3188820043071582e-01
1468:3.6461299573515304e-01
1469:3.5486787867466707e-01
1470:3.4063844843110691e-01
1471:3.2863613894432092e-01
1472:3.1638275129844895e-01
1473:3.0154773589422856e-01
1474:2.8396431816892148e-01
1475:2.7136162901835198e-01
1476:3.2218783303249432e-01
1477:3.0771787109244098e-01
1478:2.9074060557678083e-01
1479:2.7867153022269042e-01
1480:3.2430024205534214e-01
1481:3.1097995775048942e-01
1482:2.9521014805718104e-01
1483:2.8396101603068480e-01
1484:3.2193484176595294e-01
1485:3.0990316526247791e-01
1486:2.9530421514861438e-01
1487:2.8477376273257071e-01
1488:2.6481821246186277e-01
1489:2.5291567733384757e-01
1490:2.3823286871962629e-01
1491:2.2770086867289932e-01
1492:2.7241904570080627e-01
1493:2.6091983155836540e-01
1494:2.4649276245314392e-01
1495:2.3598717455036936e-01
1496:2.7813871648872596e-01
1497:2.6736556471894213e-01
1498:2.5367796330146836e-01
1499:2.4355215511518022e-01
1500:2.7933391056799806e-01
1501:2.6929086342262432e-01
1502:2.5648895339588368e-01
1503:2.4691056415225054e-01
1504:2.2236465697372046e-01
1505:2.1283581185362921e-01
1506:2.0119940611094295e-01
1507:1.9275458363609158e-01
1508:2.3062166746663398e-01
1509:2.2105797793448492e-01
1510:2.0941632372951968e-01
1511:2.0098074808727309e-01
1512:2.3831948070791517e-01
1513:2.2896171139646654e-01
1514:2.1754130315379505e-01
1515:2.0925633841811300e-01
1516:2.4190188042964719e-01
1517:2.3288045766785764e-01
1518:2.2179333711025698e-01
1519:2.1372712139259378e-01
1520:1.8838848012845347e-01
1521:1.8053992284217441e-01
1522:1.7097889612605011e-01
1523:1.6415105611399047e-01
1524:1.9661717545784294e-01
1525:1.8873499351546053e-01
1526:1.7906235243247931e-01
1527:1.7211004275464173e-01
1528:2.0496966990769269e-01
1529:1.9719627094169090e-01
1530:1.8758882552712919e-01
1531:1.8062742857685399e-01
1532:2.0955606006906494e-01
1533:2.0198303528353143e-01
1534:1.9258541410211291e-01
1535:1.8573191111663997e-01
1536:1.6068181505616352e-01
1537:1.5444297453248559e-01
1538:1.4677781857933592e-01
1539:1.4122101051544189e-01
1540:1.6856579204358182e-01
1541:1.6219318328479973e-01
1542:1.5436476934074594e-01
1543:1.4868516908156082e-01
1544:1.7705886722501776e-01
1545:1.7063168152866617e-01
1546:1.6272124618061731e-01
1547:1.5697149225186627e-01
1548:1.8219929302785401e-01
1549:1.7581948650909324e-01
1550:1.6794458130635881e-01
1551:1.6220974752549860e-01
1552:1.3836123971727032e-01
1553:1.3321427560601323e-01
1554:1.2691295639218633e-01
1555:1.2237770058005897e-01
1556:1.4575865877615035e-01
1557:1.4047904695728927e-01
1558:1.3399293908844506e-01
1559:1.2931044034223660e-01
1560:1.5400498639621132e-01
1561:1.4864006141226355e-01
1562:1.4202257772736926e-01
1563:1.3722515342216607e-01
1564:1.5924886460154530e-01
1565:1.5388590294474219e-01
1566:1.4725121504292940e-01
1567:1.4242384181771414e-01
1568:1.2005766070801517e-01
1569:1.1586529836263312e-01
1570:1.1068661891814363e-01
1571:1.0692003221100307e-01
1572:1.2691119110696433e-01
1573:1.2257331923162404e-01
1574:1.1720957344622325e-01
1575:1.1330279023360570e-01
1576:1.3476031101276889e-01
1577:1.3029760525878689e-01
1578:1.2476819480920182e-01
1579:1.2073169905904486e-01
1580:1.3993695454928437e-01
1581:1.3542741335765024e-01
1582:1.2982863047622228e-01
1583:1.2573372872223912e-01
1584:1.0497892608610628e-01
1585:1.0146171204128626e-01
1586:9.7103783034463140e-02
1587:9.3925806109531523e-02
1588:1.1128695999827320e-01
1589:1.0762933057088421e-01
1590:1.0308840525007064e-01
1591:9.9770837936438650e-02
1592:1.1864559893072030e-01
1593:1.1485397548602883e-01
1594:1.1013430805239427e-01
1595:1.0667696539741402e-01
1596:1.2361494789876319e-01
1597:1.1975875838850768e-01
1598:1.1494820354378284e-01
1599:1.1141594038456983e-01
1600:9.2284870789498097e-02
1601:8.9292268674041331e-02
1602:8.5543471161600118e-02
1603:8.2777910820895848e-02
1604:9.8055932427252149e-02
1605:9.4925798919075474e-02
1606:9.0999362102044318e-02
1607:8.8098297382440821e-02
1608:1.0488670932708381e-01
1609:1.0161448285177946e-01
1610:9.7500955704697606e-02
1611:9.4454711671825703e-02
1612:1.0958391750718324e-01
1613:1.0623112463904390e-01
1614:1.0200844437010424e-01
1615:9.8875440281564614e-02
1616:8.1338562571475939e-02
1617:7.8693396031059681e-02
1618:7.5340171151660904e-02
1619:7.2835654210304329e-02
1620:8.6586751824254543e-02
1621:8.3806015145433996e-02
1622:8.0275539389713699e-02
1623:7.7634699611783306e-02
1624:9.2865034157089174e-02
1625:8.9936315328323649e-02
1626:8.6209887767393953e-02
1627:8.3416440574760359e-02
1628:9.7238428536848096e-02
1629:9.4218817934809046e-02
1630:9.0369588408368048e-02
1631:8.7478645323678481e-02
1632:7.1520800659661724e-02
1633:6.9077040441314200e-02
1634:6.5923975377373836e-02
1635:6.3526424391921715e-02
1636:7.6246952938252302e-02
1637:7.3665399000598736e-02
1638:7.0330026707523918e-02
1639:6.7790397015706980e-02
1640:8.1946421942738296e-02
1641:7.9208155770331648e-02
1642:7.5663220050794705e-02
1643:7.2958662923162193e-02
1644:8.5955425693269652e-02
1645:8.3114827272921923e-02
1646:7.9431231822837622e-02
1647:7.6616256119262385e-02
1648:6.2252409745385311e-02
1649:5.9852465861719654e-02
1650:5.6692268111531302e-02
1651:5.4240587254421976e-02
1652:6.6439677247162682e-02
1653:6.3893181892706985e-02
1654:6.0536140898939529e-02
1655:5.7928923744344475e-02
1656:7.1518370103104856e-02
1657:6.8799844902527177e-02
1658:6.5210063079389702e-02
1659:6.2417727223043583e-02
1660:7.5115567515649406e-02
1661:7.2280266048816363e-02
1662:6.8531017496275964e-02
1663:6.5610775414357406e-02
1664:5.2920362601263350e-02
1665:5.0395880310589940e-02
1666:4.6997875660772633e-02
1667:4.4306190275348503e-02
1668:5.6523993735235083e-02
1669:5.3835902353053702e-02
1670:5.0214615662046505e-02
1671:4.7343860074095141e-02
1672:6.0911573862966251e-02
1673:5.8027267075152725e-02
1674:5.4136902043076654e-02
1675:5.1049428565855370e-02
1676:6.4034329330838635e-02
1677:6.1013199510907119e-02
1678:5.6934171856663204e-02
1679:5.3694020835795414e-02
1680:4.2837251146266228e-02
1681:3.9988290857119642e-02
1682:3.6075648862498727e-02
1683:3.2918721353519115e-02
1684:4.5776476398155561e-02
1685:4.2735497221164501e-02
1686:3.8557199255223898e-02
1687:3.5184585036427365e-02
1688:4.9362605928704277e-02
1689:4.6088206298267598e-02
1690:4.1586174206553680e-02
1691:3.7950175609414216e-02
1692:5.1922818526001217e-02
1693:4.8483143042876341e-02
1694:4.3751224519928203e-02
1695:3.9927743051180749e-02
1696:3.1175968749658927e-02
1697:2.7754464922198394e-02
1698:2.2975575657972074e-02
1699:1.9061470092705316e-02
1700:3.3322350412877906e-02
1701:2.9665812745221311e-02
1702:2.4557943824865654e-02
1703:2.0373980956882708e-02
1704:3.5941870406597985e-02
1705:3.1997812508538698e-02
1706:2.6487211713847904e-02
1707:2.1972722643772952e-02
1708:3.7815324471533546e-02
1709:3.3666194913635795e-02
1710:2.7868138007299880e-02
1711:2.3117606248419884e-02
1712:1.6881054012103561e-02
1713:1.2563305321125227e-02
1714:6.4626618886806878e-03
1715:1.4156882470373925e-03
1716:1.8043151658227119e-02
1717:1.3427847252138912e-02
1718:6.9075483844555970e-03
1719:1.5140589407985679e-03
1720:1.9457626940944234e-02
1721:1.4477908239166271e-02
1722:7.4439615201765787e-03
1723:1.6266130976500407e-03
1724:2.0470891586602317e-02
1725:1.5230965997062690e-02
1726:7.8304916813696761e-03
1727:1.7108982759855614e-03
1728:1.2352415977247970e+00
1729:1.5785218808715475e+00
1730:1.8302080238960396e+00
1731:1.8695863664920462e+00
1732:1.5588747310258748e+00
1733:1.6406165576984373e+00
1734:1.5345868859450502e+00
1735:1.3188172781985203e+00
1736:1.6822893914582142e+00
1737:1.4341603881557041e+00
1738:9.7926187775415241e-01
1739:5.7290684684752891e-01
1740:1.5455549075269610e+00
1741:1.1191123254209834e+00
1742:5.2246448686474789e-01
1743:6.7437549629551785e-02
1744:1.8365184827773646e+00
1745:1.6984656717605249e+00
1746:1.3886428818923400e+00
1747:1.0649951690948816e+00
1748:1.1675932126887227e+00
1749:8.7436660132221078e-01
1750:4.8804515948056520e-01
1751:1.9282350240013571e-01
1752:3.5094569111605123e-01
1753:-2.7197662300050423e-02
1754:-4.3744997880435599e-01
1755:-6.8845831747620601e-01
1756:-1.6327429060564869e-01
1757:-5.4773119059530306e-01
1758:-9.4702678396230333e-01
1759:-1.1716048220449551e+00
1760:8.7189756524028816e-01
1761:5.8050260312259860e-01
1762:3.6388316608938315e-01
1763:3.2542714935877748e-01
1764:3.9668283790494384e-02
1765:-1.9041697693841408e-01
1766:-3.6910423531669057e-01
1767:-4.1383635212396686e-01
1768:-8.0016147494450740e-01
1769:-9.7520284338787533e-01
1770:-1.1409097101475638e+00
1771:-1.2234154528310370e+00
1772:-1.2631174569247918e+00
1773:-1.4111442863524397e+00
1774:-1.5686544818868411e+00
1775:-1.6665250716383921e+00
1776:3.4430366211888852e-01
1777:3.3418606784434896e-01
1778:1.8775490978257520e-01
1779:-4.4691042711673880e-02
1780:-4.0922755810049155e-01
1781:-4.2097809336242648e-01
1782:-5.0554082992808980e-01
1783:-6.3667041441683159e-01
1784:-1.2523701411254822e+00
1785:-1.2764907703632067e+00
1786:-1.2609316577156575e+00
1787:-1.2250634190199197e+00
1788:-1.7091874899360662e+00
1789:-1.7269377000601704e+00
1790:-1.6345732224216316e+00
1791:-1.4904214293797862e+00
1792:-2.0697670959653641e-01
1793:-4.1841507623362989e-01
1794:-4.8946337735294049e-01
1795:-3.9889635709009313e-01
1796:-7.2694870111544507e-01
1797:-8.1387477122202068e-01
1798:-7.5336476607105995e-01
1799:-5.8631324092606418e-01
1800:-1.1992776793309829e+00
1801:-1.1100747681650145e+00
1802:-9.1433745486128060e-01
1803:-7.1018322011227442e-01
1804:-1.3938672502311480e+00
1805:-1.2089071984289286e+00
1806:-9.6311054783274819e-01
1807:-7.6820036329098218e-01
1808:-3.0870152725439998e-01
1809:-1.6383441252475142e-01
1810:-2.0679129488658247e-02
1811:7.5363153423084417e-02
1812:-4.6417502173379854e-01
1813:-2.7565990853724576e-01
1814:-1.0676702675313748e-01
1815:-1.4285585208631855e-02
1816:-5.8798489412326926e-01
1817:-3.9891276686558169e-01
1818:-2.2685748300875236e-01
1819:-1.3566123185786536e-01
1820:-6.6291182836817553e-01
1821:-4.9287927187664843e-01
1822:-3.2365325368998138e-01
1823:-2.2693564482355996e-01
1824:1.2732362677963097e-01
1825:2.1525706024969526e-01
1826:3.0152932444895308e-01
1827:3.3972711102707331e-01
1828:2.8907247521731416e-02
1829:1.0836172250233510e-01
1830:2.0062197649915692e-01
1831:2.5376772895879846e-01
1832:-9.5638586000954942e-02
1833:-1.8902662803985899e-02
1834:7.8891669696829092e-02
1835:1.4406387312220656e-01
1836:-1.8409224666955434e-01
1837:-1.0514612626483764e-01
1838:-6.4989044553584990e-03
1839:6.1744680309033934e-02
1840:3.4922469744317913e-01
1841:3.6162063036326542e-01
1842:3.7406707696273533e-01
1843:3.8411988256966811e-01
1844:2.7358679295804883e-01
1845:3.0061868490857674e-01
1846:3.2321494588909100e-01
1847:3.3618174477697421e-01
1848:1.7289377001695957e-01
1849:2.1469137181630640e-01
1850:2.5093334689374497e-01
1851:2.7011821633595384e-01
1852:9.4116447208665771e-02
1853:1.4404803165630814e-01
1854:1.9121707755998898e-01
1855:2.1712834628879737e-01
1856:3.9038167828199505e-01
1857:3.9920692784568901e-01
1858:4.0273786375646514e-01
1859:3.9824312514240373e-01
1860:3.4305803187432587e-01
1861:3.5484139592959785e-01
1862:3.6520965898001478e-01
1863:3.6709246889958308e-01
1864:2.7899439558808053e-01
1865:2.9507427152358456e-01
1866:3.1259326548418831e-01
1867:3.2100896904581255e-01
1868:2.2850757675277963e-01
1869:2.4827903048825473e-01
1870:2.6993397044743067e-01
1871:2.8194109818188912e-01
1872:3.9322638289295542e-01
1873:3.8330081498407104e-01
1874:3.7075338555999943e-01
1875:3.6186997098822277e-01
1876:3.6545894589518135e-01
1877:3.6041959712323651e-01
1878:3.5191794235717461e-01
1879:3.4509195252243385e-01
1880:3.2311210563186588e-01
1881:3.2418869435476028e-01
1882:3.2187474446670072e-01
1883:3.1864797906954617e-01
1884:2.8634772459985069e-01
1885:2.9184339477649657e-01
1886:2.9490062743256912e-01
1887:2.9509900125158350e-01
1888:3.5746334504468791e-01
1889:3.4878935511227976e-01
1890:3.3623708954298154e-01
1891:3.2546956758006501e-01
1892:3.4165909475895445e-01
1893:3.3511409942938153e-01
1894:3.2564756040817966e-01
1895:3.1713973628119868e-01
1896:3.1682466033282752e-01
1897:3.1324892561144857e-01
1898:3.0756733787693341e-01
1899:3.0180912905749724e-01
1900:2.9475660658111524e-01
1901:2.9358542299140827e-01
1902:2.9060628248413595e-01
1903:2.8680017508629074e-01
1904:3.1932667869580755e-01
1905:3.0808994761842817e-01
1906:2.9418707789541959e-01
1907:2.8407711647587514e-01
1908:3.1205681996873746e-01
1909:3.0242593216083979e-01
1910:2.9007412573749319e-01
1911:2.8093995354142948e-01
1912:2.9810572983089079e-01
1913:2.9077471307060199e-01
1914:2.8093071153584676e-01
1915:2.7343193055580450e-01
1916:2.8415190895369813e-01
1917:2.7873527011328708e-01
1918:2.7116356841706862e-01
1919:2.6516917774210491e-01
1920:2.7886571358433337e-01
1921:2.6927804347587309e-01
1922:2.5705660476427139e-01
1923:2.4785275116586125e-01
1924:2.7623439079455614e-01
1925:2.6760044520126031e-01
1926:2.5654673300900988e-01
1927:2.4810072359006144e-01
1928:2.6952516993816367e-01
1929:2.6229772359090509e-01
1930:2.5287948500770974e-01
1931:2.4551190287853833e-01
1932:2.6196376663010107e-01
1933:2.5591370039185135e-01
1934:2.4781976096156536e-01
1935:2.4134939313247719e-01
1936:2.4300214069269460e-01
1937:2.3421780495856862e-01
1938:2.2336426689272842e-01
1939:2.1545175164625491e-01
1940:2.4358417473258695e-01
1941:2.3533010138416033e-01
1942:2.2503924947524701e-01
1943:2.1750609578173913e-01
1944:2.4150318925027142e-01
1945:2.3410969916924626e-01
1946:2.2479664019421741e-01
1947:2.1792856358609172e-01
1948:2.3779019131003998e-01
1949:2.3119076554863241e-01
1950:2.2280934381803408e-01
1951:2.1656931130204796e-01
1952:2.1136279701269634e-01
1953:2.0393768160898340e-01
1954:1.9470650467870135e-01
1955:1.8794920588718295e-01
1956:2.1361388145252688e-01
1957:2.0653466511262858e-01
1958:1.9768925290431891e-01
1959:1.9116311649556264e-01
1960:2.1436805239713955e-01
1961:2.0785846605471781e-01
1962:1.9964601574236954e-01
1963:1.9351731501004407e-01
1964:2.1331151211979515e-01
1965:2.0731605764558667e-01
1966:1.9968009968410169e-01
1967:1.9393034180129229e-01
1968:1.8445411422921487e-01
1969:1.7813004215759287e-01
1970:1.7030852248679768e-01
1971:1.6460611982655277e-01
1972:1.8776536500008598e-01
1973:1.8159748639062029e-01
1974:1.7394325737544913e-01
1975:1.6835078234563253e-01
1976:1.9030067090188102e-01
1977:1.8443998030866932e-01
1978:1.7713520540452304e-01
1979:1.7177825053481566e-01
1980:1.9089659765696987e-01
1981:1.8535362340016726e-01
1982:1.7841623279307675e-01
1983:1.7330581994003136e-01
1984:1.6166120440322962e-01
1985:1.5632311531331239e-01
1986:1.4970838185559543e-01
1987:1.4488512251686594e-01
1988:1.6546044002427401e-01
1989:1.6021133010113184e-01
1990:1.5368272700947580e-01
1991:1.4890064339890208e-01
1992:1.6900365288427369e-01
1993:1.6394753714909252e-01
1994:1.5762205936415014e-01
1995:1.5295864679791871e-01
1996:1.7065050127603082e-01
1997:1.6579596780327235e-01
1998:1.5969237492826641e-01
1999:1.5516983319825839e-01
2000:1.4239620154958260e-01
2001:1.3787866024414908e-01
2002:1.3226321355815757e-01
2003:1.2815184377020211e-01
2004:1.4642475333046301e-01
2005:1.4192301103278418e-01
2006:1.3631487653418936e-01
2007:1.3220073713261335e-01
2008:1.5053351399510576e-01
2009:1.4611379179195805e-01
2010:1.4059067721437951e-01
2011:1.3652660069396713e-01
2012:1.5281038372519357e-01
2013:1.4850166017770006e-01
2014:1.4310125356323808e-01
2015:1.3911514855317686e-01
2016:1.2602326306192577e-01
2017:1.2214630928852002e-01
2018:1.1730366864530256e-01
2019:1.1374280094444864e-01
2020:1.3006815968039320e-01
2021:1.2617759201848000e-01
2022:1.2130470944416220e-01
2023:1.1771098318279712e-01
2024:1.3441576343878914e-01
2025:1.3055517413022907e-01
2026:1.2570020235100698e-01
2027:1.2210434311593094e-01
2028:1.3704041864656594e-01
2029:1.3323758560671933e-01
2030:1.2843911606973413e-01
2031:1.2487282516111099e-01
2032:1.1189411248426855e-01
2033:1.0850835292313563e-01
2034:1.0423966914347840e-01
2035:1.0106922859996441e-01
2036:1.1584144955044430e-01
2037:1.1241267758137956e-01
2038:1.0808099610868693e-01
2039:1.0485725678277398e-01
2040:1.2022834722680180e-01
2041:1.1678081741681288e-01
2042:1.1241273209751851e-01
2043:1.0915232666082098e-01
2044:1.2300803564385557e-01
2045:1.1957508836596166e-01
2046:1.1521412778178226e-01
2047:1.1195038508753299e-01
2048:9.9411523718593964e-02
2049:9.6351594260123824e-02
2050:9.2446745358351984e-02
2051:8.9510795576583937e-02
2052:1.0316942660609126e-01
2053:1.0004939061125538e-01
2054:9.6058970059252125e-02
2055:9.3051905992756742e-02
2056:1.0744193618467728e-01
2057:1.0427350423494212e-01
2058:1.0020805782565168e-01
2059:9.7134482722679188e-02
2060:1.1023519405743128e-01
2061:1.0705218209129183e-01
2062:1.0295700259002931e-01
2063:9.9852631198910385e-02
2064:8.7962732993083700e-02
2065:8.5073950167885562e-02
2066:8.1324352466747768e-02
2067:7.8456316737644471e-02
2068:9.1463991952622850e-02
2069:8.8497085262261341e-02
2070:8.4638978302879239e-02
2071:8.1682646771146936e-02
2072:9.5507998916519149e-02
2073:9.2463530911565131e-02
2074:8.8494161158975820e-02
2075:8.5444807035666953e-02
2076:9.8206984286316190e-02
2077:9.5121914588543188e-02
2078:9.1090606737695812e-02
2079:8.7986950506481254e-02
2080:7.6926441173883142e-02
2081:7.4034383114217991e-02
2082:7.0207018003879157e-02
2083:6.7223681851344461e-02
2084:8.0103847967699301e-02
2085:7.7115963434580145e-02
2086:7.3155414067973490e-02
2087:7.0063590588432895e-02
2088:8.3813652494733382e-02
2089:8.0721749559183847e-02
2090:7.6613923125873132e-02
2091:7.3400239155335487e-02
2092:8.6324436065196422e-02
2093:8.3168906785729829e-02
2094:7.8968612840054714e-02
2095:7.5676786722828071e-02
2096:6.5612418580945756e-02
2097:6.2523302472897807e-02
2098:5.8350140660978281e-02
2099:5.5033537630793494e-02
2100:6.8392164946282391e-02
2101:6.5185123838406744e-02
2102:6.0847873900401209e-02
2103:5.7397439812325153e-02
2104:7.1660626494458632e-02
2105:6.8318966468310038e-02
2106:6.3792652475555670e-02
2107:6.0186800514292711e-02
2108:7.3892931416278396e-02
2109:7.0463066015951079e-02
2110:6.5811317633614572e-02
2111:6.2101280032161588e-02
2112:5.3219994871483954e-02
2113:4.9697242243470829e-02
2114:4.4849511496510550e-02
2115:4.0931404226281762e-02
2116:5.5509597013747636e-02
2117:5.1840759337152841e-02
2118:4.6788845395363425e-02
2119:4.2703542902277861e-02
2120:5.8212284009047106e-02
2121:5.4372418844215294e-02
2122:4.9080368330899300e-02
2123:4.4797689838591837e-02
2124:6.0068321220910124e-02
2125:5.6112624005308330e-02
2126:5.0657035189044984e-02
2127:4.6239331720422404e-02
2128:3.8766384688230390e-02
2129:3.4513597220810384e-02
2130:2.8570165053647036e-02
2131:2.3700215976339749e-02
2132:4.0445471466355083e-02
2133:3.6009202761676018e-02
2134:2.9808286041834248e-02
2135:2.4726736983200534e-02
2136:4.2429544854321787e-02
2137:3.7776001539737487e-02
2138:3.1269833299339148e-02
2139:2.5937233136721936e-02
2140:4.3795701509338453e-02
2141:3.8992962143517107e-02
2142:3.2276890843387807e-02
2143:2.6771487645644038e-02
2144:2.0986904455119658e-02
2145:1.5615352084613112e-02
2146:8.0295564451812618e-03
2147:1.7572220204745378e-03
2148:2.1895401622888604e-02
2149:1.6290642817152656e-02
2150:8.3766792675481466e-03
2151:1.8340211477480698e-03
2152:2.2965829656887291e-02
2153:1.7084448165763412e-02
2154:8.7815916290786295e-03
2155:1.9189121951325484e-03
2156:2.3703638122310279e-02
2157:1.7631911284667730e-02
2158:9.0617840724002835e-03
2159:1.9794506198146534e-03
2160:1.3906631101393405e+00
2161:9.1545061364463798e-01
2162:2.9702734578762702e-01
2163:-1.5416560701469115e-01
2164:9.8656692897481923e-01
2165:5.0927926888319952e-01
2166:-7.7424484539676097e-02
2167:-4.9481245795613593e-01
2168:3.9280370736570019e-01
2169:1.6818033113077280e-02
2170:-4.5291266553069337e-01
2171:-8.0147111916668123e-01
2172:2.6109119067992251e-02
2173:-2.5782034675273269e-01
2174:-6.3609019778507714e-01
2175:-9.3367781877753886e-01
2176:-3.7942267038708599e-01
2177:-7.5608696960353738e-01
2178:-1.1474129888098663e+00
2179:-1.3638655586436783e+00
2180:-7.0383383036013325e-01
2181:-1.0575187375081818e+00
2182:-1.4288571722311842e+00
2183:-1.6331022521036203e+00
2184:-9.8334533772949628e-01
2185:-1.2952884869622643e+00
2186:-1.6280344268068336e+00
2187:-1.8148758615021725e+00
2188:-1.0938849007119462e+00
2189:-1.3680313296986983e+00
2190:-1.6604971801666839e+00
2191:-1.8279578824985114e+00
2192:-1.4494623474121393e+00
2193:-1.5868951423907611e+00
2194:-1.7325920546773514e+00
2195:-1.8230754936560742e+00
2196:-1.7116593299113392e+00
2197:-1.8290219007680286e+00
2198:-1.9341531752690717e+00
2199:-1.9826078879988727e+00
2200:-1.8873666528864683e+00
2201:-1.9795298806356416e+00
2202:-2.0204949004851374e+00
2203:-1.9957016894957369e+00
2204:-1.8947293778345813e+00
2205:-1.9708859996907659e+00
2206:-1.9773186734266757e+00
2207:-1.9153801262687711e+00
2208:-1.8619084805399877e+00
2209:-1.8639741747901424e+00
2210:-1.7355944691308727e+00
2211:-1.5546787299172842e+00
2212:-1.9957288639930784e+00
2213:-1.9533746131814775e+00
2214:-1.7788955216450051e+00
2215:-1.5738841766747700e+00
2216:-1.9635129171961372e+00
2217:-1.8641541150637095e+00
2218:-1.6740427636335304e+00
2219:-1.4978821675196012e+00
2220:-1.8612420161233205e+00
2221:-1.7450471610871070e+00
2222:-1.5775311975151642e+00
2223:-1.4442683904638665e+00
2224:-1.4372113133535687e+00
2225:-1.2293189605549097e+00
2226:-9.8232434091046328e-01
2227:-8.0186657001989525e-01
2228:-1.4485986303381699e+00
2229:-1.2413556863532007e+00
2230:-1.0182358295788598e+00
2231:-8.6602872764762884e-01
2232:-1.3997502442117873e+00
2233:-1.2391898185743926e+00
2234:-1.0642398705029164e+00
2235:-9.4004112405170714e-01
2236:-1.3740924605688183e+00
2237:-1.2505978289669530e+00
2238:-1.0985644063518039e+00
2239:-9.8143111926210069e-01
2240:-7.0693487451197368e-01
2241:-5.4690200461795191e-01
2242:-3.7618675472018576e-01
2243:-2.7347653444432624e-01
2244:-7.8654012145632046e-01
2245:-6.4145316424797127e-01
2246:-4.6880393526939568e-01
2247:-3.5650125198915589e-01
2248:-8.7238607714484973e-01
2249:-7.4109726901157058e-01
2250:-5.7230137266310666e-01
2251:-4.5486354725604289e-01
2252:-9.1667094328962717e-01
2253:-7.9299239538557165e-01
2254:-6.3446085402491337e-01
2255:-5.2105395655192532e-01
2256:-2.2772563262244910e-01
2257:-1.4671344623507493e-01
2258:-4.9043491659514500e-02
2259:1.8746065744617079e-02
2260:-3.0551068716720758e-01
2261:-2.1985668691131835e-01
2262:-1.2255490124219595e-01
2263:-5.5705015849574595e-02
2264:-3.9942037445119077e-01
2265:-3.0820668600917900e-01
2266:-2.0837294305019888e-01
2267:-1.4142196834987630e-01
2268:-4.6536487831419932e-01
2269:-3.7206747512773836e-01
2270:-2.6873163237328668e-01
2271:-2.0003465957856362e-01
2272:5.1887396416560504e-02
2273:1.0505004808283021e-01
2274:1.5809575764235348e-01
2275:1.8819125647230350e-01
2276:-2.1993963658380324e-02
2277:3.5134034200220092e-02
2278:9.6626715863451493e-02
2279:1.3343242820609416e-01
2280:-1.0766421645895652e-01
2281:-4.8337622071459641e-02
2282:1.9271248627779076e-02
2283:6.2068857958569895e-02
2284:-1.6604924927950901e-01
2285:-1.0623008626214564e-01
2286:-3.7014792188375875e-02
2287:8.2090353317985799e-03
2288:2.0122459729315056e-01
2289:2.2311749243765233e-01
2290:2.4656978984329747e-01
2291:2.6003001478175392e-01
2292:1.4943865329499889e-01
2293:1.7543677563796053e-01
2294:2.0263451654052547e-01
2295:2.1891295181994982e-01
2296:8.1326288076588635e-02
2297:1.1253996090588779e-01
2298:1.4533900036597142e-01
2299:1.6563694853344485e-01
2300:2.9272152943855496e-02
2301:6.4046992331886696e-02
2302:1.0145019341205708e-01
2303:1.2505724095878387e-01
2304:2.6546756151051354e-01
2305:2.7319475376445862e-01
2306:2.7926946000673253e-01
2307:2.8148109371586344e-01
2308:2.2616973647740568e-01
2309:2.3771933732091571e-01
2310:2.4890609956827464e-01
2311:2.5457731820359308e-01
2312:1.7512638291099575e-01
2313:1.9098836425924670e-01
2314:2.0767752434540587e-01
2315:2.1716202693561162e-01
2316:1.3617919379191118e-01
2317:1.5489133683534403e-01
2318:1.7498107489020401e-01
2319:1.8690883342043055e-01
2320:2.8199918568044918e-01
2321:2.8214370268054106e-01
2322:2.8054255807671191e-01
2323:2.7773223115696510e-01
2324:2.5662248019239531e-01
2325:2.5919597528873739e-01
2326:2.6027621220603031e-01
2327:2.5944197146848841e-01
2328:2.2101273031322813e-01
2329:2.2668451584364754e-01
2330:2.3147114374699984e-01
2331:2.3340066995573910e-01
2332:1.9202869162179773e-01
2333:2.0004751762005554e-01
2334:2.0781166387729411e-01
2335:2.1194034759540609e-01
2336:2.7564842235391773e-01
2337:2.7130150889846083e-01
2338:2.6504645118172543e-01
2339:2.5992492785661181e-01
2340:2.5846209989207136e-01
2341:2.5615429656890804e-01
2342:2.5234196103390882e-01
2343:2.4881718676029602e-01
2344:2.3390901186141647e-01
2345:2.3424649028747505e-01
2346:2.3349599365263896e-01
2347:2.3196627046685073e-01
2348:2.1358045765867917e-01
2349:2.1587225624442002e-01
2350:2.1734929242765116e-01
2351:2.1730693517962726e-01
2352:2.5711616909276813e-01
2353:2.5171869761709048e-01
2354:2.4435235076044029e-01
2355:2.3838739000760970e-01
2356:2.4673514765057089e-01
2357:2.4256501397160521e-01
2358:2.3662516261632452e-01
2359:2.3168373178409168e-01
2360:2.3081470597602161e-01
2361:2.2827948872364656e-01
2362:2.2432999021886826e-01
2363:2.2084663849385924e-01
2364:2.1688196688336364e-01
2365:2.1565985361836762e-01
2366:2.1333899617015414e-01
2367:2.1103924807906060e-01
2368:2.3509089267673214e-01
2369:2.2896277118510205e-01
2370:2.2113798631920625e-01
2371:2.1526854501597881e-01
2372:2.2892421113666991e-01
2373:2.2374566058774084e-01
2374:2.1701881086923969e-01
2375:2.1186808722531283e-01
2376:2.1884820350126055e-01
2377:2.1499417687984870e-01
2378:2.0977325367791208e-01
2379:2.0560470145421453e-01
2380:2.0964617788049933e-01
2381:2.0683815234013075e-01
2382:2.0280952872799829e-01
2383:1.9943472140720089e-01
2384:2.1218561192566496e-01
2385:2.0648673600837486e-01
2386:1.9918771141803907e-01
2387:1.9366649557894750e-01
2388:2.0912224122674808e-01
2389:2.0400528756956132e-01
2390:1.9738821994105285e-01
2391:1.9234370926981018e-01
2392:2.0332386450141263e-01
2393:1.9902686735166616e-01
2394:1.9339824716466175e-01
2395:1.8905846251519065e-01
2396:1.9753967158917660e-01
2397:1.9393073041314832e-01
2398:1.8913731377453150e-01
2399:1.8539105045088181e-01
2400:1.9074653425669244e-01
2401:1.8540250328456628e-01
2402:1.7869505073891070e-01
2403:1.7373744258116344e-01
2404:1.8966480162718327e-01
2405:1.8473979044161273e-01
2406:1.7851127155348157e-01
2407:1.7386880758641476e-01
2408:1.8673794109643960e-01
2409:1.8243327211210900e-01
2410:1.7691094051326084e-01
2411:1.7273412376836517e-01
2412:1.8336996616610005e-01
2413:1.7958412227920603e-01
2414:1.7465744503507344e-01
2415:1.7088020191791226e-01
2416:1.7115519370958993e-01
2417:1.6642519350449059e-01
2418:1.6046207112074021e-01
2419:1.5603221053853045e-01
2420:1.7143668740973617e-01
2421:1.6696615835619369e-01
2422:1.6130345734938659e-01
2423:1.5707767626906927e-01
2424:1.7052538028727840e-01
2425:1.6644643569624626e-01
2426:1.6124705188971411e-01
2427:1.5734251558172355e-01
2428:1.6886640046482171e-01
2429:1.6513158841835124e-01
2430:1.6034196945510762e-01
2431:1.5672239572005797e-01
2432:1.5371745370324272e-01
2433:1.4948509183635655e-01
2434:1.4417013382493324e-01
2435:1.4023898111783997e-01
2436:1.5486322817908946e-01
2437:1.5080271415081298e-01
2438:1.4568062168150844e-01
2439:1.4187423515106901e-01
2440:1.5528779704047715e-01
2441:1.5150214857851099e-01
2442:1.4669129703667133e-01
2443:1.4308922644917488e-01
2444:1.5480938087919704e-01
2445:1.5126893116225640e-01
2446:1.4673934022150956e-01
2447:1.4332543372198359e-01
2448:1.3818994381300645e-01
2449:1.3442956147884702e-01
2450:1.2967590285148672e-01
2451:1.2613636072910589e-01
2452:1.3988397655127244e-01
2453:1.3622286465418049e-01
2454:1.3157870292427029e-01
2455:1.2810862707344856e-01
2456:1.4119663438531249e-01
2457:1.3770366923660826e-01
2458:1.3325137891445987e-01
2459:1.2990824277485977e-01
2460:1.4152426066481158e-01
2461:1.3819029537910676e-01
2462:1.3392221292780648e-01
2463:1.3070304222817342e-01
2464:1.2428331850390366e-01
2465:1.2086844191004455e-01
2466:1.1652359420358904e-01
2467:1.1326666965943036e-01
2468:1.2628776406009981e-01
2469:1.2292480270350126e-01
2470:1.1863167278684911e-01
2471:1.1540259111964560e-01
2472:1.2814817062880809e-01
2473:1.2488654812949086e-01
2474:1.2070158234131553e-01
2475:1.1753785614979516e-01
2476:1.2900310813918284e-01
2477:1.2584356151477721e-01
2478:1.2177162417908993e-01
2479:1.1867996709060112e-01
2480:1.1155322112397205e-01
2481:1.0837023264196928e-01
2482:1.0426892647875172e-01
2483:1.0115528809886534e-01
2484:1.1369999173433346e-01
2485:1.1053090990090167e-01
2486:1.0643559132401070e-01
2487:1.0331751478362387e-01
2488:1.1586421977840364e-01
2489:1.1274031040536310e-01
2490:1.0868667938856415e-01
2491:1.0558772267865198e-01
2492:1.1703990367926784e-01
2493:1.1397130407082857e-01
2494:1.0997532343357332e-01
2495:1.0690973606558685e-01
2496:9.9503136752345303e-02
2497:9.6403140950544711e-02
2498:9.2347108294215413e-02
2499:8.9220522746039102e-02
2500:1.0165989602453640e-01
2501:9.8544098572456357e-02
2502:9.4456774379469047e-02
2503:9.1298167138124039e-02
2504:1.0393587029438320e-01
2505:1.0082289558271296e-01
2506:9.6723933522491770e-02
2507:9.3544968975295018e-02
2508:1.0527193713999689e-01
2509:1.0217869450855571e-01
2510:9.8092857532042818e-02
2511:9.4914604612868547e-02
2512:8.7544389910175338e-02
2513:8.4360649595091750e-02
2514:8.0118338743023418e-02
2515:7.6790324889785960e-02
2516:8.9602168005804686e-02
2517:8.6376011669879349e-02
2518:8.2068347058298866e-02
2519:7.8682611739081351e-02
2520:9.1834176414809787e-02
2521:8.8573260824084510e-02
2522:8.4206695896332923e-02
2523:8.0765536857634670e-02
2524:9.3200992450506184e-02
2525:8.9929187571630792e-02
2526:8.5537627564423624e-02
2527:8.2069161010813588e-02
2528:7.4985768502401157e-02
2529:7.1514270176687933e-02
2530:6.6802664963383857e-02
2531:6.3042465823978933e-02
2532:7.6844592586210722e-02
2533:7.3305042645055329e-02
2534:6.8494255127415513e-02
2535:6.4650035999465713e-02
2536:7.8894362934667492e-02
2537:7.5285712397107143e-02
2538:7.0371270890249193e-02
2539:6.6437294092030502e-02
2540:8.0180583383671108e-02
2541:7.6534004420774612e-02
2542:7.1559839937721761e-02
2543:6.7572327747695338e-02
2544:6.0981230286182450e-02
2545:5.6969287597541156e-02
2546:5.1433937123495699e-02
2547:4.6950143180052015e-02
2548:6.2541158740823888e-02
2549:5.8434052960457845e-02
2550:5.2763057269078519e-02
2551:4.8166401573486221e-02
2552:6.4276926151937960e-02
2553:6.0066101914797894e-02
2554:5.4245755641814837e-02
2555:4.9523825321260491e-02
2556:6.5380704304603687e-02
2557:6.1106119253565030e-02
2558:5.5192569018622871e-02
2559:5.0391539323229588e-02
2560:4.4469494273103982e-02
2561:3.9593509993944273e-02
2562:3.2774272276844055e-02
2563:2.7183868555794393e-02
2564:4.5622395488340121e-02
2565:4.0620899417498947e-02
2566:3.3624642447558285e-02
2567:2.7888254253216706e-02
2568:4.6909190140370587e-02
2569:4.1767451916446138e-02
2570:3.4572909508360165e-02
2571:2.8672717131437070e-02
2572:4.7732033988904209e-02
2573:4.2500914441213053e-02
2574:3.5179568197446213e-02
2575:2.9174378003426139e-02
2576:2.4068563963757870e-02
2577:1.7903232925068013e-02
2578:9.2018075729278347e-03
2579:2.0116836082878704e-03
2580:2.4691420378930670e-02
2581:1.8365382116328769e-02
2582:9.4388078994540724e-03
2583:2.0640811786910851e-03
2584:2.5384345152347703e-02
2585:1.8878088568238850e-02
2586:9.6995913993108054e-03
2587:2.1187951472186905e-03
2588:2.5827281207272120e-02
2589:1.9205590759541900e-02
2590:9.8662063802945101e-03
2591:2.1542227440537907e-03
2592:-9.6300919152872685e-02
2593:-3.4584083731251486e-01
2594:-6.9117273365363996e-01
2595:-9.6812180657324898e-01
2596:-1.8133434810490809e-01
2597:-4.0566154308062441e-01
2598:-7.1962296978570051e-01
2599:-9.6776734418667820e-01
2600:-1.1690406956979751e-01
2601:-3.5496952001608306e-01
2602:-6.6229695449223913e-01
2603:-8.8557547043810236e-01
2604:-3.1295651659253791e-02
2605:-2.8720544167615586e-01
2606:-5.9387926962090498e-01
2607:-8.0277220928190396e-01
2608:-1.1175468191976379e+00
2609:-1.3706760986637192e+00
2610:-1.6381487719630639e+00
2611:-1.7921084576093809e+00
2612:-1.0986630246266551e+00
2613:-1.3159421404708220e+00
2614:-1.5411921159301825e+00
2615:-1.6713842029505044e+00
2616:-9.9667877838490049e-01
2617:-1.1782189999183601e+00
2618:-1.3643248223684485e+00
2619:-1.4720204545541471e+00
2620:-9.0314966370692229e-01
2621:-1.0686432910629666e+00
2622:-1.2411157444747618e+00
2623:-1.3415652145320305e+00
2624:-1.8545674482602335e+00
2625:-1.9242043473004318e+00
2626:-1.9240824420975495e+00
2627:-1.8584491333519062e+00
2628:-1.7256799262328251e+00
2629:-1.7881644660672769e+00
2630:-1.7940595415622407e+00
2631:-1.7444338680358860e+00
2632:-1.5179015107612390e+00
2633:-1.5784044644510578e+00
2634:-1.6095771655974589e+00
2635:-1.6001018325628822e+00
2636:-1.3843635903347127e+00
2637:-1.4463570422490653e+00
2638:-1.4944992461775781e+00
2639:-1.5090261632922817e+00
2640:-1.8032686948035868e+00
2641:-1.6945525860031809e+00
2642:-1.5504246530292363e+00
2643:-1.4394201362658265e+00
2644:-1.7017761251044035e+00
2645:-1.6234075948230857e+00
2646:-1.5236963349262997e+00
2647:-1.4424037809732246e+00
2648:-1.5850989632246082e+00
2649:-1.5531123668620053e+00
2650:-1.4970256983952357e+00
2651:-1.4338221218123273e+00
2652:-1.5097220158036007e+00
2653:-1.4985768126163952e+00
2654:-1.4544973466305842e+00
2655:-1.3932042199709200e+00
2656:-1.3803161699852895e+00
2657:-1.2675347138114899e+00
2658:-1.1159342532258871e+00
2659:-9.9602654498801646e-01
2660:-1.3949228742330493e+00
2661:-1.2915418476274345e+00
2662:-1.1375489922669615e+00
2663:-1.0142741920379921e+00
2664:-1.3902429543304393e+00
2665:-1.2910703707101470e+00
2666:-1.1414600709413423e+00
2667:-1.0238262167111960e+00
2668:-1.3498081883917672e+00
2669:-1.2572994377574260e+00
2670:-1.1250326455038619e+00
2671:-1.0224202018175172e+00
2672:-9.3093632687441108e-01
2673:-8.1074375550723365e-01
2674:-6.6059459541594945e-01
2675:-5.5248395900632730e-01
2676:-9.4977700205822657e-01
2677:-8.3652239299993258e-01
2678:-7.0080537143642241e-01
2679:-6.0230344790466850e-01
2680:-9.6399266388748162e-01
2681:-8.6123592730819487e-01
2682:-7.4001327671744677e-01
2683:-6.5114312497566373e-01
2684:-9.6965729151037894e-01
2685:-8.7645771665113326e-01
2686:-7.6274762680528119e-01
2687:-6.7821079304596477e-01
2688:-4.9806571735522281e-01
2689:-4.0492249089857096e-01
2690:-2.9954210235922740e-01
2691:-2.2926916153458832e-01
2692:-5.5088091628077618e-01
2693:-4.5977573178385511e-01
2694:-3.5294757158266904e-01
2695:-2.8087048348631088e-01
2696:-6.0369319304576818e-01
2697:-5.1747891341817298e-01
2698:-4.1329240450023608e-01
2699:-3.4158144726236206e-01
2700:-6.3323171058784156e-01
2701:-5.5153985909583247e-01
2702:-4.5220346999479000e-01
2703:-3.8280285100872496e-01
2704:-1.9492005683133862e-01
2705:-1.3493810486433505e-01
2706:-6.5673272311598682e-02
2707:-1.9870274636319945e-02
2708:-2.4602027499282905e-01
2709:-1.8577835455820163e-01
2710:-1.1634962901716332e-01
2711:-6.9596669301134603e-02
2712:-3.0671370749421212e-01
2713:-2.4644203884707860e-01
2714:-1.7652847206737859e-01
2715:-1.2860603914425575e-01
2716:-3.4852049832918963e-01
2717:-2.8865413931273576e-01
2718:-2.1831772567419683e-01
2719:-1.6960148649181223e-01
2720:1.8706179987192180e-03
2721:3.8290189810906948e-02
2722:7.8143975895471854e-02
2723:1.0354927101669051e-01
2724:-4.6801755270563176e-02
2725:-7.8340833928807387e-03
2726:3.5828731691385868e-02
2727:6.4054312682093995e-02
2728:-1.0479068850267681e-01
2729:-6.3519109199173959e-02
2730:-1.6472233622719268e-02
2731:1.4361246937541573e-02
2732:-1.4527745184411381e-01
2733:-1.0299021235626517e-01
2734:-5.4456775356355895e-02
2735:-2.2312226407272994e-02
2736:1.1551048773144768e-01
2737:1.3559469447299680e-01
2738:1.5724483549142551e-01
2739:1.7033437977048693e-01
2740:7.7349746916064388e-02
2741:9.9695282626766704e-02
2742:1.2407763670131085e-01
2743:1.3930319654708151e-01
2744:2.8976209006163035e-02
2745:5.3760411977004187e-02
2746:8.1399727126115123e-02
2747:9.9289862927853023e-02
2748:-6.9238772913433827e-03
2749:1.9444395351946003e-02
2750:4.9365567704015643e-02
2751:6.9129968630030139e-02
2752:1.7610156154618609e-01
2753:1.8536682165678550e-01
2754:1.9474693145060573e-01
2755:2.0004772091152434e-01
2756:1.4627783870500591e-01
2757:1.5781634631996763e-01
2758:1.7005148228655850e-01
2759:1.7736932067116537e-01
2760:1.0776354735386363e-01
2761:1.2203331805228891e-01
2762:1.3757499916969154e-01
2763:1.4718816006310856e-01
2764:7.8627323106562244e-02
2765:9.4722922062420695e-02
2766:1.1245578947540991e-01
2767:1.2362375651428652e-01
2768:2.0227050423912682e-01
2769:2.0555664744627714e-01
2770:2.0817262831055872e-01
2771:2.0891726764452764e-01
2772:1.8058255208140939e-01
2773:1.8559752275451863e-01
2774:1.9027911775445436e-01
2775:1.9251309010915302e-01
2776:1.5153298657639097e-01
2777:1.5859772740357919e-01
2778:1.6586035742255445e-01
2779:1.7002848030603945e-01
2780:1.2876244682729723e-01
2781:1.3730690690410419e-01
2782:1.4648078601279435e-01
2783:1.5208924388999445e-01
2784:2.0889239206410409e-01
2785:2.0839992237447350e-01
2786:2.0698074622180357e-01
2787:2.0532369054392377e-01
2788:1.9326235430615640e-01
2789:1.9416259296946781e-01
2790:1.9442312520800731e-01
2791:1.9393618203091798e-01
2792:1.7179603558903278e-01
2793:1.7450028380776531e-01
2794:1.7688897542449472e-01
2795:1.7786251725421134e-01
2796:1.5460935756599020e-01
2797:1.5863803517466998e-01
2798:1.6258708453896234e-01
2799:1.6464350584921941e-01
2800:2.0425251255292590e-01
2801:2.0200106716353775e-01
2802:1.9861527840277632e-01
2803:1.9567979370307900e-01
2804:1.9344409113906313e-01
2805:1.9220886339648435e-01
2806:1.9003006402391484e-01
2807:1.8794373805208556e-01
2808:1.7809135572438195e-01
2809:1.7814696869395086e-01
2810:1.7754902464348260e-01
2811:1.7660357776779742e-01
2812:1.6541549087262153e-01
2813:1.6645653764335547e-01
2814:1.6708114882607678e-01
2815:1.6702205791788888e-01
2816:1.9400349373057560e-01
2817:1.9078541554588085e-01
2818:1.8646373865311563e-01
2819:1.8304862173078335e-01
2820:1.8669732459209615e-01
2821:1.8424186904205195e-01
2822:1.8082782391778193e-01
2823:1.7804142367174164e-01
2824:1.7594118270946507e-01
2825:1.7451446797490969e-01
2826:1.7231161813944018e-01
2827:1.7035848375593279e-01
2828:1.6681236190964085e-01
2829:1.6618148934068189e-01
2830:1.6491706852887736e-01
2831:1.6361480393484540e-01
2832:1.8119277048819929e-01
2833:1.7769426371284316e-01
2834:1.7310144738713593e-01
2835:1.6955225793152934e-01
2836:1.7649719966041938e-01
2837:1.7354589689232280e-01
2838:1.6960034249119585e-01
2839:1.6650150450418610e-01
2840:1.6922710816717484e-01
2841:1.6700951099647734e-01
2842:1.6394803763432694e-01
2843:1.6147433193085922e-01
2844:1.6280906585662214e-01
2845:1.6117463791910810e-01
2846:1.5882164447377894e-01
2847:1.5685099522267990e-01
2848:1.6765137655554957e-01
2849:1.6411616079252178e-01
2850:1.5956370854590182e-01
2851:1.5610831162255065e-01
2852:1.6482603241088883e-01
2853:1.6168812628309451e-01
2854:1.5760501997923118e-01
2855:1.5447291192334503e-01
2856:1.6011419789325468e-01
2857:1.5753088458003839e-01
2858:1.5410094410881278e-01
2859:1.5141865170493460e-01
2860:1.5574463346655709e-01
2861:1.5360779096225435e-01
2862:1.5070538501122466e-01
2863:1.4838900151719095e-01
2864:1.5427661651257918e-01
2865:1.5087752250027983e-01
2866:1.4651181387663292e-01
2867:1.4320912868302035e-01
2868:1.5280106619718464e-01
2869:1.4968180732654265e-01
2870:1.4564462347839333e-01
2871:1.4256784890761112e-01
2872:1.4996977230284539e-01
2873:1.4724412605184758e-01
2874:1.4367508002431822e-01
2875:1.4092415841553624e-01
2876:1.4712281968452057e-01
2877:1.4472150407284237e-01
2878:1.4154084795837571e-01
2879:1.3906165523997630e-01
2880:1.4146260131152102e-01
2881:1.3822402571866074e-01
2882:1.3406692245404009e-01
2883:1.3092276309528098e-01
2884:1.4093322659197352e-01
2885:1.3789017039987511e-01
2886:1.3396080439700525e-01
2887:1.3097099659893752e-01
2888:1.3945204528524155e-01
2889:1.3669343335846279e-01
2890:1.3309661336924283e-01
2891:1.3033367404215707e-01
2892:1.3772535134670738e-01
2893:1.3520505030587462e-01
2894:1.3188846863660231e-01
2895:1.2931840375245310e-01
2896:1.2925934407294282e-01
2897:1.2616232448353107e-01
2898:1.2216086325501711e-01
2899:1.1911524292294857e-01
2900:1.2938297459366793e-01
2901:1.2641615475032456e-01
2902:1.2256368656009264e-01
2903:1.1961716183650492e-01
2904:1.2885720967397421e-01
2905:1.2608487742862048e-01
2906:1.2245852879890544e-01
2907:1.1966509087621961e-01
2908:1.2793751954271318e-01
2909:1.2533293279974464e-01
2910:1.2190358805665717e-01
2911:1.1924495299179397e-01
2912:1.1749706936773120e-01
2913:1.1446519304883032e-01
2914:1.1050887015758461e-01
2915:1.0746752156015878e-01
2916:1.1804674741960683e-01
2917:1.1509585540281590e-01
2918:1.1122882177221545e-01
2919:1.0824376945783136e-01
2920:1.1816940223649058e-01
2921:1.1534668425941098e-01
2922:1.1162413955017086e-01
2923:1.0873312364225057e-01
2924:1.1781555556304749e-01
2925:1.1510752129720919e-01
2926:1.1151641650048846e-01
2927:1.0871290091292425e-01
2928:1.0584052039508748e-01
2929:1.0276385254659713e-01
2930:9.8692673840876294e-02
2931:9.5520517385829298e-02
2932:1.0664262100333351e-01
2933:1.0360741999433133e-01
2934:9.9577053292860818e-02
2935:9.6426364740452283e-02
2936:1.0717643484385214e-01
2937:1.0421523019983818e-01
2938:1.0026361215714324e-01
2939:9.7160108692898955e-02
2940:1.0719839669026573e-01
2941:1.0430892066234386e-01
2942:1.0043683272920173e-01
2943:9.7383855168899969e-02
2944:9.3808402266562563e-02
2945:9.0536339975901048e-02
2946:8.6138546906376207e-02
2947:8.2660860235727746e-02
2948:9.4722340225052951e-02
2949:9.1459579750699710e-02
2950:8.7062653909111568e-02
2951:8.3577182165890523e-02
2952:9.5476724099205670e-02
2953:9.2244821533116736e-02
2954:8.7873163421323092e-02
2955:8.4395898078846107e-02
2956:9.5723825153984421e-02
2957:9.2529596308026180e-02
2958:8.8195463732958293e-02
2959:8.4738368207765563e-02
2960:8.0765821863578557e-02
2961:7.7104323886436316e-02
2962:7.2105299314703997e-02
2963:6.8094664122923074e-02
2964:8.1675070443291212e-02
2965:7.7995135521739353e-02
2966:7.2962138954011116e-02
2967:6.8918010531311358e-02
2968:8.2494331177871472e-02
2969:7.8808850632271998e-02
2970:7.3756089357138094e-02
2971:6.9687438038228675e-02
2972:8.2844627012972197e-02
2973:7.9168925480636976e-02
2974:7.4119622222086512e-02
2975:7.0046697913124012e-02
2976:6.5889298072886210e-02
2977:6.1586320860867023e-02
2978:5.5630654723146218e-02
2979:5.0793483147480403e-02
2980:6.6692206024441911e-02
2981:6.2346232138781973e-02
2982:5.6325485070545869e-02
2983:5.1431632253295827e-02
2984:6.7445333587038289e-02
2985:6.3063200238891615e-02
2986:5.6984628708669265e-02
2987:5.2038479404043346e-02
2988:6.7799949845869095e-02
2989:6.3405210333973908e-02
2990:5.7302867471948342e-02
2991:5.2333081391519432e-02
2992:4.8113358320630642e-02
2993:4.2841044915031302e-02
2994:3.5461079474982719e-02
2995:2.9407249741461312e-02
2996:4.8718929331883029e-02
2997:4.3381295009781953e-02
2998:3.5908028642924673e-02
2999:2.9776583913633522e-02
3000:4.9295167190818015e-02
3001:4.3895611677125190e-02
3002:3.6333088596622598e-02
3003:3.0126931788002208e-02
3004:4.9575347652094391e-02
3005:4.4146033581950878e-02
3006:3.6539751364221829e-02
3007:3.0296478367101767e-02
3008:2.6032928858861441e-02
3009:1.9357798741990711e-02
3010:9.9441265670495854e-03
3011:2.1717402945057194e-03
3012:2.6358781799931733e-02
3013:1.9598459823132557e-02
3014:1.0066773976672883e-02
3015:2.1987943207498750e-03
3016:2.6667182312792644e-02
3017:1.9825032555222957e-02
3018:1.0180927451764226e-02
3019:2.2227090847478513e-03
3020:2.6815791622304262e-02
3021:1.9933160346935624e-02
3022:1.0234390184797182e-02
3023:2.2331394211140033e-03
3024:-2.2434152166978020e-03
3025:-2.6144074189789102e-01
3026:-5.6277912987421164e-01
3027:-7.6413694746698146e-01
3028:7.5231345783202145e-03
3029:-2.3772368671555485e-01
3030:-5.1687488919594138e-01
3031:-7.0333747611510211e-01
3032:-2.9605969019790446e-02
3033:-2.3156399285233409e-01
3034:-4.6855105383063844e-01
3035:-6.3501107609128038e-01
3036:-6.1841726605078425e-02
3037:-2.2545671185474525e-01
3038:-4.2972690645106143e-01
3039:-5.8127045676997846e-01
3040:-8.6061012895475908e-01
3041:-1.0220839573361089e+00
3042:-1.1937156603288337e+00
3043:-1.2944865054173500e+00
3044:-7.9418674603879558e-01
3045:-9.5022167548757186e-01
3046:-1.1213744522919535e+00
3047:-1.2236852179163435e+00
3048:-7.1969427485808724e-01
3049:-8.6784686082445162e-01
3050:-1.0341208980860428e+00
3051:-1.1360868725237485e+00
3052:-6.6045287508679684e-01
3053:-7.9868553049236435e-01
3054:-9.5421152962422251e-01
3055:-1.0516392231804412e+00
3056:-1.3372025448359317e+00
3057:-1.4002328457704154e+00
3058:-1.4521929633120518e+00
3059:-1.4712325784516296e+00
3060:-1.2670208351673184e+00
3061:-1.3313012102333570e+00
3062:-1.3846612730022476e+00
3063:-1.4039959706534075e+00
3064:-1.1801060398532885e+00
3065:-1.2449673062200077e+00
3066:-1.2963669624061656e+00
3067:-1.3112715963616481e+00
3068:-1.0950220186757338e+00
3069:-1.1599372135802135e+00
3070:-1.2126016559980595e+00
3071:-1.2286980804094223e+00
3072:-1.4745151563689867e+00
3073:-1.4642158702202432e+00
3074:-1.4169322180071298e+00
3075:-1.3540747964011330e+00
3076:-1.4068139666803308e+00
3077:-1.3925980223577781e+00
3078:-1.3399718267154967e+00
3079:-1.2786058771002773e+00
3080:-1.3106743917331267e+00
3081:-1.2925724412534554e+00
3082:-1.2431525181044414e+00
3083:-1.1928191631379823e+00
3084:-1.2288735738532386e+00
3085:-1.2165896407466905e+00
3086:-1.1817267398804034e+00
3087:-1.1455463589979122e+00
3088:-1.3115596547758952e+00
3089:-1.2263398557760419e+00
3090:-1.1098418771951417e+00
3091:-1.0192814888790671e+00
3092:-1.2406095589159591e+00
3093:-1.1709941491071041e+00
3094:-1.0815584889698231e+00
3095:-1.0102164078752391e+00
3096:-1.1641430246471454e+00
3097:-1.1136343389697170e+00
3098:-1.0484324773896692e+00
3099:-9.9251261581937744e-01
3100:-1.1245294649653945e+00
3101:-1.0843376535261338e+00
3102:-1.0266616576764944e+00
3103:-9.7460774262301564e-01
3104:-9.7146142013468784e-01
3105:-8.8388176266731100e-01
3106:-7.7298625272817101e-01
3107:-6.8962272903995392e-01
3108:-9.7011916609226845e-01
3109:-8.9190151201761525e-01
3110:-7.8700308645179817e-01
3111:-7.0690818688386725e-01
3112:-9.5880955890442854e-01
3113:-8.9027588661875612e-01
3114:-7.9527956258043253e-01
3115:-7.2206370242173568e-01
3116:-9.4313555951064043e-01
3117:-8.8032730023737371e-01
3118:-7.9456382443634910e-01
3119:-7.2845955158935982e-01
3120:-6.4563550977094686e-01
3121:-5.6637105348923167e-01
3122:-4.7034231156376527e-01
3123:-4.0279369795382125e-01
3124:-6.6517101752687702e-01
3125:-5.9067757767727136e-01
3126:-5.0055983608158394e-01
3127:-4.3620772025276444e-01
3128:-6.8410096085486205e-01
3129:-6.1613756136666054e-01
3130:-5.3281837711834334e-01
3131:-4.7196003534819286e-01
3132:-6.9388416012927834e-01
3133:-6.3097341533023099e-01
3134:-5.5214532842550545e-01
3135:-4.9360256998596691e-01
3136:-3.6904038179985987e-01
3137:-3.0958417994101989e-01
3138:-2.3907703410647871e-01
3139:-1.9001528400822140e-01
3140:-4.0339854571295608e-01
3141:-3.4488635300382281e-01
3142:-2.7465189878997875e-01
3143:-2.2553070070301684e-01
3144:-4.4032980157997403e-01
3145:-3.8350836486337120e-01
3146:-3.1486350456702211e-01
3147:-2.6670793412866589e-01
3148:-4.6296891120384093e-01
3149:-4.0795069284394891e-01
3150:-3.4144712528904586e-01
3151:-2.9464094164907723e-01
3152:-1.6552565181502918e-01
3153:-1.2295367627123720e-01
3154:-7.3971803023416230e-02
3155:-4.1318816070962536e-02
3156:-2.0104112847073624e-01
3157:-1.5836941496310428e-01
3158:-1.0885958173413757e-01
3159:-7.5356469176276558e-02
3160:-2.4268945097048888e-01
3161:-2.0050927957224313e-01
3162:-1.5076888949100864e-01
3163:-1.1639404932407042e-01
3164:-2.7119158679884608e-01
3165:-2.2965441011345597e-01
3166:-1.8000067193576183e-01
3167:-1.4521519212098133e-01
3168:-2.5573197644941401e-02
3169:1.5705607234808537e-03
3170:3.2630220595527872e-02
3171:5.3304732388203220e-02
3172:-5.8970874100719266e-02
3173:-3.0496317480014537e-02
3174:2.4124641044007749e-03
3175:2.4505395471902898e-02
3176:-9.9310399436538160e-02
3177:-6.9462314193935629e-02
3178:-3.4756240025695467e-02
3179:-1.1320643147053227e-02
3180:-1.2778508085311222e-01
3181:-9.7270981940935086e-02
3182:-6.1679397882444975e-02
3183:-3.7526707937437433e-02
3184:6.3280904840868318e-02
3185:8.0227384367022633e-02
3186:9.9001864717380858e-02
3187:1.1094369982379251e-01
3188:3.5214048628884165e-02
3189:5.3511340611920748e-02
3190:7.4047744399381041e-02
3191:8.7375578790876846e-02
3192:8.5897485047546989e-05
3193:1.9765967563128681e-02
3194:4.2278318728405415e-02
3195:5.7256650933201161e-02
3196:-2.5713512829569397e-02
3197:-5.1679777900953084e-03
3198:1.8653904315847770e-02
3199:3.4744854250582116e-02
3200:1.1649446866317129e-01
3201:1.2581355421003051e-01
3202:1.3598450642330517e-01
3203:1.4233215128758051e-01
3204:9.3684983916649325e-02
3205:1.0440903381352994e-01
3206:1.1634330326926552e-01
3207:1.2396998502681889e-01
3208:6.4487765380194087e-02
3209:7.6889251229251374e-02
3210:9.0879487607251036e-02
3211:9.9977438541173469e-02
3212:4.2593869852907647e-02
3213:5.6111896018092688e-02
3214:7.1472811416725415e-02
3215:8.1569898945781483e-02
3216:1.4523204841059159e-01
3217:1.4993036875743526e-01
3218:1.5467896322349289e-01
3219:1.5730365036461852e-01
3220:1.2752037923244888e-01
3221:1.3338491531862703e-01
3222:1.3956724234007037e-01
3223:1.4323982237563199e-01
3224:1.0427611925932090e-01
3225:1.1151645543485277e-01
3226:1.1945181162104578e-01
3227:1.2444100006231855e-01
3228:8.6388390624487249e-02
3229:9.4603622428081124e-02
3230:1.0380518882528728e-01
3231:1.0975207106967523e-01
3232:1.5836658938381981e-01
3233:1.5993720295977604e-01
3234:1.6121718283274364e-01
3235:1.6162930032025882e-01
3236:1.4484722488485757e-01
3237:1.4740187855379802e-01
3238:1.4988467058222979e-01
3239:1.5115259546119159e-01
3240:1.2673976767363421e-01
3241:1.3053404062578106e-01
3242:1.3451591226456736e-01
3243:1.3684510241334497e-01
3244:1.1255255935094993e-01
3245:1.1724357809243173e-01
3246:1.2231114145102689e-01
3247:1.2541630098000947e-01
3248:1.6165829340120388e-01
3249:1.6144790514652493e-01
3250:1.6068351087133051e-01
3251:1.5973279772401136e-01
3252:1.5161320574837941e-01
3253:1.5217042932464367e-01
3254:1.5233374007871259e-01
3255:1.5204532299352946e-01
3256:1.3784184842599947e-01
3257:1.3936535504373068e-01
3258:1.4071884926747621e-01
3259:1.4129275368983296e-01
3260:1.2680965237679967e-01
3261:1.2905526903766898e-01
3262:1.3130762911094843e-01
3263:1.3253586179750232e-01
3264:1.5910495308080488e-01
3265:1.5778980603153181e-01
3266:1.5582458801460453e-01
3267:1.5412841433164373e-01
3268:1.5175533250298895e-01
3269:1.5104468642459090e-01
3270:1.4980968964625796e-01
3271:1.4862830277504738e-01
3272:1.4144526532930451e-01
3273:1.4152372907092925e-01
3274:1.4123822636661634e-01
3275:1.4072597306705772e-01
3276:1.3302393871910467e-01
3277:1.3370025197521598e-01
3278:1.3413545778969738e-01
3279:1.3413443424839980e-01
3280:1.5316003738188838e-01
3281:1.5126641739233337e-01
3282:1.4865302895902646e-01
3283:1.4653881191585574e-01
3284:1.4791845135629386e-01
3285:1.4648320533060810e-01
3286:1.4441976287531735e-01
3287:1.4269373686758421e-01
3288:1.4035307752562146e-01
3289:1.3952000741914083e-01
3290:1.3818718867737581e-01
3291:1.3698157757174037e-01
3292:1.3402086058113136e-01
3293:1.3365403420769056e-01
3294:1.3289074483519098e-01
3295:1.3209238146621777e-01
3296:1.4537426867906256e-01
3297:1.4315376632340396e-01
3298:1.4018995955061000e-01
3299:1.3786251955205128e-01
3300:1.4172531427696800e-01
3301:1.3985345189081339e-01
3302:1.3730723551447929e-01
3303:1.3527195915669182e-01
3304:1.3627712545014978e-01
3305:1.3487428824308775e-01
3306:1.3288993650006886e-01
3307:1.3124871774417052e-01
3308:1.3159463316619704e-01
3309:1.3055930019368328e-01
3310:1.2901644651436764e-01
3311:1.2768657657892463e-01
3312:1.3660202915828007e-01
3313:1.3421506298518734e-01
3314:1.3105607527977814e-01
3315:1.2859522956293176e-01
3316:1.3415756062486592e-01
3317:1.3202861676396488e-01
3318:1.2917670039165821e-01
3319:1.2693012830555001e-01
3320:1.3033202855019846e-01
3321:1.2855421483849935e-01
3322:1.2612359470531104e-01
3323:1.2417317950274909e-01
3324:1.2692693195029450e-01
3325:1.2542923682550108e-01
3326:1.2333656737055258e-01
3327:1.2162476367625631e-01
3328:1.2726877080017598e-01
3329:1.2476000000627706e-01
3330:1.2144366679537152e-01
3331:1.1886270129168007e-01
3332:1.2571088572871958e-01
3333:1.2339112346270699e-01
3334:1.2029823752323038e-01
3335:1.1787137523006162e-01
3336:1.2310272821717842e-01
3337:1.2104579802237062e-01
3338:1.1826487868503160e-01
3339:1.1605444613504272e-01
3340:1.2067444646077631e-01
3341:1.1883021219221082e-01
3342:1.1630295909769275e-01
3343:1.1426969299038740e-01
3344:1.1747161723726920e-01
3345:1.1483018621606356e-01
3346:1.1131612972999215e-01
3347:1.0856453498023128e-01
3348:1.1655655785505341e-01
3349:1.1404839581784948e-01
3350:1.1068988514448129e-01
3351:1.0804418409295348e-01
3352:1.1484731488697697e-01
3353:1.1252855241487388e-01
3354:1.0939345565858195e-01
3355:1.0690163687801166e-01
3356:1.1315121212187979e-01
3357:1.1098917217323011e-01
3358:1.0804041161454127e-01
3359:1.0567802119476583e-01
3360:1.0707531414706921e-01
3361:1.0422924666930544e-01
3362:1.0040614170698257e-01
3363:9.7385021520710852e-02
3364:1.0660691675220481e-01
3365:1.0385065016034184e-01
3366:1.0013014592534394e-01
3367:9.7176883361205890e-02
3368:1.0554049707914266e-01
3369:1.0291688932117889e-01
3370:9.9350237675530084e-02
3371:9.6500752059518830e-02
3372:1.0438129009144780e-01
3373:1.0187066625332294e-01
3374:9.8436652767908181e-02
3375:9.5678034716920587e-02
3376:9.5740022458845386e-02
3377:9.2570696822677601e-02
3378:8.8262845916257937e-02
3379:8.4821326668063537e-02
3380:9.5564373427604377e-02
3381:9.2449883858098117e-02
3382:8.8202078784213142e-02
3383:8.4798130047363821e-02
3384:9.4938761480664435e-02
3385:9.1911216921633537e-02
3386:8.7762144282855351e-02
3387:8.4423065030961891e-02
3388:9.4160840947610888e-02
3389:9.1211437482621616e-02
3390:8.7153239458062817e-02
3391:8.3875675187560311e-02
3392:8.2934339967448215e-02
3393:7.9268745357957193e-02
3394:7.4227779511095965e-02
3395:7.0157649093924732e-02
3396:8.2928307712932414e-02
3397:7.9290221885568335e-02
3398:7.4276317594545296e-02
3399:7.0220415548472748e-02
3400:8.2584166596422010e-02
3401:7.8998228916083074e-02
3402:7.4041418545711599e-02
3403:7.0021277340910404e-02
3404:8.2066819813255518e-02
3405:7.8532956002480933e-02
3406:7.3636169325162412e-02
3407:6.9656307473542525e-02
3408:6.7911168367205926e-02
3409:6.3514994506977687e-02
3410:5.7407181499746787e-02
3411:5.2430568144481382e-02
3412:6.7979322883622781e-02
3413:6.3589925267139885e-02
3414:5.7484832631954572e-02
3415:5.2505867865501155e-02
3416:6.7796582766256427e-02
3417:6.3434183544801431e-02
3418:5.7357546793638033e-02
3419:5.2395578362985369e-02
3420:6.7451202738498459e-02
3421:6.3123100749982675e-02
3422:5.7086922137204815e-02
3423:5.2152994367185825e-02
3424:4.9668322137183293e-02
3425:4.4229362657811536e-02
3426:3.6608411568080965e-02
3427:3.0352427414082925e-02
3428:4.9740922093347323e-02
3429:4.4295177326397595e-02
3430:3.6662490063076689e-02
3431:3.0395579352873719e-02
3432:4.9638173398016947e-02
3433:4.4205281525902099e-02
3434:3.6587580326925384e-02
3435:3.0331221858557363e-02
3436:4.9409644929518610e-02
3437:4.4002839260563947e-02
3438:3.6419284482756338e-02
3439:3.0189568067638489e-02
3440:2.6864516586702549e-02
3441:1.9968111099986086e-02
3442:1.0251254314047376e-02
3443:2.2362316595532844e-03
3444:2.6901313027662393e-02
3445:1.9993343009605077e-02
3446:1.0262776605405395e-02
3447:2.2386817472054704e-03
3448:2.6842484027233281e-02
3449:1.9946821720901370e-02
3450:1.0237133526491089e-02
3451:2.2333116350494848e-03
3452:2.6715403432664608e-02
3453:1.9849643634888524e-02
3454:1.0184883695621580e-02
3455:2.2205347521934058e-03
3456:-7.0152706915932034e-02
3457:-2.1607187761674129e-01
3458:-4.0579753148352371e-01
3459:-5.4983991338473048e-01
3460:-6.6918081627414736e-02
3461:-1.9261301001796383e-01
3462:-3.6361258056753493e-01
3463:-4.9532840638148545e-01
3464:-4.2797589648220377e-02
3465:-1.6106178821291955e-01
3466:-3.1942786847803994e-01
3467:-4.3814088667407780e-01
3468:-2.4166096767655892e-02
3469:-1.4416249655455068e-01
3470:-2.9694651025359659e-01
3471:-4.0757957595545891e-01
3472:-6.2539080462265006e-01
3473:-7.5624359049220558e-01
3474:-9.0286566295491888e-01
3475:-9.9588159772516927e-01
3476:-5.6391165839343127e-01
3477:-6.8127747913359593e-01
3478:-8.1239877587387943e-01
3479:-8.9766106092651932e-01
3480:-4.9849903601991863e-01
3481:-6.0154006564902729e-01
3482:-7.1787230698095006e-01
3483:-7.9568390100128861e-01
3484:-4.6310370587237082e-01
3485:-5.5912383565015178e-01
3486:-6.6963254317463117e-01
3487:-7.4438903246701316e-01
3488:-1.0382691597003526e+00
3489:-1.1031871299589571e+00
3490:-1.1589112452349239e+00
3491:-1.1793236958983229e+00
3492:-9.3807613663031975e-01
3493:-1.0027504064375350e+00
3494:-1.0642360229880048e+00
3495:-1.0932789923368607e+00
3496:-8.3376292897101556e-01
3497:-8.9712130256992417e-01
3498:-9.6283337619941201e-01
3499:-9.9963728960983611e-01
3500:-7.8101517889684868e-01
3501:-8.4217465724978935e-01
3502:-9.0655974879460732e-01
3503:-9.4392178326563925e-01
3504:-1.1824805339755966e+00
3505:-1.1781414055354018e+00
3506:-1.1558544524574936e+00
3507:-1.1285152071089302e+00
3508:-1.1024458190422202e+00
3509:-1.1120843669130842e+00
3510:-1.1096063440982569e+00
3511:-1.0951076077804542e+00
3512:-1.0144435028224115e+00
3513:-1.0355323179232916e+00
3514:-1.0474960425683597e+00
3515:-1.0419855913825011e+00
3516:-9.5959902190527135e-01
3517:-9.8185191385194581e-01
3518:-9.9507281471170306e-01
3519:-9.9126764236306941e-01
3520:-1.1110929823415079e+00
3521:-1.0740504230873373e+00
3522:-1.0162272295686097e+00
3523:-9.6363206128002854e-01
3524:-1.0825758395965766e+00
3525:-1.0500552050824099e+00
3526:-9.9313523388706904e-01
3527:-9.4135643361918997e-01
3528:-1.0330466992314280e+00
3529:-1.0058872915500563e+00
3530:-9.5525387417837460e-01
3531:-9.0940163088468673e-01
3532:-9.8384652652591753e-01
3533:-9.6171913942138232e-01
3534:-9.2060303178845848e-01
3535:-8.8288510697125966e-01
3536:-9.3257861291568733e-01
3537:-8.7236970974125450e-01
3538:-7.9202003474168325e-01
3539:-7.3018633605247163e-01
3540:-9.1194442213654114e-01
3541:-8.5711215454979561e-01
3542:-7.8600352515443350e-01
3543:-7.3096192487901490e-01
3544:-8.8396304098912282e-01
3545:-8.3700268827893376e-01
3546:-7.7578986763396096e-01
3547:-7.2720588231911909e-01
3548:-8.6159842519424734e-01
3549:-8.2096060222709144e-01
3550:-7.6569701550017111e-01
3551:-7.2061968890392836e-01
3552:-6.9750168057448181e-01
3553:-6.3721562543644106e-01
3554:-5.6054904075530421e-01
3555:-5.0319323390424031e-01
3556:-7.0121655204494759e-01
3557:-6.4526086034103347e-01
3558:-5.7275402081573723e-01
3559:-5.1813310687118119e-01
3560:-7.0029515033242706e-01
3561:-6.4918880053723782e-01
3562:-5.8254943806357917e-01
3563:-5.3234517795398462e-01
3564:-6.9544175433191657e-01
3565:-6.4786812431594631e-01
3566:-5.8618110116085731e-01
3567:-5.3976332781276326e-01
3568:-4.7317455856203222e-01
3569:-4.1934443751077100e-01
3570:-3.5428059874195439e-01
3571:-3.0833320792781732e-01
3572:-4.8960010110791430e-01
3573:-4.3840347068619717e-01
3574:-3.7618054951168428e-01
3575:-3.3174712145199037e-01
3576:-5.0618191133777801e-01
3577:-4.5885645051361840e-01
3578:-4.0038253650036332e-01
3579:-3.5779099591079866e-01
3580:-5.1551137232936428e-01
3581:-4.7115964699212581e-01
3582:-4.1545478546435738e-01
3583:-3.7428977407583763e-01
3584:-2.8520832079914155e-01
3585:-2.4404115927378409e-01
3586:-1.9450534050927962e-01
3587:-1.5961982396836996e-01
3588:-3.0914498557109971e-01
3589:-2.6864301415678138e-01
3590:-2.1953842128315743e-01
3591:-1.8477049288792177e-01
3592:-3.3582026783101809e-01
3593:-2.9630502245028462e-01
3594:-2.4824390522315939e-01
3595:-2.1413462629283350e-01
3596:-3.5289417143493118e-01
3597:-3.1439961150030937e-01
3598:-2.6755369626198577e-01
3599:-2.3423501785139994e-01
3600:-1.4209812192937524e-01
3601:-1.1139733161800222e-01
3602:-7.5508891186616925e-02
3603:-5.1057528684315172e-02
3604:-1.6726990002989692e-01
3605:-1.3650411355972314e-01
3606:-1.0027946653578045e-01
3607:-7.5344274541083514e-02
3608:-1.9693874960673913e-01
3609:-1.6649229020754305e-01
3610:-1.3016721463187952e-01
3611:-1.0477232372709823e-01
3612:-2.1738920502462439e-01
3613:-1.8736063663746536e-01
3614:-1.5114990365519368e-01
3615:-1.2556666158490104e-01
3616:-3.9051215588606511e-02
3617:-1.8084613434895824e-02
3618:6.3725221383454638e-03
3619:2.2990791333778061e-02
3620:-6.2994696087457919e-02
3621:-4.1308404148460931e-02
3622:-1.5819187747448782e-02
3623:1.6272882221456070e-03
3624:-9.2055997226061240e-02
3625:-6.9633471386895088e-02
3626:-4.3138383966324440e-02
3627:-2.4897844901786276e-02
3628:-1.1267466684674864e-01
3629:-8.9901252699538706e-02
3630:-6.2911731605660395e-02
3631:-4.4247768961723437e-02
3632:3.1126167141446743e-02
3633:4.5164271248885196e-02
3634:6.1178743282248253e-02
3635:7.1770267783512101e-02
3636:1.0206879608604551e-02
3637:2.5078285353079106e-02
3638:4.2195309405831931e-02
3639:5.3658299798364228e-02
3640:-1.5888083607034035e-02
3641:-1.5849907665768843e-04
3642:1.8183796455865986e-02
3643:3.0664274718428558e-02
3644:-3.4990398983646302e-02
3645:-1.8732347701200910e-02
3646:4.0895227746851916e-04
3647:1.3567180109596517e-02
3648:7.6853709928957167e-02
3649:8.5569128014230278e-02
3650:9.5420035565777800e-02
3651:1.0185391857608234e-01
3652:5.9218398748486993e-02
3653:6.8825189402152015e-02
3654:7.9815892520831169e-02
3655:8.7095053783507792e-02
3656:3.6790285046460813e-02
3657:4.7443037749473380e-02
3658:5.9752785434841006e-02
3659:6.8006090740592884e-02
3660:2.0069696212752466e-02
3661:3.1414838263380561e-02
3662:4.4600362423437456e-02
3663:5.3511450892554872e-02
3664:1.0490720831644162e-01
3665:1.1005090747634369e-01
3666:1.1567168635147390e-01
3667:1.1917849995453828e-01
3668:9.0585476998326586e-02
3669:9.6521630349649279e-02
3670:1.0313029288402487e-01
3671:1.0736715882970500e-01
3672:7.2002599310920221e-02
3673:7.8874098788540542e-02
3674:8.6679366688894727e-02
3675:9.1817198005025122e-02
3676:5.7856303333408569e-02
3677:6.5382728702051529e-02
3678:7.4040383943472649e-02
3679:7.9824853864073689e-02
3680:1.2077987763304615e-01
3681:1.2340572415221696e-01
3682:1.2613198105695644e-01
3683:1.2770425639041916e-01
3684:1.0934998330165142e-01
3685:1.1267062962730355e-01
3686:1.1625797931592109e-01
3687:1.1845303892933043e-01
3688:9.4273980547183542e-02
3689:9.8454305165656050e-02
3690:1.0310232968457125e-01
3691:1.0606468257653887e-01
3692:8.2621608639343980e-02
3693:8.7417652692496142e-02
3694:9.2827071421878557e-02
3695:9.6344860780736646e-02
3696:1.2836810679072366e-01
3697:1.2935797122113135e-01
3698:1.3017308855206181e-01
3699:1.3044380819211329e-01
3700:1.1943487303918883e-01
3701:1.2099563191763865e-01
3702:1.2250956483026959e-01
3703:1.2328476620496343e-01
3704:1.0743974648196715e-01
3705:1.0971323081566016e-01
3706:1.1211095731183165e-01
3707:1.1353049589366331e-01
3708:9.8007231545865575e-02
3709:1.0080566385636626e-01
3710:1.0386006451292512e-01
3711:1.0576062788451436e-01
3712:1.3046905842537446e-01
3713:1.3035247436516928e-01
3714:1.2989539277987136e-01
3715:1.2931594892732065e-01
3716:1.2356896425713262e-01
3717:1.2391867766797468e-01
3718:1.2403121947415915e-01
3719:1.2385876146180450e-01
3720:1.1414674325648089e-01
3721:1.1509376477639123e-01
3722:1.1593557222593880e-01
3723:1.1628516445683634e-01
3724:1.0662490994813291e-01
3725:1.0801821342146017e-01
3726:1.0940628002777336e-01
3727:1.1014909219212186e-01
3728:1.2892919195656830e-01
3729:1.2809144713060655e-01
3730:1.2678681700216241e-01
3731:1.2562584320645290e-01
3732:1.2367846817450892e-01
3733:1.2320970109530706e-01
3734:1.2235265813524522e-01
3735:1.2151083769081304e-01
3736:1.1637053769288848e-01
3737:1.1637917798777184e-01
3738:1.1610574608528400e-01
3739:1.1568275339392549e-01
3740:1.1043567688233481e-01
3741:1.1080757139728882e-01
3742:1.1098066102822687e-01
3743:1.1087934207135469e-01
3744:1.2495176652875287e-01
3745:1.2360701605548073e-01
3746:1.2169927322821994e-01
3747:1.2011822751903768e-01
3748:1.2099896842273776e-01
3749:1.1994424063776127e-01
3750:1.1838734283616542e-01
3751:1.1705466646189516e-01
3752:1.1538441108378480e-01
3753:1.1471173222847010e-01
3754:1.1361778855245754e-01
3755:1.1261386855296111e-01
3756:1.1074522627011481e-01
3757:1.1036676179072848e-01
3758:1.0963043508691313e-01
3759:1.0888166207540820e-01
3760:1.1923378097500524e-01
3761:1.1750638025925068e-01
3762:1.1511898536706137e-01
3763:1.1318387870185222e-01
3764:1.1629551333091431e-01
3765:1.1479100868230882e-01
3766:1.1267172214877030e-01
3767:1.1092570975232252e-01
3768:1.1202107644959089e-01
3769:1.1081375135800915e-01
3770:1.0905413536417688e-01
3771:1.0756329677390773e-01
3772:1.0841851040142521e-01
3773:1.0744357953483191e-01
3774:1.0596657542399836e-01
3775:1.0467710629212836e-01
3776:1.1211470547889989e-01
3777:1.1004007330116217e-01
3778:1.0719565433640441e-01
3779:1.0490604499150154e-01
3780:1.0995181796754459e-01
3781:1.0804638644817666e-01
3782:1.0540453975267736e-01
3783:1.0325675532257494e-01
3784:1.0671844260178361e-01
3785:1.0504273575998148e-01
3786:1.0267715959633240e-01
3787:1.0072391185566566e-01
3788:1.0393433787406593e-01
3789:1.0244084311835962e-01
3790:1.0029544035785611e-01
3791:9.8498156412431120e-02
3792:1.0364564061944097e-01
3793:1.0119898892516871e-01
3794:9.7840611459347693e-02
3795:9.5134268818884010e-02
3796:1.0206735667217610e-01
3797:9.9746260011440782e-02
3798:9.6537357672522084e-02
3799:9.3935135156706567e-02
3800:9.9632366626904473e-02
3801:9.7485231603751304e-02
3802:9.4485256671698339e-02
3803:9.2029979154682140e-02
3804:9.7485432294240781e-02
3805:9.5479058569733169e-02
3806:9.2649343143101651e-02
3807:9.0314734223933921e-02
3808:9.3643025539206878e-02
3809:9.0739197646788061e-02
3810:8.6734623077389286e-02
3811:8.3493871274090553e-02
3812:9.2495874479448056e-02
3813:8.9683835732633319e-02
3814:8.5788271579796821e-02
3815:8.2623207723977132e-02
3816:9.0664589457089162e-02
3817:8.7983885673886097e-02
3818:8.4246142865306434e-02
3819:8.1192203369169297e-02
3820:8.9010334752753995e-02
3821:8.6438692122981040e-02
3822:8.2833301035407786e-02
3823:7.9873627391630245e-02
3824:8.1703193454243109e-02
3825:7.8201227579057050e-02
3826:7.3342021049698669e-02
3827:6.9388065072518615e-02
3828:8.0870237157938035e-02
3829:7.7435097195133071e-02
3830:7.2655955061232388e-02
3831:6.8758279605838177e-02
3832:7.9495192401696946e-02
3833:7.6160358224388366e-02
3834:7.1503657889131142e-02
3835:6.7693864597288711e-02
3836:7.8224495195945293e-02
3837:7.4976213045519019e-02
3838:7.0426603055448705e-02
3839:6.6694802526985786e-02
3840:6.7195826953515073e-02
3841:6.2890705454694287e-02
3842:5.6882534626968267e-02
3843:5.1968741330900736e-02
3844:6.6594401462845912e-02
3845:6.2340612348042210e-02
3846:5.6396329434218309e-02
3847:5.1529500578492447e-02
3848:6.5574935580486771e-02
3849:6.1403611852593590e-02
3850:5.5564099124533549e-02
3851:5.0775923658484268e-02
3852:6.4616170590804073e-02
3853:6.0519453317555996e-02
3854:5.4776017116205257e-02
3855:5.0060939695718260e-02
3856:4.9235744103994478e-02
3857:4.3848455760951935e-02
3858:3.6290938902705447e-02
3859:3.0081842237415998e-02
3860:4.8821011221492246e-02
3861:4.3480352948248320e-02
3862:3.5985719293533724e-02
3863:2.9826828635476716e-02
3864:4.8109036122637693e-02
3865:4.2848164773917521e-02
3866:3.5462117701627667e-02
3867:2.9390512349575997e-02
3868:4.7433039291158711e-02
3869:4.2247287629153009e-02
3870:3.4964007568086299e-02
3871:2.8975321848192084e-02
3872:2.6619021427858408e-02
3873:1.9776276810344079e-02
3874:1.0145453521048299e-02
3875:2.2104018944243521e-03
3876:2.6391714430448774e-02
3877:1.9604865699125413e-02
3878:1.0055661790236575e-02
3879:2.1904079331569177e-03
3880:2.6003688935703966e-02
3881:1.9313791749306083e-02
3882:9.9049679523740119e-03
3883:2.1587706265913547e-03
3884:2.5634436058004188e-02
3885:1.9036495149468279e-02
3886:9.7601417284654910e-03
3887:2.1257287200855436e-03
3888:-1.8612739618710235e-02
3889:-1.3976175517602332e-01
3890:-2.8944653209632182e-01
3891:-3.9627111707912449e-01
3892:-1.6490859462207724e-02
3893:-1.3443157746622852e-01
3894:-2.7567787810431682e-01
3895:-3.7565931915564216e-01
3896:-2.2456514730651852e-02
3897:-1.2798286426602506e-01
3898:-2.5484176088179011e-01
3899:-3.4631989111777889e-01
3900:-2.7198036884672747e-02
3901:-1.1992246465064442e-01
3902:-2.3509788773883497e-01
3903:-3.2032698757893618e-01
3904:-4.4993589545811058e-01
3905:-5.4389024410805809e-01
3906:-6.5339253525490915e-01
3907:-7.2750077990246098e-01
3908:-4.2642422456753731e-01
3909:-5.1690180046885670e-01
3910:-6.2400252786944976e-01
3911:-6.9629026513626446e-01
3912:-3.9372029652109197e-01
3913:-4.7896955937986485e-01
3914:-5.8043311541507037e-01
3915:-6.4867783394945910e-01
3916:-3.6495426750075766e-01
3917:-4.4486604342317582e-01
3918:-5.3959773647786258e-01
3919:-6.0351069941239954e-01
3920:-7.6348843414823209e-01
3921:-8.2297304133533355e-01
3922:-8.8465727849047060e-01
3923:-9.1988808122575449e-01
3924:-7.3085900954840599e-01
3925:-7.8708642579155375e-01
3926:-8.4393018109887474e-01
3927:-8.7542744636308822e-01
3928:-6.8103369441110750e-01
3929:-7.3345372047862734e-01
3930:-7.8621640618772870e-01
3931:-8.1534871459364200e-01
3932:-6.3405996943120291e-01
3933:-6.8435131163974072e-01
3934:-7.3652990534215679e-01
3935:-7.6659432704463459e-01
3936:-9.3446617412428901e-01
3937:-9.5430300267789248e-01
3938:-9.6484119902434828e-01
3939:-9.6053451019535374e-01
3940:-8.8809297306522739e-01
3941:-9.0416631736167596e-01
3942:-9.1117204818823627e-01
3943:-9.0691884960296842e-01
3944:-8.2704082814609592e-01
3945:-8.4185792973981366e-01
3946:-8.4918485836980728e-01
3947:-8.4747228682735165e-01
3948:-7.7919317365609009e-01
3949:-7.9651274153704332e-01
3950:-8.0817597889496040e-01
3951:-8.1011722870614267e-01
3952:-9.5377683640238942e-01
3953:-9.3495119030954665e-01
3954:-9.0051284837606405e-01
3955:-8.6814537832362482e-01
3956:-9.0168585750522268e-01
3957:-8.8853982594100345e-01
3958:-8.6457734500475658e-01
3959:-8.4032936319759199e-01
3960:-8.4461103528672044e-01
3961:-8.3718396229147152e-01
3962:-8.2185963661674555e-01
3963:-8.0405261525948268e-01
3964:-8.0913910465677519e-01
3965:-8.0453989389783787e-01
3966:-7.9205777563536361e-01
3967:-7.7638121585518294e-01
3968:-8.4929964076132181e-01
3969:-8.1197680955732465e-01
3970:-7.5936219711557640e-01
3971:-7.1582359544524743e-01
3972:-8.2515801299783187e-01
3973:-7.9311864526621878e-01
3974:-7.4543256862047891e-01
3975:-7.0527826349502687e-01
3976:-7.9194573119201972e-01
3977:-7.6518707194221225e-01
3978:-7.2406711554873926e-01
3979:-6.8917454925092014e-01
3980:-7.6559050662237427e-01
3981:-7.4200394491176980e-01
3982:-7.0604555567913196e-01
3983:-6.7551181178517705e-01
3984:-6.9153217504223707e-01
3985:-6.4591151911647737e-01
3986:-5.8703098481206606e-01
3987:-5.4267051857291770e-01
3988:-6.8296905540886244e-01
3989:-6.4128361028851666e-01
3990:-5.8746198483736001e-01
3991:-5.4651932764710098e-01
3992:-6.6985256938603832e-01
3993:-6.3345553564192958e-01
3994:-5.8559436370798845e-01
3995:-5.4834866770116297e-01
3996:-6.5851280355948649e-01
3997:-6.2592214038583682e-01
3998:-5.8202516745602673e-01
3999:-5.4721951313012196e-01
4000:-5.1939023509145499e-01
4001:-4.7652202746394101e-01
4002:-4.2222246727488044e-01
4003:-3.8186557189686648e-01
4004:-5.2478496842025912e-01
4005:-4.8439304461300881e-01
4006:-4.3272430916040516e-01
4007:-3.9410950697872121e-01
4008:-5.2825507066954314e-01
4009:-4.9074822119564826e-01
4010:-4.4262561096216568e-01
4011:-4.0662578885416567e-01
4012:-5.2828103306695684e-01
4013:-4.9297317213699104e-01
4014:-4.4774431367390821e-01
4015:-4.1389415931681378e-01
4016:-3.6084942629452510e-01
4017:-3.2304191320638126e-01
4018:-2.7699549496046022e-01
4019:-2.4416189440002301e-01
4020:-3.7397559714576173e-01
4021:-3.3768255782630402e-01
4022:-2.9324758439522408e-01
4023:-2.6130493443355901e-01
4024:-3.8785238600317717e-01
4025:-3.5378303301479835e-01
4026:-3.1154809028527697e-01
4027:-2.8075669415440596e-01
4028:-3.9620536490568053e-01
4029:-3.6386241543284781e-01
4030:-3.2331036491873011e-01
4031:-2.9344088284068437e-01
4032:-2.2751283117947346e-01
4033:-1.9772626810856270e-01
4034:-1.6162608118097432e-01
4035:-1.3601215945952852e-01
4036:-2.4499387334147257e-01
4037:-2.1566470777143271e-01
4038:-1.7989355862615125e-01
4039:-1.5438322244122141e-01
4040:-2.6488132878232168e-01
4041:-2.3623801667608257e-01
4042:-2.0116732521568659e-01
4043:-1.7606607503223315e-01
4044:-2.7795407043253673e-01
4045:-2.4998359996055444e-01
4046:-2.1568007275671378e-01
4047:-1.9105787535142130e-01
4048:-1.2307714083489898e-01
4049:-1.0020859550409494e-01
4050:-7.3055094320757269e-02
4051:-5.4218690201553649e-02
4052:-1.4146745430184718e-01
4053:-1.1857173412128819e-01
4054:-9.1238148661492061e-02
4055:-7.2135053196663260e-02
4056:-1.6332569798876254e-01
4057:-1.4061953616357528e-01
4058:-1.1325364911222388e-01
4059:-9.3918443270435373e-02
4060:-1.7852457239618558e-01
4061:-1.5607475697851492e-01
4062:-1.2880653551795773e-01
4063:-1.0939318370618187e-01
4064:-4.4848162972271156e-02
4065:-2.8340515204686251e-02
4066:-8.8174420067994464e-03
4067:4.6615611564676217e-03
4068:-6.2573551676255820e-02
4069:-4.5653611099597105e-02
4070:-2.5516892050542580e-02
4071:-1.1529846184505100e-02
4072:-8.4166185803470767e-02
4073:-6.6843211739671379e-02
4074:-4.6117309647473202e-02
4075:-3.1638388988747046e-02
4076:-9.9556459517907189e-02
4077:-8.2050372492483981e-02
4078:-6.1039419815090111e-02
4079:-4.6298982848848085e-02
4080:1.1339845007920124e-02
4081:2.3009426408442408e-02
4082:3.6612524169066234e-02
4083:4.5846049316378340e-02
4084:-4.5738289904621128e-03
4085:7.6222223539773584e-03
4086:2.1930191477788130e-02
4087:3.1725583533620372e-02
4088:-2.4407792323010886e-02
4089:-1.1663695473663102e-02
4090:3.4244981251208570e-03
4091:1.3866466280963202e-02
4092:-3.8911140628566016e-02
4093:-2.5833045881621709e-02
4094:-1.0242485785123155e-02
4095:6.2560020012973887e-04
4096:5.0365473034507766e-02
4097:5.8222681482965714e-02
4098:6.7312532078559459e-02
4099:7.3424038188209778e-02
4100:3.6553612777621626e-02
4101:4.4992694957145585e-02
4102:5.4837173186069364e-02
4103:6.1517263878110129e-02
4104:1.9054246412866339e-02
4105:2.8167314435586281e-02
4106:3.8880815682843316e-02
4107:4.6216997068463814e-02
4108:6.0509329514365278e-03
4109:1.5608229837292735e-02
4110:2.6897726555380815e-02
4111:3.4675792259051152e-02
4112:7.6391922156912387e-02
4113:8.1498359697800463e-02
4114:8.7294171117318936e-02
4115:9.1096941700637882e-02
4116:6.4782632979679622e-02
4117:7.0433654877671587e-02
4118:7.6917003520524538e-02
4119:8.1233062134432113e-02
4120:4.9827940480865258e-02
4121:5.6121070783778843e-02
4122:6.3430955130056796e-02
4123:6.8372742443526216e-02
4124:3.8523302985661874e-02
4125:4.5262270915945722e-02
4126:5.3154641248163464e-02
4127:5.8540825545199029e-02
4128:9.2908090961482406e-02
4129:9.5979400044036878e-02
4130:9.9376084408249077e-02
4131:1.0152738306196442e-01
4132:8.3313790947002767e-02
4133:8.6878912331670791e-02
4134:9.0893784115100268e-02
4135:9.3497632834637079e-02
4136:7.0783858779668862e-02
4137:7.4953312667434061e-02
4138:7.9724224986760017e-02
4139:8.2882965442633461e-02
4140:6.1186841053083529e-02
4141:6.5786097120816470e-02
4142:7.1096627387664341e-02
4143:7.4654447230592225e-02
4144:1.0252077574318018e-01
4145:1.0414667620327905e-01
4146:1.0582054521680413e-01
4147:1.0677030153618335e-01
4148:9.4724238602581307e-02
4149:9.6772224653475764e-02
4150:9.8968417580611895e-02
4151:1.0029880912910506e-01
4152:8.4396674206877201e-02
4153:8.6967920590951847e-02
4154:8.9817804670136919e-02
4155:9.1628149721010049e-02
4156:7.6376172992543234e-02
4157:7.9328930458220578e-02
4158:8.2658890802446788e-02
4159:8.4823377696047433e-02
4160:1.0716329709094354e-01
4161:1.0772774406027234e-01
4162:1.0813804783834861e-01
4163:1.0820780338634667e-01
4164:1.0088819691884660e-01
4165:1.0180805514673281e-01
4166:1.0265626442794529e-01
4167:1.0304208495595710e-01
4168:9.2466016355661595e-02
4169:9.3835736759934840e-02
4170:9.5238961080951520e-02
4171:9.6026522069922737e-02
4172:8.5844867873243025e-02
4173:8.7547436278337193e-02
4174:8.9362618107793404e-02
4175:9.0449866973280141e-02
4176:1.0816103790126715e-01
4177:1.0793927165361913e-01
4178:1.0739397852115863e-01
4179:1.0678204983831348e-01
4180:1.0315688630113351e-01
4181:1.0322578487049844e-01
4182:1.0303642478710602e-01
4183:1.0268055407949650e-01
4184:9.6347302237763457e-02
4185:9.6788311621358605e-02
4186:9.7057334411468299e-02
4187:9.7032963800647729e-02
4188:9.0924977593791340e-02
4189:9.1645827857907855e-02
4190:9.2261215389874154e-02
4191:9.2488298539252556e-02
4192:1.0638865047796889e-01
4193:1.0553899504861579e-01
4194:1.0421470029144009e-01
4195:1.0303426489350116e-01
4196:1.0241800103525969e-01
4197:1.0180356207274315e-01
4198:1.0076641154350867e-01
4199:9.9791389553282178e-02
4200:9.6940296081249350e-02
4201:9.6631708799097549e-02
4202:9.5968935037338970e-02
4203:9.5262691892981408e-02
4204:9.2524744536775214e-02
4205:9.2449028769517480e-02
4206:9.2072285143537158e-02
4207:9.1572306782402829e-02
4208:1.0234683814702748e-01
4209:1.0095230400020866e-01
4210:9.8926885350572799e-02
4211:9.7214946444116920e-02
4212:9.9208395678937522e-02
4213:9.8001072973289027e-02
4214:9.6203547436300635e-02
4215:9.4654385546657796e-02
4216:9.4816756696503579e-02
4217:9.3856003081867631e-02
4218:9.2360253018947014e-02
4219:9.1027811447116802e-02
4220:9.1231923059249292e-02
4221:9.0461658516030441e-02
4222:8.9200120167283070e-02
4223:8.8036631188044168e-02
4224:9.6245489678262505e-02
4225:9.4316583207843210e-02
4226:9.1580939101478701e-02
4227:8.9313282672860747e-02
4228:9.3767679823082484e-02
4229:9.1987242210985060e-02
4230:8.9432504635451937e-02
4231:8.7294114608891818e-02
4232:9.0251667294195273e-02
4233:8.8670189117673881e-02
4234:8.6359095860114157e-02
4235:8.4395820085182482e-02
4236:8.7346926536473440e-02
4237:8.5921453407793294e-02
4238:8.3802351053360466e-02
4239:8.1977855869281205e-02
4240:8.8042824249977961e-02
4241:8.5532082769042173e-02
4242:8.2001029933448669e-02
4243:7.9094655940445388e-02
4244:8.6089384958480800e-02
4245:8.3697000716619827e-02
4246:8.0311250877228110e-02
4247:7.7509705429363820e-02
4248:8.3280524717810500e-02
4249:8.1049951991480920e-02
4250:7.7864353346747323e-02
4251:7.5208361976720747e-02
4252:8.0933739042380562e-02
4253:7.8832478502234474e-02
4254:7.5807850057703394e-02
4255:7.3269695861580719e-02
4256:7.7472727126152663e-02
4257:7.4273844897130972e-02
4258:6.9785791328878993e-02
4259:6.6099158643213696e-02
4260:7.5941511459437089e-02
4261:7.2840598882770377e-02
4262:6.8475390176524514e-02
4263:6.4879498210297773e-02
4264:7.3715188532227582e-02
4265:7.0751763261069217e-02
4266:6.6560349606707966e-02
4267:6.3093928258450754e-02
4268:7.1837531077289851e-02
4269:6.8986407286111814e-02
4270:6.4937925807835084e-02
4271:6.1578741474988499e-02
4272:6.4043983713848354e-02
4273:5.9990896278444741e-02
4274:5.4304027468932148e-02
4275:4.9632271761130366e-02
4276:6.2871663849055404e-02
4277:5.8906999969370107e-02
4278:5.3335467373624261e-02
4279:4.8752543004213993e-02
4280:6.1154031325509471e-02
4281:5.7316910782825213e-02
4282:5.1912941899656583e-02
4283:4.7459938076870739e-02
4284:5.9695383087522556e-02
4285:5.5964828839051836e-02
4286:5.0701639154060889e-02
4287:4.6358341581430360e-02
4288:4.7027570165507834e-02
4289:4.1886612491883767e-02
4290:3.4664755706729125e-02
4291:2.8725713663911273e-02
4292:4.6195572216888137e-02
4293:4.1146948930039069e-02
4294:3.4051969627399793e-02
4295:2.8215629514955980e-02
4296:4.4973052128850215e-02
4297:4.0060300549933543e-02
4298:3.3152476573469751e-02
4299:2.7467899319108861e-02
4300:4.3930811421068999e-02
4301:3.9133316003322371e-02
4302:3.2384534680184138e-02
4303:2.6829092657791428e-02
4304:2.5412346614588528e-02
4305:1.8869414665917558e-02
4306:9.6721145222722557e-03
4307:2.1042504730247108e-03
4308:2.4959225749568305e-02
4309:1.8530049035649244e-02
4310:9.4959280788751085e-03
4311:2.0651711124817155e-03
4312:2.4295726407613880e-02
4313:1.8034549421121555e-02
4314:9.2408759686113690e-03
4315:2.0116780509098803e-03
4316:2.3728626107541704e-02
4317:1.7610314678052724e-02
4318:9.0207279512371542e-03
4319:1.9622814097521274e-03
4320:-2.7898453252094699e-02
4321:-1.1371858718885181e-01
4322:-2.2307361132353204e-01
4323:-3.0506185030254518e-01
4324:-2.6147482558065184e-02
4325:-1.0239350384178639e-01
4326:-2.0287603999489323e-01
4327:-2.7914673998064082e-01
4328:-2.0913680193982868e-02
4329:-9.0431418415883286e-02
4330:-1.8259837606334081e-01
4331:-2.5219180938890484e-01
4332:-1.7197611380874962e-02
4333:-8.4587968620560575e-02
4334:-1.7199096912566775e-01
4335:-2.3709056890334124e-01
4336:-3.4801158430696361e-01
4337:-4.2445749682783557e-01
4338:-5.1474584905755538e-01
4339:-5.7600687770620351e-01
4340:-3.1893408110617316e-01
4341:-3.8920417738999030e-01
4342:-4.7206512979539977e-01
4343:-5.2909511329410730e-01
4344:-2.8816824349006775e-01
4345:-3.5170124992801111e-01
4346:-4.2726533911915232e-01
4347:-4.8029016386541440e-01
4348:-2.7062079893841084e-01
4349:-3.3031825008791910e-01
4350:-4.0218768803066729e-01
4351:-4.5308518282282362e-01
4352:-6.0561894755502366e-01
4353:-6.5515750251810667e-01
4354:-7.0803357735340078e-01
4355:-7.3964920957620073e-01
4356:-5.5725424232368459e-01
4357:-6.0553408231877848e-01
4358:-6.5920328403449480e-01
4359:-6.9292156416969974e-01
4360:-5.0698805110832312e-01
4361:-5.5345539386529718e-01
4362:-6.0633926965175422e-01
4363:-6.4051903070167382e-01
4364:-4.7879654920938919e-01
4365:-5.2342634223489881e-01
4366:-5.7405314200826663e-01
4367:-6.0675680635751106e-01
4368:-7.5336064991153617e-01
4369:-7.7323977354604512e-01
4370:-7.8853018860289459e-01
4371:-7.9287098935857647e-01
4372:-7.0818351218135933e-01
4373:-7.3172111998775657e-01
4374:-7.5232901587733514e-01
4375:-7.6028467143572898e-01
4376:-6.5637064079780605e-01
4377:-6.8172360195481785e-01
4378:-7.0561046349535661e-01
4379:-7.1630507194259208e-01
4380:-6.2195834644324499e-01
4381:-6.4646107161906174e-01
4382:-6.7014402200663503e-01
4383:-6.8153056054161265e-01
4384:-7.9284223114838492e-01
4385:-7.8918011313531899e-01
4386:-7.7705028846577273e-01
4387:-7.6173866833561643e-01
4388:-7.6173935453991115e-01
4389:-7.5977370495470553e-01
4390:-7.4886266692548320e-01
4391:-7.3481184214688977e-01
4392:-7.1915083746861519e-01
4393:-7.1954581802577278e-01
4394:-7.1176107974058578e-01
4395:-7.0065271409579011e-01
4396:-6.8509223482750681e-01
4397:-6.8745625502866292e-01
4398:-6.8313189490892445e-01
4399:-6.7505289701838589e-01
4400:-7.5140847804328947e-01
4401:-7.2933068023036263e-01
4402:-6.9614381822956017e-01
4403:-6.6791678011931643e-01
4404:-7.2558979671727564e-01
4405:-7.0640978618820383e-01
4406:-6.7790487272665589e-01
4407:-6.5333653051321217e-01
4408:-6.9332288047580204e-01
4409:-6.7794569308078001e-01
4410:-6.5447925331258328e-01
4411:-6.3352739545567727e-01
4412:-6.6936140374542974e-01
4413:-6.5674852938646266e-01
4414:-6.3638387746166258e-01
4415:-6.1757665368405412e-01
4416:-6.5207368383308340e-01
4417:-6.2131087624765413e-01
4418:-5.7929416816602430e-01
4419:-5.4572046222865778e-01
4420:-6.3928187503954415e-01
4421:-6.1148517646085354e-01
4422:-5.7284085868766932e-01
4423:-5.4171459566922386e-01
4424:-6.2123780625196945e-01
4425:-5.9668586362277587e-01
4426:-5.6230169630114601e-01
4427:-5.3455242087767374e-01
4428:-6.0640567796920497e-01
4429:-5.8413255019126054e-01
4430:-5.5300392507793084e-01
4431:-5.2786228378672395e-01
4432:-5.2742072676120866e-01
4433:-4.9335438772724932e-01
4434:-4.4974466344841985e-01
4435:-4.1704717428656923e-01
4436:-5.2473806191760985e-01
4437:-4.9311984493519107e-01
4438:-4.5248667598529585e-01
4439:-4.2178664135326677e-01
4440:-5.1942356794161926e-01
4441:-4.9103722296194752e-01
4442:-4.5405224906497027e-01
4443:-4.2567883925642347e-01
4444:-5.1411801954719327e-01
4445:-4.8806669730521712e-01
4446:-4.5363340022649545e-01
4447:-4.2690177386054812e-01
4448:-3.9991258237245070e-01
4449:-3.6844606072474001e-01
4450:-3.2876977980460226e-01
4451:-2.9942277093212721e-01
4452:-4.0558306195190885e-01
4453:-3.7564494194656667e-01
4454:-3.3762599981852570e-01
4455:-3.0936711793419946e-01
4456:-4.1054846994499011e-01
4457:-3.8248614186427649e-01
4458:-3.4670941562014390e-01
4459:-3.2003845900806183e-01
4460:-4.1256139429379135e-01
4461:-3.8594944057462122e-01
4462:-3.5198839724237829e-01
4463:-3.2661514494797222e-01
4464:-2.8418031110685693e-01
4465:-2.5664232945946042e-01
4466:-2.2283098434438794e-01
4467:-1.9850583515836753e-01
4468:-2.9466171257592610e-01
4469:-2.6804278983473612e-01
4470:-2.3521969235982904e-01
4471:-2.1146033127519182e-01
4472:-3.0613520968925068e-01
4473:-2.8084247036666377e-01
4474:-2.4937926721478190e-01
4475:-2.2638009070435230e-01
4476:-3.1335552168567427e-01
4477:-2.8910679016356194e-01
4478:-2.5870549133848381e-01
4479:-2.3632287586733172e-01
4480:-1.8609473014985797e-01
4481:-1.6380198066485377e-01
4482:-1.3662047898346852e-01
4483:-1.1720504499742505e-01
4484:-1.9927566367674016e-01
4485:-1.7729995966590992e-01
4486:-1.5036084125705015e-01
4487:-1.3103032899028327e-01
4488:-2.1450561371871407e-01
4489:-1.9301795800467253e-01
4490:-1.6656248182630343e-01
4491:-1.4749856019976271e-01
4492:-2.2471984721320723e-01
4493:-2.0369281732792588e-01
4494:-1.7774266672055233e-01
4495:-1.5898264688205380e-01
4496:-1.0735037879853780e-01
4497:-8.9797326234301589e-02
4498:-6.8693082543169498e-02
4499:-5.3848344468804418e-02
4500:-1.2119448871104882e-01
4501:-1.0363538432994376e-01
4502:-8.2432692203301877e-02
4503:-6.7433878629720098e-02
4504:-1.3777070712218881e-01
4505:-1.2033313444954588e-01
4506:-9.9129196793488250e-02
4507:-8.4010160977092352e-02
4508:-1.4938339857925648e-01
4509:-1.3211177340459834e-01
4510:-1.1098925845629572e-01
4511:-9.5843237781509091e-02
4512:-4.6390989097973713e-02
4513:-3.3159251992090709e-02
4514:-1.7332125296342440e-02
4515:-6.2630231577839608e-03
4516:-5.9864826374160948e-02
4517:-4.6386884238972546e-02
4518:-3.0182922127175903e-02
4519:-1.8793614385140038e-02
4520:-7.6337736343903353e-02
4521:-6.2629675852309136e-02
4522:-4.6068086223940291e-02
4523:-3.4366250092631383e-02
4524:-8.8130325791806685e-02
4525:-7.4323630029388965e-02
4526:-5.7590838091119874e-02
4527:-4.5722484456504196e-02
4528:-7.2635143603873905e-04
4529:9.0399851059466754e-03
4530:2.0604450966827018e-02
4531:2.8598068470013602e-02
4532:-1.3078814412799577e-02
4533:-2.9706172728034565e-03
4534:9.0576317368150604e-03
4535:1.7423794528156369e-02
4536:-2.8472863026917337e-02
4537:-1.8006872307067229e-02
4538:-5.4681819220718467e-03
4539:3.3215836082970246e-03
4540:-3.9727032534825860e-02
4541:-2.9044992698967743e-02
4542:-1.6181921259702855e-02
4543:-7.1160575956214439e-03
4544:3.2562952167588984e-02
4545:3.9524796409914152e-02
4546:4.7709989736786598e-02
4547:5.3319748604575591e-02
4548:2.1593829294060254e-02
4549:2.8944602016586912e-02
4550:3.7639529691047051e-02
4551:4.3638342170267623e-02
4552:7.7276784728967209e-03
4553:1.5525248725014203e-02
4554:2.4805841208429630e-02
4555:3.1254072831719264e-02
4556:-2.5551939200359301e-03
4557:5.5359264169772904e-03
4558:1.5204640119826807e-02
4559:2.1955288045186847e-02
4560:5.6083731023040657e-02
4561:6.0899242727075108e-02
4562:6.6482828254826667e-02
4563:7.0244296907286757e-02
4564:4.6607917046190710e-02
4565:5.1803017496525730e-02
4566:5.7870991196045947e-02
4567:6.1997054063228821e-02
4568:3.4462810544124978e-02
4569:4.0104645630687587e-02
4570:4.6751408939134972e-02
4571:5.1318132975610491e-02
4572:2.5327159093882473e-02
4573:3.1277262280330953e-02
4574:3.8328593743319761e-02
4575:4.3205807250295734e-02
4576:7.2072898527795665e-02
4577:7.5222324606235860e-02
4578:7.8800525376900049e-02
4579:8.1148381138927708e-02
4580:6.4017900527971933e-02
4581:6.7521115199426662e-02
4582:7.1545908458134300e-02
4583:7.4223952682751407e-02
4584:5.3572490970548989e-02
4585:5.7505648217176943e-02
4586:6.2074068917619699e-02
4587:6.5155529132662940e-02
4588:4.5625118515849862e-02
4589:4.9862527565366091e-02
4590:5.4817410533251419e-02
4591:5.8187680670697878e-02
4592:8.2264949610592511e-02
4593:8.4140122134143416e-02
4594:8.6169667933261584e-02
4595:8.7413587265573134e-02
4596:7.5511957619743192e-02
4597:7.7699460154539837e-02
4598:8.0118995073516483e-02
4599:8.1649363205609782e-02
4600:6.6653795276789121e-02
4601:6.9226447092508470e-02
4602:7.2130517651507242e-02
4603:7.4019034323206515e-02
4604:5.9837385108684395e-02
4605:6.2688860902337717e-02
4606:6.5945926924858275e-02
4607:6.8096609776756814e-02
4608:8.7969673234651394e-02
4609:8.8837654377065700e-02
4610:8.9635577359165788e-02
4611:8.9995407595669666e-02
4612:8.2353916099653354e-02
4613:8.3491864834339430e-02
4614:8.4625104710849289e-02
4615:8.5229178414872181e-02
4616:7.4909820058173024e-02
4617:7.6386865170951598e-02
4618:7.7942318853099282e-02
4619:7.8854979008046777e-02
4620:6.9124018737177453e-02
4621:7.0850300399117286e-02
4622:7.2717216477876337e-02
4623:7.3858599433747424e-02
4624:9.0100071444910404e-02
4625:9.0147578034470863e-02
4626:8.9922613607562416e-02
4627:8.9532466869905181e-02
4628:8.5459535877410814e-02
4629:8.5734622396829607e-02
4630:8.5791012148952989e-02
4631:8.5605200639020343e-02
4632:7.9244603977175296e-02
4633:7.9809073912978840e-02
4634:8.0225066293307654e-02
4635:8.0301680298665204e-02
4636:7.4366717065031923e-02
4637:7.5147191367974708e-02
4638:7.5832809746151572e-02
4639:7.6106981719251343e-02
4640:8.9248433327028392e-02
4641:8.8580052759674219e-02
4642:8.7444107384984648e-02
4643:8.6371442311551735e-02
4644:8.5426240091559066e-02
4645:8.4948092274496609e-02
4646:8.4047145694072595e-02
4647:8.3144840518663665e-02
4648:8.0258054719989466e-02
4649:8.0025438842380628e-02
4650:7.9428850478248658e-02
4651:7.8748080473938109e-02
4652:7.6165479288499774e-02
4653:7.6118559923052359e-02
4654:7.5753047419175434e-02
4655:7.5241225682915525e-02
4656:8.5728279742528224e-02
4657:8.4386970284955884e-02
4658:8.2371792604716526e-02
4659:8.0622704848256593e-02
4660:8.2589141952442699e-02
4661:8.1406369140463217e-02
4662:7.9587679835300740e-02
4663:7.7981714219461887e-02
4664:7.8306469422974603e-02
4665:7.7331189258554187e-02
4666:7.5770996791604803e-02
4667:7.4354310960437237e-02
4668:7.4886909003303831e-02
4669:7.4070886260922814e-02
4670:7.2710017337273558e-02
4671:7.1439956524993881e-02
4672:7.9617369636652849e-02
4673:7.7586735651724692e-02
4674:7.4650348429871879e-02
4675:7.2177036547415085e-02
4676:7.7050176428917413e-02
4677:7.5154236381772488e-02
4678:7.2386724360750485e-02
4679:7.0037973370888379e-02
4680:7.3520709874341630e-02
4681:7.1804089165264318e-02
4682:6.9262530169439160e-02
4683:6.7081337521297482e-02
4684:7.0682451650319986e-02
4685:6.9105579713821766e-02
4686:6.6740953172566758e-02
4687:6.4691633827766798e-02
4688:7.0778529787478478e-02
4689:6.7989525065500503e-02
4690:6.4020428035658425e-02
4691:6.0721051781363528e-02
4692:6.8704294178990655e-02
4693:6.6035263870171265e-02
4694:6.2220120869889095e-02
4695:5.9037206833502082e-02
4696:6.5835192113353772e-02
4697:6.3328760215033308e-02
4698:5.9723415650561301e-02
4699:5.6700059652913137e-02
4700:6.3514621544528013e-02
4701:6.1137023075882722e-02
4702:5.7698692743863515e-02
4703:5.4802931881577158e-02
4704:5.8869312837877365e-02
4705:5.5198487273317262e-02
4706:5.0014440046755995e-02
4707:4.5732985729053079e-02
4708:5.7247200184924962e-02
4709:5.3693231222759520e-02
4710:4.8664473305653183e-02
4711:4.4504688578890915e-02
4712:5.4994916081353061e-02
4713:5.1602034229148226e-02
4714:4.6788163277666509e-02
4715:4.2797333394321138e-02
4716:5.3165844958216670e-02
4717:4.9902453625450316e-02
4718:4.5261884977118617e-02
4719:4.1407720163032638e-02
4720:4.3338968911814865e-02
4721:3.8606605694170321e-02
4722:3.1947787620998591e-02
4723:2.6465443162957847e-02
4724:4.2176709616807105e-02
4725:3.7572810678807710e-02
4726:3.1091619951837512e-02
4727:2.5753710042973759e-02
4728:4.0561246361895197e-02
4729:3.6136315155434022e-02
4730:2.9902898452952107e-02
4731:2.4766639711876134e-02
4732:3.9246092635374527e-02
4733:3.4966307185810189e-02
4734:2.8934027636003418e-02
4735:2.3961568077085185e-02
4736:2.3405576483881009e-02
4737:1.7368102487383116e-02
4738:8.8938645617992699e-03
4739:1.9318184034191812e-03
4740:2.2774086587289046e-02
4741:1.6896298992500485e-02
4742:8.6497070826438045e-03
4743:1.8777287232896686e-03
4744:2.1899080589366855e-02
4745:1.6244146542498051e-02
4746:8.3148554658339941e-03
4747:1.8074666865615843e-03
4748:2.1185054883503768e-02
4749:1.5711059453942397e-02
4750:8.0391057240970596e-03
4751:1.7460687793706276e-03
4752:-1.6045451944490609e-02
4753:-8.2854016053439533e-02
4754:-1.6798791532342253e-01
4755:-2.3091759696283529e-01
4756:-1.5042286871501552e-02
4757:-7.9703838757488391e-02
4758:-1.6033100789946095e-01
4759:-2.1952773800988504e-01
4760:-1.4860823581577805e-02
4761:-7.4781102801931551e-02
4762:-1.4916649214609698e-01
4763:-2.0401112193745843e-01
4764:-1.4685296020303907e-02
4765:-6.9958213356487386e-02
4766:-1.3951219943957074e-01
4767:-1.9129731965456565e-01
4768:-2.6337134662749095e-01
4769:-3.2154508651606895e-01
4770:-3.9206308425778152e-01
4771:-4.4205662613445101e-01
4772:-2.5020940485922083e-01
4773:-3.0572197916053345e-01
4774:-3.7354724920949794e-01
4775:-4.2157199399373896e-01
4776:-2.3265585090702401e-01
4777:-2.8470039260965219e-01
4778:-3.4840637065811181e-01
4779:-3.9336496846936020e-01
4780:-2.1843650665703432e-01
4781:-2.6762752282919000e-01
4782:-3.2768878701915100e-01
4783:-3.7007940610058498e-01
4784:-4.6722459641535713e-01
4785:-5.1064470908539761e-01
4786:-5.5948695379830560e-01
4787:-5.9082186322556807e-01
4788:-4.4558150583011236e-01
4789:-4.8669520724971210e-01
4790:-5.3253582392468723e-01
4791:-5.6179404465896043e-01
4792:-4.1572739778286932e-01
4793:-4.5406168518658491e-01
4794:-4.9705822032063024e-01
4795:-5.2482372495015828e-01
4796:-3.9121693938341007e-01
4797:-4.2779148090190849e-01
4798:-4.6950850829885576e-01
4799:-4.9698852942537658e-01
4800:-6.0533941187860896e-01
4801:-6.2870565448452198e-01
4802:-6.5145694403598475e-01
4803:-6.6279441369473968e-01
4804:-5.7534145418738392e-01
4805:-5.9711937334989074e-01
4806:-6.1861429652347200e-01
4807:-6.2996848114502313e-01
4808:-5.3783007763958668e-01
4809:-5.5885318155355035e-01
4810:-5.8001756100858426e-01
4811:-5.9180114353067803e-01
4812:-5.1005482172097516e-01
4813:-5.3139014060214751e-01
4814:-5.5323555521206724e-01
4815:-5.6567447902409973e-01
4816:-6.6663893768488025e-01
4817:-6.7009677764534337e-01
4818:-6.6788907267843622e-01
4819:-6.6158207368975852e-01
4820:-6.3427622712394904e-01
4821:-6.3943199127172523e-01
4822:-6.4045862707888845e-01
4823:-6.3685779131408349e-01
4824:-5.9663417513661576e-01
4825:-6.0331064541920176e-01
4826:-6.0704240938167220e-01
4827:-6.0576884720580459e-01
4828:-5.7087977619705566e-01
4829:-5.7827772763490970e-01
4830:-5.8309649121858675e-01
4831:-5.8286364934122337e-01
4832:-6.5676781229444126e-01
4833:-6.4551777465948645e-01
4834:-6.2657307711125887e-01
4835:-6.0878140838640982e-01
4836:-6.3339521761092210e-01
4837:-6.2436327079047327e-01
4838:-6.0798488866946421e-01
4839:-5.9219565407659203e-01
4840:-6.0354930152204300e-01
4841:-5.9685898392652592e-01
4842:-5.8370321079111320e-01
4843:-5.7064059379634013e-01
4844:-5.8130431658286541e-01
4845:-5.7611121824392408e-01
4846:-5.6532870493805620e-01
4847:-5.5431690366765207e-01
4848:-5.9818881288322567e-01
4849:-5.7713632831398087e-01
4850:-5.4775548819090425e-01
4851:-5.2396373124708062e-01
4852:-5.8276443037151382e-01
4853:-5.6402250330156944e-01
4854:-5.3772941502187210e-01
4855:-5.1620682768142312e-01
4856:-5.6277678307813250e-01
4857:-5.4693519726721473e-01
4858:-5.2421320633395185e-01
4859:-5.0519403509087901e-01
4860:-5.4758970477974367e-01
4861:-5.3374792050469344e-01
4862:-5.1338192803804694e-01
4863:-4.9602007142512422e-01
4864:-5.1090583323742722e-01
4865:-4.8599730676986119e-01
4866:-4.5282389397889689e-01
4867:-4.2694317119281666e-01
4868:-5.0427716901839303e-01
4869:-4.8130960361426250e-01
4870:-4.5041391314502177e-01
4871:-4.2616802766717921e-01
4872:-4.9450160044860975e-01
4873:-4.7379011753120304e-01
4874:-4.4576609043272136e-01
4875:-4.2369412855850286e-01
4876:-4.8617729136954285e-01
4877:-4.6709474319549832e-01
4878:-4.4123823531668144e-01
4879:-4.2081862299494749e-01
4880:-4.1303576933160663e-01
4881:-3.8723031256823615e-01
4882:-3.5427611506377987e-01
4883:-3.2960419113814110e-01
4884:-4.1311596010064672e-01
4885:-3.8886145979994524e-01
4886:-3.5776645406150387e-01
4887:-3.3434664529745156e-01
4888:-4.1179215370697836e-01
4889:-3.8955481276668391e-01
4890:-3.6077574423391190e-01
4891:-3.3887727879307056e-01
4892:-4.0977625492202624e-01
4893:-3.8901359271737357e-01
4894:-3.6189929863852421e-01
4895:-3.4110719309724641e-01
4896:-3.1668174117295211e-01
4897:-2.9297774698769113e-01
4898:-2.6314059099822784e-01
4899:-2.4110485896821937e-01
4900:-3.2201697344475833e-01
4901:-2.9929802876579376e-01
4902:-2.7053986178651290e-01
4903:-2.4920978439174493e-01
4904:-3.2726869321279861e-01
4905:-3.0580206568055857e-01
4906:-2.7851004725678091e-01
4907:-2.5818978726772868e-01
4908:-3.3003938570306973e-01
4909:-3.0954526875954291e-01
4910:-2.8343306875638685e-01
4911:-2.6393461578878863e-01
4912:-2.2966522444502413e-01
4913:-2.0892213184392286e-01
4914:-1.8328828295362221e-01
4915:-1.6471770629569207e-01
4916:-2.3811400001573127e-01
4917:-2.1795720204410066e-01
4918:-1.9295676475721849e-01
4919:-1.7475702705699470e-01
4920:-2.4759414539036889e-01
4921:-2.2827188643151924e-01
4922:-2.0415006377396258e-01
4923:-1.8646367254609247e-01
4924:-2.5374195554158402e-01
4925:-2.3508414191854896e-01
4926:-2.1166083119307283e-01
4927:-1.9439618715683216e-01
4928:-1.5519719808199040e-01
4929:-1.3803156224766971e-01
4930:-1.1697756035914986e-01
4931:-1.0184160261129316e-01
4932:-1.6539025686806674e-01
4933:-1.4844693066165762e-01
4934:-1.2757360665258718e-01
4935:-1.1250789554458310e-01
4936:-1.7731603003614890e-01
4937:-1.6071892906497251e-01
4938:-1.4018592283274894e-01
4939:-1.2530359938432800e-01
4940:-1.8543896107677582e-01
4941:-1.6916071387241799e-01
4942:-1.4896933738001988e-01
4943:-1.3428842008502956e-01
4944:-9.4122745045906592e-02
4945:-8.0293021922188332e-02
4946:-6.3504601431321375e-02
4947:-5.1570461185310432e-02
4948:-1.0480718899432802e-01
4949:-9.0981964259504874e-02
4950:-7.4138101826813851e-02
4951:-6.2110688129063396e-02
4952:-1.1767524717019273e-01
4953:-1.0393492339862177e-01
4954:-8.7103205094768876e-02
4955:-7.5011567242786847e-02
4956:-1.2674475912781905e-01
4957:-1.1311815859007920e-01
4958:-9.6353094254107610e-02
4959:-8.4256854592426308e-02
4960:-4.5530826196927096e-02
4961:-3.4751362199735958e-02
4962:-2.1737637079841693e-02
4963:-1.2542264917776689e-02
4964:-5.6002776115246046e-02
4965:-4.5070795512106077e-02
4966:-3.1818711530329336e-02
4967:-2.2416300578340719e-02
4968:-6.8844980054809254e-02
4969:-5.7775946329117041e-02
4970:-4.4299637315092170e-02
4971:-3.4694003507688559e-02
4972:-7.8070828283250779e-02
4973:-6.6946769655480756e-02
4974:-5.3364146682125198e-02
4975:-4.3650015182890002e-02
4976:-7.9088233502816619e-03
4977:3.2072804787334439e-04
4978:1.0174969243558088e-02
4979:1.7072775706045398e-02
4980:-1.7665850449021307e-02
4981:-9.2089399179388683e-03
4982:9.5777289910543384e-04
4983:8.1084053508530401e-03
4984:-2.9825246541179372e-02
4985:-2.1129914688262901e-02
4986:-1.0621267618317640e-02
4987:-3.1858599090692484e-03
4988:-3.8713781934873327e-02
4989:-2.9875646646447949e-02
4990:-1.9152172294307206e-02
4991:-1.1532919720665615e-02
4992:2.0525089923748296e-02
4993:2.6628236983958324e-02
4994:3.3881663646467129e-02
4995:3.8914409374223649e-02
4996:1.1700253557545063e-02
4997:1.8069065754227159e-02
4998:2.5673616715038164e-02
4999:3.0977152365943072e-02
5000:5.6504463960262467e-04
5001:7.2373303867040301e-03
5002:1.5244767481200827e-02
5003:2.0861346887724522e-02
5004:-7.6783608406428170e-03
5005:-8.0721192588147116e-04
5006:7.4672029579833698e-03
5007:1.3294317458316029e-02
5008:4.1416371528873563e-02
5009:4.5806590801988331e-02
5010:5.0956602177349139e-02
5011:5.4473704921340682e-02
5012:3.3623361989791149e-02
5013:3.8281809008037758e-02
5014:4.3777211160303732e-02
5015:4.7556143825792437e-02
5016:2.3675472674486227e-02
5017:2.8649110724296930e-02
5018:3.4555459817517092e-02
5019:3.8649025219332493e-02
5020:1.6222691778464249e-02
5021:2.1412886569422709e-02
5022:2.7604851834882111e-02
5023:3.1918894337041301e-02
5024:5.6200807613870730e-02
5025:5.9195208594098103e-02
5026:6.2633802746289893e-02
5027:6.4919595730150645e-02
5028:4.9421813749255465e-02
5029:5.2672340266223396e-02
5030:5.6436686050611362e-02
5031:5.8965393053451887e-02
5032:4.0682017598526687e-02
5033:4.4242375917045849e-02
5034:4.8402046597250940e-02
5035:5.1226852651988099e-02
5036:3.4069559528313836e-02
5037:3.7848425279924457e-02
5038:4.2288376322004322e-02
5039:4.5324525750474555e-02
5040:6.6017477730439658e-02
5041:6.7872541574411735e-02
5042:6.9900920821555051e-02
5043:7.1161347902472125e-02
5044:6.0190193213010161e-02
5045:6.2277870250878706e-02
5046:6.4599189415377151e-02
5047:6.6076503211237286e-02
5048:5.2606937296118199e-02
5049:5.4980516246936749e-02
5050:5.7664202228518792e-02
5051:5.9411340821164942e-02
5052:4.6816024112442178e-02
5053:4.9395653782925396e-02
5054:5.2342033591613275e-02
5055:5.4285742821319434e-02
5056:7.1731320475715385e-02
5057:7.2624773500202133e-02
5058:7.3451774502938466e-02
5059:7.3829768845112761e-02
5060:6.6759449915118660e-02
5061:6.7859504649389307e-02
5062:6.8945533020389582e-02
5063:6.9514152641303145e-02
5064:6.0235290663843789e-02
5065:6.1593724148812291e-02
5066:6.3004764908873356e-02
5067:6.3813501583453947e-02
5068:5.5212690725209096e-02
5069:5.6760314781792567e-02
5070:5.8410311224728048e-02
5071:5.9396424381603898e-02
5072:7.3942005219426565e-02
5073:7.3992965399383950e-02
5074:7.3749600753802644e-02
5075:7.3327375988176180e-02
5076:6.9725221828344661e-02
5077:6.9956590482086564e-02
5078:6.9939126666584084e-02
5079:6.9683163467229123e-02
5080:6.4149433006997797e-02
5081:6.4609473099763934e-02
5082:6.4879740737970981e-02
5083:6.4836549065018678e-02
5084:5.9824914804522435e-02
5085:6.0455004308212872e-02
5086:6.0940209834872902e-02
5087:6.1056641994706708e-02
5088:7.3019461323985360e-02
5089:7.2288254382069456e-02
5090:7.1033833714073805e-02
5091:6.9842292856354210e-02
5092:6.9461542485510203e-02
5093:6.8888330076754850e-02
5094:6.7832713978828826e-02
5095:6.6788228404630737e-02
5096:6.4725691521974119e-02
5097:6.4355786776397944e-02
5098:6.3557013852075156e-02
5099:6.2703336994158920e-02
5100:6.1029103354796804e-02
5101:6.0812528620357971e-02
5102:6.0208265799649864e-02
5103:5.9499736603887805e-02
5104:6.9125612540482856e-02
5105:6.7623860675472422e-02
5106:6.5354637407150321e-02
5107:6.3376657639170386e-02
5108:6.6148158380311739e-02
5109:6.4787685725805802e-02
5110:6.2698491103767726e-02
5111:6.0855582844556638e-02
5112:6.2162976319977255e-02
5113:6.0986962355066308e-02
5114:5.9133930588003321e-02
5115:5.7469034775769742e-02
5116:5.9035461369587247e-02
5117:5.8000616378901519e-02
5118:5.6329101821709499e-02
5119:5.4801600641761025e-02
5120:6.2237127447760242e-02
5121:5.9929513487626943e-02
5122:5.6582159427134716e-02
5123:5.3756086800103978e-02
5124:5.9787174622960064e-02
5125:5.7612605493045768e-02
5126:5.4438679368813629e-02
5127:5.1745811820801645e-02
5128:5.6494639957063185e-02
5129:5.4496405108061509e-02
5130:5.1553232976596565e-02
5131:4.9038276980188679e-02
5132:5.3899961992419414e-02
5133:5.2038527568250947e-02
5134:4.9275023937075453e-02
5135:4.6899080898090570e-02
5136:5.2156232086068816e-02
5137:4.8963782179843526e-02
5138:4.4418342653914908e-02
5139:4.0639329007725711e-02
5140:5.0217247839620810e-02
5141:4.7160840432974881e-02
5142:4.2798203273351314e-02
5143:3.9163863587651948e-02
5144:4.7605162762657485e-02
5145:4.4731274690994541e-02
5146:4.0614566708665485e-02
5147:3.7175328448172638e-02
5148:4.5540714031287031e-02
5149:4.2810012130679115e-02
5150:3.8886688326691128e-02
5151:3.5601178598528509e-02
5152:3.8518688300920118e-02
5153:3.4318837618603708e-02
5154:2.8397382147549752e-02
5155:2.3515202638301390e-02
5156:3.7122207719615712e-02
5157:3.3076476786534463e-02
5158:2.7368814385022696e-02
5159:2.2660861689318006e-02
5160:3.5240331921403155e-02
5161:3.1402860270806861e-02
5162:2.5984298093493882e-02
5163:2.1512058417215440e-02
5164:3.3750318803060404e-02
5165:3.0077219463126012e-02
5166:2.4886965981616143e-02
5167:2.0600947749184109e-02
5168:2.0788874755603093e-02
5169:1.5414574416359374e-02
5170:7.8843154332336862e-03
5171:1.7092265302181559e-03
5172:2.0031396096485098e-02
5173:1.4849455669058521e-02
5174:7.5924349663745840e-03
5175:1.6446519087256299e-03
5176:1.9013659588864702e-02
5177:1.4091881923865797e-02
5178:7.2040932044187093e-03
5179:1.5631982684967819e-03
5180:1.8206108218671701e-02
5181:1.3489789593825579e-02
5182:6.8933445303275172e-03
5183:1.4943899299939727e-03
5184:-1.4332381822258468e-02
5185:-6.6967778904844413e-02
5186:-1.3401515132834263e-01
5187:-1.8423055078311956e-01
5188:-1.3453875706868250e-02
5189:-6.1906200451221242e-02
5190:-1.2469356089044370e-01
5191:-1.7204672254919642e-01
5192:-1.2215903114243221e-02
5193:-5.6711894172071654e-02
5194:-1.1477090629944528e-01
5195:-1.5860690815061884e-01
5196:-1.1421105226119652e-02
5197:-5.3845154801471715e-02
5198:-1.0882571171953584e-01
5199:-1.5018430189557339e-01
5200:-2.1054487253110452e-01
5201:-2.5810742529672115e-01
5202:-3.1608283249548730e-01
5203:-3.5709556443997320e-01
5204:-1.9682628852416220e-01
5205:-2.4147630399574938e-01
5206:-2.9589890578745909e-01
5207:-3.3465375843402495e-01
5208:-1.8149542125263077e-01
5209:-2.2277722539401865e-01
5210:-2.7336095759908746e-01
5211:-3.0973965885825816e-01
5212:-1.7177254025130231e-01
5213:-2.1087069491550023e-01
5214:-2.5908169666337816e-01
5215:-2.9394618419569546e-01
5216:-3.7763834141871722e-01
5217:-4.1345228111966348e-01
5218:-4.5478896175593514e-01
5219:-4.8235560475599415e-01
5220:-3.5424061878407997e-01
5221:-3.8875462367896396e-01
5222:-4.2922280792344897e-01
5223:-4.5663021553205985e-01
5224:-3.2829461406311666e-01
5225:-3.6118200375794929e-01
5226:-4.0004322530490388e-01
5227:-4.2655784297143068e-01
5228:-3.1177768269086437e-01
5229:-3.4334917860008840e-01
5230:-3.8059849761102316e-01
5231:-4.0599999264233205e-01
5232:-4.9557273757743908e-01
5233:-5.1730784779107608e-01
5234:-5.3977733557737062e-01
5235:-5.5266536621467288e-01
5236:-4.6990591167996887e-01
5237:-4.9199822696009282e-01
5238:-5.1524835772834110e-01
5239:-5.2881372182792163e-01
5240:-4.3947032775158945e-01
5241:-4.6122470472191379e-01
5242:-4.8463330058083770e-01
5243:-4.9868083759992682e-01
5244:-4.1838179296666117e-01
5245:-4.3938681867735568e-01
5246:-4.6233754203340549e-01
5247:-4.7644340549391612e-01
5248:-5.5806591735030220e-01
5249:-5.6573069048177216e-01
5250:-5.7086445548155684e-01
5251:-5.7099974440997558e-01
5252:-5.3455060977511060e-01
5253:-5.4273984461813995e-01
5254:-5.4857782367923624e-01
5255:-5.4948978551410066e-01
5256:-5.0476685897151863e-01
5257:-5.1367759956350134e-01
5258:-5.2068784563198600e-01
5259:-5.2278715874752812e-01
5260:-4.8270520221927643e-01
5261:-4.9214454408951241e-01
5262:-5.0016581468645238e-01
5263:-5.0323619553843901e-01
5264:-5.6972775162374678e-01
5265:-5.6526744208007340e-01
5266:-5.5570649157082785e-01
5267:-5.4572831601049254e-01
5268:-5.4878040206448275e-01
5269:-5.4563981322724231e-01
5270:-5.3814074801484058e-01
5271:-5.2984755746280465e-01
5272:-5.2284087111876187e-01
5273:-5.2128318070959345e-01
5274:-5.1602882680472306e-01
5275:-5.0950630915578254e-01
5276:-5.0385730679048324e-01
5277:-5.0336976269538980e-01
5278:-4.9952962323850253e-01
5279:-4.9412687346396078e-01
5280:-5.3955074374936840e-01
5281:-5.2665698018467633e-01
5282:-5.0741030537180210e-01
5283:-4.9087106248283324e-01
5284:-5.2455611615661280e-01
5285:-5.1324649117062615e-01
5286:-4.9598721040596594e-01
5287:-4.8098565794622705e-01
5288:-5.0515313191273858e-01
5289:-4.9563501535232335e-01
5290:-4.8081427914859332e-01
5291:-4.6778604817790109e-01
5292:-4.9039264375064223e-01
5293:-4.8212685642032749e-01
5294:-4.6909122112473012e-01
5295:-4.5751274779390555e-01
5296:-4.8147170051734522e-01
5297:-4.6325373525790542e-01
5298:-4.3854786352414132e-01
5299:-4.1898633444568195e-01
5300:-4.7243152070373506e-01
5301:-4.5581775194556429e-01
5302:-4.3317024328674270e-01
5303:-4.1510241176945550e-01
5304:-4.6032167467331470e-01
5305:-4.4570319773541672e-01
5306:-4.2550954587850148e-01
5307:-4.0918349982771196e-01
5308:-4.5083432378719723e-01
5309:-4.3761845785943282e-01
5310:-4.1911563962745796e-01
5311:-4.0399876852937033e-01
5312:-4.0837880342333810e-01
5313:-3.8835699674786422e-01
5314:-3.6208550443838317e-01
5315:-3.4187145544645764e-01
5316:-4.0524352148615084e-01
5317:-3.8652542827995900e-01
5318:-3.6179523088520049e-01
5319:-3.4267665935688107e-01
5320:-4.0019859487202497e-01
5321:-3.8305813684458978e-01
5322:-3.6028653113298648e-01
5323:-3.4260533435354718e-01
5324:-3.9563527430875922e-01
5325:-3.7965089552040138e-01
5326:-3.5835591439550940e-01
5327:-3.4176506054128053e-01
5328:-3.3109628784995704e-01
5329:-3.1113519017666530e-01
5330:-2.8567207420033680e-01
5331:-2.6662027054558424e-01
5332:-3.3246512455076771e-01
5333:-3.1351538707965698e-01
5334:-2.8925640176966749e-01
5335:-2.7101896232521494e-01
5336:-3.3313824149820392e-01
5337:-3.1549790842477587e-01
5338:-2.9276060969617868e-01
5339:-2.7554188917018718e-01
5340:-3.3285714613881162e-01
5341:-3.1618717492072174e-01
5342:-2.9456802259663578e-01
5343:-2.7810618226636297e-01
5344:-2.5664269437372006e-01
5345:-2.3833889079100995e-01
5346:-2.1529284590600833e-01
5347:-1.9826511788870013e-01
5348:-2.6143126161874553e-01
5349:-2.4378251801431058e-01
5350:-2.2146179302234514e-01
5351:-2.0490845233336472e-01
5352:-2.6644492066663905e-01
5353:-2.4964656884476219e-01
5354:-2.2831157904455204e-01
5355:-2.1242699521350397e-01
5356:-2.6938205221795281e-01
5357:-2.5324588403899773e-01
5358:-2.3269944799125764e-01
5359:-2.1735628980435862e-01
5360:-1.8941978518929042e-01
5361:-1.7333295782070426e-01
5362:-1.5335115160799107e-01
5363:-1.3879535956266514e-01
5364:-1.9629231855604395e-01
5365:-1.8059422818282672e-01
5366:-1.6103252667315016e-01
5367:-1.4672648818903383e-01
5368:-2.0413823028775396e-01
5369:-1.8898953375039063e-01
5370:-1.7001606067699687e-01
5371:-1.5606352296087886e-01
5372:-2.0933167305008321e-01
5373:-1.9462406691651751e-01
5374:-1.7612517990713428e-01
5375:-1.6246637104167039e-01
5376:-1.3130444768816521e-01
5377:-1.1775188443821939e-01
5378:-1.0104055429017379e-01
5379:-8.8957956150727796e-02
5380:-1.3934189333481961e-01
5381:-1.2594738588629451e-01
5382:-1.0937118641896054e-01
5383:-9.7345385501831735e-02
5384:-1.4883409905160086e-01
5385:-1.3568627767867808e-01
5386:-1.1935310767460849e-01
5387:-1.0745771593202096e-01
5388:-1.5537147303026017e-01
5389:-1.4244722400874774e-01
5390:-1.2635060580832932e-01
5391:-1.1459352370375098e-01
5392:-8.2771263709326803e-02
5393:-7.1636144311532132e-02
5394:-5.8019333164717961e-02
5395:-4.8262599679751925e-02
5396:-9.1174882006324259e-02
5397:-8.0048518155228510e-02
5398:-6.6400175227064234e-02
5399:-5.6585224087918197e-02
5400:-1.0133825615467555e-01
5401:-9.0274035478921461e-02
5402:-7.6642445461403405e-02
5403:-6.6792598274399484e-02
5404:-1.0853230718750212e-01
5405:-9.7548848224722651e-02
5406:-8.3970527589453919e-02
5407:-7.4125103803974579e-02
5408:-4.3297579112232414e-02
5409:-3.4396017695565502e-02
5410:-2.3573922193429030e-02
5411:-1.5868918239750219e-02
5412:-5.1577093184389890e-02
5413:-4.2578072776297972e-02
5414:-3.1600828344496415e-02
5415:-2.3758466398450341e-02
5416:-6.1749946142661841e-02
5417:-5.2666417993386956e-02
5418:-4.1544462322792568e-02
5419:-3.3566879119923468e-02
5420:-6.9073320668357766e-02
5421:-5.9958287279505709e-02
5422:-4.8768583444252611e-02
5423:-4.0718860846195873e-02
5424:-1.1965788322213561e-02
5425:-5.0007771292060665e-03
5426:3.4013576208405277e-03
5427:9.3307569791714669e-03
5428:-1.9776658088179584e-02
5429:-1.2657112553570085e-02
5430:-4.0401554161113790e-03
5431:2.0642385456516549e-03
5432:-2.9505137157194550e-02
5433:-2.2223472698878789e-02
5434:-1.3372522088191516e-02
5435:-7.0723649839712736e-03
5436:-3.6611665463328572e-02
5437:-2.9233567822241079e-02
5438:-2.0236902082667502e-02
5439:-1.3811275480890230e-02
5440:1.2315238303204945e-02
5441:1.7612441137754307e-02
5442:2.3946454328835923e-02
5443:2.8370601550127886e-02
5444:5.1455367691094827e-03
5445:1.0627837477847965e-02
5446:1.7208348721089402e-02
5447:2.1824279883692316e-02
5448:-3.8814310787764106e-03
5449:1.8114908673796315e-03
5450:8.6746116746834606e-03
5451:1.3512403387094512e-02
5452:-1.0549218475353070e-02
5453:-4.7185502151701553e-03
5454:2.3318405518667766e-03
5455:7.3188074702117073e-03
5456:3.0580127991260472e-02
5457:3.4468594827252882e-02
5458:3.9049849421135666e-02
5459:4.2193186777281816e-02
5460:2.4136641885751063e-02
5461:2.8217522686650717e-02
5462:3.3048593314245645e-02
5463:3.6382628075329090e-02
5464:1.5944552939048832e-02
5465:2.0251372792363435e-02
5466:2.5378964398469005e-02
5467:2.8941401594465520e-02
5468:9.8323384356892515e-03
5469:1.4293992654568585e-02
5470:1.9626982704020024e-02
5471:2.3348972720624913e-02
5472:4.3741435442057157e-02
5473:4.6426311767446431e-02
5474:4.9507325861127223e-02
5475:5.1552056197942453e-02
5476:3.8032200814886549e-02
5477:4.0905284397919101e-02
5478:4.4227613089467717e-02
5479:4.6453882062920754e-02
5480:3.0712919584770442e-02
5481:3.3813131803771143e-02
5482:3.7427945191590414e-02
5483:3.9875352710443450e-02
5484:2.5206045616545603e-02
5485:2.8466176555852565e-02
5486:3.2288141962797313e-02
5487:3.4893212711815558e-02
5488:5.2532015193499086e-02
5489:5.4177198335370477e-02
5490:5.5950820122780069e-02
5491:5.7029037981057289e-02
5492:4.7529292198106012e-02
5493:4.9350605471066476e-02
5494:5.1348304979796713e-02
5495:5.2594105807547170e-02
5496:4.1067473362874085e-02
5497:4.3105039066817001e-02
5498:4.5379496639036315e-02
5499:4.6833416545442694e-02
5500:3.6168941569960075e-02
5501:3.8362078606871269e-02
5502:4.0836783493318998e-02
5503:4.2442064669781843e-02
5504:5.7505716049657249e-02
5505:5.8224512482340431e-02
5506:5.8822151056760585e-02
5507:5.9022298218852381e-02
5508:5.3158667030378366e-02
5509:5.4039502822557921e-02
5510:5.4843019392262625e-02
5511:5.5196858289903165e-02
5512:4.7507478802001166e-02
5513:4.8590726006486062e-02
5514:4.9652437872947749e-02
5515:5.0199855185898777e-02
5516:4.3196008445964384e-02
5517:4.4427332940383986e-02
5518:4.5678781198025389e-02
5519:4.6369137458991384e-02
5520:5.9038527685766021e-02
5521:5.8902644267092429e-02
5522:5.8401041267429385e-02
5523:5.7769355032541062e-02
5524:5.5293590930470836e-02
5525:5.5306440269514756e-02
5526:5.4994673486795709e-02
5527:5.4505536827477045e-02
5528:5.0398294166918121e-02
5529:5.0599650452560582e-02
5530:5.0529622511852453e-02
5531:5.0222841449724893e-02
5532:4.6642929399358053e-02
5533:4.6984385153515877e-02
5534:4.7094829573497012e-02
5535:4.6924774242510958e-02
5536:5.7345445398041830e-02
5537:5.6385631888845683e-02
5538:5.4810849131047501e-02
5539:5.3356753665290781e-02
5540:5.4156662375995646e-02
5541:5.3336566781281763e-02
5542:5.1942378821003804e-02
5543:5.0625688740439233e-02
5544:4.9970235248867387e-02
5545:4.9329858346633101e-02
5546:4.8168873215691993e-02
5547:4.7030312116508988e-02
5548:4.6744544146609314e-02
5549:4.6239631316991860e-02
5550:4.5255107846501212e-02
5551:4.4251860012722355e-02
5552:5.2494049987031777e-02
5553:5.0705938607761451e-02
5554:4.8038957080336654e-02
5555:4.5737861497441926e-02
5556:4.9835993480199792e-02
5557:4.8185609628234580e-02
5558:4.5700378371130224e-02
5559:4.3540543460651226e-02
5560:4.6335509887402537e-02
5561:4.4864577375451770e-02
5562:4.2616976987992244e-02
5563:4.0642424801710431e-02
5564:4.3629326418981665e-02
5565:4.2295370342754178e-02
5566:4.0229727576547240e-02
5567:3.8397458591688687e-02
5568:4.4419796473192726e-02
5569:4.1766378255707386e-02
5570:3.7947576090936269e-02
5571:3.4745253678447149e-02
5572:4.2298647146664314e-02
5573:3.9791446777883786e-02
5574:3.6170674352785523e-02
5575:3.3126156433943219e-02
5576:3.9500627373233496e-02
5577:3.7185868090418087e-02
5578:3.3826242909850097e-02
5579:3.0990188207183071e-02
5580:3.7332663000259267e-02
5581:3.5166140954423039e-02
5582:3.2008040181328731e-02
5583:2.9333109455358775e-02
5584:3.2939953092459805e-02
5585:2.9355887888836113e-02
5586:2.4289341206963879e-02
5587:2.0104247907429495e-02
5588:3.1407341796506845e-02
5589:2.7992356947971048e-02
5590:2.3160830120778072e-02
5591:1.9167525096782049e-02
5592:2.9385736511508460e-02
5593:2.6194442872876544e-02
5594:2.1673999370282290e-02
5595:1.7934631982738706e-02
5596:2.7817129598271893e-02
5597:2.4798951955543758e-02
5598:2.0519344421837126e-02
5599:1.6976610935231153e-02
5600:1.7765536858102091e-02
5601:1.3160537613541344e-02
5602:6.7218539970355790e-03
5603:1.4538343873057519e-03
5604:1.6935482477645026e-02
5605:1.2541972442548744e-02
5606:6.4028511782911026e-03
5607:1.3833221611851546e-03
5608:1.5843832359018671e-02
5609:1.1730233342192304e-02
5610:5.9872846756561966e-03
5611:1.2961339546386718e-03
5612:1.4995182322363066e-02
5613:1.1098231809975413e-02
5614:5.6616863956295100e-03
5615:1.2243193332095908e-03
5616:-1.1106876221942676e-02
5617:-5.2680403956898873e-02
5618:-1.0617807996763441e-01
5619:-1.4630999525590571e-01
5620:-1.0545689874532582e-02
5621:-5.0432285170369816e-02
5622:-1.0126391700329865e-01
5623:-1.3927928049020019e-01
5624:-9.8137939399452478e-03
5625:-4.7234552408120772e-02
5626:-9.4754655449223318e-02
5627:-1.3030553804290709e-01
5628:-9.2442463625327896e-03
5629:-4.4593052672439175e-02
5630:-8.9675847350571949e-02
5631:-1.2350292471930596e-01
5632:-1.6727543137222720e-01
5633:-2.0536122138129909e-01
5634:-2.5248049276145362e-01
5635:-2.8659947069604214e-01
5636:-1.5917912264016640e-01
5637:-1.9547828610465570e-01
5638:-2.4056444136838609e-01
5639:-2.7323321852655202e-01
5640:-1.4896093542988914e-01
5641:-1.8305766580694310e-01
5642:-2.2546758558415755e-01
5643:-2.5618209348645521e-01
5644:-1.4127122758731347e-01
5645:-1.7372650217055702e-01
5646:-2.1407459109523064e-01
5647:-2.4330700018354745e-01
5648:-3.0403942381216248e-01
5649:-3.3485545835631486e-01
5650:-3.7112687175366327e-01
5651:-3.9583321896992829e-01
5652:-2.8990467217949667e-01
5653:-3.1931203922899654e-01
5654:-3.5389465354958566e-01
5655:-3.7748998003530859e-01
5656:-2.7183766982608520e-01
5657:-2.9951547911575910e-01
5658:-3.3225179805361571e-01
5659:-3.5477925860725601e-01
5660:-2.5822432085083397e-01
5661:-2.8471873487180532e-01
5662:-3.1630732538628897e-01
5663:-3.3823997793552762e-01
5664:-4.0788006861531134e-01
5665:-4.2837122677266476e-01
5666:-4.5091909028679772e-01
5667:-4.6495419680490302e-01
5668:-3.8902950572919570e-01
5669:-4.0873638962912218e-01
5670:-4.3064174592999838e-01
5671:-4.4452625549224900e-01
5672:-3.6587697642862366e-01
5673:-3.8490658958656959e-01
5674:-4.0623766852328391e-01
5675:-4.1994843980460683e-01
5676:-3.4911185851331694e-01
5677:-3.6780903199417447e-01
5678:-3.8886451668092764e-01
5679:-4.0248015627897643e-01
5680:-4.7127147576388628e-01
5681:-4.8096385107409451e-01
5682:-4.8952755537825798e-01
5683:-4.9310738926318531e-01
5684:-4.5089931819119211e-01
5685:-4.6093835479466166e-01
5686:-4.7031385805025044e-01
5687:-4.7468726899675873e-01
5688:-4.2633386480542756e-01
5689:-4.3661677672535981e-01
5690:-4.4667858569907570e-01
5691:-4.5179554045366660e-01
5692:-4.0885573292803407e-01
5693:-4.1921874146489102e-01
5694:-4.2958858899680635e-01
5695:-4.3510275335403237e-01
5696:-4.9401063918678367e-01
5697:-4.9403226518452781e-01
5698:-4.9085312178782442e-01
5699:-4.8599385662049810e-01
5700:-4.7604087025976988e-01
5701:-4.7691138620815365e-01
5702:-4.7490165298874881e-01
5703:-4.7104247503680258e-01
5704:-4.5360229133577046e-01
5705:-4.5540643770821820e-01
5706:-4.5480241100496555e-01
5707:-4.5218917657011043e-01
5708:-4.3717971948625473e-01
5709:-4.3959622038708812e-01
5710:-4.3997703821649897e-01
5711:-4.3824269346204886e-01
5712:-4.8257469639708039e-01
5713:-4.7495904680196049e-01
5714:-4.6285065590984870e-01
5715:-4.5200831328749985e-01
5716:-4.6820862316697004e-01
5717:-4.6176716395564021e-01
5718:-4.5127850646516715e-01
5719:-4.4169384555343072e-01
5720:-4.5008208534156902e-01
5721:-4.4504366241777782e-01
5722:-4.3641586469802179e-01
5723:-4.2825284142409881e-01
5724:-4.3663894259240060e-01
5725:-4.3254640328699284e-01
5726:-4.2515177751920508e-01
5727:-4.1794154438761122e-01
5728:-4.4571883963721903e-01
5729:-4.3319089706000941e-01
5730:-4.1552123301395383e-01
5731:-4.0101598216117118e-01
5732:-4.3606385796791780e-01
5733:-4.2472702369356929e-01
5734:-4.0854917495040360e-01
5735:-3.9516984868614530e-01
5736:-4.2337143898661211e-01
5737:-4.1343546497273592e-01
5738:-3.9909150974388935e-01
5739:-3.8713177441674312e-01
5740:-4.1357407997413059e-01
5741:-4.0463009136349032e-01
5742:-3.9162049493946482e-01
5743:-3.8069820240689900e-01
5744:-3.9297589450203602e-01
5745:-3.7760031645888770e-01
5746:-3.5708554363932749e-01
5747:-3.4106458486313551e-01
5748:-3.8773171186252359e-01
5749:-3.7347420223076899e-01
5750:-3.5436577141823283e-01
5751:-3.3935848072279662e-01
5752:-3.8045506538856783e-01
5753:-3.6758502120707565e-01
5754:-3.5018429097542758e-01
5755:-3.3639725427663209e-01
5756:-3.7457259657272796e-01
5757:-3.6269286529870631e-01
5758:-3.4649977423820150e-01
5759:-3.3358230830915231e-01
5760:-3.3244457595487331e-01
5761:-3.1627227646673489e-01
5762:-2.9522979148945871e-01
5763:-2.7916633861392298e-01
5764:-3.3124846738112140e-01
5765:-3.1597071567118151e-01
5766:-2.9599021662730995e-01
5767:-2.8067668347362651e-01
5768:-3.2890388507943036e-01
5769:-3.1473301814391402e-01
5770:-2.9610795148579372e-01
5771:-2.8177162992454929e-01
5772:-3.2653566420785612e-01
5773:-3.1318247009565209e-01
5774:-2.9557843958377233e-01
5775:-2.8198278233051238e-01
5776:-2.7064290352344883e-01
5777:-2.5486681228325236e-01
5778:-2.3475173368709448e-01
5779:-2.1970350678992878e-01
5780:-2.7253487802228393e-01
5781:-2.5743816124257418e-01
5782:-2.3812753578630722e-01
5783:-2.2362503436000900e-01
5784:-2.7412955503330017e-01
5785:-2.5991286333826136e-01
5786:-2.4163179043410937e-01
5787:-2.2782616812017359e-01
5788:-2.7471769377713573e-01
5789:-2.6116023284926909e-01
5790:-2.4364838339685913e-01
5791:-2.3036873122692733e-01
5792:-2.1182145111479719e-01
5793:-1.9735205493358987e-01
5794:-1.7911252664389449e-01
5795:-1.6561890496874879e-01
5796:-2.1600648470554124e-01
5797:-2.0198399057318112e-01
5798:-1.8424414878887749e-01
5799:-1.7107790746283852e-01
5800:-2.2054656413213392e-01
5801:-2.0711145634226846e-01
5802:-1.9004982438979706e-01
5803:-1.7734024661301662e-01
5804:-2.2334912271160626e-01
5805:-2.1037242846889181e-01
5806:-1.9385098693708763e-01
5807:-1.8150951907813329e-01
5808:-1.5860206530086160e-01
5809:-1.4580989685824627e-01
5810:-1.2985623634009283e-01
5811:-1.1818454238938524e-01
5812:-1.6421838413978782e-01
5813:-1.5169190726273310e-01
5814:-1.3602534464795410e-01
5815:-1.2452630168188825e-01
5816:-1.7070280705443133e-01
5817:-1.5855045367679835e-01
5818:-1.4328896333010718e-01
5819:-1.3203795077354841e-01
5820:-1.7505134438449499e-01
5821:-1.6320107521797750e-01
5822:-1.4826978813020389e-01
5823:-1.3722647781251615e-01
5824:-1.1215982179203624e-01
5825:-1.0122925910928021e-01
5826:-8.7692447092560286e-02
5827:-7.7860332828114304e-02
5828:-1.1857652915428170e-01
5829:-1.0775973672972707e-01
5830:-9.4323874976011648e-02
5831:-8.4536594468375095e-02
5832:-1.2619906120275429e-01
5833:-1.1555958930390831e-01
5834:-1.0229940163738632e-01
5835:-9.2606732223966037e-02
5836:-1.3148358652865652e-01
5837:-1.2100309452308994e-01
5838:-1.0791018752702729e-01
5839:-9.8315153495595442e-02
5840:-7.2809992475924554e-02
5841:-6.3689990160517476e-02
5842:-5.2478904934251794e-02
5843:-4.4401062282906571e-02
5844:-7.9499912780830115e-02
5845:-7.0389719155571476e-02
5846:-5.9160848417928388e-02
5847:-5.1045861423405427e-02
5848:-8.7607137636621660e-02
5849:-7.8543524616500507e-02
5850:-6.7331841348462984e-02
5851:-5.9197808724716215e-02
5852:-9.3356858027943829e-02
5853:-8.4351915951430156e-02
5854:-7.3182117453403736e-02
5855:-6.5055512848641556e-02
5856:-4.0274703405653631e-02
5857:-3.2854281153177164e-02
5858:-2.3791322623117183e-02
5859:-1.7307435487500217e-02
5860:-4.6891544189923327e-02
5861:-3.9407084460796493e-02
5862:-3.0240360833192828e-02
5863:-2.3663068521569599e-02
5864:-5.5022570795914022e-02
5865:-4.7484392949630055e-02
5866:-3.8221739790863525e-02
5867:-3.1552427455452038e-02
5868:-6.0876256934541996e-02
5869:-5.3319661459140702e-02
5870:-4.4012817019809809e-02
5871:-3.7294574160882187e-02
5872:-1.4012081495653058e-02
5873:-8.1163723569916274e-03
5874:-9.7635024979548504e-04
5875:4.0830176536982487e-03
5876:-2.0313617686622928e-02
5877:-1.4310664113045017e-02
5878:-7.0200134108176675e-03
5879:-1.8371046535876126e-03
5880:-2.8147879765769209e-02
5881:-2.2032432134170922e-02
5882:-1.4578221977736177e-02
5883:-9.2577151162192145e-03
5884:-3.3858810022113967e-02
5885:-2.7676817400007089e-02
5886:-2.0121383918734578e-02
5887:-1.4713106383778967e-02
5888:6.6364103411364131e-03
5889:1.1174349010509753e-02
5890:1.6609222259021256e-02
5891:2.0410757632858961e-02
5892:7.8484927599104057e-04
5893:5.4544709783255121e-03
5894:1.1066074710168157e-02
5895:1.5006276044946379e-02
5896:-6.5584423267583307e-03
5897:-1.7392998014226088e-03
5898:4.0749492383812657e-03
5899:8.1757652018816969e-03
5900:-1.1963816320727939e-02
5901:-7.0469733398798341e-03
5902:-1.0983557197337102e-03
5903:3.1105288031192603e-03
5904:2.2310594038576530e-02
5905:2.5650902656233127e-02
5906:2.9577253076658049e-02
5907:3.2262206993918678e-02
5908:1.6980917601181301e-02
5909:2.0462092234633359e-02
5910:2.4572987692498952e-02
5911:2.7399973679176477e-02
5912:1.0237660684218088e-02
5913:1.3884342857747138e-02
5914:1.8214218576444802e-02
5915:2.1211192493878903e-02
5916:5.2317022400614737e-03
5917:8.9917410169234983e-03
5918:1.3473170612916377e-02
5919:1.6588820909195657e-02
5920:3.3580457359841172e-02
5921:3.5852932666383244e-02
5922:3.8430129652903884e-02
5923:4.0113129160942215e-02
5924:2.8794079736486858e-02
5925:3.1208380591005756e-02
5926:3.3969345075624005e-02
5927:3.5792131801941525e-02
5928:2.2696528733521664e-02
5929:2.5281989448097727e-02
5930:2.8265893563204962e-02
5931:3.0259204453543010e-02
5932:1.8138158930421408e-02
5933:2.0844197491921439e-02
5934:2.3986170792402225e-02
5935:2.6101200339895800e-02
5936:4.0908167133040615e-02
5937:4.2215828212122601e-02
5938:4.3565416653210419e-02
5939:4.4329968331259469e-02
5940:3.6661246679469024e-02
5941:3.8106863176855361e-02
5942:3.9634479513677150e-02
5943:4.0534111490764670e-02
5944:3.1219034037909810e-02
5945:3.2834264668414603e-02
5946:3.4582020058380021e-02
5947:3.5649584934535468e-02
5948:2.7126077803537995e-02
5949:2.8863434833478946e-02
5950:3.0770611048174117e-02
5951:3.1960435921380613e-02
5952:4.4642967773481299e-02
5953:4.5057466925397922e-02
5954:4.5262272938982571e-02
5955:4.5163899805926402e-02
5956:4.0918654783579561e-02
5957:4.1466682285981993e-02
5958:4.1844455003454080e-02
5959:4.1877838254184153e-02
5960:3.6123368240621366e-02
5961:3.6838424554485737e-02
5962:3.7433483215084225e-02
5963:3.7633101882264756e-02
5964:3.2499399804951937e-02
5965:3.3336823134697914e-02
5966:3.4091797387642814e-02
5967:3.4414325624473656e-02
5968:4.5021680078348947e-02
5969:4.4588033647579184e-02
5970:4.3696587982983280e-02
5971:4.2764898913117966e-02
5972:4.1805613701348401e-02
5973:4.1503454720882078e-02
5974:4.0784219624718718e-02
5975:3.9985279739337048e-02
5976:3.7649447186023519e-02
5977:3.7514144771589084e-02
5978:3.7014340673774307e-02
5979:3.6385201995933862e-02
5980:3.4496357525790451e-02
5981:3.4485148572529926e-02
5982:3.4149182841207264e-02
5983:3.3647291080967152e-02
5984:4.2180648073802902e-02
5985:4.0919354758567478e-02
5986:3.8950423895217988e-02
5987:3.7193913446291922e-02
5988:3.9472165698427784e-02
5989:3.8346080091699757e-02
5990:3.6557454959478507e-02
5991:3.4942441207699189e-02
5992:3.5963297060291971e-02
5993:3.5010920493719469e-02
5994:3.3454603703541932e-02
5995:3.2022380786220786e-02
5996:3.3293891184553913e-02
5997:3.2472240295332445e-02
5998:3.1091233164208688e-02
5999:2.9797307597863747e-02
6000:3.6170161025031441e-02
6001:3.4082718691110785e-02
6002:3.1032245956075257e-02
6003:2.8443451778436348e-02
6004:3.3995432119461509e-02
6005:3.2055990379642435e-02
6006:2.9207188774469615e-02
6007:2.6779959396818806e-02
6008:3.1174673824136360e-02
6009:2.9426984784865676e-02
6010:2.6839907176661910e-02
6011:2.4622645791136249e-02
6012:2.9024849702819149e-02
6013:2.7422636678826176e-02
6014:2.5034414665801332e-02
6015:2.2976882493717821e-02
6016:2.6974794974538648e-02
6017:2.4049235037163854e-02
6018:1.9898497854124227e-02
6019:1.6460990942109566e-02
6020:2.5400114599216969e-02
6021:2.2648409017619116e-02
6022:1.8739622488358504e-02
6023:1.5499695543533001e-02
6024:2.3358306910315832e-02
6025:2.0832772802095653e-02
6026:1.7238819907370511e-02
6027:1.4256019896370979e-02
6028:2.1800470368164702e-02
6029:1.9447142407448409e-02
6030:1.6092942734681061e-02
6031:1.3305963717215598e-02
6032:1.4538090019028772e-02
6033:1.0757039210469591e-02
6034:5.4843286094870087e-03
6035:1.1825956580876205e-03
6036:1.3686689608685170e-02
6037:1.0123199063055942e-02
6038:5.1578862367042790e-03
6039:1.1105180642428968e-03
6040:1.2586026316866622e-02
6041:9.3055363082846891e-03
6042:4.7397940161934089e-03
6043:1.0228200198330872e-03
6044:1.1744879336270917e-02
6045:8.6798037586433546e-03
6046:4.4179736035061144e-03
6047:9.5210604208114682e-04
6048:-8.9411323186357507e-03
6049:-4.3141514422099382e-02
6050:-8.6956458211443322e-02
6051:-1.1990363726523073e-01
6052:-8.4684535588872914e-03
6053:-4.0683589582241921e-02
6054:-8.2235017372772806e-02
6055:-1.1357630021187309e-01
6056:-8.0034338868683157e-03
6057:-3.8009036146391992e-02
6058:-7.6859528837587648e-02
6059:-1.0621417394429861e-01
6060:-7.7095251585266788e-03
6061:-3.6309955414732989e-02
6062:-7.3295538287246359e-02
6063:-1.0123233247382253e-01
6064:-1.3720980878454617e-01
6065:-1.6879521751486071e-01
6066:-2.0805027249612690e-01
6067:-2.3652109761274009e-01
6068:-1.3003701184048586e-01
6069:-1.6006072544963398e-01
6070:-1.9740217796940451e-01
6071:-2.2456644492524303e-01
6072:-1.2163228991414345e-01
6073:-1.4978381938071186e-01
6074:-1.8490104214625155e-01
6075:-2.1056539676190694e-01
6076:-1.1591239178062286e-01
6077:-1.4276703780948066e-01
6078:-1.7636660882984331e-01
6079:-2.0099369976836115e-01
6080:-2.5107463345134018e-01
6081:-2.7700321521256321e-01
6082:-3.0806361844943320e-01
6083:-3.2972885617836356e-01
6084:-2.3850082910388667e-01
6085:-2.6343468986116542e-01
6086:-2.9349160392048096e-01
6087:-3.1457999834187600e-01
6088:-2.2378246231968085e-01
6089:-2.4749665545204674e-01
6090:-2.7618751731131835e-01
6091:-2.9638707120525232e-01
6092:-2.1369871904594545e-01
6093:-2.3650063918306333e-01
6094:-2.6410288747715410e-01
6095:-2.8355708772938537e-01
6096:-3.4049874285389808e-01
6097:-3.5905303154388485e-01
6098:-3.8000049864381491e-01
6099:-3.9358201987334718e-01
6100:-3.2510110807317594e-01
6101:-3.4329567933151628e-01
6102:-3.6396508832243646e-01
6103:-3.7746148978371424e-01
6104:-3.0648963123716577e-01
6105:-3.2405666797663107e-01
6106:-3.4421324928342661e-01
6107:-3.5753631216238224e-01
6108:-2.9330001331418204e-01
6109:-3.1031227601049594e-01
6110:-3.2998607339460923e-01
6111:-3.4311982780911376e-01
6112:-3.9995339176664030e-01
6113:-4.1033911795289624e-01
6114:-4.2082108407196184e-01
6115:-4.2650426936494890e-01
6116:-3.8382642982244192e-01
6117:-3.9425999820071739e-01
6118:-4.0495161618382702e-01
6119:-4.1093819367071538e-01
6120:-3.6388006919382060e-01
6121:-3.7436732849446902e-01
6122:-3.8532181119663345e-01
6123:-3.9167385128097620e-01
6124:-3.4942396454551677e-01
6125:-3.5992163059898885e-01
6126:-3.7104458402059409e-01
6127:-3.7763945265425369e-01
6128:-4.2870657482850671e-01
6129:-4.3142175796930576e-01
6130:-4.3229269804404236e-01
6131:-4.3098954618472574e-01
6132:-4.1336110554438243e-01
6133:-4.1658963768128282e-01
6134:-4.1828708742267007e-01
6135:-4.1770484388802126e-01
6136:-3.9435330954831727e-01
6137:-3.9815678586500131e-01
6138:-4.0075939237690367e-01
6139:-4.0096785725649764e-01
6140:-3.8048613607052784e-01
6141:-3.8465564922120088e-01
6142:-3.8783380054071759e-01
6143:-3.8855766800885122e-01
6144:-4.2962751617136363e-01
6145:-4.2598550478249680e-01
6146:-4.1918277283112360e-01
6147:-4.1244293334439419e-01
6148:-4.1674694024323106e-01
6149:-4.1387537227649540e-01
6150:-4.0811734416850759e-01
6151:-4.0222696092448390e-01
6152:-4.0045902523731863e-01
6153:-3.9847641629270475e-01
6154:-3.9397434285385913e-01
6155:-3.8912549934565333e-01
6156:-3.8834977637702078e-01
6157:-3.8698228598640450e-01
6158:-3.8337086771419332e-01
6159:-3.7926175909465748e-01
6160:-4.0833625708022603e-01
6161:-3.9990205803767759e-01
6162:-3.8758084161102069e-01
6163:-3.7718836962786839e-01
6164:-3.9859494705136783e-01
6165:-3.9107705218058514e-01
6166:-3.7997362650907668e-01
6167:-3.7050900172513562e-01
6168:-3.8607587163977769e-01
6169:-3.7966138587458015e-01
6170:-3.6999672472450323e-01
6171:-3.6162192463083309e-01
6172:-3.7662172673601313e-01
6173:-3.7097247236737119e-01
6174:-3.6229745881969688e-01
6175:-3.5467828278839797e-01
6176:-3.7134041940594908e-01
6177:-3.5995733473222091e-01
6178:-3.4437206895658889e-01
6179:-3.3189931408039447e-01
6180:-3.6514612261875806e-01
6181:-3.5464180723846633e-01
6182:-3.4015317205721313e-01
6183:-3.2849559547123292e-01
6184:-3.5683167213306316e-01
6185:-3.4738647975529596e-01
6186:-3.3425400974137032e-01
6187:-3.2361997421197175e-01
6188:-3.5029099554806703e-01
6189:-3.4160476745665036e-01
6190:-3.2946081629014445e-01
6191:-3.1957601710130301e-01
6192:-3.2508509620117676e-01
6193:-3.1216094814661444e-01
6194:-2.9509504037831757e-01
6195:-2.8188802902338317e-01
6196:-3.2211020473322299e-01
6197:-3.0997234106246624e-01
6198:-2.9388342728899486e-01
6199:-2.8137776861196179e-01
6200:-3.1777429933263562e-01
6201:-3.0661620280865676e-01
6202:-2.9173181317117081e-01
6203:-2.8008874379594140e-01
6204:-3.1412355536438397e-01
6205:-3.0367422217742651e-01
6206:-2.8965813629204179e-01
6207:-2.7864110203265252e-01
6208:-2.7481919366069207e-01
6209:-2.6160441141390711e-01
6210:-2.4449437319011511e-01
6211:-2.3149333643863176e-01
6212:-2.7466275718649724e-01
6213:-2.6207188526000430e-01
6214:-2.4570510106571605e-01
6215:-2.3322692827002964e-01
6216:-2.7381096814636996e-01
6217:-2.6200280511067331e-01
6218:-2.4658764287403265e-01
6219:-2.3478871930581355e-01
6220:-2.7268426399176998e-01
6221:-2.6145800223667753e-01
6222:-2.4676005979603044e-01
6223:-2.3547615203619035e-01
6224:-2.2461350267465532e-01
6225:-2.1188514906137829e-01
6226:-1.9565816626651431e-01
6227:-1.8351741135051225e-01
6228:-2.2661127083593405e-01
6229:-2.1435065313270307e-01
6230:-1.9867547325277948e-01
6231:-1.8690995319372200e-01
6232:-2.2851779920978213e-01
6233:-2.1686457194969741e-01
6234:-2.0190275194800020e-01
6235:-1.9062335186501456e-01
6236:-2.2946629869032106e-01
6237:-2.1827183626747684e-01
6238:-2.0384944844788083e-01
6239:-1.9294106867983762e-01
6240:-1.7715663083527328e-01
6241:-1.6547089183929992e-01
6242:-1.5072144625449532e-01
6243:-1.3979508224399104e-01
6244:-1.8073148920345913e-01
6245:-1.6935711687387647e-01
6246:-1.5495844741900500e-01
6247:-1.4426242183803609e-01
6248:-1.8468275896390415e-01
6249:-1.7372093977155151e-01
6250:-1.5979805142778306e-01
6251:-1.4942126554479102e-01
6252:-1.8718422150473010e-01
6253:-1.7654507899116340e-01
6254:-1.6300029028982113e-01
6255:-1.5288019944469566e-01
6256:-1.3410748910519305e-01
6257:-1.2371997643550295e-01
6258:-1.1072711072141445e-01
6259:-1.0119199275594064e-01
6260:-1.3868519977314514e-01
6261:-1.2848368379526084e-01
6262:-1.1569201946679926e-01
6263:-1.0627902771126395e-01
6264:-1.4399876696674127e-01
6265:-1.3405868372356217e-01
6266:-1.2155240958678860e-01
6267:-1.1231650185643439e-01
6268:-1.4758266043019080e-01
6269:-1.3785451411688457e-01
6270:-1.2558247161284269e-01
6271:-1.1649557681839322e-01
6272:-9.6259601921617130e-02
6273:-8.7293078073251498e-02
6274:-7.6155040931277798e-02
6275:-6.8040007786238185e-02
6276:-1.0140041486678847e-01
6277:-9.2516760141581819e-02
6278:-8.1454245669860842e-02
6279:-7.3374127233186828e-02
6280:-1.0751806082536827e-01
6281:-9.8763284300478010e-02
6282:-8.7829299220748988e-02
6283:-7.9818909898511578e-02
6284:-1.1176646893742614e-01
6285:-1.0312641245556609e-01
6286:-9.2313011812498943e-02
6287:-8.4373160244871098e-02
6288:-6.3862864843320918e-02
6289:-5.6304394217366230e-02
6290:-4.6983979551089815e-02
6291:-4.0246833452469162e-02
6292:-6.9208158063658862e-02
6293:-6.1659068020857022e-02
6294:-5.2328833783327290e-02
6295:-4.5567511200342602e-02
6296:-7.5680453266077100e-02
6297:-6.8166839636260912e-02
6298:-5.8852462173686226e-02
6299:-5.2080837579105838e-02
6300:-8.0264718017999878e-02
6301:-7.2794538554609919e-02
6302:-6.3512941584440680e-02
6303:-5.6749205392051076e-02
6304:-3.6798041157070208e-02
6305:-3.0587110939017077e-02
6306:-2.2985926419488937e-02
6307:-1.7537018242364397e-02
6308:-4.2100129294036337e-02
6309:-3.5845978714288691e-02
6310:-2.8173494493239946e-02
6311:-2.2659425254903505e-02
6312:-4.8600437153498717e-02
6313:-4.2311138725024240e-02
6314:-3.4573322958519219e-02
6315:-2.8995093054285954e-02
6316:-5.3267340188662318e-02
6317:-4.6967088458425399e-02
6318:-3.9199734978834257e-02
6319:-3.3587551020020180e-02
6320:-1.4764323570759066e-02
6321:-9.8013237422047168e-03
6322:-3.7883453097724271e-03
6323:4.7298484186307922e-04
6324:-1.9848631004753051e-02
6325:-1.4809432299360631e-02
6326:-8.6883044544228440e-03
6327:-4.3375825386788901e-03
6328:-2.6145445955383453e-02
6329:-2.1026314541701341e-02
6330:-1.4787917663418903e-02
6331:-1.0337823871851389e-02
6332:-3.0715970551558173e-02
6333:-2.5549741546367792e-02
6334:-1.9239027357613618e-02
6335:-1.4725685074831692e-02
6336:2.6231628203240809e-03
6337:6.4389864082978485e-03
6338:1.0995529415339869e-02
6339:1.4170339889556698e-02
6340:-2.1375880114430919e-03
6341:1.7744829930361201e-03
6342:6.4614158342486154e-03
6343:9.7395232622523031e-03
6344:-8.0817405813959318e-03
6345:-4.0603950957375599e-03
6346:7.7629206918979901e-04
6347:4.1743529784600344e-03
6348:-1.2433344778968392e-02
6349:-8.3405394588297165e-03
6350:-3.4043468498242808e-03
6351:7.4609794646428659e-05
6352:1.5751685876311212e-02
6353:1.8518227476423531e-02
6354:2.1739923687794999e-02
6355:2.3916663627233083e-02
6356:1.1376970493310474e-02
6357:1.4249997508593938e-02
6358:1.7612831829033060e-02
6359:1.9899409416589860e-02
6360:5.8774151853294553e-03
6361:8.8758520255669045e-03
6362:1.2406489803195416e-02
6363:1.4824758694727302e-02
6364:1.8223359635767208e-03
6365:4.9068157436102672e-03
6366:8.5537855611251407e-03
6367:1.1064173148983621e-02
6368:2.4974633940436062e-02
6369:2.6774295091332397e-02
6370:2.8763110595164749e-02
6371:3.0015761553274338e-02
6372:2.1016471674184068e-02
6373:2.2927653161027173e-02
6374:2.5063107190216517e-02
6375:2.6428996198279629e-02
6376:1.6013021270705623e-02
6377:1.8059107321677603e-02
6378:2.0372981251350397e-02
6379:2.1877450303618987e-02
6380:1.2302500485272696e-02
6381:1.4443881723803162e-02
6382:1.6884644246281191e-02
6383:1.8488326056905965e-02
6384:3.0588291166901142e-02
6385:3.1488865271252123e-02
6386:3.2326637361878595e-02
6387:3.2713009884971299e-02
6388:2.7062164707422127e-02
6389:2.8077100694915196e-02
6390:2.9065338789218808e-02
6391:2.9568117067151754e-02
6392:2.2585113851281775e-02
6393:2.3741073599747968e-02
6394:2.4915850950048384e-02
6395:2.5563660772677646e-02
6396:1.9249554134793841e-02
6397:2.0507313775103491e-02
6398:2.1817484054383555e-02
6399:2.2571087020473474e-02
6400:3.2829234422935054e-02
6401:3.2882738784371375e-02
6402:3.2632429283923924e-02
6403:3.2197218880834308e-02
6404:2.9746812448139381e-02
6405:2.9918752967830302e-02
6406:2.9825594279890098e-02
6407:2.9513010353751135e-02
6408:2.5820427813802147e-02
6409:2.6140772425394195e-02
6410:2.6245275376691721e-02
6411:2.6087488675362560e-02
6412:2.2884977464511833e-02
6413:2.3314205020515084e-02
6414:2.3564303668302727e-02
6415:2.3520966966616475e-02
6416:3.1879769327734328e-02
6417:3.1126810059019107e-02
6418:2.9838089700006752e-02
6419:2.8617089446674973e-02
6420:2.9261772439276561e-02
6421:2.8635500612346654e-02
6422:2.7517306862110687e-02
6423:2.6431286406187936e-02
6424:2.5920025260166943e-02
6425:2.5454371218299337e-02
6426:2.4552973294589664e-02
6427:2.3638977885181118e-02
6428:2.3415588526012478e-02
6429:2.3069202826064301e-02
6430:2.2329215046976776e-02
6431:2.1543595083012096e-02
6432:2.7884351419557984e-02
6433:2.6358982028238487e-02
6434:2.4075893963710408e-02
6435:2.2102872492459884e-02
6436:2.5772140680397120e-02
6437:2.4389244249474411e-02
6438:2.2301252489485283e-02
6439:2.0485173630795165e-02
6440:2.3073756141368557e-02
6441:2.1872874721828563e-02
6442:2.0034441131408322e-02
6443:1.8419330636676071e-02
6444:2.1048559665591177e-02
6445:1.9983819812038620e-02
6446:1.8332270592169742e-02
6447:1.6867808954882758e-02
6448:2.0972999512938257e-02
6449:1.8710829931440590e-02
6450:1.5483555014208719e-02
6451:1.2800244906682906e-02
6452:1.9441762170766902e-02
6453:1.7348972205388172e-02
6454:1.4357555479132941e-02
6455:1.1866890343940950e-02
6456:1.7486698771566535e-02
6457:1.5610961953592807e-02
6458:1.2921807970433448e-02
6459:1.0678014109762688e-02
6460:1.6018263523340563e-02
6461:1.4305333741569323e-02
6462:1.1842893238894125e-02
6463:9.7842419391561113e-03
6464:1.1296815049597123e-02
6465:8.3457378700479926e-03
6466:4.2446533033471115e-03
6467:9.1153189073326973e-04
6468:1.0470591798046647e-02
6469:7.7312703467377264e-03
6470:3.9286155594310552e-03
6471:8.4181380553723421e-04
6472:9.4189851438629905e-03
6473:6.9508480713248921e-03
6474:3.5300607762771652e-03
6475:7.5819657000934446e-04
6476:8.6281412617868723e-03
6477:6.3632322688253924e-03
6478:3.2283736162793081e-03
6479:6.9212975424422717e-04
6480:-7.5559505495583603e-03
6481:-3.5501821424272148e-02
6482:-7.1567788606831814e-02
6483:-9.8792818119168610e-02
6484:-7.2187263468291886e-03
6485:-3.3984842793929403e-02
6486:-6.8423729534260430e-02
6487:-9.4398773481549139e-02
6488:-6.7248957677984982e-03
6489:-3.1997547248500173e-02
6490:-6.4466599995342225e-02
6491:-8.8953433811486987e-02
6492:-6.3536103970363795e-03
6493:-3.0494902110469208e-02
6494:-6.1541808786500146e-02
6495:-8.4973654511960164e-02
6496:-1.1310528653960887e-01
6497:-1.3931924557060846e-01
6498:-1.7216656435548333e-01
6499:-1.9626576606717372e-01
6500:-1.0806479232171159e-01
6501:-1.3313702654414067e-01
6502:-1.6461569949198185e-01
6503:-1.8773666681582779e-01
6504:-1.0184615992703998e-01
6505:-1.2552483526278801e-01
6506:-1.5529113787540913e-01
6507:-1.7717173851011092e-01
6508:-9.7314977543985506e-02
6509:-1.1998491094391531e-01
6510:-1.4849605532108548e-01
6511:-1.6946948104234683e-01
6512:-2.0870178748843754e-01
6513:-2.3101599823101412e-01
6514:-2.5802834135507724e-01
6515:-2.7707876122030461e-01
6516:-1.9967061247666681e-01
6517:-2.2109107174060491e-01
6518:-2.4705552355988555e-01
6519:-2.6541207356753438e-01
6520:-1.8846989741644365e-01
6521:-2.0878721664961430e-01
6522:-2.3350881569186391e-01
6523:-2.5107361607606082e-01
6524:-1.8030792899343079e-01
6525:-1.9984147269207445e-01
6526:-2.2369880638402478e-01
6527:-2.4071961592884911e-01
6528:-2.8662831773286157e-01
6529:-3.0333648728135204e-01
6530:-3.2273216955089884e-01
6531:-3.3574392390585983e-01
6532:-2.7463637459779933e-01
6533:-2.9082517434419297e-01
6534:-3.0972359926639209e-01
6535:-3.2249361053839626e-01
6536:-2.5993474980219611e-01
6537:-2.7553138889971507e-01
6538:-2.9382986086061635e-01
6539:-3.0627444669993026e-01
6540:-2.4933084617605919e-01
6541:-2.6451375002295596e-01
6542:-2.8237892284627436e-01
6543:-2.9457509803981058e-01
6544:-3.4201494132122523e-01
6545:-3.5250000009282617e-01
6546:-3.6369290728658243e-01
6547:-3.7039945148528081e-01
6548:-3.2868543127377647e-01
6549:-3.3911046200739853e-01
6550:-3.5038369862697405e-01
6551:-3.5726005482618939e-01
6552:-3.1234184277690097e-01
6553:-3.2263655153954673e-01
6554:-3.3393266569392183e-01
6555:-3.4096338078583849e-01
6556:-3.0054099949196822e-01
6557:-3.1071370202335297e-01
6558:-3.2198321265364310e-01
6559:-3.2909159537992877e-01
6560:-3.7332331001579860e-01
6561:-3.7766159983081732e-01
6562:-3.8111025380895946e-01
6563:-3.8208456977772781e-01
6564:-3.6030803934301603e-01
6565:-3.6492776187362463e-01
6566:-3.6884316349270557e-01
6567:-3.7025797314445774e-01
6568:-3.4413811011683104e-01
6569:-3.4906458322482953e-01
6570:-3.5351483777374471e-01
6571:-3.5544463159270245e-01
6572:-3.3234101790779746e-01
6573:-3.3746173080592323e-01
6574:-3.4226610501333404e-01
6575:-3.4454088929634896e-01
6576:-3.8202674159144295e-01
6577:-3.8096984906588155e-01
6578:-3.7780933885393375e-01
6579:-3.7407082299189293e-01
6580:-3.7046561316909438e-01
6581:-3.6995311911693207e-01
6582:-3.6757503239863132e-01
6583:-3.6447642292692145e-01
6584:-3.5596331827180216e-01
6585:-3.5608040291627785e-01
6586:-3.5459850819823940e-01
6587:-3.5223418188624261e-01
6588:-3.4526748833620585e-01
6589:-3.4580237851140289e-01
6590:-3.4491627982000095e-01
6591:-3.4304732348451383e-01
6592:-3.7163345558206207e-01
6593:-3.6636106174390176e-01
6594:-3.5817518147853061e-01
6595:-3.5093503968721890e-01
6596:-3.6238906172736995e-01
6597:-3.5777549274596282e-01
6598:-3.5045929895592082e-01
6599:-3.4390151271074165e-01
6600:-3.5055164650747700e-01
6601:-3.4671574687124312e-01
6602:-3.4045005146307800e-01
6603:-3.3472641883857468e-01
6604:-3.4164235651415381e-01
6605:-3.3834964511220317e-01
6606:-3.3282977033544991e-01
6607:-3.2770050068952067e-01
6608:-3.4675296602775640e-01
6609:-3.3845644284687232e-01
6610:-3.2682220750702268e-01
6611:-3.1732219857553512e-01
6612:-3.4009055331779270e-01
6613:-3.3249476650943682e-01
6614:-3.2177040986535876e-01
6615:-3.1295444652085019e-01
6616:-3.3136962539620562e-01
6617:-3.2462378588672958e-01
6618:-3.1499369820794965e-01
6619:-3.0699961264472547e-01
6620:-3.2466595320106928e-01
6621:-3.1851924169848955e-01
6622:-3.0965840208811291e-01
6623:-3.0224578669323948e-01
6624:-3.1207029407294457e-01
6625:-3.0198174677860162e-01
6626:-2.8840904424654656e-01
6627:-2.7771499521100085e-01
6628:-3.0805900813641618e-01
6629:-2.9861689742767933e-01
6630:-2.8584828472547180e-01
6631:-2.7574589463992571e-01
6632:-3.0253443041888078e-01
6633:-2.9388262431452272e-01
6634:-2.8211305647456486e-01
6635:-2.7275339181671621e-01
6636:-2.9808797934231712e-01
6637:-2.9000717033339779e-01
6638:-2.7896770399758419e-01
6639:-2.7015315227515524e-01
6640:-2.7192552936174186e-01
6641:-2.6100453125815515e-01
6642:-2.4668440631629429e-01
6643:-2.3567153077327369e-01
6644:-2.7026439432303051e-01
6645:-2.5990336411788972e-01
6646:-2.4627339407995522e-01
6647:-2.3575454018296019e-01
6648:-2.6765944556154564e-01
6649:-2.5799986459723556e-01
6650:-2.4523072122256526e-01
6651:-2.3532849329036654e-01
6652:-2.6534321175805164e-01
6653:-2.5619618509351144e-01
6654:-2.4405601087787712e-01
6655:-2.3460704651821607e-01
6656:-2.2979856967825227e-01
6657:-2.1884470899963979e-01
6658:-2.0470654923419976e-01
6659:-1.9399567068750440e-01
6660:-2.3013122183205334e-01
6661:-2.1961911313675075e-01
6662:-2.0600848253110568e-01
6663:-1.9566790889519345e-01
6664:-2.3001812517385178e-01
6665:-2.2006544742640530e-01
6666:-2.0713232567955014e-01
6667:-1.9727256707273225e-01
6668:-2.2952856853663375e-01
6669:-2.1999402876677837e-01
6670:-2.0757240530606058e-01
6671:-1.9807777164773210e-01
6672:-1.8833763281241386e-01
6673:-1.7787303629154333e-01
6674:-1.6453399908271124e-01
6675:-1.5455399614185711e-01
6676:-1.9019614146288272e-01
6677:-1.8006030130611470e-01
6678:-1.6710838872701408e-01
6679:-1.5739220341644294e-01
6680:-1.9204373084658410e-01
6681:-1.8233612855044715e-01
6682:-1.6988856674548719e-01
6683:-1.6051766609906865e-01
6684:-1.9303359233724546e-01
6685:-1.8365153271719611e-01
6686:-1.7158869129612436e-01
6687:-1.6248345330553218e-01
6688:-1.4932464805595472e-01
6689:-1.3971257687192648e-01
6690:-1.2757016531149265e-01
6691:-1.1856724416396543e-01
6692:-1.5229160894171370e-01
6693:-1.4290053132206240e-01
6694:-1.3100852431390364e-01
6695:-1.2217047252200870e-01
6696:-1.5558672356871092e-01
6697:-1.4649022027451938e-01
6698:-1.3493806647503784e-01
6699:-1.2632784061185864e-01
6700:-1.5768427252309739e-01
6701:-1.4881874167456688e-01
6702:-1.3753658731298132e-01
6703:-1.2910945961426665e-01
6704:-1.1387789895278838e-01
6705:-1.0530451378704224e-01
6706:-9.4562726552266926e-02
6707:-8.6665954862647651e-02
6708:-1.1756006663345078e-01
6709:-1.0911966538613969e-01
6710:-9.8522100274884061e-02
6711:-9.0713596290767681e-02
6712:-1.2182772085862800e-01
6713:-1.1357420179016824e-01
6714:-1.0318204684901931e-01
6715:-9.5502333365745914e-02
6716:-1.2469852776157542e-01
6717:-1.1659702845381556e-01
6718:-1.0637431056513441e-01
6719:-9.8803359296251211e-02
6720:-8.2576317923268208e-02
6721:-7.5134496170477919e-02
6722:-6.5877215837324157e-02
6723:-5.9123090079065944e-02
6724:-8.6663254912043880e-02
6725:-7.9282673052871025e-02
6726:-7.0082360776123120e-02
6727:-6.3355428794583640e-02
6728:-9.1510857320016556e-02
6729:-8.4225378753835789e-02
6730:-7.5120638769131179e-02
6731:-6.8446084815502600e-02
6732:-9.4862777560859354e-02
6733:-8.7661606691985375e-02
6734:-7.8645699482227549e-02
6735:-7.2023402280046278e-02
6736:-5.5643406619276962e-02
6737:-4.9342835495205815e-02
6738:-4.1566726821496751e-02
6739:-3.5941556364998531e-02
6740:-5.9884805970228057e-02
6741:-5.3592675033682709e-02
6742:-4.5811388565457828e-02
6743:-4.0170141097012939e-02
6744:-6.4996339270938716e-02
6745:-5.8731764134605756e-02
6746:-5.0964561619259600e-02
6747:-4.5317954637301559e-02
6748:-6.8596061194787089e-02
6749:-6.2364407262950491e-02
6750:-5.4623142043981554e-02
6751:-4.8984003386680679e-02
6752:-3.3060901052159378e-02
6753:-2.7874332144585054e-02
6754:-2.1531068499944201e-02
6755:-1.6988489959214832e-02
6756:-3.7276791741051793e-02
6757:-3.2060180187693216e-02
6758:-2.5666377872436603e-02
6759:-2.1076903959265880e-02
6760:-4.2416308369415880e-02
6761:-3.7175999545637342e-02
6762:-3.0736302804213297e-02
6763:-2.6100708756545032e-02
6764:-4.6082199296681309e-02
6765:-4.0835318592838801e-02
6766:-3.4375319224947562e-02
6767:-2.9715461266385752e-02
6768:-1.4679177047990013e-02
6769:-1.0552568332404257e-02
6770:-5.5686351985678095e-03
6771:-2.0503716254647768e-03
6772:-1.8739919290456406e-02
6773:-1.4557429830100450e-02
6774:-9.4932082826101969e-03
6775:-5.9079210092842314e-03
6776:-2.3735484661455478e-02
6777:-1.9494339178951426e-02
6778:-1.4343027727496538e-02
6779:-1.0683205045034826e-02
6780:-2.7334350165998344e-02
6781:-2.3058727305086329e-02
6782:-1.7853771331017617e-02
6783:-1.4146497854073762e-02
6784:-2.8077685122526166e-04
6785:2.8460761677014598e-03
6786:6.5507613069273303e-03
6787:9.1071391938421682e-03
6788:-4.1007553308429531e-03
6789:-9.0072185211547437e-04
6790:2.9043430117572104e-03
6791:5.5412255994928715e-03
6792:-8.8337068669255350e-03
6793:-5.5504270994647924e-03
6794:-1.6297000279673912e-03
6795:1.1010343924064191e-03
6796:-1.2269598383407819e-02
6797:-8.9317391066325216e-03
6798:-4.9338806002921969e-03
6799:-2.1396113043320891e-03
6800:1.0370552429020985e-02
6801:1.2559850805821858e-02
6802:1.5064745223512274e-02
6803:1.6718820812853374e-02
6804:6.8487289672498905e-03
6805:9.1225839872272965e-03
6806:1.1741284598088219e-02
6807:1.3485243707393514e-02
6808:2.4603118058217658e-03
6809:4.8341306455060669e-03
6810:7.5886120884077687e-03
6811:9.4406855724487194e-03
6812:-7.4496496337775905e-04
6813:1.6976749900407108e-03
6814:4.5466003578709434e-03
6815:6.4745468243127885e-03
6816:1.7507342823695902e-02
6817:1.8817114037794784e-02
6818:2.0196713684759161e-02
6819:2.1004748409689751e-02
6820:1.4322597702916303e-02
6821:1.5725656055834519e-02
6822:1.7230223224991143e-02
6823:1.8136559930046422e-02
6824:1.0337060719945593e-02
6825:1.1853330385765691e-02
6826:1.3510431643250744e-02
6827:1.4537411312677200e-02
6828:7.4125593487662971e-03
6829:9.0090640076221674e-03
6830:1.0774973882587014e-02
6831:1.1888538188527826e-02
6832:2.1348089331785690e-02
6833:2.1833559705863297e-02
6834:2.2159070632497588e-02
6835:2.2175166719428742e-02
6836:1.8533201223892758e-02
6837:1.9120669200148772e-02
6838:1.9583331274829405e-02
6839:1.9707797073804403e-02
6840:1.4999693131588611e-02
6841:1.5713171757656661e-02
6842:1.6346013769412349e-02
6843:1.6605475000298107e-02
6844:1.2398109321893908e-02
6845:1.3202670300655597e-02
6846:1.3959072998752417e-02
6847:1.4316940133868292e-02
6848:2.2102079963146583e-02
6849:2.1817807362249246e-02
6850:2.1162021815198044e-02
6851:2.0443470270522991e-02
6852:1.9693682899263609e-02
6853:1.9522982268327972e-02
6854:1.9021410831330181e-02
6855:1.8425874329269811e-02
6856:1.6664994809340677e-02
6857:1.6636364174498760e-02
6858:1.6328184948440634e-02
6859:1.5887261040596703e-02
6860:1.4430262941546845e-02
6861:1.4505637512615775e-02
6862:1.4339397521392270e-02
6863:1.4012209984930859e-02
6864:1.9985134380708463e-02
6865:1.8991623946459150e-02
6866:1.7437927161083056e-02
6867:1.6052395363756588e-02
6868:1.8034910498604041e-02
6869:1.7172242458583984e-02
6870:1.5798429945231871e-02
6871:1.4558086061218214e-02
6872:1.5581086350368780e-02
6873:1.4883232953048992e-02
6874:1.3736254451563065e-02
6875:1.2679148542046454e-02
6876:1.3768491358702267e-02
6877:1.3192142328701221e-02
6878:1.2212554165682414e-02
6879:1.1290770117970889e-02
6880:1.5246396104339144e-02
6881:1.3618795777075482e-02
6882:1.1275169408419550e-02
6883:9.3135328377599840e-03
6884:1.3832212551200729e-02
6885:1.2361617540554056e-02
6886:1.0236582799540732e-02
6887:8.4534030057585412e-03
6888:1.2054441233378633e-02
6889:1.0782066061612351e-02
6890:8.9329390918988505e-03
6891:7.3749418051085773e-03
6892:1.0740800664947777e-02
6893:9.6148437101594361e-03
6894:7.9694552287749264e-03
6895:6.5776776951617143e-03
6896:8.2113588906844604e-03
6897:6.0528848456254105e-03
6898:3.0676838481852532e-03
6899:6.5469594214676290e-04
6900:7.4504109937956050e-03
6901:5.4876144922544733e-03
6902:2.7773846329852462e-03
6903:5.9072331439623271e-04
6904:6.4970674952873611e-03
6905:4.7809576200851410e-03
6906:2.4170289992908921e-03
6907:5.1512820438046265e-04
6908:5.7921306958747506e-03
6909:4.2579243675074270e-03
6910:2.1490678135181536e-03
6911:4.5668534807304106e-04
6912:-6.1741037237519449e-03
6913:-2.9713448639328132e-02
6914:-6.0025269945298193e-02
6915:-8.2917845389329059e-02
6916:-5.8970290036853452e-03
6917:-2.8355227294044553e-02
6918:-5.7336944511188564e-02
6919:-7.9251013490050537e-02
6920:-5.6167335021457690e-03
6921:-2.6778692431195818e-02
6922:-5.4133650429726357e-02
6923:-7.4841158947393627e-02
6924:-5.4271544587982902e-03
6925:-2.5691608520640615e-02
6926:-5.1891845558228067e-02
6927:-7.1733512065760549e-02
6928:-9.4976225445647211e-02
6929:-1.1712592443494671e-01
6930:-1.4498994815262983e-01
6931:-1.6550063120200592e-01
6932:-9.0796813515389679e-02
6933:-1.1201000639473641e-01
6934:-1.3871923279039108e-01
6935:-1.5841008509867449e-01
6936:-8.5756487704719317e-02
6937:-1.0582769040486376e-01
6938:-1.3114183752962949e-01
6939:-1.4984586829212879e-01
6940:-8.2197027428653660e-02
6941:-1.0145407203149362e-01
6942:-1.2577603643155613e-01
6943:-1.4377433366076781e-01
6944:-1.7610764887376082e-01
6945:-1.9524862784740218e-01
6946:-2.1867274720850796e-01
6947:-2.3541713831404940e-01
6948:-1.6860808533191315e-01
6949:-1.8704603088876165e-01
6950:-2.0967409844199483e-01
6951:-2.2589445511724554e-01
6952:-1.5955006769316185e-01
6953:-1.7712246541366922e-01
6954:-1.9873829630465206e-01
6955:-2.1427019476222015e-01
6956:-1.5312200039276416e-01
6957:-1.7006038757896935e-01
6958:-1.9092070712822801e-01
6959:-2.0593169284988433e-01
6960:-2.4389902045801914e-01
6961:-2.5886701759346653e-01
6962:-2.7650662440521645e-01
6963:-2.8857313193006767e-01
6964:-2.3412574136582032e-01
6965:-2.4867943674608786e-01
6966:-2.6589031014037634e-01
6967:-2.7771518049015853e-01
6968:-2.2216590812743431e-01
6969:-2.3616676336847506e-01
6970:-2.5281041243933255e-01
6971:-2.6431812009551037e-01
6972:-2.1357223455415814e-01
6973:-2.2715192006573426e-01
6974:-2.4336008164329470e-01
6975:-2.5461936009697000e-01
6976:-2.9448575627414753e-01
6977:-3.0459100622042556e-01
6978:-3.1583651612762242e-01
6979:-3.2297525660273674e-01
6980:-2.8353010406351320e-01
6981:-2.9350817760798603e-01
6982:-3.0469726615368031e-01
6983:-3.1187654521269825e-01
6984:-2.7000494207525322e-01
6985:-2.7980846720897057e-01
6986:-2.9089683225546142e-01
6987:-2.9809636228962555e-01
6988:-2.6020297380121499e-01
6989:-2.6985903879484080e-01
6990:-2.8084430461090093e-01
6991:-2.8803355927997187e-01
6992:-3.2625788322759169e-01
6993:-3.3146914767217173e-01
6994:-3.3644262673058484e-01
6995:-3.3888259082348665e-01
6996:-3.1521018318436161e-01
6997:-3.2056676874270784e-01
6998:-3.2581990879353856e-01
6999:-3.2853748913973790e-01
7000:-3.0147511486721279e-01
7001:-3.0697526533446962e-01
7002:-3.1252465066238166e-01
7003:-3.1554759949009503e-01
7004:-2.9143110841303022e-01
7005:-2.9700837901708593e-01
7006:-3.0273738560834029e-01
7007:-3.0595636875500820e-01
7008:-3.3970836979003766e-01
7009:-3.4044275392703205e-01
7010:-3.3984418151917234e-01
7011:-3.3821874228062121e-01
7012:-3.2953136795695853e-01
7013:-3.3060863665956886e-01
7014:-3.3051238300102487e-01
7015:-3.2931689872636283e-01
7016:-3.1672999804253499e-01
7017:-3.1820077653213458e-01
7018:-3.1869409698744222e-01
7019:-3.1800860344867288e-01
7020:-3.0726304659283271e-01
7021:-3.0899912505153476e-01
7022:-3.0989716530912614e-01
7023:-3.0956353672198661e-01
7024:-3.3695230393416431e-01
7025:-3.3393315176924027e-01
7026:-3.2879075664673119e-01
7027:-3.2396140956069297e-01
7028:-3.2829595464213318e-01
7029:-3.2575974109322059e-01
7030:-3.2128102048792812e-01
7031:-3.1697829158149265e-01
7032:-3.1727922258027136e-01
7033:-3.1531296358222888e-01
7034:-3.1161417346478226e-01
7035:-3.0793178946685684e-01
7036:-3.0903490637417913e-01
7037:-3.0745940999597199e-01
7038:-3.0429565967891609e-01
7039:-3.0104240855331904e-01
7040:-3.2108855519201940e-01
7041:-3.1524189907381733e-01
7042:-3.0676741649995232e-01
7043:-2.9964949744786962e-01
7044:-3.1438966567829807e-01
7045:-3.0907428339306270e-01
7046:-3.0129077916051172e-01
7047:-2.9470397382634944e-01
7048:-3.0567987398719426e-01
7049:-3.0100135331632122e-01
7050:-2.9405774045320637e-01
7051:-2.8812174149141800e-01
7052:-2.9902567880755399e-01
7053:-2.9479686980984987e-01
7054:-2.8845263254062953e-01
7055:-2.8298282217756932e-01
7056:-2.9564889312729381e-01
7057:-2.8786171200669658e-01
7058:-2.7719910642681117e-01
7059:-2.6866567148182019e-01
7060:-2.9098757543369896e-01
7061:-2.8372994993041728e-01
7062:-2.7374495439489843e-01
7063:-2.6571634667360555e-01
7064:-2.8475414975145902e-01
7065:-2.7814394200349390e-01
7066:-2.6898476093815071e-01
7067:-2.6157209511500690e-01
7068:-2.7986477496493484e-01
7069:-2.7371658739065152e-01
7070:-2.6514683367219932e-01
7071:-2.5817612615506214e-01
7072:-2.6400174192133286e-01
7073:-2.5511814760625795e-01
7074:-2.4330223771969706e-01
7075:-2.3408864983516042e-01
7076:-2.6131480110297090e-01
7077:-2.5290712720018843e-01
7078:-2.4168174470606030e-01
7079:-2.3289978889617141e-01
7080:-2.5749189634518865e-01
7081:-2.4967193804428700e-01
7082:-2.3918370712483283e-01
7083:-2.3094469169460138e-01
7084:-2.5432803417569438e-01
7085:-2.4693571327525693e-01
7086:-2.3698821285637967e-01
7087:-2.2914914950367274e-01
7088:-2.2913144854451045e-01
7089:-2.1981652127012333e-01
7090:-2.0766455723456517e-01
7091:-1.9836259060023442e-01
7092:-2.2816574026236164e-01
7093:-2.1925450844395650e-01
7094:-2.0759763116400043e-01
7095:-1.9864941946367587e-01
7096:-2.2649209008917928e-01
7097:-2.1808926670583181e-01
7098:-2.0705550766046948e-01
7099:-1.9855361766647633e-01
7100:-2.2490394793971480e-01
7101:-2.1687561516465220e-01
7102:-2.0630170973396367e-01
7103:-1.9813102040549480e-01
7104:-1.9341574758772390e-01
7105:-1.8420549211712639e-01
7106:-1.7234659984478778e-01
7107:-1.6338332025694874e-01
7108:-1.9388152013299512e-01
7109:-1.8498866179080511e-01
7110:-1.7350951517147345e-01
7111:-1.6481258344283822e-01
7112:-1.9401237992087672e-01
7113:-1.8552447772589734e-01
7114:-1.7453486693614587e-01
7115:-1.6618433207364475e-01
7116:-1.9375899715633438e-01
7117:-1.8557532526972648e-01
7118:-1.7495640563245701e-01
7119:-1.6686968640102925e-01
7120:-1.5865506727026782e-01
7121:-1.4991446874392697e-01
7122:-1.3877920564014443e-01
7123:-1.3045213362830252e-01
7124:-1.6021799987526680e-01
7125:-1.5171301110357760e-01
7126:-1.4085516170678292e-01
7127:-1.3271760937030447e-01
7128:-1.6176435636996409e-01
7129:-1.5356745397770397e-01
7130:-1.4307344671490160e-01
7131:-1.3518597969434812e-01
7132:-1.6258299637260509e-01
7133:-1.5462167908635924e-01
7134:-1.4440722701617398e-01
7135:-1.3671349463263030e-01
7136:-1.2609004165680956e-01
7137:-1.1807214683871435e-01
7138:-1.0794354500283526e-01
7139:-1.0043394988171613e-01
7140:-1.2844834142965758e-01
7141:-1.2059041464336404e-01
7142:-1.1064401156040950e-01
7143:-1.0325481335803999e-01
7144:-1.3104000143069772e-01
7145:-1.2339652034979066e-01
7146:-1.1369801906060559e-01
7147:-1.0647525041042828e-01
7148:-1.3266377494190346e-01
7149:-1.2518903480982238e-01
7150:-1.1568786167360916e-01
7151:-1.0859909232412614e-01
7152:-9.6522491677584088e-02
7153:-8.9370148014926529e-02
7154:-8.0406780882048265e-02
7155:-7.3816293961147736e-02
7156:-9.9401063923298297e-02
7157:-9.2346073345917740e-02
7158:-8.3488747211673972e-02
7159:-7.6963724331664818e-02
7160:-1.0270213082916228e-01
7161:-9.5784228652815759e-02
7162:-8.7078635428307780e-02
7163:-8.0649683142302808e-02
7164:-1.0489136832023144e-01
7165:-9.8085451481042155e-02
7166:-8.9505663136007788e-02
7167:-8.3158175035257520e-02
7168:-7.0402965989413341e-02
7169:-6.4192725562888700e-02
7170:-5.6470355067656068e-02
7171:-5.0839150799932495e-02
7172:-7.3579822802818287e-02
7173:-6.7415889982391036e-02
7174:-5.9737388360328339e-02
7175:-5.4127753020634578e-02
7176:-7.7310068225995648e-02
7177:-7.1218094942944760e-02
7178:-6.3612612597829937e-02
7179:-5.8043554954408771e-02
7180:-7.9856912012483225e-02
7181:-7.3828674812911180e-02
7182:-6.6290755308949248e-02
7183:-6.0761827635170504e-02
7184:-4.7939402703532787e-02
7185:-4.2693003892384299e-02
7186:-3.6227259343268682e-02
7187:-3.1558227187436616e-02
7188:-5.1235466860381260e-02
7189:-4.5996608959304283e-02
7190:-3.9528488835504319e-02
7191:-3.4848519819979010e-02
7192:-5.5167674018724695e-02
7193:-4.9950976809559469e-02
7194:-4.3495493930004854e-02
7195:-3.8813137608916734e-02
7196:-5.7903329205056316e-02
7197:-5.2712554634894049e-02
7198:-4.6278306614832530e-02
7199:-4.1602948852254164e-02
7200:-2.9170594269811376e-02
7201:-2.4880157987848876e-02
7202:-1.9651110950066573e-02
7203:-1.5921903312248215e-02
7204:-3.2451948664355419e-02
7205:-2.8139872389812869e-02
7206:-2.2873559421026760e-02
7207:-1.9109176064134811e-02
7208:-3.6411198491027613e-02
7209:-3.2082644499116061e-02
7210:-2.6782862125881768e-02
7211:-2.2983978595788022e-02
7212:-3.9201606892075934e-02
7213:-3.4869213573542966e-02
7214:-2.9555069552943750e-02
7215:-2.5738202955606273e-02
7216:-1.4032159057491630e-02
7217:-1.0668425714484349e-02
7218:-6.6334665345011007e-03
7219:-3.8082539129132560e-03
7220:-1.7198467608983976e-02
7221:-1.3791904808512941e-02
7222:-9.6944671234909172e-03
7223:-6.8164270280265445e-03
7224:-2.1051884565870576e-02
7225:-1.7600345517841627e-02
7226:-1.3435065262948480e-02
7227:-1.0498192877603863e-02
7228:-2.3794138716522785e-02
7229:-2.0316233384671187e-02
7230:-1.6109184702021603e-02
7231:-1.3134822579250775e-02
7232:-2.3962559961335276e-03
7233:8.0343010936401632e-05
7234:2.9762216954263799e-03
7235:4.9421315441081620e-03
7236:-5.3745825705650199e-03
7237:-2.8392359472701159e-03
7238:1.3848575049309563e-04
7239:2.1710133270628463e-03
7240:-9.0226599696059655e-03
7241:-6.4203119740615707e-03
7242:-3.3479704305375180e-03
7243:-1.2375035646371613e-03
7244:-1.1637443546696250e-02
7245:-8.9910466841409825e-03
7246:-5.8553951628572557e-03
7247:-3.6919939972231632e-03
7248:5.9010556710463787e-03
7249:7.5379953314164607e-03
7250:9.3590046782272996e-03
7251:1.0516609813423720e-02
7252:3.1667823164779588e-03
7253:4.8752349870200377e-03
7254:6.7941947692697346e-03
7255:8.0304499832023254e-03
7256:-1.9831988819965377e-04
7257:1.5949330411251775e-03
7258:3.6310307363933785e-03
7259:4.9620418660518157e-03
7260:-2.6230656730133707e-03
7261:-7.7128390257375737e-04
7262:1.3464449373323277e-03
7263:2.7440377931967075e-03
7264:1.1050300380524214e-02
7265:1.1901422640824881e-02
7266:1.2721182024053267e-02
7267:1.3129643380727866e-02
7268:8.6073314864233592e-03
7269:9.5420151503144632e-03
7270:1.0475819148371066e-02
7271:1.0975600069226318e-02
7272:5.5911861167635170e-03
7273:6.6273444716065753e-03
7274:7.7003163581920607e-03
7275:8.3120246360404663e-03
7276:3.4100822474538183e-03
7277:4.5181755056402885e-03
7278:5.6903407354302604e-03
7279:6.3822153510918545e-03
7280:1.3270672368368939e-02
7281:1.3399674750229129e-02
7282:1.3306750315173229e-02
7283:1.3038401805132901e-02
7284:1.1166719592582102e-02
7285:1.1392808525076291e-02
7286:1.1432850576697823e-02
7287:1.1271378672715044e-02
7288:8.5647014391686122e-03
7289:8.9103540919059157e-03
7290:9.1145969868280160e-03
7291:9.0854178019883301e-03
7292:6.6791098429206568e-03
7293:7.1108373618081443e-03
7294:7.4336258829056203e-03
7295:7.5001860758203542e-03
7296:1.2827022448427089e-02
7297:1.2313619980553882e-02
7298:1.1420801555933422e-02
7299:1.0569195639117453e-02
7300:1.1118792323695136e-02
7301:1.0719881075382664e-02
7302:9.9849704918138615e-03
7303:9.2611318350458872e-03
7304:9.0057014064369497e-03
7305:8.7487926059159216e-03
7306:8.2098880015786420e-03
7307:7.6447386032960146e-03
7308:7.4732753909381609e-03
7309:7.3193399066332748e-03
7310:6.9226777399405658e-03
7311:6.4727558225773831e-03
7312:1.0057993087836701e-02
7313:9.0079745358994847e-03
7314:7.4682250116599926e-03
7315:6.1626073686401224e-03
7316:8.8205221014183693e-03
7317:7.9087639113763607e-03
7318:6.5612901966572781e-03
7319:5.4124381670595774e-03
7320:7.2918291143441363e-03
7321:6.5517862541394902e-03
7322:5.4429721432928332e-03
7323:4.4885759671864584e-03
7324:6.1835416873749849e-03
7325:5.5681622345368402e-03
7326:4.6324801329023033e-03
7327:3.8190338876227703e-03
7328:5.4249065677846355e-03
7329:3.9849163823882381e-03
7330:2.0080649169871611e-03
7331:4.2402782818800857e-04
7332:4.7617669948239816e-03
7333:3.4930496928134444e-03
7334:1.7559536022693049e-03
7335:3.6853567889590084e-04
7336:3.9458029132339771e-03
7337:2.8892187255075059e-03
7338:1.4486396716791011e-03
7339:3.0405541869975728e-04
7340:3.3544213791209159e-03
7341:2.4513328457526429e-03
7342:1.2249506073675812e-03
7343:2.5551003157118487e-04
7344:-5.3233968555202972e-03
7345:-2.5144712073769164e-02
7346:-5.0764298568080408e-02
7347:-7.0166889309883421e-02
7348:-5.1094399393446796e-03
7349:-2.4139801875546030e-02
7350:-4.8723668370519085e-02
7351:-6.7341897032365733e-02
7352:-4.8136669028204229e-03
7353:-2.2873165985503558e-02
7354:-4.6194726461759636e-02
7355:-6.3858029026291507e-02
7356:-4.5954551875767328e-03
7357:-2.1945462176075344e-02
7358:-4.4354583654715299e-02
7359:-6.1330463364588320e-02
7360:-8.0401271035107247e-02
7361:-9.9245684727976360e-02
7362:-1.2306309547284150e-01
7363:-1.4069912777665372e-01
7364:-7.7165953045003774e-02
7365:-9.5268032845150591e-02
7366:-1.1817134928768601e-01
7367:-1.3514663509731070e-01
7368:-7.3181043328033907e-02
7369:-9.0371031653916314e-02
7370:-1.1214210843425972e-01
7371:-1.2829413936940434e-01
7372:-7.0292290852840750e-02
7373:-8.6822089780151823e-02
7374:-1.0777024101126362e-01
7375:-1.2332326843119128e-01
7376:-1.4986200481773423e-01
7377:-1.6647018646678058e-01
7378:-1.8693586867797374e-01
7379:-2.0167537167977975e-01
7380:-1.4397132213583799e-01
7381:-1.5997807027154992e-01
7382:-1.7973092531397314e-01
7383:-1.9398413513009580e-01
7384:-1.3669675606707976e-01
7385:-1.5195743723910932e-01
7386:-1.7083365593988614e-01
7387:-1.8449255682308791e-01
7388:-1.3141920303099683e-01
7389:-1.4613928763476902e-01
7390:-1.6438116350689649e-01
7391:-1.7760855321178523e-01
7392:-2.0918350245939207e-01
7393:-2.2254358873186608e-01
7394:-2.3852127006897494e-01
7395:-2.4964527377192924e-01
7396:-2.0125610541868894e-01
7397:-2.1422068088568311e-01
7398:-2.2977435693879633e-01
7399:-2.4064188543590787e-01
7400:-1.9147620780853059e-01
7401:-2.0395131992694959e-01
7402:-2.1896654295958978e-01
7403:-2.2949767422636494e-01
7404:-1.8438156232006489e-01
7405:-1.9649532095223965e-01
7406:-2.1110650654014701e-01
7407:-2.2138095637548205e-01
7408:-2.5517085466540268e-01
7409:-2.6474163222231245e-01
7410:-2.7566165794751107e-01
7411:-2.8283640349513428e-01
7412:-2.4605444191580947e-01
7413:-2.5545671512825346e-01
7414:-2.6624219387077247e-01
7415:-2.7337908474543210e-01
7416:-2.3475811279226613e-01
7417:-2.4392992883010514e-01
7418:-2.5452211866623509e-01
7419:-2.6159191281733774e-01
7420:-2.2652399760681230e-01
7421:-2.3551562072313101e-01
7422:-2.4595015820515478e-01
7423:-2.5295665841982518e-01
7424:-2.8623875266337312e-01
7425:-2.9184648070482755e-01
7426:-2.9765624758398007e-01
7427:-3.0096798439890421e-01
7428:-2.7678412381963402e-01
7429:-2.8243533945003463e-01
7430:-2.8837531685501488e-01
7431:-2.9184220326757165e-01
7432:-2.6498922831323202e-01
7433:-2.7067238835919033e-01
7434:-2.7674267102999872e-01
7435:-2.8037617649682178e-01
7436:-2.5633988962329873e-01
7437:-2.6202929981712836e-01
7438:-2.6817015994890886e-01
7439:-2.7190475490827293e-01
7440:-3.0233473281333045e-01
7441:-3.0420068757274155e-01
7442:-3.0529846556969886e-01
7443:-3.0513848410840777e-01
7444:-2.9331071331982611e-01
7445:-2.9539789518828685e-01
7446:-2.9683814428294714e-01
7447:-2.9697770420563752e-01
7448:-2.8195643569879425e-01
7449:-2.8428921293951909e-01
7450:-2.8611524115634590e-01
7451:-2.8659712291556810e-01
7452:-2.7355502868469994e-01
7453:-2.7604443594118688e-01
7454:-2.7812221053923686e-01
7455:-2.7883229105987639e-01
7456:-3.0470862892177697e-01
7457:-3.0332529497944088e-01
7458:-3.0042581519901373e-01
7459:-2.9738652671373794e-01
7460:-2.9671898055229873e-01
7461:-2.9567108765338984e-01
7462:-2.9323724202113927e-01
7463:-2.9057743234187644e-01
7464:-2.8653598744827824e-01
7465:-2.8588041057240687e-01
7466:-2.8399874496086930e-01
7467:-2.8179242612333427e-01
7468:-2.7890472977429331e-01
7469:-2.7851789027583834e-01
7470:-2.7701923778780735e-01
7471:-2.7512918756150340e-01
7472:-2.9548805179058873e-01
7473:-2.9148664824432396e-01
7474:-2.8544674340160281e-01
7475:-2.8021357228579319e-01
7476:-2.8888924078813466e-01
7477:-2.8529170173198382e-01
7478:-2.7979164958035857e-01
7479:-2.7497837215896753e-01
7480:-2.8035598749086882e-01
7481:-2.7724090354319064e-01
7482:-2.7238531506899305e-01
7483:-2.6807474155712413e-01
7484:-2.7386836639368489e-01
7485:-2.7108949233301277e-01
7486:-2.6668392369903471e-01
7487:-2.6272655856825022e-01
7488:-2.7722190171742050e-01
7489:-2.7130763153175563e-01
7490:-2.6303710557562954e-01
7491:-2.5629213587393751e-01
7492:-2.7221124230795762e-01
7493:-2.6671453481669699e-01
7494:-2.5898169438716045e-01
7495:-2.5264454061628777e-01
7496:-2.6557756531946908e-01
7497:-2.6058665261485531e-01
7498:-2.5351117546411372e-01
7499:-2.4767570377029183e-01
7500:-2.6042027620241093e-01
7501:-2.5578954229933581e-01
7502:-2.4918570392361603e-01
7503:-2.4371156863269097e-01
7504:-2.5256328673727307e-01
7505:-2.4539148641656772e-01
7506:-2.3572372896038252e-01
7507:-2.2809171487829413e-01
7508:-2.4913165438316681e-01
7509:-2.4235897403841952e-01
7510:-2.3319717352431982e-01
7511:-2.2593976484245928e-01
7512:-2.4442902933423410e-01
7513:-2.3814780872850047e-01
7514:-2.2960892724694518e-01
7515:-2.2281377951721376e-01
7516:-2.4065672518966216e-01
7517:-2.3472957240387293e-01
7518:-2.2664029605277231e-01
7519:-2.2018037049221995e-01
7520:-2.2395377980796952e-01
7521:-2.1611926187207767e-01
7522:-2.0578407991845321e-01
7523:-1.9778627151227193e-01
7524:-2.2199611919302628e-01
7525:-2.1451397906634148e-01
7526:-2.0461530885480966e-01
7527:-1.9693526162894612e-01
7528:-2.1911066896760686e-01
7529:-2.1206730370271445e-01
7530:-2.0271643633188821e-01
7531:-1.9543763968732630e-01
7532:-2.1665254463279901e-01
7533:-2.0993060130658828e-01
7534:-2.0098355374339200e-01
7535:-1.9400179792111796e-01
7536:-1.9350301632390396e-01
7537:-1.8547946507432633e-01
7538:-1.7505633614932298e-01
7539:-1.6710924359382923e-01
7540:-1.9281562420125634e-01
7541:-1.8508728128271010e-01
7542:-1.7502533469837220e-01
7543:-1.6733619115911844e-01
7544:-1.9152519021038619e-01
7545:-1.8417081689564252e-01
7546:-1.7456714894695452e-01
7547:-1.6720645381399687e-01
7548:-1.9024295558050772e-01
7549:-1.8316612525702164e-01
7550:-1.7390361814704616e-01
7551:-1.6678872602716252e-01
7552:-1.6289313100942221e-01
7553:-1.5505678305594200e-01
7554:-1.4499127608065315e-01
7555:-1.3740144744917138e-01
7556:-1.6325069262435501e-01
7557:-1.5564650466296734e-01
7558:-1.4585939851892143e-01
7559:-1.3846499201715265e-01
7560:-1.6328789666802579e-01
7561:-1.5598210460312539e-01
7562:-1.4655579693388954e-01
7563:-1.3941660479695620e-01
7564:-1.6299571991417586e-01
7565:-1.5591546680191487e-01
7566:-1.4676372119981948e-01
7567:-1.3981987607309157e-01
7568:-1.3340364864642787e-01
7569:-1.2602030753784810e-01
7570:-1.1662663288555901e-01
7571:-1.0961125837239646e-01
7572:-1.3456522637432017e-01
7573:-1.2735475202266863e-01
7574:-1.1816500458015917e-01
7575:-1.1128945964246099e-01
7576:-1.3564543580588795e-01
7577:-1.2866228183406511e-01
7578:-1.1974200333135995e-01
7579:-1.1305255220077259e-01
7580:-1.3614744740393964e-01
7581:-1.2933932517089095e-01
7582:-1.2062771762922625e-01
7583:-1.1408353939644297e-01
7584:-1.0593947573493138e-01
7585:-9.9195394859874816e-02
7586:-9.0685746679866536e-02
7587:-8.4384310487035832e-02
7588:-1.0768642114078716e-01
7589:-1.0106130306484801e-01
7590:-9.2687965297045011e-02
7591:-8.6477104721063514e-02
7592:-1.0954159663328555e-01
7593:-1.0307710525198789e-01
7594:-9.4890242039185169e-02
7595:-8.8805120111239130e-02
7596:-1.1064496815938532e-01
7597:-1.0430761230889052e-01
7598:-9.6269927102398234e-02
7599:-9.0286551228154627e-02
7600:-8.1104994317185333e-02
7601:-7.5113640452104932e-02
7602:-6.7615623793746277e-02
7603:-6.2111087392368619e-02
7604:-8.3241343948575408e-02
7605:-7.7323713329335603e-02
7606:-6.9906562794208121e-02
7607:-6.4452489848994404e-02
7608:-8.5630464366348871e-02
7609:-7.9817205551497683e-02
7610:-7.2516574715829854e-02
7611:-6.7137113975114640e-02
7612:-8.7161737656119259e-02
7613:-8.1434293839060326e-02
7614:-7.4230952882394521e-02
7615:-6.8915154425175443e-02
7616:-5.9263445884859274e-02
7617:-5.4089471662076928e-02
7618:-4.7670450069028002e-02
7619:-4.3001847558017288e-02
7620:-6.1627769296622004e-02
7621:-5.6490233354007199e-02
7622:-5.0106410437858059e-02
7623:-4.5455683507600854e-02
7624:-6.4347113370804412e-02
7625:-5.9266414708137462e-02
7626:-5.2941040841505027e-02
7627:-4.8323434193780865e-02
7628:-6.6155355238371572e-02
7629:-6.1125135663836233e-02
7630:-5.4853829392415940e-02
7631:-5.0268819463183553e-02
7632:-4.0602449113847465e-02
7633:-3.6271037604949638e-02
7634:-3.0953117767015304e-02
7635:-2.7129565769442150e-02
7636:-4.3062726695623631e-02
7637:-3.8738344961857948e-02
7638:-3.3419986977107657e-02
7639:-2.9588900564146117e-02
7640:-4.5944134802737742e-02
7641:-4.1638701051351416e-02
7642:-3.6332370805481934e-02
7643:-3.2501017535561234e-02
7644:-4.7903842477159717e-02
7645:-4.3620133874471445e-02
7646:-3.8332372807628634e-02
7647:-3.4507965816808171e-02
7648:-2.5180635526981448e-02
7649:-2.1691464987825815e-02
7650:-1.7465697158449405e-02
7651:-1.4474004603562816e-02
7652:-2.7633483378313551e-02
7653:-2.4128102693044440e-02
7654:-1.9873561446606864e-02
7655:-1.6854141963834158e-02
7656:-3.0542207784686300e-02
7657:-2.7025142416525483e-02
7658:-2.2745267726948251e-02
7659:-1.9698883021541845e-02
7660:-3.2550365010419524e-02
7661:-2.9031453528006405e-02
7662:-2.4741324241961193e-02
7663:-2.1681178321841625e-02
7664:-1.2966373497731692e-02
7665:-1.0299058413352869e-02
7666:-7.1328931598483390e-03
7667:-4.9436661513125929e-03
7668:-1.5329794247342550e-02
7669:-1.2627865301348301e-02
7670:-9.4103138241722999e-03
7671:-7.1769938537250798e-03
7672:-1.8157568377695062e-02
7673:-1.5419407498277863e-02
7674:-1.2146158320362602e-02
7675:-9.8637882191556277e-03
7676:-2.0130489714136651e-02
7677:-1.7371268322286412e-02
7678:-1.4063893096635981e-02
7679:-1.1750357172067745e-02
7680:-3.8601248604261044e-03
7681:-1.9794277834404295e-03
7682:1.7892045161453272e-04
7683:1.6098460083911735e-03
7684:-6.0683159855291768e-03
7685:-4.1375873384066151e-03
7686:-1.9084207272264662e-03
7687:-4.1900116347911665e-04
7688:-8.7267613082799185e-03
7689:-6.7389975575872056e-03
7690:-4.4279857862089570e-03
7691:-2.8701783940623762e-03
7692:-1.0594984092421864e-02
7693:-8.5697801822427495e-03
7694:-6.2040819872368896e-03
7695:-4.5999115296758092e-03
7696:2.2944285995402940e-03
7697:3.4387687319381590e-03
7698:4.6611164272620928e-03
7699:5.3936915762954661e-03
7700:2.9823769026590327e-04
7701:1.5066377617460784e-03
7702:2.8180562147053462e-03
7703:3.6231413414128623e-03
7704:-2.1145033092218237e-03
7705:-8.3028537337346577e-04
7706:5.8731592934889378e-04
7707:1.4793753953028592e-03
7708:-3.8179637358269022e-03
7709:-2.4815790624204272e-03
7710:-9.9030146753892301e-04
7711:-3.7466126917310696e-05
7712:5.7130824328236948e-03
7713:6.1886688026927504e-03
7714:6.5719790327184620e-03
7715:6.6874976542214267e-03
7716:3.9826967272130614e-03
7717:4.5367077290363236e-03
7718:5.0284506914738099e-03
7719:5.2318330944654112e-03
7720:1.8872774021461741e-03
7721:2.5359275008322623e-03
7722:3.1589453124091808e-03
7723:3.4689951411142439e-03
7724:4.0435482406699845e-04
7725:1.1195927919686289e-03
7726:1.8353144369246729e-03
7727:2.2209256618642551e-03
7728:6.6876146582467138e-03
7729:6.5864080390955551e-03
7730:6.2626189103373751e-03
7731:5.8717511035480232e-03
7732:5.2805015725025852e-03
7733:5.2740592112786181e-03
7734:5.0813010225811955e-03
7735:4.7966513545654402e-03
7736:3.5766964825709553e-03
7737:3.6855572587862163e-03
7738:3.6523402361701806e-03
7739:3.4970767341708964e-03
7740:2.3705167924414471e-03
7741:2.5612544703288941e-03
7742:2.6414016281409939e-03
7743:2.5781093157212845e-03
7744:5.6151850408139798e-03
7745:5.0636817183931900e-03
7746:4.2166553337100220e-03
7747:3.4753383502712488e-03
7748:4.5988132234996548e-03
7749:4.1621629391424249e-03
7750:3.4744288885990311e-03
7751:2.8626144393181880e-03
7752:3.3707820623719627e-03
7753:3.0739420742154451e-03
7754:2.5798656090062389e-03
7755:2.1252882329247701e-03
7756:2.5026704968149406e-03
7757:2.3051204866788395e-03
7758:1.9483607003672235e-03
7759:1.6051004553362218e-03
7760:3.0507040778173134e-03
7761:2.2260612046674537e-03
7762:1.1090104039085810e-03
7763:2.2886325556054822e-04
7764:2.5097192933583117e-03
7765:1.8257136428116783e-03
7766:9.0439811288467432e-04
7767:1.8389874655587844e-04
7768:1.8594140850569753e-03
7769:1.3457292020417082e-03
7770:6.6088224364943765e-04
7771:1.3280217549406232e-04
7772:1.4007634584677808e-03
7773:1.0072865191643459e-03
7774:4.8883865905371320e-04
7775:9.5775974282943843e-05
7776:-4.4887209348249265e-03
7777:-2.1469610811926176e-02
7778:-4.3408106269694970e-02
7779:-6.0030946939351404e-02
7780:-4.3114954372333262e-03
7781:-2.0621076634660725e-02
7782:-4.1704307389872658e-02
7783:-5.7686500686979829e-02
7784:-4.1117199574865369e-03
7785:-1.9591906063321840e-02
7786:-3.9616307648147477e-02
7787:-5.4805251114590045e-02
7788:-3.9695594022278102e-03
7789:-1.8852660473218399e-02
7790:-3.8111252847732063e-02
7791:-5.2724958946695814e-02
7792:-6.8807325663783878e-02
7793:-8.4997791363972758e-02
7794:-1.0552293673043146e-01
7795:-1.2076872587712570e-01
7796:-6.6126799056526228e-02
7797:-8.1702989566172973e-02
7798:-1.0146346169838721e-01
7799:-1.1615447551562032e-01
7800:-6.2829832869816887e-02
7801:-7.7646981458038222e-02
7802:-9.6463223043062332e-02
7803:-1.1046889959893595e-01
7804:-6.0447914014121432e-02
7805:-7.4714215576651602e-02
7806:-9.2844254256480810e-02
7807:-1.0635042780761689e-01
7808:-1.2870775938823417e-01
7809:-1.4315109691561143e-01
7810:-1.6106687781549328e-01
7811:-1.7407056139651222e-01
7812:-1.2381022107385219e-01
7813:-1.3775151058902041e-01
7814:-1.5507069559510431e-01
7815:-1.6766125646322821e-01
7816:-1.1777416135830038e-01
7817:-1.3109028968114611e-01
7818:-1.4765889928640491e-01
7819:-1.5972446203350582e-01
7820:-1.1339945972966459e-01
7821:-1.2625639762354166e-01
7822:-1.4227018098667779e-01
7823:-1.5394569956077903e-01
7824:-1.8073346189886139e-01
7825:-1.9265753852009684e-01
7826:-2.0705573882040260e-01
7827:-2.1719459449158388e-01
7828:-1.7411957787780968e-01
7829:-1.8569150309587934e-01
7830:-1.9969488552634243e-01
7831:-2.0958240706579356e-01
7832:-1.6592129058750879e-01
7833:-1.7704322887591240e-01
7834:-1.9054159924055708e-01
7835:-2.0010586983577835e-01
7836:-1.5994779992339253e-01
7837:-1.7073408558911984e-01
7838:-1.8385351107559994e-01
7839:-1.9317219103795935e-01
7840:-2.2227560570180857e-01
7841:-2.3117123197263609e-01
7842:-2.4151945228180446e-01
7843:-2.4848841824817386e-01
7844:-2.1454818632228392e-01
7845:-2.2326294979835032e-01
7846:-2.3344275580069448e-01
7847:-2.4033272054708532e-01
7848:-2.0492216815034595e-01
7849:-2.1339732818367652e-01
7850:-2.2334340171810180e-01
7851:-2.3011381154254454e-01
7852:-1.9787331648610385e-01
7853:-2.0616030774613295e-01
7854:-2.1591579925333446e-01
7855:-2.2258260297761159e-01
7856:-2.5186134803140431e-01
7857:-2.5754784669816472e-01
7858:-2.6371633866282856e-01
7859:-2.6749576503412853e-01
7860:-2.4368069533942222e-01
7861:-2.4935029357256527e-01
7862:-2.5555412205650296e-01
7863:-2.5940373656604288e-01
7864:-2.3341887639769601e-01
7865:-2.3904549245821416e-01
7866:-2.4526524895996601e-01
7867:-2.4918097865313607e-01
7868:-2.2584758299411500e-01
7869:-2.3142661023264954e-01
7870:-2.3763715456183857e-01
7871:-2.4158526459782989e-01
7872:-2.6917805345557333e-01
7873:-2.7174036597926737e-01
7874:-2.7393786825768274e-01
7875:-2.7475849638546629e-01
7876:-2.6113822196639086e-01
7877:-2.6382203819296957e-01
7878:-2.6622312817017568e-01
7879:-2.6723402870478435e-01
7880:-2.5096917236458727e-01
7881:-2.5378355128674140e-01
7882:-2.5641146937386228e-01
7883:-2.5763858279438923e-01
7884:-2.4340421032074164e-01
7885:-2.4629833981562471e-01
7886:-2.4907173773006433e-01
7887:-2.5044098566283635e-01
7888:-2.7489637165861891e-01
7889:-2.7464225805406883e-01
7890:-2.7333406850455938e-01
7891:-2.7160162593081244e-01
7892:-2.6748513063398427e-01
7893:-2.6746125586479574e-01
7894:-2.6648467616032140e-01
7895:-2.6502772617762299e-01
7896:-2.5801936067448472e-01
7897:-2.5826025505312322e-01
7898:-2.5766771428497320e-01
7899:-2.5653249567307163e-01
7900:-2.5090782468248329e-01
7901:-2.5132551237463358e-01
7902:-2.5099204927573732e-01
7903:-2.5007640952320570e-01
7904:-2.7042827100287797e-01
7905:-2.6781694191340516e-01
7906:-2.6363641823684297e-01
7907:-2.5985677885086417e-01
7908:-2.6400772312767679e-01
7909:-2.6169156089773232e-01
7910:-2.5790999729077674e-01
7911:-2.5444696441947773e-01
7912:-2.5569274926344465e-01
7913:-2.5372634226575508e-01
7914:-2.5042200030374973e-01
7915:-2.4734004617289868e-01
7916:-2.4936073301534317e-01
7917:-2.4763705408307840e-01
7918:-2.4466684065027730e-01
7919:-2.4185306495851364e-01
7920:-2.5764706517418640e-01
7921:-2.5319923608058453e-01
7922:-2.4683572956440783e-01
7923:-2.4154591447512694e-01
7924:-2.5240967252615326e-01
7925:-2.4828843184236155e-01
7926:-2.4235422310144480e-01
7927:-2.3739404055738658e-01
7928:-2.4551076566341160e-01
7929:-2.4178353116051823e-01
7930:-2.3636792231515913e-01
7931:-2.3180722706312912e-01
7932:-2.4017038930174628e-01
7933:-2.3672106917447028e-01
7934:-2.3167235767724195e-01
7935:-2.2739576383258617e-01
7936:-2.3858887775501941e-01
7937:-2.3284237179135198e-01
7938:-2.2498310952718464e-01
7939:-2.1869547130565356e-01
7940:-2.3461216700958304e-01
7941:-2.2919026046556271e-01
7942:-2.2174629069113475e-01
7943:-2.1577101470060034e-01
7944:-2.2923836123657512e-01
7945:-2.2421326002850953e-01
7946:-2.1728044868439972e-01
7947:-2.1169165053341563e-01
7948:-2.2497909684341788e-01
7949:-2.2023894072327221e-01
7950:-2.1367536931114467e-01
7951:-2.0836685785870160e-01
7952:-2.1525809721649858e-01
7953:-2.0870248728223859e-01
7954:-1.9996503504381019e-01
7955:-1.9313769906150935e-01
7956:-2.1249799139804515e-01
7957:-2.0624471637963368e-01
7958:-1.9788850949779360e-01
7959:-1.9134243511780977e-01
7960:-2.0862244963429541e-01
7961:-2.0274433082538859e-01
7962:-1.9486198719921427e-01
7963:-1.8866658471155109e-01
7964:-2.0544569743317301e-01
7965:-1.9984036714706532e-01
7966:-1.9230358368950332e-01
7967:-1.8636506270548270e-01
7968:-1.8945873625912552e-01
7969:-1.8252641411271811e-01
7970:-1.7344208560941729e-01
7971:-1.6645614966619540e-01
7972:-1.8780917394009050e-01
7973:-1.8114121107793582e-01
7974:-1.7238430152866702e-01
7975:-1.6563634730090523e-01
7976:-1.8531553909158191e-01
7977:-1.7897965929360943e-01
7978:-1.7063663902032697e-01
7979:-1.6419117104113656e-01
7980:-1.8314803150332024e-01
7981:-1.7705740342304799e-01
7982:-1.6902171380325545e-01
7983:-1.6280184233713418e-01
7984:-1.6272926182897918e-01
7985:-1.5576811459209594e-01
7986:-1.4676187074978830e-01
7987:-1.3992183823708676e-01
7988:-1.6203178516489300e-01
7989:-1.5529122661530764e-01
7990:-1.4655493597544919e-01
7991:-1.3990797354374457e-01
7992:-1.6074255426816447e-01
7993:-1.5428366030692300e-01
7994:-1.4589313043757235e-01
7995:-1.3949453236224660e-01
7996:-1.5946979094487970e-01
7997:-1.5322184998532309e-01
7998:-1.4509129358424500e-01
7999:-1.3888042712561535e-01
8000:-1.3630195952823562e-01
8001:-1.2958719236807598e-01
8002:-1.2098736956444894e-01
8003:-1.1452147036719905e-01
8004:-1.3638603462868154e-01
8005:-1.2984582753193996e-01
8006:-1.2145612542648364e-01
8007:-1.1513817779794525e-01
8008:-1.3609906193961135e-01
8009:-1.2978533910257489e-01
8010:-1.2167024088508070e-01
8011:-1.1554704454709343e-01
8012:-1.3558096974866746e-01
8013:-1.2943994297682671e-01
8014:-1.2153555615505600e-01
8015:-1.1556269822488328e-01
8016:-1.1112208902711516e-01
8017:-1.0485383313047664e-01
8018:-9.6897697602201377e-02
8019:-9.0970279277620913e-02
8020:-1.1181313770006629e-01
8021:-1.0567627530306076e-01
8022:-9.7875842101929553e-02
8023:-9.2055821458672055e-02
8024:-1.1232030925943282e-01
8025:-1.0635779386547264e-01
8026:-9.8765232893458829e-02
8027:-9.3089732097371494e-02
8028:-1.1241213328285969e-01
8029:-1.0658518412829639e-01
8030:-9.9155288462407051e-02
8031:-9.3593792478618820e-02
8032:-8.7872993324389706e-02
8033:-8.2193179212729242e-02
8034:-7.5044348738493860e-02
8035:-6.9764677352816773e-02
8036:-8.9011597438595505e-02
8037:-8.3424087720734577e-02
8038:-7.6381880781283176e-02
8039:-7.1173664426561006e-02
8040:-9.0117377768641926e-02
8041:-8.4655806071435871e-02
8042:-7.7760851432483291e-02
8043:-7.2652708046315018e-02
8044:-9.0678499704761814e-02
8045:-8.5317555884367333e-02
8046:-7.8541466323214307e-02
8047:-7.3515028509251831e-02
8048:-6.7022203818178180e-02
8049:-6.2021250194239742e-02
8050:-5.5781911919153243e-02
8051:-5.1216718162819759e-02
8052:-6.8465752701700439e-02
8053:-6.3523633347822558e-02
8054:-5.7349511534831761e-02
8055:-5.2825604110092107e-02
8056:-6.9993706935837632e-02
8057:-6.5135668941546140e-02
8058:-5.9056482188553111e-02
8059:-5.4594232395742653e-02
8060:-7.0896293612967218e-02
8061:-6.6108058396737834e-02
8062:-6.0108913975451178e-02
8063:-5.5699734574195567e-02
8064:-4.8860678711949664e-02
8065:-4.4590998416000324e-02
8066:-3.9316340630977928e-02
8067:-3.5498106636615852e-02
8068:-5.0488556412950684e-02
8069:-4.6249438831110948e-02
8070:-4.1005015485440284e-02
8071:-3.7202756637074098e-02
8072:-5.2286206032560574e-02
8073:-4.8095071860966072e-02
8074:-4.2900897375876455e-02
8075:-3.9127875603113711e-02
8076:-5.3417133501725965e-02
8077:-4.9268852906769162e-02
8078:-4.4121271182723520e-02
8079:-4.0376923782828915e-02
8080:-3.3542471892953299e-02
8081:-3.0025043413402328e-02
8082:-2.5732626614704466e-02
8083:-2.2667541579087933e-02
8084:-3.5253164288490846e-02
8085:-3.1742909076441221e-02
8086:-2.7451870125640203e-02
8087:-2.4381818958190214e-02
8088:-3.7190660859714071e-02
8089:-3.3698165071731692e-02
8090:-2.9419812396510755e-02
8091:-2.6351577094184283e-02
8092:-3.8452546656212144e-02
8093:-3.4979941115686426e-02
8094:-3.0719484525736876e-02
8095:-2.7658893826152595e-02
8096:-2.1113116470709473e-02
8097:-1.8345005199669421e-02
8098:-1.5022435907057511e-02
8099:-1.2694547611313214e-02
8100:-2.2822660035606863e-02
8101:-2.0042120974902034e-02
8102:-1.6696544141941265e-02
8103:-1.4345898825920337e-02
8104:-2.4790646196503251e-02
8105:-2.2002126368616971e-02
8106:-1.8637194173366296e-02
8107:-1.6264950086950902e-02
8108:-2.6099933402781418e-02
8109:-2.3311521658059376e-02
8110:-1.9939816632896859e-02
8111:-1.7557137360440858e-02
8112:-1.1530587808656546e-02
8113:-9.4876417398695283e-03
8114:-7.0956375480899425e-03
8115:-5.4688975967570521e-03
8116:-1.3168033078840426e-02
8117:-1.1095897594124861e-02
8118:-8.6598137258247620e-03
8119:-6.9947211179486419e-03
8120:-1.5073219941788667e-02
8121:-1.2970966847542958e-02
8122:-1.0487651118902781e-02
8123:-8.7803186768790880e-03
8124:-1.6358016845222041e-02
8125:-1.4238713696942996e-02
8126:-1.1727002186203355e-02
8127:-9.9932321094406990e-03
8128:-4.6740756988968664e-03
8129:-3.3119973294344963e-03
8130:-1.7841976413289556e-03
8131:-8.0107387318124532e-04
8132:-6.1778567444818883e-03
8133:-4.7715340824250260e-03
8134:-3.1803890273604100e-03
8135:-2.1444157215588272e-03
8136:-7.9388284641405942e-03
8137:-6.4825411044788896e-03
8138:-4.8189010497656122e-03
8139:-3.7217811950997237e-03
8140:-9.1360188487112394e-03
8141:-7.6473571360985444e-03
8142:-5.9359038766803127e-03
8143:-4.7978822761444179e-03
8144:-3.4229825351486383e-04
8145:4.0629634862037291e-04
8146:1.1685848335409323e-03
8147:1.5922398404873950e-03
8148:-1.6559557593640243e-03
8149:-8.4881644055873550e-04
8150:-4.5456617467273018e-06
8151:4.8625812712198893e-04
8152:-3.1987667420652756e-03
8153:-2.3231819107558766e-03
8154:-1.3825485170020685e-03
8155:-8.1246835813697114e-04
8156:-4.2515746288351013e-03
8157:-3.3296029973009225e-03
8158:-2.3232339261365486e-03
8159:-1.6987854917654734e-03
8160:1.7629483934687943e-03
8161:1.9949811277152072e-03
8162:2.1323272377093525e-03
8163:2.1154493288084611e-03
8164:6.9429115709690090e-04
8165:9.9934738314039814e-04
8166:1.2378832832862913e-03
8167:1.3031352954385146e-03
8168:-5.6026569176181862e-04
8169:-1.6872220861569446e-04
8170:1.8974599475103857e-04
8171:3.5237728831276582e-04
8172:-1.4162055754219380e-03
8173:-9.6512306365516309e-04
8174:-5.2402318070441669e-04
8175:-2.9427019723636869e-04
8176:2.0656747490328184e-03
8177:1.9181941223974431e-03
8178:1.6305945203268063e-03
8179:1.3433302976468911e-03
8180:1.2987724747962083e-03
8181:1.2398144485511479e-03
8182:1.0743176487486537e-03
8183:8.8577090593675522e-04
8184:4.0185523979332008e-04
8185:4.4769259836219705e-04
8186:4.2637192365668883e-04
8187:3.5407783521159125e-04
8188:-2.0768425680028752e-04
8189:-8.9759779017544258e-05
8190:-1.2231213830577065e-05
8191:-5.0930996216706144e-06
8192:1.1699206637990926e-03
8193:8.3676488380898144e-04
8194:4.0162191777243635e-04
8195:7.6001478063771641e-05
8196:7.6682591598452191e-04
8197:5.3970764678424677e-04
8198:2.5060916275095930e-04
8199:4.2920226451261655e-05
8200:2.9914646876353154e-04
8201:1.9625171010510158e-04
8202:7.7407300094453979e-05
8203:6.5559739188599934e-06
8204:-1.6395419036481334e-05
8205:-3.4973700564218933e-05
8206:-3.8982110143294883e-05
8207:-1.8094672599803534e-05
8208:-3.8936408412351773e-03
8209:-1.8472856000459750e-02
8210:-3.7339913665236833e-02
8211:-5.1658566253014487e-02
8212:-3.7475044568653472e-03
8213:-1.7778103014194004e-02
8214:-3.5936693080965913e-02
8215:-4.9720219917327120e-02
8216:-3.5560178016505722e-03
8217:-1.6906891666266317e-02
8218:-3.4186232296044318e-02
8219:-4.7304341407030708e-02
8220:-3.4147797098269391e-03
8221:-1.6267460695321392e-02
8222:-3.2902467660544908e-02
8223:-4.5532879008573300e-02
8224:-5.9226598796053506e-02
8225:-7.3209696450678513e-02
8226:-9.0986151888380482e-02
8227:-1.0423408166492605e-01
8228:-5.7006839960123894e-02
8229:-7.0474786241467940e-02
8230:-8.7606653974718396e-02
8231:-1.0038267650005731e-01
8232:-5.4240512510246267e-02
8233:-6.7065847803226400e-02
8234:-8.3391570666645959e-02
8235:-9.5575861591392933e-02
8236:-5.2212115135375055e-02
8237:-6.4565807118521640e-02
8238:-8.0298868152973185e-02
8239:-9.2047422483361355e-02
8240:-1.1115026789756603e-01
8241:-1.2376871079970861e-01
8242:-1.3949386508165323e-01
8243:-1.5096640490254842e-01
8244:-1.0705573477660077e-01
8245:-1.1923777535788177e-01
8246:-1.3443494265314079e-01
8247:-1.4553613332569437e-01
8248:-1.0194356793121157e-01
8249:-1.1357741043341232e-01
8250:-1.2811075718407008e-01
8251:-1.3874408775351632e-01
8252:-9.8190041450585866e-02
8253:-1.0941931894872345e-01
8254:-1.2346138914635725e-01
8255:-1.3374692536170255e-01
8256:-1.5686720553850039e-01
8257:-1.6747844301484857e-01
8258:-1.8039884595123193e-01
8259:-1.8958698334017099e-01
8260:-1.5125146824020910e-01
8261:-1.6154068358977380e-01
8262:-1.7409177572906212e-01
8263:-1.8303520015574165e-01
8264:-1.4422514036766135e-01
8265:-1.5410482947095078e-01
8266:-1.6618102592800099e-01
8267:-1.7480605515666525e-01
8268:-1.3905308512839384e-01
8269:-1.4862532884577237e-01
8270:-1.6034201174631307e-01
8271:-1.6872407734102998e-01
8272:-1.9422616566976350e-01
8273:-2.0241086478350889e-01
8274:-2.1206073740608308e-01
8275:-2.1866844363928070e-01
8276:-1.8755739885112763e-01
8277:-1.9554814662073711e-01
8278:-2.0499594027590082e-01
8279:-2.1148850551291018e-01
8280:-1.7917484376477880e-01
8281:-1.8690994547105555e-01
8282:-1.9608789876887317e-01
8283:-2.0242260205050305e-01
8284:-1.7297522346273916e-01
8285:-1.8051323523044877e-01
8286:-1.8948023305247855e-01
8287:-1.9568817779484154e-01
8288:-2.2190980351681033e-01
8289:-2.2745879490112875e-01
8290:-2.3365741680105867e-01
8291:-2.3761668428049920e-01
8292:-2.1468272343989206e-01
8293:-2.2016862087255940e-01
8294:-2.2633339947175968e-01
8295:-2.3030295102919479e-01
8296:-2.0554997641283898e-01
8297:-2.1094079511536762e-01
8298:-2.1703981015281842e-01
8299:-2.2100285688352350e-01
8300:-1.9876016571099039e-01
8301:-2.0406841373947276e-01
8302:-2.1010104900684004e-01
8303:-2.1404465696715028e-01
8304:-2.3944851657054700e-01
8305:-2.4237827974580334e-01
8306:-2.4521957286499774e-01
8307:-2.4665654219736952e-01
8308:-2.3215270846399003e-01
8309:-2.3513694743511079e-01
8310:-2.3808843013775341e-01
8311:-2.3963861675893947e-01
8312:-2.2286435269442836e-01
8313:-2.2589652979663355e-01
8314:-2.2895956593265465e-01
8315:-2.3063157323573524e-01
8316:-2.1590677512946610e-01
8317:-2.1895901426933287e-01
8318:-2.2208422082880233e-01
8319:-2.2383078065235651e-01
8320:-2.4716471187261238e-01
8321:-2.4766780344873693e-01
8322:-2.4746065365960501e-01
8323:-2.4665311343925805e-01
8324:-2.4021677780675735e-01
8325:-2.4086590324238569e-01
8326:-2.4087709882282685e-01
8327:-2.4025788489039004e-01
8328:-2.3128695913688291e-01
8329:-2.3210015399121872e-01
8330:-2.3236139042813733e-01
8331:-2.3196059510253120e-01
8332:-2.2453509598285673e-01
8333:-2.2545471997315986e-01
8334:-2.2588203008880225e-01
8335:-2.2562849572530677e-01
8336:-2.4599892262047732e-01
8337:-2.4439615727017081e-01
8338:-2.4159324600843848e-01
8339:-2.3891410550429590e-01
8340:-2.3971122369256365e-01
8341:-2.3832038613036197e-01
8342:-2.3581165452262856e-01
8343:-2.3337005192771415e-01
8344:-2.3153937118443335e-01
8345:-2.3039666316162580e-01
8346:-2.2823439906984838e-01
8347:-2.2607440425741840e-01
8348:-2.2529241224979868e-01
8349:-2.2431896356505188e-01
8350:-2.2239493417299125e-01
8351:-2.2043026335420832e-01
8352:-2.3730507696735770e-01
8353:-2.3399554649958260e-01
8354:-2.2913198650698410e-01
8355:-2.2499943210199488e-01
8356:-2.3189128169211515e-01
8357:-2.2882987255880627e-01
8358:-2.2429654024093790e-01
8359:-2.2042192983743866e-01
8360:-2.2475081811337191e-01
8361:-2.2198673780406980e-01
8362:-2.1785204526723162e-01
8363:-2.1429056352650055e-01
8364:-2.1921498089708816e-01
8365:-2.1665966432872932e-01
8366:-2.1280688635560369e-01
8367:-2.0946798190912100e-01
8368:-2.2266022160138360e-01
8369:-2.1806549846184881e-01
8370:-2.1169097081655391e-01
8371:-2.0652622342315208e-01
8372:-2.1822172544278268e-01
8373:-2.1388822368852117e-01
8374:-2.0785373253549277e-01
8375:-2.0294805164974686e-01
8376:-2.1225955665474747e-01
8377:-2.0824444508583295e-01
8378:-2.0262552047306401e-01
8379:-1.9803761855078839e-01
8380:-2.0755752303372788e-01
8381:-2.0376969311233170e-01
8382:-1.9844854804188980e-01
8383:-1.9408947752055719e-01
8384:-2.0368103866019574e-01
8385:-1.9821587906836144e-01
8386:-1.9085715676569273e-01
8387:-1.8505151169805908e-01
8388:-2.0023999341568643e-01
8389:-1.9502849904254116e-01
8390:-1.8799327424484399e-01
8391:-1.8242990073836596e-01
8392:-1.9549829211759504e-01
8393:-1.9060022933543272e-01
8394:-1.8396700877567962e-01
8395:-1.7870616199225939e-01
8396:-1.9167213223170892e-01
8397:-1.8700158093769950e-01
8398:-1.8066170269446671e-01
8399:-1.7562254141625513e-01
8400:-1.8190401659706157e-01
8401:-1.7594094872119001e-01
8402:-1.6806557869681324e-01
8403:-1.6196365422055009e-01
8404:-1.7940945297832858e-01
8405:-1.7367968867087960e-01
8406:-1.6609803518964078e-01
8407:-1.6021264980163591e-01
8408:-1.7584477353992425e-01
8409:-1.7040757356238920e-01
8410:-1.6319532443866744e-01
8411:-1.5758330722951883e-01
8412:-1.7287796328383226e-01
8413:-1.6765604646043572e-01
8414:-1.6071662491676503e-01
8415:-1.5530743546457457e-01
8416:-1.5869261371647361e-01
8417:-1.5255526644005704e-01
8418:-1.4456143546022054e-01
8419:-1.3844970023025796e-01
8420:-1.5705381192873666e-01
8421:-1.5112037189806046e-01
8422:-1.4337961741399241e-01
8423:-1.3745208340163420e-01
8424:-1.5456655789182644e-01
8425:-1.4889233043236907e-01
8426:-1.4147510340811403e-01
8427:-1.3578429195964656e-01
8428:-1.5239649058463647e-01
8429:-1.4691599093995611e-01
8430:-1.3974180018569776e-01
8431:-1.3422964355127015e-01
8432:-1.3520110270556182e-01
8433:-1.2915179199109969e-01
8434:-1.2135971113173402e-01
8435:-1.1546724918295281e-01
8436:-1.3429822193840460e-01
8437:-1.2842002493953578e-01
8438:-1.2083802142710463e-01
8439:-1.1509641363921171e-01
8440:-1.3275256780503605e-01
8441:-1.2709551313476047e-01
8442:-1.1978613082794089e-01
8443:-1.1424126780319729e-01
8444:-1.3129035165666367e-01
8445:-1.2580109343146872e-01
8446:-1.1869950679978476e-01
8447:-1.1330541561858642e-01
8448:-1.1235750265269202e-01
8449:-1.0660337954517270e-01
8450:-9.9261255235725515e-02
8451:-9.3761610087659222e-02
8452:-1.1206344431987265e-01
8453:-1.0644671764309846e-01
8454:-9.9270989418371008e-02
8455:-9.3889207901031918e-02
8456:-1.1130882291263171e-01
8457:-1.0587277737343141e-01
8458:-9.8917350074237825e-02
8459:-9.3692708550638271e-02
8460:-1.1045032294709553e-01
8461:-1.0515387337906552e-01
8462:-9.8369689670604207e-02
8463:-9.3267946744970298e-02
8464:-9.0877405645913428e-02
8465:-8.5571489351803934e-02
8466:-7.8860777665475834e-02
8467:-7.3879566100564301e-02
8468:-9.1064456039277764e-02
8469:-8.5864073885623060e-02
8470:-7.9279348049952791e-02
8471:-7.4385792867630404e-02
8472:-9.0947592945474234e-02
8473:-8.5889146673061453e-02
8474:-7.9475032300001691e-02
8475:-7.4701168864059989e-02
8476:-9.0585368001709382e-02
8477:-8.5638817691071387e-02
8478:-7.9360104081196245e-02
8479:-7.4681982877661160e-02
8480:-7.1283222696924359e-02
8481:-6.6533999008389785e-02
8482:-6.0579999487779874e-02
8483:-5.6201107712626194e-02
8484:-7.1833044869178755e-02
8485:-6.7160161259864043e-02
8486:-6.1295276040756762e-02
8487:-5.6976797627748432e-02
8488:-7.2208333793654406e-02
8489:-6.7641082391143539e-02
8490:-6.1900918206771183e-02
8491:-5.7668120080628833e-02
8492:-7.2237361935926586e-02
8493:-6.7755622034611426e-02
8494:-6.2117400514186412e-02
8495:-5.7955404295656064e-02
8496:-5.3933158937661506e-02
8497:-4.9809819935314879e-02
8498:-4.4689861363545823e-02
8499:-4.0962958388623336e-02
8500:-5.4738311886566741e-02
8501:-5.0665523171789024e-02
8502:-4.5602379807316233e-02
8503:-4.1912093817524858e-02
8504:-5.5471839925933325e-02
8505:-5.1472185656536627e-02
8506:-4.6492746599719366e-02
8507:-4.2857730342884488e-02
8508:-5.5794284156904114e-02
8509:-5.1856059566887255e-02
8510:-4.6947975372534860e-02
8511:-4.3360977919061738e-02
8512:-3.9046579298183275e-02
8513:-3.5586747163474541e-02
8514:-3.1338669857669040e-02
8515:-2.8284336661313827e-02
8516:-4.0012813912948572e-02
8517:-3.6580912083410751e-02
8518:-3.2361290344442621e-02
8519:-2.9322734663905649e-02
8520:-4.0984806968382498e-02
8521:-3.7597017125130250e-02
8522:-3.3424643256052343e-02
8523:-3.0414485732113902e-02
8524:-4.1511317214485421e-02
8525:-3.8163138694505133e-02
8526:-3.4034626448258547e-02
8527:-3.1052133384741665e-02
8528:-2.6727591449303447e-02
8529:-2.3941416841515940e-02
8530:-2.0568925916218114e-02
8531:-1.8182829439084031e-02
8532:-2.7772302069625728e-02
8533:-2.4994359467918007e-02
8534:-2.1625629354188432e-02
8535:-1.9237110327430262e-02
8536:-2.8876461793426633e-02
8537:-2.6117073990223373e-02
8538:-2.2763408999157259e-02
8539:-2.0379484632401749e-02
8540:-2.9526768738555850e-02
8541:-2.6787505348949667e-02
8542:-2.3453074670374479e-02
8543:-2.1078551704266747e-02
8544:-1.6980904756793640e-02
8545:-1.4854633680986979e-02
8546:-1.2330536764829873e-02
8547:-1.0584772315002064e-02
8548:-1.8032041823910331e-02
8549:-1.5896665407980373e-02
8550:-1.3354496610942195e-02
8551:-1.1590175859373816e-02
8552:-1.9174436690137964e-02
8553:-1.7034908535910311e-02
8554:-1.4479224658781655e-02
8555:-1.2698384414020871e-02
8556:-1.9876648326618725e-02
8557:-1.7739803103710768e-02
8558:-1.5181395544638590e-02
8559:-1.3393727059025947e-02
8560:-9.7202934144324168e-03
8561:-8.2164718446681561e-03
8562:-6.4822794197029214e-03
8563:-5.3245713194612701e-03
8564:-1.0714164626353374e-02
8565:-9.1858461835896982e-03
8566:-7.4141592576038281e-03
8567:-6.2234967150574033e-03
8568:-1.1811417186818319e-02
8569:-1.0258827049203017e-02
8570:-8.4482967387825951e-03
8571:-7.2224028632409207e-03
8572:-1.2501464239631816e-02
8573:-1.0936102784550011e-02
8574:-9.1034446815249082e-03
8575:-7.8564397350253789e-03
8576:-4.7669802293492649e-03
8577:-3.8224404235982692e-03
8578:-2.7839209522577831e-03
8579:-2.1327691370306165e-03
8580:-5.6468678010149348e-03
8581:-4.6640473368105726e-03
8582:-3.5706426417532757e-03
8583:-2.8736680398004743e-03
8584:-6.6250943587135690e-03
8585:-5.6002492175965006e-03
8586:-4.4458272842913182e-03
8587:-3.6973983682299558e-03
8588:-7.2464378818380866e-03
8589:-6.1953907333104144e-03
8590:-5.0022295538522023e-03
8591:-4.2206724285759334e-03
8592:-1.8352360035799233e-03
8593:-1.3548226650735265e-03
8594:-8.7298915490481620e-04
8595:-6.1013731971966433e-04
8596:-2.5504047688762019e-03
8597:-2.0194692710589872e-03
8598:-1.4674077483076971e-03
8599:-1.1474621592045459e-03
8600:-3.3450905288016862e-03
8601:-2.7570112933982828e-03
8602:-2.1253766356975705e-03
8603:-1.7406768051042834e-03
8604:-3.8495290568292401e-03
8605:-3.2242912173394227e-03
8606:-2.5407881669529293e-03
8607:-2.1138234148689100e-03
8608:-5.0525436994634321e-04
8609:-3.5184227704281127e-04
8610:-2.2578391597392707e-04
8611:-1.7975883925191321e-04
8612:-1.0110192087454024e-03
8613:-7.9650726001597014e-04
8614:-5.8715364872686908e-04
8615:-4.7459827944048834e-04
8616:-1.5684415084568234e-03
8617:-1.2848700114436891e-03
8618:-9.8191534571959692e-04
8619:-7.9504977650773727e-04
8620:-1.9182281793146527e-03
8621:-1.5897876660316060e-03
8622:-1.2264938503208245e-03
8623:-9.9212089813492687e-04
8624:-1.6974633623943218e-04
8625:-1.4727241304953964e-04
8626:-9.5661781294352258e-05
8627:-3.0569677968940230e-05
8628:-4.2820538201508268e-04
8629:-3.3594827110185334e-04
8630:-1.9040475042688147e-04
8631:-5.1147960479127191e-05
8632:-7.0820591898052140e-04
8633:-5.3898284659686284e-04
8634:-2.9118813053152857e-04
8635:-7.2290066207223637e-05
8636:-8.7957932155695003e-04
8637:-6.6203261167122659e-04
8638:-3.5128268220717889e-04
8639:-8.4367186246317373e-05
8640:-3.3433083898301271e-03
8641:-1.5937059859538125e-02
8642:-3.2237599877408672e-02
8643:-4.4615116995543373e-02
8644:-3.2167269541629371e-03
8645:-1.5334901791742185e-02
8646:-3.1021983624799535e-02
8647:-4.2936173238386832e-02
8648:-3.0622535447880519e-03
8649:-1.4580161065518909e-02
8650:-2.9493866742272418e-02
8651:-4.0824355595267682e-02
8652:-2.9483426753488737e-03
8653:-1.4021884642993015e-02
8654:-2.8363097599597525e-02
8655:-3.9261273017432465e-02
8656:-5.1161186594341997e-02
8657:-6.3270346606126418e-02
8658:-7.8695951865627403e-02
8659:-9.0218344759461805e-02
8660:-4.9238386477363547e-02
8661:-6.0899549370218631e-02
8662:-7.5761412235558268e-02
8663:-8.6868781594101011e-02
8664:-4.6819383471659787e-02
8665:-5.7915669324093706e-02
8666:-7.2065586636114148e-02
8667:-8.2647982155602859e-02
8668:-4.5028621988299260e-02
8669:-5.5705719143792611e-02
8670:-6.9326289165372396e-02
8671:-7.9517581584749739e-02
8672:-9.6244092150412755e-02
8673:-1.0726301561172009e-01
8674:-1.2104886522983398e-01
8675:-1.3115223953029137e-01
8676:-9.2679917473625056e-02
8677:-1.0331184056040853e-01
8678:-1.1662479702033630e-01
8679:-1.2639079216143842e-01
8680:-8.8187316473601493e-02
8681:-9.8327852405607943e-02
8682:-1.1103787412049430e-01
8683:-1.2037187653262507e-01
8684:-8.4854135496079383e-02
8685:-9.4627280102954264e-02
8686:-1.0688502425146068e-01
8687:-1.1589391975383764e-01
8688:-1.3636647006471711e-01
8689:-1.4577664119966049e-01
8690:-1.5730308054207331e-01
8691:-1.6555616342985399e-01
8692:-1.3143435891002259e-01
8693:-1.4054327842343137e-01
8694:-1.5171526257589132e-01
8695:-1.5972716279025478e-01
8696:-1.2519630558660660e-01
8697:-1.3391764017814636e-01
8698:-1.4463164151331229e-01
8699:-1.5232985199953064e-01
8700:-1.2055307684937466e-01
8701:-1.2898138120152922e-01
8702:-1.3934729327639972e-01
8703:-1.4680521396504970e-01
8704:-1.6974474049680408e-01
8705:-1.7717750882892377e-01
8706:-1.8603070794647683e-01
8707:-1.9216902801771479e-01
8708:-1.6379832387989532e-01
8709:-1.7103228015146515e-01
8710:-1.7966778348679813e-01
8711:-1.8567063239612339e-01
8712:-1.5624731988136592e-01
8713:-1.6321851961537093e-01
8714:-1.7156133637913099e-01
8715:-1.7737807795310834e-01
8716:-1.5060410943463046e-01
8717:-1.5737083245524044e-01
8718:-1.6548253662190296e-01
8719:-1.7114974609549410e-01
8720:-1.9520999288131990e-01
8721:-2.0047082810768316e-01
8722:-2.0646265277477588e-01
8723:-2.1039108422227443e-01
8724:-1.8865032196381326e-01
8725:-1.9381595503098809e-01
8726:-1.9972213168267136e-01
8727:-2.0361436434975591e-01
8728:-1.8027206160144529e-01
8729:-1.8530179555286552e-01
8730:-1.9107917794274673e-01
8731:-1.9490957937237030e-01
8732:-1.7397390089336612e-01
8733:-1.7889099704317241e-01
8734:-1.8455709999513942e-01
8735:-1.8832920770410150e-01
8736:-2.1225076754214503e-01
8737:-2.1530816976085376e-01
8738:-2.1845872884484330e-01
8739:-2.2023870932809056e-01
8740:-2.0546507314621501e-01
8741:-2.0852330493092661e-01
8742:-2.1170874668730638e-01
8743:-2.1354087883411108e-01
8744:-1.9674021001432193e-01
8745:-1.9978276224012556e-01
8746:-2.0298982879291833e-01
8747:-2.0487018812763805e-01
8748:-1.9013816279723367e-01
8749:-1.9315618043512792e-01
8750:-1.9636215002445703e-01
8751:-1.9826493152471364e-01
8752:-2.2096564688652212e-01
8753:-2.2193545638549006e-01
8754:-2.2244257753583288e-01
8755:-2.2226064691681632e-01
8756:-2.1430436324538030e-01
8757:-2.1535697388591021e-01
8758:-2.1599859976816821e-01
8759:-2.1593911450169417e-01
8760:-2.0567028987401931e-01
8761:-2.0680958094098426e-01
8762:-2.0759803011442310e-01
8763:-2.0767596181019909e-01
8764:-1.9908501359198824e-01
8765:-2.0027514551261277e-01
8766:-2.0115519484285710e-01
8767:-2.0132215147464433e-01
8768:-2.2196617957302153e-01
8769:-2.2107582993839292e-01
8770:-2.1926956451966495e-01
8771:-2.1740212936061501e-01
8772:-2.1571635247707457e-01
8773:-2.1497012307129715e-01
8774:-2.1336974696121724e-01
8775:-2.1167339537416413e-01
8776:-2.0753481670596571e-01
8777:-2.0695455530691362e-01
8778:-2.0559455584275968e-01
8779:-2.0410000903236505e-01
8780:-2.0123485685318643e-01
8781:-2.0076567373903320e-01
8782:-1.9956917474398339e-01
8783:-1.9821350952244834e-01
8784:-2.1624102030489778e-01
8785:-2.1379053696342107e-01
8786:-2.1007995897637116e-01
8787:-2.0685366866751603e-01
8788:-2.1060792855742619e-01
8789:-2.0834296594234461e-01
8790:-2.0488489196765511e-01
8791:-2.0185924809115813e-01
8792:-2.0314795561761717e-01
8793:-2.0110385718125010e-01
8794:-1.9794818120287319e-01
8795:-1.9516430618609981e-01
8796:-1.9733997028884401e-01
8797:-1.9544952983224312e-01
8798:-1.9250580361654143e-01
8799:-1.8989266534504209e-01
8800:-2.0500428630014508e-01
8801:-2.0133181419796953e-01
8802:-1.9616231060925698e-01
8803:-1.9192023768446298e-01
8804:-2.0011894242626435e-01
8805:-1.9665310401935118e-01
8806:-1.9175636536310567e-01
8807:-1.8772552289961411e-01
8808:-1.9355599660459447e-01
8809:-1.9034141936518897e-01
8810:-1.8577849595948973e-01
8811:-1.8200755850802872e-01
8812:-1.8837805043177505e-01
8813:-1.8534272636277130e-01
8814:-1.8101949755696820e-01
8815:-1.7743616542734220e-01
8816:-1.8956544646475570e-01
8817:-1.8501185875490750e-01
8818:-1.7882325403417049e-01
8819:-1.7389868746223167e-01
8820:-1.8548391018685864e-01
8821:-1.8114224419522912e-01
8822:-1.7522832600783225e-01
8823:-1.7051234232492490e-01
8824:-1.7990561865019553e-01
8825:-1.7582607622936006e-01
8826:-1.7025317051539587e-01
8827:-1.6579721720446408e-01
8828:-1.7543533245193230e-01
8829:-1.7154604480065658e-01
8830:-1.6622174832178360e-01
8831:-1.6195630038478481e-01
8832:-1.7121456646068975e-01
8833:-1.6610425435215004e-01
8834:-1.5930668697013492e-01
8835:-1.5400332711221768e-01
8836:-1.6793846057726264e-01
8837:-1.6303213934126728e-01
8838:-1.5649477366116499e-01
8839:-1.5138619055746499e-01
8840:-1.6336119564103066e-01
8841:-1.5871091974079746e-01
8842:-1.5250187203997503e-01
8843:-1.4764023048193631e-01
8844:-1.5962164109092683e-01
8845:-1.5516031310506545e-01
8846:-1.4919476676546034e-01
8847:-1.4451708886899992e-01
8848:-1.5114773326102282e-01
8849:-1.4576880889515251e-01
8850:-1.3872243463737297e-01
8851:-1.3330449034509684e-01
8852:-1.4863268026608609e-01
8853:-1.4344137537564569e-01
8854:-1.3663165313324263e-01
8855:-1.3138860225358082e-01
8856:-1.4501651235185847e-01
8857:-1.4006431075193107e-01
8858:-1.3355732524270231e-01
8859:-1.2853896395930206e-01
8860:-1.4199031584885596e-01
8861:-1.3721716175082491e-01
8862:-1.3093782376917254e-01
8863:-1.2608920953101585e-01
8864:-1.3041402136256042e-01
8865:-1.2501356198328267e-01
8866:-1.1802230303084918e-01
8867:-1.1270856780840526e-01
8868:-1.2858894351291481e-01
8869:-1.2335404285009180e-01
8870:-1.1656923425955834e-01
8871:-1.1140641936184836e-01
8872:-1.2585634133160359e-01
8873:-1.2083556841575215e-01
8874:-1.1431918492732641e-01
8875:-1.0935360891982267e-01
8876:-1.2349530406168946e-01
8877:-1.1863739734805900e-01
8878:-1.1232618416531852e-01
8879:-1.0751207957030696e-01
8880:-1.0989481697444706e-01
8881:-1.0467316050896215e-01
8882:-9.7981059500152221e-02
8883:-9.2945642883248039e-02
8884:-1.0867050163230252e-01
8885:-1.0358993131496175e-01
8886:-9.7072071707315674e-02
8887:-9.2162596116095036e-02
8888:-1.0671974811829445e-01
8889:-1.0182470726507843e-01
8890:-9.5537046370839929e-02
8891:-9.0794829837299640e-02
8892:-1.0495682954863432e-01
8893:-1.0020510956262958e-01
8894:-9.4096115261637081e-02
8895:-8.9484395989278917e-02
8896:-9.0296895794199791e-02
8897:-8.5411035612884142e-02
8898:-7.9206081673557666e-02
8899:-7.4580381220743147e-02
8900:-8.9578253469373162e-02
8901:-8.4808254598043295e-02
8902:-7.8744747559467018e-02
8903:-7.4220059971016356e-02
8904:-8.8296350471456342e-02
8905:-8.3681438505370936e-02
8906:-7.7808454386182863e-02
8907:-7.3420724797358658e-02
8908:-8.7053162083310653e-02
8909:-8.2560158402456799e-02
8910:-7.6837783690807737e-02
8911:-7.2558952987336542e-02
8912:-7.2162258505226742e-02
8913:-6.7727679513453182e-02
8914:-6.2145995548283747e-02
8915:-5.8023511892488423e-02
8916:-7.1853170586347964e-02
8917:-6.7510048797580602e-02
8918:-6.2038549508909933e-02
8919:-5.7993515783392513e-02
8920:-7.1123614316498066e-02
8921:-6.6905574228217551e-02
8922:-6.1585808805894371e-02
8923:-5.7648281696701748e-02
8924:-7.0317545992455571e-02
8925:-6.6199740328270237e-02
8926:-6.1002337986737286e-02
8927:-5.7152134838315417e-02
8928:-5.5882103635531116e-02
8929:-5.1978484575275617e-02
8930:-4.7110939980203964e-02
8931:-4.3551514685142290e-02
8932:-5.5890914948101875e-02
8933:-5.2055742631219606e-02
8934:-4.7269019741859326e-02
8935:-4.3765085058104128e-02
8936:-5.5599871871753415e-02
8937:-5.1860868858696715e-02
8938:-4.7188873995337097e-02
8939:-4.3764655800402660e-02
8940:-5.5147978072792571e-02
8941:-5.1487922270774242e-02
8942:-4.6910924036787947e-02
8943:-4.3553362636274816e-02
8944:-4.1715325738087790e-02
8945:-3.8390292320201712e-02
8946:-3.4287836012948825e-02
8947:-3.1322152476422789e-02
8948:-4.1956207368270042e-02
8949:-3.8678446609000793e-02
8950:-3.4629939890918754e-02
8951:-3.1699702335167119e-02
8952:-4.1995369226584034e-02
8953:-3.8786770593293628e-02
8954:-3.4818513055801484e-02
8955:-3.1942142671885963e-02
8956:-4.1817423353679758e-02
8957:-3.8667516001810023e-02
8958:-3.4768259292164157e-02
8959:-3.1938973179459769e-02
8960:-2.9804637192630972e-02
8961:-2.7078168812692472e-02
8962:-2.3756689688821903e-02
8963:-2.1389246400375487e-02
8964:-3.0199004390771163e-02
8965:-2.7500475792004382e-02
8966:-2.4208441901908153e-02
8967:-2.1858227229006589e-02
8968:-3.0467466327656331e-02
8969:-2.7813068361482611e-02
8970:-2.4569490309085885e-02
8971:-2.2249447279048675e-02
8972:-3.0487346978696275e-02
8973:-2.7872614276521299e-02
8974:-2.4673805177052397e-02
8975:-2.2382728696124430e-02
8976:-2.0190121062674871e-02
8977:-1.8056771538312102e-02
8978:-1.5499600989502061e-02
8979:-1.3710347098330388e-02
8980:-2.0666414881822529e-02
8981:-1.8543557975952182e-02
8982:-1.5993823063223968e-02
8983:-1.4205499850001024e-02
8984:-2.1071270571639090e-02
8985:-1.8969768948850507e-02
8986:-1.6439699602568202e-02
8987:-1.4660197421502022e-02
8988:-2.1218109758803828e-02
8989:-1.9138790646026714e-02
8990:-1.6631349480143828e-02
8991:-1.4864373788640474e-02
8992:-1.2816353928643219e-02
8993:-1.1246239477352676e-02
8994:-9.4044806277259387e-03
8995:-8.1483002111320917e-03
8996:-1.3310336565371374e-02
8997:-1.1735208212720864e-02
8998:-9.8814867902008528e-03
8999:-8.6120253485122197e-03
9000:-1.3767551378129130e-02
9001:-1.2193477946822136e-02
9002:-1.0334083663747152e-02
9003:-9.0549283433107620e-03
9004:-1.3976721109193636e-02
9005:-1.2409205610137402e-02
9006:-1.0552968790670190e-02
9007:-9.2721404428014065e-03
9008:-7.5326454685205454e-03
9009:-6.4697492115842331e-03
9010:-5.2587654955521318e-03
9011:-4.4617696645039969e-03
9012:-7.9878686038295250e-03
9013:-6.9067330638544538e-03
9014:-5.6676181767317622e-03
9015:-4.8458063263438827e-03
9016:-8.4237574644950731e-03
9017:-7.3265525697055718e-03
9018:-6.0609868386626003e-03
9019:-5.2147972411406892e-03
9020:-8.6386654121717952e-03
9021:-7.5349550701205815e-03
9022:-6.2568069810671929e-03
9023:-5.3979207299859264e-03
9024:-4.0817909592621611e-03
9025:-3.4390801044296626e-03
9026:-2.7311336728142259e-03
9027:-2.2842267950720788e-03
9028:-4.4514964607192458e-03
9029:-3.7803397143226932e-03
9030:-3.0324586868162120e-03
9031:-2.5528971334375971e-03
9032:-4.8061122986015918e-03
9033:-4.1061752412570388e-03
9034:-3.3175478855288218e-03
9035:-2.8044830959663338e-03
9036:-4.9814486633253862e-03
9037:-4.2656682656280077e-03
9038:-3.4542573982088470e-03
9039:-2.9222664854741081e-03
9040:-2.0776096793107260e-03
9041:-1.7280812178959693e-03
9042:-1.3366236416271972e-03
9043:-1.0802407756003933e-03
9044:-2.3282241852632980e-03
9045:-1.9443094693165424e-03
9046:-1.5073194600165225e-03
9047:-1.2156941324756977e-03
9048:-2.5612610662603267e-03
9049:-2.1423650563643340e-03
9050:-1.6599106383175899e-03
9051:-1.3338503645906222e-03
9052:-2.6685381666903059e-03
9053:-2.2301506886617905e-03
9054:-1.7231763095946703e-03
9055:-1.3792762191595185e-03
9056:-9.5586230529527607e-04
9057:-7.1630314654520485e-04
9058:-3.7741774762232820e-04
9059:-8.9493391181942516e-05
9060:-1.0725083245315377e-03
9061:-7.9850104321522650e-04
9062:-4.1674288935973750e-04
9063:-9.7774000069460282e-05
9064:-1.1726151149435559e-03
9065:-8.6673306261309836e-04
9066:-4.4794636188811134e-04
9067:-1.0443389759977316e-04
9068:-1.2090141143637472e-03
9069:-8.8838354462570279e-04
9070:-4.5522162508121786e-04
9071:-1.0472026087119617e-04
9072:-2.8880897064449749e-03
9073:-1.3730342639989160e-02
9074:-2.7773350178178540e-02
9075:-3.8446086887359135e-02
9076:-2.7748113988712536e-03
9077:-1.3191026776826140e-02
9078:-2.6683837445960285e-02
9079:-3.6940064968734060e-02
9080:-2.6278860403598919e-03
9081:-1.2501298425856410e-02
9082:-2.5291703901867007e-02
9083:-3.5015410543796012e-02
9084:-2.5172167797663783e-03
9085:-1.1982632065835771e-02
9086:-2.4244390916285406e-02
9087:-3.3567017612488877e-02
9088:-4.4094596314523601e-02
9089:-5.4552688282893697e-02
9090:-6.7896305900590065e-02
9091:-7.7882671090376332e-02
9092:-4.2368849878360988e-02
9093:-5.2421795456736850e-02
9094:-6.5252590595986967e-02
9095:-7.4859081803598376e-02
9096:-4.0163077661115890e-02
9097:-4.9697318941163825e-02
9098:-6.1870732435083876e-02
9099:-7.0989523857103623e-02
9100:-3.8502910547162095e-02
9101:-4.7646167548248429e-02
9102:-5.9323488016256344e-02
9103:-6.8073704518969630e-02
9104:-8.3112863382268143e-02
9105:-9.2693084330026598e-02
9106:-1.0471293112964077e-01
9107:-1.1355054636323168e-01
9108:-7.9891945546350221e-02
9109:-8.9113910977364263e-02
9110:-1.0069129688459774e-01
9111:-1.0920977534896653e-01
9112:-7.5768743145192580e-02
9113:-8.4529529719805818e-02
9114:-9.5535888041376846e-02
9115:-1.0364126531267209e-01
9116:-7.2661010390750916e-02
9117:-8.1072300341719680e-02
9118:-9.1644716084788774e-02
9119:-9.9435150073928211e-02
9120:-1.1812253611461637e-01
9121:-1.2639599022340273e-01
9122:-1.3657720259062051e-01
9123:-1.4390689059658471e-01
9124:-1.1361911446770687e-01
9125:-1.2160292063646838e-01
9126:-1.3143724397649126e-01
9127:-1.3852500927169764e-01
9128:-1.0783956227781673e-01
9129:-1.1544624212565115e-01
9130:-1.2482641036406766e-01
9131:-1.3159559938961637e-01
9132:-1.0347214808265041e-01
9133:-1.1078969127717830e-01
9134:-1.1981998747709212e-01
9135:-1.2634254193779978e-01
9136:-1.4764219562042485e-01
9137:-1.5429870963407427e-01
9138:-1.6228483777216299e-01
9139:-1.6787003220661054e-01
9140:-1.4213995940675142e-01
9141:-1.4858730648583643e-01
9142:-1.5633382081915206e-01
9143:-1.6176130993931884e-01
9144:-1.3505142532191411e-01
9145:-1.4122116877792038e-01
9146:-1.4864721988383325e-01
9147:-1.5386141888378693e-01
9148:-1.2967476422697671e-01
9149:-1.3562805592401428e-01
9150:-1.4280232593674325e-01
9151:-1.4784711754019639e-01
9152:-1.7065560130154661e-01
9153:-1.7550982180255043e-01
9154:-1.8111232232865146e-01
9155:-1.8484958829334655e-01
9156:-1.6447214566818288e-01
9157:-1.6920332553079290e-01
9158:-1.7467860422616951e-01
9159:-1.7834356555753933e-01
9160:-1.5647012448422745e-01
9161:-1.6103083556514952e-01
9162:-1.6632489762622782e-01
9163:-1.6988231865083558e-01
9164:-1.5037390892252070e-01
9165:-1.5479629343716064e-01
9166:-1.5993997544745567e-01
9167:-1.6340519191398004e-01
9168:-1.8664480552413520e-01
9169:-1.8964542356758921e-01
9170:-1.9284476608832776e-01
9171:-1.9475456970941965e-01
9172:-1.8010903673131889e-01
9173:-1.8306928285932048e-01
9174:-1.8624564261593271e-01
9175:-1.8816020162078204e-01
9176:-1.7160147843591830e-01
9177:-1.7449445109233677e-01
9178:-1.7762086416354078e-01
9179:-1.7952567813737966e-01
9180:-1.6508335102259186e-01
9181:-1.6791402643817713e-01
9182:-1.7098741974113649e-01
9183:-1.7287294538519613e-01
9184:-1.9558257429368259e-01
9185:-1.9679454898420554e-01
9186:-1.9771636934868658e-01
9187:-1.9792528448680533e-01
9188:-1.8899847533737721e-01
9189:-1.9024266428903963e-01
9190:-1.9123115206466063e-01
9191:-1.9150962396073939e-01
9192:-1.8036864277484474e-01
9193:-1.8163828850439037e-01
9194:-1.8269169565426063e-01
9195:-1.8304366475315254e-01
9196:-1.7371304116701899e-01
9197:-1.7498991818701262e-01
9198:-1.7607679121093253e-01
9199:-1.7647239246622057e-01
9200:-1.9786375703553255e-01
9201:-1.9744832298653733e-01
9202:-1.9633192293973009e-01
9203:-1.9504489532397859e-01
9204:-1.9149149475389440e-01
9205:-1.9116762094475681e-01
9206:-1.9018946454645827e-01
9207:-1.8902209875282011e-01
9208:-1.8307284838554344e-01
9209:-1.8285096031699352e-01
9210:-1.8203054596866550e-01
9211:-1.8100222599002266e-01
9212:-1.7653100094756674e-01
9213:-1.7637446504654661e-01
9214:-1.7565840268359065e-01
9215:-1.7472420109972628e-01
9216:-1.9421033132832069e-01
9217:-1.9239647647293548e-01
9218:-1.8955902016974555e-01
9219:-1.8703199079450322e-01
9220:-1.8825586577304063e-01
9221:-1.8657698202320003e-01
9222:-1.8392807521581769e-01
9223:-1.8155468275027858e-01
9224:-1.8031619075305574e-01
9225:-1.7879713679994597e-01
9226:-1.7637400517693394e-01
9227:-1.7418623378050227e-01
9228:-1.7409311712830852e-01
9229:-1.7268471487558698e-01
9230:-1.7041986127656691e-01
9231:-1.6836350114465576e-01
9232:-1.8556481177824319e-01
9233:-1.8262054536379860e-01
9234:-1.7841959129160170e-01
9235:-1.7493228486955889e-01
9236:-1.8017240859501879e-01
9237:-1.7739154534881768e-01
9238:-1.7341081753866514e-01
9239:-1.7009707041499672e-01
9240:-1.7290704667155171e-01
9241:-1.7032541389000710e-01
9242:-1.6661483489691836e-01
9243:-1.6351525606104172e-01
9244:-1.6715768605829617e-01
9245:-1.6471854450081724e-01
9246:-1.6120253607273688e-01
9247:-1.5825825361173596e-01
9248:-1.7298329930588457e-01
9249:-1.6919177766566815e-01
9250:-1.6399567034400531e-01
9251:-1.5982881461851012e-01
9252:-1.6824201452133250e-01
9253:-1.6462809345671861e-01
9254:-1.5966575324245155e-01
9255:-1.5567932513716493e-01
9256:-1.6177656596378051e-01
9257:-1.5838361019665095e-01
9258:-1.5371383218062770e-01
9259:-1.4995438715067014e-01
9260:-1.5660431566680647e-01
9261:-1.5337300323223288e-01
9262:-1.4891851147223606e-01
9263:-1.4532695136775087e-01
9264:-1.5754674936755492e-01
9265:-1.5318368986234629e-01
9266:-1.4734518162490706e-01
9267:-1.4276374405984915e-01
9268:-1.5349371421906327e-01
9269:-1.4931119223370024e-01
9270:-1.4370669667218883e-01
9271:-1.3930302330907982e-01
9272:-1.4789049161855380e-01
9273:-1.4393641431478743e-01
9274:-1.3862927418736393e-01
9275:-1.3445246937277405e-01
9276:-1.4335335157934456e-01
9277:-1.3956924935637774e-01
9278:-1.3448436537166755e-01
9279:-1.3047792730879182e-01
9280:-1.4028777074222820e-01
9281:-1.3560861197387497e-01
9282:-1.2944914507709360e-01
9283:-1.2469020864533778e-01
9284:-1.3692105923473241e-01
9285:-1.3241623363084401e-01
9286:-1.2647982414426970e-01
9287:-1.2188829144153644e-01
9288:-1.3219084827598057e-01
9289:-1.2790993562762193e-01
9290:-1.2226140441921152e-01
9291:-1.1788690501592280e-01
9292:-1.2830696845605108e-01
9293:-1.2419529354367098e-01
9294:-1.1876535009873551e-01
9295:-1.1455634915273623e-01
9296:-1.2214328208728940e-01
9297:-1.1737180185400413e-01
9298:-1.1116979419584812e-01
9299:-1.0643654574237751e-01
9300:-1.1942923837760823e-01
9301:-1.1481969764443201e-01
9302:-1.0882285478113553e-01
9303:-1.0424193587958704e-01
9304:-1.1554209979875908e-01
9305:-1.1114364557865605e-01
9306:-1.0541530478559341e-01
9307:-1.0103458763427885e-01
9308:-1.1229889418407620e-01
9309:-1.0806225052527479e-01
9310:-1.0254056976542569e-01
9311:-9.8314601617205385e-02
9312:-1.0392333593131826e-01
9313:-9.9248412650604315e-02
9314:-9.3235459133996654e-02
9315:-8.8694131687086716e-02
9316:-1.0180808366797482e-01
9317:-9.7278439048017556e-02
9318:-9.1447767157661064e-02
9319:-8.7040486548248475e-02
9320:-9.8705343199344750e-02
9321:-9.4367799450241693e-02
9322:-8.8779283725648528e-02
9323:-8.4550908915629566e-02
9324:-9.6066454795211559e-02
9325:-9.1878272874234765e-02
9326:-8.6478848641541900e-02
9327:-8.2390766184040828e-02
9328:-8.6299260394694446e-02
9329:-8.1872327039970286e-02
9330:-7.6231856289991573e-02
9331:-7.2012454257865066e-02
9332:-8.4715013722242827e-02
9333:-8.0414423334108864e-02
9334:-7.4931055248471837e-02
9335:-7.0826025143668064e-02
9336:-8.2318341043164087e-02
9337:-7.8187360932332806e-02
9338:-7.2915827362629596e-02
9339:-6.8965750864315889e-02
9340:-8.0231252213556925e-02
9341:-7.6233996099361975e-02
9342:-7.1130177404697237e-02
9343:-6.7303333780335664e-02
9344:-6.9801518393023815e-02
9345:-6.5738675872797192e-02
9346:-6.0608636956865122e-02
9347:-5.6806721834886449e-02
9348:-6.8673871125343205e-02
9349:-6.4717318840629146e-02
9350:-5.9718058222450292e-02
9351:-5.6010281853696720e-02
9352:-6.6893506024882060e-02
9353:-6.3081938850323135e-02
9354:-5.8262015449284062e-02
9355:-5.4684060470180526e-02
9356:-6.5294840824621544e-02
9357:-6.1599296425356796e-02
9358:-5.6923560957147956e-02
9359:-5.3450497394224264e-02
9360:-5.4827115418169786e-02
9361:-5.1210992339319111e-02
9362:-4.6687121644890167e-02
9363:-4.3367047606313394e-02
9364:-5.4078677679440315e-02
9365:-5.0548689607113569e-02
9366:-4.6129449576719210e-02
9367:-4.2883583872618557e-02
9368:-5.2818912395324200e-02
9369:-4.9408613928164938e-02
9370:-4.5135644450866416e-02
9371:-4.1994232806868953e-02
9372:-5.1639225796368690e-02
9373:-4.8326278856067051e-02
9374:-4.4172915822566154e-02
9375:-4.1117428225342124e-02
9376:-4.1649940035955339e-02
9377:-3.8533317944422600e-02
9378:-3.4673483307529056e-02
9379:-3.1871341240115168e-02
9380:-4.1203897864823660e-02
9381:-3.8153681990623807e-02
9382:-3.4373028403196310e-02
9383:-3.1625843575534628e-02
9384:-4.0367488230066445e-02
9385:-3.7411703497564334e-02
9386:-3.3744618262097806e-02
9387:-3.1077049852791701e-02
9388:-3.9534423615855449e-02
9389:-3.6656994174025861e-02
9390:-3.3084813772050428e-02
9391:-3.0484319454210353e-02
9392:-3.0433098457338072e-02
9393:-2.7841570677607768e-02
9394:-2.4669316148626472e-02
9395:-2.2395738709403784e-02
9396:-3.0214864817630482e-02
9397:-2.7670911973047493e-02
9398:-2.4553731175890228e-02
9399:-2.2316993692904269e-02
9400:-2.9705868728046217e-02
9401:-2.7231904862214790e-02
9402:-2.4196870697745378e-02
9403:-2.2016048285050029e-02
9404:-2.9146869855909929e-02
9405:-2.6732594631676425e-02
9406:-2.3768374083463651e-02
9407:-2.1636392458114852e-02
9408:-2.1239441079938772e-02
9409:-1.9173994439470557e-02
9410:-1.6681276148644578e-02
9411:-1.4923007905298576e-02
9412:-2.1178437075977507e-02
9413:-1.9142997376348506e-02
9414:-1.6683061605638642e-02
9415:-1.4945056544453822e-02
9416:-2.0904805430939193e-02
9417:-1.8916299075427627e-02
9418:-1.6509210665268365e-02
9419:-1.4805298366429688e-02
9420:-2.0549259301947315e-02
9421:-1.8602648331020332e-02
9422:-1.6243718152432692e-02
9423:-1.4571739544815365e-02
9424:-1.4039095610180874e-02
9425:-1.2477097928182006e-02
9426:-1.0625179788975527e-02
9427:-9.3454779827875211e-03
9428:-1.4070243659558975e-02
9429:-1.2522489951718657e-02
9430:-1.0683723642043494e-02
9431:-9.4099836303955259e-03
9432:-1.3946411642664802e-02
9433:-1.2424808401282903e-02
9434:-1.0612993407349194e-02
9435:-9.3544752061056873e-03
9436:-1.3728128475922434e-02
9437:-1.2232285177031628e-02
9438:-1.0448503572870109e-02
9439:-9.2072423189810005e-03
9440:-8.7118505068084721e-03
9441:-7.6067043875651004e-03
9442:-6.3245324296342647e-03
9443:-5.4609624868426025e-03
9444:-8.7781142840439638e-03
9445:-7.6741197172253009e-03
9446:-6.3894438751656915e-03
9447:-5.5209806590252224e-03
9448:-8.7288463063572418e-03
9449:-7.6337591977771171e-03
9450:-6.3554944513566497e-03
9451:-5.4880869575922898e-03
9452:-8.5893540330089623e-03
9453:-7.5066268638052077e-03
9454:-6.2404737253324355e-03
9455:-5.3793835731346272e-03
9456:-5.0414623467412113e-03
9457:-4.3193923988362757e-03
9458:-3.4987574572089689e-03
9459:-2.9590061931742931e-03
9460:-5.0978879154922989e-03
9461:-4.3680056470204436e-03
9462:-3.5354205737680618e-03
9463:-2.9853400399365410e-03
9464:-5.0642864517444017e-03
9465:-4.3317803807974052e-03
9466:-3.4937097082541673e-03
9467:-2.9380904527954244e-03
9468:-4.9579775318560329e-03
9469:-4.2290210179100896e-03
9470:-3.3941199095611487e-03
9471:-2.8400105876611598e-03
9472:-2.7009547368335085e-03
9473:-2.2546949267847134e-03
9474:-1.7381985041970342e-03
9475:-1.3877256120244481e-03
9476:-2.7214840287641405e-03
9477:-2.2649734233927835e-03
9478:-1.7369250716673841e-03
9479:-1.3793005286936993e-03
9480:-2.6709731562531030e-03
9481:-2.2095032195332191e-03
9482:-1.6780751166435915e-03
9483:-1.3206690221074090e-03
9484:-2.5735069928953503e-03
9485:-2.1142841552996999e-03
9486:-1.5886186322581230e-03
9487:-1.2381677724304756e-03
9488:-1.2143015739816154e-03
9489:-8.8913064544486229e-04
9490:-4.5311018536380802e-04
9491:-1.0294100540490865e-04
9492:-1.2028390488470616e-03
9493:-8.7497422950319731e-04
9494:-4.4205550771078873e-04
9495:-9.9724697982256000e-05
9496:-1.1455700419521697e-03
9497:-8.2494713383467547e-04
9498:-4.1181208412589392e-04
9499:-9.3207240804702652e-05
9500:-1.0678908890059224e-03
9501:-7.6049278171017108e-04
9502:-3.7384666271222976e-04
9503:-8.3215410813923890e-05
9504:-2.4592739651654030e-03
9505:-1.1709392686563371e-02
9506:-2.3692093451106559e-02
9507:-3.2802998423945982e-02
9508:-2.3519083519402987e-03
9509:-1.1199184601621790e-02
9510:-2.2660023195537289e-02
9511:-3.1375117817809044e-02
9512:-2.2132922428006910e-03
9513:-1.0536088998643198e-02
9514:-2.1317914299234506e-02
9515:-2.9518101456345487e-02
9516:-2.1071955802800047e-03
9517:-1.0028237133073685e-02
9518:-2.0290055836527935e-02
9519:-2.8095827606081834e-02
9520:-3.7627114376589360e-02
9521:-4.6563930987404023e-02
9522:-5.7979116975886168e-02
9523:-6.6534400831252449e-02
9524:-3.5990273204888269e-02
9525:-4.4540922803991058e-02
9526:-5.5465276444613416e-02
9527:-6.3655214524290876e-02
9528:-3.3861366776024103e-02
9529:-4.1909074147949615e-02
9530:-5.2193239614761383e-02
9531:-5.9906013952512820e-02
9532:-3.2230733887782859e-02
9533:-3.9892663815617103e-02
9534:-4.9685111153341767e-02
9535:-5.7030922566303537e-02
9536:-7.1020131765644159e-02
9537:-7.9246236190301189e-02
9538:-8.9588279125872500e-02
9539:-9.7211143975083014e-02
9540:-6.7950450281837688e-02
9541:-7.5828917170031415e-02
9542:-8.5737803374833790e-02
9543:-9.3045053067521172e-02
9544:-6.3952228759138585e-02
9545:-7.1375638419548762e-02
9546:-8.0716272314103041e-02
9547:-8.7608496525948348e-02
9548:-6.0885469779416071e-02
9549:-6.7958193271088152e-02
9550:-7.6860023747812214e-02
9551:-8.3431078608131398e-02
9552:-1.0116217701147512e-01
9553:-1.0832534181593773e-01
9554:-1.1716831440459258e-01
9555:-1.2355844928414308e-01
9556:-9.6833971584376483e-02
9557:-1.0370561361017358e-01
9558:-1.1219401676197900e-01
9559:-1.1833279054505925e-01
9560:-9.1183881713010215e-02
9561:-9.7670794504310876e-02
9562:-1.0568964866643148e-01
9563:-1.1149413919343418e-01
9564:-8.6840966770599895e-02
9565:-9.3029136632378620e-02
9566:-1.0068215614790907e-01
9567:-1.0622512976923826e-01
9568:-1.2682417997440865e-01
9569:-1.3266073576530821e-01
9570:-1.3969852595908760e-01
9571:-1.4465084452208182e-01
9572:-1.2147201637613037e-01
9573:-1.2708580165500058e-01
9574:-1.3386178971777762e-01
9575:-1.3863563490965861e-01
9576:-1.1446455312927682e-01
9577:-1.1977980644582258e-01
9578:-1.2620248123364350e-01
9579:-1.3073353211678107e-01
9580:-1.0906304811017827e-01
9581:-1.1414311005976284e-01
9582:-1.2028572960940472e-01
9583:-1.2462301285917343e-01
9584:-1.4713264983074226e-01
9585:-1.5147856596662249e-01
9586:-1.5653809135193752e-01
9587:-1.5995081508878498e-01
9588:-1.4103020941833416e-01
9589:-1.4522715343045972e-01
9590:-1.5012123724995721e-01
9591:-1.5342939873277403e-01
9592:-1.3300872612362122e-01
9593:-1.3700052559384060e-01
9594:-1.4166403924344215e-01
9595:-1.4482395829371927e-01
9596:-1.2680245189267342e-01
9597:-1.3062878955061624e-01
9598:-1.3510434649540123e-01
9599:-1.3814162036261834e-01
9600:-1.6160525292307829e-01
9601:-1.6439907494410849e-01
9602:-1.6743918069750591e-01
9603:-1.6931038077324112e-01
9604:-1.5503598610235403e-01
9605:-1.5775417119777627e-01
9606:-1.6072295739527601e-01
9607:-1.6256021374670307e-01
9608:-1.4636161478215173e-01
9609:-1.4896856791778157e-01
9610:-1.5182731702253910e-01
9611:-1.5360685933611029e-01
9612:-1.3962148441929684e-01
9613:-1.4213367110772296e-01
9614:-1.4489533762007933e-01
9615:-1.4662066928289622e-01
9616:-1.7014673197643504e-01
9617:-1.7142326343358297e-01
9618:-1.7252242353394648e-01
9619:-1.7293697160334159e-01
9620:-1.6338569400143774e-01
9621:-1.6465434721376568e-01
9622:-1.6576714761781380e-01
9623:-1.6621006496562568e-01
9624:-1.5441088510252698e-01
9625:-1.5565561063494518e-01
9626:-1.5676847815422806e-01
9627:-1.5723492459469537e-01
9628:-1.4740288115303696e-01
9629:-1.4861920096335232e-01
9630:-1.4971906379517091e-01
9631:-1.5019363055958107e-01
9632:-1.7300894966180311e-01
9633:-1.7288292026530463e-01
9634:-1.7221690797699191e-01
9635:-1.7132869224758729e-01
9636:-1.6630332420143418e-01
9637:-1.6622751521951387e-01
9638:-1.6564649966492243e-01
9639:-1.6483792074590797e-01
9640:-1.5734882187702814e-01
9641:-1.5732542152159920e-01
9642:-1.5683871013477918e-01
9643:-1.5612169420395544e-01
9644:-1.5031811240845655e-01
9645:-1.5032527023739745e-01
9646:-1.4989871759904363e-01
9647:-1.4924289491093687e-01
9648:-1.7072471360140257e-01
9649:-1.6937131269262848e-01
9650:-1.6718585624991233e-01
9651:-1.6519588167259100e-01
9652:-1.6428132537589668e-01
9653:-1.6302479286816840e-01
9654:-1.6098045326720409e-01
9655:-1.5910934444532918e-01
9656:-1.5562047824492908e-01
9657:-1.5447861842123492e-01
9658:-1.5260392928420186e-01
9659:-1.5087749178907761e-01
9660:-1.4877944465576426e-01
9661:-1.4771699485674214e-01
9662:-1.4596191952240514e-01
9663:-1.4433891860937717e-01
9664:-1.6402727413072407e-01
9665:-1.6166065573406146e-01
9666:-1.5824419569223055e-01
9667:-1.5537976067560588e-01
9668:-1.5800764231860587e-01
9669:-1.5577197493837022e-01
9670:-1.5253625134881160e-01
9671:-1.4981746352695594e-01
9672:-1.4985779400721083e-01
9673:-1.4778369905413691e-01
9674:-1.4477289319211786e-01
9675:-1.4223665223760767e-01
9676:-1.4337831065343495e-01
9677:-1.4142146635937125e-01
9678:-1.3857534657432630e-01
9679:-1.3617374769144103e-01
9680:-1.5376953673998409e-01
9681:-1.5062184114514224e-01
9682:-1.4627914611803702e-01
9683:-1.4277505725173156e-01
9684:-1.4828719461242801e-01
9685:-1.4529281391029999e-01
9686:-1.4115581412792289e-01
9687:-1.3781318911703333e-01
9688:-1.4080700497094198e-01
9689:-1.3800629956916718e-01
9690:-1.3413054726006929e-01
9691:-1.3099403799510972e-01
9692:-1.3481862506711911e-01
9693:-1.3216193768504986e-01
9694:-1.2848155311132808e-01
9695:-1.2550000149847243e-01
9696:-1.4084859547160181e-01
9697:-1.3715341391858812e-01
9698:-1.3218517601296581e-01
9699:-1.2826844322732392e-01
9700:-1.3597392340792752e-01
9701:-1.3244361164466584e-01
9702:-1.2769236788815708e-01
9703:-1.2394302188104016e-01
9704:-1.2926644874399540e-01
9705:-1.2594803241301161e-01
9706:-1.2147703571255385e-01
9707:-1.1794481950553341e-01
9708:-1.2385665542391913e-01
9709:-1.2069862842014698e-01
9710:-1.1644075291597933e-01
9711:-1.1307434780263247e-01
9712:-1.2614532669826420e-01
9713:-1.2212314315535175e-01
9714:-1.1680912157142756e-01
9715:-1.1268812189780204e-01
9716:-1.2190934562474565e-01
9717:-1.1805475248871006e-01
9718:-1.1295836998808083e-01
9719:-1.0900300677141696e-01
9720:-1.1602747289845805e-01
9721:-1.1239140773396025e-01
9722:-1.0757988680683511e-01
9723:-1.0384213759782872e-01
9724:-1.1124606050326928e-01
9725:-1.0777771739885413e-01
9726:-1.0318565270626225e-01
9727:-9.9616177311659879e-02
9728:-1.1047719116082307e-01
9729:-1.0632688200749701e-01
9730:-1.0091576671405776e-01
9731:-9.6772825648795274e-02
9732:-1.0687979258302036e-01
9733:-1.0289255842841256e-01
9734:-9.7690855714536867e-02
9735:-9.3705583323370784e-02
9736:-1.0183445726647834e-01
9737:-9.8062583635478526e-02
9738:-9.3138501394764026e-02
9739:-8.9363019138381711e-02
9740:-9.7698056744515135e-02
9741:-9.4093540361681605e-02
9742:-8.9385963697516141e-02
9743:-8.5774636201823004e-02
9744:-9.4568274065888885e-02
9745:-9.0460528963809864e-02
9746:-8.5163206145549702e-02
9747:-8.1151070953415977e-02
9748:-9.1583959080875424e-02
9749:-8.7629456832694672e-02
9750:-8.2527103726201062e-02
9751:-7.8660342176756534e-02
9752:-8.7351992935978853e-02
9753:-8.3602312985914543e-02
9754:-7.8761420871237803e-02
9755:-7.5090277945189382e-02
9756:-8.3850332755129389e-02
9757:-8.0261591510333491e-02
9758:-7.5626789828066074e-02
9759:-7.2110336244802342e-02
9760:-7.9031171241480250e-02
9761:-7.5106551796740251e-02
9762:-7.0094076910381900e-02
9763:-6.6334541239340225e-02
9764:-7.6616393890030096e-02
9765:-7.2831274497868095e-02
9766:-6.7994678448560608e-02
9767:-6.4365080581741965e-02
9768:-7.3148771104700680e-02
9769:-6.9552248622190060e-02
9770:-6.4954272517605618e-02
9771:-6.1501591417825387e-02
9772:-7.0250014239903499e-02
9773:-6.6803272011651163e-02
9774:-6.2395401805873607e-02
9775:-5.9084111563105925e-02
9776:-6.4360937326334577e-02
9777:-6.0729004591124708e-02
9778:-5.6132544947368253e-02
9779:-5.2717320328578170e-02
9780:-6.2458947613544633e-02
9781:-5.8950228146831735e-02
9782:-5.4507705880469284e-02
9783:-5.1205093056936254e-02
9784:-5.9687539835687087e-02
9785:-5.6347345121988197e-02
9786:-5.2116093094384822e-02
9787:-4.8968600921999388e-02
9788:-5.7343803623851539e-02
9789:-5.4138840435137350e-02
9790:-5.0077646892251484e-02
9791:-4.7055428337756063e-02
9792:-5.0935816845651100e-02
9793:-4.7676765975280283e-02
9794:-4.3589832746556305e-02
9795:-4.0582237889250722e-02
9796:-4.9481657044421513e-02
9797:-4.6327937153796156e-02
9798:-4.2371218446625461e-02
9799:-3.9457806505705968e-02
9800:-4.7325358000018622e-02
9801:-4.4317471624575000e-02
9802:-4.0541755937542077e-02
9803:-3.7759821072095204e-02
9804:-4.5477097297960796e-02
9805:-4.2587515043180951e-02
9806:-3.8959138144945824e-02
9807:-3.6284618424084168e-02
9808:-3.9023676066199886e-02
9809:-3.6190142021488916e-02
9810:-3.2671343806884155e-02
9811:-3.0108750584393346e-02
9812:-3.7947422612516740e-02
9813:-3.5200597600274823e-02
9814:-3.1787626750787175e-02
9815:-2.9300478369179223e-02
9816:-3.6316894073910179e-02
9817:-3.3691823960257189e-02
9818:-3.0428151177764328e-02
9819:-2.8048004595269342e-02
9820:-3.4896943370502496e-02
9821:-3.2371844118448380e-02
9822:-2.9231247625737877e-02
9823:-2.6939705891465604e-02
9824:-2.8790426038777860e-02
9825:-2.6410109890782914e-02
9826:-2.3486416984406861e-02
9827:-2.1382587636722988e-02
9828:-2.8020339501795260e-02
9829:-2.5708036808966491e-02
9830:-2.2865939127759218e-02
9831:-2.0819142501409257e-02
9832:-2.6822236121220720e-02
9833:-2.4607154003421314e-02
9834:-2.1882460144479324e-02
9835:-1.9918358830589858e-02
9836:-2.5759107471327144e-02
9837:-2.3625054702468107e-02
9838:-2.0998735317246910e-02
9839:-1.9104353657011255e-02
9840:-2.0309429063891458e-02
9841:-1.8387243029511051e-02
9842:-1.6056682724066077e-02
9843:-1.4403769452358125e-02
9844:-1.9774429979273936e-02
9845:-1.7902205534371413e-02
9846:-1.5630179291816898e-02
9847:-1.4017032685377923e-02
9848:-1.8915133187842888e-02
9849:-1.7116203168527612e-02
9850:-1.4930928347971247e-02
9851:-1.3377465579098698e-02
9852:-1.8136266750871974e-02
9853:-1.6399698871178654e-02
9854:-1.4288813741334006e-02
9855:-1.2787014814376690e-02
9856:-1.3569380225055650e-02
9857:-1.2089275085849518e-02
9858:-1.0323019288481743e-02
9859:-9.0929088392126493e-03
9860:-1.3202049220596980e-02
9861:-1.1755370312951093e-02
9862:-1.0026987182513448e-02
9863:-8.8215512576346883e-03
9864:-1.2591900374085389e-02
9865:-1.1196414425701915e-02
9866:-9.5271206058980783e-03
9867:-8.3611323750653384e-03
9868:-1.2027102393307816e-02
9869:-1.0676583098160764e-02
9870:-9.0598654010028111e-03
9871:-7.9295547456115275e-03
9872:-8.4801775060031372e-03
9873:-7.4059619175049912e-03
9874:-6.1487557924815237e-03
9875:-5.2929306298423453e-03
9876:-8.2204709957885026e-03
9877:-7.1658932373145764e-03
9878:-5.9301838123686276e-03
9879:-5.0877876375750612e-03
9880:-7.7790630845712980e-03
9881:-6.7571529703180635e-03
9882:-5.5584782970413095e-03
9883:-4.7403308821286532e-03
9884:-7.3649067756233417e-03
9885:-6.3732812575305079e-03
9886:-5.2096319023641801e-03
9887:-4.4149992234925909e-03
9888:-4.8738094015005678e-03
9889:-4.1486453264622794e-03
9890:-3.3179360019337969e-03
9891:-2.7665711401346697e-03
9892:-4.6748249899882634e-03
9893:-3.9602691605313241e-03
9894:-3.1419557092111153e-03
9895:-2.5992011132342009e-03
9896:-4.3389319373594738e-03
9897:-3.6447574650964724e-03
9898:-2.8510147624655844e-03
9899:-2.3258419615156769e-03
9900:-4.0250330957247492e-03
9901:-3.3512057535293282e-03
9902:-2.5822871215799102e-03
9903:-2.0750609347158816e-03
9904:-2.5014392572194192e-03
9905:-2.0454333889973978e-03
9906:-1.5256092373834200e-03
9907:-1.1811033202266566e-03
9908:-2.3384887076274685e-03
9909:-1.8920478548404864e-03
9910:-1.3879489201251850e-03
9911:-1.0583913031665681e-03
9912:-2.0742565789159508e-03
9913:-1.6466557505938266e-03
9914:-1.1715344300698362e-03
9915:-8.6812473479755880e-04
9916:-1.8328164159645854e-03
9917:-1.4240347621404621e-03
9918:-9.7683214447427799e-04
9919:-6.9786265912251410e-04
9920:-1.0146388860169308e-03
9921:-7.1682566349566838e-04
9922:-3.4806791865684772e-04
9923:-7.5623519284225623e-05
9924:-9.0116798412827304e-04
9925:-6.2557588053601494e-04
9926:-2.9661143078864234e-04
9927:-6.3636549727756031e-05
9928:-7.2658306989339190e-04
9929:-4.8725181013762941e-04
9930:-2.2073115837366431e-04
9931:-4.8177075688095903e-05
9932:-5.7070997065665680e-04
9933:-3.6383907769328065e-04
9934:-1.5178629046990464e-04
9935:-3.1048089098381408e-05
9936:-2.0503787531573952e-03
9937:-9.7570761346553354e-03
9938:-1.9741427671613559e-02
9939:-2.7336665152501338e-02
9940:-1.9424051032131515e-03
9941:-9.2435424665721685e-03
9942:-1.8702526251743942e-02
9943:-2.5898914436866195e-02
9944:-1.7987742224263208e-03
9945:-8.5624132786874824e-03
9946:-1.7324457392680268e-02
9947:-2.3991410265800508e-02
9948:-1.6866112980521790e-03
9949:-8.0307200256672009e-03
9950:-1.6248407382394872e-02
9951:-2.2501673233646838e-02
9952:-3.1360305403056052e-02
9953:-3.8816109585158930e-02
9954:-4.8345611525744646e-02
9955:-5.5495041154937870e-02
9956:-2.9711708747016539e-02
9957:-3.6776791628883469e-02
9958:-4.5807615195621598e-02
9959:-5.2584396216379524e-02
9960:-2.7524254248068321e-02
9961:-3.4070352076317242e-02
9962:-4.2438330108575291e-02
9963:-4.8719388810190181e-02
9964:-2.5815745066961673e-02
9965:-3.1956123599953055e-02
9966:-3.9805568345236728e-02
9967:-4.5698530340479521e-02
9968:-5.9246965184628068e-02
9969:-6.6131780298548243e-02
9970:-7.4798196415624921e-02
9971:-8.1196721659678200e-02
9972:-5.6141500829212675e-02
9973:-6.2669336567776110e-02
9974:-7.0888006585376667e-02
9975:-7.6957989050502815e-02
9976:-5.2017168436926421e-02
9977:-5.8069353085400913e-02
9978:-6.5690471833893593e-02
9979:-7.1321246196220628e-02
9980:-4.8793163412307189e-02
9981:-5.4472401056025799e-02
9982:-6.1624312850517261e-02
9983:-6.6909686840018953e-02
9984:-8.4517622797757916e-02
9985:-9.0544964145100285e-02
9986:-9.8000610413602127e-02
9987:-1.0340212521157881e-01
9988:-8.0109286366615753e-02
9989:-8.5829752412654642e-02
9990:-9.2908106705831175e-02
9991:-9.8038683288396641e-02
9992:-7.4245535449654454e-02
9993:-7.9554627886029336e-02
9994:-8.6125976774886953e-02
9995:-9.0891527777826817e-02
9996:-6.9655258176771040e-02
9997:-7.4640043592917454e-02
9998:-8.0810834030165091e-02
9999:-8.5287348713454850e-02
10000:-1.0616822954948450e-01
10001:-1.1112053658170064e-01
10002:-1.1711049683056905e-01
10003:-1.2134174589339201e-01
10004:-1.0066704924295636e-01
10005:-1.0537396280692403e-01
10006:-1.1106993503997400e-01
10007:-1.1509633825183706e-01
10008:-9.3333988416966621e-02
10009:-9.7709043517331354e-02
10010:-1.0300604984768602e-01
10011:-1.0675325662086931e-01
10012:-8.7582373387071547e-02
10013:-9.1693771573754607e-02
10014:-9.6672798006156468e-02
10015:-1.0019661239699099e-01
10016:-1.2346863509316570e-01
10017:-1.2720386104153011e-01
10018:-1.3157525459318792e-01
10019:-1.3454396667430477e-01
10020:-1.1712144798929164e-01
10021:-1.2067965917035614e-01
10022:-1.2484754942699669e-01
10023:-1.2768135785480941e-01
10024:-1.0863916107378567e-01
10025:-1.1195427837853363e-01
10026:-1.1584068584274811e-01
10027:-1.1848622235480208e-01
10028:-1.0197078819100484e-01
10029:-1.0509012053653584e-01
10030:-1.0874846971821477e-01
10031:-1.1124035155924397e-01
10032:-1.3599127705633102e-01
10033:-1.3844962185147297e-01
10034:-1.4115513102949415e-01
10035:-1.4284815176674906e-01
10036:-1.2906423713415630e-01
10037:-1.3141534020721984e-01
10038:-1.3400752766093255e-01
10039:-1.3563395417819896e-01
10040:-1.1977852593294767e-01
10041:-1.2197767480251154e-01
10042:-1.2440670075746764e-01
10043:-1.2593481253152888e-01
10044:-1.1245829994456190e-01
10045:-1.1453188832349651e-01
10046:-1.1682432576772503e-01
10047:-1.1826850332625911e-01
10048:-1.4361690941607422e-01
10049:-1.4481467128846695e-01
10050:-1.4590318210462894e-01
10051:-1.4637872972259663e-01
10052:-1.3637433439354199e-01
10053:-1.3753151272457803e-01
10054:-1.3859144518994262e-01
10055:-1.3906344622443381e-01
10056:-1.2663219134483444e-01
10057:-1.2772548672868378e-01
10058:-1.2873444862752784e-01
10059:-1.2919179028220898e-01
10060:-1.1892844755979985e-01
10061:-1.1996463369436274e-01
10062:-1.2092442131312224e-01
10063:-1.2136318754180467e-01
10064:-1.4650708946032931e-01
10065:-1.4652730491644606e-01
10066:-1.4612876199770375e-01
10067:-1.4550256451201043e-01
10068:-1.3919628534041378e-01
10069:-1.3923596496414264e-01
10070:-1.3888383923246825e-01
10071:-1.3830885715838159e-01
10072:-1.2932529909487425e-01
10073:-1.2938110818443591e-01
10074:-1.2907835751112029e-01
10075:-1.2856232155572328e-01
10076:-1.2149344921314978e-01
10077:-1.2155492241744691e-01
10078:-1.2128199834920597e-01
10079:-1.2080555552900198e-01
10080:-1.4505769145030928e-01
10081:-1.4403476843267976e-01
10082:-1.4234003730995007e-01
10083:-1.4076975086986449e-01
10084:-1.3789663367143337e-01
10085:-1.3694401956607671e-01
10086:-1.3535803658865284e-01
10087:-1.3388363554437094e-01
10088:-1.2818875494597085e-01
10089:-1.2732105744277752e-01
10090:-1.2586918011350640e-01
10091:-1.2451473180964752e-01
10092:-1.2045884409557434e-01
10093:-1.1965147725989286e-01
10094:-1.1829704729715979e-01
10095:-1.1703107624017131e-01
10096:-1.3983942385189646e-01
10097:-1.3794295766221318e-01
10098:-1.3518215729671515e-01
10099:-1.3285065421278117e-01
10100:-1.3300865515839719e-01
10101:-1.3122301518178769e-01
10102:-1.2861966890969292e-01
10103:-1.2641810773576470e-01
10104:-1.2370949793733731e-01
10105:-1.2206441545061811e-01
10106:-1.1966238711412559e-01
10107:-1.1762808521573315e-01
10108:-1.1627767269865304e-01
10109:-1.1473772443234984e-01
10110:-1.1248750894264291e-01
10111:-1.1058017896968995e-01
10112:-1.3153443711386878e-01
10113:-1.2895314153993584e-01
10114:-1.2537542679874025e-01
10115:-1.2247560057486422e-01
10116:-1.2517420347898894e-01
10117:-1.2273341579962334e-01
10118:-1.1934773926344729e-01
10119:-1.1660125219946574e-01
10120:-1.1647762705073757e-01
10121:-1.1421912478145113e-01
10122:-1.1108387741292350e-01
10123:-1.0853823166272515e-01
10124:-1.0950093270444348e-01
10125:-1.0738186441660835e-01
10126:-1.0443911035691673e-01
10127:-1.0204847283082580e-01
10128:-1.2087678496217893e-01
10129:-1.1780372275715077e-01
10130:-1.1365907915383786e-01
10131:-1.1038099971959887e-01
10132:-1.1508614177798393e-01
10133:-1.1217307144215391e-01
10134:-1.0824217619257426e-01
10135:-1.0513121315597973e-01
10136:-1.0713303804641712e-01
10137:-1.0443058559530394e-01
10138:-1.0078207098104061e-01
10139:-9.7892611027785389e-02
10140:-1.0072831373270810e-01
10141:-9.8189188962031076e-02
10142:-9.4760389073224205e-02
10143:-9.2043813909553407e-02
10144:-1.0860022827617731e-01
10145:-1.0522151846732510e-01
10146:-1.0074702373393070e-01
10147:-9.7267916022856254e-02
10148:-1.0344047585324558e-01
10149:-1.0023187457450279e-01
10150:-9.5981009569196599e-02
10151:-9.2674146688880132e-02
10152:-9.6321459464032894e-02
10153:-9.3339300608638570e-02
10154:-8.9387046021366601e-02
10155:-8.6310827443462815e-02
10156:-9.0566184300797048e-02
10157:-8.7761469727163963e-02
10158:-8.4043862157752128e-02
10159:-8.1149337095715923e-02
10160:-9.5397967764891983e-02
10161:-9.1883606180838046e-02
10162:-8.7292912324807168e-02
10163:-8.3770385126949287e-02
10164:-9.0896135076273130e-02
10165:-8.7554042321853223e-02
10166:-8.3187086692049675e-02
10167:-7.9834837663388780e-02
10168:-8.4656136317001265e-02
10169:-8.1545504920293096e-02
10170:-7.7479905409652230e-02
10171:-7.4357560402390721e-02
10172:-7.9591942475074853e-02
10173:-7.6664207853217994e-02
10174:-7.2837273414297993e-02
10175:-6.9897408331101127e-02
10176:-8.1893054936565887e-02
10177:-7.8391599925653005e-02
10178:-7.3868795161893347e-02
10179:-7.0436574962327789e-02
10180:-7.8047684005271512e-02
10181:-7.4713996831525326e-02
10182:-7.0406834469072643e-02
10183:-6.7137077601426023e-02
10184:-7.2692354250791652e-02
10185:-6.9585911550238716e-02
10186:-6.5571531819790710e-02
10187:-6.2522856653174308e-02
10188:-6.8329135148134768e-02
10189:-6.5403582040642907e-02
10190:-6.1622743032266544e-02
10191:-5.8750763627686671e-02
10192:-6.8620520637113325e-02
10193:-6.5255553053320467e-02
10194:-6.0951668995589341e-02
10195:-5.7717862536738447e-02
10196:-6.5406497884441403e-02
10197:-6.2199586025905383e-02
10198:-5.8096997755988714e-02
10199:-5.5013420471282000e-02
10200:-6.0908760895232630e-02
10201:-5.7917540067940358e-02
10202:-5.4090220632742651e-02
10203:-5.1212517058532692e-02
10204:-5.7229882946381316e-02
10205:-5.4411476696211852e-02
10206:-5.0805114619764821e-02
10207:-4.8092978144786601e-02
10208:-5.6018016728703240e-02
10209:-5.2887343065716588e-02
10210:-4.8919747606742697e-02
10211:-4.5966615471480676e-02
10212:-5.3392108684971587e-02
10213:-5.0405779622642109e-02
10214:-4.6620342698467737e-02
10215:-4.3801891598967926e-02
10216:-4.9698984023842235e-02
10217:-4.6911031910013896e-02
10218:-4.3376479815466967e-02
10219:-4.0743931986597662e-02
10220:-4.6666233683577460e-02
10221:-4.4038219697327796e-02
10222:-4.0706312900834804e-02
10223:-3.8224205492116789e-02
10224:-4.4424131650761527e-02
10225:-4.1599966545049605e-02
10226:-3.8053224908805708e-02
10227:-3.5438346513799839e-02
10228:-4.2329370102944318e-02
10229:-3.9633012608854767e-02
10230:-3.6246029261708140e-02
10231:-3.3748077815766470e-02
10232:-3.9368124324758828e-02
10233:-3.6848688566223892e-02
10234:-3.3683339457497810e-02
10235:-3.1347986783095236e-02
10236:-3.6926761348254691e-02
10237:-3.4550850126317117e-02
10238:-3.1565638061962858e-02
10239:-2.9362710597716404e-02
10240:-3.4081394967172045e-02
10241:-3.1611965601288768e-02
10242:-2.8540065112372340e-02
10243:-2.6298107304124130e-02
10244:-3.2451436789250054e-02
10245:-3.0091424301012977e-02
10246:-2.7154814270077775e-02
10247:-2.5010724508932655e-02
10248:-3.0135354629928723e-02
10249:-2.7928000184407432e-02
10250:-2.5180636784685097e-02
10251:-2.3173837484081843e-02
10252:-2.8218596405734833e-02
10253:-2.6135920733784075e-02
10254:-2.3543455260059486e-02
10255:-2.1649295690657620e-02
10256:-2.5142833954382014e-02
10257:-2.3054293710079155e-02
10258:-2.0483394724385050e-02
10259:-1.8628425181863941e-02
10260:-2.3905517295079493e-02
10261:-2.1907089263858329e-02
10262:-1.9446195510220619e-02
10263:-1.7669682774177801e-02
10264:-2.2139007054720529e-02
10265:-2.0267491879041033e-02
10266:-1.7962020901663288e-02
10267:-1.6296761797779488e-02
10268:-2.0672303684661383e-02
10269:-1.8905256337615042e-02
10270:-1.6728054904772926e-02
10271:-1.5154886061265411e-02
10272:-1.7680252535403347e-02
10273:-1.5979114666974201e-02
10274:-1.3910670295398938e-02
10275:-1.2438494405422667e-02
10276:-1.6761238461097037e-02
10277:-1.5130928786286166e-02
10278:-1.3147625983368175e-02
10279:-1.1735126680395464e-02
10280:-1.5444805320683635e-02
10281:-1.3915461008618141e-02
10282:-1.2054051713904787e-02
10283:-1.0727425617625574e-02
10284:-1.4349789699014985e-02
10285:-1.2904373648578221e-02
10286:-1.1144636122652271e-02
10287:-9.8899247710095544e-03
10288:-1.1693347413980868e-02
10289:-1.0368806974247384e-02
10290:-8.7826618369572437e-03
10291:-7.6732644538334855e-03
10292:-1.1019820315278327e-02
10293:-9.7479397289048694e-03
10294:-8.2240815106126800e-03
10295:-7.1575538544990918e-03
10296:-1.0055225022158514e-02
10297:-8.8596755936341497e-03
10298:-7.4266239830040725e-03
10299:-6.4230241956501214e-03
10300:-9.2539313183814809e-03
10301:-8.1226576781082555e-03
10302:-6.7663856855517835e-03
10303:-5.8162500170957001e-03
10304:-7.1188927292858686e-03
10305:-6.1452239596156040e-03
10306:-5.0025233625573609e-03
10307:-4.2221039845786448e-03
10308:-6.6243459762439418e-03
10309:-5.6877940775428050e-03
10310:-4.5886640950863200e-03
10311:-3.8380350048860838e-03
10312:-5.9210424471157147e-03
10313:-5.0394681295202904e-03
10314:-4.0053003994543063e-03
10315:-3.2994487513953899e-03
10316:-5.3408929378374586e-03
10317:-4.5063168342305299e-03
10318:-3.5279244579005304e-03
10319:-2.8607221894236677e-03
10320:-3.8391026733974568e-03
10321:-3.1777103912681301e-03
10322:-2.4240134384773044e-03
10323:-1.9278170057226412e-03
10324:-3.4697157590119721e-03
10325:-2.8345794677825616e-03
10326:-2.1130347122098997e-03
10327:-1.6401004400624203e-03
10328:-2.9533279299186997e-03
10329:-2.3579000772720269e-03
10330:-1.6848652601683224e-03
10331:-1.2468530871989068e-03
10332:-2.5338321167734539e-03
10333:-1.9727541663982417e-03
10334:-1.3414859584680910e-03
10335:-9.3332922203595038e-04
10336:-1.6913109745200835e-03
10337:-1.2939559899206130e-03
10338:-8.6340853287011996e-04
10339:-5.9879889677525680e-04
10340:-1.4156587922908607e-03
10341:-1.0420357098537803e-03
10342:-6.4545728121083305e-04
10343:-4.0967523817943670e-04
10344:-1.0404125068671417e-03
10345:-7.0158958025382954e-04
10346:-3.5354377375964820e-04
10347:-1.5800890402910820e-04
10348:-7.4216764984675406e-04
10349:-4.3238361224208434e-04
10350:-1.2380013052485899e-04
10351:3.9771251621844402e-05
10352:-4.8002130287450522e-04
10353:-2.9180995121424346e-04
10354:-1.1065510044106743e-04
10355:-1.9056604830454928e-05
10356:-3.0755135898811287e-04
10357:-1.5607806323567620e-04
10358:-3.5185819141109295e-05
10359:-1.2705162986240934e-07
10360:-7.8821645636871273e-05
10361:2.2604222188620552e-05
10362:6.2183434777090318e-05
10363:2.1295374919937647e-05
10364:1.0099033140882173e-04
10365:1.6350807704221666e-04
10366:1.4021726860343175e-04
10367:4.0696446339352879e-05
10368:-1.6260616363154075e-03
10369:-7.7433828587337638e-03
10370:-1.5666719443552510e-02
10371:-2.1696264984304648e-02
10372:-1.5099931168074481e-03
10373:-7.1919214933353444e-03
10374:-1.4550213273844217e-02
10375:-2.0150320523280713e-02
10376:-1.3531388621358478e-03
10377:-6.4459583384923139e-03
10378:-1.3039823474642978e-02
10379:-1.8058978334467957e-02
10380:-1.2283776517234173e-03
10381:-5.8525694486936319e-03
10382:-1.1838384028498919e-02
10383:-1.6395409156058308e-02
10384:-2.4892024598379841e-02
10385:-3.0812937716450030e-02
10386:-3.8381769756323209e-02
10387:-4.4064603204149295e-02
10388:-2.3118970774196730e-02
10389:-2.8618479454840483e-02
10390:-3.5648259180068594e-02
10391:-4.0927283738964593e-02
10392:-2.0720367241405944e-02
10393:-2.5649523913836732e-02
10394:-3.1949308046578515e-02
10395:-3.6681226789993991e-02
10396:-1.8812353054741947e-02
10397:-2.3287612212021001e-02
10398:-2.9006187358438122e-02
10399:-3.3302348098382582e-02
10400:-4.7049204356488794e-02
10401:-5.2526331217059179e-02
10402:-5.9423748504342379e-02
10403:-6.4521611582861543e-02
10404:-4.3700383407680031e-02
10405:-4.8788876370937262e-02
10406:-5.5196654352074492e-02
10407:-5.9933543182357232e-02
10408:-3.9167689480200489e-02
10409:-4.3729244791131938e-02
10410:-4.9472651358327423e-02
10411:-5.3719385980091544e-02
10412:-3.5560460141417033e-02
10413:-3.9702062982999137e-02
10414:-4.4915654351853351e-02
10415:-4.8771255925892751e-02
10416:-6.7170098438741235e-02
10417:-7.1978571202412231e-02
10418:-7.7931322084145035e-02
10419:-8.2250298058994878e-02
10420:-6.2395057933342206e-02
10421:-6.6863787183761403e-02
10422:-7.2396005125193591e-02
10423:-7.6410830640145616e-02
10424:-5.5926885774398513e-02
10425:-5.9933724129537701e-02
10426:-6.4893547002136773e-02
10427:-6.8493851370337880e-02
10428:-5.0775965872569939e-02
10429:-5.4413840534977512e-02
10430:-5.8915978201543477e-02
10431:-6.2184471483182374e-02
10432:-8.4464889587918812e-02
10433:-8.8432295218934615e-02
10434:-9.3237329092009838e-02
10435:-9.6638622917614242e-02
10436:-7.8470019687684883e-02
10437:-8.2158974017537773e-02
10438:-8.6627052689391859e-02
10439:-8.9790688478324540e-02
10440:-7.0341042053619060e-02
10441:-7.3649706014248306e-02
10442:-7.7656755642770067e-02
10443:-8.0494579157717697e-02
10444:-6.3861827504579957e-02
10445:-6.6865553306642275e-02
10446:-7.0502378720173106e-02
10447:-7.3078147598461762e-02
10448:-9.8351408661851381e-02
10449:-1.0136295916141262e-01
10450:-1.0489534755652191e-01
10451:-1.0730202574848248e-01
10452:-9.1384253592372788e-02
10453:-9.4186247454762853e-02
10454:-9.7473231731746213e-02
10455:-9.9713479175389266e-02
10456:-8.1924470032680469e-02
10457:-8.4438360087009445e-02
10458:-8.7387096031493736e-02
10459:-8.9397201724432926e-02
10460:-7.4376244956634002e-02
10461:-7.6657872264153479e-02
10462:-7.9333337377680779e-02
10463:-8.1157007738002121e-02
10464:-1.0847861248524951e-01
10465:-1.1048209926832460e-01
10466:-1.1269772733650783e-01
10467:-1.1409420398217610e-01
10468:-1.0080909931919679e-01
10469:-1.0267501460057200e-01
10470:-1.0473917454881032e-01
10471:-1.0604093097520897e-01
10472:-9.0380560846079150e-02
10473:-9.2055153628276959e-02
10474:-9.3907450474296300e-02
10475:-9.5075644760239553e-02
10476:-8.2049224093246900e-02
10477:-8.3568115323004039e-02
10478:-8.5247225422555986e-02
10479:-8.6305566063988925e-02
10480:-1.1473265639103736e-01
10481:-1.1573562156460740e-01
10482:-1.1666578767180215e-01
10483:-1.1709220755407163e-01
10484:-1.0663642987004376e-01
10485:-1.0757247226409199e-01
10486:-1.0844174274707311e-01
10487:-1.0884142850430785e-01
10488:-9.5610125401403318e-02
10489:-9.6450240214982538e-02
10490:-9.7230240514624908e-02
10491:-9.7588587080086137e-02
10492:-8.6789579333043765e-02
10493:-8.7549812084103465e-02
10494:-8.8254233886603931e-02
10495:-8.8576267510224099e-02
10496:-1.1721949695498961e-01
10497:-1.1728179566233170e-01
10498:-1.1702217951648518e-01
10499:-1.1656506434312251e-01
10500:-1.0896141780156449e-01
10501:-1.0902239228554013e-01
10502:-1.0878469283136900e-01
10503:-1.0836201908628651e-01
10504:-9.7695985378268263e-02
10505:-9.7750231237532140e-02
10506:-9.7536053141072512e-02
10507:-9.7155503672203478e-02
10508:-8.8671850707661731e-02
10509:-8.8717481312005450e-02
10510:-8.8517983838960021e-02
10511:-8.8168020366531624e-02
10512:-1.1623179629532093e-01
10513:-1.1545511615216875e-01
10514:-1.1415102221255478e-01
10515:-1.1293121004305794e-01
10516:-1.0805318389056164e-01
10517:-1.0733296716947253e-01
10518:-1.0612257711320534e-01
10519:-1.0498932969617152e-01
10520:-9.6877422586436196e-02
10521:-9.6229518862293806e-02
10522:-9.5141064038857928e-02
10523:-9.4121581858440495e-02
10524:-8.7912905619534035e-02
10525:-8.7319883661675854e-02
10526:-8.6325316368038321e-02
10527:-8.5394201183765783e-02
10528:-1.1220497858889915e-01
10529:-1.1072038205121650e-01
10530:-1.0855051518288492e-01
10531:-1.0671067200741757e-01
10532:-1.0431424028437745e-01
10533:-1.0293416478601854e-01
10534:-1.0091661249665838e-01
10535:-9.9205083232851307e-02
10536:-9.3514027241074354e-02
10537:-9.2272571434288214e-02
10538:-9.0458051620791360e-02
10539:-8.8918216014426871e-02
10540:-8.4839324257177232e-02
10541:-8.3706396452788587e-02
10542:-8.2051525902859787e-02
10543:-8.0647133910427729e-02
10544:-1.0566936745522726e-01
10545:-1.0362476065985163e-01
10546:-1.0078510848851258e-01
10547:-9.8477700391575718e-02
10548:-9.8236035220070655e-02
10549:-9.6333458807080385e-02
10550:-9.3690876717369961e-02
10551:-9.1542835591813518e-02
10552:-8.8046051895760258e-02
10553:-8.6334304184930127e-02
10554:-8.3957214047329712e-02
10555:-8.2024362786713489e-02
10556:-7.9851531040816867e-02
10557:-7.8290847509360759e-02
10558:-7.6124411354355812e-02
10559:-7.4362636322131540e-02
10560:-9.7203264781986556e-02
10561:-9.4752092360991705e-02
10562:-9.1441856421516476e-02
10563:-8.8818753563978323e-02
10564:-9.0356043383051338e-02
10565:-8.8073653746141733e-02
10566:-8.4991298905762014e-02
10567:-8.2548091078695221e-02
10568:-8.0956075647747441e-02
10569:-7.8902238935933691e-02
10570:-7.6129070065185447e-02
10571:-7.3930347420747625e-02
10572:-7.3388670929384392e-02
10573:-7.1516969402014144e-02
10574:-6.8990591135544330e-02
10575:-6.6987280109657696e-02
10576:-8.7391748631034591e-02
10577:-8.4683200671414854e-02
10578:-8.1092968136292382e-02
10579:-7.8297217108062159e-02
10580:-8.1218594384245918e-02
10581:-7.8695418061736591e-02
10582:-7.5350985615399671e-02
10583:-7.2746036280542284e-02
10584:-7.2733497211653050e-02
10585:-7.0462742050738880e-02
10586:-6.7453484294460506e-02
10587:-6.5109050616264888e-02
10588:-6.5896534893461103e-02
10589:-6.3827860818307283e-02
10590:-6.1087250763051645e-02
10591:-5.8951852944198108e-02
10592:-7.6792763115156232e-02
10593:-7.3964637980063253e-02
10594:-7.0267863267526556e-02
10595:-6.7427648619003536e-02
10596:-7.1343913576431939e-02
10597:-6.8708462726367325e-02
10598:-6.5263704993308289e-02
10599:-6.2616610268217132e-02
10600:-6.3846763412677185e-02
10601:-6.1474832130709700e-02
10602:-5.8375178858577834e-02
10603:-5.5992829667904941e-02
10604:-5.7801846526149683e-02
10605:-5.5641658509787112e-02
10606:-5.2819576720571720e-02
10607:-5.0650353394334074e-02
10608:-6.5912355307129439e-02
10609:-6.3085751337697379e-02
10610:-5.9432813992958564e-02
10611:-5.6657713605133879e-02
10612:-6.1204048144484630e-02
10613:-5.8569413666752390e-02
10614:-5.5164808144088189e-02
10615:-5.2577949366111466e-02
10616:-5.4721195489827075e-02
10617:-5.2350078043986045e-02
10618:-4.9286685392425499e-02
10619:-4.6958719217154270e-02
10620:-4.9492230067101288e-02
10621:-4.7333476610993110e-02
10622:-4.4545280015858189e-02
10623:-4.2426280361211939e-02
10624:-5.5187977894072059e-02
10625:-5.2464459115899927e-02
10626:-4.8979550733088600e-02
10627:-4.6358522729474119e-02
10628:-5.1207641117358607e-02
10629:-4.8668680989712602e-02
10630:-4.5420182342127427e-02
10631:-4.2976629300134857e-02
10632:-4.5725241249632870e-02
10633:-4.3440426361031945e-02
10634:-4.0517773133131811e-02
10635:-3.8319054078269098e-02
10636:-4.1303302765741026e-02
10637:-3.9223830901442554e-02
10638:-3.6564643600504640e-02
10639:-3.4564026732624667e-02
10640:-4.4979572101573377e-02
10641:-4.2439696274742283e-02
10642:-3.9219579564279135e-02
10643:-3.6820551589937411e-02
10644:-4.1690823928937630e-02
10645:-3.9322795494879575e-02
10646:-3.6320789361653560e-02
10647:-3.4083971807004648e-02
10648:-3.7161820639072418e-02
10649:-3.5031125550880574e-02
10650:-3.2330595339598853e-02
10651:-3.0318186043273136e-02
10652:-3.3510871563443213e-02
10653:-3.1572379061468966e-02
10654:-2.9116161780710390e-02
10655:-2.7285741967822453e-02
10656:-3.5566414014345772e-02
10657:-3.3269874572781494e-02
10658:-3.0384390540521829e-02
10659:-2.8254863030584776e-02
10660:-3.2914431424745150e-02
10661:-3.0773016017541191e-02
10662:-2.8082589233829135e-02
10663:-2.6096741907419823e-02
10664:-2.9265753102853221e-02
10665:-2.7339201709777713e-02
10666:-2.4919200937221567e-02
10667:-2.3132748431557878e-02
10668:-2.6328328115769441e-02
10669:-2.4576195457516496e-02
10670:-2.2375877120784204e-02
10671:-2.0751531208570925e-02
10672:-2.7148758018232421e-02
10673:-2.5135299128513044e-02
10674:-2.2628932318631917e-02
10675:-2.0797466520292705e-02
10676:-2.5065082357478757e-02
10677:-2.3187263445620648e-02
10678:-2.0849764035177801e-02
10679:-1.9141381873342467e-02
10680:-2.2204473431119344e-02
10681:-2.0515141721604360e-02
10682:-1.8412551330975486e-02
10683:-1.6875597940425847e-02
10684:-1.9907353081537762e-02
10685:-1.8371422868991311e-02
10686:-1.6460179062150720e-02
10687:-1.5063002688558796e-02
10688:-1.9852697295755083e-02
10689:-1.8143902465013094e-02
10690:-1.6038329650245098e-02
10691:-1.4516671091951414e-02
10692:-1.8259919664797598e-02
10693:-1.6665647529457185e-02
10694:-1.4701048690432584e-02
10695:-1.3280896629876618e-02
10696:-1.6082387837544235e-02
10697:-1.4647894115715755e-02
10698:-1.2880241783515163e-02
10699:-1.1602118031172790e-02
10700:-1.4341802833214550e-02
10701:-1.3037766511351162e-02
10702:-1.1431090489298183e-02
10703:-1.0269197823558635e-02
10704:-1.3737817446040532e-02
10705:-1.2339455452814552e-02
10706:-1.0636825413923356e-02
10707:-9.4225947709864304e-03
10708:-1.2553805058836897e-02
10709:-1.1248330017486954e-02
10710:-9.6585849381624206e-03
10711:-8.5244985103980538e-03
10712:-1.0947534407185055e-02
10713:-9.7722993995832865e-03
10714:-8.3410826938441641e-03
10715:-7.3197506252430057e-03
10716:-9.6740054585789121e-03
10717:-8.6055261400826751e-03
10718:-7.3044029329363269e-03
10719:-6.3757246081452825e-03
10720:-8.8070147660946341e-03
10721:-7.7120244095096177e-03
10722:-6.3991806411714675e-03
10723:-5.4793557603656715e-03
10724:-7.9493795459539933e-03
10725:-6.9263617362578817e-03
10726:-5.6997732040210119e-03
10727:-4.8402425581874639e-03
10728:-6.8016310977399965e-03
10729:-5.8800902013258034e-03
10730:-4.7752827332721006e-03
10731:-4.0010204974385679e-03
10732:-5.9044883358895881e-03
10733:-5.0664611849272822e-03
10734:-4.0619670605412835e-03
10735:-3.3580181770987054e-03
10736:-5.0191188753936338e-03
10737:-4.2112644053421949e-03
10738:-3.2646444008672935e-03
10739:-2.6195087413888605e-03
10740:-4.4101166574098830e-03
10741:-3.6555015711753295e-03
10742:-2.7722074268239287e-03
10743:-2.1710545883487607e-03
10744:-3.6135276908966134e-03
10745:-2.9342894067958991e-03
10746:-2.1405863440425179e-03
10747:-1.6015666965179351e-03
10748:-3.0057061775722563e-03
10749:-2.3886255186378936e-03
10750:-1.6686652383183661e-03
10751:-1.1806478041290634e-03
10752:-2.3036140892110000e-03
10753:-1.7621407311835472e-03
10754:-1.1546101697289337e-03
10755:-7.6332715065302863e-04
10756:-1.8770653272585697e-03
10757:-1.3745302414391080e-03
10758:-8.1392265679550971e-04
10759:-4.5584722803194489e-04
10760:-1.3384684624212857e-03
10761:-8.9061772704156347e-04
10762:-3.9550463578487280e-04
10763:-8.3529677308202802e-05
10764:-9.4284213906699864e-04
10765:-5.3960520501348586e-04
10766:-9.7652320759430159e-05
10767:1.7706954618638775e-04
10768:-5.8075620640669760e-04
10769:-2.8711287337924605e-04
10770:-7.0719368219446488e-08
10771:1.4635014361042662e-04
10772:-2.9012667623614643e-04
10773:-2.7816985494317688e-05
10774:2.1821512020333051e-04
10775:3.3269885707240678e-04
10776:5.8896060921777185e-05
10777:2.7859922907277429e-04
10778:4.7063394941851151e-04
10779:5.4464001904560222e-04
10780:3.0074140315172190e-04
10781:4.8675899373982839e-04
10782:6.3762406155313612e-04
10783:6.8213556414306121e-04
10784:1.9802537580012166e-04
10785:2.3996088907078393e-04
10786:1.8348266783068461e-04
10787:5.3004211269485992e-05
10788:3.6687276292988259e-04
10789:3.7147588707275869e-04
10790:2.5538868656210475e-04
10791:6.9575963509695230e-05
10792:5.5726819182993158e-04
10793:5.1742146399536091e-04
10794:3.3276979156632303e-04
10795:8.4547860888041086e-05
10796:6.7965364065097249e-04
10797:6.1048255715022469e-04
10798:3.8375212980840633e-04
10799:9.8951412200587894e-05
10800:-1.1601032020177866e-03
10801:-5.5279660401420126e-03
10802:-1.1181186379675663e-02
10803:-1.5485416436754969e-02
10804:-1.0273676893873167e-03
10805:-4.8971428146016623e-03
10806:-9.9039691174484558e-03
10807:-1.3716858422177387e-02
10808:-8.4455363225009576e-04
10809:-4.0286684075435666e-03
10810:-8.1454810250382002e-03
10811:-1.1281802164801256e-02
10812:-6.9674486213917148e-04
10813:-3.3266293446333802e-03
10814:-6.7239173831938753e-03
10815:-9.3132590449799754e-03
10816:-1.7768632029724785e-02
10817:-2.1995535908654801e-02
10818:-2.7396023549393234e-02
10819:-3.1453657157264989e-02
10820:-1.5740155709125642e-02
10821:-1.9484332828939657e-02
10822:-2.4266532363395151e-02
10823:-2.7860520025258278e-02
10824:-1.2947208165691950e-02
10825:-1.6026690301926445e-02
10826:-1.9957521271621866e-02
10827:-2.2913089990535183e-02
10828:-1.0689338266690154e-02
10829:-1.3231467464898875e-02
10830:-1.6474038121737800e-02
10831:-1.8913511949686743e-02
10832:-3.3586760470516612e-02
10833:-3.7498413515865081e-02
10834:-4.2421797339554576e-02
10835:-4.6063079272755499e-02
10836:-2.9750632295623768e-02
10837:-3.3215262950913260e-02
10838:-3.7574400218134067e-02
10839:-4.0798938623675125e-02
10840:-2.4468620247676053e-02
10841:-2.7317674955797063e-02
10842:-3.0899725783394460e-02
10843:-3.3550292182300746e-02
10844:-2.0198573733456925e-02
10845:-2.2549993367518947e-02
10846:-2.5503829375718306e-02
10847:-2.7690398709963933e-02
10848:-4.7956644199235073e-02
10849:-5.1392233152157955e-02
10850:-5.5643311984535974e-02
10851:-5.8729688588904400e-02
10852:-4.2476371081687045e-02
10853:-4.5518557969347770e-02
10854:-4.9281318777158370e-02
10855:-5.2013437816072011e-02
10856:-3.4930049012860842e-02
10857:-3.7430379583070675e-02
10858:-4.0520515600590404e-02
10859:-4.2764672594411315e-02
10860:-2.8829527310778973e-02
10861:-3.0891846370855965e-02
10862:-3.3438284736971281e-02
10863:-3.5288049373395199e-02
10864:-6.0313790355323998e-02
10865:-6.3149998406999988e-02
10866:-6.6583288636783602e-02
10867:-6.9014874865681961e-02
10868:-5.3416130715936705e-02
10869:-5.5926442624167252e-02
10870:-5.8963722704915088e-02
10871:-6.1114743513169749e-02
10872:-4.3917499133047398e-02
10873:-4.5978945810326598e-02
10874:-4.8470812120082057e-02
10875:-5.0235433215750282e-02
10876:-3.6238943317033458e-02
10877:-3.7937671121352511e-02
10878:-3.9988871420529232e-02
10879:-4.1441358120489741e-02
10880:-7.0240418285026668e-02
10881:-7.2394101450586251e-02
10882:-7.4918862017400306e-02
10883:-7.6639569168601832e-02
10884:-6.2199090623243233e-02
10885:-6.4103753075868825e-02
10886:-6.6335137113420387e-02
10887:-6.7855364405432481e-02
10888:-5.1125327230503288e-02
10889:-5.2687051960215656e-02
10890:-5.4514448710480605e-02
10891:-5.5758654189612906e-02
10892:-4.2174193728785669e-02
10893:-4.3458977766402604e-02
10894:-4.4960244899870487e-02
10895:-4.5981729820766960e-02
10896:-7.7481391634990585e-02
10897:-7.8914093317414641e-02
10898:-8.0497128548618388e-02
10899:-8.1494348484559401e-02
10900:-6.8599052202410984e-02
10901:-6.9863918589185170e-02
10902:-7.1259879217844810e-02
10903:-7.2138086760622430e-02
10904:-5.6367254168436208e-02
10905:-5.7401180008181021e-02
10906:-5.8539915930390853e-02
10907:-5.9254632174435107e-02
10908:-4.6481374283953117e-02
10909:-4.7329145823592898e-02
10910:-4.8260767980642466e-02
10911:-4.8844032378939202e-02
10912:-8.1950208160472021e-02
10913:-8.2665732557740110e-02
10914:-8.3327522723394110e-02
10915:-8.3628727152011612e-02
10916:-7.2539125130279783e-02
10917:-7.3167604135161213e-02
10918:-7.3746415713070668e-02
10919:-7.4007095880515267e-02
10920:-5.9580420026147468e-02
10921:-6.0089572173375308e-02
10922:-6.0554982946277355e-02
10923:-6.0760631947328725e-02
10924:-4.9109394345633710e-02
10925:-4.9522917286074164e-02
10926:-4.9897879807537390e-02
10927:-5.0060075469699469e-02
10928:-8.3717341693661212e-02
10929:-8.3757348819562358e-02
10930:-8.3564769369833009e-02
10931:-8.3230739413472268e-02
10932:-7.4082162636493226e-02
10933:-7.4111302364053444e-02
10934:-7.3932377334322882e-02
10935:-7.3629558234917805e-02
10936:-6.0817492691085683e-02
10937:-6.0832634828618129e-02
10938:-6.0673997147427945e-02
10939:-6.0415436787895523e-02
10940:-5.0102802009273570e-02
10941:-5.0107808773437221e-02
10942:-4.9967263615958400e-02
10943:-4.9745876524045017e-02
10944:-8.2987782299642529e-02
10945:-8.2424074692136931e-02
10946:-8.1480049506899688e-02
10947:-8.0596726211477093e-02
10948:-7.3410386527651417e-02
10949:-7.2904021124559557e-02
10950:-7.2058840701660035e-02
10951:-7.1268957564207813e-02
10952:-6.0229745611689083e-02
10953:-5.9803831118406876e-02
10954:-5.9096921425894552e-02
10955:-5.8437492865563011e-02
10956:-4.9588024771281158e-02
10957:-4.9228679683373688e-02
10958:-4.8635687343991395e-02
10959:-4.8083440954759409e-02
10960:-8.0070401931507662e-02
10961:-7.8996414762620509e-02
10962:-7.7428445315516584e-02
10963:-7.6097901845255403e-02
10964:-7.0798448109309589e-02
10965:-6.9839689245896980e-02
10966:-6.8441624739382409e-02
10967:-6.7255465265972841e-02
10968:-5.8044831533921773e-02
10969:-5.7246709395297052e-02
10970:-5.6085361506798145e-02
10971:-5.5100250980576311e-02
10972:-4.7754653950062440e-02
10973:-4.7088221589012290e-02
10974:-4.6120735065051127e-02
10975:-4.5300135250943084e-02
10976:-7.5344080022240967e-02
10977:-7.3865912195733172e-02
10978:-7.1814682346727471e-02
10979:-7.0146565163781288e-02
10980:-6.6583329259926646e-02
10981:-6.5266509441508719e-02
10982:-6.3440580110893804e-02
10983:-6.1955629167278932e-02
10984:-5.4541822213143007e-02
10985:-5.3449577095392359e-02
10986:-5.1937174251719467e-02
10987:-5.0707045074552745e-02
10988:-4.4834703681620958e-02
10989:-4.3926075088579028e-02
10990:-4.2669903385893694e-02
10991:-4.1647931139055114e-02
10992:-6.9224268958822374e-02
10993:-6.7452403493949931e-02
10994:-6.5061413085921754e-02
10995:-6.3165376896997277e-02
10996:-6.1134380702625953e-02
10997:-5.9557771587269437e-02
10998:-5.7431583215843865e-02
10999:-5.5745366424235297e-02
11000:-5.0026344677765955e-02
11001:-4.8721289508513697e-02
11002:-4.6963315867912310e-02
11003:-4.5568804565461959e-02
11004:-4.1082004405382011e-02
11005:-3.9998656234431017e-02
11006:-3.8541215799826660e-02
11007:-3.7384720037881271e-02
11008:-6.2132902962973247e-02
11009:-6.0175257319495981e-02
11010:-5.7582340875122338e-02
11011:-5.5561929917728535e-02
11012:-5.4826865363032891e-02
11013:-5.3086395056999497e-02
11014:-5.0782392039462755e-02
11015:-4.8986918138986250e-02
11016:-4.4808736513203745e-02
11017:-4.3370146581945573e-02
11018:-4.1467699371445371e-02
11019:-3.9984809268054637e-02
11020:-3.6753899473711008e-02
11021:-3.5561544173326597e-02
11022:-3.3986555285057021e-02
11023:-3.2758497768862929e-02
11024:-5.4473709358364701e-02
11025:-5.2430080920476574e-02
11026:-4.9760870077425294e-02
11027:-4.7709075318813118e-02
11028:-4.8019561061460284e-02
11029:-4.6203941186735195e-02
11030:-4.3833764080753575e-02
11031:-4.2011666065086273e-02
11032:-3.9185386403411897e-02
11033:-3.7686536324462235e-02
11034:-3.5731729588865051e-02
11035:-3.4228630687299214e-02
11036:-3.2095954405447873e-02
11037:-3.0855250891284061e-02
11038:-2.9238856491019961e-02
11039:-2.7995586976013644e-02
11040:-4.6613510753365471e-02
11041:-4.4571828538169912e-02
11042:-4.1935402702832122e-02
11043:-3.9931694255330948e-02
11044:-4.1038466660812178e-02
11045:-3.9225776008417319e-02
11046:-3.6886209728232651e-02
11047:-3.5107999463854435e-02
11048:-3.3425348733889339e-02
11049:-3.1930605905669401e-02
11050:-3.0003149702899200e-02
11051:-2.8537920367800975e-02
11052:-2.7330681570092181e-02
11053:-2.6094825415956729e-02
11054:-2.4502839228012784e-02
11055:-2.3292313146845302e-02
11056:-3.8869697977190719e-02
11057:-3.6903575133146356e-02
11058:-3.4389871196146650e-02
11059:-3.2498681101219701e-02
11060:-3.4165271985876829e-02
11061:-3.2420828299911483e-02
11062:-3.0191627837701133e-02
11063:-2.8514415054195615e-02
11064:-2.7760707186496942e-02
11065:-2.6323847666846312e-02
11066:-2.4489310194707351e-02
11067:-2.3108861419218790e-02
11068:-2.2649767729932060e-02
11069:-2.1463118834856618e-02
11070:-1.9949535570736362e-02
11071:-1.8810358948363727e-02
11072:-3.1503028604220308e-02
11073:-2.9670749630512003e-02
11074:-2.7349588388859772e-02
11075:-2.5619808824461476e-02
11076:-2.7631200736303773e-02
11077:-2.6006599286271657e-02
11078:-2.3949497276586483e-02
11079:-2.2416478608183930e-02
11080:-2.2381565161463491e-02
11081:-2.1044909697850816e-02
11082:-1.9353850104585481e-02
11083:-1.8093526705270310e-02
11084:-1.8209802737481420e-02
11085:-1.7107163361827334e-02
11086:-1.5713503308003068e-02
11087:-1.4674672501353332e-02
11088:-2.4714953886836272e-02
11089:-2.3059321111225061e-02
11090:-2.0980588650840775e-02
11091:-1.9445997086904875e-02
11092:-2.1614377940977727e-02
11093:-2.0147395628386522e-02
11094:-1.8306343289697151e-02
11095:-1.6947205373284122e-02
11096:-1.7433815243489227e-02
11097:-1.6228211134738733e-02
11098:-1.4716406972953268e-02
11099:-1.3600285944619020e-02
11100:-1.4130591718628538e-02
11101:-1.3137206864812628e-02
11102:-1.1892662390764676e-02
11103:-1.0973765892988929e-02
11104:-1.8648393930258772e-02
11105:-1.7197443567059802e-02
11106:-1.5392246959362086e-02
11107:-1.4072577141853396e-02
11108:-1.6240649712059761e-02
11109:-1.4955825373882610e-02
11110:-1.3357950207851620e-02
11111:-1.2189820468630461e-02
11112:-1.3019831053468376e-02
11113:-1.1965074092351945e-02
11114:-1.0654295068399478e-02
11115:-9.6960106822524764e-03
11116:-1.0495639184525354e-02
11117:-9.6275513577500724e-03
11118:-8.5496689929488619e-03
11119:-7.7615884556706026e-03
11120:-1.3391322301842878e-02
11121:-1.2159676155455516e-02
11122:-1.0642373931274813e-02
11123:-9.5450539108178790e-03
11124:-1.1586672855525896e-02
11125:-1.0496584566086901e-02
11126:-9.1540809795601502e-03
11127:-8.1830902611292472e-03
11128:-9.2010234463421638e-03
11129:-8.3069619726148236e-03
11130:-7.2065484179634652e-03
11131:-6.4105721719664582e-03
11132:-7.3543224842197320e-03
11133:-6.6192394166410071e-03
11134:-5.7151730540372188e-03
11135:-5.0611709774677520e-03
11136:-8.9828721056772025e-03
11137:-7.9737497276949065e-03
11138:-6.7449995898029068e-03
11139:-5.8678991720539503e-03
11140:-7.6855068292193034e-03
11141:-6.7925568390188266e-03
11142:-5.7054867653881861e-03
11143:-4.9293860928695706e-03
11144:-6.0025079036966191e-03
11145:-5.2705643984710358e-03
11146:-4.3798842141371929e-03
11147:-3.7438147682307046e-03
11148:-4.7257406991191402e-03
11149:-4.1244365261997474e-03
11150:-3.3931066000519139e-03
11151:-2.8706622709728630e-03
11152:-5.4227735488118897e-03
11153:-4.6312679857718900e-03
11154:-3.6826725860527498e-03
11155:-3.0179211184850163e-03
11156:-4.5354007140188798e-03
11157:-3.8350092478614439e-03
11158:-2.9958771977042866e-03
11159:-2.4078655375331954e-03
11160:-3.4207435281707718e-03
11161:-2.8466764099447863e-03
11162:-2.1592482767696874e-03
11163:-1.6775288231351655e-03
11164:-2.6051337763955003e-03
11165:-2.1335472551724964e-03
11166:-1.5691252531884478e-03
11167:-1.1735304860321181e-03
11168:-2.6852255288992784e-03
11169:-2.1027744247218800e-03
11170:-1.4238205057207308e-03
11171:-9.6408943751053464e-04
11172:-2.1135620856450334e-03
11173:-1.5987835231867534e-03
11174:-9.9969731326865290e-04
11175:-5.9479996906208743e-04
11176:-1.4363685285448816e-03
11177:-1.0150501571474207e-03
11178:-5.2571775619695996e-04
11179:-1.9563892606013546e-04
11180:-9.7539944179353009e-04
11181:-6.2958869041018545e-04
11182:-2.2850656855587901e-04
11183:4.1821225404990413e-05
11184:-7.4027943025594236e-04
11185:-3.6166985026491030e-04
11186:5.1043502211597862e-05
11187:3.0534639439412669e-04
11188:-3.9800814012021685e-04
11189:-6.6691581379963705e-05
11190:2.9044427158213509e-04
11191:5.0645931233615933e-04
11192:-3.5474565765003551e-05
11193:2.3235394810972937e-04
11194:5.1632793151766380e-04
11195:6.8326507047583877e-04
11196:1.7292172245521957e-04
11197:3.9094850721098563e-04
11198:6.1887076072166349e-04
11199:7.4943618968205524e-04
11200:4.1877141358025708e-04
11201:5.8663501523794422e-04
11202:7.1591014176218873e-04
11203:7.4548337924151885e-04
11204:6.0089965118489453e-04
11205:7.3580049852824776e-04
11206:8.2704416625024781e-04
11207:8.3103375707492110e-04
11208:7.5392512249569579e-04
11209:8.4870918845406063e-04
11210:8.9554022114345436e-04
11211:8.7067739851217827e-04
11212:8.0297602109740589e-04
11213:8.6963695242453206e-04
11214:8.8640805998749901e-04
11215:8.4247464480738713e-04
11216:7.3558688823092738e-04
11217:6.5292468149746299e-04
11218:4.0851684011681633e-04
11219:1.0937351378785605e-04
11220:8.0871507104844772e-04
11221:7.0518151648497906e-04
11222:4.3748941065167157e-04
11223:1.2269174731869621e-04
11224:8.3475190021692857e-04
11225:7.1234053212279570e-04
11226:4.3390300555886903e-04
11227:1.2160821753463042e-04
11228:7.9776654383756178e-04
11229:6.6691919727454401e-04
11230:3.9546870723264669e-04
11231:1.0330181835428091e-04
11232:-6.1507646039134602e-04
11233:-2.9387478030963327e-03
11234:-5.9384740599355895e-03
11235:-8.2255956412989883e-03
11236:-4.5480614908946190e-04
11237:-2.1774561887363490e-03
11238:-4.3969344843914652e-03
11239:-6.0910007925661326e-03
11240:-2.3129524121382080e-04
11241:-1.1150145453287011e-03
11242:-2.2456021819255980e-03
11243:-3.1122179547802601e-03
11244:-4.8643690839838455e-05
11245:-2.4572512800812593e-04
11246:-4.8530155063983933e-04
11247:-6.7501884054579561e-04
11248:-9.4418219965729279e-03
11249:-1.1687067849473612e-02
11250:-1.4549388411201817e-02
11251:-1.6703740443476615e-02
11252:-6.9935758826962097e-03
11253:-8.6563360308953962e-03
11254:-1.0772698140050239e-02
11255:-1.2367808685065804e-02
11256:-3.5772546483390190e-03
11257:-4.4275505133144905e-03
11258:-5.5036557520785987e-03
11259:-6.3191123652716098e-03
11260:-7.8219456943722974e-04
11261:-9.6806468694855764e-04
11262:-1.1936481866742575e-03
11263:-1.3718325346934828e-03
11264:-1.7839383741282994e-02
11265:-1.9915893278625561e-02
11266:-2.2522701067902960e-02
11267:-2.4452980095324799e-02
11268:-1.3210423714547575e-02
11269:-1.4747887281786295e-02
11270:-1.6674443300381571e-02
11271:-1.8102527326464082e-02
11272:-6.7533033903053909e-03
11273:-7.5396442247815899e-03
11274:-8.5187783241082171e-03
11275:-9.2478479520742563e-03
11276:-1.4722610069755023e-03
11277:-1.6449538871196416e-03
11278:-1.8504417914710824e-03
11279:-2.0090403036941420e-03
11280:-2.5459207588823338e-02
11281:-2.7279622585489341e-02
11282:-2.9525821077929958e-02
11283:-3.1157827370996462e-02
11284:-1.8848416016820014e-02
11285:-2.0195107305170910e-02
11286:-2.1853627794789471e-02
11287:-2.3059638098727020e-02
11288:-9.6315356997452462e-03
11289:-1.0319473568823071e-02
11290:-1.1161434380784572e-02
11291:-1.1776073982540391e-02
11292:-2.0972654861440838e-03
11293:-2.2480973971735047e-03
11294:-2.4248302377792427e-03
11295:-2.5581382268323482e-03
11296:-3.1997240974930882e-02
11297:-3.3495750747401659e-02
11298:-3.5303761580622761e-02
11299:-3.6584036024011668e-02
11300:-2.3681055181771559e-02
11301:-2.4788221148759705e-02
11302:-2.6121271262993673e-02
11303:-2.7065527676795074e-02
11304:-1.2095070360424259e-02
11305:-1.2659735870672687e-02
11306:-1.3335217606285855e-02
11307:-1.3814989571452694e-02
11308:-2.6311534040581873e-03
11309:-2.7548915191343008e-03
11310:-2.8966135146883338e-03
11311:-2.9999425650998409e-03
11312:-3.7230235877694202e-02
11313:-3.8362293232195720e-02
11314:-3.9683789548446619e-02
11315:-4.0582577810386322e-02
11316:-2.7542812389104200e-02
11317:-2.8377354211665339e-02
11318:-2.9349176873036335e-02
11319:-3.0009738726459460e-02
11320:-1.4059064962114275e-02
11321:-1.4483419710505187e-02
11322:-1.4974306423504630e-02
11323:-1.5308173765446936e-02
11324:-3.0552439133080698e-03
11325:-3.1480262668597543e-03
11326:-3.2510851919959724e-03
11327:-3.3222799562876828e-03
11328:-4.1022228419648109e-02
11329:-4.1767560167889031e-02
11330:-4.2585336343361820e-02
11331:-4.3096453935243362e-02
11332:-3.0333073802625000e-02
11333:-3.0880132703927185e-02
11334:-3.1478269836933116e-02
11335:-3.1850822842484978e-02
11336:-1.5472371668652082e-02
11337:-1.5748915663148521e-02
11338:-1.6048982333253376e-02
11339:-1.6234903735575745e-02
11340:-3.3588300311770958e-03
11341:-3.4190023064046976e-03
11342:-3.4819676068449865e-03
11343:-3.5206016296308595e-03
11344:-4.3328697146058207e-02
11345:-4.3689913099021795e-02
11346:-4.4015644647275143e-02
11347:-4.4154437169156659e-02
11348:-3.2019722995367428e-02
11349:-3.2281471639313913e-02
11350:-3.2514882083392566e-02
11351:-3.2611117443180300e-02
11352:-1.6319087735011110e-02
11353:-1.6449096246708123e-02
11354:-1.6563155654606039e-02
11355:-1.6607420004572902e-02
11356:-3.5384287583879173e-03
11357:-3.5663136754455894e-03
11358:-3.5902979778249717e-03
11359:-3.5979534004189169e-03
11360:-4.4189688924439058e-02
11361:-4.4189749717396073e-02
11362:-4.4060099401820131e-02
11363:-4.3859967701997495e-02
11364:-3.2633517343445072e-02
11365:-3.2627317325720016e-02
11366:-3.2523589164062283e-02
11367:-3.2368663530564015e-02
11368:-1.6615875529039193e-02
11369:-1.6608483543391370e-02
11370:-1.6550839780295236e-02
11371:-1.6466602306316368e-02
11372:-3.5981776888791123e-03
11373:-3.5958094308017577e-03
11374:-3.5837366459566273e-03
11375:-3.5633644155100342e-03
11376:-4.3717887973835419e-02
11377:-4.3396077842880861e-02
11378:-4.2867046860075905e-02
11379:-4.2374821906524841e-02
11380:-3.2259395619164993e-02
11381:-3.2014736669208177e-02
11382:-3.1615758072127353e-02
11383:-3.1244753598198633e-02
11384:-1.6407165404971061e-02
11385:-1.6277729364371104e-02
11386:-1.6070001541654420e-02
11387:-1.5875522650663259e-02
11388:-3.5479028531608409e-03
11389:-3.5187178742407486e-03
11390:-3.4751641262418878e-03
11391:-3.4309058141689264e-03
11392:-4.2081758620969995e-02
11393:-4.1488911293531751e-02
11394:-4.0629632841999795e-02
11395:-3.9900778298840832e-02
11396:-3.1023603569353270e-02
11397:-3.0578515073253959e-02
11398:-2.9935861794112777e-02
11399:-2.9390226238061465e-02
11400:-1.5758595737121177e-02
11401:-1.5526850755314549e-02
11402:-1.5195554723816507e-02
11403:-1.4912294760532149e-02
11404:-3.4022909882918690e-03
11405:-3.3506983350268423e-03
11406:-3.2812189837299987e-03
11407:-3.2178404267979785e-03
11408:-3.9487184401488656e-02
11409:-3.8680867154524859e-02
11410:-3.7567393502975423e-02
11411:-3.6661289163470175e-02
11412:-2.9080009982209023e-02
11413:-2.8477488383795477e-02
11414:-2.7647816165118910e-02
11415:-2.6971836753392511e-02
11416:-1.4749808462579775e-02
11417:-1.4437993219105157e-02
11418:-1.4012190068018257e-02
11419:-1.3663010038696152e-02
11420:-3.1789183971292359e-03
11421:-3.1098439147131643e-03
11422:-3.0205179998483429e-03
11423:-2.9430719206937619e-03
11424:-3.6159229807531508e-02
11425:-3.5199223434155262e-02
11426:-3.3908921374990471e-02
11427:-3.2884752819367521e-02
11428:-2.6596518970388033e-02
11429:-2.5881101173068924e-02
11430:-2.4921897831224032e-02
11431:-2.4159611819463567e-02
11432:-1.3467450324970591e-02
11433:-1.3098540715256410e-02
11434:-1.2607653793330328e-02
11435:-1.2215220988085258e-02
11436:-2.8968043414891315e-03
11437:-2.8153612967525008e-03
11438:-2.7123954868550249e-03
11439:-2.6258791902707469e-03
11440:-3.2325773979843257e-02
11441:-3.1270262242206713e-02
11442:-2.9877205591408232e-02
11443:-2.8790688883214337e-02
11444:-2.3742722265034089e-02
11445:-2.2957703150180222e-02
11446:-2.1923963637065145e-02
11447:-2.1116767298869337e-02
11448:-1.1998807187451947e-02
11449:-1.1595083178493913e-02
11450:-1.1067192582318692e-02
11451:-1.0652740273323419e-02
11452:-2.5751313858202764e-03
11453:-2.4862218737428279e-03
11454:-2.3754655561525825e-03
11455:-2.2844978380860189e-03
11456:-2.8204156850803772e-02
11457:-2.7106780978575568e-02
11458:-2.5678231166167603e-02
11459:-2.4579150266283687e-02
11460:-2.0680160973091152e-02
11461:-1.9865351634635622e-02
11462:-1.8806870025499568e-02
11463:-1.7991650059750730e-02
11464:-1.0426773330095928e-02
11465:-1.0008659876740635e-02
11466:-9.4691375666586097e-03
11467:-9.0515411554194288e-03
11468:-2.2318937577883256e-03
11469:-2.1400338310313622e-03
11470:-2.0268521621458003e-03
11471:-1.9355607121220480e-03
11472:-2.3991022088415363e-02
11473:-2.2898783104586786e-02
11474:-2.1492850020719993e-02
11475:-2.0423544983655555e-02
11476:-1.7554599609892692e-02
11477:-1.6744829764511859e-02
11478:-1.5704576534090582e-02
11479:-1.4912646102669382e-02
11480:-8.8259579219265669e-03
11481:-8.4112793113191326e-03
11482:-7.8819555757069677e-03
11483:-7.4771638014373516e-03
11484:-1.8833901368646056e-03
11485:-1.7924772777506085e-03
11486:-1.6814128991397279e-03
11487:-1.5932191079135846e-03
11488:-1.9855652560001508e-02
11489:-1.8807683179711175e-02
11490:-1.7471942924367122e-02
11491:-1.6466422783543329e-02
11492:-1.4491314832159175e-02
11493:-1.3715487157351694e-02
11494:-1.2728513051597017e-02
11495:-1.1984930310609413e-02
11496:-7.2602487510393370e-03
11497:-6.8637305139766583e-03
11498:-6.3623591706992678e-03
11499:-5.9830972019034286e-03
11500:-1.5433608433795285e-03
11501:-1.4566200107140868e-03
11502:-1.3514283052528547e-03
11503:-1.2690871444926966e-03
11504:-1.5936064335606979e-02
11505:-1.4963016628877611e-02
11506:-1.3734003249233243e-02
11507:-1.2817761514161320e-02
11508:-1.1592081798989625e-02
11509:-1.0872774014630795e-02
11510:-9.9659175688253873e-03
11511:-9.2893771744733226e-03
11512:-5.7813696987311205e-03
11513:-5.4144764724729276e-03
11514:-4.9545818458010685e-03
11515:-4.6102506166185034e-03
11516:-1.2230126520173900e-03
11517:-1.1429360077569557e-03
11518:-1.0464320315484556e-03
11519:-9.7191553483416465e-04
11520:-1.2337666781629385e-02
11521:-1.1461697131538306e-02
11522:-1.0364985996288266e-02
11523:-9.5551603574290725e-03
11524:-8.9343395268064330e-03
11525:-8.2877512408709719e-03
11526:-7.4796559615384148e-03
11527:-6.8826274625232008e-03
11528:-4.4284106397019640e-03
11529:-4.0992799282299659e-03
11530:-3.6901909046960723e-03
11531:-3.3870250539549721e-03
11532:-9.3064625762380600e-04
11533:-8.5898735996231838e-04
11534:-7.7315506820571970e-04
11535:-7.0779327797394201e-04
11536:-9.1336167453278487e-03
11537:-8.3687329637284428e-03
11538:-7.4195839050890692e-03
11539:-6.7255643123773643e-03
11540:-6.5714272811928766e-03
11541:-6.0077099703628742e-03
11542:-5.3093250936086410e-03
11543:-4.7984204077630918e-03
11544:-3.2280892069638887e-03
11545:-2.9417650384742050e-03
11546:-2.5888138418509090e-03
11547:-2.3299172949532839e-03
11548:-6.7198011187153989e-04
11549:-6.0980482740953165e-04
11550:-5.3571082949509686e-04
11551:-4.8006587393169703e-04
11552:-6.3667706455562932e-03
11553:-5.7195287478893535e-03
11554:-4.9239468327507054e-03
11555:-4.3483901689728120e-03
11556:-4.5339571127756178e-03
11557:-4.0576051094012586e-03
11558:-3.4729704537523783e-03
11559:-3.0498739341691550e-03
11560:-2.1951990817326559e-03
11561:-1.9537563362221153e-03
11562:-1.6588262998735066e-03
11563:-1.4449058042552310e-03
11564:-4.4993010403589836e-04
11565:-3.9771391517209913e-04
11566:-3.3590297061771165e-04
11567:-2.9011069980808317e-04
11568:-4.0530948540033855e-03
11569:-3.5239725887491078e-03
11570:-2.8806802140202061e-03
11571:-2.4210084949657582e-03
11572:-2.8325544683758044e-03
11573:-2.4436195902608000e-03
11574:-1.9712623293298395e-03
11575:-1.6334870293959940e-03
11576:-1.3344972317617114e-03
11577:-1.1376756845492026e-03
11578:-8.9950313398340733e-04
11579:-7.2878692201571631e-04
11580:-2.6556686288059891e-04
11581:-2.2298006285933168e-04
11582:-1.7279689775788874e-04
11583:-1.3624978436035218e-04
11584:-2.1872693177017529e-03
11585:-1.7722892447766473e-03
11586:-1.2757866438675197e-03
11587:-9.2772160182877741e-04
11588:-1.4614999212344056e-03
11589:-1.1565049942484885e-03
11590:-7.9196307110285453e-04
11591:-5.3619136998969165e-04
11592:-6.4148349875841324e-04
11593:-4.8736314087235327e-04
11594:-3.0381612809943985e-04
11595:-1.7451273666599913e-04
11596:-1.1700302925615996e-04
11597:-8.4159281471448327e-05
11598:-4.6059370947174460e-05
11599:-1.8279511578254567e-05
11600:-7.5332432315133131e-04
11601:-4.4910192427703461e-04
11602:-9.6481917220064007e-05
11603:1.4116995053749240e-04
11604:-4.0784366184238463e-04
11605:-1.8420455007045242e-04
11606:7.4681527247714183e-05
11607:2.4921532688754753e-04
11608:-1.0918968533816216e-04
11609:4.3145503130969673e-06
11610:1.3526871234580736e-04
11611:2.2367322719021618e-04
11612:-3.4901297801311439e-06
11613:2.1769840297415178e-05
11614:5.0232979745766114e-05
11615:6.9548719202862540e-05
11616:2.5643939385239348e-04
11617:4.4756713134788337e-04
11618:6.4577707106669511e-04
11619:7.5761022929273717e-04
11620:3.3393075276346140e-04
11621:4.7349341711227784e-04
11622:6.1614083043472852e-04
11623:6.9474529710257386e-04
11624:2.6668285263837068e-04
11625:3.3641604607133660e-04
11626:4.0635472695249646e-04
11627:4.4497440971541578e-04
11628:7.9054354357754774e-05
11629:9.3009280500418360e-05
11630:1.0653707308881708e-04
11631:1.1660016413152112e-04
11632:8.0256606493897672e-04
11633:8.5543013621268221e-04
11634:8.5790875987533518e-04
11635:8.0514175002507785e-04
11636:7.2539460780084533e-04
11637:7.5713145148791864e-04
11638:7.4191944673366391e-04
11639:6.8203695852766524e-04
11640:4.6035304259934131e-04
11641:4.7431650057403840e-04
11642:4.5612295304566918e-04
11643:4.0852212111367327e-04
11644:1.2260685508241255e-04
11645:1.3040096008591623e-04
11646:1.2624942720091344e-04
11647:1.0605539878997016e-04
11648:7.5648907488703662e-04
11649:6.2371712932585187e-04
11650:3.6209386341995393e-04
11651:8.7602793031497247e-05
11652:6.3204435520839949e-04
11653:5.0987234045170022e-04
11654:2.8832541072212317e-04
11655:6.3453463617154830e-05
11656:3.7059075795571156e-04
11657:2.9093819558511090e-04
11658:1.5839703442638902e-04
11659:2.0368183415079174e-05
11660:8.8837483531721624e-05
11661:6.2684587581069546e-05
11662:1.9118693507139735e-05
11663:-4.5649942826125572e-05
11664:-1.4954470194825373e+00
11665:-9.1448356641229811e-01
11666:3.9222204333654814e-01
11667:1.1267225644811203e+00
11668:-5.1688971484979493e+00
11669:-2.6149533118165449e+00
11670:-9.0927429287951445e-01
11671:-3.5599764818296264e-01
11672:-7.4132608269390632e+00
11673:-4.3433019260549255e+00
11674:-2.8503571393870364e+00
11675:-2.6379710629726003e+00
11676:-6.1602622853078035e+00
11677:-5.4677744108413320e+00
11678:-4.8603963554115213e+00
11679:-4.3503253025247473e+00
11680:1.2903385368268272e+00
11681:1.1509243845241290e+00
11682:5.7048070494948555e-01
11683:1.4153477020666574e-01
11684:-2.2752969710602197e-01
11685:-8.6479903956938470e-02
11686:7.1304804638763503e-03
11687:5.9278025903391408e-02
11688:-2.6400035850637349e+00
11689:-2.3130837811702092e+00
11690:-1.3514147120565696e+00
11691:-3.4595988169622105e-01
11692:-4.0089869647610801e+00
11693:-3.1763731813718725e+00
11694:-1.7542944517247396e+00
11695:-4.4016651121218603e-01
11696:-4.7462029333686333e+00
11697:-5.9653848929329163e+00
11698:-5.8724493413598209e+00
11699:-4.9537458712032096e+00
11700:-1.7707499821311812e+00
11701:-5.7937581426019209e+00
11702:-6.7316627227047610e+00
11703:-5.3900427932164128e+00
11704:3.9506942176804305e-01
11705:-3.1454845381918246e+00
11706:-4.6831388995078473e+00
11707:-4.0719630522711503e+00
11708:6.6003551808794336e-01
11709:1.2658525723321820e-01
11710:-1.4960138644491916e+00
11711:-2.2299430810819274e+00
11712:-4.2719289416277757e+00
11713:-3.0750512159888266e+00
11714:-1.5864631385384518e+00
11715:-3.8361514730100710e-01
11716:-4.2481591938905563e+00
11717:-2.5645338311744608e+00
11718:-1.1038545638682202e+00
11719:-2.7377722314128300e-01
11720:-3.2782080365517765e+00
11721:-1.9906403423513659e+00
11722:-8.3272183417026557e-01
11723:-2.8671037134754213e-01
11724:-2.2226737977599620e+00
11725:-1.7050321113036941e+00
11726:-7.2947890178399211e-01
11727:-1.7366389706015134e-01
